x	y	stress_xx
 1.0000000000e+000	 0.0000000000e+000	 1.4819561444e+000
 9.9996079486e-001	 8.8548710816e-003	 1.4826810403e+000
 9.9984261196e-001	 1.7741231999e-002	 1.4878307769e+000
 9.9964460724e-001	 2.6658192499e-002	 1.4974489131e+000
 9.9936594664e-001	 3.5604840910e-002	 1.5115746698e+000
 9.9900580671e-001	 4.4580244178e-002	 1.5302427770e+000
 9.9856337512e-001	 5.3583447921e-002	 1.5534833219e+000
 9.9803785128e-001	 6.2613476500e-002	 1.5813215983e+000
 9.9742844692e-001	 7.1669333105e-002	 1.6137779588e+000
 9.9673438666e-001	 8.0749999857e-002	 1.6508676676e+000
 9.9595490863e-001	 8.9854437932e-002	 1.6926007574e+000
 1.0250000000e+000	 0.0000000000e+000	 1.3944895373e+000
 1.0249598147e+000	 9.0762428582e-003	 1.3963726467e+000
 1.0248386773e+000	 1.8184762798e-002	 1.4016559432e+000
 1.0246357224e+000	 2.7324647310e-002	 1.4103697927e+000
 1.0243500953e+000	 3.6494961931e-002	 1.4225407582e+000
 1.0239809519e+000	 4.5694750280e-002	 1.4381914706e+000
 1.0235274595e+000	 5.4923034116e-002	 1.4573405026e+000
 1.0229887976e+000	 6.4178813409e-002	 1.4800022425e+000
 1.0223641581e+000	 7.3461066429e-002	 1.5061867706e+000
 1.0216527463e+000	 8.2768749849e-002	 1.5358997378e+000
 1.0208537813e+000	 9.2100798875e-002	 1.5691422459e+000
 1.0500000000e+000	 0.0000000000e+000	 1.3998912723e+000
 1.0499588346e+000	 9.2976146348e-003	 1.4027955088e+000
 1.0498347426e+000	 1.8628293597e-002	 1.4081259297e+000
 1.0496268376e+000	 2.7991102121e-002	 1.4159002576e+000
 1.0493342440e+000	 3.7385082952e-002	 1.4261329283e+000
 1.0489560970e+000	 4.6809256382e-002	 1.4388349863e+000
 1.0484915439e+000	 5.6262620311e-002	 1.4540139819e+000
 1.0479397438e+000	 6.5744150319e-002	 1.4716738693e+000
 1.0472998693e+000	 7.5252799753e-002	 1.4918149076e+000
 1.0465711060e+000	 8.4787499842e-002	 1.5144335624e+000
 1.0457526541e+000	 9.4347159819e-002	 1.5395224103e+000
 1.0750000000e+000	 0.0000000000e+000	 1.4916287183e+000
 1.0749578545e+000	 9.5189864113e-003	 1.4954339970e+000
 1.0748308079e+000	 1.9071824396e-002	 1.5007385213e+000
 1.0746179528e+000	 2.8657556932e-002	 1.5075478751e+000
 1.0743183926e+000	 3.8275203973e-002	 1.5158648545e+000
 1.0739312422e+000	 4.7923762484e-002	 1.5256893872e+000
 1.0734556282e+000	 5.7602206507e-002	 1.5370184520e+000
 1.0728906901e+000	 6.7309487228e-002	 1.5498460017e+000
 1.0722355804e+000	 7.7044533077e-002	 1.5641628857e+000
 1.0714894657e+000	 8.6806249835e-002	 1.5799567763e+000
 1.0706515268e+000	 9.6593520764e-002	 1.5972120955e+000
 1.1000000000e+000	 0.0000000000e+000	 1.6637631199e+000
 1.0999568743e+000	 9.7403581879e-003	 1.6683651404e+000
 1.0998268732e+000	 1.9515355195e-002	 1.6735832700e+000
 1.0996090680e+000	 2.9324011743e-002	 1.6794114172e+000
 1.0993025413e+000	 3.9165324994e-002	 1.6858411862e+000
 1.0989063874e+000	 4.9038268587e-002	 1.6928618180e+000
 1.0984197126e+000	 5.8941792703e-002	 1.7004601344e+000
 1.0978416364e+000	 6.8874824138e-002	 1.7086204817e+000
 1.0971712916e+000	 7.8836266402e-002	 1.7173246775e+000
 1.0964078253e+000	 8.8824999828e-002	 1.7265519583e+000
 1.0955503995e+000	 9.8839881709e-002	 1.7362789299e+000
 1.1250000000e+000	 0.0000000000e+000	 1.9108836109e+000
 1.1249558942e+000	 9.9617299645e-003	 1.9161927756e+000
 1.1248229385e+000	 1.9958885994e-002	 1.9212757428e+000
 1.1246001831e+000	 2.9990466555e-002	 1.9261151712e+000
 1.1242866900e+000	 4.0055446015e-002	 1.9306918835e+000
 1.1238815325e+000	 5.0152774689e-002	 1.9349848300e+000
 1.1233837970e+000	 6.0281378898e-002	 1.9389710540e+000
 1.1227925827e+000	 7.0440161048e-002	 1.9426256579e+000
 1.1221070028e+000	 8.0627999727e-002	 1.9459217724e+000
 1.1213261850e+000	 9.0843749822e-002	 1.9488305258e+000
 1.1204492722e+000	 1.0108624265e-001	 1.9513210164e+000
 1.1500000000e+000	 0.0000000000e+000	 2.2280498353e+000
 1.1499549141e+000	 1.0183101741e-002	 2.2339902855e+000
 1.1498190038e+000	 2.0402416793e-002	 2.2389003463e+000
 1.1495912983e+000	 3.0656921366e-002	 2.2427518178e+000
 1.1492708386e+000	 4.0945567036e-002	 2.2455151187e+000
 1.1488566777e+000	 5.1267280792e-002	 2.2471592709e+000
 1.1483478814e+000	 6.1620965094e-002	 2.2476518864e+000
 1.1477435290e+000	 7.2005497959e-002	 2.2469591558e+000
 1.1470427139e+000	 8.2419733053e-002	 2.2450458384e+000
 1.1462445446e+000	 9.2862499816e-002	 2.2418752530e+000
 1.1453481449e+000	 1.0333260360e-001	 2.2374092721e+000
 1.1750000000e+000	 0.0000000000e+000	 2.6107418930e+000
 1.1749539340e+000	 1.0404473518e-002	 2.6172506470e+000
 1.1748150691e+000	 2.0845947592e-002	 2.6219604500e+000
 1.1745824135e+000	 3.1323376177e-002	 2.6248326031e+000
 1.1742549873e+000	 4.1835688057e-002	 2.6258274665e+000
 1.1738318229e+000	 5.2381786895e-002	 2.6249044663e+000
 1.1733119658e+000	 6.2960551291e-002	 2.6220221018e+000
 1.1726944752e+000	 7.3570834869e-002	 2.6171379552e+000
 1.1719784251e+000	 8.4211466378e-002	 2.6102087024e+000
 1.1711629043e+000	 9.4881249811e-002	 2.6011901259e+000
 1.1702470176e+000	 1.0557896455e-001	 2.5900371286e+000
 1.2000000000e+000	 0.0000000000e+000	 3.0548165422e+000
 1.1999529538e+000	 1.0625845294e-002	 3.0618427237e+000
 1.1998111344e+000	 2.1289478391e-002	 3.0663347447e+000
 1.1995735287e+000	 3.1989830989e-002	 3.0682437369e+000
 1.1992391360e+000	 4.2725809079e-002	 3.0675203200e+000
 1.1988069680e+000	 5.3496292997e-002	 3.0641146286e+000
 1.1982760501e+000	 6.4300137487e-002	 3.0579763406e+000
 1.1976454215e+000	 7.5136171780e-002	 3.0490547071e+000
 1.1969141363e+000	 8.6003199704e-002	 3.0372985843e+000
 1.1960812640e+000	 9.6899999806e-002	 3.0226564664e+000
 1.1951458903e+000	 1.0782532549e-001	 3.0050765204e+000
 1.2250000000e+000	 0.0000000000e+000	 3.5564687647e+000
 1.2249519737e+000	 1.0847217071e-002	 3.5639729100e+000
 1.2248071996e+000	 2.1733009191e-002	 3.5682389439e+000
 1.2245646439e+000	 3.2656285800e-002	 3.5692081320e+000
 1.2242232846e+000	 4.3615930100e-002	 3.5668216442e+000
 1.2237821132e+000	 5.4610799100e-002	 3.5610206028e+000
 1.2232401345e+000	 6.5639723683e-002	 3.5517461303e+000
 1.2225963678e+000	 7.6701508691e-002	 3.5389394003e+000
 1.2218498475e+000	 8.7794933031e-002	 3.5225416890e+000
 1.2209996236e+000	 9.8918749801e-002	 3.5024944286e+000
 1.2200447631e+000	 1.1007168644e-001	 3.4787392621e+000
 1.2500000000e+000	 0.0000000000e+000	 4.1121979440e+000
 1.2499509936e+000	 1.1068588847e-002	 4.1201513777e+000
 1.2498032649e+000	 2.2176539990e-002	 4.1241920820e+000
 1.2495557590e+000	 3.3322740611e-002	 4.1242517333e+000
 1.2492074333e+000	 4.4506051122e-002	 4.1202623188e+000
 1.2487572584e+000	 5.5725305204e-002	 4.1121562032e+000
 1.2482042189e+000	 6.6979309880e-002	 4.0998661971e+000
 1.2475473141e+000	 7.8266845602e-002	 4.0833256273e+000
 1.2467855586e+000	 8.9586666357e-002	 4.0624684084e+000
 1.2459179833e+000	 1.0093749980e-001	 4.0372291157e+000
 1.2449436358e+000	 1.1231804739e-001	 4.0075430602e+000
 9.9595490863e-001	 8.9854437932e-002	 1.6926007574e+000
 9.9508926501e-001	 9.8981587693e-002	 1.7378069716e+000
 9.9413672268e-001	 1.0813036885e-001	 1.7863576263e+000
 9.9309656377e-001	 1.1729968064e-001	 1.8382809389e+000
 9.9196808628e-001	 1.2648840201e-001	 1.8936011371e+000
 9.9075060469e-001	 1.3569539180e-001	 1.9523383354e+000
 9.8944345050e-001	 1.4491948905e-001	 2.0145084137e+000
 9.8804597288e-001	 1.5415951315e-001	 2.0801228975e+000
 9.8655753926e-001	 1.6341426419e-001	 2.1491888411e+000
 9.8497753588e-001	 1.7268252319e-001	 2.2217087142e+000
 9.8330536841e-001	 1.8196305243e-001	 2.2976802903e+000
 1.0208537813e+000	 9.2100798875e-002	 1.5691422459e+000
 1.0199664966e+000	 1.0145612738e-001	 1.6090408645e+000
 1.0189901407e+000	 1.1083362807e-001	 1.6513500171e+000
 1.0179239779e+000	 1.2023217266e-001	 1.6960873422e+000
 1.0167672884e+000	 1.2965061205e-001	 1.7432670521e+000
 1.0155193698e+000	 1.3908777659e-001	 1.7928998313e+000
 1.0141795368e+000	 1.4854247627e-001	 1.8449927374e+000
 1.0127471222e+000	 1.5801350098e-001	 1.8995491038e+000
 1.0112214777e+000	 1.6749962079e-001	 1.9565684448e+000
 1.0096019743e+000	 1.7699958627e-001	 2.0160463631e+000
 1.0078880026e+000	 1.8651212874e-001	 2.0779744604e+000
 1.0457526541e+000	 9.4347159819e-002	 1.5395224103e+000
 1.0448437283e+000	 1.0393066707e-001	 1.5739350370e+000
 1.0438435588e+000	 1.1353688729e-001	 1.6098689442e+000
 1.0427513919e+000	 1.2316466467e-001	 1.6473316521e+000
 1.0415664906e+000	 1.3281282210e-001	 1.6863277999e+000
 1.0402881349e+000	 1.4248016138e-001	 1.7268590663e+000
 1.0389156230e+000	 1.5216546349e-001	 1.7689240920e+000
 1.0374482715e+000	 1.6186748880e-001	 1.8125184035e+000
 1.0358854162e+000	 1.7158497739e-001	 1.8576343398e+000
 1.0342264127e+000	 1.8131664935e-001	 1.9042609812e+000
 1.0324706368e+000	 1.9106120505e-001	 1.9523840798e+000
 1.0706515268e+000	 9.6593520764e-002	 1.5972120955e+000
 1.0697209599e+000	 1.0640520676e-001	 1.6259793822e+000
 1.0686969769e+000	 1.1624014650e-001	 1.6554201126e+000
 1.0675788060e+000	 1.2609715668e-001	 1.6855321098e+000
 1.0663656927e+000	 1.3597503214e-001	 1.7163108454e+000
 1.0650569000e+000	 1.4587254618e-001	 1.7477493799e+000
 1.0636517093e+000	 1.5578845071e-001	 1.7798383071e+000
 1.0621494208e+000	 1.6572147663e-001	 1.8125656988e+000
 1.0605493547e+000	 1.7567033400e-001	 1.8459170519e+000
 1.0588508511e+000	 1.8563371242e-001	 1.8798752375e+000
 1.0570532710e+000	 1.9561028136e-001	 1.9144204522e+000
 1.0955503995e+000	 9.8839881709e-002	 1.7362789299e+000
 1.0945981915e+000	 1.0887974645e-001	 1.7592591558e+000
 1.0935503949e+000	 1.1894340572e-001	 1.7821034598e+000
 1.0924062201e+000	 1.2902964869e-001	 1.8048003546e+000
 1.0911648949e+000	 1.3913724219e-001	 1.8273365138e+000
 1.0898256651e+000	 1.4926493097e-001	 1.8496967350e+000
 1.0883877955e+000	 1.5941143794e-001	 1.8718639033e+000
 1.0868505702e+000	 1.6957546445e-001	 1.8938189568e+000
 1.0852132932e+000	 1.7975569060e-001	 1.9155408542e+000
 1.0834752895e+000	 1.8995077550e-001	 1.9370065433e+000
 1.0816359052e+000	 2.0015935767e-001	 1.9581909323e+000
 1.1204492722e+000	 1.0108624265e-001	 1.9513210164e+000
 1.1194754231e+000	 1.1135428614e-001	 1.9683888247e+000
 1.1184038130e+000	 1.2164666494e-001	 1.9845471310e+000
 1.1172336342e+000	 1.3196214071e-001	 1.9997754902e+000
 1.1159640970e+000	 1.4229945224e-001	 2.0140521177e+000
 1.1145944303e+000	 1.5265731576e-001	 2.0273538717e+000
 1.1131238818e+000	 1.6303442516e-001	 2.0396562376e+000
 1.1115517195e+000	 1.7342945228e-001	 2.0509333132e+000
 1.1098772317e+000	 1.8384104720e-001	 2.0611577957e+000
 1.1080997279e+000	 1.9426783858e-001	 2.0703009698e+000
 1.1062185395e+000	 2.0470843398e-001	 2.0783326984e+000
 1.1453481449e+000	 1.0333260360e-001	 2.2374092721e+000
 1.1443526547e+000	 1.1382882583e-001	 2.2484545445e+000
 1.1432572311e+000	 1.2434992416e-001	 2.2578500645e+000
 1.1420610483e+000	 1.3489463272e-001	 2.2655667525e+000
 1.1407632992e+000	 1.4546166229e-001	 2.2715746753e+000
 1.1393631954e+000	 1.5604970055e-001	 2.2758430482e+000
 1.1378599681e+000	 1.6665741239e-001	 2.2783402387e+000
 1.1362528688e+000	 1.7728344011e-001	 2.2790337714e+000
 1.1345411701e+000	 1.8792640381e-001	 2.2778903340e+000
 1.1327241663e+000	 1.9858490166e-001	 2.2748757851e+000
 1.1308011737e+000	 2.0925751029e-001	 2.2699551628e+000
 1.1702470176e+000	 1.0557896455e-001	 2.5900371286e+000
 1.1692298864e+000	 1.1630336552e-001	 2.5949639794e+000
 1.1681106491e+000	 1.2705318338e-001	 2.5975319076e+000
 1.1668884624e+000	 1.3782712473e-001	 2.5977034948e+000
 1.1655625014e+000	 1.4862387233e-001	 2.5954409422e+000
 1.1641319605e+000	 1.5944208535e-001	 2.5907060925e+000
 1.1625960543e+000	 1.7028039961e-001	 2.5834604523e+000
 1.1609540181e+000	 1.8113742794e-001	 2.5736652162e+000
 1.1592051086e+000	 1.9201176041e-001	 2.5612812921e+000
 1.1573486046e+000	 2.0290196474e-001	 2.5462693268e+000
 1.1553838079e+000	 2.1380658660e-001	 2.5285897337e+000
 1.1951458903e+000	 1.0782532549e-001	 3.0050765204e+000
 1.1941071180e+000	 1.1877790521e-001	 3.0038023951e+000
 1.1929640672e+000	 1.2975644260e-001	 2.9994891927e+000
 1.1917158765e+000	 1.4075961675e-001	 2.9920914258e+000
 1.1903617035e+000	 1.5178608238e-001	 2.9815636885e+000
 1.1889007256e+000	 1.6283447014e-001	 2.9678606971e+000
 1.1873321406e+000	 1.7390338684e-001	 2.9509373312e+000
 1.1856551674e+000	 1.8499141576e-001	 2.9307486770e+000
 1.1838690471e+000	 1.9609711701e-001	 2.9072500701e+000
 1.1819730430e+000	 2.0721902781e-001	 2.8803971406e+000
 1.1799664421e+000	 2.1835566291e-001	 2.8501458579e+000
 1.2200447631e+000	 1.1007168644e-001	 3.4787392621e+000
 1.2189843496e+000	 1.2125244490e-001	 3.4711941284e+000
 1.2178174853e+000	 1.3245970182e-001	 3.4599568797e+000
 1.2165432906e+000	 1.4369210877e-001	 3.4449742061e+000
 1.2151609057e+000	 1.5494829243e-001	 3.4261933301e+000
 1.2136694907e+000	 1.6622685494e-001	 3.4035620654e+000
 1.2120682268e+000	 1.7752637406e-001	 3.3770288775e+000
 1.2103563168e+000	 1.8884540359e-001	 3.3465429446e+000
 1.2085329856e+000	 2.0018247362e-001	 3.3120542189e+000
 1.2065974814e+000	 2.1153609089e-001	 3.2735134895e+000
 1.2045490763e+000	 2.2290473922e-001	 3.2308724449e+000
 1.2449436358e+000	 1.1231804739e-001	 4.0075430602e+000
 1.2438615812e+000	 1.2372698459e-001	 3.9936686795e+000
 1.2426709033e+000	 1.3516296104e-001	 3.9754745132e+000
 1.2413707047e+000	 1.4662460078e-001	 3.9528996531e+000
 1.2399601078e+000	 1.5811050249e-001	 3.9258841638e+000
 1.2384382558e+000	 1.6961923973e-001	 3.8943691606e+000
 1.2368043131e+000	 1.8114936129e-001	 3.8582968875e+000
 1.2350574661e+000	 1.9269939142e-001	 3.8176107962e+000
 1.2331969241e+000	 2.0426783022e-001	 3.7722556257e+000
 1.2312219198e+000	 2.1585315397e-001	 3.7221774825e+000
 1.2291317105e+000	 2.2745381553e-001	 3.6673239211e+000
 9.8330536841e-001	 1.8196305243e-001	 2.2976802903e+000
 9.8154046252e-001	 1.9125459577e-001	 2.3788767382e+000
 9.7968226449e-001	 2.0055587900e-001	 2.4619068375e+000
 9.7773024174e-001	 2.0986561017e-001	 2.5467930670e+000
 9.7568388343e-001	 2.1918248004e-001	 2.6335549142e+000
 9.7354270101e-001	 2.2850516241e-001	 2.7222087834e+000
 9.7130622879e-001	 2.3783231458e-001	 2.8127679046e+000
 9.6897402446e-001	 2.4716257779e-001	 2.9052422456e+000
 9.6654566967e-001	 2.5649457767e-001	 2.9996384256e+000
 9.6402077054e-001	 2.6582692472e-001	 3.0959596312e+000
 9.6139895816e-001	 2.7515821483e-001	 3.1942055360e+000
 1.0078880026e+000	 1.8651212874e-001	 2.0779744604e+000
 1.0060789741e+000	 1.9603596067e-001	 2.1487261460e+000
 1.0041743211e+000	 2.0556977597e-001	 2.2205188558e+000
 1.0021734978e+000	 2.1511225043e-001	 2.2933674004e+000
 1.0000759805e+000	 2.2466204205e-001	 2.3672841510e+000
 9.9788126854e-001	 2.3421779148e-001	 2.4422789650e+000
 9.9558888451e-001	 2.4377812245e-001	 2.5183591146e+000
 9.9319837507e-001	 2.5334164224e-001	 2.5955292157e+000
 9.9070931141e-001	 2.6290694212e-001	 2.6737911598e+000
 9.8812128980e-001	 2.7247259785e-001	 2.7531440473e+000
 9.8543393212e-001	 2.8203717021e-001	 2.8335841232e+000
 1.0324706368e+000	 1.9106120505e-001	 1.9523840798e+000
 1.0306174856e+000	 2.0081732556e-001	 2.0124494107e+000
 1.0286663777e+000	 2.1058367295e-001	 2.0728001353e+000
 1.0266167538e+000	 2.2035889069e-001	 2.1334437780e+000
 1.0244680776e+000	 2.3014160405e-001	 2.1943859597e+000
 1.0222198361e+000	 2.3993042054e-001	 2.2556303415e+000
 1.0198715402e+000	 2.4972393032e-001	 2.3171785708e+000
 1.0174227257e+000	 2.5952070669e-001	 2.3790302284e+000
 1.0148729532e+000	 2.6931930657e-001	 2.4411827767e+000
 1.0122218091e+000	 2.7911827098e-001	 2.5036315105e+000
 1.0094689061e+000	 2.8891612559e-001	 2.5663695087e+000
 1.0570532710e+000	 1.9561028136e-001	 1.9144204522e+000
 1.0551559972e+000	 2.0559869045e-001	 1.9635797841e+000
 1.0531584343e+000	 2.1559756992e-001	 2.0123031087e+000
 1.0510600099e+000	 2.2560553094e-001	 2.0605910138e+000
 1.0488601747e+000	 2.3562116605e-001	 2.1084427047e+000
 1.0465584036e+000	 2.4564304960e-001	 2.1558559662e+000
 1.0441541959e+000	 2.5566973819e-001	 2.2028271259e+000
 1.0416470763e+000	 2.6569977114e-001	 2.2493510182e+000
 1.0390365949e+000	 2.7573167102e-001	 2.2954209497e+000
 1.0363223283e+000	 2.8576394410e-001	 2.3410286658e+000
 1.0335038800e+000	 2.9579508097e-001	 2.3861643183e+000
 1.0816359052e+000	 2.0015935767e-001	 1.9581909323e+000
 1.0796945088e+000	 2.1038005535e-001	 1.9962448445e+000
 1.0776504909e+000	 2.2061146690e-001	 2.0331730574e+000
 1.0755032659e+000	 2.3085217120e-001	 2.0689695413e+000
 1.0732522718e+000	 2.4110072806e-001	 2.1036273923e+000
 1.0708969711e+000	 2.5135567866e-001	 2.1371388115e+000
 1.0684368517e+000	 2.6161554606e-001	 2.1694950851e+000
 1.0658714269e+000	 2.7187883559e-001	 2.2006865653e+000
 1.0632002366e+000	 2.8214403546e-001	 2.2307026518e+000
 1.0604228476e+000	 2.9240961722e-001	 2.2595317742e+000
 1.0575388540e+000	 3.0267403634e-001	 2.2871613757e+000
 1.1062185395e+000	 2.0470843398e-001	 2.0783326984e+000
 1.1042330203e+000	 2.1516142024e-001	 2.1051004609e+000
 1.1021425476e+000	 2.2562536387e-001	 2.1300822391e+000
 1.0999465220e+000	 2.3609881145e-001	 2.1532656780e+000
 1.0976443689e+000	 2.4658029006e-001	 2.1746380443e+000
 1.0952355386e+000	 2.5706830773e-001	 2.1941862226e+000
 1.0927195074e+000	 2.6756135392e-001	 2.2118967121e+000
 1.0900957775e+000	 2.7805790004e-001	 2.2277556236e+000
 1.0873638784e+000	 2.8855639991e-001	 2.2417486772e+000
 1.0845233669e+000	 2.9905529035e-001	 2.2538612002e+000
 1.0815738279e+000	 3.0955299172e-001	 2.2640781256e+000
 1.1308011737e+000	 2.0925751029e-001	 2.2699551628e+000
 1.1287715319e+000	 2.1994278513e-001	 2.2852733699e+000
 1.1266346042e+000	 2.3063926085e-001	 2.2981726082e+000
 1.1243897780e+000	 2.4134545170e-001	 2.3086344642e+000
 1.1220364660e+000	 2.5205985206e-001	 2.3166406308e+000
 1.1195741062e+000	 2.6278093679e-001	 2.3221729201e+000
 1.1170021631e+000	 2.7350716179e-001	 2.3252132763e+000
 1.1143201281e+000	 2.8423696448e-001	 2.3257437887e+000
 1.1115275201e+000	 2.9496876435e-001	 2.3237467049e+000
 1.1086238861e+000	 3.0570096347e-001	 2.3192044438e+000
 1.1056088019e+000	 3.1643194709e-001	 2.3120996091e+000
 1.1553838079e+000	 2.1380658660e-001	 2.5285897337e+000
 1.1533100435e+000	 2.2472415003e-001	 2.5323110831e+000
 1.1511266608e+000	 2.3565315782e-001	 2.5330058475e+000
 1.1488330341e+000	 2.4659209196e-001	 2.5306497985e+000
 1.1464285630e+000	 2.5753941406e-001	 2.5252192884e+000
 1.1439126737e+000	 2.6849356585e-001	 2.5166912793e+000
 1.1412848188e+000	 2.7945296965e-001	 2.5050433719e+000
 1.1385444787e+000	 2.9041602893e-001	 2.4902538341e+000
 1.1356911619e+000	 3.0138112879e-001	 2.4723016293e+000
 1.1327244054e+000	 3.1234663659e-001	 2.4511664450e+000
 1.1296437758e+000	 3.2331090246e-001	 2.4268287201e+000
 1.1799664421e+000	 2.1835566291e-001	 2.8501458579e+000
 1.1778485550e+000	 2.2950551492e-001	 2.8421380570e+000
 1.1756187174e+000	 2.4066705479e-001	 2.8305196472e+000
 1.1732762901e+000	 2.5183873221e-001	 2.8152608072e+000
 1.1708206601e+000	 2.6301897606e-001	 2.7963327615e+000
 1.1682512412e+000	 2.7420619490e-001	 2.7737078247e+000
 1.1655674746e+000	 2.8539877752e-001	 2.7473594463e+000
 1.1627688294e+000	 2.9659509337e-001	 2.7172622548e+000
 1.1598548036e+000	 3.0779349323e-001	 2.6833921012e+000
 1.1568249247e+000	 3.1899230970e-001	 2.6457261012e+000
 1.1536787498e+000	 3.3018985783e-001	 2.6042426784e+000
 1.2045490763e+000	 2.2290473922e-001	 3.2308724449e+000
 1.2023870666e+000	 2.3428687981e-001	 3.2110172286e+000
 1.2001107740e+000	 2.4568095177e-001	 3.1869893361e+000
 1.1977195461e+000	 2.5708537246e-001	 3.1587535556e+000
 1.1952127572e+000	 2.6849853806e-001	 3.1262761768e+000
 1.1925898088e+000	 2.7991882396e-001	 3.0895250511e+000
 1.1898501303e+000	 2.9134458538e-001	 3.0484696518e+000
 1.1869931800e+000	 3.0277415782e-001	 3.0030811331e+000
 1.1840184454e+000	 3.1420585767e-001	 2.9533323884e+000
 1.1809254439e+000	 3.2563798282e-001	 2.8991981076e+000
 1.1777137238e+000	 3.3706881320e-001	 2.8406548332e+000
 1.2291317105e+000	 2.2745381553e-001	 3.6673239211e+000
 1.2269255782e+000	 2.3906824470e-001	 3.6355161677e+000
 1.2246028306e+000	 2.5069484874e-001	 3.5989941182e+000
 1.2221628022e+000	 2.6233201271e-001	 3.5577173540e+000
 1.2196048543e+000	 2.7397810005e-001	 3.5116474053e+000
 1.2169283763e+000	 2.8563145302e-001	 3.4607478272e+000
 1.2141327860e+000	 2.9729039324e-001	 3.4049842753e+000
 1.2112175306e+000	 3.0895322226e-001	 3.3443245790e+000
 1.2081820871e+000	 3.2061822211e-001	 3.2787388148e+000
 1.2050259632e+000	 3.3228365593e-001	 3.2081993776e+000
 1.2017486977e+000	 3.4394776857e-001	 3.1326810506e+000
 9.6139895816e-001	 2.7515821483e-001	 3.1942055360e+000
 9.5867988915e-001	 2.8448702975e-001	 3.2971675906e+000
 9.5586324609e-001	 2.9381193769e-001	 3.3991931110e+000
 9.5294873809e-001	 3.0313149381e-001	 3.5003161576e+000
 9.4993610118e-001	 3.1244424085e-001	 3.6005702631e+000
 9.4682509884e-001	 3.2174870969e-001	 3.6999883714e+000
 9.4361552239e-001	 3.3104341994e-001	 3.7986027760e+000
 9.4030719147e-001	 3.4032688062e-001	 3.8964450582e+000
 9.3689995439e-001	 3.4959759075e-001	 3.9935460254e+000
 9.3339368862e-001	 3.5885404004e-001	 4.0899356486e+000
 9.2978830108e-001	 3.6809470955e-001	 4.1856430008e+000
 9.8543393212e-001	 2.8203717021e-001	 2.8335841232e+000
 9.8264688638e-001	 2.9159920551e-001	 2.9233624359e+000
 9.7975982724e-001	 3.0115723614e-001	 3.0117925480e+000
 9.7677245654e-001	 3.1070978117e-001	 3.0989032794e+000
 9.7368450371e-001	 3.2025534689e-001	 3.1847232442e+000
 9.7049572631e-001	 3.2979242744e-001	 3.2692808016e+000
 9.6720591045e-001	 3.3931950545e-001	 3.3526040057e+000
 9.6381487125e-001	 3.4883505265e-001	 3.4347205550e+000
 9.6032245325e-001	 3.5833753053e-001	 3.5156577417e+000
 9.5672853083e-001	 3.6782539105e-001	 3.5954423999e+000
 9.5303300860e-001	 3.7729707730e-001	 3.6741008543e+000
 1.0094689061e+000	 2.8891612559e-001	 2.5663695087e+000
 1.0066138836e+000	 2.9871138126e-001	 2.6424856522e+000
 1.0036564084e+000	 3.0850253459e-001	 2.7168605090e+000
 1.0005961750e+000	 3.1828806852e-001	 2.7895179857e+000
 9.9743290624e-001	 3.2806645292e-001	 2.8604820991e+000
 9.9416635378e-001	 3.3783614519e-001	 2.9297769385e+000
 9.9079629851e-001	 3.4759559096e-001	 2.9974266266e+000
 9.8732255103e-001	 3.5734322467e-001	 3.0634552801e+000
 9.8374495210e-001	 3.6707747030e-001	 3.1278869697e+000
 9.8006337304e-001	 3.7679674206e-001	 3.1907456787e+000
 9.7627771612e-001	 3.8649944504e-001	 3.2520552617e+000
 1.0335038800e+000	 2.9579508097e-001	 2.3861643183e+000
 1.0305808808e+000	 3.0582355701e-001	 2.4481762296e+000
 1.0275529895e+000	 3.1584783304e-001	 2.5080708149e+000
 1.0244198934e+000	 3.2586635588e-001	 2.5658673680e+000
 1.0211813088e+000	 3.3587755895e-001	 2.6215856032e+000
 1.0178369812e+000	 3.4587986295e-001	 2.6752456291e+000
 1.0143866866e+000	 3.5587167647e-001	 2.7268679206e+000
 1.0108302308e+000	 3.6585139669e-001	 2.7764732898e+000
 1.0071674510e+000	 3.7581741008e-001	 2.8240828563e+000
 1.0033982153e+000	 3.8576809306e-001	 2.8697180166e+000
 9.9952242364e-001	 3.9570181278e-001	 2.9134004118e+000
 1.0575388540e+000	 3.0267403634e-001	 2.2871613757e+000
 1.0545478781e+000	 3.1293573276e-001	 2.3346602604e+000
 1.0514495707e+000	 3.2319313149e-001	 2.3796814252e+000
 1.0482436119e+000	 3.3344464323e-001	 2.4222398268e+000
 1.0449297113e+000	 3.4368866498e-001	 2.4623511482e+000
 1.0415076087e+000	 3.5392358070e-001	 2.5000317835e+000
 1.0379770746e+000	 3.6414776197e-001	 2.5352988203e+000
 1.0343379106e+000	 3.7435956871e-001	 2.5681700214e+000
 1.0305899498e+000	 3.8455734985e-001	 2.5986638053e+000
 1.0267330575e+000	 3.9473944407e-001	 2.6267992246e+000
 1.0227671312e+000	 4.0490418052e-001	 2.6525959442e+000
 1.0815738279e+000	 3.0955299172e-001	 2.2640781256e+000
 1.0785148753e+000	 3.2004790851e-001	 2.2966857056e+000
 1.0753461519e+000	 3.3053842994e-001	 2.3264695335e+000
 1.0720673303e+000	 3.4102293058e-001	 2.3534404819e+000
 1.0686781138e+000	 3.5149977101e-001	 2.3776104519e+000
 1.0651782362e+000	 3.6196729844e-001	 2.3989923677e+000
 1.0615674627e+000	 3.7242384748e-001	 2.4176001699e+000
 1.0578455904e+000	 3.8286774073e-001	 2.4334488071e+000
 1.0540124487e+000	 3.9329728963e-001	 2.4465542266e+000
 1.0500678997e+000	 4.0371079507e-001	 2.4569333622e+000
 1.0460118387e+000	 4.1410654826e-001	 2.4646041219e+000
 1.1056088019e+000	 3.1643194709e-001	 2.3120996091e+000
 1.1024818725e+000	 3.2716008426e-001	 2.3294656700e+000
 1.0992427330e+000	 3.3788372839e-001	 2.3436751289e+000
 1.0958910488e+000	 3.4860121793e-001	 2.3547350073e+000
 1.0924265164e+000	 3.5931087703e-001	 2.3626536531e+000
 1.0888488637e+000	 3.7001101619e-001	 2.3674407459e+000
 1.0851578507e+000	 3.8069993298e-001	 2.3691073002e+000
 1.0813532702e+000	 3.9137591275e-001	 2.3676656674e+000
 1.0774349475e+000	 4.0203722940e-001	 2.3631295358e+000
 1.0734027419e+000	 4.1268214607e-001	 2.3555139280e+000
 1.0692565462e+000	 4.2330891600e-001	 2.3448351977e+000
 1.1296437758e+000	 3.2331090246e-001	 2.4268287201e+000
 1.1264488698e+000	 3.3427226000e-001	 2.4286289186e+000
 1.1231393142e+000	 3.4522902683e-001	 2.4269517625e+000
 1.1197147673e+000	 3.5617950528e-001	 2.4218006356e+000
 1.1161749189e+000	 3.6712198306e-001	 2.4131805431e+000
 1.1125194911e+000	 3.7805473393e-001	 2.4010981268e+000
 1.1087482388e+000	 3.8897601848e-001	 2.3855616788e+000
 1.1048609500e+000	 3.9988408477e-001	 2.3665811530e+000
 1.1008574464e+000	 4.1077716917e-001	 2.3441681745e+000
 1.0967375841e+000	 4.2165349708e-001	 2.3183360467e+000
 1.0925012537e+000	 4.3251128374e-001	 2.2890997564e+000
 1.1536787498e+000	 3.3018985783e-001	 2.6042426784e+000
 1.1504158670e+000	 3.4138443575e-001	 2.5901765789e+000
 1.1470358953e+000	 3.5257432527e-001	 2.5723234680e+000
 1.1435384857e+000	 3.6375779263e-001	 2.5506832879e+000
 1.1399233214e+000	 3.7493308908e-001	 2.5252578938e+000
 1.1361901186e+000	 3.8609845168e-001	 2.4960510804e+000
 1.1323386269e+000	 3.9725210398e-001	 2.4630686045e+000
 1.1283686297e+000	 4.0839225679e-001	 2.4263182064e+000
 1.1242799453e+000	 4.1951710894e-001	 2.3858096289e+000
 1.1200724263e+000	 4.3062484808e-001	 2.3415546332e+000
 1.1157459613e+000	 4.4171365148e-001	 2.2935670129e+000
 1.1777137238e+000	 3.3706881320e-001	 2.8406548332e+000
 1.1743828642e+000	 3.4849661149e-001	 2.8104441447e+000
 1.1709324765e+000	 3.5991962372e-001	 2.7761469577e+000
 1.1673622042e+000	 3.7133607997e-001	 2.7377599521e+000
 1.1636717239e+000	 3.8274419510e-001	 2.6952820109e+000
 1.1598607461e+000	 3.9414216942e-001	 2.6487142560e+000
 1.1559290149e+000	 4.0552818948e-001	 2.5980600812e+000
 1.1518763095e+000	 4.1690042880e-001	 2.5433251828e+000
 1.1477024441e+000	 4.2825704871e-001	 2.4845175880e+000
 1.1434072685e+000	 4.3959619908e-001	 2.4216476794e+000
 1.1389906688e+000	 4.5091601922e-001	 2.3547282178e+000
 1.2017486977e+000	 3.4394776857e-001	 3.1326810506e+000
 1.1983498614e+000	 3.5560878723e-001	 3.0860680392e+000
 1.1948290576e+000	 3.6726492216e-001	 3.0350783539e+000
 1.1911859226e+000	 3.7891436731e-001	 2.9797055766e+000
 1.1874201265e+000	 3.9055530112e-001	 2.9199457801e+000
 1.1835313736e+000	 4.0218588716e-001	 2.8557975741e+000
 1.1795194030e+000	 4.1380427497e-001	 2.7872621476e+000
 1.1753839893e+000	 4.2540860082e-001	 2.7143433092e+000
 1.1711249430e+000	 4.3699698847e-001	 2.6370475237e+000
 1.1667421108e+000	 4.4856755008e-001	 2.5553839463e+000
 1.1622353763e+000	 4.6011838696e-001	 2.4693644537e+000
 9.2978830108e-001	 3.6809470955e-001	 4.1856430008e+000
 9.2608372854e-001	 3.7731807239e-001	 4.2864349932e+000
 9.2227993800e-001	 3.8652259441e-001	 4.3834584403e+000
 9.1837692696e-001	 3.9570673493e-001	 4.4767684839e+000
 9.1437472374e-001	 4.0486894748e-001	 4.5664224127e+000
 9.1027338778e-001	 4.1400768054e-001	 4.6524796119e+000
 9.0607300991e-001	 4.2312137829e-001	 4.7350015080e+000
 9.0177371256e-001	 4.3220848139e-001	 4.8140515106e+000
 8.9737565002e-001	 4.4126742776e-001	 4.8896949511e+000
 8.9287900861e-001	 4.5029665337e-001	 4.9619990176e+000
 8.8828400685e-001	 4.5929459305e-001	 5.0310326865e+000
 9.5303300860e-001	 3.7729707730e-001	 3.6741008543e+000
 9.4923582175e-001	 3.8675102420e-001	 3.7613536612e+000
 9.4533693645e-001	 3.9618565927e-001	 3.8448021954e+000
 9.4133635013e-001	 4.0559940330e-001	 3.9245016352e+000
 9.3723409182e-001	 4.1499067117e-001	 4.0005094174e+000
 9.3303022247e-001	 4.2435787255e-001	 4.0728851890e+000
 9.2872483515e-001	 4.3369941274e-001	 4.1416907553e+000
 9.2431805537e-001	 4.4301369342e-001	 4.2069900245e+000
 9.1981004127e-001	 4.5229911345e-001	 4.2688489486e+000
 9.1520098382e-001	 4.6155406970e-001	 4.3273354607e+000
 9.1049110702e-001	 4.7077695788e-001	 4.3825194087e+000
 9.7627771612e-001	 3.8649944504e-001	 3.2520552617e+000
 9.7238791496e-001	 3.9618397601e-001	 3.3253966774e+000
 9.6839393489e-001	 4.0584872413e-001	 3.3949001992e+000
 9.6429577330e-001	 4.1549207167e-001	 3.4606212299e+000
 9.6009345991e-001	 4.2511239485e-001	 3.5226175437e+000
 9.5578705716e-001	 4.3470806456e-001	 3.5809492415e+000
 9.5137666039e-001	 4.4427744720e-001	 3.6356787014e+000
 9.4686239818e-001	 4.5381890545e-001	 3.6868705261e+000
 9.4224443251e-001	 4.6333079914e-001	 3.7345914854e+000
 9.3752295903e-001	 4.7281148603e-001	 3.7789104569e+000
 9.3269820719e-001	 4.8225932270e-001	 3.8198983605e+000
 9.9952242364e-001	 3.9570181278e-001	 2.9134004118e+000
 9.9554000817e-001	 4.0561692782e-001	 2.9724846639e+000
 9.9145093334e-001	 4.1551178899e-001	 3.0276990962e+000
 9.8725519647e-001	 4.2538474004e-001	 3.0790995087e+000
 9.8295282800e-001	 4.3523411854e-001	 3.1267441893e+000
 9.7854389185e-001	 4.4505825657e-001	 3.1706938709e+000
 9.7402848564e-001	 4.5485548165e-001	 3.2110116850e+000
 9.6940674099e-001	 4.6462411748e-001	 3.2477631108e+000
 9.6467882376e-001	 4.7436248483e-001	 3.2810159212e+000
 9.5984493424e-001	 4.8406890236e-001	 3.3108401240e+000
 9.5490530736e-001	 4.9374168753e-001	 3.3373078997e+000
 1.0227671312e+000	 4.0490418052e-001	 2.6525959442e+000
 1.0186921014e+000	 4.1504987963e-001	 2.6971014229e+000
 1.0145079318e+000	 4.2517485385e-001	 2.7377064681e+000
 1.0102146196e+000	 4.3527740842e-001	 2.7744674379e+000
 1.0058121961e+000	 4.4535584222e-001	 2.8074432967e+000
 1.0013007265e+000	 4.5540844858e-001	 2.8366955753e+000
 9.9668031088e-001	 4.6543351611e-001	 2.8622883263e+000
 9.9195108380e-001	 4.7542932951e-001	 2.8842880765e+000
 9.8711321501e-001	 4.8539417052e-001	 2.9027637739e+000
 9.8216690946e-001	 4.9532631870e-001	 2.9177867316e+000
 9.7711240753e-001	 5.0522405235e-001	 2.9294305673e+000
 1.0460118387e+000	 4.1410654826e-001	 2.4646041219e+000
 1.0418441946e+000	 4.2448283144e-001	 2.4942313608e+000
 1.0375649302e+000	 4.3483791871e-001	 2.5199285080e+000
 1.0331740428e+000	 4.4517007679e-001	 2.5417526285e+000
 1.0286715642e+000	 4.5547756591e-001	 2.5597635147e+000
 1.0240575612e+000	 4.6575864059e-001	 2.5740236493e+000
 1.0193321361e+000	 4.7601155056e-001	 2.5845981630e+000
 1.0144954266e+000	 4.8623454155e-001	 2.5915547892e+000
 1.0095476063e+000	 4.9642585621e-001	 2.5949638130e+000
 1.0044888847e+000	 5.0658373503e-001	 2.5948980170e+000
 9.9931950770e-001	 5.1670641718e-001	 2.5914326220e+000
 1.0692565462e+000	 4.2330891600e-001	 2.3448351977e+000
 1.0649962878e+000	 4.3391578325e-001	 2.3593050746e+000
 1.0606219287e+000	 4.4450098357e-001	 2.3698158234e+000
 1.0561334660e+000	 4.5506274516e-001	 2.3764253536e+000
 1.0515309323e+000	 4.6559928959e-001	 2.3791944264e+000
 1.0468143959e+000	 4.7610883261e-001	 2.3781866198e+000
 1.0419839614e+000	 4.8658958502e-001	 2.3734682894e+000
 1.0370397694e+000	 4.9703975358e-001	 2.3651085241e+000
 1.0319819975e+000	 5.0745754190e-001	 2.3531790979e+000
 1.0268108599e+000	 5.1784115136e-001	 2.3377544172e+000
 1.0215266079e+000	 5.2818878200e-001	 2.3189114628e+000
 1.0925012537e+000	 4.3251128374e-001	 2.2890997564e+000
 1.0881483810e+000	 4.4334873506e-001	 2.2881518852e+000
 1.0836789271e+000	 4.5416404842e-001	 2.2832161579e+000
 1.0790928892e+000	 4.6495541353e-001	 2.2743514562e+000
 1.0743903004e+000	 4.7572101328e-001	 2.2616196407e+000
 1.0695712306e+000	 4.8645902462e-001	 2.2450855190e+000
 1.0646357866e+000	 4.9716761947e-001	 2.2248168079e+000
 1.0595841122e+000	 5.0784496561e-001	 2.2008840919e+000
 1.0544163888e+000	 5.1848922760e-001	 2.1733607765e+000
 1.0491328351e+000	 5.2909856769e-001	 2.1423230371e+000
 1.0437337080e+000	 5.3967114683e-001	 2.1078497628e+000
 1.1157459613e+000	 4.4171365148e-001	 2.2935670129e+000
 1.1113004742e+000	 4.5278168687e-001	 2.2769583035e+000
 1.1067359256e+000	 4.6382711328e-001	 2.2563330232e+000
 1.1020523123e+000	 4.7484808190e-001	 2.2317511442e+000
 1.0972496685e+000	 4.8584273696e-001	 2.2032757486e+000
 1.0923280653e+000	 4.9680921663e-001	 2.1709729980e+000
 1.0872876119e+000	 5.0774565393e-001	 2.1349120989e+000
 1.0821284551e+000	 5.1865017764e-001	 2.0951652623e+000
 1.0768507800e+000	 5.2952091329e-001	 2.0518076593e+000
 1.0714548103e+000	 5.4035598403e-001	 2.0049173715e+000
 1.0659408082e+000	 5.5115351165e-001	 1.9545753361e+000
 1.1389906688e+000	 4.5091601922e-001	 2.3547282178e+000
 1.1344525674e+000	 4.6221463868e-001	 2.3222315823e+000
 1.1297929240e+000	 4.7349017814e-001	 2.2856893957e+000
 1.1250117355e+000	 4.8474075028e-001	 2.2451628308e+000
 1.1201090366e+000	 4.9596446065e-001	 2.2007163041e+000
 1.1150849000e+000	 5.0715940864e-001	 2.1524174481e+000
 1.1099394371e+000	 5.1832368838e-001	 2.1003370784e+000
 1.1046727979e+000	 5.2945538968e-001	 2.0445491559e+000
 1.0992851713e+000	 5.4055259898e-001	 1.9851307438e+000
 1.0937767855e+000	 5.5161340036e-001	 1.9221619593e+000
 1.0881479084e+000	 5.6263587648e-001	 1.8557259201e+000
 1.1622353763e+000	 4.6011838696e-001	 2.4693644537e+000
 1.1576046607e+000	 4.7164759049e-001	 2.4207676422e+000
 1.1528499225e+000	 4.8315324300e-001	 2.3680957706e+000
 1.1479711587e+000	 4.9463341865e-001	 2.3114113139e+000
 1.1429684047e+000	 5.0608618433e-001	 2.2507801283e+000
 1.1378417347e+000	 5.1750960065e-001	 2.1862714260e+000
 1.1325912624e+000	 5.2890172284e-001	 2.1179577442e+000
 1.1272171407e+000	 5.4026060171e-001	 2.0459149093e+000
 1.1217195625e+000	 5.5158428467e-001	 1.9702219957e+000
 1.1160987607e+000	 5.6287081669e-001	 1.8909612787e+000
 1.1103550086e+000	 5.7411824131e-001	 1.8082181825e+000
 8.8828400685e-001	 4.5929459305e-001	 5.0310326865e+000
 8.8359089566e-001	 4.6825968131e-001	 5.0995220257e+000
 8.7879995843e-001	 4.7719035311e-001	 5.1647907199e+000
 8.7391151114e-001	 4.8608504475e-001	 5.2269839177e+000
 8.6892590245e-001	 4.9494219467e-001	 5.2862489785e+000
 8.6384351377e-001	 5.0376024430e-001	 5.3427353197e+000
 8.5866475923e-001	 5.1253763888e-001	 5.3965942602e+000
 8.5339008574e-001	 5.2127282835e-001	 5.4479788594e+000
 8.4801997294e-001	 5.2996426816e-001	 5.4970437515e+000
 8.4255493313e-001	 5.3861042014e-001	 5.5439449774e+000
 8.3699551125e-001	 5.4720975336e-001	 5.5888398123e+000
 9.1049110702e-001	 4.7077695788e-001	 4.3825194087e+000
 9.0568066805e-001	 4.7996617334e-001	 4.4422816898e+000
 9.0076995739e-001	 4.8912011194e-001	 4.4981366568e+000
 8.9575929892e-001	 4.9823717087e-001	 4.5502212630e+000
 8.9064905002e-001	 5.0731574954e-001	 4.5986753658e+000
 8.8543960162e-001	 5.1635425041e-001	 4.6436415898e+000
 8.8013137822e-001	 5.2535107986e-001	 4.6852651846e+000
 8.7472483789e-001	 5.3430464906e-001	 4.7236938783e+000
 8.6922047226e-001	 5.4321337486e-001	 4.7590777247e+000
 8.6361880646e-001	 5.5207568064e-001	 4.7915689477e+000
 8.5792039903e-001	 5.6088999720e-001	 4.8213217799e+000
 9.3269820719e-001	 4.8225932270e-001	 3.8198983605e+000
 9.2777044045e-001	 4.9167266537e-001	 3.8699818864e+000
 9.2273995635e-001	 5.0104987077e-001	 3.9155061425e+000
 9.1760708670e-001	 5.1038929699e-001	 3.9566004987e+000
 9.1237219758e-001	 5.1968930441e-001	 3.9933979064e+000
 9.0703568946e-001	 5.2894825652e-001	 4.0260347761e+000
 9.0159799720e-001	 5.3816452084e-001	 4.0546508503e+000
 8.9605959003e-001	 5.4733646978e-001	 4.0793890694e+000
 8.9042097158e-001	 5.5646248157e-001	 4.1003954326e+000
 8.8468267979e-001	 5.6554094115e-001	 4.1178188527e+000
 8.7884528681e-001	 5.7457024104e-001	 4.1318110059e+000
 9.5490530736e-001	 4.9374168753e-001	 3.3373078997e+000
 9.4986021284e-001	 5.0337915740e-001	 3.3768251877e+000
 9.4470995531e-001	 5.1297962959e-001	 3.4111632833e+000
 9.3945487447e-001	 5.2254142311e-001	 3.4404445446e+000
 9.3409534514e-001	 5.3206285928e-001	 3.4647955738e+000
 9.2863177731e-001	 5.4154226263e-001	 3.4843471098e+000
 9.2306461618e-001	 5.5097796181e-001	 3.4992339143e+000
 9.1739434218e-001	 5.6036829049e-001	 3.5095946502e+000
 9.1162147091e-001	 5.6971158828e-001	 3.5155717550e+000
 9.0574655311e-001	 5.7900620166e-001	 3.5173113063e+000
 8.9977017459e-001	 5.8825048487e-001	 3.5149628817e+000
 9.7711240753e-001	 5.0522405235e-001	 2.9294305673e+000
 9.7194998523e-001	 5.1508564944e-001	 2.9575525558e+000
 9.6667995427e-001	 5.2490938842e-001	 2.9799050163e+000
 9.6130266225e-001	 5.3469354923e-001	 2.9966038304e+000
 9.5581849270e-001	 5.4443641415e-001	 3.0077697735e+000
 9.5022786515e-001	 5.5413626874e-001	 3.0135284212e+000
 9.4453123516e-001	 5.6379140279e-001	 3.0140100482e+000
 9.3872909432e-001	 5.7340011120e-001	 3.0093495197e+000
 9.3282197023e-001	 5.8296069499e-001	 2.9996861753e+000
 9.2681042644e-001	 5.9247146216e-001	 2.9851637054e+000
 9.2069506237e-001	 6.0193072871e-001	 2.9659300207e+000
 9.9931950770e-001	 5.1670641718e-001	 2.5914326220e+000
 9.9403975762e-001	 5.2679214147e-001	 2.6073835208e+000
 9.8864995323e-001	 5.3683914725e-001	 2.6170019058e+000
 9.8315045003e-001	 5.4684567535e-001	 2.6203976844e+000
 9.7754164026e-001	 5.5680996902e-001	 2.6176862953e+000
 9.7182395300e-001	 5.6673027485e-001	 2.6089886284e+000
 9.6599785414e-001	 5.7660484376e-001	 2.5944309365e+000
 9.6006384646e-001	 5.8643193191e-001	 2.5741447384e+000
 9.5402246955e-001	 5.9620980169e-001	 2.5482667132e+000
 9.4787429977e-001	 6.0593672267e-001	 2.5169385871e+000
 9.4161995015e-001	 6.1561097254e-001	 2.4803070119e+000
 1.0215266079e+000	 5.2818878200e-001	 2.3189114628e+000
 1.0161295300e+000	 5.3849863350e-001	 2.3219641629e+000
 1.0106199522e+000	 5.4876890608e-001	 2.3181466625e+000
 1.0049982378e+000	 5.5899780147e-001	 2.3075633659e+000
 9.9926478782e-001	 5.6918352389e-001	 2.2903248363e+000
 9.9342004084e-001	 5.7932428096e-001	 2.2665477280e+000
 9.8746447312e-001	 5.8941828473e-001	 2.2363547100e+000
 9.8139859860e-001	 5.9946375262e-001	 2.1998743804e+000
 9.7522296887e-001	 6.0945890840e-001	 2.1572411711e+000
 9.6893817309e-001	 6.1940198317e-001	 2.1085952443e+000
 9.6254483793e-001	 6.2929121638e-001	 2.0692983976e+000
 1.0437337080e+000	 5.3967114683e-001	 2.1078497628e+000
 1.0382193024e+000	 5.5020512553e-001	 2.0973217351e+000
 1.0325899511e+000	 5.6069866491e-001	 2.0794092336e+000
 1.0268460256e+000	 5.7114992759e-001	 2.0542116041e+000
 1.0209879354e+000	 5.8155707876e-001	 2.0218349686e+000
 1.0150161287e+000	 5.9191828707e-001	 1.9823921698e+000
 1.0089310921e+000	 6.0223172571e-001	 1.9360027067e+000
 1.0027333507e+000	 6.1249557333e-001	 1.8827926593e+000
 9.9642346820e-001	 6.2270801510e-001	 1.8228946037e+000
 9.9000204642e-001	 6.3286724368e-001	 1.7841234103e+000
 9.8346972570e-001	 6.4297146022e-001	 1.7475398397e+000
 1.0659408082e+000	 5.5115351165e-001	 1.9545753361e+000
 1.0603090748e+000	 5.6191161756e-001	 1.9298249568e+000
 1.0545599501e+000	 5.7262842373e-001	 1.8971975080e+000
 1.0486938134e+000	 5.8330205371e-001	 1.8567876957e+000
 1.0427110829e+000	 5.9393063362e-001	 1.8086976104e+000
 1.0366122165e+000	 6.0451229318e-001	 1.7530366844e+000
 1.0303977111e+000	 6.1504516668e-001	 1.6899216378e+000
 1.0240681029e+000	 6.2552739404e-001	 1.6212812978e+000
 1.0176239675e+000	 6.3595712181e-001	 1.5798559868e+000
 1.0110659197e+000	 6.4633250419e-001	 1.5321480128e+000
 1.0043946135e+000	 6.5665170405e-001	 1.4782404558e+000
 1.0881479084e+000	 5.6263587648e-001	 1.8557259201e+000
 1.0823988472e+000	 5.7361810960e-001	 1.8161491712e+000
 1.0765299491e+000	 5.8455818256e-001	 1.7682228324e+000
 1.0705416011e+000	 5.9545417983e-001	 1.7120373648e+000
 1.0644342305e+000	 6.0630418849e-001	 1.6476912154e+000
 1.0582083044e+000	 6.1710629929e-001	 1.5752907852e+000
 1.0518643301e+000	 6.2785860765e-001	 1.5045214272e+000
 1.0454028550e+000	 6.3855921475e-001	 1.4529277011e+000
 1.0388244668e+000	 6.4920622851e-001	 1.3945904952e+000
 1.0321297931e+000	 6.5979776469e-001	 1.3295848535e+000
 1.0253195013e+000	 6.7033194789e-001	 1.2579903858e+000
 1.1103550086e+000	 5.7411824131e-001	 1.8082181825e+000
 1.1044886196e+000	 5.8532460163e-001	 1.7532456824e+000
 1.0984999480e+000	 5.9648794139e-001	 1.6894696650e+000
 1.0923893889e+000	 6.0760630594e-001	 1.6169767204e+000
 1.0861573781e+000	 6.1867774335e-001	 1.5358620189e+000
 1.0798043922e+000	 6.2970030539e-001	 1.4615211093e+000
 1.0733309490e+000	 6.4067204862e-001	 1.4001317685e+000
 1.0667376072e+000	 6.5159103546e-001	 1.3315795897e+000
 1.0600249662e+000	 6.6245533522e-001	 1.2559309431e+000
 1.0531936664e+000	 6.7326302520e-001	 1.1732571829e+000
 1.0462443890e+000	 6.8401219173e-001	 1.0836346297e+000
 8.3699551125e-001	 5.4720975336e-001	 5.5888398123e+000
 8.3134228471e-001	 5.5576074499e-001	 5.6275463084e+000
 8.2559586333e-001	 5.6426188112e-001	 5.6546771645e+000
 8.1975688910e-001	 5.7271165764e-001	 5.6703951593e+000
 8.1382603608e-001	 5.8110858109e-001	 5.6748730329e+000
 8.0780401013e-001	 5.8945116950e-001	 5.6682933491e+000
 8.0169154872e-001	 5.9773795322e-001	 5.6508483434e+000
 7.9548942062e-001	 6.0596747576e-001	 5.6227397579e+000
 7.8919842564e-001	 6.1413829464e-001	 5.5841786614e+000
 7.8281939432e-001	 6.2224898220e-001	 5.5353852569e+000
 7.7635318757e-001	 6.3029812637e-001	 5.4941787690e+000
 8.5792039903e-001	 5.6088999720e-001	 4.8213217799e+000
 8.5212584183e-001	 5.6965476362e-001	 4.8466554537e+000
 8.4623575991e-001	 5.7836842815e-001	 4.8614276340e+000
 8.4025081132e-001	 5.8702944908e-001	 4.8658043701e+000
 8.3417168698e-001	 5.9563629562e-001	 4.8599609687e+000
 8.2799911038e-001	 6.0418744874e-001	 4.8440818499e+000
 8.2173383744e-001	 6.1268140204e-001	 4.8183603902e+000
 8.1537665613e-001	 6.2111666265e-001	 4.7829987523e+000
 8.0892838628e-001	 6.2949175201e-001	 4.7535684883e+000
 8.0238987918e-001	 6.3780520675e-001	 4.7279974333e+000
 7.9576201726e-001	 6.4605557953e-001	 4.6931880048e+000
 8.7884528681e-001	 5.7457024104e-001	 4.1318110059e+000
 8.7290939895e-001	 5.8354878224e-001	 4.1431793627e+000
 8.6687565649e-001	 5.9247497517e-001	 4.1449571978e+000
 8.6074473355e-001	 6.0134724052e-001	 4.1373140557e+000
 8.5451733788e-001	 6.1016401015e-001	 4.1204280638e+000
 8.4819421063e-001	 6.1892372797e-001	 4.0944857829e+000
 8.4177612615e-001	 6.2762485087e-001	 4.0688459852e+000
 8.3526389165e-001	 6.3626584955e-001	 4.0556328243e+000
 8.2865834692e-001	 6.4484520937e-001	 4.0338442733e+000
 8.2196036404e-001	 6.5336143130e-001	 4.0036437540e+000
 8.1517084695e-001	 6.6181303269e-001	 3.9652012000e+000
 8.9977017459e-001	 5.8825048487e-001	 3.5149628817e+000
 8.9369295606e-001	 5.9744280087e-001	 3.5118101549e+000
 8.8751555307e-001	 6.0658152220e-001	 3.4999975006e+000
 8.8123865577e-001	 6.1566503196e-001	 3.4796981723e+000
 8.7486298878e-001	 6.2469172467e-001	 3.4510933615e+000
 8.6838931088e-001	 6.3366000721e-001	 3.4450965052e+000
 8.6181841487e-001	 6.4256829971e-001	 3.4322856176e+000
 8.5515112716e-001	 6.5141503644e-001	 3.4117186581e+000
 8.4838830756e-001	 6.6019866674e-001	 3.3835487638e+000
 8.4153084889e-001	 6.6891765586e-001	 3.3479349133e+000
 8.3457967664e-001	 6.7757048585e-001	 3.3050418040e+000
 9.2069506237e-001	 6.0193072871e-001	 2.9659300207e+000
 9.1447651318e-001	 6.1133681950e-001	 2.9477337900e+000
 9.0815544965e-001	 6.2068806923e-001	 2.9217703811e+000
 9.0173257800e-001	 6.2998282341e-001	 2.9059903209e+000
 8.9520863967e-001	 6.3921943920e-001	 2.8982668321e+000
 8.8858441113e-001	 6.4839628645e-001	 2.8834483687e+000
 8.8186070358e-001	 6.5751174854e-001	 2.8616741013e+000
 8.7503836267e-001	 6.6656422333e-001	 2.8330884830e+000
 8.6811826820e-001	 6.7555212411e-001	 2.7978411417e+000
 8.6110133375e-001	 6.8447388041e-001	 2.7560867674e+000
 8.5398850633e-001	 6.9332793901e-001	 2.7079849932e+000
 9.4161995015e-001	 6.1561097254e-001	 2.4803070119e+000
 9.3526007029e-001	 6.2523083812e-001	 2.4473957547e+000
 9.2879534623e-001	 6.3479461626e-001	 2.4410237964e+000
 9.2222650022e-001	 6.4430061485e-001	 2.4282164822e+000
 9.1555429057e-001	 6.5374715373e-001	 2.4091018021e+000
 9.0877951138e-001	 6.6313256569e-001	 2.3838124561e+000
 9.0190299230e-001	 6.7245519737e-001	 2.3524857585e+000
 8.9492559818e-001	 6.8171341023e-001	 2.3152635379e+000
 8.8784822884e-001	 6.9090558147e-001	 2.2722920309e+000
 8.8067181861e-001	 7.0003010497e-001	 2.2237217724e+000
 8.7339733601e-001	 7.0908539217e-001	 2.1697074800e+000
 9.6254483793e-001	 6.2929121638e-001	 2.0692983976e+000
 9.5604362741e-001	 6.3912485675e-001	 2.0549151324e+000
 9.4943524281e-001	 6.4890116329e-001	 2.0348676896e+000
 9.4272042245e-001	 6.5861840629e-001	 2.0092797375e+000
 9.3589994147e-001	 6.6827486826e-001	 1.9782789917e+000
 9.2897461163e-001	 6.7786884493e-001	 1.9419971231e+000
 9.2194528101e-001	 6.8739864620e-001	 1.9005696618e+000
 9.1481283370e-001	 6.9686259713e-001	 1.8541358976e+000
 9.0757818948e-001	 7.0625903884e-001	 1.8028387755e+000
 9.0024230346e-001	 7.1558632953e-001	 1.7468247887e+000
 8.9280616570e-001	 7.2484284533e-001	 1.6862438667e+000
 9.8346972570e-001	 6.4297146022e-001	 1.7475398397e+000
 9.7682718452e-001	 6.5301887538e-001	 1.7181991182e+000
 9.7007513939e-001	 6.6300771033e-001	 1.6840638534e+000
 9.6321434467e-001	 6.7293619774e-001	 1.6452582143e+000
 9.5624559237e-001	 6.8280258279e-001	 1.6019096757e+000
 9.4916971188e-001	 6.9260512417e-001	 1.5541489253e+000
 9.4198756973e-001	 7.0234209504e-001	 1.5021097671e+000
 9.3470006921e-001	 7.1201178402e-001	 1.4459290223e+000
 9.2730815011e-001	 7.2161249621e-001	 1.3857464269e+000
 9.1981278832e-001	 7.3114255408e-001	 1.3217045273e+000
 9.1221499539e-001	 7.4060029849e-001	 1.2539485726e+000
 1.0043946135e+000	 6.5665170405e-001	 1.4782404558e+000
 9.9761074164e-001	 6.6691289401e-001	 1.4335792060e+000
 9.9071503597e-001	 6.7711425736e-001	 1.3849703140e+000
 9.8370826689e-001	 6.8725398918e-001	 1.3325384619e+000
 9.7659124327e-001	 6.9733029732e-001	 1.2764109075e+000
 9.6936481213e-001	 7.0734140341e-001	 1.2167173893e+000
 9.6202985844e-001	 7.1728554387e-001	 1.1535900301e+000
 9.5458730472e-001	 7.2716097092e-001	 1.0871632382e+000
 9.4703811075e-001	 7.3696595358e-001	 1.0175736075e+000
 9.3938327317e-001	 7.4669877864e-001	 9.4495981548e-001
 9.3162382508e-001	 7.5635775165e-001	 8.6946251953e-001
 1.0253195013e+000	 6.7033194789e-001	 1.2579903858e+000
 1.0183942987e+000	 6.8080691263e-001	 1.1976681414e+000
 1.0113549325e+000	 6.9122080439e-001	 1.1342242726e+000
 1.0042021891e+000	 7.0157178063e-001	 1.0677839797e+000
 9.9693689417e-001	 7.1185801186e-001	 9.9847431692e-001
 9.8955991238e-001	 7.2207768265e-001	 9.2642409689e-001
 9.8207214715e-001	 7.3222899270e-001	 8.5176379364e-001
 9.7447454023e-001	 7.4231015782e-001	 7.7462544512e-001
 9.6676807139e-001	 7.5231941095e-001	 6.9514255490e-001
 9.5895375803e-001	 7.6225500320e-001	 6.1344999312e-001
 9.5103265477e-001	 7.7211520481e-001	 5.2968389712e-001
 1.0462443890e+000	 6.8401219173e-001	 1.0836346297e+000
 1.0391778559e+000	 6.9470093126e-001	 1.0073317958e+000
 1.0319948291e+000	 7.0532735142e-001	 9.2871418834e-001
 1.0246961113e+000	 7.1588957207e-001	 8.4790752220e-001
 1.0172825451e+000	 7.2638572639e-001	 7.6503865290e-001
 1.0097550126e+000	 7.3681396190e-001	 6.8023547986e-001
 1.0021144359e+000	 7.4717244154e-001	 5.9362684962e-001
 9.9436177575e-001	 7.5745934472e-001	 5.0534245923e-001
 9.8649803203e-001	 7.6767286832e-001	 4.1551275993e-001
 9.7852424289e-001	 7.7781122776e-001	 3.2426886126e-001
 9.7044148445e-001	 7.8787265798e-001	 2.3174243576e-001
 7.7635318757e-001	 6.3029812637e-001	 5.4941787690e+000
 7.6980069631e-001	 6.3828433156e-001	 5.4383426355e+000
 7.6316284107e-001	 6.4620621937e-001	 5.3734196218e+000
 7.5644057159e-001	 6.5406242942e-001	 5.2997392402e+000
 7.4963486637e-001	 6.6185162011e-001	 5.2176381522e+000
 7.4274673220e-001	 6.6957246936e-001	 5.1274598536e+000
 7.3577720365e-001	 6.7722367538e-001	 5.0295543492e+000
 7.2872734261e-001	 6.8480395737e-001	 4.9242778206e+000
 7.2159823770e-001	 6.9231205626e-001	 4.8119922852e+000
 7.1439100374e-001	 6.9974673538e-001	 4.6930652483e+000
 7.0710678115e-001	 7.0710678115e-001	 4.5678693481e+000
 7.9576201726e-001	 6.4605557953e-001	 4.6931880048e+000
 7.8904571372e-001	 6.5424143985e-001	 4.6443013551e+000
 7.8224191210e-001	 6.6236137485e-001	 4.5872622374e+000
 7.7535158588e-001	 6.7041399015e-001	 4.5223724771e+000
 7.6837573803e-001	 6.7839791061e-001	 4.4499402805e+000
 7.6131540050e-001	 6.8631178109e-001	 4.3702799488e+000
 7.5417163374e-001	 6.9415426726e-001	 4.2837115839e+000
 7.4694552618e-001	 7.0192405631e-001	 4.1905607881e+000
 7.3963819364e-001	 7.0961985767e-001	 4.0911583553e+000
 7.3225077883e-001	 7.1724040377e-001	 3.9858399573e+000
 7.2478445068e-001	 7.2478445068e-001	 3.8749458231e+000
 8.1517084695e-001	 6.6181303269e-001	 3.9652012000e+000
 8.0829073112e-001	 6.7019854813e-001	 3.9207937751e+000
 8.0132098312e-001	 6.7851653033e-001	 3.8691355836e+000
 7.9426260017e-001	 6.8676555089e-001	 3.8105018010e+000
 7.8711660969e-001	 6.9494420111e-001	 3.7451732350e+000
 7.7988406881e-001	 7.0305109283e-001	 3.6734360676e+000
 7.7256606384e-001	 7.1108485915e-001	 3.5955815919e+000
 7.6516370974e-001	 7.1904415524e-001	 3.5119059415e+000
 7.5767814959e-001	 7.2692765908e-001	 3.4227098145e+000
 7.5011055393e-001	 7.3473407215e-001	 3.3282981922e+000
 7.4246212021e-001	 7.4246212021e-001	 3.2289800521e+000
 8.3457967664e-001	 6.7757048585e-001	 3.3050418040e+000
 8.2753574853e-001	 6.8615565642e-001	 3.2628194810e+000
 8.2040005415e-001	 6.9467168582e-001	 3.2142179923e+000
 8.1317361446e-001	 7.0311711162e-001	 3.1594868150e+000
 8.0585748135e-001	 7.1149049161e-001	 3.0988803272e+000
 7.9845273712e-001	 7.1979040456e-001	 3.0326575785e+000
 7.9096049393e-001	 7.2801545103e-001	 2.9610820556e+000
 7.8338189331e-001	 7.3616425418e-001	 2.8844214423e+000
 7.7571810553e-001	 7.4423546049e-001	 2.8029473746e+000
 7.6797032902e-001	 7.5222774054e-001	 2.7169351907e+000
 7.6013978974e-001	 7.6013978974e-001	 2.6266636774e+000
 8.5398850633e-001	 6.9332793901e-001	 2.7079849932e+000
 8.4678076594e-001	 7.0211276471e-001	 2.6658139993e+000
 8.3947912518e-001	 7.1082684130e-001	 2.6181077252e+000
 8.3208462875e-001	 7.1946867236e-001	 2.5650908231e+000
 8.2459835301e-001	 7.2803678212e-001	 2.5069921309e+000
 8.1702140542e-001	 7.3652971630e-001	 2.4440444710e+000
 8.0935492402e-001	 7.4494604292e-001	 2.3764844438e+000
 8.0160007688e-001	 7.5328435311e-001	 2.3045522172e+000
 7.9375806148e-001	 7.6154326189e-001	 2.2284913125e+000
 7.8583010412e-001	 7.6972140893e-001	 2.1485483855e+000
 7.7781745927e-001	 7.7781745927e-001	 2.0649730050e+000
 8.7339733601e-001	 7.0908539217e-001	 2.1697074800e+000
 8.6602578334e-001	 7.1806987300e-001	 2.1256003595e+000
 8.5855819620e-001	 7.2698199679e-001	 2.0767763147e+000
 8.5099564304e-001	 7.3582023310e-001	 2.0234359745e+000
 8.4333922467e-001	 7.4458307262e-001	 1.9657834533e+000
 8.3559007373e-001	 7.5326902803e-001	 1.9040261764e+000
 8.2774935411e-001	 7.6187663480e-001	 1.8383747019e+000
 8.1981826044e-001	 7.7040445205e-001	 1.7690425389e+000
 8.1179801742e-001	 7.7885106330e-001	 1.6962459628e+000
 8.0368987921e-001	 7.8721507731e-001	 1.6202038275e+000
 7.9549512880e-001	 7.9549512880e-001	 1.5411373753e+000
 8.9280616570e-001	 7.2484284533e-001	 1.6862438667e+000
 8.8527080075e-001	 7.3402698129e-001	 1.6383469745e+000
 8.7763726723e-001	 7.4313715227e-001	 1.5865279913e+000
 8.6990665733e-001	 7.5217179383e-001	 1.5309642590e+000
 8.6208009633e-001	 7.6112936312e-001	 1.4718359179e+000
 8.5415874203e-001	 7.7000833977e-001	 1.4093257583e+000
 8.4614378421e-001	 7.7880722669e-001	 1.3436190702e+000
 8.3803644401e-001	 7.8752455098e-001	 1.2749034894e+000
 8.2983797336e-001	 7.9615886471e-001	 1.2033688422e+000
 8.2154965430e-001	 8.0470874570e-001	 1.1292069878e+000
 8.1317279833e-001	 8.1317279833e-001	 1.0526116590e+000
 9.1221499539e-001	 7.4060029849e-001	 1.2539485726e+000
 9.0451581816e-001	 7.4998408958e-001	 1.2005308972e+000
 8.9671633826e-001	 7.5929230776e-001	 1.1439642898e+000
 8.8881767162e-001	 7.6852335457e-001	 1.0844034811e+000
 8.8082096799e-001	 7.7767565363e-001	 1.0220053247e+000
 8.7272741034e-001	 7.8674765150e-001	 9.5692867543e-001
 8.6453821430e-001	 7.9573781857e-001	 8.8933426460e-001
 8.5625462758e-001	 8.0464464992e-001	 8.1938457522e-001
 8.4787792931e-001	 8.1346666612e-001	 7.4724371485e-001
 8.3940942940e-001	 8.2220241408e-001	 6.7307728761e-001
 8.3085046786e-001	 8.3085046786e-001	 5.9705226500e-001
 9.3162382508e-001	 7.5635775165e-001	 8.6946251953e-001
 9.2376083557e-001	 7.6594119787e-001	 8.0890567094e-001
 9.1579540928e-001	 7.7544746325e-001	 7.4595308046e-001
 9.0772868592e-001	 7.8487491531e-001	 6.8073748765e-001
 8.9956183966e-001	 7.9422194413e-001	 6.1339309048e-001
 8.9129607865e-001	 8.0348696323e-001	 5.4405544858e-001
 8.8293264439e-001	 8.1266841046e-001	 4.7286138581e-001
 8.7447281114e-001	 8.2176474885e-001	 3.9994889218e-001
 8.6591788525e-001	 8.3077446752e-001	 3.2545702535e-001
 8.5726920449e-001	 8.3969608247e-001	 2.4952581160e-001
 8.4852813739e-001	 8.4852813739e-001	 1.7229614658e-001
 9.5103265477e-001	 7.7211520481e-001	 5.2968389712e-001
 9.4300585297e-001	 7.8189830617e-001	 4.6047311604e-001
 9.3487448031e-001	 7.9160261873e-001	 3.8960139176e-001
 9.2663970021e-001	 8.0122647604e-001	 3.1718004137e-001
 9.1830271132e-001	 8.1076823464e-001	 2.4332118514e-001
 9.0986474695e-001	 8.2022627497e-001	 1.6813767494e-001
 9.0132707449e-001	 8.2959900235e-001	 9.1743022846e-002
 8.9269099471e-001	 8.3888484779e-001	 1.4251330165e-002
 8.8395784120e-001	 8.4808226893e-001	-6.4222783269e-002
 8.7512897959e-001	 8.5718975085e-001	-1.4356424935e-001
 8.6620580692e-001	 8.6620580692e-001	-2.2365762152e-001
 9.7044148445e-001	 7.8787265798e-001	 2.3174243576e-001
 9.6225087038e-001	 7.9785541446e-001	 1.5245850203e-001
 9.5395355134e-001	 8.0775777422e-001	 7.2231494557e-002
 9.4555071450e-001	 8.1757803678e-001	-8.8481710960e-003
 9.3704358298e-001	 8.2731452514e-001	-9.0689923010e-002
 9.2843341526e-001	 8.3696558670e-001	-1.7320307972e-001
 9.1972150458e-001	 8.4652959423e-001	-2.5629689578e-001
 9.1090917828e-001	 8.5600494672e-001	-3.3988060613e-001
 9.0199779714e-001	 8.6539007034e-001	-4.2386346922e-001
 8.9298875468e-001	 8.7468341924e-001	-5.0815480890e-001
 8.8388347645e-001	 8.8388347645e-001	-5.9266405516e-001
 7.0710678115e-001	 7.0710678115e-001	 4.5678693481e+000
 6.9974673538e-001	 7.1439100374e-001	 4.4281187731e+000
 6.9231205626e-001	 7.2159823770e-001	 4.2791223389e+000
 6.8480395737e-001	 7.2872734261e-001	 4.1213216558e+000
 6.7722367538e-001	 7.3577720365e-001	 3.9551654084e+000
 6.6957246936e-001	 7.4274673220e-001	 3.7811089096e+000
 6.6185162011e-001	 7.4963486637e-001	 3.5996136477e+000
 6.5406242942e-001	 7.5644057159e-001	 3.4111468254e+000
 6.4620621937e-001	 7.6316284107e-001	 3.2161808938e+000
 6.3828433156e-001	 7.6980069631e-001	 3.0151930798e+000
 6.3029812637e-001	 7.7635318757e-001	 2.8086649090e+000
 7.2478445068e-001	 7.2478445068e-001	 3.8749458231e+000
 7.1724040377e-001	 7.3225077883e-001	 3.7539911209e+000
 7.0961985767e-001	 7.3963819364e-001	 3.6248892997e+000
 7.0192405631e-001	 7.4694552618e-001	 3.4880416863e+000
 6.9415426726e-001	 7.5417163374e-001	 3.3438558564e+000
 6.8631178109e-001	 7.6131540050e-001	 3.1927452348e+000
 6.7839791061e-001	 7.6837573803e-001	 3.0351286870e+000
 6.7041399015e-001	 7.7535158588e-001	 2.8714301071e+000
 6.6236137485e-001	 7.8224191210e-001	 2.7020779974e+000
 6.5424143985e-001	 7.8904571372e-001	 2.5275050456e+000
 6.4605557953e-001	 7.9576201726e-001	 2.3481476963e+000
 7.4246212021e-001	 7.4246212021e-001	 3.2289800521e+000
 7.3473407215e-001	 7.5011055393e-001	 3.1235923403e+000
 7.2692765908e-001	 7.5767814959e-001	 3.0111121697e+000
 7.1904415524e-001	 7.6516370974e-001	 2.8919020275e+000
 7.1108485915e-001	 7.7256606384e-001	 2.7663298505e+000
 7.0305109283e-001	 7.7988406881e-001	 2.6347686684e+000
 6.9494420111e-001	 7.8711660969e-001	 2.4975962411e+000
 6.8676555089e-001	 7.9426260017e-001	 2.3551946911e+000
 6.7851653033e-001	 8.0132098312e-001	 2.2079501307e+000
 6.7019854813e-001	 8.0829073112e-001	 2.0562522855e+000
 6.6181303269e-001	 8.1517084695e-001	 1.9004941137e+000
 7.6013978974e-001	 7.6013978974e-001	 2.6266636774e+000
 7.5222774054e-001	 7.6797032902e-001	 2.5338457737e+000
 7.4423546049e-001	 7.7571810553e-001	 2.4349492442e+000
 7.3616425418e-001	 7.8338189331e-001	 2.3302990633e+000
 7.2801545103e-001	 7.9096049393e-001	 2.2202248787e+000
 7.1979040456e-001	 7.9845273712e-001	 2.1050606973e+000
 7.1149049161e-001	 8.0585748135e-001	 1.9851445662e+000
 7.0311711162e-001	 8.1317361446e-001	 1.8608182496e+000
 6.9467168582e-001	 8.2040005415e-001	 1.7324269014e+000
 6.8615565642e-001	 8.2753574853e-001	 1.6003187339e+000
 6.7757048585e-001	 8.3457967664e-001	 1.4648446850e+000
 7.7781745927e-001	 7.7781745927e-001	 2.0649730050e+000
 7.6972140893e-001	 7.8583010412e-001	 1.9819386954e+000
 7.6154326189e-001	 7.9375806148e-001	 1.8938017313e+000
 7.5328435311e-001	 8.0160007688e-001	 1.8008507938e+000
 7.4494604292e-001	 8.0935492402e-001	 1.7033784819e+000
 7.3652971630e-001	 8.1702140542e-001	 1.6016810411e+000
 7.2803678212e-001	 8.2459835301e-001	 1.4960580860e+000
 7.1946867236e-001	 8.3208462875e-001	 1.3868123213e+000
 7.1082684130e-001	 8.3947912518e-001	 1.2742492585e+000
 7.0211276471e-001	 8.4678076594e-001	 1.1586769295e+000
 6.9332793901e-001	 8.5398850633e-001	 1.0404055989e+000
 7.9549512880e-001	 7.9549512880e-001	 1.5411373753e+000
 7.8721507731e-001	 8.0368987921e-001	 1.4652929858e+000
 7.7885106330e-001	 8.1179801742e-001	 1.3852867615e+000
 7.7040445205e-001	 8.1981826044e-001	 1.3013722110e+000
 7.6187663480e-001	 8.2774935411e-001	 1.2138060257e+000
 7.5326902803e-001	 8.3559007373e-001	 1.1228478483e+000
 7.4458307262e-001	 8.4333922467e-001	 1.0287600388e+000
 7.3582023310e-001	 8.5099564304e-001	 9.3180743679e-001
 7.2698199679e-001	 8.5855819620e-001	 8.3225712156e-001
 7.1806987300e-001	 8.6602578334e-001	 7.3037817018e-001
 7.0908539217e-001	 8.7339733601e-001	 6.2644141358e-001
 8.1317279833e-001	 8.1317279833e-001	 1.0526116590e+000
 8.0470874570e-001	 8.2154965430e-001	 9.8153963084e-001
 7.9615886471e-001	 8.2983797336e-001	 9.0721391820e-001
 7.8752455098e-001	 8.3803644401e-001	 8.2985388755e-001
 7.7880722669e-001	 8.4614378421e-001	 7.4968137121e-001
 7.7000833977e-001	 8.5415874203e-001	 6.6692047601e-001
 7.6112936312e-001	 8.6208009633e-001	 5.8179738967e-001
 7.5217179383e-001	 8.6990665733e-001	 4.9454018508e-001
 7.4313715227e-001	 8.7763726723e-001	 4.0537862284e-001
 7.3402698129e-001	 8.8527080075e-001	 3.1454395234e-001
 7.2484284533e-001	 8.9280616570e-001	 2.2226871142e-001
 8.3085046786e-001	 8.3085046786e-001	 5.9705226500e-001
 8.2220241408e-001	 8.3940942940e-001	 5.2849647696e-001
 8.1346666612e-001	 8.4787792931e-001	 4.5756476357e-001
 8.0464464992e-001	 8.5625462758e-001	 3.8444329691e-001
 7.9573781857e-001	 8.6453821430e-001	 3.0932001459e-001
 7.8674765150e-001	 8.7272741034e-001	 2.3238446777e-001
 7.7767565363e-001	 8.8082096799e-001	 1.5382766763e-001
 7.6852335457e-001	 8.8881767162e-001	 7.3841930672e-002
 7.5929230776e-001	 8.9671633826e-001	-7.3792771166e-003
 7.4998408958e-001	 9.0451581816e-001	-8.9641497009e-002
 7.4060029849e-001	 9.1221499539e-001	-1.7274943498e-001
 8.4852813739e-001	 8.4852813739e-001	 1.7229614658e-001
 8.3969608247e-001	 8.5726920449e-001	 1.0414876608e-001
 8.3077446752e-001	 8.6591788525e-001	 3.4474924416e-002
 8.2176474885e-001	 8.7447281114e-001	-3.6571529799e-002
 8.1266841046e-001	 8.8293264439e-001	-1.0883566722e-001
 8.0348696323e-001	 8.9129607865e-001	-1.8216159111e-001
 7.9422194413e-001	 8.9956183966e-001	-2.5639255135e-001
 7.8487491531e-001	 9.0772868592e-001	-3.3137105889e-001
 7.7544746325e-001	 9.1579540928e-001	-4.0693900065e-001
 7.6594119787e-001	 9.2376083557e-001	-4.8293775474e-001
 7.5635775165e-001	 9.3162382508e-001	-5.5920830577e-001
 8.6620580692e-001	 8.6620580692e-001	-2.2365762152e-001
 8.5718975085e-001	 8.7512897959e-001	-2.9336794534e-001
 8.4808226893e-001	 8.8395784120e-001	-3.6378162882e-001
 8.3888484779e-001	 8.9269099471e-001	-4.3477634665e-001
 8.2959900235e-001	 9.0132707449e-001	-5.0622936328e-001
 8.2022627497e-001	 9.0986474695e-001	-5.7801760821e-001
 8.1076823464e-001	 9.1830271132e-001	-6.5001775112e-001
 8.0122647604e-001	 9.2663970021e-001	-7.2210627660e-001
 7.9160261873e-001	 9.3487448031e-001	-7.9415955886e-001
 7.8189830617e-001	 9.4300585297e-001	-8.6605393588e-001
 7.7211520481e-001	 9.5103265477e-001	-9.3766578347e-001
 8.8388347645e-001	 8.8388347645e-001	-5.9266405516e-001
 8.7468341924e-001	 8.9298875468e-001	-6.6578281781e-001
 8.6539007034e-001	 9.0199779714e-001	-7.3880641644e-001
 8.5600494672e-001	 9.1090917828e-001	-8.1164331438e-001
 8.4652959423e-001	 9.1972150458e-001	-8.8420222207e-001
 8.3696558670e-001	 9.2843341526e-001	-9.5639213480e-001
 8.2731452514e-001	 9.3704358298e-001	-1.0281223694e+000
 8.1757803678e-001	 9.4555071450e-001	-1.0993025999e+000
 8.0775777422e-001	 9.5395355134e-001	-1.1698428927e+000
 7.9785541446e-001	 9.6225087038e-001	-1.2396537398e+000
 7.8787265798e-001	 9.7044148445e-001	-1.3086460928e+000
 6.3029812637e-001	 7.7635318757e-001	 2.8086649090e+000
 6.2224898220e-001	 7.8281939432e-001	 2.6087597587e+000
 6.1413829464e-001	 7.8919842564e-001	 2.3899387192e+000
 6.0596747576e-001	 7.9548942062e-001	 2.1657343873e+000
 5.9773795322e-001	 8.0169154872e-001	 1.9365856345e+000
 5.8945116950e-001	 8.0780401013e-001	 1.7029344363e+000
 5.8110858109e-001	 8.1382603608e-001	 1.4652253891e+000
 5.7271165764e-001	 8.1975688910e-001	 1.2239052253e+000
 5.6426188112e-001	 8.2559586333e-001	 9.7942232919e-001
 5.5576074499e-001	 8.3134228471e-001	 7.3222625310e-001
 5.4720975336e-001	 8.3699551125e-001	 4.8276723562e-001
 6.4605557953e-001	 7.9576201726e-001	 2.3481476963e+000
 6.3780520675e-001	 8.0238987918e-001	 2.1757532073e+000
 6.2949175201e-001	 8.0892838628e-001	 1.9987347925e+000
 6.2111666265e-001	 8.1537665613e-001	 1.8075219949e+000
 6.1268140204e-001	 8.2173383744e-001	 1.6006930560e+000
 6.0418744874e-001	 8.2799911038e-001	 1.3901154613e+000
 5.9563629562e-001	 8.3417168698e-001	 1.1762085829e+000
 5.8702944908e-001	 8.4025081132e-001	 9.5939342046e-001
 5.7836842815e-001	 8.4623575991e-001	 7.4009214377e-001
 5.6965476362e-001	 8.5212584183e-001	 5.1872763612e-001
 5.6088999720e-001	 8.5792039903e-001	 2.9572303991e-001
 6.6181303269e-001	 8.1517084695e-001	 1.9004941137e+000
 6.5336143130e-001	 8.2196036404e-001	 1.7466520276e+000
 6.4484520937e-001	 8.2865834692e-001	 1.5889915683e+000
 6.3626584955e-001	 8.3526389165e-001	 1.4278455781e+000
 6.2762485087e-001	 8.4177612615e-001	 1.2635494484e+000
 6.1892372797e-001	 8.4819421063e-001	 1.0805349952e+000
 6.1016401015e-001	 8.5451733788e-001	 8.8802089365e-001
 6.0134724052e-001	 8.6074473355e-001	 6.9326916620e-001
 5.9247497517e-001	 8.6687565649e-001	 4.9667710589e-001
 5.8354878224e-001	 8.7290939895e-001	 2.9864227810e-001
 5.7457024104e-001	 8.7884528681e-001	 9.9562092325e-002
 6.7757048585e-001	 8.3457967664e-001	 1.4648446850e+000
 6.6891765586e-001	 8.4153084889e-001	 1.3275900915e+000
 6.6019866674e-001	 8.4838830756e-001	 1.1872877097e+000
 6.5141503644e-001	 8.5515112716e-001	 1.0442440200e+000
 6.4256829971e-001	 8.6181841487e-001	 8.9876751486e-001
 6.3366000721e-001	 8.6838931088e-001	 7.5116840890e-001
 6.2469172467e-001	 8.7486298878e-001	 6.0093537324e-001
 6.1566503196e-001	 8.8123865577e-001	 4.2596833728e-001
 6.0658152220e-001	 8.8751555307e-001	 2.4977802448e-001
 5.9744280087e-001	 8.9369295606e-001	 7.2737951385e-002
 5.8825048487e-001	 8.9977017459e-001	-1.0477892511e-001
 6.9332793901e-001	 8.5398850633e-001	 1.0404055989e+000
 6.8447388041e-001	 8.6110133375e-001	 9.1791520545e-001
 6.7555212411e-001	 8.6811826820e-001	 7.9311503013e-001
 6.6656422333e-001	 8.7503836267e-001	 6.6628597981e-001
 6.5751174854e-001	 8.8186070358e-001	 5.3771045564e-001
 6.4839628645e-001	 8.8858441113e-001	 4.0767209349e-001
 6.3921943920e-001	 8.9520863967e-001	 2.7645550371e-001
 6.2998282341e-001	 9.0173257800e-001	 1.4434601066e-001
 6.2068806923e-001	 9.0815544965e-001	-5.4670299668e-005
 6.1133681950e-001	 9.1447651318e-001	-1.5828336088e-001
 6.0193072871e-001	 9.2069506237e-001	-3.1644470550e-001
 7.0908539217e-001	 8.7339733601e-001	 6.2644141358e-001
 7.0003010497e-001	 8.8067181861e-001	 5.1702133920e-001
 6.9090558147e-001	 8.8784822884e-001	 4.0599909009e-001
 6.8171341023e-001	 8.9492559818e-001	 2.9363071794e-001
 6.7245519737e-001	 9.0190299230e-001	 1.8017326728e-001
 6.6313256569e-001	 9.0877951138e-001	 6.5884546417e-002
 6.5374715373e-001	 9.1555429057e-001	-4.8977101742e-002
 6.4430061485e-001	 9.2222650022e-001	-1.6415302880e-001
 6.3479461626e-001	 9.2879534623e-001	-2.7938450952e-001
 6.2523083812e-001	 9.3526007029e-001	-3.9441296973e-001
 6.1561097254e-001	 9.4161995015e-001	-5.3465227541e-001
 7.2484284533e-001	 8.9280616570e-001	 2.2226871142e-001
 7.1558632953e-001	 9.0024230346e-001	 1.2434360747e-001
 7.0625903884e-001	 9.0757818948e-001	 2.5495529365e-002
 6.9686259713e-001	 9.1481283370e-001	-7.4043673269e-002
 6.8739864620e-001	 9.2194528101e-001	-1.7404164382e-001
 6.7786884493e-001	 9.2897461163e-001	-2.7426571764e-001
 6.6827486826e-001	 9.3589994147e-001	-3.7448312074e-001
 6.5861840629e-001	 9.4272042245e-001	-4.7446116803e-001
 6.4890116329e-001	 9.4943524281e-001	-5.7396746074e-001
 6.3912485675e-001	 9.5604362741e-001	-6.7277008293e-001
 6.2929121638e-001	 9.6254483793e-001	-7.7063779665e-001
 7.4060029849e-001	 9.1221499539e-001	-1.7274943498e-001
 7.3114255408e-001	 9.1981278832e-001	-2.6064610696e-001
 7.2161249621e-001	 9.2730815011e-001	-3.4881313303e-001
 7.1201178402e-001	 9.3470006921e-001	-4.3704227272e-001
 7.0234209504e-001	 9.4198756973e-001	-5.2512524966e-001
 6.9260512417e-001	 9.4916971188e-001	-6.1285392094e-001
 6.8280258279e-001	 9.5624559237e-001	-7.0002044573e-001
 6.7293619774e-001	 9.6321434467e-001	-7.8641745313e-001
 6.6300771033e-001	 9.7007513939e-001	-8.7183820891e-001
 6.5301887538e-001	 9.7682718452e-001	-9.5607678100e-001
 6.4297146022e-001	 9.8346972570e-001	-1.0389282036e+000
 7.5635775165e-001	 9.3162382508e-001	-5.5920830577e-001
 7.4669877864e-001	 9.3938327317e-001	-6.3844298328e-001
 7.3696595358e-001	 9.4703811075e-001	-7.1732029877e-001
 7.2716097092e-001	 9.5458730472e-001	-7.9565508357e-001
 7.1728554387e-001	 9.6202985844e-001	-8.7326259039e-001
 7.0734140341e-001	 9.6936481213e-001	-9.4995863338e-001
 6.9733029732e-001	 9.7659124327e-001	-1.0255597272e+000
 6.8725398918e-001	 9.8370826689e-001	-1.0998832247e+000
 6.7711425736e-001	 9.9071503597e-001	-1.1727474537e+000
 6.6691289401e-001	 9.9761074164e-001	-1.2439718515e+000
 6.5665170405e-001	 1.0043946135e+000	-1.3133770989e+000
 7.7211520481e-001	 9.5103265477e-001	-9.3766578347e-001
 7.6225500320e-001	 9.5895375803e-001	-1.0095126236e+000
 7.5231941095e-001	 9.6676807139e-001	-1.0803977473e+000
 7.4231015782e-001	 9.7447454023e-001	-1.1501585716e+000
 7.3222899270e-001	 9.8207214715e-001	-1.2186333796e+000
 7.2207768265e-001	 9.8955991238e-001	-1.2856614310e+000
 7.1185801186e-001	 9.9693689417e-001	-1.3510830718e+000
 7.0157178063e-001	 1.0042021891e+000	-1.4147398429e+000
 6.9122080439e-001	 1.0113549325e+000	-1.4764745863e+000
 6.8080691263e-001	 1.0183942987e+000	-1.5361315503e+000
 6.7033194789e-001	 1.0253195013e+000	-1.5935564922e+000
 7.8787265798e-001	 9.7044148445e-001	-1.3086460928e+000
 7.7781122776e-001	 9.7852424289e-001	-1.3742940109e+000
 7.6767286832e-001	 9.8649803203e-001	-1.4383977979e+000
 7.5745934472e-001	 9.9436177575e-001	-1.5008170190e+000
 7.4717244154e-001	 1.0021144359e+000	-1.5614125371e+000
 7.3681396190e-001	 1.0097550126e+000	-1.6200465952e+000
 7.2638572639e-001	 1.0172825451e+000	-1.6765828968e+000
 7.1588957207e-001	 1.0246961113e+000	-1.7308866853e+000
 7.0532735142e-001	 1.0319948291e+000	-1.7828248207e+000
 6.9470093126e-001	 1.0391778559e+000	-1.8322658545e+000
 6.8401219173e-001	 1.0462443890e+000	-1.8790801033e+000
 5.4720975336e-001	 8.3699551125e-001	 4.8276723562e-001
 5.3861042014e-001	 8.4255493313e-001	 2.3244544976e-001
 5.2996426816e-001	 8.4801997294e-001	-2.3373345978e-002
 5.2127282835e-001	 8.5339008574e-001	-2.8419360608e-001
 5.1253763888e-001	 8.5866475923e-001	-5.4951748230e-001
 5.0376024430e-001	 8.6384351377e-001	-8.1884536470e-001
 4.9494219467e-001	 8.6892590245e-001	-1.0916764201e+000
 4.8608504475e-001	 8.7391151114e-001	-1.3675091270e+000
 4.7719035311e-001	 8.7879995843e-001	-1.6458418068e+000
 4.6825968131e-001	 8.8359089566e-001	-1.9261731494e+000
 4.5929459305e-001	 8.8828400685e-001	-2.2080027326e+000
 5.6088999720e-001	 8.5792039903e-001	 2.9572303991e-001
 5.5207568064e-001	 8.6361880646e-001	 7.4678236332e-002
 5.4321337486e-001	 8.6922047226e-001	-1.5055361502e-001
 5.3430464906e-001	 8.7472483789e-001	-3.7951729551e-001
 5.2535107986e-001	 8.8013137822e-001	-6.1175615677e-001
 5.1635425041e-001	 8.8543960162e-001	-8.4681261548e-001
 5.0731574954e-001	 8.9064905002e-001	-1.0842286449e+000
 4.9823717087e-001	 8.9575929892e-001	-1.3235462623e+000
 4.8912011194e-001	 9.0076995739e-001	-1.5643080120e+000
 4.7996617334e-001	 9.0568066805e-001	-1.8060574422e+000
 4.7077695788e-001	 9.1049110702e-001	-2.0483395763e+000
 5.7457024104e-001	 8.7884528681e-001	 9.9562092325e-002
 5.6554094115e-001	 8.8468267979e-001	-9.5470974697e-002
 5.5646248157e-001	 8.9042097158e-001	-2.9344130878e-001
 5.4733646978e-001	 8.9605959003e-001	-4.9393215702e-001
 5.3816452084e-001	 9.0159799720e-001	-6.9652618394e-001
 5.2894825652e-001	 9.0703568946e-001	-9.0080592180e-001
 5.1968930441e-001	 9.1237219758e-001	-1.1063542172e+000
 5.1038929699e-001	 9.1760708670e-001	-1.3127546729e+000
 5.0104987077e-001	 9.2273995635e-001	-1.5195920846e+000
 4.9167266537e-001	 9.2777044045e-001	-1.7264528712e+000
 4.8225932270e-001	 9.3269820719e-001	-1.9329254992e+000
 5.8825048487e-001	 8.9977017459e-001	-1.0477892511e-001
 5.7900620166e-001	 9.0574655311e-001	-2.7684529999e-001
 5.6971158828e-001	 9.1162147091e-001	-4.5065513584e-001
 5.6036829049e-001	 9.1739434218e-001	-6.2582840253e-001
 5.5097796181e-001	 9.2306461618e-001	-8.0198531048e-001
 5.4154226263e-001	 9.2863177731e-001	-9.7874671849e-001
 5.3206285928e-001	 9.3409534514e-001	-1.1557345371e+000
 5.2254142311e-001	 9.3945487447e-001	-1.3325721264e+000
 5.1297962959e-001	 9.4470995531e-001	-1.5088846889e+000
 5.0337915740e-001	 9.4986021284e-001	-1.6842996546e+000
 4.9374168753e-001	 9.5490530736e-001	-1.8584470604e+000
 6.0193072871e-001	 9.2069506237e-001	-3.1644470550e-001
 5.9247146216e-001	 9.2681042644e-001	-4.6838947837e-001
 5.8296069499e-001	 9.3282197023e-001	-6.2093605433e-001
 5.7340011120e-001	 9.3872909432e-001	-7.7373949015e-001
 5.6379140279e-001	 9.4453123516e-001	-9.2645588412e-001
 5.5413626874e-001	 9.5022786515e-001	-1.0787427430e+000
 5.4443641415e-001	 9.5581849270e-001	-1.2302593440e+000
 5.3469354923e-001	 9.6130266225e-001	-1.3806670905e+000
 5.2490938842e-001	 9.6667995427e-001	-1.5296298616e+000
 5.1508564944e-001	 9.7194998523e-001	-1.6768143553e+000
 5.0522405235e-001	 9.7711240753e-001	-1.8218904232e+000
 6.1561097254e-001	 9.4161995015e-001	-5.3465227541e-001
 6.0593672267e-001	 9.4787429977e-001	-6.6913857943e-001
 5.9620980169e-001	 9.5402246955e-001	-8.0313368863e-001
 5.8643193191e-001	 9.6006384646e-001	-9.3632620802e-001
 5.7660484376e-001	 9.6599785414e-001	-1.0684065646e+000
 5.6673027485e-001	 9.7182395300e-001	-1.1990673353e+000
 5.5680996902e-001	 9.7754164026e-001	-1.3280035684e+000
 5.4684567535e-001	 9.8315045003e-001	-1.4549130993e+000
 5.3683914725e-001	 9.8864995323e-001	-1.5794968589e+000
 5.2679214147e-001	 9.9403975762e-001	-1.7014591751e+000
 5.1670641718e-001	 9.9931950770e-001	-1.8205080659e+000
 6.2929121638e-001	 9.6254483793e-001	-7.7063779665e-001
 6.1940198317e-001	 9.6893817309e-001	-8.7820818504e-001
 6.0945890840e-001	 9.7522296887e-001	-9.9619451779e-001
 5.9946375262e-001	 9.8139859860e-001	-1.1123628340e+000
 5.8941828473e-001	 9.8746447312e-001	-1.2264364204e+000
 5.7932428096e-001	 9.9342004084e-001	-1.3381414373e+000
 5.6918352389e-001	 9.9926478782e-001	-1.4472072016e+000
 5.5899780147e-001	 1.0049982378e+000	-1.5533664638e+000
 5.4876890608e-001	 1.0106199522e+000	-1.6563556764e+000
 5.3849863350e-001	 1.0161295300e+000	-1.7559152556e+000
 5.2818878200e-001	 1.0215266079e+000	-1.8517898342e+000
 6.4297146022e-001	 9.8346972570e-001	-1.0389282036e+000
 6.3286724368e-001	 9.9000204642e-001	-1.1169439197e+000
 6.2270801510e-001	 9.9642346820e-001	-1.1991515719e+000
 6.1249557333e-001	 1.0027333507e+000	-1.3007250624e+000
 6.0223172571e-001	 1.0089310921e+000	-1.3992610552e+000
 5.9191828707e-001	 1.0150161287e+000	-1.4945178907e+000
 5.8155707876e-001	 1.0209879354e+000	-1.5862577368e+000
 5.7114992759e-001	 1.0268460256e+000	-1.6742468273e+000
 5.6069866491e-001	 1.0325899511e+000	-1.7582556935e+000
 5.5020512553e-001	 1.0382193024e+000	-1.8380593860e+000
 5.3967114683e-001	 1.0437337080e+000	-1.9134376898e+000
 6.5665170405e-001	 1.0043946135e+000	-1.3133770989e+000
 6.4633250419e-001	 1.0110659197e+000	-1.3793758213e+000
 6.3595712181e-001	 1.0176239675e+000	-1.4422489412e+000
 6.2552739404e-001	 1.0240681029e+000	-1.5018609816e+000
 6.1504516668e-001	 1.0303977111e+000	-1.5857004688e+000
 6.0451229318e-001	 1.0366122165e+000	-1.6668676975e+000
 5.9393063362e-001	 1.0427110829e+000	-1.7436748037e+000
 5.8330205371e-001	 1.0486938134e+000	-1.8159201520e+000
 5.7262842373e-001	 1.0545599501e+000	-1.8834069880e+000
 5.6191161756e-001	 1.0603090748e+000	-1.9459436238e+000
 5.5115351165e-001	 1.0659408082e+000	-2.0033436144e+000
 6.7033194789e-001	 1.0253195013e+000	-1.5935564922e+000
 6.5979776469e-001	 1.0321297931e+000	-1.6494640983e+000
 6.4920622851e-001	 1.0388244668e+000	-1.7013629247e+000
 6.3855921475e-001	 1.0454028550e+000	-1.7491523201e+000
 6.2785860765e-001	 1.0518643301e+000	-1.7927344665e+000
 6.1710629929e-001	 1.0582083044e+000	-1.8539679627e+000
 6.0630418849e-001	 1.0644342305e+000	-1.9180966856e+000
 5.9545417983e-001	 1.0705416011e+000	-1.9768837879e+000
 5.8455818256e-001	 1.0765299491e+000	-2.0301639382e+000
 5.7361810960e-001	 1.0823988472e+000	-2.0777774098e+000
 5.6263587648e-001	 1.0881479084e+000	-2.1195702204e+000
 6.8401219173e-001	 1.0462443890e+000	-1.8790801033e+000
 6.7326302520e-001	 1.0531936664e+000	-1.9266987574e+000
 6.6245533522e-001	 1.0600249662e+000	-1.9694628906e+000
 6.5159103546e-001	 1.0667376072e+000	-2.0073058557e+000
 6.4067204862e-001	 1.0733309490e+000	-2.0401644008e+000
 6.2970030539e-001	 1.0798043922e+000	-2.0679786596e+000
 6.1867774335e-001	 1.0861573781e+000	-2.1082684541e+000
 6.0760630594e-001	 1.0923893889e+000	-2.1557533344e+000
 5.9648794139e-001	 1.0984999480e+000	-2.1970107926e+000
 5.8532460163e-001	 1.1044886196e+000	-2.2319118300e+000
 5.7411824131e-001	 1.1103550086e+000	-2.2603336877e+000
 4.5929459305e-001	 8.8828400685e-001	-2.2080027326e+000
 4.5029665337e-001	 8.9287900861e-001	-2.4954481374e+000
 4.4126742776e-001	 8.9737565002e-001	-2.7821153670e+000
 4.3220848139e-001	 9.0177371256e-001	-3.0675737337e+000
 4.2312137829e-001	 9.0607300991e-001	-3.3513959475e+000
 4.1400768054e-001	 9.1027338778e-001	-3.6331585223e+000
 4.0486894748e-001	 9.1437472374e-001	-3.9124421717e+000
 3.9570673493e-001	 9.1837692696e-001	-4.1888321951e+000
 3.8652259441e-001	 9.2227993800e-001	-4.4619188523e+000
 3.7731807239e-001	 9.2608372854e-001	-4.7312977269e+000
 3.6809470955e-001	 9.2978830108e-001	-4.9965700781e+000
 4.7077695788e-001	 9.1049110702e-001	-2.0483395763e+000
 4.6155406970e-001	 9.1520098382e-001	-2.2999111187e+000
 4.5229911345e-001	 9.1981004127e-001	-2.5504851716e+000
 4.4301369342e-001	 9.2431805537e-001	-2.7996640365e+000
 4.3369941274e-001	 9.2872483515e-001	-3.0470533439e+000
 4.2435787255e-001	 9.3303022247e-001	-3.2922624299e+000
 4.1499067117e-001	 9.3723409182e-001	-3.5349047026e+000
 4.0559940330e-001	 9.4133635013e-001	-3.7745979985e+000
 3.9618565927e-001	 9.4533693645e-001	-4.0109649295e+000
 3.8675102420e-001	 9.4923582175e-001	-4.2436332174e+000
 3.7729707730e-001	 9.5303300860e-001	-4.4722360190e+000
 4.8225932270e-001	 9.3269820719e-001	-1.9329254992e+000
 4.7281148603e-001	 9.3752295903e-001	-2.1515583000e+000
 4.6333079914e-001	 9.4224443251e-001	-2.3689846819e+000
 4.5381890545e-001	 9.4686239818e-001	-2.5848384540e+000
 4.4427744720e-001	 9.5137666039e-001	-2.7987566936e+000
 4.3470806456e-001	 9.5578705716e-001	-3.0103800938e+000
 4.2511239485e-001	 9.6009345991e-001	-3.2193533017e+000
 4.1549207167e-001	 9.6429577330e-001	-3.4253252471e+000
 4.0584872413e-001	 9.6839393489e-001	-3.6279494616e+000
 3.9618397601e-001	 9.7238791496e-001	-3.8268843872e+000
 3.8649944504e-001	 9.7627771612e-001	-4.0217936739e+000
 4.9374168753e-001	 9.5490530736e-001	-1.8584470604e+000
 4.8406890236e-001	 9.5984493424e-001	-2.0468784855e+000
 4.7436248483e-001	 9.6467882376e-001	-2.2339041061e+000
 4.6462411748e-001	 9.6940674099e-001	-2.4191878515e+000
 4.5485548165e-001	 9.7402848564e-001	-2.6023968657e+000
 4.4505825657e-001	 9.7854389185e-001	-2.7832018269e+000
 4.3523411854e-001	 9.8295282800e-001	-2.9612772588e+000
 4.2538474004e-001	 9.8725519647e-001	-3.1363018328e+000
 4.1551178899e-001	 9.9145093334e-001	-3.3079586604e+000
 4.0561692782e-001	 9.9554000817e-001	-3.4759355762e+000
 3.9570181278e-001	 9.9952242364e-001	-3.6399254104e+000
 5.0522405235e-001	 9.7711240753e-001	-1.8218904232e+000
 4.9532631870e-001	 9.8216690946e-001	-1.9826782567e+000
 4.8539417052e-001	 9.8711321501e-001	-2.1418696749e+000
 4.7542932951e-001	 9.9195108380e-001	-2.2991574251e+000
 4.6543351611e-001	 9.9668031088e-001	-2.4542374223e+000
 4.5540844858e-001	 1.0013007265e+000	-2.6068090428e+000
 4.4535584222e-001	 1.0058121961e+000	-2.7565754088e+000
 4.3527740842e-001	 1.0102146196e+000	-2.9032436655e+000
 4.2517485385e-001	 1.0145079318e+000	-3.0465252477e+000
 4.1504987963e-001	 1.0186921014e+000	-3.1861361385e+000
 4.0490418052e-001	 1.0227671312e+000	-3.3217971172e+000
 5.1670641718e-001	 9.9931950770e-001	-1.8205080659e+000
 5.0658373503e-001	 1.0044888847e+000	-1.9560466641e+000
 4.9642585621e-001	 1.0095476063e+000	-2.0898063057e+000
 4.8623454155e-001	 1.0144954266e+000	-2.2215073309e+000
 4.7601155056e-001	 1.0193321361e+000	-2.3508732076e+000
 4.6575864059e-001	 1.0240575612e+000	-2.4776307996e+000
 4.5547756591e-001	 1.0286715642e+000	-2.6015106265e+000
 4.4517007679e-001	 1.0331740428e+000	-2.7222471153e+000
 4.3483791871e-001	 1.0375649302e+000	-2.8395788438e+000
 4.2448283144e-001	 1.0418441946e+000	-2.9532487744e+000
 4.1410654826e-001	 1.0460118387e+000	-3.0630044793e+000
 5.2818878200e-001	 1.0215266079e+000	-1.8517898342e+000
 5.1784115136e-001	 1.0268108599e+000	-1.9643245241e+000
 5.0745754190e-001	 1.0319819975e+000	-2.0749051368e+000
 4.9703975358e-001	 1.0370397694e+000	-2.1832784509e+000
 4.8658958502e-001	 1.0419839614e+000	-2.2891943392e+000
 4.7610883261e-001	 1.0468143959e+000	-2.3924060128e+000
 4.6559928959e-001	 1.0515309323e+000	-2.4926702568e+000
 4.5506274516e-001	 1.0561334660e+000	-2.5897476582e+000
 4.4450098357e-001	 1.0606219287e+000	-2.6834028258e+000
 4.3391578325e-001	 1.0649962878e+000	-2.7734046011e+000
 4.2330891600e-001	 1.0692565462e+000	-2.8595262611e+000
 5.3967114683e-001	 1.0437337080e+000	-1.9134376898e+000
 5.2909856769e-001	 1.0491328351e+000	-2.0050776349e+000
 5.1848922760e-001	 1.0544163888e+000	-2.0945952056e+000
 5.0784496561e-001	 1.0595841122e+000	-2.1817625280e+000
 4.9716761947e-001	 1.0646357866e+000	-2.2663547960e+000
 4.8645902462e-001	 1.0695712306e+000	-2.3481504915e+000
 4.7572101328e-001	 1.0743903004e+000	-2.4269315971e+000
 4.6495541353e-001	 1.0790928892e+000	-2.5024838009e+000
 4.5416404842e-001	 1.0836789271e+000	-2.5745966941e+000
 4.4334873506e-001	 1.0881483810e+000	-2.6430639597e+000
 4.3251128374e-001	 1.0925012537e+000	-2.7076835534e+000
 5.5115351165e-001	 1.0659408082e+000	-2.0033436144e+000
 5.4035598403e-001	 1.0714548103e+000	-2.0760733416e+000
 5.2952091329e-001	 1.0768507800e+000	-2.1465186678e+000
 5.1865017764e-001	 1.0821284551e+000	-2.2144760350e+000
 5.0774565393e-001	 1.0872876119e+000	-2.2797449328e+000
 4.9680921663e-001	 1.0923280653e+000	-2.3421280957e+000
 4.8584273696e-001	 1.0972496685e+000	-2.4014316937e+000
 4.7484808190e-001	 1.1020523123e+000	-2.4574655154e+000
 4.6382711328e-001	 1.1067359256e+000	-2.5100431432e+000
 4.5278168687e-001	 1.1113004742e+000	-2.5589821211e+000
 4.4171365148e-001	 1.1157459613e+000	-2.6041041143e+000
 5.6263587648e-001	 1.0881479084e+000	-2.1195702204e+000
 5.5161340036e-001	 1.0937767855e+000	-2.1752599695e+000
 5.4055259898e-001	 1.0992851713e+000	-2.2285090504e+000
 5.2945538968e-001	 1.1046727979e+000	-2.2791372428e+000
 5.1832368838e-001	 1.1099394371e+000	-2.3269673599e+000
 5.0715940864e-001	 1.1150849000e+000	-2.3718254243e+000
 4.9596446065e-001	 1.1201090366e+000	-2.4135408367e+000
 4.8474075028e-001	 1.1250117355e+000	-2.4519465381e+000
 4.7349017814e-001	 1.1297929240e+000	-2.4868791637e+000
 4.6221463868e-001	 1.1344525674e+000	-2.5181791905e+000
 4.5091601922e-001	 1.1389906688e+000	-2.5456910766e+000
 5.7411824131e-001	 1.1103550086e+000	-2.2603336877e+000
 5.6287081669e-001	 1.1160987607e+000	-2.3007487266e+000
 5.5158428467e-001	 1.1217195625e+000	-2.3385721149e+000
 5.4026060171e-001	 1.1272171407e+000	-2.3736460408e+000
 5.2890172284e-001	 1.1325912624e+000	-2.4058157182e+000
 5.1750960065e-001	 1.1378417347e+000	-2.4349295420e+000
 5.0608618433e-001	 1.1429684047e+000	-2.4608392359e+000
 4.9463341865e-001	 1.1479711587e+000	-2.4833999935e+000
 4.8315324300e-001	 1.1528499225e+000	-2.5024706133e+000
 4.7164759049e-001	 1.1576046607e+000	-2.5179136250e+000
 4.6011838696e-001	 1.1622353763e+000	-2.5295954102e+000
 3.6809470955e-001	 9.2978830108e-001	-4.9965700781e+000
 3.5885404004e-001	 9.3339368862e-001	-5.2755687843e+000
 3.4959759075e-001	 9.3689995439e-001	-5.5510292988e+000
 3.4032688062e-001	 9.4030719147e-001	-5.8225296495e+000
 3.3104341994e-001	 9.4361552239e-001	-6.0896541100e+000
 3.2174870969e-001	 9.4682509884e-001	-6.3519935401e+000
 3.1244424085e-001	 9.4993610118e-001	-6.6091457116e+000
 3.0313149381e-001	 9.5294873809e-001	-6.8607156214e+000
 2.9381193769e-001	 9.5586324609e-001	-7.1063157903e+000
 2.8448702975e-001	 9.5867988915e-001	-7.3455665465e+000
 2.7515821483e-001	 9.6139895816e-001	-7.5780962955e+000
 3.7729707730e-001	 9.5303300860e-001	-4.4722360190e+000
 3.6782539105e-001	 9.5672853083e-001	-4.7126758050e+000
 3.5833753053e-001	 9.6032245325e-001	-4.9495372109e+000
 3.4883505265e-001	 9.6381487125e-001	-5.1824449136e+000
 3.3931950545e-001	 9.6720591045e-001	-5.4110293992e+000
 3.2979242744e-001	 9.7049572631e-001	-5.6349272653e+000
 3.2025534689e-001	 9.7368450371e-001	-5.8537815104e+000
 3.1070978117e-001	 9.7677245654e-001	-6.0672418105e+000
 3.0115723614e-001	 9.7975982724e-001	-6.2749647831e+000
 2.9159920551e-001	 9.8264688638e-001	-6.4766142378e+000
 2.8203717021e-001	 9.8543393212e-001	-6.6718614133e+000
 3.8649944504e-001	 9.7627771612e-001	-4.0217936739e+000
 3.7679674206e-001	 9.8006337304e-001	-4.2278600278e+000
 3.6707747030e-001	 9.8374495210e-001	-4.4303085995e+000
 3.5734322467e-001	 9.8732255103e-001	-4.6288087869e+000
 3.4759559096e-001	 9.9079629851e-001	-4.8230353831e+000
 3.3783614519e-001	 9.9416635378e-001	-5.0126688414e+000
 3.2806645292e-001	 9.9743290624e-001	-5.1973955284e+000
 3.1828806852e-001	 1.0005961750e+000	-5.3769079670e+000
 3.0850253459e-001	 1.0036564084e+000	-5.5509050659e+000
 2.9871138126e-001	 1.0066138836e+000	-5.7190923382e+000
 2.8891612559e-001	 1.0094689061e+000	-5.8811821078e+000
 3.9570181278e-001	 9.9952242364e-001	-3.6399254104e+000
 3.8576809306e-001	 1.0033982153e+000	-3.8155172774e+000
 3.7581741008e-001	 1.0071674510e+000	-3.9874524937e+000
 3.6585139669e-001	 1.0108302308e+000	-4.1554433798e+000
 3.5587167647e-001	 1.0143866866e+000	-4.3192072570e+000
 3.4587986295e-001	 1.0178369812e+000	-4.4784666774e+000
 3.3587755895e-001	 1.0211813088e+000	-4.6329496426e+000
 3.2586635588e-001	 1.0244198934e+000	-4.7823898125e+000
 3.1584783304e-001	 1.0275529895e+000	-4.9265267033e+000
 3.0582355701e-001	 1.0305808808e+000	-5.0651058740e+000
 2.9579508097e-001	 1.0335038800e+000	-5.1978791034e+000
 4.0490418052e-001	 1.0227671312e+000	-3.3217971172e+000
 3.9473944407e-001	 1.0267330575e+000	-3.4705530874e+000
 3.8455734985e-001	 1.0305899498e+000	-3.6156138371e+000
 3.7435956871e-001	 1.0343379106e+000	-3.7567329264e+000
 3.6414776197e-001	 1.0379770746e+000	-3.8936685418e+000
 3.5392358070e-001	 1.0415076087e+000	-4.0261836918e+000
 3.4368866498e-001	 1.0449297113e+000	-4.1540463924e+000
 3.3344464323e-001	 1.0482436119e+000	-4.2770298430e+000
 3.2319313149e-001	 1.0514495707e+000	-4.3949125934e+000
 3.1293573276e-001	 1.0545478781e+000	-4.5074787005e+000
 3.0267403634e-001	 1.0575388540e+000	-4.6145178749e+000
 4.1410654826e-001	 1.0460118387e+000	-3.0630044793e+000
 4.0371079507e-001	 1.0500678997e+000	-3.1883260670e+000
 3.9329728963e-001	 1.0540124487e+000	-3.3099139417e+000
 3.8286774073e-001	 1.0578455904e+000	-3.4275613264e+000
 3.7242384748e-001	 1.0615674627e+000	-3.5410657148e+000
 3.6196729844e-001	 1.0651782362e+000	-3.6502290334e+000
 3.5149977101e-001	 1.0686781138e+000	-3.7548577948e+000
 3.4102293058e-001	 1.0720673303e+000	-3.8547632423e+000
 3.3053842994e-001	 1.0753461519e+000	-3.9497614864e+000
 3.2004790851e-001	 1.0785148753e+000	-4.0396736320e+000
 3.0955299172e-001	 1.0815738279e+000	-4.1243258972e+000
 4.2330891600e-001	 1.0692565462e+000	-2.8595262611e+000
 4.1268214607e-001	 1.0734027419e+000	-2.9645986530e+000
 4.0203722940e-001	 1.0774349475e+000	-3.0658987085e+000
 3.9137591275e-001	 1.0813532702e+000	-3.1632578335e+000
 3.8069993298e-001	 1.0851578507e+000	-3.2565113664e+000
 3.7001101619e-001	 1.0888488637e+000	-3.3454987085e+000
 3.5931087703e-001	 1.0924265164e+000	-3.4300634451e+000
 3.4860121793e-001	 1.0958910488e+000	-3.5100534603e+000
 3.3788372839e-001	 1.0992427330e+000	-3.5853210439e+000
 3.2716008426e-001	 1.1024818725e+000	-3.6557229901e+000
 3.1643194709e-001	 1.1056088019e+000	-3.7211206891e+000
 4.3251128374e-001	 1.0925012537e+000	-2.7076835534e+000
 4.2165349708e-001	 1.0967375841e+000	-2.7954941497e+000
 4.1077716917e-001	 1.1008574464e+000	-2.8794934586e+000
 3.9988408477e-001	 1.1048609500e+000	-2.9595496771e+000
 3.8897601848e-001	 1.1087482388e+000	-3.0355346139e+000
 3.7805473393e-001	 1.1125194911e+000	-3.1073237876e+000
 3.6712198306e-001	 1.1161749189e+000	-3.1747965186e+000
 3.5617950528e-001	 1.1197147673e+000	-3.2378360136e+000
 3.4522902683e-001	 1.1231393142e+000	-3.2963294441e+000
 3.3427226000e-001	 1.1264488698e+000	-3.3501680175e+000
 3.2331090246e-001	 1.1296437758e+000	-3.3992470421e+000
 4.4171365148e-001	 1.1157459613e+000	-2.6041041143e+000
 4.3062484808e-001	 1.1200724263e+000	-2.6774591383e+000
 4.1951710894e-001	 1.1242799453e+000	-2.7469634102e+000
 4.0839225679e-001	 1.1283686297e+000	-2.8125206070e+000
 3.9725210398e-001	 1.1323386269e+000	-2.8740377127e+000
 3.8609845168e-001	 1.1361901186e+000	-2.9314250862e+000
 3.7493308908e-001	 1.1399233214e+000	-2.9845965231e+000
 3.6375779263e-001	 1.1435384857e+000	-3.0334693124e+000
 3.5257432527e-001	 1.1470358953e+000	-3.0779642864e+000
 3.4138443575e-001	 1.1504158670e+000	-3.1180058654e+000
 3.3018985783e-001	 1.1536787498e+000	-3.1535220967e+000
 4.5091601922e-001	 1.1389906688e+000	-2.5456910766e+000
 4.3959619908e-001	 1.1434072685e+000	-2.6072304898e+000
 4.2825704871e-001	 1.1477024441e+000	-2.6648789953e+000
 4.1690042880e-001	 1.1518763095e+000	-2.7185745133e+000
 4.0552818948e-001	 1.1559290149e+000	-2.7682579818e+000
 3.9414216942e-001	 1.1598607461e+000	-2.8138733950e+000
 3.8274419510e-001	 1.1636717239e+000	-2.8553678365e+000
 3.7133607997e-001	 1.1673622042e+000	-2.8926915081e+000
 3.5991962372e-001	 1.1709324765e+000	-2.9257977525e+000
 3.4849661149e-001	 1.1743828642e+000	-2.9546430724e+000
 3.3706881320e-001	 1.1777137238e+000	-2.9791871433e+000
 4.6011838696e-001	 1.1622353763e+000	-2.5295954102e+000
 4.4856755008e-001	 1.1667421108e+000	-2.5818063358e+000
 4.3699698847e-001	 1.1711249430e+000	-2.6300853385e+000
 4.2540860082e-001	 1.1753839893e+000	-2.6744034127e+000
 4.1380427497e-001	 1.1795194030e+000	-2.7147342967e+000
 4.0218588716e-001	 1.1835313736e+000	-2.7510544821e+000
 3.9055530112e-001	 1.1874201265e+000	-2.7833432193e+000
 3.7891436731e-001	 1.1911859226e+000	-2.8115825189e+000
 3.6726492216e-001	 1.1948290576e+000	-2.8357571484e+000
 3.5560878723e-001	 1.1983498614e+000	-2.8558546256e+000
 3.4394776857e-001	 1.2017486977e+000	-2.8718652072e+000
 2.7515821483e-001	 9.6139895816e-001	-7.5780962955e+000
 2.6582692472e-001	 9.6402077054e-001	-7.8065429037e+000
 2.5649457767e-001	 9.6654566967e-001	-8.0292638709e+000
 2.4716257779e-001	 9.6897402446e-001	-8.2459796177e+000
 2.3783231458e-001	 9.7130622879e-001	-8.4564169459e+000
 2.2850516241e-001	 9.7354270101e-001	-8.6603092160e+000
 2.1918248004e-001	 9.7568388343e-001	-8.8573965133e+000
 2.0986561017e-001	 9.7773024174e-001	-9.0474258019e+000
 2.0055587900e-001	 9.7968226449e-001	-9.2301510691e+000
 1.9125459577e-001	 9.8154046252e-001	-9.4053334565e+000
 1.8196305243e-001	 9.8330536841e-001	-9.5727413813e+000
 2.8203717021e-001	 9.8543393212e-001	-6.6718614133e+000
 2.7247259785e-001	 9.8812128980e-001	-6.8700861839e+000
 2.6290694212e-001	 9.9070931141e-001	-7.0626495388e+000
 2.5334164224e-001	 9.9319837507e-001	-7.2493059080e+000
 2.4377812245e-001	 9.9558888451e-001	-7.4298157116e+000
 2.3421779148e-001	 9.9788126854e-001	-7.6039455116e+000
 2.2466204205e-001	 1.0000759805e+000	-7.7714681528e+000
 2.1511225043e-001	 1.0021734978e+000	-7.9321628932e+000
 2.0556977597e-001	 1.0041743211e+000	-8.0858155247e+000
 1.9603596067e-001	 1.0060789741e+000	-8.2322184829e+000
 1.8651212874e-001	 1.0078880026e+000	-8.3711709468e+000
 2.8891612559e-001	 1.0094689061e+000	-5.8811821078e+000
 2.7911827098e-001	 1.0122218091e+000	-6.0524049991e+000
 2.6931930657e-001	 1.0148729532e+000	-6.2180307950e+000
 2.5952070669e-001	 1.0174227257e+000	-6.3778465192e+000
 2.4972393032e-001	 1.0198715402e+000	-6.5316448148e+000
 2.3993042054e-001	 1.0222198361e+000	-6.6792240701e+000
 2.3014160405e-001	 1.0244680776e+000	-6.8203885358e+000
 2.2035889069e-001	 1.0266167538e+000	-6.9549484322e+000
 2.1058367295e-001	 1.0286663777e+000	-7.0827200475e+000
 2.0081732556e-001	 1.0306174856e+000	-7.2035258259e+000
 1.9106120505e-001	 1.0324706368e+000	-7.3171944475e+000
 2.9579508097e-001	 1.0335038800e+000	-5.1978791034e+000
 2.8576394410e-001	 1.0363223283e+000	-5.3450986864e+000
 2.7573167102e-001	 1.0390365949e+000	-5.4867853394e+000
 2.6569977114e-001	 1.0416470763e+000	-5.6227573610e+000
 2.5566973819e-001	 1.0441541959e+000	-5.7528383166e+000
 2.4564304960e-001	 1.0465584036e+000	-5.8768571400e+000
 2.3562116605e-001	 1.0488601747e+000	-5.9946482269e+000
 2.2560553094e-001	 1.0510600099e+000	-6.1060515203e+000
 2.1559756992e-001	 1.0531584343e+000	-6.2109125863e+000
 2.0559869045e-001	 1.0551559972e+000	-6.3090826821e+000
 1.9561028136e-001	 1.0570532710e+000	-6.4004188157e+000
 3.0267403634e-001	 1.0575388540e+000	-4.6145178749e+000
 2.9240961722e-001	 1.0604228476e+000	-4.7405315272e+000
 2.8214403546e-001	 1.0632002366e+000	-4.8610760259e+000
 2.7187883559e-001	 1.0658714269e+000	-4.9759997127e+000
 2.6161554606e-001	 1.0684368517e+000	-5.0851558611e+000
 2.5135567866e-001	 1.0708969711e+000	-5.1884027550e+000
 2.4110072806e-001	 1.0732522718e+000	-5.2856037592e+000
 2.3085217120e-001	 1.0755032659e+000	-5.3766273825e+000
 2.2061146690e-001	 1.0776504909e+000	-5.4613473333e+000
 2.1038005535e-001	 1.0796945088e+000	-5.5396425669e+000
 2.0015935767e-001	 1.0816359052e+000	-5.6113973259e+000
 3.0955299172e-001	 1.0815738279e+000	-4.1243258972e+000
 2.9905529035e-001	 1.0845233669e+000	-4.2317477537e+000
 2.8855639991e-001	 1.0873638784e+000	-4.3337636227e+000
 2.7805790004e-001	 1.0900957775e+000	-4.4302507372e+000
 2.6756135392e-001	 1.0927195074e+000	-4.5210909437e+000
 2.5706830773e-001	 1.0952355386e+000	-4.6061707583e+000
 2.4658029006e-001	 1.0976443689e+000	-4.6853814154e+000
 2.3609881145e-001	 1.0999465220e+000	-4.7586189096e+000
 2.2562536387e-001	 1.1021425476e+000	-4.8257840303e+000
 2.1516142024e-001	 1.1042330203e+000	-4.8867823900e+000
 2.0470843398e-001	 1.1062185395e+000	-4.9415244455e+000
 3.1643194709e-001	 1.1056088019e+000	-3.7211206891e+000
 3.0570096347e-001	 1.1086238861e+000	-3.8123976407e+000
 2.9496876435e-001	 1.1115275201e+000	-3.8983309526e+000
 2.8423696448e-001	 1.1143201281e+000	-3.9788256685e+000
 2.7350716179e-001	 1.1170021631e+000	-4.0537911449e+000
 2.6278093679e-001	 1.1195741062e+000	-4.1231410836e+000
 2.5205985206e-001	 1.1220364660e+000	-4.1867935597e+000
 2.4134545170e-001	 1.1243897780e+000	-4.2446710421e+000
 2.3063926085e-001	 1.1266346042e+000	-4.2967004089e+000
 2.1994278513e-001	 1.1287715319e+000	-4.3428129561e+000
 2.0925751029e-001	 1.1308011737e+000	-4.3829444010e+000
 3.2331090246e-001	 1.1296437758e+000	-3.3992470421e+000
 3.1234663659e-001	 1.1327244054e+000	-3.4766730338e+000
 3.0138112879e-001	 1.1356911619e+000	-3.5488167161e+000
 2.9041602893e-001	 1.1385444787e+000	-3.6156099310e+000
 2.7945296965e-001	 1.1412848188e+000	-3.6769885467e+000
 2.6849356585e-001	 1.1439126737e+000	-3.7328924695e+000
 2.5753941406e-001	 1.1464285630e+000	-3.7832656500e+000
 2.4659209196e-001	 1.1488330341e+000	-3.8280560841e+000
 2.3565315782e-001	 1.1511266608e+000	-3.8672158086e+000
 2.2472415003e-001	 1.1533100435e+000	-3.9007008913e+000
 2.1380658660e-001	 1.1553838079e+000	-3.9284714164e+000
 3.3018985783e-001	 1.1536787498e+000	-3.1535220967e+000
 3.1899230970e-001	 1.1568249247e+000	-3.2192509349e+000
 3.0779349323e-001	 1.1598548036e+000	-3.2797575884e+000
 2.9659509337e-001	 1.1627688294e+000	-3.3349997448e+000
 2.8539877752e-001	 1.1655674746e+000	-3.3849388470e+000
 2.7420619490e-001	 1.1682512412e+000	-3.4295400834e+000
 2.6301897606e-001	 1.1708206601e+000	-3.4687723744e+000
 2.5183873221e-001	 1.1732762901e+000	-3.5026083533e+000
 2.4066705479e-001	 1.1756187174e+000	-3.5310243430e+000
 2.2950551492e-001	 1.1778485550e+000	-3.5540003278e+000
 2.1835566291e-001	 1.1799664421e+000	-3.5715199216e+000
 3.3706881320e-001	 1.1777137238e+000	-2.9791871433e+000
 3.2563798282e-001	 1.1809254439e+000	-3.0352439970e+000
 3.1420585767e-001	 1.1840184454e+000	-3.0861374050e+000
 3.0277415782e-001	 1.1869931800e+000	-3.1318500041e+000
 2.9134458538e-001	 1.1898501303e+000	-3.1723679293e+000
 2.7991882396e-001	 1.1925898088e+000	-3.2076807843e+000
 2.6849853806e-001	 1.1952127572e+000	-3.2377816070e+000
 2.5708537246e-001	 1.1977195461e+000	-3.2626668322e+000
 2.4568095177e-001	 1.2001107740e+000	-3.2823362488e+000
 2.3428687981e-001	 1.2023870666e+000	-3.2967929547e+000
 2.2290473922e-001	 1.2045490763e+000	-3.3060433072e+000
 3.4394776857e-001	 1.2017486977e+000	-2.8718652072e+000
 3.3228365593e-001	 1.2050259632e+000	-2.9201569590e+000
 3.2061822211e-001	 1.2081820871e+000	-2.9633424461e+000
 3.0895322226e-001	 1.2112175306e+000	-3.0014284093e+000
 2.9729039324e-001	 1.2141327860e+000	-3.0344248445e+000
 2.8563145302e-001	 1.2169283763e+000	-3.0623449533e+000
 2.7397810005e-001	 1.2196048543e+000	-3.0852050894e+000
 2.6233201271e-001	 1.2221628022e+000	-3.1030247016e+000
 2.5069484874e-001	 1.2246028306e+000	-3.1158262739e+000
 2.3906824470e-001	 1.2269255782e+000	-3.1236352621e+000
 2.2745381553e-001	 1.2291317105e+000	-3.1264800280e+000
 1.8196305243e-001	 9.8330536841e-001	-9.5727413813e+000
 1.7268252319e-001	 9.8497753588e-001	-9.7305624429e+000
 1.6341426419e-001	 9.8655753926e-001	-9.8804472416e+000
 1.5415951315e-001	 9.8804597288e-001	-1.0022296774e+001
 1.4491948905e-001	 9.8944345050e-001	-1.0156017387e+001
 1.3569539180e-001	 9.9075060469e-001	-1.0281520782e+001
 1.2648840201e-001	 9.9196808628e-001	-1.0398724019e+001
 1.1729968064e-001	 9.9309656377e-001	-1.0507549513e+001
 1.0813036885e-001	 9.9413672268e-001	-1.0607925022e+001
 9.8981587693e-002	 9.9508926501e-001	-1.0699783629e+001
 8.9854437932e-002	 9.9595490863e-001	-1.0783063722e+001
 1.8651212874e-001	 1.0078880026e+000	-8.3711709468e+000
 1.7699958627e-001	 1.0096019743e+000	-8.5108019157e+000
 1.6749962079e-001	 1.0112214777e+000	-8.6428174287e+000
 1.5801350098e-001	 1.0127471222e+000	-8.7671329028e+000
 1.4854247627e-001	 1.0141795368e+000	-8.8836687940e+000
 1.3908777659e-001	 1.0155193698e+000	-8.9923505976e+000
 1.2965061205e-001	 1.0167672884e+000	-9.0931088410e+000
 1.2023217266e-001	 1.0179239779e+000	-9.1858790728e+000
 1.1083362807e-001	 1.0189901407e+000	-9.2706018441e+000
 1.0145612738e-001	 1.0199664966e+000	-9.3472226859e+000
 9.2100798875e-002	 1.0208537813e+000	-9.4156920809e+000
 1.9106120505e-001	 1.0324706368e+000	-7.3171944475e+000
 1.8131664935e-001	 1.0342264127e+000	-7.4403129961e+000
 1.7158497739e-001	 1.0358854162e+000	-7.5561296397e+000
 1.6186748880e-001	 1.0374482715e+000	-7.6645735827e+000
 1.5216546349e-001	 1.0389156230e+000	-7.7655787742e+000
 1.4248016138e-001	 1.0402881349e+000	-7.8590839002e+000
 1.3281282210e-001	 1.0415664906e+000	-7.9450323687e+000
 1.2316466467e-001	 1.0427513919e+000	-8.0233722912e+000
 1.1353688729e-001	 1.0438435588e+000	-8.0940564576e+000
 1.0393066707e-001	 1.0448437283e+000	-8.1570423069e+000
 9.4347159819e-002	 1.0457526541e+000	-8.2122918931e+000
 1.9561028136e-001	 1.0570532710e+000	-6.4004188157e+000
 1.8563371242e-001	 1.0588508511e+000	-6.5085863272e+000
 1.7567033400e-001	 1.0605493547e+000	-6.6097584818e+000
 1.6572147663e-001	 1.0621494208e+000	-6.7038776833e+000
 1.5578845071e-001	 1.0636517093e+000	-6.7908908011e+000
 1.4587254618e-001	 1.0650569000e+000	-6.8707491529e+000
 1.3597503214e-001	 1.0663656927e+000	-6.9434084835e+000
 1.2609715668e-001	 1.0675788060e+000	-7.0088289380e+000
 1.1624014650e-001	 1.0686969769e+000	-7.0669750307e+000
 1.0640520676e-001	 1.0697209599e+000	-7.1178156097e+000
 9.6593520764e-002	 1.0706515268e+000	-7.1613238163e+000
 2.0015935767e-001	 1.0816359052e+000	-5.6113973259e+000
 1.8995077550e-001	 1.0834752895e+000	-5.7060694580e+000
 1.7975569060e-001	 1.0852132932e+000	-5.7940460007e+000
 1.6957546445e-001	 1.0868505702e+000	-5.8752820110e+000
 1.5941143794e-001	 1.0883877955e+000	-5.9497367448e+000
 1.4926493097e-001	 1.0898256651e+000	-6.0173736330e+000
 1.3913724219e-001	 1.0911648949e+000	-6.0781602515e+000
 1.2902964869e-001	 1.0924062201e+000	-6.1320682882e+000
 1.1894340572e-001	 1.0935503949e+000	-6.1790735048e+000
 1.0887974645e-001	 1.0945981915e+000	-6.2191556957e+000
 9.8839881709e-002	 1.0955503995e+000	-6.2522986413e+000
 2.0470843398e-001	 1.1062185395e+000	-4.9415244455e+000
 1.9426783858e-001	 1.1080997279e+000	-5.0240605202e+000
 1.8384104720e-001	 1.1098772317e+000	-5.1001941879e+000
 1.7342945228e-001	 1.1115517195e+000	-5.1698926492e+000
 1.6303442516e-001	 1.1131238818e+000	-5.2331270507e+000
 1.5265731576e-001	 1.1145944303e+000	-5.2898724527e+000
 1.4229945224e-001	 1.1159640970e+000	-5.3401077927e+000
 1.3196214071e-001	 1.1172336342e+000	-5.3838158448e+000
 1.2164666494e-001	 1.1184038130e+000	-5.4209831756e+000
 1.1135428614e-001	 1.1194754231e+000	-5.4516000963e+000
 1.0108624265e-001	 1.1204492722e+000	-5.4756606110e+000
 2.0925751029e-001	 1.1308011737e+000	-4.3829444010e+000
 1.9858490166e-001	 1.1327241663e+000	-4.4546157737e+000
 1.8792640381e-001	 1.1345411701e+000	-4.5201715078e+000
 1.7728344011e-001	 1.1362528688e+000	-4.5795904723e+000
 1.6665741239e-001	 1.1378599681e+000	-4.6328552414e+000
 1.5604970055e-001	 1.1393631954e+000	-4.6799520549e+000
 1.4546166229e-001	 1.1407632992e+000	-4.7208707744e+000
 1.3489463272e-001	 1.1420610483e+000	-4.7556048356e+000
 1.2434992416e-001	 1.1432572311e+000	-4.7841511982e+000
 1.1382882583e-001	 1.1443526547e+000	-4.8065102914e+000
 1.0333260360e-001	 1.1453481449e+000	-4.8226859578e+000
 2.1380658660e-001	 1.1553838079e+000	-3.9284714164e+000
 2.0290196474e-001	 1.1573486046e+000	-3.9904689548e+000
 1.9201176041e-001	 1.1592051086e+000	-4.0466313585e+000
 1.8113742794e-001	 1.1609540181e+000	-4.0969487207e+000
 1.7028039961e-001	 1.1625960543e+000	-4.1414146113e+000
 1.5944208535e-001	 1.1641319605e+000	-4.1800260296e+000
 1.4862387233e-001	 1.1655625014e+000	-4.2127833534e+000
 1.3782712473e-001	 1.1668884624e+000	-4.2396902847e+000
 1.2705318338e-001	 1.1681106491e+000	-4.2607537930e+000
 1.1630336552e-001	 1.1692298864e+000	-4.2759840555e+000
 1.0557896455e-001	 1.1702470176e+000	-4.2853943943e+000
 2.1835566291e-001	 1.1799664421e+000	-3.5715199216e+000
 2.0721902781e-001	 1.1819730430e+000	-3.6249607054e+000
 1.9609711701e-001	 1.1838690471e+000	-3.6728407241e+000
 1.8499141576e-001	 1.1856551674e+000	-3.7151608795e+000
 1.7390338684e-001	 1.1873321406e+000	-3.7519253334e+000
 1.6283447014e-001	 1.1889007256e+000	-3.7831414524e+000
 1.5178608238e-001	 1.1903617035e+000	-3.8088197499e+000
 1.4075961675e-001	 1.1917158765e+000	-3.8289738256e+000
 1.2975644260e-001	 1.1929640672e+000	-3.8436203023e+000
 1.1877790521e-001	 1.1941071180e+000	-3.8527787599e+000
 1.0782532549e-001	 1.1951458903e+000	-3.8564716673e+000
 2.2290473922e-001	 1.2045490763e+000	-3.3060433072e+000
 2.1153609089e-001	 1.2065974814e+000	-3.3519766443e+000
 2.0018247362e-001	 1.2085329856e+000	-3.3926175642e+000
 1.8884540359e-001	 1.2103563168e+000	-3.4279773883e+000
 1.7752637406e-001	 1.2120682268e+000	-3.4580704922e+000
 1.6622685494e-001	 1.2136694907e+000	-3.4829142430e+000
 1.5494829243e-001	 1.2151609057e+000	-3.5025289348e+000
 1.4369210877e-001	 1.2165432906e+000	-3.5169377208e+000
 1.3245970182e-001	 1.2178174853e+000	-3.5261665445e+000
 1.2125244490e-001	 1.2189843496e+000	-3.5302440672e+000
 1.1007168644e-001	 1.2200447631e+000	-3.5292015953e+000
 2.2745381553e-001	 1.2291317105e+000	-3.1264800280e+000
 2.1585315397e-001	 1.2312219198e+000	-3.1658928692e+000
 2.0426783022e-001	 1.2331969241e+000	-3.2002757162e+000
 1.9269939142e-001	 1.2350574661e+000	-3.2296499455e+000
 1.8114936129e-001	 1.2368043131e+000	-3.2540397924e+000
 1.6961923973e-001	 1.2384382558e+000	-3.2734722814e+000
 1.5811050249e-001	 1.2399601078e+000	-3.2879771550e+000
 1.4662460078e-001	 1.2413707047e+000	-3.2975867988e+000
 1.3516296104e-001	 1.2426709033e+000	-3.3023361665e+000
 1.2372698459e-001	 1.2438615812e+000	-3.3022627023e+000
 1.1231804739e-001	 1.2449436358e+000	-3.2974062613e+000
 8.9854437932e-002	 9.9595490863e-001	-1.0783063722e+001
 8.0749999857e-002	 9.9673438666e-001	-1.0850087409e+001
 7.1669333105e-002	 9.9742844692e-001	-1.0909711285e+001
 6.2613476500e-002	 9.9803785128e-001	-1.0962005313e+001
 5.3583447921e-002	 9.9856337512e-001	-1.1007041169e+001
 4.4580244178e-002	 9.9900580671e-001	-1.1044892169e+001
 3.5604840910e-002	 9.9936594664e-001	-1.1075633189e+001
 2.6658192499e-002	 9.9964460724e-001	-1.1099340591e+001
 1.7741231999e-002	 9.9984261196e-001	-1.1116092149e+001
 8.8548710816e-003	 9.9996079486e-001	-1.1125966968e+001
 0.0000000000e+000	 1.0000000000e+000	-1.1129045417e+001
 9.2100798875e-002	 1.0208537813e+000	-9.4156920809e+000
 8.2768749849e-002	 1.0216527463e+000	-9.4802331193e+000
 7.3461066429e-002	 1.0223641581e+000	-9.5375624805e+000
 6.4178813409e-002	 1.0229887976e+000	-9.5877444062e+000
 5.4923034116e-002	 1.0235274595e+000	-9.6308450019e+000
 4.5694750280e-002	 1.0239809519e+000	-9.6669321606e+000
 3.6494961931e-002	 1.0243500953e+000	-9.6960754862e+000
 2.7324647310e-002	 1.0246357224e+000	-9.7183462166e+000
 1.8184762798e-002	 1.0248386773e+000	-9.7338171480e+000
 9.0762428582e-003	 1.0249598147e+000	-9.7425625574e+000
 0.0000000000e+000	 1.0250000000e+000	-9.7446581276e+000
 9.4347159819e-002	 1.0457526541e+000	-8.2122918931e+000
 8.4787499842e-002	 1.0465711060e+000	-8.2739239099e+000
 7.5252799753e-002	 1.0472998693e+000	-8.3285365598e+000
 6.5744150319e-002	 1.0479397438e+000	-8.3761884884e+000
 5.6262620311e-002	 1.0484915439e+000	-8.4169403523e+000
 4.6809256382e-002	 1.0489560970e+000	-8.4508547423e+000
 3.7385082952e-002	 1.0493342440e+000	-8.4779961065e+000
 2.7991102121e-002	 1.0496268376e+000	-8.4984306725e+000
 1.8628293597e-002	 1.0498347426e+000	-8.5122263705e+000
 9.2976146348e-003	 1.0499588346e+000	-8.5194527556e+000
 0.0000000000e+000	 1.0500000000e+000	-8.5201809306e+000
 9.6593520764e-002	 1.0706515268e+000	-7.1613238163e+000
 8.6806249835e-002	 1.0714894657e+000	-7.2196484823e+000
 7.7044533077e-002	 1.0722355804e+000	-7.2711497435e+000
 6.7309487228e-002	 1.0728906901e+000	-7.3158807696e+000
 5.7602206507e-002	 1.0734556282e+000	-7.3538968860e+000
 4.7923762484e-002	 1.0739312422e+000	-7.3852554967e+000
 3.8275203973e-002	 1.0743183926e+000	-7.4100160065e+000
 2.8657556932e-002	 1.0746179528e+000	-7.4282397429e+000
 1.9071824396e-002	 1.0748308079e+000	-7.4399898778e+000
 9.5189864113e-003	 1.0749578545e+000	-7.4453313489e+000
 0.0000000000e+000	 1.0750000000e+000	-7.4443307810e+000
 9.8839881709e-002	 1.0955503995e+000	-6.2522986413e+000
 8.8824999828e-002	 1.0964078253e+000	-6.3069430402e+000
 7.8836266402e-002	 1.0971712916e+000	-6.3549631650e+000
 6.8874824138e-002	 1.0978416364e+000	-6.3964068249e+000
 5.8941792703e-002	 1.0984197126e+000	-6.4313241276e+000
 4.9038268587e-002	 1.0989063874e+000	-6.4597674015e+000
 3.9165324994e-002	 1.0993025413e+000	-6.4817911174e+000
 2.9324011743e-002	 1.0996090680e+000	-6.4974518094e+000
 1.9515355195e-002	 1.0998268732e+000	-6.5068079957e+000
 9.7403581879e-003	 1.0999568743e+000	-6.5099200986e+000
 0.0000000000e+000	 1.1000000000e+000	-6.5068503649e+000
 1.0108624265e-001	 1.1204492722e+000	-5.4756606110e+000
 9.0843749822e-002	 1.1213261850e+000	-5.5262749010e+000
 8.0627999727e-002	 1.1221070028e+000	-5.5704667696e+000
 7.0440161048e-002	 1.1227925827e+000	-5.6082787766e+000
 6.0281378898e-002	 1.1233837970e+000	-5.6397559212e+000
 5.0152774689e-002	 1.1238815325e+000	-5.6649455641e+000
 4.0055446015e-002	 1.1242866900e+000	-5.6838973481e+000
 2.9990466555e-002	 1.1246001831e+000	-5.6966631180e+000
 1.9958885994e-002	 1.1248229385e+000	-5.7032968403e+000
 9.9617299645e-003	 1.1249558942e+000	-5.7038545222e+000
 0.0000000000e+000	 1.1250000000e+000	-5.6983941301e+000
 1.0333260360e-001	 1.1453481449e+000	-4.8226859578e+000
 9.2862499816e-002	 1.1462445446e+000	-4.8689412882e+000
 8.2419733053e-002	 1.1470427139e+000	-4.9089783569e+000
 7.2005497959e-002	 1.1477435290e+000	-4.9428345818e+000
 6.1620965094e-002	 1.1483478814e+000	-4.9705499601e+000
 5.1267280792e-002	 1.1488566777e+000	-4.9921669895e+000
 4.0945567036e-002	 1.1492708386e+000	-5.0077305876e+000
 3.0656921366e-002	 1.1495912983e+000	-5.0172880116e+000
 2.0402416793e-002	 1.1498190038e+000	-5.0208887763e+000
 1.0183101741e-002	 1.1499549141e+000	-5.0185845719e+000
 0.0000000000e+000	 1.1500000000e+000	-5.0104291808e+000
 1.0557896455e-001	 1.1702470176e+000	-4.2853943943e+000
 9.4881249811e-002	 1.1711629043e+000	-4.3269810425e+000
 8.4211466378e-002	 1.1719784251e+000	-4.3625555105e+000
 7.3570834869e-002	 1.1726944752e+000	-4.3921501783e+000
 6.2960551291e-002	 1.1733119658e+000	-4.4158001441e+000
 5.2381786895e-002	 1.1738318229e+000	-4.4335431444e+000
 4.1835688057e-002	 1.1742549873e+000	-4.4454194727e+000
 3.1323376177e-002	 1.1745824135e+000	-4.4514718980e+000
 2.0845947592e-002	 1.1748150691e+000	-4.4517455815e+000
 1.0404473518e-002	 1.1749539340e+000	-4.4462879925e+000
 0.0000000000e+000	 1.1750000000e+000	-4.4351488252e+000
 1.0782532549e-001	 1.1951458903e+000	-3.8564716673e+000
 9.6899999806e-002	 1.1960812640e+000	-3.8930973712e+000
 8.6003199704e-002	 1.1969141363e+000	-3.9239185380e+000
 7.5136171780e-002	 1.1976454215e+000	-3.9489626113e+000
 6.4300137487e-002	 1.1982760501e+000	-3.9682598908e+000
 5.3496292997e-002	 1.1988069680e+000	-3.9818434512e+000
 4.2725809079e-002	 1.1992391360e+000	-3.9897490608e+000
 3.1989830989e-002	 1.1995735287e+000	-3.9920150978e+000
 2.1289478391e-002	 1.1998111344e+000	-3.9886824661e+000
 1.0625845294e-002	 1.1999529538e+000	-3.9797945102e+000
 0.0000000000e+000	 1.2000000000e+000	-3.9653969290e+000
 1.1007168644e-001	 1.2200447631e+000	-3.5292015953e+000
 9.8918749801e-002	 1.2209996236e+000	-3.5605900548e+000
 8.7794933031e-002	 1.2218498475e+000	-3.5863828456e+000
 7.6701508691e-002	 1.2225963678e+000	-3.6066025736e+000
 6.5639723683e-002	 1.2232401345e+000	-3.6212748378e+000
 5.4610799100e-002	 1.2237821132e+000	-3.6304281492e+000
 4.3615930100e-002	 1.2242232846e+000	-3.6340938474e+000
 3.2656285800e-002	 1.2245646439e+000	-3.6323060158e+000
 2.1733009191e-002	 1.2248071996e+000	-3.6251013966e+000
 1.0847217071e-002	 1.2249519737e+000	-3.6125193030e+000
 0.0000000000e+000	 1.2250000000e+000	-3.5946015324e+000
 1.1231804739e-001	 1.2449436358e+000	-3.2974062613e+000
 1.0093749980e-001	 1.2459179833e+000	-3.3232957900e+000
 8.9586666357e-002	 1.2467855586e+000	-3.3437994284e+000
 7.8266845602e-002	 1.2475473141e+000	-3.3589350406e+000
 6.6979309880e-002	 1.2482042189e+000	-3.3687236214e+000
 5.5725305204e-002	 1.2487572584e+000	-3.3731892134e+000
 4.4506051122e-002	 1.2492074333e+000	-3.3723588229e+000
 3.3322740611e-002	 1.2495557590e+000	-3.3662623336e+000
 2.2176539990e-002	 1.2498032649e+000	-3.3549324195e+000
 1.1068588847e-002	 1.2499509936e+000	-3.3384044564e+000
 0.0000000000e+000	 1.2500000000e+000	-3.3167164322e+000
 1.2500000000e+000	 0.0000000000e+000	 4.1121979440e+000
 1.2499509936e+000	 1.1068588847e-002	 4.1201513777e+000
 1.2498032649e+000	 2.2176539990e-002	 4.1241920820e+000
 1.2495557590e+000	 3.3322740611e-002	 4.1242517333e+000
 1.2492074333e+000	 4.4506051122e-002	 4.1202623188e+000
 1.2487572584e+000	 5.5725305204e-002	 4.1121562032e+000
 1.2482042189e+000	 6.6979309880e-002	 4.0998661971e+000
 1.2475473141e+000	 7.8266845602e-002	 4.0833256273e+000
 1.2467855586e+000	 8.9586666357e-002	 4.0624684084e+000
 1.2459179833e+000	 1.0093749980e-001	 4.0372291157e+000
 1.2449436358e+000	 1.1231804739e-001	 4.0075430602e+000
 1.2750000000e+000	 0.0000000000e+000	 3.9934636945e+000
 1.2749500134e+000	 1.1289960624e-002	 4.0026087039e+000
 1.2747993302e+000	 2.2620070789e-002	 4.0080666682e+000
 1.2745468742e+000	 3.3989195423e-002	 4.0098308939e+000
 1.2741915820e+000	 4.5396172143e-002	 4.0078924938e+000
 1.2737324036e+000	 5.6839811307e-002	 4.0022402739e+000
 1.2731683033e+000	 6.8318896077e-002	 3.9928606212e+000
 1.2724982604e+000	 7.9832182514e-002	 3.9797373956e+000
 1.2717212698e+000	 9.1378399684e-002	 3.9628518233e+000
 1.2708363430e+000	 1.0295624979e-001	 3.9421823935e+000
 1.2698425085e+000	 1.1456440834e-001	 3.9177047592e+000
 1.3000000000e+000	 0.0000000000e+000	 3.9006524957e+000
 1.2999490333e+000	 1.1511332401e-002	 3.9102689797e+000
 1.2997953955e+000	 2.3063601588e-002	 3.9160455230e+000
 1.2995379894e+000	 3.4655650234e-002	 3.9179724447e+000
 1.2991757306e+000	 4.6286293165e-002	 3.9160377693e+000
 1.2987075487e+000	 5.7954317410e-002	 3.9102271117e+000
 1.2981323876e+000	 6.9658482273e-002	 3.9005235642e+000
 1.2974492067e+000	 8.1397519425e-002	 3.8869075859e+000
 1.2966569810e+000	 9.3170133010e-002	 3.8693568951e+000
 1.2957547027e+000	 1.0497499979e-001	 3.8478463655e+000
 1.2947413812e+000	 1.1681076929e-001	 3.8223479251e+000
 1.3250000000e+000	 0.0000000000e+000	 3.8323861891e+000
 1.3249480532e+000	 1.1732704177e-002	 3.8419468060e+000
 1.3247914608e+000	 2.3507132387e-002	 3.8475366991e+000
 1.3245291046e+000	 3.5322105045e-002	 3.8491436533e+000
 1.3241598793e+000	 4.7176414186e-002	 3.8467530452e+000
 1.3236826939e+000	 5.9068823513e-002	 3.8403477254e+000
 1.3230964720e+000	 7.0998068470e-002	 3.8299079026e+000
 1.3224001529e+000	 8.2962856336e-002	 3.8154110312e+000
 1.3215926922e+000	 9.4961866336e-002	 3.7968317015e+000
 1.3206730623e+000	 1.0699374978e-001	 3.7741415335e+000
 1.3196402539e+000	 1.1905713023e-001	 3.7473090754e+000
 1.3500000000e+000	 0.0000000000e+000	 3.7873887018e+000
 1.3499470731e+000	 1.1954075954e-002	 3.7963793450e+000
 1.3497875261e+000	 2.3950663186e-002	 3.8012903049e+000
 1.3495202198e+000	 3.5988559857e-002	 3.8021072782e+000
 1.3491440280e+000	 4.8066535207e-002	 3.7988134265e+000
 1.3486578391e+000	 6.0183329615e-002	 3.7913892543e+000
 1.3480605564e+000	 7.2337654666e-002	 3.7798124907e+000
 1.3473510992e+000	 8.4528193246e-002	 3.7640579730e+000
 1.3465284033e+000	 9.6753599662e-002	 3.7440975346e+000
 1.3455914220e+000	 1.0901249978e-001	 3.7198998964e+000
 1.3445391266e+000	 1.2130349118e-001	 3.6914305626e+000
 1.3750000000e+000	 0.0000000000e+000	 3.7644767661e+000
 1.3749460929e+000	 1.2175447730e-002	 3.7723954076e+000
 1.3747835914e+000	 2.4394193985e-002	 3.7761469867e+000
 1.3745113349e+000	 3.6655014668e-002	 3.7757155517e+000
 1.3741281766e+000	 4.8956656228e-002	 3.7710824750e+000
 1.3736329842e+000	 6.1297835718e-002	 3.7622263267e+000
 1.3730246408e+000	 7.3677240862e-002	 3.7491227523e+000
 1.3723020455e+000	 8.6093530156e-002	 3.7317443528e+000
 1.3714641145e+000	 9.8545332987e-002	 3.7100605688e+000
 1.3705097816e+000	 1.1103124977e-001	 3.6840375684e+000
 1.3694379994e+000	 1.2354985212e-001	 3.6536381404e+000
 1.4000000000e+000	 0.0000000000e+000	 3.7625516336e+000
 1.3999451128e+000	 1.2396819507e-002	 3.7689072707e+000
 1.3997796567e+000	 2.4837724784e-002	 3.7710298455e+000
 1.3995024501e+000	 3.7321469479e-002	 3.7689021917e+000
 1.3991123253e+000	 4.9846777250e-002	 3.7625043120e+000
 1.3986081294e+000	 6.2412341821e-002	 3.7518132477e+000
 1.3979887252e+000	 7.5016827058e-002	 3.7368029510e+000
 1.3972529918e+000	 8.7658867067e-002	 3.7174441605e+000
 1.3963998257e+000	 1.0033706631e-001	 3.6937042813e+000
 1.3954281413e+000	 1.1304999977e-001	 3.6655472687e+000
 1.3943368721e+000	 1.2579621307e-001	 3.6329335175e+000
 1.4250000000e+000	 0.0000000000e+000	 3.7805916611e+000
 1.4249441327e+000	 1.2618191283e-002	 3.7849033556e+000
 1.4247757220e+000	 2.5281255584e-002	 3.7849372039e+000
 1.4244935653e+000	 3.7987924290e-002	 3.7806752531e+000
 1.4240964740e+000	 5.0736898271e-002	 3.7720965512e+000
 1.4235832746e+000	 6.3526847923e-002	 3.7591770106e+000
 1.4229528095e+000	 7.6356413254e-002	 3.7418892747e+000
 1.4222039381e+000	 8.9224203976e-002	 3.7202025881e+000
 1.4213355368e+000	 1.0212879964e-001	 3.6940826719e+000
 1.4203465010e+000	 1.1506874976e-001	 3.6634916021e+000
 1.4192357448e+000	 1.2804257402e-001	 3.6283876948e+000
 1.4500000000e+000	 0.0000000000e+000	 3.8176456633e+000
 1.4499431525e+000	 1.2839563060e-002	 3.8194416640e+000
 1.4497717873e+000	 2.5724786383e-002	 3.8169361213e+000
 1.4494846805e+000	 3.8654379101e-002	 3.8101107200e+000
 1.4490806226e+000	 5.1627019292e-002	 3.7989439635e+000
 1.4485584197e+000	 6.4641354025e-002	 3.7834110305e+000
 1.4479168939e+000	 7.7695999449e-002	 3.7634836351e+000
 1.4471548843e+000	 9.0789540886e-002	 3.7391298915e+000
 1.4462712480e+000	 1.0392053296e-001	 3.7103141826e+000
 1.4452648606e+000	 1.1708749975e-001	 3.6769970337e+000
 1.4441346175e+000	 1.3028893496e-001	 3.6391349920e+000
 1.4750000000e+000	 0.0000000000e+000	 3.8728269423e+000
 1.4749421724e+000	 1.3060934837e-002	 3.8716438812e+000
 1.4747678526e+000	 2.6168317182e-002	 3.8661565690e+000
 1.4744757957e+000	 3.9320833912e-002	 3.8563467489e+000
 1.4740647713e+000	 5.2517140313e-002	 3.8421927855e+000
 1.4735335649e+000	 6.5755860127e-002	 3.8236695150e+000
 1.4728809783e+000	 7.9035585644e-002	 3.8007480979e+000
 1.4721058306e+000	 9.2354877796e-002	 3.7733958764e+000
 1.4712069592e+000	 1.0571226629e-001	 3.7415762371e+000
 1.4701832203e+000	 1.1910624974e-001	 3.7052484779e+000
 1.4690334902e+000	 1.3253529590e-001	 3.6643676814e+000
 1.5000000000e+000	 0.0000000000e+000	 3.9453079131e+000
 1.4999411923e+000	 1.3282306613e-002	 3.9406900689e+000
 1.4997639179e+000	 2.6611847981e-002	 3.9317861875e+000
 1.4994669109e+000	 3.9987288723e-002	 3.9185784873e+000
 1.4990489200e+000	 5.3407261333e-002	 3.9010455974e+000
 1.4985087101e+000	 6.6870366229e-002	 3.8791623989e+000
 1.4978450627e+000	 8.0375171839e-002	 3.8528998700e+000
 1.4970567769e+000	 9.3920214705e-002	 3.8222249365e+000
 1.4961426704e+000	 1.0750399961e-001	 3.7871003255e+000
 1.4951015800e+000	 1.2112499974e-001	 3.7474844268e+000
 1.4939323629e+000	 1.3478165685e-001	 3.7033311586e+000
 1.2449436358e+000	 1.1231804739e-001	 4.0075430602e+000
 1.2438615812e+000	 1.2372698459e-001	 3.9936686795e+000
 1.2426709033e+000	 1.3516296104e-001	 3.9754745132e+000
 1.2413707047e+000	 1.4662460078e-001	 3.9528996531e+000
 1.2399601078e+000	 1.5811050249e-001	 3.9258841638e+000
 1.2384382558e+000	 1.6961923973e-001	 3.8943691606e+000
 1.2368043131e+000	 1.8114936129e-001	 3.8582968875e+000
 1.2350574661e+000	 1.9269939142e-001	 3.8176107962e+000
 1.2331969241e+000	 2.0426783022e-001	 3.7722556257e+000
 1.2312219198e+000	 2.1585315397e-001	 3.7221774825e+000
 1.2291317105e+000	 2.2745381553e-001	 3.6673239211e+000
 1.2698425085e+000	 1.1456440834e-001	 3.9177047592e+000
 1.2687388129e+000	 1.2620152428e-001	 3.9098378884e+000
 1.2675243214e+000	 1.3786622027e-001	 3.8982688686e+000
 1.2661981188e+000	 1.4955709280e-001	 3.8829657425e+000
 1.2647593100e+000	 1.6127271254e-001	 3.8638933723e+000
 1.2632070210e+000	 1.7301162453e-001	 3.8410133629e+000
 1.2615403994e+000	 1.8477234852e-001	 3.8142839900e+000
 1.2597586154e+000	 1.9655337925e-001	 3.7836601343e+000
 1.2578608626e+000	 2.0835318683e-001	 3.7490932232e+000
 1.2558463582e+000	 2.2017021705e-001	 3.7105311782e+000
 1.2537143447e+000	 2.3200289184e-001	 3.6679183710e+000
 1.2947413812e+000	 1.1681076929e-001	 3.8223479251e+000
 1.2936160445e+000	 1.2867606398e-001	 3.8134865541e+000
 1.2923777395e+000	 1.4056947949e-001	 3.8006491270e+000
 1.2910255329e+000	 1.5248958481e-001	 3.7837999758e+000
 1.2895585122e+000	 1.6443492259e-001	 3.7629002263e+000
 1.2879757861e+000	 1.7640400932e-001	 3.7379077230e+000
 1.2862764856e+000	 1.8839533574e-001	 3.7087769597e+000
 1.2844597647e+000	 2.0040736708e-001	 3.6754590170e+000
 1.2825248010e+000	 2.1243854343e-001	 3.6379015062e+000
 1.2804707966e+000	 2.2448728013e-001	 3.5960485214e+000
 1.2782969789e+000	 2.3655196814e-001	 3.5498405980e+000
 1.3196402539e+000	 1.1905713023e-001	 3.7473090754e+000
 1.3184932761e+000	 1.3115060367e-001	 3.7372466972e+000
 1.3172311575e+000	 1.4327273871e-001	 3.7229638845e+000
 1.3158529470e+000	 1.5542207683e-001	 3.7044215469e+000
 1.3143577143e+000	 1.6759713264e-001	 3.6815773391e+000
 1.3127445512e+000	 1.7979639412e-001	 3.6543855870e+000
 1.3110125719e+000	 1.9201832297e-001	 3.6227972205e+000
 1.3091609141e+000	 2.0426135491e-001	 3.5867597126e+000
 1.3071887395e+000	 2.1652390003e-001	 3.5462170266e+000
 1.3050952350e+000	 2.2880434321e-001	 3.5011095698e+000
 1.3028796131e+000	 2.4110104445e-001	 3.4513741567e+000
 1.3445391266e+000	 1.2130349118e-001	 3.6914305626e+000
 1.3433705078e+000	 1.3362514336e-001	 3.6799661591e+000
 1.3420845756e+000	 1.4597599793e-001	 3.6640659030e+000
 1.3406803611e+000	 1.5835456884e-001	 3.6436875604e+000
 1.3391569165e+000	 1.7075934268e-001	 3.6187855713e+000
 1.3375133163e+000	 1.8318877891e-001	 3.5893109762e+000
 1.3357486582e+000	 1.9564131019e-001	 3.5552113495e+000
 1.3338620634e+000	 2.0811534273e-001	 3.5164307412e+000
 1.3318526780e+000	 2.2060925664e-001	 3.4729096246e+000
 1.3297196734e+000	 2.3312140629e-001	 3.4245848530e+000
 1.3274622474e+000	 2.4565012076e-001	 3.3713896251e+000
 1.3694379994e+000	 1.2354985212e-001	 3.6536381404e+000
 1.3682477394e+000	 1.3609968305e-001	 3.6405758496e+000
 1.3669379937e+000	 1.4867925715e-001	 3.6228907480e+000
 1.3655077752e+000	 1.6128706086e-001	 3.6005377296e+000
 1.3639561186e+000	 1.7392155273e-001	 3.5734682677e+000
 1.3622820814e+000	 1.8658116370e-001	 3.5416303419e+000
 1.3604847444e+000	 1.9926429742e-001	 3.5049683722e+000
 1.3585632127e+000	 2.1196933056e-001	 3.4634231606e+000
 1.3565166165e+000	 2.2469461324e-001	 3.4169318409e+000
 1.3543441118e+000	 2.3743846937e-001	 3.3654278367e+000
 1.3520448816e+000	 2.5019919707e-001	 3.3088408283e+000
 1.3943368721e+000	 1.2579621307e-001	 3.6329335175e+000
 1.3931249710e+000	 1.3857422274e-001	 3.6180823301e+000
 1.3917914117e+000	 1.5138251636e-001	 3.5984493963e+000
 1.3903351893e+000	 1.6421955287e-001	 3.5739870014e+000
 1.3887553208e+000	 1.7708376278e-001	 3.5446438926e+000
 1.3870508465e+000	 1.8997354850e-001	 3.5103652060e+000
 1.3852208307e+000	 2.0288728464e-001	 3.4710923999e+000
 1.3832643620e+000	 2.1582331839e-001	 3.4267631965e+000
 1.3811805550e+000	 2.2877996984e-001	 3.3773115326e+000
 1.3789685502e+000	 2.4175553244e-001	 3.3226675184e+000
 1.3766275158e+000	 2.5474827338e-001	 3.2627574053e+000
 1.4192357448e+000	 1.2804257402e-001	 3.6283876948e+000
 1.4180022026e+000	 1.4104876243e-001	 3.6115611775e+000
 1.4166448298e+000	 1.5408577558e-001	 3.5898216202e+000
 1.4151626033e+000	 1.6715204489e-001	 3.5631189561e+000
 1.4135545229e+000	 1.8024597283e-001	 3.5313994405e+000
 1.4118196117e+000	 1.9336593329e-001	 3.4946055757e+000
 1.4099569169e+000	 2.0651027186e-001	 3.4526760441e+000
 1.4079655113e+000	 2.1967730621e-001	 3.4055456495e+000
 1.4058444934e+000	 2.3286532645e-001	 3.3531452667e+000
 1.4035929886e+000	 2.4607259552e-001	 3.2954018014e+000
 1.4012101500e+000	 2.5929734969e-001	 3.2322381589e+000
 1.4441346175e+000	 1.3028893496e-001	 3.6391349920e+000
 1.4428794342e+000	 1.4352330212e-001	 3.6201510345e+000
 1.4414982479e+000	 1.5678903480e-001	 3.5961500573e+000
 1.4399900174e+000	 1.7008453690e-001	 3.5670798916e+000
 1.4383537251e+000	 1.8340818287e-001	 3.5328845280e+000
 1.4365883768e+000	 1.9675831808e-001	 3.4935040393e+000
 1.4346930032e+000	 2.1013325909e-001	 3.4488745111e+000
 1.4326666607e+000	 2.2353129404e-001	 3.3989279829e+000
 1.4305084319e+000	 2.3695068305e-001	 3.3435923963e+000
 1.4282174270e+000	 2.5038965860e-001	 3.2827915549e+000
 1.4257927842e+000	 2.6384642600e-001	 3.2164450931e+000
 1.4690334902e+000	 1.3253529590e-001	 3.6643676814e+000
 1.4677566659e+000	 1.4599784180e-001	 3.6430482654e+000
 1.4663516659e+000	 1.5949229402e-001	 3.6166348826e+000
 1.4648174315e+000	 1.7301702891e-001	 3.5850735074e+000
 1.4631529272e+000	 1.8657039292e-001	 3.5483060873e+000
 1.4613571419e+000	 2.0015070287e-001	 3.5062704630e+000
 1.4594290895e+000	 2.1375624631e-001	 3.4589002971e+000
 1.4573678100e+000	 2.2738528187e-001	 3.4061250126e+000
 1.4551723704e+000	 2.4103603965e-001	 3.3478697403e+000
 1.4528418654e+000	 2.5470672168e-001	 3.2840552777e+000
 1.4503754184e+000	 2.6839550231e-001	 3.2145980570e+000
 1.4939323629e+000	 1.3478165685e-001	 3.7033311586e+000
 1.4926338975e+000	 1.4847238149e-001	 3.6795021455e+000
 1.4912050840e+000	 1.6219555323e-001	 3.6505290142e+000
 1.4896448456e+000	 1.7594952092e-001	 3.6163561220e+000
 1.4879521294e+000	 1.8973260296e-001	 3.5769235895e+000
 1.4861259070e+000	 2.0354308766e-001	 3.5321672179e+000
 1.4841651757e+000	 2.1737923353e-001	 3.4820184142e+000
 1.4820689593e+000	 2.3123926969e-001	 3.4264041275e+000
 1.4798363089e+000	 2.4512139625e-001	 3.3652467944e+000
 1.4774663038e+000	 2.5902378476e-001	 3.2984642958e+000
 1.4749580526e+000	 2.7294457862e-001	 3.2259699248e+000
 1.2291317105e+000	 2.2745381553e-001	 3.6673239211e+000
 1.2269255782e+000	 2.3906824470e-001	 3.6355161677e+000
 1.2246028306e+000	 2.5069484874e-001	 3.5989941182e+000
 1.2221628022e+000	 2.6233201271e-001	 3.5577173540e+000
 1.2196048543e+000	 2.7397810005e-001	 3.5116474053e+000
 1.2169283763e+000	 2.8563145302e-001	 3.4607478272e+000
 1.2141327860e+000	 2.9729039324e-001	 3.4049842753e+000
 1.2112175306e+000	 3.0895322226e-001	 3.3443245790e+000
 1.2081820871e+000	 3.2061822211e-001	 3.2787388148e+000
 1.2050259632e+000	 3.3228365593e-001	 3.2081993776e+000
 1.2017486977e+000	 3.4394776857e-001	 3.1326810506e+000
 1.2537143447e+000	 2.3200289184e-001	 3.6679183710e+000
 1.2514640897e+000	 2.4384960960e-001	 3.6497774727e+000
 1.2490948872e+000	 2.5570874571e-001	 3.6214099150e+000
 1.2466060582e+000	 2.6757865297e-001	 3.5777874662e+000
 1.2439969514e+000	 2.7945766205e-001	 3.5288516280e+000
 1.2412669438e+000	 2.9134408208e-001	 3.4745628543e+000
 1.2384154417e+000	 3.0323620110e-001	 3.4148841507e+000
 1.2354418812e+000	 3.1513228670e-001	 3.3497811604e+000
 1.2323457289e+000	 3.2703058655e-001	 3.2792222496e+000
 1.2291264825e+000	 3.3892932905e-001	 3.2031785899e+000
 1.2257836717e+000	 3.5082672394e-001	 3.1216242399e+000
 1.2782969789e+000	 2.3655196814e-001	 3.5498405980e+000
 1.2760026013e+000	 2.4863097449e-001	 3.5284472769e+000
 1.2735869439e+000	 2.6072264268e-001	 3.5028052380e+000
 1.2710493143e+000	 2.7282529322e-001	 3.4728505026e+000
 1.2683890485e+000	 2.8493722405e-001	 3.4385155589e+000
 1.2656055113e+000	 2.9705671113e-001	 3.3997293611e+000
 1.2626980974e+000	 3.0918200896e-001	 3.3564173380e+000
 1.2596662318e+000	 3.2131135114e-001	 3.3085014108e+000
 1.2565093706e+000	 3.3344295099e-001	 3.2559000214e+000
 1.2532270017e+000	 3.4557500216e-001	 3.1985281714e+000
 1.2498186456e+000	 3.5770567931e-001	 3.1349563407e+000
 1.3028796131e+000	 2.4110104445e-001	 3.4513741567e+000
 1.3005411129e+000	 2.5341233938e-001	 3.4267715922e+000
 1.2980790005e+000	 2.6573653966e-001	 3.3976748035e+000
 1.2954925703e+000	 2.7807193347e-001	 3.3640155865e+000
 1.2927811456e+000	 2.9041678605e-001	 3.3257221503e+000
 1.2899440789e+000	 3.0276934019e-001	 3.2827191204e+000
 1.2869807532e+000	 3.1512781682e-001	 3.2349275523e+000
 1.2838905824e+000	 3.2749041558e-001	 3.1822649559e+000
 1.2806730123e+000	 3.3985531543e-001	 3.1246453296e+000
 1.2773275210e+000	 3.5222067528e-001	 3.0619792059e+000
 1.2738536196e+000	 3.6458463467e-001	 2.9941737081e+000
 1.3274622474e+000	 2.4565012076e-001	 3.3713896251e+000
 1.3250796244e+000	 2.5819370428e-001	 3.3436234909e+000
 1.3225710571e+000	 2.7075043663e-001	 3.3111468808e+000
 1.3199358264e+000	 2.8331857372e-001	 3.2738873987e+000
 1.3171732427e+000	 2.9589634805e-001	 3.2317689794e+000
 1.3142826464e+000	 3.0848196925e-001	 3.1847118962e+000
 1.3112634089e+000	 3.2107362469e-001	 3.1326327797e+000
 1.3081149330e+000	 3.3366948003e-001	 3.0754446471e+000
 1.3048366541e+000	 3.4626767987e-001	 3.0130569430e+000
 1.3014280403e+000	 3.5886634840e-001	 2.9453755905e+000
 1.2978885935e+000	 3.7146359004e-001	 2.8723030556e+000
 1.3520448816e+000	 2.5019919707e-001	 3.3088408283e+000
 1.3496181360e+000	 2.6297506917e-001	 3.2779594516e+000
 1.3470631137e+000	 2.7576433361e-001	 3.2421800956e+000
 1.3443790824e+000	 2.8856521398e-001	 3.2014261962e+000
 1.3415653397e+000	 3.0137591005e-001	 3.1556174098e+000
 1.3386212139e+000	 3.1419459831e-001	 3.1046696255e+000
 1.3355460646e+000	 3.2701943255e-001	 3.0484949881e+000
 1.3323392837e+000	 3.3984854447e-001	 2.9870019322e+000
 1.3290002958e+000	 3.5268004431e-001	 2.9200952290e+000
 1.3255285595e+000	 3.6551202151e-001	 2.8476760434e+000
 1.3219235675e+000	 3.7834254541e-001	 2.7696420050e+000
 1.3766275158e+000	 2.5474827338e-001	 3.2627574053e+000
 1.3741566475e+000	 2.6775643406e-001	 3.2288119125e+000
 1.3715551703e+000	 2.8077823058e-001	 3.1898092413e+000
 1.3688223385e+000	 2.9381185423e-001	 3.1456686753e+000
 1.3659574368e+000	 3.0685547205e-001	 3.0963055804e+000
 1.3629597814e+000	 3.1990722737e-001	 3.0416314206e+000
 1.3598287203e+000	 3.3296524041e-001	 2.9815537853e+000
 1.3565636343e+000	 3.4602760891e-001	 2.9159764281e+000
 1.3531639376e+000	 3.5909240875e-001	 2.8447993187e+000
 1.3496290788e+000	 3.7215769463e-001	 2.7679187064e+000
 1.3459585415e+000	 3.8522150078e-001	 2.6852271967e+000
 1.4012101500e+000	 2.5929734969e-001	 3.2322381589e+000
 1.3986951591e+000	 2.7253779896e-001	 3.1952826082e+000
 1.3960472269e+000	 2.8579212755e-001	 3.1531385981e+000
 1.3932655945e+000	 2.9905849449e-001	 3.1057212675e+000
 1.3903495339e+000	 3.1233503405e-001	 3.0529416712e+000
 1.3872983490e+000	 3.2561985643e-001	 2.9947067993e+000
 1.3841113760e+000	 3.3891104828e-001	 2.9309196083e+000
 1.3807879849e+000	 3.5220667336e-001	 2.8614790639e+000
 1.3773275793e+000	 3.6550477319e-001	 2.7862801980e+000
 1.3737295980e+000	 3.7880336775e-001	 2.7052141780e+000
 1.3699935154e+000	 3.9210045615e-001	 2.6181683895e+000
 1.4257927842e+000	 2.6384642600e-001	 3.2164450931e+000
 1.4232336707e+000	 2.7731916385e-001	 3.1765365959e+000
 1.4205392835e+000	 2.9080602453e-001	 3.1313359425e+000
 1.4177088505e+000	 3.0430513474e-001	 3.0807541267e+000
 1.4147416310e+000	 3.1781459605e-001	 3.0246978645e+000
 1.4116369165e+000	 3.3133248549e-001	 2.9630696155e+000
 1.4083940318e+000	 3.4485685614e-001	 2.8957676173e+000
 1.4050123355e+000	 3.5838573780e-001	 2.8226859331e+000
 1.4014912211e+000	 3.7191713763e-001	 2.7437145126e+000
 1.3978301173e+000	 3.8544904087e-001	 2.6587392669e+000
 1.3940284894e+000	 3.9897941152e-001	 2.5676421576e+000
 1.4503754184e+000	 2.6839550231e-001	 3.2145980570e+000
 1.4477721822e+000	 2.8210052874e-001	 3.1717968891e+000
 1.4450313401e+000	 2.9581992150e-001	 3.1236271661e+000
 1.4421521066e+000	 3.0955177499e-001	 3.0699957299e+000
 1.4391337281e+000	 3.2329415806e-001	 3.0108049219e+000
 1.4359754840e+000	 3.3704511455e-001	 2.9459526070e+000
 1.4326766875e+000	 3.5080266401e-001	 2.8753322110e+000
 1.4292366861e+000	 3.6456480225e-001	 2.7988327716e+000
 1.4256548628e+000	 3.7832950208e-001	 2.7163390041e+000
 1.4219306366e+000	 3.9209471399e-001	 2.6277313814e+000
 1.4180634633e+000	 4.0585836689e-001	 2.5328862284e+000
 1.4749580526e+000	 2.7294457862e-001	 3.2259699248e+000
 1.4723106938e+000	 2.8688189364e-001	 3.1803396279e+000
 1.4695233968e+000	 3.0083381848e-001	 3.1292914332e+000
 1.4665953626e+000	 3.1479841525e-001	 3.0727280164e+000
 1.4635258252e+000	 3.2877372006e-001	 3.0105473019e+000
 1.4603140515e+000	 3.4275774362e-001	 2.9426424884e+000
 1.4569593432e+000	 3.5674847188e-001	 2.8689020893e+000
 1.4534610367e+000	 3.7074386670e-001	 2.7892099869e+000
 1.4498185045e+000	 3.8474186652e-001	 2.7034455019e+000
 1.4460311558e+000	 3.9874038711e-001	 2.6114834788e+000
 1.4420984373e+000	 4.1273732227e-001	 2.5131943858e+000
 1.2017486977e+000	 3.4394776857e-001	 3.1326810506e+000
 1.1983498614e+000	 3.5560878723e-001	 3.0860680392e+000
 1.1948290576e+000	 3.6726492216e-001	 3.0350783539e+000
 1.1911859226e+000	 3.7891436731e-001	 2.9797055766e+000
 1.1874201265e+000	 3.9055530112e-001	 2.9199457801e+000
 1.1835313736e+000	 4.0218588716e-001	 2.8557975741e+000
 1.1795194030e+000	 4.1380427497e-001	 2.7872621476e+000
 1.1753839893e+000	 4.2540860082e-001	 2.7143433092e+000
 1.1711249430e+000	 4.3699698847e-001	 2.6370475237e+000
 1.1667421108e+000	 4.4856755008e-001	 2.5553839463e+000
 1.1622353763e+000	 4.6011838696e-001	 2.4693644537e+000
 1.2257836717e+000	 3.5082672394e-001	 3.1216242399e+000
 1.2223168587e+000	 3.6272096297e-001	 3.0692961661e+000
 1.2187256388e+000	 3.7461022059e-001	 3.0122043775e+000
 1.2150096411e+000	 3.8649265466e-001	 2.9503428732e+000
 1.2111685290e+000	 3.9836640714e-001	 2.8837085425e+000
 1.2072020010e+000	 4.1022960490e-001	 2.8123012170e+000
 1.2031097911e+000	 4.2208036047e-001	 2.7361237201e+000
 1.1988916691e+000	 4.3391677283e-001	 2.6551819131e+000
 1.1945474418e+000	 4.4573692824e-001	 2.5694847376e+000
 1.1900769530e+000	 4.5753890108e-001	 2.4790442548e+000
 1.1854800839e+000	 4.6932075469e-001	 2.3838756808e+000
 1.2498186456e+000	 3.5770567931e-001	 3.1349563407e+000
 1.2462838559e+000	 3.6983313871e-001	 3.0770755132e+000
 1.2426222199e+000	 3.8195551903e-001	 3.0140541429e+000
 1.2388333595e+000	 3.9407094200e-001	 2.9458866324e+000
 1.2349169315e+000	 4.0617751316e-001	 2.8725706691e+000
 1.2308726285e+000	 4.1827332264e-001	 2.7941072844e+000
 1.2267001791e+000	 4.3035644597e-001	 2.7105009095e+000
 1.2223993489e+000	 4.4242494484e-001	 2.6217594275e+000
 1.2179699407e+000	 4.5447686801e-001	 2.5278942219e+000
 1.2134117952e+000	 4.6651025208e-001	 2.4289202204e+000
 1.2087247914e+000	 4.7852312243e-001	 2.3248559349e+000
 1.2738536196e+000	 3.6458463467e-001	 2.9941737081e+000
 1.2702508531e+000	 3.7694531445e-001	 2.9573085675e+000
 1.2665188011e+000	 3.8930081747e-001	 2.9161706867e+000
 1.2626570780e+000	 4.0164922934e-001	 2.8706674089e+000
 1.2586653341e+000	 4.1398861918e-001	 2.8207024425e+000
 1.2545432560e+000	 4.2631704038e-001	 2.7661759565e+000
 1.2502905672e+000	 4.3863253146e-001	 2.7069846881e+000
 1.2459070287e+000	 4.5093311686e-001	 2.6128110486e+000
 1.2413924396e+000	 4.6321680778e-001	 2.5110002782e+000
 1.2367466374e+000	 4.7548160308e-001	 2.4037244042e+000
 1.2319694989e+000	 4.8772549017e-001	 2.2910051912e+000
 1.2978885935e+000	 3.7146359004e-001	 2.8723030556e+000
 1.2942178504e+000	 3.8405749020e-001	 2.8304881407e+000
 1.2904153822e+000	 3.9664611591e-001	 2.7842676500e+000
 1.2864807964e+000	 4.0922751669e-001	 2.7335437651e+000
 1.2824137366e+000	 4.2179972519e-001	 2.6782148877e+000
 1.2782138834e+000	 4.3436075812e-001	 2.6181757430e+000
 1.2738809552e+000	 4.4690861696e-001	 2.5533174955e+000
 1.2694147085e+000	 4.5944128887e-001	 2.4835278781e+000
 1.2648149384e+000	 4.7195674754e-001	 2.4086913343e+000
 1.2600814796e+000	 4.8445295408e-001	 2.3286891734e+000
 1.2552142064e+000	 4.9692785791e-001	 2.2433997382e+000
 1.3219235675e+000	 3.7834254541e-001	 2.7696420050e+000
 1.3181848476e+000	 3.9116966594e-001	 2.7231277971e+000
 1.3143119634e+000	 4.0399141435e-001	 2.6720980322e+000
 1.3103045149e+000	 4.1680580403e-001	 2.6164494634e+000
 1.3061621391e+000	 4.2961083121e-001	 2.5560748918e+000
 1.3018845109e+000	 4.4240447586e-001	 2.4908632771e+000
 1.2974713433e+000	 4.5518470246e-001	 2.4206998621e+000
 1.2929223883e+000	 4.6794946089e-001	 2.3454663115e+000
 1.2882374373e+000	 4.8069668731e-001	 2.2650408634e+000
 1.2834163219e+000	 4.9342430508e-001	 2.1792984953e+000
 1.2784589140e+000	 5.0613022564e-001	 2.0881111034e+000
 1.3459585415e+000	 3.8522150078e-001	 2.6852271967e+000
 1.3421518448e+000	 3.9828184168e-001	 2.6342666001e+000
 1.3382085446e+000	 4.1133671280e-001	 2.5787030492e+000
 1.3341282333e+000	 4.2438409137e-001	 2.5184275933e+000
 1.3299105417e+000	 4.3742193723e-001	 2.4533271294e+000
 1.3255551384e+000	 4.5044819360e-001	 2.3832845213e+000
 1.3210617314e+000	 4.6346078795e-001	 2.3081787324e+000
 1.3164300681e+000	 4.7645763290e-001	 2.2278849734e+000
 1.3116599362e+000	 4.8943662708e-001	 2.1422748649e+000
 1.3067511641e+000	 5.0239565608e-001	 2.0512166135e+000
 1.3017036215e+000	 5.1533259338e-001	 1.9545752026e+000
 1.3699935154e+000	 3.9210045615e-001	 2.6181683895e+000
 1.3661188421e+000	 4.0539401742e-001	 2.5630171418e+000
 1.3621051257e+000	 4.1868201124e-001	 2.5031978979e+000
 1.3579519518e+000	 4.3196237872e-001	 2.4385957191e+000
 1.3536589442e+000	 4.4523304325e-001	 2.3690912868e+000
 1.3492257659e+000	 4.5849191134e-001	 2.2945610290e+000
 1.3446521194e+000	 4.7173687345e-001	 2.2148772624e+000
 1.3399377478e+000	 4.8496580491e-001	 2.1299083497e+000
 1.3350824350e+000	 4.9817656684e-001	 2.0395188720e+000
 1.3300860063e+000	 5.1136700707e-001	 1.9435698162e+000
 1.3249483290e+000	 5.2453496112e-001	 1.8419187778e+000
 1.3940284894e+000	 3.9897941152e-001	 2.5676421576e+000
 1.3900858393e+000	 4.1250619317e-001	 2.5085592043e+000
 1.3860017069e+000	 4.2602730968e-001	 2.4447653784e+000
 1.3817756702e+000	 4.3954066606e-001	 2.3761394605e+000
 1.3774073467e+000	 4.5304414927e-001	 2.3025555956e+000
 1.3728963933e+000	 4.6653562908e-001	 2.2238834275e+000
 1.3682425075e+000	 4.8001295895e-001	 2.1399882504e+000
 1.3634454276e+000	 4.9347397693e-001	 2.0507311748e+000
 1.3585049339e+000	 5.0691650661e-001	 1.9559693113e+000
 1.3534208485e+000	 5.2033835807e-001	 1.8555559690e+000
 1.3481930365e+000	 5.3373732886e-001	 1.7493408706e+000
 1.4180634633e+000	 4.0585836689e-001	 2.5328862284e+000
 1.4140528365e+000	 4.1961836891e-001	 2.4701340658e+000
 1.4098982880e+000	 4.3337260812e-001	 2.4026501650e+000
 1.4055993887e+000	 4.4711895341e-001	 2.3303067246e+000
 1.4011557493e+000	 4.6085525529e-001	 2.2529710238e+000
 1.3965670208e+000	 4.7457934682e-001	 2.1705055651e+000
 1.3918328955e+000	 4.8828904444e-001	 2.0827682346e+000
 1.3869531074e+000	 5.0198214894e-001	 1.9896124780e+000
 1.3819274327e+000	 5.1565644638e-001	 1.8908874949e+000
 1.3767556907e+000	 5.2930970907e-001	 1.7864384488e+000
 1.3714377441e+000	 5.4293969659e-001	 1.6761066949e+000
 1.4420984373e+000	 4.1273732227e-001	 2.5131943858e+000
 1.4380198337e+000	 4.2673054465e-001	 2.4470393759e+000
 1.4337948692e+000	 4.4071790656e-001	 2.3761536501e+000
 1.4294231071e+000	 4.5469724075e-001	 2.3004025155e+000
 1.4249041518e+000	 4.6866636131e-001	 2.2196460477e+000
 1.4202376483e+000	 4.8262306456e-001	 2.1337392419e+000
 1.4154232836e+000	 4.9656512994e-001	 2.0425321816e+000
 1.4104607872e+000	 5.1049032095e-001	 1.9458702258e+000
 1.4053499316e+000	 5.2439638615e-001	 1.8435942131e+000
 1.4000905329e+000	 5.3828106007e-001	 1.7355406843e+000
 1.3946824516e+000	 5.5214206433e-001	 1.6215421225e+000
 1.1622353763e+000	 4.6011838696e-001	 2.4693644537e+000
 1.1576046607e+000	 4.7164759049e-001	 2.4207676422e+000
 1.1528499225e+000	 4.8315324300e-001	 2.3680957706e+000
 1.1479711587e+000	 4.9463341865e-001	 2.3114113139e+000
 1.1429684047e+000	 5.0608618433e-001	 2.2507801283e+000
 1.1378417347e+000	 5.1750960065e-001	 2.1862714260e+000
 1.1325912624e+000	 5.2890172284e-001	 2.1179577442e+000
 1.1272171407e+000	 5.4026060171e-001	 2.0459149093e+000
 1.1217195625e+000	 5.5158428467e-001	 1.9702219957e+000
 1.1160987607e+000	 5.6287081669e-001	 1.8909612787e+000
 1.1103550086e+000	 5.7411824131e-001	 1.8082181825e+000
 1.1854800839e+000	 4.6932075469e-001	 2.3838756808e+000
 1.1807567539e+000	 4.8108054230e-001	 2.3285336354e+000
 1.1759069209e+000	 4.9281630786e-001	 2.2684679600e+000
 1.1709305819e+000	 5.0452608702e-001	 2.2037378670e+000
 1.1658277727e+000	 5.1620790802e-001	 2.1344065829e+000
 1.1605985694e+000	 5.2785979267e-001	 2.0605413347e+000
 1.1552430876e+000	 5.3947975730e-001	 1.9822133314e+000
 1.1497614835e+000	 5.5106581375e-001	 1.8994977377e+000
 1.1441539538e+000	 5.6261597037e-001	 1.8124736430e+000
 1.1384207360e+000	 5.7412823303e-001	 1.7212240237e+000
 1.1325621087e+000	 5.8560060613e-001	 1.6258356993e+000
 1.2087247914e+000	 4.7852312243e-001	 2.3248559349e+000
 1.2039088471e+000	 4.9051349411e-001	 2.2625887451e+000
 1.1989639194e+000	 5.0247937272e-001	 2.1949694354e+000
 1.1938900050e+000	 5.1441875539e-001	 2.1220541567e+000
 1.1886871408e+000	 5.2632963171e-001	 2.0439036987e+000
 1.1833554041e+000	 5.3820998468e-001	 1.9605834881e+000
 1.1778949129e+000	 5.5005779175e-001	 1.8721635809e+000
 1.1723058263e+000	 5.6187102578e-001	 1.7787186471e+000
 1.1665883450e+000	 5.7364765606e-001	 1.6803279489e+000
 1.1607427112e+000	 5.8538564936e-001	 1.5770753120e+000
 1.1547692089e+000	 5.9708297096e-001	 1.4690490895e+000
 1.2319694989e+000	 4.8772549017e-001	 2.2910051912e+000
 1.2270609403e+000	 4.9994644592e-001	 2.2216446028e+000
 1.2220209178e+000	 5.1214243758e-001	 2.1463220630e+000
 1.2168494282e+000	 5.2431142377e-001	 2.0650908497e+000
 1.2115465089e+000	 5.3645135539e-001	 1.9780094964e+000
 1.2061122388e+000	 5.4856017669e-001	 1.8851418027e+000
 1.2005467381e+000	 5.6063582621e-001	 1.7865568369e+000
 1.1948501691e+000	 5.7267623781e-001	 1.6823289315e+000
 1.1890227363e+000	 5.8467934175e-001	 1.5725376704e+000
 1.1830646864e+000	 5.9664306569e-001	 1.4572678691e+000
 1.1769763091e+000	 6.0856533578e-001	 1.3366095462e+000
 1.2552142064e+000	 4.9692785791e-001	 2.2433997382e+000
 1.2502130335e+000	 5.0937939773e-001	 2.2029907391e+000
 1.2450779163e+000	 5.2180550244e-001	 2.1213510495e+000
 1.2398088514e+000	 5.3420409214e-001	 2.0316813948e+000
 1.2344058770e+000	 5.4657307908e-001	 1.9355643204e+000
 1.2288690735e+000	 5.5891036871e-001	 1.8330621614e+000
 1.2231985634e+000	 5.7121386067e-001	 1.7242431543e+000
 1.2173945119e+000	 5.8348144985e-001	 1.6091814420e+000
 1.2114571275e+000	 5.9571102745e-001	 1.4879570713e+000
 1.2053866616e+000	 6.0790048203e-001	 1.3606559805e+000
 1.1991834092e+000	 6.2004770061e-001	 1.2273699791e+000
 1.2784589140e+000	 5.0613022564e-001	 2.0881111034e+000
 1.2733651267e+000	 5.1881234953e-001	 2.0427824921e+000
 1.2681349147e+000	 5.3146856730e-001	 1.9906674761e+000
 1.2627682746e+000	 5.4409676051e-001	 1.9316350090e+000
 1.2572652451e+000	 5.5669480277e-001	 1.8655532779e+000
 1.2516259082e+000	 5.6926056072e-001	 1.7922899603e+000
 1.2458503886e+000	 5.8179189512e-001	 1.6841650523e+000
 1.2399388547e+000	 5.9428666188e-001	 1.5582213549e+000
 1.2338915188e+000	 6.0674271314e-001	 1.4255326945e+000
 1.2277086368e+000	 6.1915789836e-001	 1.2861862588e+000
 1.2213905094e+000	 6.3153006543e-001	 1.1563096045e+000
 1.3017036215e+000	 5.1533259338e-001	 1.9545752026e+000
 1.2965172200e+000	 5.2824530134e-001	 1.9044366811e+000
 1.2911919132e+000	 5.4113163216e-001	 1.8471206481e+000
 1.2857276977e+000	 5.5398942888e-001	 1.7824820214e+000
 1.2801246132e+000	 5.6681652645e-001	 1.7103750321e+000
 1.2743827429e+000	 5.7961075273e-001	 1.6306535045e+000
 1.2685022138e+000	 5.9236992958e-001	 1.5431711479e+000
 1.2624831976e+000	 6.0509187392e-001	 1.4477818575e+000
 1.2563259100e+000	 6.1777439883e-001	 1.3443400272e+000
 1.2500306120e+000	 6.3041531469e-001	 1.2447683679e+000
 1.2435976096e+000	 6.4301243026e-001	 1.1163221192e+000
 1.3249483290e+000	 5.2453496112e-001	 1.8419187778e+000
 1.3196693132e+000	 5.3767825315e-001	 1.7870987885e+000
 1.3142489116e+000	 5.5079469702e-001	 1.7247361653e+000
 1.3086871209e+000	 5.6388209726e-001	 1.6546714317e+000
 1.3029839813e+000	 5.7693825014e-001	 1.5767444757e+000
 1.2971395776e+000	 5.8996094475e-001	 1.4907948544e+000
 1.2911540391e+000	 6.0294796403e-001	 1.3966621100e+000
 1.2850275404e+000	 6.1589708595e-001	 1.2941860971e+000
 1.2787603012e+000	 6.2880608453e-001	 1.1907785698e+000
 1.2723525872e+000	 6.4167273103e-001	 1.0982915663e+000
 1.2658047097e+000	 6.5449479508e-001	 9.9948640886e-001
 1.3481930365e+000	 5.3373732886e-001	 1.7493408706e+000
 1.3428214064e+000	 5.4711120496e-001	 1.6899860743e+000
 1.3373059101e+000	 5.6045776188e-001	 1.6227488254e+000
 1.3316465441e+000	 5.7377476563e-001	 1.5474548745e+000
 1.3258433494e+000	 5.8705997383e-001	 1.4639293598e+000
 1.3198964122e+000	 6.0031113676e-001	 1.3719971367e+000
 1.3138058643e+000	 6.1352599849e-001	 1.2714831191e+000
 1.3075718832e+000	 6.2670229798e-001	 1.1652093284e+000
 1.3011946925e+000	 6.3983777022e-001	 1.0713217719e+000
 1.2946745624e+000	 6.5293014736e-001	 9.7053977716e-001
 1.2880118099e+000	 6.6597715991e-001	 8.6294298449e-001
 1.3714377441e+000	 5.4293969659e-001	 1.6761066949e+000
 1.3659734996e+000	 5.5654415677e-001	 1.6123814935e+000
 1.3603629085e+000	 5.7012082674e-001	 1.5404587058e+000
 1.3546059672e+000	 5.8366743400e-001	 1.4601489113e+000
 1.3487027175e+000	 5.9718169751e-001	 1.3712620726e+000
 1.3426532469e+000	 6.1066132877e-001	 1.2736078899e+000
 1.3364576896e+000	 6.2410403295e-001	 1.1669961681e+000
 1.3301162260e+000	 6.3750751002e-001	 1.0713687572e+000
 1.3236290837e+000	 6.5086945591e-001	 9.6966916141e-001
 1.3169965376e+000	 6.6418756369e-001	 8.6058917691e-001
 1.3102189101e+000	 6.7745952473e-001	 7.4421173518e-001
 1.3946824516e+000	 5.5214206433e-001	 1.6215421225e+000
 1.3891255928e+000	 5.6597710858e-001	 1.5536282211e+000
 1.3834199070e+000	 5.7978389160e-001	 1.4772257229e+000
 1.3775653904e+000	 5.9356010237e-001	 1.3921296197e+000
 1.3715620856e+000	 6.0730342120e-001	 1.2981342533e+000
 1.3654100816e+000	 6.2101152078e-001	 1.1950336965e+000
 1.3591095148e+000	 6.3468206740e-001	 1.0960908914e+000
 1.3526605688e+000	 6.4831272205e-001	 9.9449057989e-001
 1.3460634750e+000	 6.6190114160e-001	 8.8495940608e-001
 1.3393185129e+000	 6.7544498003e-001	 7.6757475074e-001
 1.3324260102e+000	 6.8894188956e-001	 6.4242305749e-001
 1.1103550086e+000	 5.7411824131e-001	 1.8082181825e+000
 1.1044886196e+000	 5.8532460163e-001	 1.7532456824e+000
 1.0984999480e+000	 5.9648794139e-001	 1.6894696650e+000
 1.0923893889e+000	 6.0760630594e-001	 1.6169767204e+000
 1.0861573781e+000	 6.1867774335e-001	 1.5358620189e+000
 1.0798043922e+000	 6.2970030539e-001	 1.4615211093e+000
 1.0733309490e+000	 6.4067204862e-001	 1.4001317685e+000
 1.0667376072e+000	 6.5159103546e-001	 1.3315795897e+000
 1.0600249662e+000	 6.6245533522e-001	 1.2559309431e+000
 1.0531936664e+000	 6.7326302520e-001	 1.1732571829e+000
 1.0462443890e+000	 6.8401219173e-001	 1.0836346297e+000
 1.1325621087e+000	 5.8560060613e-001	 1.6258356993e+000
 1.1265783920e+000	 5.9703109366e-001	 1.5592334266e+000
 1.1204699470e+000	 6.0841770021e-001	 1.4846948226e+000
 1.1142371767e+000	 6.1975843206e-001	 1.4023135631e+000
 1.1078805256e+000	 6.3105129822e-001	 1.3311772461e+000
 1.1014004800e+000	 6.4229431150e-001	 1.2698653624e+000
 1.0947975680e+000	 6.5348548960e-001	 1.2023510277e+000
 1.0880723593e+000	 6.6462285617e-001	 1.1286970173e+000
 1.0812254655e+000	 6.7570444192e-001	 1.0489701713e+000
 1.0742575397e+000	 6.8672828570e-001	 9.6324137543e-001
 1.0671692768e+000	 6.9769243556e-001	 8.7158553844e-001
 1.1547692089e+000	 5.9708297096e-001	 1.4690490895e+000
 1.1486681643e+000	 6.0873758569e-001	 1.3907087872e+000
 1.1424399459e+000	 6.2034745904e-001	 1.3052624896e+000
 1.1360849645e+000	 6.3191055818e-001	 1.2335435993e+000
 1.1296036732e+000	 6.4342485309e-001	 1.1701055345e+000
 1.1229965679e+000	 6.5488831761e-001	 1.1013978139e+000
 1.1162641870e+000	 6.6629893057e-001	 1.0274813818e+000
 1.1094071114e+000	 6.7765467688e-001	 9.4842035247e-001
 1.1024259648e+000	 6.8895354863e-001	 8.6428198575e-001
 1.0953214130e+000	 7.0019354621e-001	 7.7513666198e-001
 1.0880941646e+000	 7.1137267940e-001	 6.8105785448e-001
 1.1769763091e+000	 6.0856533578e-001	 1.3366095462e+000
 1.1707579367e+000	 6.2044407772e-001	 1.2464276812e+000
 1.1644099449e+000	 6.3227721786e-001	 1.1706091029e+000
 1.1579327522e+000	 6.4406268430e-001	 1.1029370833e+000
 1.1513268207e+000	 6.5579840795e-001	 1.0309002215e+000
 1.1445926557e+000	 6.6748232371e-001	 9.5455933866e-001
 1.1377308060e+000	 6.7911237154e-001	 8.7397755535e-001
 1.1307418636e+000	 6.9068649759e-001	 7.8922026170e-001
 1.1236264641e+000	 7.0220265533e-001	 7.0035508619e-001
 1.1163852864e+000	 7.1365880671e-001	 6.0745186398e-001
 1.1090190524e+000	 7.2505292324e-001	 5.1058260474e-001
 1.1991834092e+000	 6.2004770061e-001	 1.2273699791e+000
 1.1928477091e+000	 6.3215056975e-001	 1.1442640006e+000
 1.1863799439e+000	 6.4420697669e-001	 1.0703403446e+000
 1.1797805400e+000	 6.5621481041e-001	 9.9292824139e-001
 1.1730499683e+000	 6.6817196282e-001	 9.1209004035e-001
 1.1661887436e+000	 6.8007632982e-001	 8.2788954775e-001
 1.1591974249e+000	 6.9192581251e-001	 7.4039198780e-001
 1.1520766157e+000	 7.0371831829e-001	 6.4966396377e-001
 1.1448269634e+000	 7.1545176204e-001	 5.5577341982e-001
 1.1374491597e+000	 7.2712406721e-001	 4.5878960340e-001
 1.1299439401e+000	 7.3873316707e-001	 3.5878302834e-001
 1.2213905094e+000	 6.3153006543e-001	 1.1563096045e+000
 1.2149374815e+000	 6.4385706178e-001	 1.0742015653e+000
 1.2083499428e+000	 6.5613673552e-001	 9.8945257486e-001
 1.2016283278e+000	 6.6836693653e-001	 9.0212810811e-001
 1.1947731158e+000	 6.8054551768e-001	 8.1229428343e-001
 1.1877848314e+000	 6.9267033592e-001	 7.2001781234e-001
 1.1806640439e+000	 7.0473925348e-001	 6.2536595080e-001
 1.1734113679e+000	 7.1675013900e-001	 5.2840645226e-001
 1.1660274628e+000	 7.2870086874e-001	 4.2920752235e-001
 1.1585130330e+000	 7.4058932772e-001	 3.2783777554e-001
 1.1508688279e+000	 7.5241341090e-001	 2.2436619369e-001
 1.2435976096e+000	 6.4301243026e-001	 1.1163221192e+000
 1.2370272539e+000	 6.5556355381e-001	 1.0223544068e+000
 1.2303199418e+000	 6.6806649434e-001	 9.2663396600e-001
 1.2234761156e+000	 6.8051906265e-001	 8.2923080197e-001
 1.2164962634e+000	 6.9291907255e-001	 7.3021471692e-001
 1.2093809192e+000	 7.0526434203e-001	 6.2965524943e-001
 1.2021306629e+000	 7.1755269445e-001	 5.2762161652e-001
 1.1947461200e+000	 7.2978195971e-001	 4.2418265851e-001
 1.1872279621e+000	 7.4194997544e-001	 3.1940678690e-001
 1.1795769063e+000	 7.5405458822e-001	 2.1336193532e-001
 1.1717937157e+000	 7.6609365474e-001	 1.0611551373e-001
 1.2658047097e+000	 6.5449479508e-001	 9.9948640886e-001
 1.2591170263e+000	 6.6727004585e-001	 9.3467132655e-001
 1.2522899407e+000	 6.7999625317e-001	 8.6772009079e-001
 1.2453239033e+000	 6.9267118877e-001	 7.7300623750e-001
 1.2382194110e+000	 7.0529262741e-001	 6.6462834604e-001
 1.2309770071e+000	 7.1785834814e-001	 5.5558755124e-001
 1.2235972819e+000	 7.3036613542e-001	 4.4595496120e-001
 1.2160808721e+000	 7.4281378042e-001	 3.3580043957e-001
 1.2084284614e+000	 7.5519908214e-001	 2.2519254668e-001
 1.2006407797e+000	 7.6751984872e-001	 1.1419848500e-001
 1.1927186035e+000	 7.7977389857e-001	 2.8840490515e-003
 1.2880118099e+000	 6.6597715991e-001	 8.6294298449e-001
 1.2812067987e+000	 6.7897653788e-001	 7.8969750892e-001
 1.2742599397e+000	 6.9192601199e-001	 7.1499781718e-001
 1.2671716911e+000	 7.0482331488e-001	 6.3896297581e-001
 1.2599425585e+000	 7.1766618228e-001	 5.6171548098e-001
 1.2525730949e+000	 7.3045235424e-001	 4.8338110864e-001
 1.2450639008e+000	 7.4317957639e-001	 3.7922940267e-001
 1.2374156243e+000	 7.5584560112e-001	 2.6213429144e-001
 1.2296289607e+000	 7.6844818885e-001	 1.4545187328e-001
 1.2217046530e+000	 7.8098510922e-001	 2.9248566694e-002
 1.2136434913e+000	 7.9345414240e-001	-8.6411496198e-002
 1.3102189101e+000	 6.7745952473e-001	 7.4421173518e-001
 1.3032965711e+000	 6.9068302991e-001	 6.6246780953e-001
 1.2962299386e+000	 7.0385577082e-001	 5.7992621970e-001
 1.2890194789e+000	 7.1697544100e-001	 4.9671363978e-001
 1.2816657061e+000	 7.3003973714e-001	 4.1295969942e-001
 1.2741691828e+000	 7.4304636035e-001	 3.2879681954e-001
 1.2665305198e+000	 7.5599301736e-001	 2.4436004073e-001
 1.2587503764e+000	 7.6887742183e-001	 1.5978684479e-001
 1.2508294600e+000	 7.8169729555e-001	 7.5216969686e-002
 1.2427685263e+000	 7.9445036972e-001	-4.2527424070e-002
 1.2345683790e+000	 8.0713438624e-001	-1.6279616787e-001
 1.3324260102e+000	 6.8894188956e-001	 6.4242305749e-001
 1.3253863434e+000	 7.0238952194e-001	 5.5211179288e-001
 1.3181999376e+000	 7.1578552965e-001	 4.6163511617e-001
 1.3108672667e+000	 7.2912756712e-001	 3.7112740622e-001
 1.3033888536e+000	 7.4241329201e-001	 2.8072554166e-001
 1.2957652706e+000	 7.5564036645e-001	 1.9056872197e-001
 1.2879971388e+000	 7.6880645833e-001	 1.0079828169e-001
 1.2800851286e+000	 7.8190924254e-001	 1.1557498067e-002
 1.2720299594e+000	 7.9494640225e-001	-7.7008607388e-002
 1.2638323996e+000	 8.0791563023e-001	-1.6475347320e-001
 1.2554932668e+000	 8.2081463007e-001	-2.5152920765e-001
 1.0462443890e+000	 6.8401219173e-001	 1.0836346297e+000
 1.0391778559e+000	 6.9470093126e-001	 1.0073317958e+000
 1.0319948291e+000	 7.0532735142e-001	 9.2871418834e-001
 1.0246961113e+000	 7.1588957207e-001	 8.4790752220e-001
 1.0172825451e+000	 7.2638572639e-001	 7.6503865290e-001
 1.0097550126e+000	 7.3681396190e-001	 6.8023547986e-001
 1.0021144359e+000	 7.4717244154e-001	 5.9362684962e-001
 9.9436177575e-001	 7.5745934472e-001	 5.0534245923e-001
 9.8649803203e-001	 7.6767286832e-001	 4.1551275993e-001
 9.7852424289e-001	 7.7781122776e-001	 3.2426886126e-001
 9.7044148445e-001	 7.8787265798e-001	 2.3174243576e-001
 1.0671692768e+000	 6.9769243556e-001	 8.7158553844e-001
 1.0599614130e+000	 7.0859494989e-001	 7.9562823823e-001
 1.0526347257e+000	 7.1943389845e-001	 7.1783727111e-001
 1.0451900336e+000	 7.3020736352e-001	 6.3832671446e-001
 1.0376281960e+000	 7.4091344092e-001	 5.5721126604e-001
 1.0299501129e+000	 7.5155024114e-001	 4.7460615860e-001
 1.0221567246e+000	 7.6211589037e-001	 3.9062707538e-001
 1.0142490113e+000	 7.7260853162e-001	 3.0539006660e-001
 1.0062279927e+000	 7.8302632569e-001	 2.1901146716e-001
 9.9809472774e-001	 7.9336745232e-001	 1.3160781545e-001
 9.8985031414e-001	 8.0363011114e-001	 4.3295773563e-002
 1.0880941646e+000	 7.1137267940e-001	 6.8105785448e-001
 1.0807449701e+000	 7.2248896852e-001	 6.0463636177e-001
 1.0732746223e+000	 7.3354044548e-001	 5.2685427127e-001
 1.0656839558e+000	 7.4452515496e-001	 4.4781427593e-001
 1.0579738469e+000	 7.5544115545e-001	 3.6761917055e-001
 1.0501452131e+000	 7.6628652038e-001	 2.8637177764e-001
 1.0421990133e+000	 7.7705933921e-001	 2.0417487507e-001
 1.0341362468e+000	 7.8775771852e-001	 1.2113112557e-001
 1.0259579533e+000	 7.9837978306e-001	 3.7343008198e-002
 1.0176652126e+000	 8.0892367688e-001	-4.7087248176e-002
 1.0092591438e+000	 8.1938756430e-001	-1.3205772924e-001
 1.1090190524e+000	 7.2505292324e-001	 5.1058260474e-001
 1.1015285272e+000	 7.3638298714e-001	 4.3293365636e-001
 1.0939145189e+000	 7.4764699251e-001	 3.5439007142e-001
 1.0861778780e+000	 7.5884294641e-001	 2.7504338949e-001
 1.0783194978e+000	 7.6996886998e-001	 1.9498473442e-001
 1.0703403134e+000	 7.8102279962e-001	 1.1430475141e-001
 1.0622413020e+000	 7.9200278804e-001	 3.3093546627e-002
 1.0540234823e+000	 8.0290690541e-001	-4.8559370353e-002
 1.0456879139e+000	 8.1373324043e-001	-1.3056514141e-001
 1.0372356975e+000	 8.2447990144e-001	-2.1283561183e-001
 1.0286679735e+000	 8.3514501747e-001	-2.9528337945e-001
 1.1299439401e+000	 7.3873316707e-001	 3.5878302834e-001
 1.1223120843e+000	 7.5027700577e-001	 2.7918645147e-001
 1.1145544154e+000	 7.6175353954e-001	 1.9915496460e-001
 1.1066718002e+000	 7.7316073785e-001	 1.1876916438e-001
 1.0986651487e+000	 7.8449658451e-001	 3.8108714463e-002
 1.0905354136e+000	 7.9575907886e-001	-4.2747706340e-002
 1.0822835907e+000	 8.0694623688e-001	-1.2372245251e-001
 1.0739107178e+000	 8.1805609231e-001	-2.0473895662e-001
 1.0654178746e+000	 8.2908669780e-001	-2.8572177057e-001
 1.0568061823e+000	 8.4003612600e-001	-3.6659660309e-001
 1.0480768032e+000	 8.5090247063e-001	-4.4729035366e-001
 1.1508688279e+000	 7.5241341090e-001	 2.2436619369e-001
 1.1430956414e+000	 7.6417102439e-001	 1.4214183978e-001
 1.1351943120e+000	 7.7586008657e-001	 5.9936889675e-002
 1.1271657225e+000	 7.8747852929e-001	-2.2178811698e-002
 1.1190107996e+000	 7.9902429904e-001	-1.0413687000e-001
 1.1107305139e+000	 8.1049535810e-001	-1.8587038245e-001
 1.1023258794e+000	 8.2188968571e-001	-2.6731397438e-001
 1.0937979533e+000	 8.3320527921e-001	-3.4840383135e-001
 1.0851478352e+000	 8.4444015517e-001	-4.2907772681e-001
 1.0763766672e+000	 8.5559235055e-001	-5.0927504529e-001
 1.0674856329e+000	 8.6665992379e-001	-5.8893680109e-001
 1.1717937157e+000	 7.6609365474e-001	 1.0611551373e-001
 1.1638791986e+000	 7.7806504302e-001	 2.0620466233e-002
 1.1558342086e+000	 7.8996663360e-001	-6.4405501300e-002
 1.1476596447e+000	 8.0179632073e-001	-1.4890312238e-001
 1.1393564505e+000	 8.1355201357e-001	-2.3281509982e-001
 1.1309256141e+000	 8.2523163734e-001	-3.1608613576e-001
 1.1223681682e+000	 8.3683313454e-001	-3.9866295648e-001
 1.1136851888e+000	 8.4835446610e-001	-4.8049433187e-001
 1.1048777959e+000	 8.5979361254e-001	-5.6153108960e-001
 1.0959471520e+000	 8.7114857511e-001	-6.4172612398e-001
 1.0868944626e+000	 8.8241737695e-001	-7.2103439950e-001
 1.1927186035e+000	 7.7977389857e-001	 2.8840490515e-003
 1.1846627557e+000	 7.9195906164e-001	-8.6489923999e-002
 1.1764741052e+000	 8.0407318063e-001	-1.7494904600e-001
 1.1681535669e+000	 8.1611411218e-001	-2.6244447258e-001
 1.1597021014e+000	 8.2807972810e-001	-3.4892984899e-001
 1.1511207144e+000	 8.3996791658e-001	-4.3436132934e-001
 1.1424104569e+000	 8.5177658338e-001	-5.1869758967e-001
 1.1335724243e+000	 8.6350365300e-001	-6.0189983482e-001
 1.1246077565e+000	 8.7514706991e-001	-6.8393179916e-001
 1.1155176369e+000	 8.8670479967e-001	-7.6475974114e-001
 1.1063032923e+000	 8.9817483012e-001	-8.4435243172e-001
 1.2136434913e+000	 7.9345414240e-001	-8.6411496198e-002
 1.2054463128e+000	 8.0585308027e-001	-1.8024026996e-001
 1.1971140018e+000	 8.1817972766e-001	-2.7271163308e-001
 1.1886474891e+000	 8.3043190362e-001	-3.6378702283e-001
 1.1800477523e+000	 8.4260744262e-001	-4.5343088870e-001
 1.1713158147e+000	 8.5470419582e-001	-5.4161070086e-001
 1.1624527456e+000	 8.6672003221e-001	-6.2829695153e-001
 1.1534596599e+000	 8.7865283990e-001	-7.1346314927e-001
 1.1443377172e+000	 8.9050052728e-001	-7.9708580634e-001
 1.1350881218e+000	 9.0226102423e-001	-8.7914441888e-001
 1.1257121220e+000	 9.1393228328e-001	-9.5962144033e-001
 1.2345683790e+000	 8.0713438624e-001	-1.6279616787e-001
 1.2262298699e+000	 8.1974709889e-001	-2.6162539119e-001
 1.2177538984e+000	 8.3228627468e-001	-3.5865719781e-001
 1.2091414114e+000	 8.4474969506e-001	-4.5386318117e-001
 1.2003934032e+000	 8.5713515715e-001	-5.4721847232e-001
 1.1915109149e+000	 8.6944047506e-001	-6.3870173762e-001
 1.1824950343e+000	 8.8166348104e-001	-7.2829516850e-001
 1.1733468954e+000	 8.9380202679e-001	-8.1598446318e-001
 1.1640676778e+000	 9.0585398465e-001	-9.0175880058e-001
 1.1546586066e+000	 9.1781724879e-001	-9.8561080628e-001
 1.1451209517e+000	 9.2968973644e-001	-1.0675365108e+000
 1.2554932668e+000	 8.2081463007e-001	-2.5152920765e-001
 1.2470134270e+000	 8.3364111751e-001	-3.3158866432e-001
 1.2383937949e+000	 8.4639282171e-001	-4.3370021824e-001
 1.2296353336e+000	 8.5906748650e-001	-5.3355791591e-001
 1.2207390541e+000	 8.7166287168e-001	-6.3114746188e-001
 1.2117060152e+000	 8.8417675429e-001	-7.2645861406e-001
 1.2025373230e+000	 8.9660692987e-001	-8.1948516180e-001
 1.1932341309e+000	 9.0895121369e-001	-9.1022489508e-001
 1.1837976384e+000	 9.2120744201e-001	-9.9867956500e-001
 1.1742290915e+000	 9.3337347334e-001	-1.0848548354e+000
 1.1645297814e+000	 9.4544718961e-001	-1.1687602260e+000
 9.7044148445e-001	 7.8787265798e-001	 2.3174243576e-001
 9.6225087038e-001	 7.9785541446e-001	 1.5245850203e-001
 9.5395355134e-001	 8.0775777422e-001	 7.2231494557e-002
 9.4555071450e-001	 8.1757803678e-001	-8.8481710960e-003
 9.3704358298e-001	 8.2731452514e-001	-9.0689923010e-002
 9.2843341526e-001	 8.3696558670e-001	-1.7320307972e-001
 9.1972150458e-001	 8.4652959423e-001	-2.5629689578e-001
 9.1090917828e-001	 8.5600494672e-001	-3.3988060613e-001
 9.0199779714e-001	 8.6539007034e-001	-4.2386346922e-001
 8.9298875468e-001	 8.7468341924e-001	-5.0815480890e-001
 8.8388347645e-001	 8.8388347645e-001	-5.9266405516e-001
 9.8985031414e-001	 8.0363011114e-001	 4.3295773563e-002
 9.8149588779e-001	 8.1381252275e-001	-3.3643007835e-002
 9.7303262236e-001	 8.2391292970e-001	-1.1134329573e-001
 9.6446172879e-001	 8.3392959752e-001	-1.8971953698e-001
 9.5578445464e-001	 8.4386081564e-001	-2.6868621189e-001
 9.4700208356e-001	 8.5370489844e-001	-3.4815787372e-001
 9.3811593467e-001	 8.6346018612e-001	-4.2804918650e-001
 9.2912736184e-001	 8.7312504566e-001	-5.0827496135e-001
 9.2003775308e-001	 8.8269787175e-001	-5.8875019131e-001
 9.1084852978e-001	 8.9217708762e-001	-6.6939008456e-001
 9.0156114598e-001	 9.0156114598e-001	-7.5011009624e-001
 1.0092591438e+000	 8.1938756430e-001	-1.3205772924e-001
 1.0007409052e+000	 8.2976963104e-001	-2.0682365480e-001
 9.9211169339e-001	 8.4006808519e-001	-2.8216832669e-001
 9.8337274308e-001	 8.5028115826e-001	-3.5801112332e-001
 9.7452532630e-001	 8.6040710615e-001	-4.3427165062e-001
 9.6557075187e-001	 8.7044421018e-001	-5.1086977389e-001
 9.5651036476e-001	 8.8039077800e-001	-5.8772564779e-001
 9.4734554541e-001	 8.9024514460e-001	-6.6475974444e-001
 9.3807770903e-001	 9.0000567316e-001	-7.4189287961e-001
 9.2870830487e-001	 9.0967075601e-001	-8.1904623715e-001
 9.1923881551e-001	 9.1923881551e-001	-8.9614139167e-001
 1.0286679735e+000	 8.3514501747e-001	-2.9528337945e-001
 1.0199859226e+000	 8.4572673933e-001	-3.6803404009e-001
 1.0111907644e+000	 8.5622324068e-001	-4.4117919210e-001
 1.0022837574e+000	 8.6663271899e-001	-5.1464322445e-001
 9.9326619796e-001	 8.7695339665e-001	-5.8835095207e-001
 9.8413942018e-001	 8.8718352191e-001	-6.6222764004e-001
 9.7490479486e-001	 8.9732136989e-001	-7.3619902545e-001
 9.6556372898e-001	 9.0736524353e-001	-8.1019133698e-001
 9.5611766497e-001	 9.1731347456e-001	-8.8413131237e-001
 9.4656807997e-001	 9.2716442440e-001	-9.5794621378e-001
 9.3691648504e-001	 9.3691648504e-001	-1.0315638410e+000
 1.0480768032e+000	 8.5090247063e-001	-4.4729035366e-001
 1.0392309400e+000	 8.6168384763e-001	-5.1816953991e-001
 1.0302698354e+000	 8.7237839617e-001	-5.8925717816e-001
 1.0211947717e+000	 8.8298427973e-001	-6.6048275628e-001
 1.0120070696e+000	 8.9349968716e-001	-7.3177639132e-001
 1.0027080885e+000	 9.0392283365e-001	-8.0306884575e-001
 9.9329922495e-001	 9.1425196178e-001	-8.7429154096e-001
 9.8378191255e-001	 9.2448534247e-001	-9.4537656822e-001
 9.7415762092e-001	 9.3462127597e-001	-1.0162566971e+000
 9.6442785507e-001	 9.4465809279e-001	-1.0868653814e+000
 9.5459415457e-001	 9.5459415457e-001	-1.1571367629e+000
 1.0674856329e+000	 8.6665992379e-001	-5.8893680109e-001
 1.0584759574e+000	 8.7764095592e-001	-6.5807532596e-001
 1.0493489065e+000	 8.8853355166e-001	-7.2723420055e-001
 1.0401057860e+000	 8.9933584047e-001	-7.9634810896e-001
 1.0307479413e+000	 9.1004597767e-001	-8.6535257273e-001
 1.0212767568e+000	 9.2066214539e-001	-9.3418395883e-001
 1.0116936550e+000	 9.3118255367e-001	-1.0027794846e+000
 1.0020000961e+000	 9.4160544141e-001	-1.0710772199e+000
 9.9219757686e-001	 9.5192907738e-001	-1.1390160860e+000
 9.8228763016e-001	 9.6215176117e-001	-1.2065358523e+000
 9.7227182411e-001	 9.7227182411e-001	-1.2735771299e+000
 1.0868944626e+000	 8.8241737695e-001	-7.2103439950e-001
 1.0777209748e+000	 8.9359806421e-001	-7.8855084794e-001
 1.0684279775e+000	 9.0468870714e-001	-8.5589721248e-001
 1.0590168002e+000	 9.1568740121e-001	-9.2301347950e-001
 1.0494888129e+000	 9.2659226817e-001	-9.8984068626e-001
 1.0398454251e+000	 9.3740145713e-001	-1.0563209205e+000
 1.0300880851e+000	 9.4811314556e-001	-1.1223973165e+000
 1.0202182797e+000	 9.5872554035e-001	-1.1880140482e+000
 1.0102375328e+000	 9.6923687880e-001	-1.2531163186e+000
 1.0001474053e+000	 9.7964542956e-001	-1.3176503463e+000
 9.8994949364e-001	 9.8994949364e-001	-1.3815633492e+000
 1.1063032923e+000	 8.9817483012e-001	-8.4435243172e-001
 1.0969659922e+000	 9.0955517251e-001	-9.1035384427e-001
 1.0875070485e+000	 9.2084386263e-001	-9.7599214882e-001
 1.0779278145e+000	 9.3203896195e-001	-1.0412127484e+000
 1.0682296846e+000	 9.4313855868e-001	-1.1059623157e+000
 1.0584140934e+000	 9.5414076887e-001	-1.1701887844e+000
 1.0484825152e+000	 9.6504373745e-001	-1.2338413358e+000
 1.0384364633e+000	 9.7584563929e-001	-1.2968703827e+000
 1.0282774888e+000	 9.8654468021e-001	-1.3592275489e+000
 1.0180071804e+000	 9.9713909795e-001	-1.4208656459e+000
 1.0076271632e+000	 1.0076271632e+000	-1.4817386455e+000
 1.1257121220e+000	 9.1393228328e-001	-9.5962144033e-001
 1.1162110097e+000	 9.2551228080e-001	-1.0242039379e+000
 1.1065861196e+000	 9.3699901812e-001	-1.0882274621e+000
 1.0968388288e+000	 9.4839052269e-001	-1.1516429551e+000
 1.0869705563e+000	 9.5968484919e-001	-1.2144028531e+000
 1.0769827617e+000	 9.7088008061e-001	-1.2764610693e+000
 1.0668769453e+000	 9.8197432934e-001	-1.3377729706e+000
 1.0566546468e+000	 9.9296573823e-001	-1.3982953526e+000
 1.0463174447e+000	 1.0038524816e+000	-1.4579864083e+000
 1.0358669555e+000	 1.0146327663e+000	-1.5168056946e+000
 1.0253048327e+000	 1.0253048327e+000	-1.5747140942e+000
 1.1451209517e+000	 9.2968973644e-001	-1.0675365108e+000
 1.1354560271e+000	 9.4146938909e-001	-1.1307858663e+000
 1.1256651906e+000	 9.5315417361e-001	-1.1932772991e+000
 1.1157498431e+000	 9.6474208344e-001	-1.2549674202e+000
 1.1057114279e+000	 9.7623113970e-001	-1.3158145658e+000
 1.0955514300e+000	 9.8761939235e-001	-1.3757787700e+000
 1.0852713754e+000	 9.9890492123e-001	-1.4348217331e+000
 1.0748728304e+000	 1.0100858372e+000	-1.4929067853e+000
 1.0643574006e+000	 1.0211602830e+000	-1.5499988461e+000
 1.0537267306e+000	 1.0321264347e+000	-1.6060643797e+000
 1.0429825022e+000	 1.0429825022e+000	-1.6610713458e+000
 1.1645297814e+000	 9.4544718961e-001	-1.1687602260e+000
 1.1547010445e+000	 9.5742649739e-001	-1.2307523889e+000
 1.1447442616e+000	 9.6930932910e-001	-1.2917843594e+000
 1.1346608574e+000	 9.8109364418e-001	-1.3518185554e+000
 1.1244522996e+000	 9.9277743021e-001	-1.4108193568e+000
 1.1141200983e+000	 1.0043587041e+000	-1.4687530683e+000
 1.1036658055e+000	 1.0158355131e+000	-1.5255878789e+000
 1.0930910140e+000	 1.0272059361e+000	-1.5812938144e+000
 1.0823973566e+000	 1.0384680844e+000	-1.6358426865e+000
 1.0715865057e+000	 1.0496201031e+000	-1.6892080372e+000
 1.0606601718e+000	 1.0606601718e+000	-1.7413650778e+000
 8.8388347645e-001	 8.8388347645e-001	-5.9266405516e-001
 8.7468341924e-001	 8.9298875468e-001	-6.6578281781e-001
 8.6539007034e-001	 9.0199779714e-001	-7.3880641644e-001
 8.5600494672e-001	 9.1090917828e-001	-8.1164331438e-001
 8.4652959423e-001	 9.1972150458e-001	-8.8420222207e-001
 8.3696558670e-001	 9.2843341526e-001	-9.5639213480e-001
 8.2731452514e-001	 9.3704358298e-001	-1.0281223694e+000
 8.1757803678e-001	 9.4555071450e-001	-1.0993025999e+000
 8.0775777422e-001	 9.5395355134e-001	-1.1698428927e+000
 7.9785541446e-001	 9.6225087038e-001	-1.2396537398e+000
 7.8787265798e-001	 9.7044148445e-001	-1.3086460928e+000
 9.0156114598e-001	 9.0156114598e-001	-7.5011009624e-001
 8.9217708762e-001	 9.1084852978e-001	-8.1911541713e-001
 8.8269787175e-001	 9.2003775308e-001	-8.8777108981e-001
 8.7312504566e-001	 9.2912736184e-001	-9.5599472550e-001
 8.6346018612e-001	 9.3811593467e-001	-1.0237044064e+000
 8.5370489844e-001	 9.4700208356e-001	-1.0908187104e+000
 8.4386081564e-001	 9.5578445464e-001	-1.1572567342e+000
 8.3392959752e-001	 9.6446172879e-001	-1.2229381154e+000
 8.2391292970e-001	 9.7303262236e-001	-1.2877830535e+000
 8.1381252275e-001	 9.8149588779e-001	-1.3517123295e+000
 8.0363011114e-001	 9.8985031414e-001	-1.4146473249e+000
 9.1923881551e-001	 9.1923881551e-001	-8.9614139167e-001
 9.0967075601e-001	 9.2870830487e-001	-9.6135454730e-001
 9.0000567316e-001	 9.3807770903e-001	-1.0259682253e+000
 8.9024514460e-001	 9.4734554541e-001	-1.0899092069e+000
 8.8039077800e-001	 9.5651036476e-001	-1.1531049671e+000
 8.7044421018e-001	 9.6557075187e-001	-1.2154836858e+000
 8.6040710615e-001	 9.7452532630e-001	-1.2769742579e+000
 8.5028115826e-001	 9.8337274308e-001	-1.3375063009e+000
 8.4006808519e-001	 9.9211169339e-001	-1.3970101620e+000
 8.2976963104e-001	 1.0007409052e+000	-1.4554169236e+000
 8.1938756430e-001	 1.0092591438e+000	-1.5126584073e+000
 9.3691648504e-001	 9.3691648504e-001	-1.0315638410e+000
 9.2716442440e-001	 9.4656807997e-001	-1.0932799499e+000
 9.1731347456e-001	 9.5611766497e-001	-1.1541509310e+000
 9.0736524353e-001	 9.6556372898e-001	-1.2141127744e+000
 8.9732136989e-001	 9.7490479486e-001	-1.2731023855e+000
 8.8718352191e-001	 9.8413942018e-001	-1.3310575833e+000
 8.7695339665e-001	 9.9326619796e-001	-1.3879170960e+000
 8.6663271899e-001	 1.0022837574e+000	-1.4436205553e+000
 8.5622324068e-001	 1.0111907644e+000	-1.4981084886e+000
 8.4572673933e-001	 1.0199859226e+000	-1.5513223100e+000
 8.3514501747e-001	 1.0286679735e+000	-1.6032043099e+000
 9.5459415457e-001	 9.5459415457e-001	-1.1571367629e+000
 9.4465809279e-001	 9.6442785507e-001	-1.2156264527e+000
 9.3462127597e-001	 9.7415762092e-001	-1.2730290972e+000
 9.2448534247e-001	 9.8378191255e-001	-1.3292899493e+000
 9.1425196178e-001	 9.9329922495e-001	-1.3843553989e+000
 9.0392283365e-001	 1.0027080885e+000	-1.4381729570e+000
 8.9349968716e-001	 1.0120070696e+000	-1.4906912374e+000
 8.8298427973e-001	 1.0211947717e+000	-1.5418599366e+000
 8.7237839617e-001	 1.0302698354e+000	-1.5916298118e+000
 8.6168384763e-001	 1.0392309400e+000	-1.6399526566e+000
 8.5090247063e-001	 1.0480768032e+000	-1.6867812763e+000
 9.7227182411e-001	 9.7227182411e-001	-1.2735771299e+000
 9.6215176117e-001	 9.8228763016e-001	-1.3290880528e+000
 9.5192907738e-001	 9.9219757686e-001	-1.3832733245e+000
 9.4160544141e-001	 1.0020000961e+000	-1.4360875302e+000
 9.3118255367e-001	 1.0116936550e+000	-1.4874866131e+000
 9.2066214539e-001	 1.0212767568e+000	-1.5374278447e+000
 9.1004597767e-001	 1.0307479413e+000	-1.5858697923e+000
 8.9933584047e-001	 1.0401057860e+000	-1.6327722841e+000
 8.8853355166e-001	 1.0493489065e+000	-1.6780963725e+000
 8.7764095592e-001	 1.0584759574e+000	-1.7218042953e+000
 8.6665992379e-001	 1.0674856329e+000	-1.7638594348e+000
 9.8994949364e-001	 9.8994949364e-001	-1.3815633492e+000
 9.7964542956e-001	 1.0001474053e+000	-1.4343215621e+000
 9.6923687880e-001	 1.0102375328e+000	-1.4855184326e+000
 9.5872554035e-001	 1.0202182797e+000	-1.5351179614e+000
 9.4811314556e-001	 1.0300880851e+000	-1.5830857287e+000
 9.3740145713e-001	 1.0398454251e+000	-1.6293888497e+000
 9.2659226817e-001	 1.0494888129e+000	-1.6739959279e+000
 9.1568740121e-001	 1.0590168002e+000	-1.7168770055e+000
 9.0468870714e-001	 1.0684279775e+000	-1.7580035113e+000
 8.9359806421e-001	 1.0777209748e+000	-1.7973482067e+000
 8.8241737695e-001	 1.0868944626e+000	-1.8348851300e+000
 1.0076271632e+000	 1.0076271632e+000	-1.4817386455e+000
 9.9713909795e-001	 1.0180071804e+000	-1.5319498696e+000
 9.8654468021e-001	 1.0282774888e+000	-1.5803665986e+000
 9.7584563929e-001	 1.0384364633e+000	-1.6269623464e+000
 9.6504373745e-001	 1.0484825152e+000	-1.6717124273e+000
 9.5414076887e-001	 1.0584140934e+000	-1.7145938978e+000
 9.4313855868e-001	 1.0682296846e+000	-1.7555854949e+000
 9.3203896195e-001	 1.0779278145e+000	-1.7946675711e+000
 9.2084386263e-001	 1.0875070485e+000	-1.8318220277e+000
 9.0955517251e-001	 1.0969659922e+000	-1.8670322448e+000
 8.9817483012e-001	 1.1063032923e+000	-1.9002830096e+000
 1.0253048327e+000	 1.0253048327e+000	-1.5747140942e+000
 1.0146327663e+000	 1.0358669555e+000	-1.6225648649e+000
 1.0038524816e+000	 1.0463174447e+000	-1.6683901712e+000
 9.9296573823e-001	 1.0566546468e+000	-1.7121731496e+000
 9.8197432934e-001	 1.0668769453e+000	-1.7538989597e+000
 9.7088008061e-001	 1.0769827617e+000	-1.7935547102e+000
 9.5968484919e-001	 1.0869705563e+000	-1.8311293823e+000
 9.4839052269e-001	 1.0968388288e+000	-1.8666137498e+000
 9.3699901812e-001	 1.1065861196e+000	-1.9000002964e+000
 9.2551228080e-001	 1.1162110097e+000	-1.9312831297e+000
 9.1393228328e-001	 1.1257121220e+000	-1.9604578944e+000
 1.0429825022e+000	 1.0429825022e+000	-1.6610713458e+000
 1.0321264347e+000	 1.0537267306e+000	-1.7067300664e+000
 1.0211602830e+000	 1.0643574006e+000	-1.7501341981e+000
 1.0100858372e+000	 1.0748728304e+000	-1.7912766235e+000
 9.9890492123e-001	 1.0852713754e+000	-1.8301524703e+000
 9.8761939235e-001	 1.0955514300e+000	-1.8667590235e+000
 9.7623113970e-001	 1.1057114279e+000	-1.9010956329e+000
 9.6474208344e-001	 1.1157498431e+000	-1.9331636176e+000
 9.5315417361e-001	 1.1256651906e+000	-1.9629661669e+000
 9.4146938909e-001	 1.1354560271e+000	-1.9905082394e+000
 9.2968973644e-001	 1.1451209517e+000	-2.0157964587e+000
 1.0606601718e+000	 1.0606601718e+000	-1.7413650778e+000
 1.0496201031e+000	 1.0715865057e+000	-1.7849829844e+000
 1.0384680844e+000	 1.0823973566e+000	-1.8261187017e+000
 1.0272059361e+000	 1.0930910140e+000	-1.8647749926e+000
 1.0158355131e+000	 1.1036658055e+000	-1.9009570892e+000
 1.0043587041e+000	 1.1141200983e+000	-1.9346725891e+000
 9.9277743021e-001	 1.1244522996e+000	-1.9659313473e+000
 9.8109364418e-001	 1.1346608574e+000	-1.9947453652e+000
 9.6930932910e-001	 1.1447442616e+000	-2.0211286747e+000
 9.5742649739e-001	 1.1547010445e+000	-2.0450972212e+000
 9.4544718961e-001	 1.1645297814e+000	-2.0666687424e+000
 7.8787265798e-001	 9.7044148445e-001	-1.3086460928e+000
 7.7781122776e-001	 9.7852424289e-001	-1.3742940109e+000
 7.6767286832e-001	 9.8649803203e-001	-1.4383977979e+000
 7.5745934472e-001	 9.9436177575e-001	-1.5008170190e+000
 7.4717244154e-001	 1.0021144359e+000	-1.5614125371e+000
 7.3681396190e-001	 1.0097550126e+000	-1.6200465952e+000
 7.2638572639e-001	 1.0172825451e+000	-1.6765828968e+000
 7.1588957207e-001	 1.0246961113e+000	-1.7308866853e+000
 7.0532735142e-001	 1.0319948291e+000	-1.7828248207e+000
 6.9470093126e-001	 1.0391778559e+000	-1.8322658545e+000
 6.8401219173e-001	 1.0462443890e+000	-1.8790801033e+000
 8.0363011114e-001	 9.8985031414e-001	-1.4146473249e+000
 7.9336745232e-001	 9.9809472774e-001	-1.4712588960e+000
 7.8302632569e-001	 1.0062279927e+000	-1.5262956361e+000
 7.7260853162e-001	 1.0142490113e+000	-1.5796453159e+000
 7.6211589037e-001	 1.0221567246e+000	-1.6311968978e+000
 7.5155024114e-001	 1.0299501129e+000	-1.6808405864e+000
 7.4091344092e-001	 1.0376281960e+000	-1.7284678771e+000
 7.3020736352e-001	 1.0451900336e+000	-1.7739716040e+000
 7.1943389845e-001	 1.0526347257e+000	-1.8172459856e+000
 7.0859494989e-001	 1.0599614130e+000	-1.8581866697e+000
 6.9769243556e-001	 1.0671692768e+000	-1.8966907766e+000
 8.1938756430e-001	 1.0092591438e+000	-1.5126584073e+000
 8.0892367688e-001	 1.0176652126e+000	-1.5617008544e+000
 7.9837978306e-001	 1.0259579533e+000	-1.6091374371e+000
 7.8775771852e-001	 1.0341362468e+000	-1.6548836193e+000
 7.7705933921e-001	 1.0421990133e+000	-1.6988559529e+000
 7.6628652038e-001	 1.0501452131e+000	-1.7409720968e+000
 7.5544115545e-001	 1.0579738469e+000	-1.7811508335e+000
 7.4452515496e-001	 1.0656839558e+000	-1.8193120860e+000
 7.3354044548e-001	 1.0732746223e+000	-1.8553769330e+000
 7.2248896852e-001	 1.0807449701e+000	-1.8892676236e+000
 7.1137267940e-001	 1.0880941646e+000	-1.9209075909e+000
 8.3514501747e-001	 1.0286679735e+000	-1.6032043099e+000
 8.2447990144e-001	 1.0372356975e+000	-1.6460525379e+000
 8.1373324043e-001	 1.0456879139e+000	-1.6872635270e+000
 8.0290690541e-001	 1.0540234823e+000	-1.7267799700e+000
 7.9200278804e-001	 1.0622413020e+000	-1.7645455465e+000
 7.8102279962e-001	 1.0703403134e+000	-1.8005049096e+000
 7.6996886998e-001	 1.0783194978e+000	-1.8346036715e+000
 7.5884294641e-001	 1.0861778780e+000	-1.8667883896e+000
 7.4764699251e-001	 1.0939145189e+000	-1.8970065512e+000
 7.3638298714e-001	 1.1015285272e+000	-1.9252065580e+000
 7.2505292324e-001	 1.1090190524e+000	-1.9513377108e+000
 8.5090247063e-001	 1.0480768032e+000	-1.6867812763e+000
 8.4003612600e-001	 1.0568061823e+000	-1.7247243916e+000
 8.2908669780e-001	 1.0654178746e+000	-1.7609985430e+000
 8.1805609231e-001	 1.0739107178e+000	-1.7955732331e+000
 8.0694623688e-001	 1.0822835907e+000	-1.8284188518e+000
 7.9575907886e-001	 1.0905354136e+000	-1.8595066307e+000
 7.8449658451e-001	 1.0986651487e+000	-1.8888085991e+000
 7.7316073785e-001	 1.1066718002e+000	-1.9162975380e+000
 7.6175353954e-001	 1.1145544154e+000	-1.9419469350e+000
 7.5027700577e-001	 1.1223120843e+000	-1.9657309395e+000
 7.3873316707e-001	 1.1299439401e+000	-1.9876243174e+000
 8.6665992379e-001	 1.0674856329e+000	-1.7638594348e+000
 8.5559235055e-001	 1.0763766672e+000	-1.7981066725e+000
 8.4444015517e-001	 1.0851478352e+000	-1.8306528600e+000
 8.3320527921e-001	 1.0937979533e+000	-1.8614939325e+000
 8.2188968571e-001	 1.1023258794e+000	-1.8906266141e+000
 8.1049535810e-001	 1.1107305139e+000	-1.9180483419e+000
 7.9902429904e-001	 1.1190107996e+000	-1.9437571903e+000
 7.8747852929e-001	 1.1271657225e+000	-1.9677517945e+000
 7.7586008657e-001	 1.1351943120e+000	-1.9900312756e+000
 7.6417102439e-001	 1.1430956414e+000	-2.0105951658e+000
 7.5241341090e-001	 1.1508688279e+000	-2.0294433341e+000
 8.8241737695e-001	 1.0868944626e+000	-1.8348851300e+000
 8.7114857511e-001	 1.0959471520e+000	-1.8665712524e+000
 8.5979361254e-001	 1.1048777959e+000	-1.8965238642e+000
 8.4835446610e-001	 1.1136851888e+000	-1.9247649951e+000
 8.3683313454e-001	 1.1223681682e+000	-1.9513173677e+000
 8.2523163734e-001	 1.1309256141e+000	-1.9762042899e+000
 8.1355201357e-001	 1.1393564505e+000	-1.9994495486e+000
 8.0179632073e-001	 1.1476596447e+000	-2.0210773025e+000
 7.8996663360e-001	 1.1558342086e+000	-2.0411119774e+000
 7.7806504302e-001	 1.1638791986e+000	-2.0595781616e+000
 7.6609365474e-001	 1.1717937157e+000	-2.0765005033e+000
 8.9817483012e-001	 1.1063032923e+000	-1.9002830096e+000
 8.8670479967e-001	 1.1155176369e+000	-1.9304732302e+000
 8.7514706991e-001	 1.1246077565e+000	-1.9588970916e+000
 8.6350365300e-001	 1.1335724243e+000	-1.9856024176e+000
 8.5177658338e-001	 1.1424104569e+000	-2.0106376297e+000
 8.3996791658e-001	 1.1511207144e+000	-2.0340516091e+000
 8.2807972810e-001	 1.1597021014e+000	-2.0558935590e+000
 8.1611411218e-001	 1.1681535669e+000	-2.0762128673e+000
 8.0407318063e-001	 1.1764741052e+000	-2.0950589721e+000
 7.9195906164e-001	 1.1846627557e+000	-2.1124812270e+000
 7.7977389857e-001	 1.1927186035e+000	-2.1285287704e+000
 9.1393228328e-001	 1.1257121220e+000	-1.9604578944e+000
 9.0226102423e-001	 1.1350881218e+000	-1.9901523781e+000
 8.9050052728e-001	 1.1443377172e+000	-2.0180472507e+000
 8.7865283990e-001	 1.1534596599e+000	-2.0442158639e+000
 8.6672003221e-001	 1.1624527456e+000	-2.0687320741e+000
 8.5470419582e-001	 1.1713158147e+000	-2.0916700725e+000
 8.4260744262e-001	 1.1800477523e+000	-2.1131042171e+000
 8.3043190362e-001	 1.1886474891e+000	-2.1331088652e+000
 8.1817972766e-001	 1.1971140018e+000	-2.1517582082e+000
 8.0585308027e-001	 1.2054463128e+000	-2.1691261086e+000
 7.9345414240e-001	 1.2136434913e+000	-2.1852859393e+000
 9.2968973644e-001	 1.1451209517e+000	-2.0157964587e+000
 9.1781724879e-001	 1.1546586066e+000	-2.0459344405e+000
 9.0585398465e-001	 1.1640676778e+000	-2.0742391392e+000
 8.9380202679e-001	 1.1733468954e+000	-2.1008092017e+000
 8.8166348104e-001	 1.1824950343e+000	-2.1257436876e+000
 8.6944047506e-001	 1.1915109149e+000	-2.1491418679e+000
 8.5713515715e-001	 1.2003934032e+000	-2.1711030265e+000
 8.4474969506e-001	 1.2091414114e+000	-2.1917262623e+000
 8.3228627468e-001	 1.2177538984e+000	-2.2111102937e+000
 8.1974709889e-001	 1.2262298699e+000	-2.2293532666e+000
 8.0713438624e-001	 1.2345683790e+000	-2.2465525648e+000
 9.4544718961e-001	 1.1645297814e+000	-2.0666687424e+000
 9.3337347334e-001	 1.1742290915e+000	-2.0981323028e+000
 9.2120744201e-001	 1.1837976384e+000	-2.1277284703e+000
 9.0895121369e-001	 1.1932341309e+000	-2.1555809855e+000
 8.9660692987e-001	 1.2025373230e+000	-2.1818139106e+000
 8.8417675429e-001	 1.2117060152e+000	-2.2065513971e+000
 8.7166287168e-001	 1.2207390541e+000	-2.2299174567e+000
 8.5906748650e-001	 1.2296353336e+000	-2.2520357323e+000
 8.4639282171e-001	 1.2383937949e+000	-2.2730292738e+000
 8.3364111751e-001	 1.2470134270e+000	-2.2930203155e+000
 8.2081463007e-001	 1.2554932668e+000	-2.2806057978e+000
 6.8401219173e-001	 1.0462443890e+000	-1.8790801033e+000
 6.7326302520e-001	 1.0531936664e+000	-1.9266987574e+000
 6.6245533522e-001	 1.0600249662e+000	-1.9694628906e+000
 6.5159103546e-001	 1.0667376072e+000	-2.0073058557e+000
 6.4067204862e-001	 1.0733309490e+000	-2.0401644008e+000
 6.2970030539e-001	 1.0798043922e+000	-2.0679786596e+000
 6.1867774335e-001	 1.0861573781e+000	-2.1082684541e+000
 6.0760630594e-001	 1.0923893889e+000	-2.1557533344e+000
 5.9648794139e-001	 1.0984999480e+000	-2.1970107926e+000
 5.8532460163e-001	 1.1044886196e+000	-2.2319118300e+000
 5.7411824131e-001	 1.1103550086e+000	-2.2603336877e+000
 6.9769243556e-001	 1.0671692768e+000	-1.8966907766e+000
 6.8672828570e-001	 1.0742575397e+000	-1.9392783166e+000
 6.7570444192e-001	 1.0812254655e+000	-1.9776336416e+000
 6.6462285617e-001	 1.0880723593e+000	-2.0117061473e+000
 6.5348548960e-001	 1.0947975680e+000	-2.0414479498e+000
 6.4229431150e-001	 1.1014004800e+000	-2.0668138622e+000
 6.3105129822e-001	 1.1078805256e+000	-2.0877613699e+000
 6.1975843206e-001	 1.1142371767e+000	-2.1187742684e+000
 6.0841770021e-001	 1.1204699470e+000	-2.1612678730e+000
 5.9703109366e-001	 1.1265783920e+000	-2.1980280808e+000
 5.8560060613e-001	 1.1325621087e+000	-2.2289370983e+000
 7.1137267940e-001	 1.0880941646e+000	-1.9209075909e+000
 7.0019354621e-001	 1.0953214130e+000	-1.9593792040e+000
 6.8895354863e-001	 1.1024259648e+000	-1.9942213548e+000
 6.7765467688e-001	 1.1094071114e+000	-2.0253993072e+000
 6.6629893057e-001	 1.1162641870e+000	-2.0528803824e+000
 6.5488831761e-001	 1.1229965679e+000	-2.0766339218e+000
 6.4342485309e-001	 1.1296036732e+000	-2.0966312493e+000
 6.3191055818e-001	 1.1360849645e+000	-2.1128456323e+000
 6.2034745904e-001	 1.1424399459e+000	-2.1380603028e+000
 6.0873758569e-001	 1.1486681643e+000	-2.1775799009e+000
 5.9708297096e-001	 1.1547692089e+000	-2.2118506041e+000
 7.2505292324e-001	 1.1090190524e+000	-1.9513377108e+000
 7.1365880671e-001	 1.1163852864e+000	-1.9865480937e+000
 7.0220265533e-001	 1.1236264641e+000	-2.0187134791e+000
 6.9068649759e-001	 1.1307418636e+000	-2.0478148513e+000
 6.7911237154e-001	 1.1377308060e+000	-2.0738345999e+000
 6.6748232371e-001	 1.1445926557e+000	-2.0967564689e+000
 6.5579840795e-001	 1.1513268207e+000	-2.1165655051e+000
 6.4406268430e-001	 1.1579327522e+000	-2.1332480080e+000
 6.3227721786e-001	 1.1644099449e+000	-2.1467914790e+000
 6.2044407772e-001	 1.1707579367e+000	-2.1696023147e+000
 6.0856533578e-001	 1.1769763091e+000	-2.2080671715e+000
 7.3873316707e-001	 1.1299439401e+000	-1.9876243174e+000
 7.2712406721e-001	 1.1374491597e+000	-2.0203718338e+000
 7.1545176204e-001	 1.1448269634e+000	-2.0506417027e+000
 7.0371831829e-001	 1.1520766157e+000	-2.0784305067e+000
 6.9192581251e-001	 1.1591974249e+000	-2.1037355920e+000
 6.8007632982e-001	 1.1661887436e+000	-2.1265550024e+000
 6.6817196282e-001	 1.1730499683e+000	-2.1468874158e+000
 6.5621481041e-001	 1.1797805400e+000	-2.1647320804e+000
 6.4420697669e-001	 1.1863799439e+000	-2.1800887543e+000
 6.3215056975e-001	 1.1928477091e+000	-2.1929576449e+000
 6.2004770061e-001	 1.1991834092e+000	-2.2166530436e+000
 7.5241341090e-001	 1.1508688279e+000	-2.0294433341e+000
 7.4058932772e-001	 1.1585130330e+000	-2.0604737939e+000
 7.2870086874e-001	 1.1660274628e+000	-2.0895779312e+000
 7.1675013900e-001	 1.1734113679e+000	-2.1167678290e+000
 7.0473925348e-001	 1.1806640439e+000	-2.1420557008e+000
 6.9267033592e-001	 1.1877848314e+000	-2.1654538112e+000
 6.8054551768e-001	 1.1947731158e+000	-2.1869743973e+000
 6.6836693653e-001	 1.2016283278e+000	-2.2066295943e+000
 6.5613673552e-001	 1.2083499428e+000	-2.2244313627e+000
 6.4385706178e-001	 1.2149374815e+000	-2.2403914180e+000
 6.3153006543e-001	 1.2213905094e+000	-2.2545211646e+000
 7.6609365474e-001	 1.1717937157e+000	-2.0765005033e+000
 7.5405458822e-001	 1.1795769063e+000	-2.1065106048e+000
 7.4194997544e-001	 1.1872279621e+000	-2.1351306971e+000
 7.2978195971e-001	 1.1947461200e+000	-2.1623882887e+000
 7.1755269445e-001	 1.2021306629e+000	-2.1883103939e+000
 7.0526434203e-001	 1.2093809192e+000	-2.2129234386e+000
 6.9291907255e-001	 1.2164962634e+000	-2.2362531692e+000
 6.8051906265e-001	 1.2234761156e+000	-2.2583245647e+000
 6.6806649434e-001	 1.2303199418e+000	-2.2791617526e+000
 6.5556355381e-001	 1.2370272539e+000	-2.2987879291e+000
 6.4301243026e-001	 1.2435976096e+000	-2.3172252825e+000
 7.7977389857e-001	 1.1927186035e+000	-2.1285287704e+000
 7.6751984872e-001	 1.2006407797e+000	-2.1581692401e+000
 7.5519908214e-001	 1.2084284614e+000	-2.1869419468e+000
 7.4281378042e-001	 1.2160808721e+000	-2.2148897705e+000
 7.3036613542e-001	 1.2235972819e+000	-2.2420544805e+000
 7.1785834814e-001	 1.2309770071e+000	-2.2684766257e+000
 7.0529262741e-001	 1.2382194110e+000	-2.2941954300e+000
 6.9267118877e-001	 1.2453239033e+000	-2.3192486919e+000
 6.7999625317e-001	 1.2522899407e+000	-2.3248684053e+000
 6.6727004585e-001	 1.2591170263e+000	-2.2904811853e+000
 6.5449479508e-001	 1.2658047097e+000	-2.2534063959e+000
 7.9345414240e-001	 1.2136434913e+000	-2.1852859393e+000
 7.8098510922e-001	 1.2217046530e+000	-2.2151644011e+000
 7.6844818885e-001	 1.2296289607e+000	-2.2446841596e+000
 7.5584560112e-001	 1.2374156243e+000	-2.2739034336e+000
 7.4317957639e-001	 1.2450639008e+000	-2.3028787207e+000
 7.3045235424e-001	 1.2525730949e+000	-2.3130095819e+000
 7.1766618228e-001	 1.2599425585e+000	-2.2861023072e+000
 7.0482331488e-001	 1.2671716911e+000	-2.2569116471e+000
 6.9192601199e-001	 1.2742599397e+000	-2.2254298995e+000
 6.7897653788e-001	 1.2812067987e+000	-2.1916523401e+000
 6.6597715991e-001	 1.2880118099e+000	-2.1555772891e+000
 8.0713438624e-001	 1.2345683790e+000	-2.2465525648e+000
 7.9445036972e-001	 1.2427685263e+000	-2.2772361666e+000
 7.8169729555e-001	 1.2508294600e+000	-2.3027754164e+000
 7.6887742183e-001	 1.2587503764e+000	-2.2816968763e+000
 7.5599301736e-001	 1.2665305198e+000	-2.2587140207e+000
 7.4304636035e-001	 1.2741691828e+000	-2.2338170190e+000
 7.3003973714e-001	 1.2816657061e+000	-2.2069983899e+000
 7.1697544100e-001	 1.2890194789e+000	-2.1782530850e+000
 7.0385577082e-001	 1.2962299386e+000	-2.1475785679e+000
 6.9068302991e-001	 1.3032965711e+000	-2.1149748897e+000
 6.7745952473e-001	 1.3102189101e+000	-2.0804447584e+000
 8.2081463007e-001	 1.2554932668e+000	-2.2806057978e+000
 8.0791563023e-001	 1.2638323996e+000	-2.2623673349e+000
 7.9494640225e-001	 1.2720299594e+000	-2.2425610984e+000
 7.8190924254e-001	 1.2800851286e+000	-2.2211795143e+000
 7.6880645833e-001	 1.2879971388e+000	-2.1982167890e+000
 7.5564036645e-001	 1.2957652706e+000	-2.1736690014e+000
 7.4241329201e-001	 1.3033888536e+000	-2.1475341927e+000
 7.2912756712e-001	 1.3108672667e+000	-2.1198124527e+000
 7.1578552965e-001	 1.3181999376e+000	-2.0905060012e+000
 7.0238952194e-001	 1.3253863434e+000	-2.0596192677e+000
 6.8894188956e-001	 1.3324260102e+000	-2.0271589644e+000
 5.7411824131e-001	 1.1103550086e+000	-2.2603336877e+000
 5.6287081669e-001	 1.1160987607e+000	-2.3007487266e+000
 5.5158428467e-001	 1.1217195625e+000	-2.3385721149e+000
 5.4026060171e-001	 1.1272171407e+000	-2.3736460408e+000
 5.2890172284e-001	 1.1325912624e+000	-2.4058157182e+000
 5.1750960065e-001	 1.1378417347e+000	-2.4349295420e+000
 5.0608618433e-001	 1.1429684047e+000	-2.4608392359e+000
 4.9463341865e-001	 1.1479711587e+000	-2.4833999935e+000
 4.8315324300e-001	 1.1528499225e+000	-2.5024706133e+000
 4.7164759049e-001	 1.1576046607e+000	-2.5179136250e+000
 4.6011838696e-001	 1.1622353763e+000	-2.5295954102e+000
 5.8560060613e-001	 1.1325621087e+000	-2.2289370983e+000
 5.7412823303e-001	 1.1384207360e+000	-2.2704032293e+000
 5.6261597037e-001	 1.1441539538e+000	-2.3088354713e+000
 5.5106581375e-001	 1.1497614835e+000	-2.3440920142e+000
 5.3947975730e-001	 1.1552430876e+000	-2.3760343738e+000
 5.2785979267e-001	 1.1605985694e+000	-2.4045275280e+000
 5.1620790802e-001	 1.1658277727e+000	-2.4294400450e+000
 5.0452608702e-001	 1.1709305819e+000	-2.4506442057e+000
 4.9281630786e-001	 1.1759069209e+000	-2.4680161179e+000
 4.8108054230e-001	 1.1807567539e+000	-2.4814358243e+000
 4.6932075469e-001	 1.1854800839e+000	-2.4907874023e+000
 5.9708297096e-001	 1.1547692089e+000	-2.2118506041e+000
 5.8538564936e-001	 1.1607427112e+000	-2.2556412445e+000
 5.7364765606e-001	 1.1665883450e+000	-2.2959703221e+000
 5.6187102578e-001	 1.1723058263e+000	-2.3327112724e+000
 5.5005779175e-001	 1.1778949129e+000	-2.3657411564e+000
 5.3820998468e-001	 1.1833554041e+000	-2.3949407776e+000
 5.2632963171e-001	 1.1886871408e+000	-2.4201947928e+000
 5.1441875539e-001	 1.1938900050e+000	-2.4413918144e+000
 5.0247937272e-001	 1.1989639194e+000	-2.4584245069e+000
 4.9051349411e-001	 1.2039088471e+000	-2.4711896748e+000
 4.7852312243e-001	 1.2087247914e+000	-2.4795883443e+000
 6.0856533578e-001	 1.1769763091e+000	-2.2080671715e+000
 5.9664306569e-001	 1.1830646864e+000	-2.2553909780e+000
 5.8467934175e-001	 1.1890227363e+000	-2.2988391543e+000
 5.7267623781e-001	 1.1948501691e+000	-2.3382996591e+000
 5.6063582621e-001	 1.2005467381e+000	-2.3736643749e+000
 5.4856017669e-001	 1.2061122388e+000	-2.4048292082e+000
 5.3645135539e-001	 1.2115465089e+000	-2.4316941814e+000
 5.2431142377e-001	 1.2168494282e+000	-2.4541635182e+000
 5.1214243758e-001	 1.2220209178e+000	-2.4721457207e+000
 4.9994644592e-001	 1.2270609403e+000	-2.4855536401e+000
 4.8772549017e-001	 1.2319694989e+000	-2.4943045388e+000
 6.2004770061e-001	 1.1991834092e+000	-2.2166530436e+000
 6.0790048203e-001	 1.2053866616e+000	-2.2686588686e+000
 5.9571102745e-001	 1.2114571275e+000	-2.3163877120e+000
 5.8348144985e-001	 1.2173945119e+000	-2.3597413629e+000
 5.7121386067e-001	 1.2231985634e+000	-2.3986258333e+000
 5.5891036871e-001	 1.2288690735e+000	-2.4329514404e+000
 5.4657307908e-001	 1.2344058770e+000	-2.4626328819e+000
 5.3420409214e-001	 1.2398088514e+000	-2.4875893034e+000
 5.2180550244e-001	 1.2450779163e+000	-2.5077443583e+000
 5.0937939773e-001	 1.2502130335e+000	-2.5205798661e+000
 4.9692785791e-001	 1.2552142064e+000	-2.4725943403e+000
 6.3153006543e-001	 1.2213905094e+000	-2.2545211646e+000
 6.1915789836e-001	 1.2277086368e+000	-2.2945224768e+000
 6.0674271314e-001	 1.2338915188e+000	-2.3476374271e+000
 5.9428666188e-001	 1.2399388547e+000	-2.3960008860e+000
 5.8179189512e-001	 1.2458503886e+000	-2.4395323306e+000
 5.6926056072e-001	 1.2516259082e+000	-2.4611123278e+000
 5.5669480277e-001	 1.2572652451e+000	-2.4340847331e+000
 5.4409676051e-001	 1.2627682746e+000	-2.4011738509e+000
 5.3146856730e-001	 1.2681349147e+000	-2.3625271435e+000
 5.1881234953e-001	 1.2733651267e+000	-2.3182934227e+000
 5.0613022564e-001	 1.2784589140e+000	-2.2686224872e+000
 6.4301243026e-001	 1.2435976096e+000	-2.3172252825e+000
 6.3041531469e-001	 1.2500306120e+000	-2.3463088922e+000
 6.1777439883e-001	 1.2563259100e+000	-2.3315650112e+000
 6.0509187392e-001	 1.2624831976e+000	-2.3243703489e+000
 5.9236992958e-001	 1.2685022138e+000	-2.3104262238e+000
 5.7961075273e-001	 1.2743827429e+000	-2.2899047521e+000
 5.6681652645e-001	 1.2801246132e+000	-2.2629806239e+000
 5.5398942888e-001	 1.2857276977e+000	-2.2298306778e+000
 5.4113163216e-001	 1.2911919132e+000	-2.1906334807e+000
 5.2824530134e-001	 1.2965172200e+000	-2.1455689142e+000
 5.1533259338e-001	 1.3017036215e+000	-2.0948177692e+000
 6.5449479508e-001	 1.2658047097e+000	-2.2534063959e+000
 6.4167273103e-001	 1.2723525872e+000	-2.2258919372e+000
 6.2880608453e-001	 1.2787603012e+000	-2.1930371571e+000
 6.1589708595e-001	 1.2850275404e+000	-2.1777637797e+000
 6.0294796403e-001	 1.2911540391e+000	-2.1651925592e+000
 5.8996094475e-001	 1.2971395776e+000	-2.1456453023e+000
 5.7693825014e-001	 1.3029839813e+000	-2.1193280252e+000
 5.6388209726e-001	 1.3086871209e+000	-2.0864489401e+000
 5.5079469702e-001	 1.3142489116e+000	-2.0472179893e+000
 5.3767825315e-001	 1.3196693132e+000	-2.0018463877e+000
 5.2453496112e-001	 1.3249483290e+000	-1.9505461720e+000
 6.6597715991e-001	 1.2880118099e+000	-2.1555772891e+000
 6.5293014736e-001	 1.2946745624e+000	-2.1299151979e+000
 6.3983777022e-001	 1.3011946925e+000	-2.0984764403e+000
 6.2670229798e-001	 1.3075718832e+000	-2.0613051931e+000
 6.1352599849e-001	 1.3138058643e+000	-2.0462766954e+000
 6.0031113676e-001	 1.3198964122e+000	-2.0281331578e+000
 5.8705997383e-001	 1.3258433494e+000	-2.0028578754e+000
 5.7377476563e-001	 1.3316465441e+000	-1.9706907569e+000
 5.6045776188e-001	 1.3373059101e+000	-1.9318734353e+000
 5.4711120496e-001	 1.3428214064e+000	-1.8866487651e+000
 5.3373732886e-001	 1.3481930365e+000	-1.8352603271e+000
 6.7745952473e-001	 1.3102189101e+000	-2.0804447584e+000
 6.6418756369e-001	 1.3169965376e+000	-2.0574497020e+000
 6.5086945591e-001	 1.3236290837e+000	-2.0282497389e+000
 6.3750751002e-001	 1.3301162260e+000	-1.9929021792e+000
 6.2410403295e-001	 1.3364576896e+000	-1.9536044897e+000
 6.1066132877e-001	 1.3426532469e+000	-1.9372298484e+000
 5.9718169751e-001	 1.3487027175e+000	-1.9133667900e+000
 5.8366743400e-001	 1.3546059672e+000	-1.8822872845e+000
 5.7012082674e-001	 1.3603629085e+000	-1.8442650135e+000
 5.5654415677e-001	 1.3659734996e+000	-1.7995748203e+000
 5.4293969659e-001	 1.3714377441e+000	-1.7484921699e+000
 6.8894188956e-001	 1.3324260102e+000	-2.0271589644e+000
 6.7544498003e-001	 1.3393185129e+000	-2.0076117786e+000
 6.6190114160e-001	 1.3460634750e+000	-1.9814390441e+000
 6.4831272205e-001	 1.3526605688e+000	-1.9487105945e+000
 6.3468206740e-001	 1.3591095148e+000	-1.9095027059e+000
 6.2101152078e-001	 1.3654100816e+000	-1.8728540588e+000
 6.0730342120e-001	 1.3715620856e+000	-1.8507115878e+000
 5.9356010237e-001	 1.3775653904e+000	-1.8210329628e+000
 5.7978389160e-001	 1.3834199070e+000	-1.7841243121e+000
 5.6597710858e-001	 1.3891255928e+000	-1.7402928577e+000
 5.5214206433e-001	 1.3946824516e+000	-1.6898463299e+000
 4.6011838696e-001	 1.1622353763e+000	-2.5295954102e+000
 4.4856755008e-001	 1.1667421108e+000	-2.5818063358e+000
 4.3699698847e-001	 1.1711249430e+000	-2.6300853385e+000
 4.2540860082e-001	 1.1753839893e+000	-2.6744034127e+000
 4.1380427497e-001	 1.1795194030e+000	-2.7147342967e+000
 4.0218588716e-001	 1.1835313736e+000	-2.7510544821e+000
 3.9055530112e-001	 1.1874201265e+000	-2.7833432193e+000
 3.7891436731e-001	 1.1911859226e+000	-2.8115825189e+000
 3.6726492216e-001	 1.1948290576e+000	-2.8357571484e+000
 3.5560878723e-001	 1.1983498614e+000	-2.8558546256e+000
 3.4394776857e-001	 1.2017486977e+000	-2.8718652072e+000
 4.6932075469e-001	 1.1854800839e+000	-2.4907874023e+000
 4.5753890108e-001	 1.1900769530e+000	-2.5464408811e+000
 4.4573692824e-001	 1.1945474418e+000	-2.5979993821e+000
 4.3391677283e-001	 1.1988916691e+000	-2.6454271112e+000
 4.2208036047e-001	 1.2031097911e+000	-2.6886913400e+000
 4.1022960490e-001	 1.2072020010e+000	-2.7277624179e+000
 3.9836640714e-001	 1.2111685290e+000	-2.7626137791e+000
 3.8649265466e-001	 1.2150096411e+000	-2.7932219449e+000
 3.7461022059e-001	 1.2187256388e+000	-2.8195665216e+000
 3.6272096297e-001	 1.2223168587e+000	-2.8416301934e+000
 3.5082672394e-001	 1.2257836717e+000	-2.8593987111e+000
 4.7852312243e-001	 1.2087247914e+000	-2.4795883443e+000
 4.6651025208e-001	 1.2134117952e+000	-2.5384279809e+000
 4.5447686801e-001	 1.2179699407e+000	-2.5930151635e+000
 4.4242494484e-001	 1.2223993489e+000	-2.6433073182e+000
 4.3035644597e-001	 1.2267001791e+000	-2.6892652577e+000
 4.1827332264e-001	 1.2308726285e+000	-2.7308531956e+000
 4.0617751316e-001	 1.2349169315e+000	-2.7680387553e+000
 3.9407094200e-001	 1.2388333595e+000	-2.8007929733e+000
 3.8195551903e-001	 1.2426222199e+000	-2.8290902978e+000
 3.6983313871e-001	 1.2462838559e+000	-2.8529085816e+000
 3.5770567931e-001	 1.2498186456e+000	-2.8722290709e+000
 4.8772549017e-001	 1.2319694989e+000	-2.4943045388e+000
 4.7548160308e-001	 1.2367466374e+000	-2.5560940418e+000
 4.6321680778e-001	 1.2413924396e+000	-2.6134786630e+000
 4.5093311686e-001	 1.2459070287e+000	-2.6664090505e+000
 4.3863253146e-001	 1.2502905672e+000	-2.7112406579e+000
 4.2631704038e-001	 1.2545432560e+000	-2.7019035667e+000
 4.1398861918e-001	 1.2586653341e+000	-2.6886692053e+000
 4.0164922934e-001	 1.2626570780e+000	-2.6716428319e+000
 3.8930081747e-001	 1.2665188011e+000	-2.6509279396e+000
 3.7694531445e-001	 1.2702508531e+000	-2.6266260445e+000
 3.6458463467e-001	 1.2738536196e+000	-2.5988364845e+000
 4.9692785791e-001	 1.2552142064e+000	-2.4725943403e+000
 4.8445295408e-001	 1.2600814796e+000	-2.4787316380e+000
 4.7195674754e-001	 1.2648149384e+000	-2.4804368237e+000
 4.5944128887e-001	 1.2694147085e+000	-2.4778272682e+000
 4.4690861696e-001	 1.2738809552e+000	-2.4710195074e+000
 4.3436075812e-001	 1.2782138834e+000	-2.4601289726e+000
 4.2179972519e-001	 1.2824137366e+000	-2.4452697302e+000
 4.0922751669e-001	 1.2864807964e+000	-2.4265542322e+000
 3.9664611591e-001	 1.2904153822e+000	-2.4040930777e+000
 3.8405749020e-001	 1.2942178504e+000	-2.3779947862e+000
 3.7146359004e-001	 1.2978885935e+000	-2.3483655816e+000
 5.0613022564e-001	 1.2784589140e+000	-2.2686224872e+000
 4.9342430508e-001	 1.2834163219e+000	-2.2728743303e+000
 4.8069668731e-001	 1.2882374373e+000	-2.2726006600e+000
 4.6794946089e-001	 1.2929223883e+000	-2.2679269891e+000
 4.5518470246e-001	 1.2974713433e+000	-2.2589779570e+000
 4.4240447586e-001	 1.3018845109e+000	-2.2458770414e+000
 4.2961083121e-001	 1.3061621391e+000	-2.2287462809e+000
 4.1680580403e-001	 1.3103045149e+000	-2.2077060084e+000
 4.0399141435e-001	 1.3143119634e+000	-2.1828745968e+000
 3.9116966594e-001	 1.3181848476e+000	-2.1543682161e+000
 3.7834254541e-001	 1.3219235675e+000	-2.1223006032e+000
 5.1533259338e-001	 1.3017036215e+000	-2.0948177692e+000
 5.0239565608e-001	 1.3067511641e+000	-2.0964886775e+000
 4.8943662708e-001	 1.3116599362e+000	-2.0935476924e+000
 4.7645763290e-001	 1.3164300681e+000	-2.0861292399e+000
 4.6346078795e-001	 1.3210617314e+000	-2.0743668174e+000
 4.5044819360e-001	 1.3255551384e+000	-2.0583926866e+000
 4.3742193723e-001	 1.3299105417e+000	-2.0383375776e+000
 4.2438409137e-001	 1.3341282333e+000	-2.0143304050e+000
 4.1133671280e-001	 1.3382085446e+000	-1.9864979963e+000
 3.9828184168e-001	 1.3421518448e+000	-1.9549648331e+000
 3.8522150078e-001	 1.3459585415e+000	-1.9198528050e+000
 5.2453496112e-001	 1.3249483290e+000	-1.9505461720e+000
 5.1136700707e-001	 1.3300860063e+000	-1.9489350495e+000
 4.9817656684e-001	 1.3350824350e+000	-1.9426323505e+000
 4.8496580491e-001	 1.3399377478e+000	-1.9317821987e+000
 4.7173687345e-001	 1.3446521194e+000	-1.9165277180e+000
 4.5849191134e-001	 1.3492257659e+000	-1.8970107054e+000
 4.4523304325e-001	 1.3536589442e+000	-1.8733713159e+000
 4.3196237872e-001	 1.3579519518e+000	-1.8457477601e+000
 4.1868201124e-001	 1.3621051257e+000	-1.8142760151e+000
 4.0539401742e-001	 1.3661188421e+000	-1.7790895481e+000
 3.9210045615e-001	 1.3699935154e+000	-1.7403190551e+000
 5.3373732886e-001	 1.3481930365e+000	-1.8352603271e+000
 5.2033835807e-001	 1.3534208485e+000	-1.8296595134e+000
 5.0691650661e-001	 1.3585049339e+000	-1.8192938345e+000
 4.9347397693e-001	 1.3634454276e+000	-1.8043179114e+000
 4.8001295895e-001	 1.3682425075e+000	-1.7848852773e+000
 4.6653562908e-001	 1.3728963933e+000	-1.7611480298e+000
 4.5304414927e-001	 1.3774073467e+000	-1.7332564963e+000
 4.3954066606e-001	 1.3817756702e+000	-1.7013589116e+000
 4.2602730968e-001	 1.3860017069e+000	-1.6656011108e+000
 4.1250619317e-001	 1.3900858393e+000	-1.6261262352e+000
 3.9897941152e-001	 1.3940284894e+000	-1.5830744537e+000
 5.4293969659e-001	 1.3714377441e+000	-1.7484921699e+000
 5.2930970907e-001	 1.3767556907e+000	-1.7381865702e+000
 5.1565644638e-001	 1.3819274327e+000	-1.7230489313e+000
 5.0198214894e-001	 1.3869531074e+000	-1.7032451848e+000
 4.8828904444e-001	 1.3918328955e+000	-1.6789400704e+000
 4.7457934682e-001	 1.3965670208e+000	-1.6502967665e+000
 4.6085525529e-001	 1.4011557493e+000	-1.6174765338e+000
 4.4711895341e-001	 1.4055993887e+000	-1.5806383744e+000
 4.3337260812e-001	 1.4098982880e+000	-1.5399387037e+000
 4.1961836891e-001	 1.4140528365e+000	-1.4955310391e+000
 4.0585836689e-001	 1.4180634633e+000	-1.4475657030e+000
 5.5214206433e-001	 1.3946824516e+000	-1.6898463299e+000
 5.3828106007e-001	 1.4000905329e+000	-1.6741126188e+000
 5.2439638615e-001	 1.4053499316e+000	-1.6534855483e+000
 5.1049032095e-001	 1.4104607872e+000	-1.6281431892e+000
 4.9656512994e-001	 1.4154232836e+000	-1.5982622992e+000
 4.8262306456e-001	 1.4202376483e+000	-1.5640179316e+000
 4.6866636131e-001	 1.4249041518e+000	-1.5255830572e+000
 4.5469724075e-001	 1.4294231071e+000	-1.4831282013e+000
 4.4071790656e-001	 1.4337948692e+000	-1.4368210969e+000
 4.2673054465e-001	 1.4380198337e+000	-1.3868263532e+000
 4.1273732227e-001	 1.4420984373e+000	-1.3333051408e+000
 3.4394776857e-001	 1.2017486977e+000	-2.8718652072e+000
 3.3228365593e-001	 1.2050259632e+000	-2.9201569590e+000
 3.2061822211e-001	 1.2081820871e+000	-2.9633424461e+000
 3.0895322226e-001	 1.2112175306e+000	-3.0014284093e+000
 2.9729039324e-001	 1.2141327860e+000	-3.0344248445e+000
 2.8563145302e-001	 1.2169283763e+000	-3.0623449533e+000
 2.7397810005e-001	 1.2196048543e+000	-3.0852050894e+000
 2.6233201271e-001	 1.2221628022e+000	-3.1030247016e+000
 2.5069484874e-001	 1.2246028306e+000	-3.1158262739e+000
 2.3906824470e-001	 1.2269255782e+000	-3.1236352621e+000
 2.2745381553e-001	 1.2291317105e+000	-3.1264800280e+000
 3.5082672394e-001	 1.2257836717e+000	-2.8593987111e+000
 3.3892932905e-001	 1.2291264825e+000	-2.9097401056e+000
 3.2703058655e-001	 1.2323457289e+000	-2.9546940498e+000
 3.1513228670e-001	 1.2354418812e+000	-2.9942688637e+000
 3.0323620110e-001	 1.2384154417e+000	-3.0284764286e+000
 2.9134408208e-001	 1.2412669438e+000	-3.0573321292e+000
 2.7945766205e-001	 1.2439969514e+000	-3.0808547927e+000
 2.6757865297e-001	 1.2466060582e+000	-3.0990666241e+000
 2.5570874571e-001	 1.2490948872e+000	-3.1119931379e+000
 2.4384960960e-001	 1.2514640897e+000	-3.1001571254e+000
 2.3200289184e-001	 1.2537143447e+000	-3.0726772671e+000
 3.5770567931e-001	 1.2498186456e+000	-2.8722290709e+000
 3.4557500216e-001	 1.2532270017e+000	-2.8824055076e+000
 3.3344295099e-001	 1.2565093706e+000	-2.8858269815e+000
 3.2131135114e-001	 1.2596662318e+000	-2.8849645664e+000
 3.0918200896e-001	 1.2626980974e+000	-2.8799203489e+000
 2.9705671113e-001	 1.2656055113e+000	-2.8707940950e+000
 2.8493722405e-001	 1.2683890485e+000	-2.8576830980e+000
 2.7282529322e-001	 1.2710493143e+000	-2.8406820378e+000
 2.6072264268e-001	 1.2735869439e+000	-2.8198828512e+000
 2.4863097449e-001	 1.2760026013e+000	-2.7953746137e+000
 2.3655196814e-001	 1.2782969789e+000	-2.7672434321e+000
 3.6458463467e-001	 1.2738536196e+000	-2.5988364845e+000
 3.5222067528e-001	 1.2773275210e+000	-2.6064531253e+000
 3.3985531543e-001	 1.2806730123e+000	-2.6095758361e+000
 3.2749041558e-001	 1.2838905824e+000	-2.6083195937e+000
 3.1512781682e-001	 1.2869807532e+000	-2.6027970589e+000
 3.0276934019e-001	 1.2899440789e+000	-2.5931183972e+000
 2.9041678605e-001	 1.2927811456e+000	-2.5793911133e+000
 2.7807193347e-001	 1.2954925703e+000	-2.5617198963e+000
 2.6573653966e-001	 1.2980790005e+000	-2.5402064780e+000
 2.5341233938e-001	 1.3005411129e+000	-2.5149495020e+000
 2.4110104445e-001	 1.3028796131e+000	-2.4860444055e+000
 3.7146359004e-001	 1.2978885935e+000	-2.3483655816e+000
 3.5886634840e-001	 1.3014280403e+000	-2.3554859274e+000
 3.4626767987e-001	 1.3048366541e+000	-2.3580224428e+000
 3.3366948003e-001	 1.3081149330e+000	-2.3561012554e+000
 3.2107362469e-001	 1.3112634089e+000	-2.3498459953e+000
 3.0848196925e-001	 1.3142826464e+000	-2.3393776014e+000
 2.9589634805e-001	 1.3171732427e+000	-2.3248141405e+000
 2.8331857372e-001	 1.3199358264e+000	-2.3062706395e+000
 2.7075043663e-001	 1.3225710571e+000	-2.2838589300e+000
 2.5819370428e-001	 1.3250796244e+000	-2.2576875062e+000
 2.4565012076e-001	 1.3274622474e+000	-2.2278613952e+000
 3.7834254541e-001	 1.3219235675e+000	-2.1223006032e+000
 3.6551202151e-001	 1.3255285595e+000	-2.1285996842e+000
 3.5268004431e-001	 1.3290002958e+000	-2.1302406008e+000
 3.3984854447e-001	 1.3323392837e+000	-2.1273610688e+000
 3.2701943255e-001	 1.3355460646e+000	-2.1200961030e+000
 3.1419459831e-001	 1.3386212139e+000	-2.1085778084e+000
 3.0137591005e-001	 1.3415653397e+000	-2.0929351844e+000
 2.8856521398e-001	 1.3443790824e+000	-2.0732939425e+000
 2.7576433361e-001	 1.3470631137e+000	-2.0497763385e+000
 2.6297506917e-001	 1.3496181360e+000	-2.0225010178e+000
 2.5019919707e-001	 1.3520448816e+000	-1.9915828745e+000
 3.8522150078e-001	 1.3459585415e+000	-1.9198528050e+000
 3.7215769463e-001	 1.3496290788e+000	-1.9249842365e+000
 3.5909240875e-001	 1.3531639376e+000	-1.9253984420e+000
 3.4602760891e-001	 1.3565636343e+000	-1.9212451821e+000
 3.3296524041e-001	 1.3598287203e+000	-1.9126712914e+000
 3.1990722737e-001	 1.3629597814e+000	-1.8998204528e+000
 3.0685547205e-001	 1.3659574368e+000	-1.8828329870e+000
 2.9381185423e-001	 1.3688223385e+000	-1.8618456558e+000
 2.8077823058e-001	 1.3715551703e+000	-1.8369914815e+000
 2.6775643406e-001	 1.3741566475e+000	-1.8083995792e+000
 2.5474827338e-001	 1.3766275158e+000	-1.7761950052e+000
 3.9210045615e-001	 1.3699935154e+000	-1.7403190551e+000
 3.7880336775e-001	 1.3737295980e+000	-1.7439152437e+000
 3.6550477319e-001	 1.3773275793e+000	-1.7427501559e+000
 3.5220667336e-001	 1.3807879849e+000	-1.7369860738e+000
 3.3891104828e-001	 1.3841113760e+000	-1.7267821047e+000
 3.2561985643e-001	 1.3872983490e+000	-1.7122939401e+000
 3.1233503405e-001	 1.3903495339e+000	-1.6936736291e+000
 2.9905849449e-001	 1.3932655945e+000	-1.6710693679e+000
 2.8579212755e-001	 1.3960472269e+000	-1.6446253050e+000
 2.7253779896e-001	 1.3986951591e+000	-1.6144813616e+000
 2.5929734969e-001	 1.4012101500e+000	-1.5807730680e+000
 3.9897941152e-001	 1.3940284894e+000	-1.5830744537e+000
 3.8544904087e-001	 1.3978301173e+000	-1.5847467855e+000
 3.7191713763e-001	 1.4014912211e+000	-1.5816285716e+000
 3.5838573780e-001	 1.4050123355e+000	-1.5738951100e+000
 3.4485685614e-001	 1.4083940318e+000	-1.5617182530e+000
 3.3133248549e-001	 1.4116369165e+000	-1.5452661493e+000
 3.1781459605e-001	 1.4147416310e+000	-1.5247030018e+000
 3.0430513474e-001	 1.4177088505e+000	-1.5001888424e+000
 2.9080602453e-001	 1.4205392835e+000	-1.4718793232e+000
 2.7731916385e-001	 1.4232336707e+000	-1.4399255247e+000
 2.6384642600e-001	 1.4257927842e+000	-1.4044737802e+000
 4.0585836689e-001	 1.4180634633e+000	-1.4475657030e+000
 3.9209471399e-001	 1.4219306366e+000	-1.4469047164e+000
 3.7832950208e-001	 1.4256548628e+000	-1.4414384928e+000
 3.6456480225e-001	 1.4292366861e+000	-1.4313558593e+000
 3.5080266401e-001	 1.4326766875e+000	-1.4168419035e+000
 3.3704511455e-001	 1.4359754840e+000	-1.3980776981e+000
 3.2329415806e-001	 1.4391337281e+000	-1.3752400425e+000
 3.0955177499e-001	 1.4421521066e+000	-1.3485012231e+000
 2.9581992150e-001	 1.4450313401e+000	-1.3180287902e+000
 2.8210052874e-001	 1.4477721822e+000	-1.2839853534e+000
 2.6839550231e-001	 1.4503754184e+000	-1.2465283942e+000
 4.1273732227e-001	 1.4420984373e+000	-1.3333051408e+000
 3.9874038711e-001	 1.4460311558e+000	-1.3298806842e+000
 3.8474186652e-001	 1.4498185045e+000	-1.3216507000e+000
 3.7074386670e-001	 1.4534610367e+000	-1.3088180758e+000
 3.5674847188e-001	 1.4569593432e+000	-1.2915816424e+000
 3.4275774362e-001	 1.4603140515e+000	-1.2701358809e+000
 3.2877372006e-001	 1.4635258252e+000	-1.2446706476e+000
 3.1479841525e-001	 1.4665953626e+000	-1.2153709190e+000
 3.0083381848e-001	 1.4695233968e+000	-1.1824165549e+000
 2.8688189364e-001	 1.4723106938e+000	-1.1459820803e+000
 2.7294457862e-001	 1.4749580526e+000	-1.1062364862e+000
 2.2745381553e-001	 1.2291317105e+000	-3.1264800280e+000
 2.1585315397e-001	 1.2312219198e+000	-3.1658928692e+000
 2.0426783022e-001	 1.2331969241e+000	-3.2002757162e+000
 1.9269939142e-001	 1.2350574661e+000	-3.2296499455e+000
 1.8114936129e-001	 1.2368043131e+000	-3.2540397924e+000
 1.6961923973e-001	 1.2384382558e+000	-3.2734722814e+000
 1.5811050249e-001	 1.2399601078e+000	-3.2879771550e+000
 1.4662460078e-001	 1.2413707047e+000	-3.2975867988e+000
 1.3516296104e-001	 1.2426709033e+000	-3.3023361665e+000
 1.2372698459e-001	 1.2438615812e+000	-3.3022627023e+000
 1.1231804739e-001	 1.2449436358e+000	-3.2974062613e+000
 2.3200289184e-001	 1.2537143447e+000	-3.0726772671e+000
 2.2017021705e-001	 1.2558463582e+000	-3.0825489963e+000
 2.0835318683e-001	 1.2578608626e+000	-3.0887550572e+000
 1.9655337925e-001	 1.2597586154e+000	-3.0913545521e+000
 1.8477234852e-001	 1.2615403994e+000	-3.0904037655e+000
 1.7301162453e-001	 1.2632070210e+000	-3.0859561215e+000
 1.6127271254e-001	 1.2647593100e+000	-3.0780621490e+000
 1.4955709280e-001	 1.2661981188e+000	-3.0667694574e+000
 1.3786622027e-001	 1.2675243214e+000	-3.0521227205e+000
 1.2620152428e-001	 1.2687388129e+000	-3.0341636682e+000
 1.1456440834e-001	 1.2698425085e+000	-3.0129310882e+000
 2.3655196814e-001	 1.2782969789e+000	-2.7672434321e+000
 2.2448728013e-001	 1.2804707966e+000	-2.7761631282e+000
 2.1243854343e-001	 1.2825248010e+000	-2.7812923277e+000
 2.0040736708e-001	 1.2844597647e+000	-2.7827044395e+000
 1.8839533574e-001	 1.2862764856e+000	-2.7804697808e+000
 1.7640400932e-001	 1.2879757861e+000	-2.7746555218e+000
 1.6443492259e-001	 1.2895585122e+000	-2.7653256397e+000
 1.5248958481e-001	 1.2910255329e+000	-2.7525408839e+000
 1.4056947949e-001	 1.2923777395e+000	-2.7363587493e+000
 1.2867606398e-001	 1.2936160445e+000	-2.7168334604e+000
 1.1681076929e-001	 1.2947413812e+000	-2.6940159635e+000
 2.4110104445e-001	 1.3028796131e+000	-2.4860444055e+000
 2.2880434321e-001	 1.3050952350e+000	-2.4942662250e+000
 2.1652390003e-001	 1.3071887395e+000	-2.4985946957e+000
 2.0426135491e-001	 1.3091609141e+000	-2.4991175332e+000
 1.9201832297e-001	 1.3110125719e+000	-2.4959190656e+000
 1.7979639412e-001	 1.3127445512e+000	-2.4890801660e+000
 1.6759713264e-001	 1.3143577143e+000	-2.4786781956e+000
 1.5542207683e-001	 1.3158529470e+000	-2.4647869579e+000
 1.4327273871e-001	 1.3172311575e+000	-2.4474766635e+000
 1.3115060367e-001	 1.3184932761e+000	-2.4268139046e+000
 1.1905713023e-001	 1.3196402539e+000	-2.4028616401e+000
 2.4565012076e-001	 1.3274622474e+000	-2.2278613952e+000
 2.3312140629e-001	 1.3297196734e+000	-2.2355949181e+000
 2.2060925664e-001	 1.3318526780e+000	-2.2393538865e+000
 2.0811534273e-001	 1.3338620634e+000	-2.2392403498e+000
 1.9564131019e-001	 1.3357486582e+000	-2.2353526521e+000
 1.8318877891e-001	 1.3375133163e+000	-2.2277853528e+000
 1.7075934268e-001	 1.3391569165e+000	-2.2166291587e+000
 1.5835456884e-001	 1.3406803611e+000	-2.2019708679e+000
 1.4597599793e-001	 1.3420845756e+000	-2.1838933252e+000
 1.3362514336e-001	 1.3433705078e+000	-2.1624753892e+000
 1.2130349118e-001	 1.3445391266e+000	-2.1377919096e+000
 2.5019919707e-001	 1.3520448816e+000	-1.9915828745e+000
 2.3743846937e-001	 1.3543441118e+000	-1.9989951753e+000
 2.2469461324e-001	 1.3565166165e+000	-2.0023730783e+000
 2.1196933056e-001	 1.3585632127e+000	-2.0018330198e+000
 1.9926429742e-001	 1.3604847444e+000	-1.9974873912e+000
 1.8658116370e-001	 1.3622820814e+000	-1.9894444465e+000
 1.7392155273e-001	 1.3639561186e+000	-1.9778082243e+000
 1.6128706086e-001	 1.3655077752e+000	-1.9626784816e+000
 1.4867925715e-001	 1.3669379937e+000	-1.9441506411e+000
 1.3609968305e-001	 1.3682477394e+000	-1.9223157494e+000
 1.2354985212e-001	 1.3694379994e+000	-1.8972604478e+000
 2.5474827338e-001	 1.3766275158e+000	-1.7761950052e+000
 2.4175553244e-001	 1.3789685502e+000	-1.7834125386e+000
 2.2877996984e-001	 1.3811805550e+000	-1.7865569510e+000
 2.1582331839e-001	 1.3832643620e+000	-1.7857591443e+000
 2.0288728464e-001	 1.3852208307e+000	-1.7811456119e+000
 1.8997354850e-001	 1.3870508465e+000	-1.7728383352e+000
 1.7708376278e-001	 1.3887553208e+000	-1.7609546944e+000
 1.6421955287e-001	 1.3903351893e+000	-1.7456073935e+000
 1.5138251636e-001	 1.3917914117e+000	-1.7269043984e+000
 1.3857422274e-001	 1.3931249710e+000	-1.7049488877e+000
 1.2579621307e-001	 1.3943368721e+000	-1.6798392175e+000
 2.5929734969e-001	 1.4012101500e+000	-1.5807730680e+000
 2.4607259552e-001	 1.4035929886e+000	-1.5878833893e+000
 2.3286532645e-001	 1.4058444934e+000	-1.5909027828e+000
 2.1967730621e-001	 1.4079655113e+000	-1.5899767179e+000
 2.0651027186e-001	 1.4099569169e+000	-1.5852458686e+000
 1.9336593329e-001	 1.4118196117e+000	-1.5768459990e+000
 1.8024597283e-001	 1.4135545229e+000	-1.5649078638e+000
 1.6715204489e-001	 1.4151626033e+000	-1.5495571234e+000
 1.5408577558e-001	 1.4166448298e+000	-1.5309142744e+000
 1.4104876243e-001	 1.4180022026e+000	-1.5090945928e+000
 1.2804257402e-001	 1.4192357448e+000	-1.4842080925e+000
 2.6384642600e-001	 1.4257927842e+000	-1.4044737802e+000
 2.5038965860e-001	 1.4282174270e+000	-1.4115271177e+000
 2.3695068305e-001	 1.4305084319e+000	-1.4144924676e+000
 2.2353129404e-001	 1.4326666607e+000	-1.4135299917e+000
 2.1013325909e-001	 1.4346930032e+000	-1.4087946458e+000
 1.9675831808e-001	 1.4365883768e+000	-1.4004360541e+000
 1.8340818287e-001	 1.4383537251e+000	-1.3885983995e+000
 1.7008453690e-001	 1.4399900174e+000	-1.3734203303e+000
 1.5678903480e-001	 1.4414982479e+000	-1.3550348812e+000
 1.4352330212e-001	 1.4428794342e+000	-1.3335694113e+000
 1.3028893496e-001	 1.4441346175e+000	-1.3091455554e+000
 2.6839550231e-001	 1.4503754184e+000	-1.2465283942e+000
 2.5470672168e-001	 1.4528418654e+000	-1.2535390877e+000
 2.4103603965e-001	 1.4551723704e+000	-1.2564853438e+000
 2.2738528187e-001	 1.4573678100e+000	-1.2555421633e+000
 2.1375624631e-001	 1.4594290895e+000	-1.2508789064e+000
 2.0015070287e-001	 1.4613571419e+000	-1.2426591559e+000
 1.8657039292e-001	 1.4631529272e+000	-1.2310405978e+000
 1.7301702891e-001	 1.4648174315e+000	-1.2161749188e+000
 1.5949229402e-001	 1.4663516659e+000	-1.1982077201e+000
 1.4599784180e-001	 1.4677566659e+000	-1.1772784479e+000
 1.3253529590e-001	 1.4690334902e+000	-1.1535203403e+000
 2.7294457862e-001	 1.4749580526e+000	-1.1062364862e+000
 2.5902378476e-001	 1.4774663038e+000	-1.1131843062e+000
 2.4512139625e-001	 1.4798363089e+000	-1.1161117410e+000
 2.3123926969e-001	 1.4820689593e+000	-1.1152087981e+000
 2.1737923353e-001	 1.4841651757e+000	-1.1106593853e+000
 2.0354308766e-001	 1.4861259070e+000	-1.1026411630e+000
 1.8973260296e-001	 1.4879521294e+000	-1.0913254147e+000
 1.7594952092e-001	 1.4896448456e+000	-1.0768769358e+000
 1.6219555323e-001	 1.4912050840e+000	-1.0594539406e+000
 1.4847238149e-001	 1.4926338975e+000	-1.0392079858e+000
 1.3478165685e-001	 1.4939323629e+000	-1.0162839121e+000
 1.1231804739e-001	 1.2449436358e+000	-3.2974062613e+000
 1.0093749980e-001	 1.2459179833e+000	-3.3232957900e+000
 8.9586666357e-002	 1.2467855586e+000	-3.3437994284e+000
 7.8266845602e-002	 1.2475473141e+000	-3.3589350406e+000
 6.6979309880e-002	 1.2482042189e+000	-3.3687236214e+000
 5.5725305204e-002	 1.2487572584e+000	-3.3731892134e+000
 4.4506051122e-002	 1.2492074333e+000	-3.3723588229e+000
 3.3322740611e-002	 1.2495557590e+000	-3.3662623336e+000
 2.2176539990e-002	 1.2498032649e+000	-3.3549324195e+000
 1.1068588847e-002	 1.2499509936e+000	-3.3384044564e+000
 0.0000000000e+000	 1.2500000000e+000	-3.3167164322e+000
 1.1456440834e-001	 1.2698425085e+000	-3.0129310882e+000
 1.0295624979e-001	 1.2708363430e+000	-3.0218639688e+000
 9.1378399684e-002	 1.2717212698e+000	-3.0270241644e+000
 7.9832182514e-002	 1.2724982604e+000	-3.0284209617e+000
 6.8318896077e-002	 1.2731683033e+000	-3.0260615736e+000
 5.6839811307e-002	 1.2737324036e+000	-3.0199511771e+000
 4.5396172143e-002	 1.2741915820e+000	-3.0100929561e+000
 3.3989195423e-002	 1.2745468742e+000	-2.9964881496e+000
 2.2620070789e-002	 1.2747993302e+000	-2.9791361050e+000
 1.1289960624e-002	 1.2749500134e+000	-2.9580343352e+000
 0.0000000000e+000	 1.2750000000e+000	-2.9331785810e+000
 1.1681076929e-001	 1.2947413812e+000	-2.6940159635e+000
 1.0497499979e-001	 1.2957547027e+000	-2.7000144795e+000
 9.3170133010e-002	 1.2966569810e+000	-2.7023597239e+000
 8.1397519425e-002	 1.2974492067e+000	-2.7010798628e+000
 6.9658482273e-002	 1.2981323876e+000	-2.6962003795e+000
 5.7954317410e-002	 1.2987075487e+000	-2.6877441068e+000
 4.6286293165e-002	 1.2991757306e+000	-2.6757312652e+000
 3.4655650234e-002	 1.2995379894e+000	-2.6601795083e+000
 2.3063601588e-002	 1.2997953955e+000	-2.6411039734e+000
 1.1511332401e-002	 1.2999490333e+000	-2.6185173378e+000
 0.0000000000e+000	 1.3000000000e+000	-2.5924298805e+000
 1.1905713023e-001	 1.3196402539e+000	-2.4028616401e+000
 1.0699374978e-001	 1.3206730623e+000	-2.4070962533e+000
 9.4961866336e-002	 1.3215926922e+000	-2.4078116445e+000
 8.2962856336e-002	 1.3224001529e+000	-2.4050544513e+000
 7.0998068470e-002	 1.3230964720e+000	-2.3988680081e+000
 5.9068823513e-002	 1.3236826939e+000	-2.3892923733e+000
 4.7176414186e-002	 1.3241598793e+000	-2.3763643641e+000
 3.5322105045e-002	 1.3245291046e+000	-2.3601175986e+000
 2.3507132387e-002	 1.3247914608e+000	-2.3405825448e+000
 1.1732704177e-002	 1.3249480532e+000	-2.3177865766e+000
 0.0000000000e+000	 1.3250000000e+000	-2.2917540351e+000
 1.2130349118e-001	 1.3445391266e+000	-2.1377919096e+000
 1.0901249978e-001	 1.3455914220e+000	-2.1413475472e+000
 9.6753599662e-002	 1.3465284033e+000	-2.1415329273e+000
 8.4528193246e-002	 1.3473510992e+000	-2.1384127857e+000
 7.2337654666e-002	 1.3480605564e+000	-2.1320479219e+000
 6.0183329615e-002	 1.3486578391e+000	-2.1224952223e+000
 4.8066535207e-002	 1.3491440280e+000	-2.1098076919e+000
 3.5988559857e-002	 1.3495202198e+000	-2.0940344936e+000
 2.3950663186e-002	 1.3497875261e+000	-2.0752209968e+000
 1.1954075954e-002	 1.3499470731e+000	-2.0534088326e+000
 0.0000000000e+000	 1.3500000000e+000	-2.0286359562e+000
 1.2354985212e-001	 1.3694379994e+000	-1.8972604478e+000
 1.1103124977e-001	 1.3705097816e+000	-1.9011417979e+000
 9.8545332987e-002	 1.3714641145e+000	-1.9018170568e+000
 8.6093530156e-002	 1.3723020455e+000	-1.8993687164e+000
 7.3677240862e-002	 1.3730246408e+000	-1.8938746864e+000
 6.1297835718e-002	 1.3736329842e+000	-1.8854083142e+000
 4.8956656228e-002	 1.3741281766e+000	-1.8740384125e+000
 3.6655014668e-002	 1.3745113349e+000	-1.8598292988e+000
 2.4394193985e-002	 1.3747835914e+000	-1.8428408414e+000
 1.2175447730e-002	 1.3749460929e+000	-1.8231285164e+000
 0.0000000000e+000	 1.3750000000e+000	-1.8007434708e+000
 1.2579621307e-001	 1.3943368721e+000	-1.6798392175e+000
 1.1304999977e-001	 1.3954281413e+000	-1.6849755530e+000
 1.0033706631e-001	 1.3963998257e+000	-1.6870854579e+000
 8.7658867067e-002	 1.3972529918e+000	-1.6862688682e+000
 7.5016827058e-002	 1.3979887252e+000	-1.6826204787e+000
 6.2412341821e-002	 1.3986081294e+000	-1.6762297582e+000
 4.9846777250e-002	 1.3991123253e+000	-1.6671809758e+000
 3.7321469479e-002	 1.3995024501e+000	-1.6555532388e+000
 2.4837724784e-002	 1.3997796567e+000	-1.6414205386e+000
 1.2396819507e-002	 1.3999451128e+000	-1.6248518087e+000
 0.0000000000e+000	 1.4000000000e+000	-1.6059109895e+000
 1.2804257402e-001	 1.4192357448e+000	-1.4842080925e+000
 1.1506874976e-001	 1.4203465010e+000	-1.4914576714e+000
 1.0212879964e-001	 1.4213355368e+000	-1.4958762728e+000
 8.9224203976e-002	 1.4222039381e+000	-1.4975809938e+000
 7.6356413254e-002	 1.4229528095e+000	-1.4966830159e+000
 6.3526847923e-002	 1.4235832746e+000	-1.4932876172e+000
 5.0736898271e-002	 1.4240964740e+000	-1.4874941972e+000
 3.7987924290e-002	 1.4244935653e+000	-1.4793963133e+000
 2.5281255584e-002	 1.4247757220e+000	-1.4690817286e+000
 1.2618191283e-002	 1.4249441327e+000	-1.4566324695e+000
 0.0000000000e+000	 1.4250000000e+000	-1.4421248944e+000
 1.3028893496e-001	 1.4441346175e+000	-1.3091455554e+000
 1.1708749975e-001	 1.4452648606e+000	-1.3192996411e+000
 1.0392053296e-001	 1.4462712480e+000	-1.3268342993e+000
 9.0789540886e-002	 1.4471548843e+000	-1.3318835315e+000
 7.7695999449e-002	 1.4479168939e+000	-1.3345747332e+000
 6.4641354025e-002	 1.4485584197e+000	-1.3350287048e+000
 5.1627019292e-002	 1.4490806226e+000	-1.3333596743e+000
 3.8654379101e-002	 1.4494846805e+000	-1.3296753340e+000
 2.5724786383e-002	 1.4497717873e+000	-1.3240768887e+000
 1.2839563060e-002	 1.4499431525e+000	-1.3166591160e+000
 0.0000000000e+000	 1.4500000000e+000	-1.3075104375e+000
 1.3253529590e-001	 1.4690334902e+000	-1.1535203403e+000
 1.1910624974e-001	 1.4701832203e+000	-1.1673068824e+000
 1.0571226629e-001	 1.4712069592e+000	-1.1787019526e+000
 9.2354877796e-002	 1.4721058306e+000	-1.1878562248e+000
 7.9035585644e-002	 1.4728809783e+000	-1.1949130616e+000
 6.5755860127e-002	 1.4735335649e+000	-1.2000085215e+000
 5.2517140313e-002	 1.4740647713e+000	-1.2032713824e+000
 3.9320833912e-002	 1.4744757957e+000	-1.2048231775e+000
 2.6168317182e-002	 1.4747678526e+000	-1.2047782457e+000
 1.3060934837e-002	 1.4749421724e+000	-1.2032437940e+000
 0.0000000000e+000	 1.4750000000e+000	-1.2003199725e+000
 1.3478165685e-001	 1.4939323629e+000	-1.0162839121e+000
 1.2112499974e-001	 1.4951015800e+000	-1.0343709197e+000
 1.0750399961e-001	 1.4961426704e+000	-1.0503111297e+000
 9.3920214705e-002	 1.4970567769e+000	-1.0642716812e+000
 8.0375171839e-002	 1.4978450627e+000	-1.0764116786e+000
 6.6870366229e-002	 1.4985087101e+000	-1.0868821977e+000
 5.3407261333e-002	 1.4990489200e+000	-1.0958263088e+000
 3.9987288723e-002	 1.4994669109e+000	-1.1033791134e+000
 2.6611847981e-002	 1.4997639179e+000	-1.1096677965e+000
 1.3282306613e-002	 1.4999411923e+000	-1.1148116922e+000
 0.0000000000e+000	 1.5000000000e+000	-1.1189223628e+000
 1.5000000000e+000	 0.0000000000e+000	 3.9453079131e+000
 1.4999411923e+000	 1.3282306613e-002	 3.9406900689e+000
 1.4997639179e+000	 2.6611847981e-002	 3.9317861875e+000
 1.4994669109e+000	 3.9987288723e-002	 3.9185784873e+000
 1.4990489200e+000	 5.3407261333e-002	 3.9010455974e+000
 1.4985087101e+000	 6.6870366229e-002	 3.8791623989e+000
 1.4978450627e+000	 8.0375171839e-002	 3.8528998700e+000
 1.4970567769e+000	 9.3920214705e-002	 3.8222249365e+000
 1.4961426704e+000	 1.0750399961e-001	 3.7871003255e+000
 1.4951015800e+000	 1.2112499974e-001	 3.7474844268e+000
 1.4939323629e+000	 1.3478165685e-001	 3.7033311586e+000
 1.5250000000e+000	 0.0000000000e+000	 3.8245758465e+000
 1.5249402122e+000	 1.3503678390e-002	 3.8245862233e+000
 1.5247599832e+000	 2.7055378780e-002	 3.8200583045e+000
 1.5244580260e+000	 4.0653743534e-002	 3.8109738276e+000
 1.5240330686e+000	 5.4297382354e-002	 3.7973109407e+000
 1.5234838552e+000	 6.7984872331e-002	 3.7790440410e+000
 1.5228091470e+000	 8.1714758035e-002	 3.7561436171e+000
 1.5220077232e+000	 9.5485551614e-002	 3.7285760969e+000
 1.5210783815e+000	 1.0929573293e-001	 3.6963036993e+000
 1.5200199396e+000	 1.2314374973e-001	 3.6592842927e+000
 1.5188312356e+000	 1.3702801779e-001	 3.6174712592e+000
 1.5500000000e+000	 0.0000000000e+000	 3.7107279350e+000
 1.5499392320e+000	 1.3725050166e-002	 3.7151116415e+000
 1.5497560485e+000	 2.7498909579e-002	 3.7147358360e+000
 1.5494491412e+000	 4.1320198346e-002	 3.7095822240e+000
 1.5490172173e+000	 5.5187503375e-002	 3.6996289016e+000
 1.5484590004e+000	 6.9099378434e-002	 3.6848501903e+000
 1.5477732314e+000	 8.3054344230e-002	 3.6652164762e+000
 1.5469586695e+000	 9.7050888523e-002	 3.6406940538e+000
 1.5460140927e+000	 1.1108746626e-001	 3.6112449746e+000
 1.5449382993e+000	 1.2516249972e-001	 3.5768269025e+000
 1.5437301083e+000	 1.3927437874e-001	 3.5373929751e+000
 1.5750000000e+000	 0.0000000000e+000	 3.6035113893e+000
 1.5749382519e+000	 1.3946421943e-002	 3.6120103819e+000
 1.5747521138e+000	 2.7942440378e-002	 3.6155592088e+000
 1.5744402564e+000	 4.1986653157e-002	 3.6141399890e+000
 1.5740013660e+000	 5.6077624396e-002	 3.6077311923e+000
 1.5734341456e+000	 7.0213884536e-002	 3.5963074699e+000
 1.5727373158e+000	 8.4393930425e-002	 3.5798394885e+000
 1.5719096157e+000	 9.8616225433e-002	 3.5582937705e+000
 1.5709498039e+000	 1.1287919958e-001	 3.5316325378e+000
 1.5698566590e+000	 1.2718124971e-001	 3.4998135636e+000
 1.5686289811e+000	 1.4152073968e-001	 3.4627900294e+000
 1.6000000000e+000	 0.0000000000e+000	 3.5026892196e+000
 1.5999372718e+000	 1.4167793719e-002	 3.5150423324e+000
 1.5997481791e+000	 2.8385971177e-002	 3.5222847609e+000
 1.5994313716e+000	 4.2653107968e-002	 3.5243994797e+000
 1.5989855146e+000	 5.6967745417e-002	 3.5213657553e+000
 1.5984092907e+000	 7.1328390638e-002	 3.5131589705e+000
 1.5977014002e+000	 8.5733516621e-002	 3.4997504540e+000
 1.5968605620e+000	 1.0018156234e-001	 3.4811073137e+000
 1.5958855150e+000	 1.1467093291e-001	 3.4571922775e+000
 1.5947750186e+000	 1.2919999971e-001	 3.4279635382e+000
 1.5935278538e+000	 1.4376710062e-001	 3.3933746073e+000
 1.6250000000e+000	 0.0000000000e+000	 3.4080390199e+000
 1.6249362916e+000	 1.4389165496e-002	 3.4239819933e+000
 1.6247442444e+000	 2.8829501976e-002	 3.4346835176e+000
 1.6244224868e+000	 4.3319562779e-002	 3.4401278635e+000
 1.6239696633e+000	 5.7857866438e-002	 3.4402955142e+000
 1.6233844359e+000	 7.2442896741e-002	 3.4351629843e+000
 1.6226654846e+000	 8.7073102817e-002	 3.4247026422e+000
 1.6218115083e+000	 1.0174689925e-001	 3.4088825381e+000
 1.6208212262e+000	 1.1646266623e-001	 3.3876662376e+000
 1.6196933783e+000	 1.3121874970e-001	 3.3610126623e+000
 1.6184267265e+000	 1.4601346157e-001	 3.3288759364e+000
 1.6500000000e+000	 0.0000000000e+000	 3.3193518634e+000
 1.6499353115e+000	 1.4610537273e-002	 3.3386173698e+000
 1.6497403097e+000	 2.9273032775e-002	 3.3525400792e+000
 1.6494136019e+000	 4.3986017590e-002	 3.3611059961e+000
 1.6489538120e+000	 5.8747987459e-002	 3.3642972393e+000
 1.6483595811e+000	 7.3557402843e-002	 3.3620918526e+000
 1.6476295689e+000	 8.8412689013e-002	 3.3544636208e+000
 1.6467624546e+000	 1.0331223616e-001	 3.3413818899e+000
 1.6457569374e+000	 1.1825439956e-001	 3.3228113942e+000
 1.6446117380e+000	 1.3323749970e-001	 3.2987120898e+000
 1.6433255992e+000	 1.4825982252e-001	 3.2690389956e+000
 1.6750000000e+000	 0.0000000000e+000	 3.2364312964e+000
 1.6749343314e+000	 1.4831909049e-002	 3.2587489645e+000
 1.6747363750e+000	 2.9716563574e-002	 3.2756516074e+000
 1.6744047171e+000	 4.4652472402e-002	 3.2871274002e+000
 1.6739379606e+000	 5.9638108481e-002	 3.2931605139e+000
 1.6733347262e+000	 7.4671908946e-002	 3.2937309180e+000
 1.6725936533e+000	 8.9752275209e-002	 3.2888141881e+000
 1.6717134009e+000	 1.0487757307e-001	 3.2783813183e+000
 1.6706926486e+000	 1.2004613288e-001	 3.2623985405e+000
 1.6695300976e+000	 1.3525624969e-001	 3.2408271499e+000
 1.6682244719e+000	 1.5050618346e-001	 3.2136233394e+000
 1.7000000000e+000	 0.0000000000e+000	 3.1590924216e+000
 1.6999333513e+000	 1.5053280826e-002	 3.1841888585e+000
 1.6997324403e+000	 3.0160094373e-002	 3.2038269022e+000
 1.6993958323e+000	 4.5318927213e-002	 3.2179973339e+000
 1.6989221093e+000	 6.0528229502e-002	 3.2266867924e+000
 1.6983098714e+000	 7.5786415049e-002	 3.2298775680e+000
 1.6975577377e+000	 9.1091861406e-002	 3.2275474004e+000
 1.6966643472e+000	 1.0644290998e-001	 3.2196692826e+000
 1.6956283597e+000	 1.2183786621e-001	 3.2062112713e+000
 1.6944484573e+000	 1.3727499969e-001	 3.1871363044e+000
 1.6931233446e+000	 1.5275254441e-001	 3.1624020263e+000
 1.7250000000e+000	 0.0000000000e+000	 3.0871610602e+000
 1.7249323711e+000	 1.5274652602e-002	 3.1147598720e+000
 1.7247285056e+000	 3.0603625172e-002	 3.1368855582e+000
 1.7243869475e+000	 4.5985382024e-002	 3.1535319404e+000
 1.7239062580e+000	 6.1418350523e-002	 3.1646885402e+000
 1.7232850166e+000	 7.6900921152e-002	 3.1703403624e+000
 1.7225218221e+000	 9.2431447602e-002	 3.1704676835e+000
 1.7216152934e+000	 1.0800824690e-001	 3.1650458452e+000
 1.7205640709e+000	 1.2362959954e-001	 3.1540450554e+000
 1.7193668170e+000	 1.3929374968e-001	 3.1374301961e+000
 1.7180222173e+000	 1.5499890536e-001	 3.1151606403e+000
 1.7500000000e+000	 0.0000000000e+000	 3.0204729864e+000
 1.7499313910e+000	 1.5496024379e-002	 3.0502947978e+000
 1.7497245709e+000	 3.1047155971e-002	 3.0746571937e+000
 1.7493780627e+000	 4.6651836836e-002	 3.0935574705e+000
 1.7488904066e+000	 6.2308471545e-002	 3.1069884467e+000
 1.7482601617e+000	 7.8015427255e-002	 3.1149382354e+000
 1.7474859064e+000	 9.3771033799e-002	 3.1173900212e+000
 1.7465662397e+000	 1.0957358381e-001	 3.1143218435e+000
 1.7454997821e+000	 1.2542133286e-001	 3.1057063869e+000
 1.7442851766e+000	 1.4131249968e-001	 3.0915107789e+000
 1.7429210901e+000	 1.5724526631e-001	 3.0716963962e+000
 1.4939323629e+000	 1.3478165685e-001	 3.7033311586e+000
 1.4926338975e+000	 1.4847238149e-001	 3.6795021455e+000
 1.4912050840e+000	 1.6219555323e-001	 3.6505290142e+000
 1.4896448456e+000	 1.7594952092e-001	 3.6163561220e+000
 1.4879521294e+000	 1.8973260296e-001	 3.5769235895e+000
 1.4861259070e+000	 2.0354308766e-001	 3.5321672179e+000
 1.4841651757e+000	 2.1737923353e-001	 3.4820184142e+000
 1.4820689593e+000	 2.3123926969e-001	 3.4264041275e+000
 1.4798363089e+000	 2.4512139625e-001	 3.3652467944e+000
 1.4774663038e+000	 2.5902378476e-001	 3.2984642958e+000
 1.4749580526e+000	 2.7294457862e-001	 3.2259699248e+000
 1.5188312356e+000	 1.3702801779e-001	 3.6174712592e+000
 1.5175111291e+000	 1.5094692118e-001	 3.5964426799e+000
 1.5160585020e+000	 1.6489881245e-001	 3.5700023096e+000
 1.5144722597e+000	 1.7888201293e-001	 3.5380913005e+000
 1.5127513315e+000	 1.9289481301e-001	 3.5006465149e+000
 1.5108946721e+000	 2.0693547245e-001	 3.4576004431e+000
 1.5089012620e+000	 2.2100222075e-001	 3.4088811305e+000
 1.5067701086e+000	 2.3509325751e-001	 3.3544121152e+000
 1.5045002474e+000	 2.4920675285e-001	 3.2941123755e+000
 1.5020907422e+000	 2.6334084783e-001	 3.2278962898e+000
 1.4995406868e+000	 2.7749365493e-001	 3.1556736072e+000
 1.5437301083e+000	 1.3927437874e-001	 3.5373929751e+000
 1.5423883607e+000	 1.5342146087e-001	 3.5190733461e+000
 1.5409119201e+000	 1.6760207167e-001	 3.4951086300e+000
 1.5392996738e+000	 1.8181450494e-001	 3.4654370494e+000
 1.5375505337e+000	 1.9605702305e-001	 3.4299924560e+000
 1.5356634372e+000	 2.1032785724e-001	 3.3887042493e+000
 1.5336373482e+000	 2.2462520797e-001	 3.3414973034e+000
 1.5314712579e+000	 2.3894724534e-001	 3.2882919064e+000
 1.5291641858e+000	 2.5329210946e-001	 3.2290037090e+000
 1.5267151806e+000	 2.6765791091e-001	 3.1635436861e+000
 1.5241233210e+000	 2.8204273124e-001	 3.0918181100e+000
 1.5686289811e+000	 1.4152073968e-001	 3.4627900294e+000
 1.5672655924e+000	 1.5589600055e-001	 3.4470876145e+000
 1.5657653382e+000	 1.7030533088e-001	 3.4255406893e+000
 1.5641270879e+000	 1.8474699695e-001	 3.3980848158e+000
 1.5623497358e+000	 1.9921923310e-001	 3.3646510773e+000
 1.5604322023e+000	 2.1372024203e-001	 3.3251659956e+000
 1.5583734345e+000	 2.2824819520e-001	 3.2795514588e+000
 1.5561724073e+000	 2.4280123317e-001	 3.2277246596e+000
 1.5538281243e+000	 2.5737746606e-001	 3.1695980453e+000
 1.5513396190e+000	 2.7197497399e-001	 3.1050792808e+000
 1.5487059552e+000	 2.8659180755e-001	 3.0340712227e+000
 1.5935278538e+000	 1.4376710062e-001	 3.3933746073e+000
 1.5921428240e+000	 1.5837054024e-001	 3.3801974907e+000
 1.5906187562e+000	 1.7300859010e-001	 3.3610098640e+000
 1.5889545020e+000	 1.8767948897e-001	 3.3357448926e+000
 1.5871489380e+000	 2.0238144315e-001	 3.3043311275e+000
 1.5852009674e+000	 2.1711262682e-001	 3.2666924213e+000
 1.5831095208e+000	 2.3187118242e-001	 3.2227478545e+000
 1.5808735566e+000	 2.4665522099e-001	 3.1724116739e+000
 1.5784920628e+000	 2.6146282266e-001	 3.1155932423e+000
 1.5759640574e+000	 2.7629203707e-001	 3.0521970016e+000
 1.5732885894e+000	 2.9114088386e-001	 2.9821224490e+000
 1.6184267265e+000	 1.4601346157e-001	 3.3288759364e+000
 1.6170200556e+000	 1.6084507993e-001	 3.3181320895e+000
 1.6154721743e+000	 1.7571184932e-001	 3.3012447578e+000
 1.6137819161e+000	 1.9061198098e-001	 3.2781449687e+000
 1.6119481402e+000	 2.0554365319e-001	 3.2487589723e+000
 1.6099697326e+000	 2.2050501162e-001	 3.2130081545e+000
 1.6078456070e+000	 2.3549416964e-001	 3.1708089622e+000
 1.6055747059e+000	 2.5050920882e-001	 3.1220728401e+000
 1.6031560013e+000	 2.6554817926e-001	 3.0667061800e+000
 1.6005884958e+000	 2.8060910014e-001	 3.0046102832e+000
 1.5978712237e+000	 2.9568996017e-001	 2.9356813370e+000
 1.6433255992e+000	 1.4825982252e-001	 3.2690389956e+000
 1.6418972872e+000	 1.6331961962e-001	 3.2606363388e+000
 1.6403255924e+000	 1.7841510854e-001	 3.2459898962e+000
 1.6386093302e+000	 1.9354447299e-001	 3.2250288113e+000
 1.6367473423e+000	 2.0870586324e-001	 3.1976772590e+000
 1.6347384977e+000	 2.2389739641e-001	 3.1638543571e+000
 1.6325816933e+000	 2.3911715687e-001	 3.1234740876e+000
 1.6302758552e+000	 2.5436319665e-001	 3.0764452323e+000
 1.6278199398e+000	 2.6963353587e-001	 3.0226713199e+000
 1.6252129342e+000	 2.8492616322e-001	 2.9620505883e+000
 1.6224538579e+000	 3.0023903648e-001	 2.8944759605e+000
 1.6682244719e+000	 1.5050618346e-001	 3.2136233394e+000
 1.6667745188e+000	 1.6579415931e-001	 3.2074697998e+000
 1.6651790104e+000	 1.8111836776e-001	 3.1950045389e+000
 1.6634367443e+000	 1.9647696501e-001	 3.1761550655e+000
 1.6615465445e+000	 2.1186807329e-001	 3.1508437021e+000
 1.6595072628e+000	 2.2728978120e-001	 3.1189874912e+000
 1.6573177795e+000	 2.4274014409e-001	 3.0804981146e+000
 1.6549770045e+000	 2.5821718447e-001	 3.0352818251e+000
 1.6524838782e+000	 2.7371889247e-001	 2.9832393925e+000
 1.6498373726e+000	 2.8924322630e-001	 2.9242660633e+000
 1.6470364921e+000	 3.0478811279e-001	 2.8582515363e+000
 1.6931233446e+000	 1.5275254441e-001	 3.1624020263e+000
 1.6916517505e+000	 1.6826869900e-001	 3.1584055906e+000
 1.6900324285e+000	 1.8382162698e-001	 3.1480615956e+000
 1.6882641584e+000	 1.9940945702e-001	 3.1312961612e+000
 1.6863457466e+000	 2.1503028334e-001	 3.1080299749e+000
 1.6842760279e+000	 2.3068216600e-001	 3.0781781938e+000
 1.6820538658e+000	 2.4636313132e-001	 3.0416503592e+000
 1.6796781539e+000	 2.6207117230e-001	 2.9983503251e+000
 1.6771478167e+000	 2.7780424907e-001	 2.9481762013e+000
 1.6744618110e+000	 2.9356028938e-001	 2.8910203109e+000
 1.6716191263e+000	 3.0933718910e-001	 2.8267691639e+000
 1.7180222173e+000	 1.5499890536e-001	 3.1151606403e+000
 1.7165289821e+000	 1.7074323870e-001	 3.1132294044e+000
 1.7148858466e+000	 1.8652488620e-001	 3.1049466376e+000
 1.7130915724e+000	 2.0234194904e-001	 3.0902373134e+000
 1.7111449488e+000	 2.1819249339e-001	 3.0690206984e+000
 1.7090447930e+000	 2.3407455079e-001	 3.0412102496e+000
 1.7067899521e+000	 2.4998611855e-001	 3.0067135240e+000
 1.7043793032e+000	 2.6592516013e-001	 2.9654321028e+000
 1.7018117552e+000	 2.8188960568e-001	 2.9172615307e+000
 1.6990862494e+000	 2.9787735246e-001	 2.8620912704e+000
 1.6962017605e+000	 3.1388626541e-001	 2.7998046745e+000
 1.7429210901e+000	 1.5724526631e-001	 3.0716963962e+000
 1.7414062137e+000	 1.7321777839e-001	 3.0717386105e+000
 1.7397392646e+000	 1.8922814542e-001	 3.0654569931e+000
 1.7379189865e+000	 2.0527444106e-001	 3.0527756094e+000
 1.7359441509e+000	 2.2135470344e-001	 3.0336125161e+000
 1.7338135582e+000	 2.3746693559e-001	 3.0078796521e+000
 1.7315260383e+000	 2.5360910577e-001	 2.9754827423e+000
 1.7290804525e+000	 2.6977914796e-001	 2.9363212170e+000
 1.7264756937e+000	 2.8597496228e-001	 2.8902881468e+000
 1.7237106878e+000	 3.0219441554e-001	 2.8372701935e+000
 1.7207843947e+000	 3.1843534172e-001	 2.7771475788e+000
 1.4749580526e+000	 2.7294457862e-001	 3.2259699248e+000
 1.4723106938e+000	 2.8688189364e-001	 3.1803396279e+000
 1.4695233968e+000	 3.0083381848e-001	 3.1292914332e+000
 1.4665953626e+000	 3.1479841525e-001	 3.0727280164e+000
 1.4635258252e+000	 3.2877372006e-001	 3.0105473019e+000
 1.4603140515e+000	 3.4275774362e-001	 2.9426424884e+000
 1.4569593432e+000	 3.5674847188e-001	 2.8689020893e+000
 1.4534610367e+000	 3.7074386670e-001	 2.7892099869e+000
 1.4498185045e+000	 3.8474186652e-001	 2.7034455019e+000
 1.4460311558e+000	 3.9874038711e-001	 2.6114834788e+000
 1.4420984373e+000	 4.1273732227e-001	 2.5131943858e+000
 1.4995406868e+000	 2.7749365493e-001	 3.1556736072e+000
 1.4968492054e+000	 2.9166325853e-001	 3.1103031134e+000
 1.4940154534e+000	 3.0584771546e-001	 3.0594544686e+000
 1.4910386187e+000	 3.2004505551e-001	 3.0030258335e+000
 1.4879179223e+000	 3.3425328206e-001	 2.9409103607e+000
 1.4846526191e+000	 3.4847037268e-001	 2.8729962228e+000
 1.4812419989e+000	 3.6269427974e-001	 2.7991666548e+000
 1.4776853873e+000	 3.7692293114e-001	 2.7193000125e+000
 1.4739821463e+000	 3.9115423097e-001	 2.6332698462e+000
 1.4701316751e+000	 4.0538606023e-001	 2.5409449902e+000
 1.4661334112e+000	 4.1961627764e-001	 2.4421896699e+000
 1.5241233210e+000	 2.8204273124e-001	 3.0918181100e+000
 1.5213877169e+000	 2.9644462343e-001	 3.0468029080e+000
 1.5185075100e+000	 3.1086161243e-001	 2.9962768280e+000
 1.5154818747e+000	 3.2529169576e-001	 2.9401334847e+000
 1.5123100193e+000	 3.3973284406e-001	 2.8782611990e+000
 1.5089911866e+000	 3.5418300174e-001	 2.8105430272e+000
 1.5055246547e+000	 3.6864008761e-001	 2.7368568063e+000
 1.5019097379e+000	 3.8310199559e-001	 2.6570752150e+000
 1.4981457880e+000	 3.9756659541e-001	 2.5710658518e+000
 1.4942321944e+000	 4.1203173334e-001	 2.4786913293e+000
 1.4901683852e+000	 4.2649523301e-001	 2.3798093864e+000
 1.5487059552e+000	 2.8659180755e-001	 3.0340712227e+000
 1.5459262285e+000	 3.0122598832e-001	 2.9895091284e+000
 1.5429995666e+000	 3.1587550941e-001	 2.9394307851e+000
 1.5399251308e+000	 3.3053833602e-001	 2.8837252250e+000
 1.5367021164e+000	 3.4521240607e-001	 2.8222758709e+000
 1.5333297541e+000	 3.5989563080e-001	 2.7549605667e+000
 1.5298073104e+000	 3.7458589548e-001	 2.6816516248e+000
 1.5261340886e+000	 3.8928106004e-001	 2.6022158899e+000
 1.5223094298e+000	 4.0397895985e-001	 2.5165148206e+000
 1.5183327136e+000	 4.1867740646e-001	 2.4244045885e+000
 1.5142033591e+000	 4.3337418838e-001	 2.3257361959e+000
 1.5732885894e+000	 2.9114088386e-001	 2.9821224490e+000
 1.5704647400e+000	 3.0600735321e-001	 2.9381137532e+000
 1.5674916232e+000	 3.2088940638e-001	 2.8886106576e+000
 1.5643683868e+000	 3.3578497627e-001	 2.8334975693e+000
 1.5610942135e+000	 3.5069196807e-001	 2.7726529409e+000
 1.5576683217e+000	 3.6560825986e-001	 2.7059493017e+000
 1.5540899661e+000	 3.8053170334e-001	 2.6332533065e+000
 1.5503584392e+000	 3.9546012448e-001	 2.5544258026e+000
 1.5464730715e+000	 4.1039132430e-001	 2.4693219138e+000
 1.5424332329e+000	 4.2532307958e-001	 2.3777911451e+000
 1.5382383331e+000	 4.4025314375e-001	 2.2796775042e+000
 1.5978712237e+000	 2.9568996017e-001	 2.9356813370e+000
 1.5950032516e+000	 3.1078871811e-001	 2.8923289416e+000
 1.5919836798e+000	 3.2590330335e-001	 2.8435311112e+000
 1.5888116429e+000	 3.4103161652e-001	 2.7891675800e+000
 1.5854863106e+000	 3.5617153007e-001	 2.7291117522e+000
 1.5820068892e+000	 3.7132088892e-001	 2.6632307343e+000
 1.5783726218e+000	 3.8647751121e-001	 2.5913853848e+000
 1.5745827898e+000	 4.0163918893e-001	 2.5134303831e+000
 1.5706367133e+000	 4.1680368874e-001	 2.4292143174e+000
 1.5665337522e+000	 4.3196875270e-001	 2.3385797928e+000
 1.5622733070e+000	 4.4713209913e-001	 2.2413635585e+000
 1.6224538579e+000	 3.0023903648e-001	 2.8944759605e+000
 1.6195417632e+000	 3.1557008300e-001	 2.8518855047e+000
 1.6164757364e+000	 3.3091720033e-001	 2.8039256188e+000
 1.6132548989e+000	 3.4627825678e-001	 2.7504713106e+000
 1.6098784077e+000	 3.6165109207e-001	 2.6913908527e+000
 1.6063454567e+000	 3.7703351798e-001	 2.6265458147e+000
 1.6026552775e+000	 3.9242331907e-001	 2.5557911136e+000
 1.5988071404e+000	 4.0781825337e-001	 2.4789750848e+000
 1.5948003550e+000	 4.2321605318e-001	 2.3959395731e+000
 1.5906342714e+000	 4.3861442582e-001	 2.3065200442e+000
 1.5863082810e+000	 4.5401105450e-001	 2.2105457171e+000
 1.6470364921e+000	 3.0478811279e-001	 2.8582515363e+000
 1.6440802747e+000	 3.2035144789e-001	 2.8165315132e+000
 1.6409677930e+000	 3.3593109730e-001	 2.7695450562e+000
 1.6376981549e+000	 3.5152489703e-001	 2.7171623883e+000
 1.6342705048e+000	 3.6713065407e-001	 2.6592465619e+000
 1.6306840242e+000	 3.8274614704e-001	 2.5956534895e+000
 1.6269379333e+000	 3.9836912694e-001	 2.5262319959e+000
 1.6230314910e+000	 4.1399731782e-001	 2.4508238902e+000
 1.6189639967e+000	 4.2962841762e-001	 2.3692640594e+000
 1.6147347907e+000	 4.4526009894e-001	 2.2813805838e+000
 1.6103432550e+000	 4.6089000987e-001	 2.1869948740e+000
 1.6716191263e+000	 3.0933718910e-001	 2.8267691639e+000
 1.6686187863e+000	 3.2513281279e-001	 2.7860310284e+000
 1.6654598497e+000	 3.4094499428e-001	 2.7401564229e+000
 1.6621414110e+000	 3.5677153728e-001	 2.6890107221e+000
 1.6586626019e+000	 3.7261021607e-001	 2.6324516637e+000
 1.6550225918e+000	 3.8845877610e-001	 2.5703293783e+000
 1.6512205890e+000	 4.0431493480e-001	 2.5024864417e+000
 1.6472558416e+000	 4.2017638226e-001	 2.4287579482e+000
 1.6431276385e+000	 4.3604078206e-001	 2.3489716065e+000
 1.6388353100e+000	 4.5190577206e-001	 2.2629478588e+000
 1.6343782289e+000	 4.6776896524e-001	 2.1705000223e+000
 1.6962017605e+000	 3.1388626541e-001	 2.7998046745e+000
 1.6931572979e+000	 3.2991417768e-001	 2.7601629438e+000
 1.6899519063e+000	 3.4595889125e-001	 2.7155416736e+000
 1.6865846670e+000	 3.6201817754e-001	 2.6658013225e+000
 1.6830546990e+000	 3.7808977807e-001	 2.6107942140e+000
 1.6793611593e+000	 3.9417140516e-001	 2.5503645662e+000
 1.6755032447e+000	 4.1026074266e-001	 2.4843485433e+000
 1.6714801922e+000	 4.2635544671e-001	 2.4125743306e+000
 1.6672912802e+000	 4.4245314651e-001	 2.3348622319e+000
 1.6629358292e+000	 4.5855144518e-001	 2.2510247920e+000
 1.6584132029e+000	 4.7464792061e-001	 2.1608669431e+000
 1.7207843947e+000	 3.1843534172e-001	 2.7771475788e+000
 1.7176958094e+000	 3.3469554257e-001	 2.7387199251e+000
 1.7144439629e+000	 3.5097278822e-001	 2.6954966502e+000
 1.7110279231e+000	 3.6726481779e-001	 2.6473332232e+000
 1.7074467960e+000	 3.8356934007e-001	 2.5940764493e+000
 1.7036997268e+000	 3.9988403422e-001	 2.5355644981e+000
 1.6997859004e+000	 4.1620655053e-001	 2.4716269545e+000
 1.6957045429e+000	 4.3253451115e-001	 2.4020848943e+000
 1.6914549220e+000	 4.4886551095e-001	 2.3267509837e+000
 1.6870363485e+000	 4.6519711830e-001	 2.2454296047e+000
 1.6824481768e+000	 4.8152687598e-001	 2.1579170056e+000
 1.4420984373e+000	 4.1273732227e-001	 2.5131943858e+000
 1.4380198337e+000	 4.2673054465e-001	 2.4470393759e+000
 1.4337948692e+000	 4.4071790656e-001	 2.3761536501e+000
 1.4294231071e+000	 4.5469724075e-001	 2.3004025155e+000
 1.4249041518e+000	 4.6866636131e-001	 2.2196460477e+000
 1.4202376483e+000	 4.8262306456e-001	 2.1337392419e+000
 1.4154232836e+000	 4.9656512994e-001	 2.0425321816e+000
 1.4104607872e+000	 5.1049032095e-001	 1.9458702258e+000
 1.4053499316e+000	 5.2439638615e-001	 1.8435942131e+000
 1.4000905329e+000	 5.3828106007e-001	 1.7355406843e+000
 1.3946824516e+000	 5.5214206433e-001	 1.6215421225e+000
 1.4661334112e+000	 4.1961627764e-001	 2.4421896699e+000
 1.4619868310e+000	 4.3384272040e-001	 2.3754170527e+000
 1.4576914503e+000	 4.4806320500e-001	 2.3037750687e+000
 1.4532468256e+000	 4.6227552809e-001	 2.2271189711e+000
 1.4486525543e+000	 4.7647746733e-001	 2.1452985403e+000
 1.4439082757e+000	 4.9066678230e-001	 2.0581582475e+000
 1.4390136716e+000	 5.0484121544e-001	 1.9655374362e+000
 1.4339684670e+000	 5.1899849297e-001	 1.8672705237e+000
 1.4287724304e+000	 5.3313632591e-001	 1.7631872208e+000
 1.4234253751e+000	 5.4725241107e-001	 1.6531127701e+000
 1.4179271591e+000	 5.6134443207e-001	 1.5368682031e+000
 1.4901683852e+000	 4.2649523301e-001	 2.3798093864e+000
 1.4859538282e+000	 4.4095489614e-001	 2.3126170436e+000
 1.4815880315e+000	 4.5540850345e-001	 2.2404428033e+000
 1.4770705440e+000	 4.6985381544e-001	 2.1631316033e+000
 1.4724009568e+000	 4.8428857336e-001	 2.0805226359e+000
 1.4675789032e+000	 4.9871050005e-001	 1.9924495246e+000
 1.4626040597e+000	 5.1311730094e-001	 1.8987405188e+000
 1.4574761468e+000	 5.2750666498e-001	 1.7992187097e+000
 1.4521949293e+000	 5.4187626568e-001	 1.6937022650e+000
 1.4467602173e+000	 5.5622376207e-001	 1.5820046839e+000
 1.4411718666e+000	 5.7054679981e-001	 1.4639350709e+000
 1.5142033591e+000	 4.3337418838e-001	 2.3257361959e+000
 1.5099208254e+000	 4.4806707189e-001	 2.2583303422e+000
 1.5054846126e+000	 4.6275380189e-001	 2.1858559310e+000
 1.5008942625e+000	 4.7743210279e-001	 2.1081473110e+000
 1.4961493594e+000	 4.9209967938e-001	 2.0250327829e+000
 1.4912495307e+000	 5.0675421779e-001	 1.9363347871e+000
 1.4861944478e+000	 5.2139338644e-001	 1.8418701133e+000
 1.4809838265e+000	 5.3601483700e-001	 1.7414501299e+000
 1.4756174281e+000	 5.5061620545e-001	 1.6348810346e+000
 1.4700950595e+000	 5.6519511307e-001	 1.5219641257e+000
 1.4644165742e+000	 5.7974916755e-001	 1.4024960936e+000
 1.5382383331e+000	 4.4025314375e-001	 2.2796775042e+000
 1.5338878227e+000	 4.5517924763e-001	 2.2122726831e+000
 1.5293811938e+000	 4.7009910033e-001	 2.1397383013e+000
 1.5247179809e+000	 4.8501039013e-001	 2.0618978345e+000
 1.5198977619e+000	 4.9991078540e-001	 1.9785683761e+000
 1.5149201581e+000	 5.1479793553e-001	 1.8895608374e+000
 1.5097848358e+000	 5.2966947193e-001	 1.7946801710e+000
 1.5044915063e+000	 5.4452300902e-001	 1.6937256141e+000
 1.4990399270e+000	 5.5935614522e-001	 1.5864909558e+000
 1.4934299018e+000	 5.7416646408e-001	 1.4727648241e+000
 1.4876612817e+000	 5.8895153529e-001	 1.3523309962e+000
 1.5622733070e+000	 4.4713209913e-001	 2.2413635585e+000
 1.5578548199e+000	 4.6229142338e-001	 2.1741826386e+000
 1.5532777749e+000	 4.7744439878e-001	 2.1018366314e+000
 1.5485416994e+000	 4.9258867748e-001	 2.0241378446e+000
 1.5436461644e+000	 5.0772189142e-001	 1.9408918381e+000
 1.5385907856e+000	 5.2284165328e-001	 1.8518976368e+000
 1.5333752239e+000	 5.3794555743e-001	 1.7569479670e+000
 1.5279991861e+000	 5.5303118103e-001	 1.6558295158e+000
 1.5224624259e+000	 5.6809608499e-001	 1.5483232125e+000
 1.5167647440e+000	 5.8313781508e-001	 1.4342045343e+000
 1.5109059892e+000	 5.9815390303e-001	 1.3132438334e+000
 1.5863082810e+000	 4.5401105450e-001	 2.2105457171e+000
 1.5818218171e+000	 4.6940359912e-001	 2.1438198886e+000
 1.5771743561e+000	 4.8478969722e-001	 2.0719187733e+000
 1.5723654179e+000	 5.0016696483e-001	 1.9946432055e+000
 1.5673945670e+000	 5.1553299745e-001	 1.9117868745e+000
 1.5622614131e+000	 5.3088537102e-001	 1.8231365504e+000
 1.5569656119e+000	 5.4622164294e-001	 1.7284723337e+000
 1.5515068659e+000	 5.6153935305e-001	 1.6275679297e+000
 1.5458849247e+000	 5.7683602476e-001	 1.5201909466e+000
 1.5400995862e+000	 5.9210916608e-001	 1.4061032174e+000
 1.5341506967e+000	 6.0735627077e-001	 1.2850611465e+000
 1.6103432550e+000	 4.6089000987e-001	 2.1869948740e+000
 1.6057888143e+000	 4.7651577487e-001	 2.1209636456e+000
 1.6010709372e+000	 4.9213499566e-001	 2.0497721369e+000
 1.5961891363e+000	 5.0774525217e-001	 1.9732093932e+000
 1.5911429695e+000	 5.2334410347e-001	 1.8910568857e+000
 1.5859320406e+000	 5.3892908877e-001	 1.8030887504e+000
 1.5805560000e+000	 5.5449772844e-001	 1.7090720512e+000
 1.5750145457e+000	 5.7004752507e-001	 1.6087670696e+000
 1.5693074236e+000	 5.8557596453e-001	 1.5019276188e+000
 1.5634344284e+000	 6.0108051709e-001	 1.3883013836e+000
 1.5573954043e+000	 6.1655863851e-001	 1.2676302855e+000
 1.6343782289e+000	 4.6776896524e-001	 2.1705000223e+000
 1.6297558116e+000	 4.8362795061e-001	 2.1054112180e+000
 1.6249675184e+000	 4.9948029411e-001	 2.0352022516e+000
 1.6200128548e+000	 5.1532353952e-001	 1.9596500533e+000
 1.6148913720e+000	 5.3115520949e-001	 1.8785235187e+000
 1.6096026680e+000	 5.4697280651e-001	 1.7915837594e+000
 1.6041463881e+000	 5.6277381394e-001	 1.6985843814e+000
 1.5985222255e+000	 5.7855569709e-001	 1.5992717887e+000
 1.5927299224e+000	 5.9431590430e-001	 1.4933855151e+000
 1.5867692706e+000	 6.1005186809e-001	 1.3806585812e+000
 1.5806401118e+000	 6.2576100625e-001	 1.2609083065e+000
 1.6584132029e+000	 4.7464792061e-001	 2.1608669431e+000
 1.6537228088e+000	 4.9074012636e-001	 2.0969766993e+000
 1.6488640995e+000	 5.0682559255e-001	 2.0280314535e+000
 1.6438365732e+000	 5.2290182687e-001	 1.9537956849e+000
 1.6386397745e+000	 5.3896631552e-001	 1.8740253449e+000
 1.6332732955e+000	 5.5501652426e-001	 1.7884681209e+000
 1.6277367761e+000	 5.7104989944e-001	 1.6968637282e+000
 1.6220299053e+000	 5.8706386911e-001	 1.5989442293e+000
 1.6161524213e+000	 6.0305584408e-001	 1.4944343824e+000
 1.6101041128e+000	 6.1902321909e-001	 1.3830520169e+000
 1.6038848193e+000	 6.3496337399e-001	 1.2640684457e+000
 1.6824481768e+000	 4.8152687598e-001	 2.1579170056e+000
 1.6776898060e+000	 4.9785230211e-001	 2.0954897691e+000
 1.6727606807e+000	 5.1417089100e-001	 2.0280976850e+000
 1.6676602917e+000	 5.3048011422e-001	 1.9554924359e+000
 1.6623881771e+000	 5.4677742155e-001	 1.8774166512e+000
 1.6569439230e+000	 5.6306024200e-001	 1.7936041832e+000
 1.6513271642e+000	 5.7932598494e-001	 1.7037804133e+000
 1.6455375851e+000	 5.9557204113e-001	 1.6076625876e+000
 1.6395749202e+000	 6.1179578385e-001	 1.5049601815e+000
 1.6334389551e+000	 6.2799457010e-001	 1.3950185265e+000
 1.6271295268e+000	 6.4416574173e-001	 1.2745008737e+000
 1.3946824516e+000	 5.5214206433e-001	 1.6215421225e+000
 1.3891255928e+000	 5.6597710858e-001	 1.5536282211e+000
 1.3834199070e+000	 5.7978389160e-001	 1.4772257229e+000
 1.3775653904e+000	 5.9356010237e-001	 1.3921296197e+000
 1.3715620856e+000	 6.0730342120e-001	 1.2981342533e+000
 1.3654100816e+000	 6.2101152078e-001	 1.1950336965e+000
 1.3591095148e+000	 6.3468206740e-001	 1.0960908914e+000
 1.3526605688e+000	 6.4831272205e-001	 9.9449057989e-001
 1.3460634750e+000	 6.6190114160e-001	 8.8495940608e-001
 1.3393185129e+000	 6.7544498003e-001	 7.6757475074e-001
 1.3324260102e+000	 6.8894188956e-001	 6.4242305749e-001
 1.4179271591e+000	 5.6134443207e-001	 1.5368682031e+000
 1.4122776860e+000	 5.7541006039e-001	 1.4664640883e+000
 1.4064769054e+000	 5.8944695646e-001	 1.3882636930e+000
 1.4005248136e+000	 6.0345277075e-001	 1.3020551390e+000
 1.3944214536e+000	 6.1742514488e-001	 1.2076250236e+000
 1.3881669163e+000	 6.3136171280e-001	 1.1123079118e+000
 1.3817613401e+000	 6.4526010186e-001	 1.0181654609e+000
 1.3752049116e+000	 6.5911793409e-001	 9.1655430987e-001
 1.3684978662e+000	 6.7293282730e-001	 8.0755013656e-001
 1.3616404881e+000	 6.8670239636e-001	 6.9123742461e-001
 1.3546331104e+000	 7.0042425438e-001	 5.6770942175e-001
 1.4411718666e+000	 5.7054679981e-001	 1.4639350709e+000
 1.4354297792e+000	 5.8484301220e-001	 1.3914910529e+000
 1.4295339039e+000	 5.9911002132e-001	 1.3119348649e+000
 1.4234842367e+000	 6.1334543912e-001	 1.2250470253e+000
 1.4172808217e+000	 6.2754686857e-001	 1.1331464600e+000
 1.4109237510e+000	 6.4171190481e-001	 1.0455261587e+000
 1.4044131653e+000	 6.5583813632e-001	 9.5087125917e-001
 1.3977492544e+000	 6.6992314612e-001	 8.4925628473e-001
 1.3909322575e+000	 6.8396451299e-001	 7.4076433660e-001
 1.3839624633e+000	 6.9795981269e-001	 6.2548705311e-001
 1.3768402106e+000	 7.1190661921e-001	 5.0352455480e-001
 1.4644165742e+000	 5.7974916755e-001	 1.4024960936e+000
 1.4585818724e+000	 5.9427596401e-001	 1.3284674759e+000
 1.4525909023e+000	 6.0877308618e-001	 1.2480036686e+000
 1.4464436599e+000	 6.2323810749e-001	 1.1608768498e+000
 1.4401401898e+000	 6.3766859226e-001	 1.0774622911e+000
 1.4336805857e+000	 6.5206209682e-001	 9.8887354164e-001
 1.4270649905e+000	 6.6641617078e-001	 8.9373008515e-001
 1.4202935972e+000	 6.8072835815e-001	 7.9211415079e-001
 1.4133666487e+000	 6.9499619869e-001	 6.8411630667e-001
 1.4062844385e+000	 7.0921722903e-001	 5.6983540586e-001
 1.3990473107e+000	 7.2338898403e-001	 4.4937851827e-001
 1.4876612817e+000	 5.8895153529e-001	 1.3523309962e+000
 1.4817339656e+000	 6.0370891582e-001	 1.2771784615e+000
 1.4756479008e+000	 6.1843615104e-001	 1.1962616117e+000
 1.4694030831e+000	 6.3313077587e-001	 1.1147632665e+000
 1.4629995579e+000	 6.4779031595e-001	 1.0314223870e+000
 1.4564374204e+000	 6.6241228884e-001	 9.4190456986e-001
 1.4497168158e+000	 6.7699420523e-001	 8.4629161665e-001
 1.4428379400e+000	 6.9153357019e-001	 7.4467349803e-001
 1.4358010400e+000	 7.0602788438e-001	 6.3714830089e-001
 1.4286064137e+000	 7.2047464536e-001	 5.2382216101e-001
 1.4212544109e+000	 7.3487134886e-001	 4.0480918181e-001
 1.5109059892e+000	 5.9815390303e-001	 1.3132438334e+000
 1.5048860588e+000	 6.1314186763e-001	 1.2374338006e+000
 1.4987048992e+000	 6.2809921590e-001	 1.1581214119e+000
 1.4923625062e+000	 6.4302344424e-001	 1.0792802166e+000
 1.4858589260e+000	 6.5791203963e-001	 9.9461228726e-001
 1.4791942551e+000	 6.7276248085e-001	 9.0419937673e-001
 1.4723686410e+000	 6.8757223969e-001	 8.0813126576e-001
 1.4653822828e+000	 7.0233878223e-001	 7.0650571064e-001
 1.4582354312e+000	 7.1705957007e-001	 5.9942837681e-001
 1.4509283889e+000	 7.3173206170e-001	 4.8701275846e-001
 1.4434615111e+000	 7.4635371369e-001	 3.6938008394e-001
 1.5341506967e+000	 6.0735627077e-001	 1.2850611465e+000
 1.5280381520e+000	 6.2257481944e-001	 1.2090661003e+000
 1.5217618977e+000	 6.3776228076e-001	 1.1331135349e+000
 1.5153219294e+000	 6.5291611261e-001	 1.0525882964e+000
 1.5087182941e+000	 6.6803376332e-001	 9.6664106630e-001
 1.5019510898e+000	 6.8311267287e-001	 8.7536177841e-001
 1.4950204663e+000	 6.9815027415e-001	 7.7884822930e-001
 1.4879266257e+000	 7.1314399426e-001	 6.7720601282e-001
 1.4806698225e+000	 7.2809125577e-001	 5.7054844056e-001
 1.4732503641e+000	 7.4298947803e-001	 4.5899644816e-001
 1.4656686112e+000	 7.5783607852e-001	 3.4267848749e-001
 1.5573954043e+000	 6.1655863851e-001	 1.2676302855e+000
 1.5511902453e+000	 6.3200777125e-001	 1.1934955121e+000
 1.5448188961e+000	 6.4742534562e-001	 1.1164728351e+000
 1.5382813526e+000	 6.6280878099e-001	 1.0343240677e+000
 1.5315776622e+000	 6.7815548701e-001	 9.4713957678e-001
 1.5247079245e+000	 6.9346286488e-001	 8.5501750657e-001
 1.5176722915e+000	 7.0872830861e-001	 7.5806371385e-001
 1.5104709685e+000	 7.2394920630e-001	 6.5639168978e-001
 1.5031042137e+000	 7.3912294146e-001	 5.5012246712e-001
 1.4955723393e+000	 7.5424689437e-001	 4.3938451329e-001
 1.4878757114e+000	 7.6931844334e-001	 3.2431360911e-001
 1.5806401118e+000	 6.2576100625e-001	 1.2609083065e+000
 1.5743423385e+000	 6.4144072306e-001	 1.1868137092e+000
 1.5678758946e+000	 6.5708841048e-001	 1.1078619685e+000
 1.5612407758e+000	 6.7270144936e-001	 1.0241441028e+000
 1.5544370303e+000	 6.8827721070e-001	 9.3575884849e-001
 1.5474647592e+000	 7.0381305690e-001	 8.4281259691e-001
 1.5403241168e+000	 7.1930634307e-001	 7.4541931735e-001
 1.5330153113e+000	 7.3475441833e-001	 6.4370046551e-001
 1.5255386050e+000	 7.5015462716e-001	 5.3778487763e-001
 1.5178943146e+000	 7.6550431070e-001	 4.2780865012e-001
 1.5100828116e+000	 7.8080080817e-001	 3.1391500502e-001
 1.6038848193e+000	 6.3496337399e-001	 1.2640684457e+000
 1.5974944317e+000	 6.5087367487e-001	 1.1877767686e+000
 1.5909328930e+000	 6.6675147534e-001	 1.1069619610e+000
 1.5842001989e+000	 6.8259411774e-001	 1.0217235350e+000
 1.5772963984e+000	 6.9839893439e-001	 9.3216862613e-001
 1.5702215939e+000	 7.1416324891e-001	 8.3841191784e-001
 1.5629759420e+000	 7.2988437753e-001	 7.4057555149e-001
 1.5555596541e+000	 7.4555963037e-001	 6.3878902180e-001
 1.5479729962e+000	 7.6118631286e-001	 5.3318905774e-001
 1.5402162898e+000	 7.7676172704e-001	 4.2391948886e-001
 1.5322899118e+000	 7.9228317300e-001	 3.1113109715e-001
 1.6271295268e+000	 6.4416574173e-001	 1.2745008737e+000
 1.6206465249e+000	 6.6030662669e-001	 1.1960889532e+000
 1.6139898915e+000	 6.7641454021e-001	 1.1134708964e+000
 1.6071596221e+000	 6.9248678611e-001	 1.0267547322e+000
 1.6001557665e+000	 7.0852065808e-001	 9.3605603258e-001
 1.5929784285e+000	 7.2451344093e-001	 8.4149782535e-001
 1.5856277673e+000	 7.4046241198e-001	 7.4321049074e-001
 1.5781039969e+000	 7.5636484241e-001	 6.4133164402e-001
 1.5704073875e+000	 7.7221799855e-001	 5.3600600305e-001
 1.5625382650e+000	 7.8801914338e-001	 4.2738524116e-001
 1.5544970119e+000	 8.0376553783e-001	 3.1562782554e-001
 1.3324260102e+000	 6.8894188956e-001	 6.4242305749e-001
 1.3253863434e+000	 7.0238952194e-001	 5.5211179288e-001
 1.3181999376e+000	 7.1578552965e-001	 4.6163511617e-001
 1.3108672667e+000	 7.2912756712e-001	 3.7112740622e-001
 1.3033888536e+000	 7.4241329201e-001	 2.8072554166e-001
 1.2957652706e+000	 7.5564036645e-001	 1.9056872197e-001
 1.2879971388e+000	 7.6880645833e-001	 1.0079828169e-001
 1.2800851286e+000	 7.8190924254e-001	 1.1557498067e-002
 1.2720299594e+000	 7.9494640225e-001	-7.7008607388e-002
 1.2638323996e+000	 8.0791563023e-001	-1.6475347320e-001
 1.2554932668e+000	 8.2081463007e-001	-2.5152920765e-001
 1.3546331104e+000	 7.0042425438e-001	 5.6770942175e-001
 1.3474761158e+000	 7.1409601397e-001	 4.7915513812e-001
 1.3401699365e+000	 7.2771528847e-001	 3.9015838150e-001
 1.3327150544e+000	 7.4127969323e-001	 3.0085275026e-001
 1.3251120012e+000	 7.5478684687e-001	 2.1137467159e-001
 1.3173613584e+000	 7.6823437256e-001	 1.2186322275e-001
 1.3094637578e+000	 7.8161989930e-001	 3.2459945002e-002
 1.3014198807e+000	 7.9494106324e-001	-5.6691349535e-002
 1.2932304587e+000	 8.0819550895e-001	-1.4544477775e-001
 1.2848962730e+000	 8.2138089073e-001	-2.3365259172e-001
 1.2764181546e+000	 8.3449487390e-001	-3.2116539085e-001
 1.3768402106e+000	 7.1190661921e-001	 5.0352455480e-001
 1.3695658882e+000	 7.2580250600e-001	 4.1646762672e-001
 1.3621399355e+000	 7.3964504730e-001	 3.2869649541e-001
 1.3545628422e+000	 7.5343181935e-001	 2.4034428990e-001
 1.3468351487e+000	 7.6716040174e-001	 1.5154729805e-001
 1.3389574463e+000	 7.8082837866e-001	 6.2444787637e-002
 1.3309303768e+000	 7.9443334027e-001	-2.6821180471e-002
 1.3227546328e+000	 8.0797288395e-001	-1.1610594670e-001
 1.3144309580e+000	 8.2144461565e-001	-2.0526245441e-001
 1.3059601463e+000	 8.3484615123e-001	-2.9414145843e-001
 1.2973430424e+000	 8.4817511773e-001	-3.8259174007e-001
 1.3990473107e+000	 7.2338898403e-001	 4.4937851827e-001
 1.3916556606e+000	 7.3750899804e-001	 3.6356700709e-001
 1.3841099345e+000	 7.5157480613e-001	 2.7677445346e-001
 1.3764106300e+000	 7.6558394547e-001	 1.8913382565e-001
 1.3685582963e+000	 7.7953395660e-001	 1.0078158205e-001
 1.3605535341e+000	 7.9342238477e-001	 1.1857491650e-002
 1.3523969957e+000	 8.0724678124e-001	-7.7495553890e-002
 1.3440893850e+000	 8.2100470466e-001	-1.6713173630e-001
 1.3356314573e+000	 8.3469372236e-001	-2.5690251459e-001
 1.3270240196e+000	 8.4831141173e-001	-3.4665683631e-001
 1.3182679302e+000	 8.6185536157e-001	-4.3624135589e-001
 1.4212544109e+000	 7.3487134886e-001	 4.0480918181e-001
 1.4137454330e+000	 7.4921549007e-001	 3.1999814416e-001
 1.4060799334e+000	 7.6350456496e-001	 2.3394370029e-001
 1.3982584178e+000	 7.7773607159e-001	 1.4677896409e-001
 1.3902814439e+000	 7.9190751147e-001	 5.8640872419e-002
 1.3821496220e+000	 8.0601639088e-001	-3.0329995393e-002
 1.3738636147e+000	 8.2006022222e-001	-1.1998960701e-001
 1.3654241371e+000	 8.3403652537e-001	-2.1019067528e-001
 1.3568319566e+000	 8.4794282906e-001	-3.0078286471e-001
 1.3480878930e+000	 8.6177667223e-001	-3.9161300599e-001
 1.3391928179e+000	 8.7553560540e-001	-4.8252531805e-001
 1.4434615111e+000	 7.4635371369e-001	 3.6938008394e-001
 1.4358352054e+000	 7.6092198210e-001	 2.8533093352e-001
 1.4280499324e+000	 7.7543432378e-001	 1.9978009508e-001
 1.4201062055e+000	 7.8988819771e-001	 1.1286113273e-001
 1.4120045914e+000	 8.0428106634e-001	 2.4711768265e-002
 1.4037457098e+000	 8.1861039699e-001	-6.4526300768e-002
 1.3953302337e+000	 8.3287366319e-001	-1.5470759245e-001
 1.3867588893e+000	 8.4706834608e-001	-2.4568304119e-001
 1.3780324560e+000	 8.6119193577e-001	-3.3730020731e-001
 1.3691517663e+000	 8.7524193274e-001	-4.2940349516e-001
 1.3601177057e+000	 8.8921584923e-001	-5.2183437934e-001
 1.4656686112e+000	 7.5783607852e-001	 3.4267848749e-001
 1.4579249778e+000	 7.7262847414e-001	 2.5915840513e-001
 1.4500199313e+000	 7.8736408261e-001	 1.7388206193e-001
 1.4419539933e+000	 8.0204032383e-001	 8.6983775435e-002
 1.4337277390e+000	 8.1665462121e-001	-1.3976423857e-003
 1.4253417977e+000	 8.3120440310e-001	-9.1119068766e-002
 1.4167968527e+000	 8.4568710416e-001	-1.8203326392e-001
 1.4080936414e+000	 8.6010016679e-001	-2.7398907466e-001
 1.3992329553e+000	 8.7444104247e-001	-3.6683164748e-001
 1.3902156396e+000	 8.8870719324e-001	-4.6040265074e-001
 1.3810425935e+000	 9.0289609307e-001	-5.5454050553e-001
 1.4878757114e+000	 7.6931844334e-001	 3.2431360911e-001
 1.4800147502e+000	 7.8433496617e-001	 2.4109499688e-001
 1.4719899303e+000	 7.9929384144e-001	 1.5586890596e-001
 1.4638017811e+000	 8.1419244995e-001	 6.8770709383e-002
 1.4554508865e+000	 8.2902817608e-001	-2.0059386258e-002
 1.4469378855e+000	 8.4379840921e-001	-1.1047652658e-001
 1.4382634717e+000	 8.5850054514e-001	-2.0233140599e-001
 1.4294283936e+000	 8.7313198750e-001	-2.9547047460e-001
 1.4204334546e+000	 8.8769014918e-001	-3.8973615528e-001
 1.4112795129e+000	 9.0217245375e-001	-4.8496707033e-001
 1.4019674813e+000	 9.1657633690e-001	-5.8099827739e-001
 1.5100828116e+000	 7.8080080817e-001	 3.1391500502e-001
 1.5021045226e+000	 7.9604145821e-001	 2.3077498050e-001
 1.4939599293e+000	 8.1122360028e-001	 1.4537927791e-001
 1.4856495689e+000	 8.2634457607e-001	 5.7864627048e-002
 1.4771740341e+000	 8.4140173095e-001	-3.1627066969e-002
 1.4685339734e+000	 8.5639241532e-001	-1.2294891206e-001
 1.4597300906e+000	 8.7131398611e-001	-2.1594922890e-001
 1.4507631457e+000	 8.8616380821e-001	-3.1047176163e-001
 1.4416339539e+000	 9.0093925588e-001	-4.0635589926e-001
 1.4323433863e+000	 9.1563771425e-001	-5.0343690726e-001
 1.4228923691e+000	 9.3025658074e-001	-6.0154616900e-001
 1.5322899118e+000	 7.9228317300e-001	 3.1113109715e-001
 1.5241942950e+000	 8.0774795024e-001	 2.2785102430e-001
 1.5159299282e+000	 8.2315335911e-001	 1.4206977228e-001
 1.5074973567e+000	 8.3849670220e-001	 5.3925728414e-002
 1.4988971817e+000	 8.5377528582e-001	-3.6437200043e-002
 1.4901300612e+000	 8.6898642143e-001	-1.2886977724e-001
 1.4811967096e+000	 8.8412742709e-001	-2.2321764202e-001
 1.4720978979e+000	 8.9919562892e-001	-3.1932152284e-001
 1.4628344533e+000	 9.1418836259e-001	-4.1701746392e-001
 1.4534072596e+000	 9.2910297476e-001	-5.1613706224e-001
 1.4438172569e+000	 9.4393682457e-001	-6.1650771490e-001
 1.5544970119e+000	 8.0376553783e-001	 3.1562782554e-001
 1.5462840674e+000	 8.1945444228e-001	 2.3199287914e-001
 1.5378999272e+000	 8.3508311794e-001	 1.4561364565e-001
 1.5293451444e+000	 8.5064882832e-001	 5.6630470443e-002
 1.5206203292e+000	 8.6614884069e-001	-3.4810433483e-002
 1.5117261490e+000	 8.8158042754e-001	-1.2855718023e-001
 1.5026633286e+000	 8.9694086807e-001	-2.2445241826e-001
 1.4934326500e+000	 9.1222744964e-001	-3.2233354994e-001
 1.4840349526e+000	 9.2743746930e-001	-4.2203296289e-001
 1.4744711329e+000	 9.4256823526e-001	-5.2337827279e-001
 1.4647421446e+000	 9.5761706841e-001	-6.2619257717e-001
 1.2554932668e+000	 8.2081463007e-001	-2.5152920765e-001
 1.2470134270e+000	 8.3364111751e-001	-3.3158866432e-001
 1.2383937949e+000	 8.4639282171e-001	-4.3370021824e-001
 1.2296353336e+000	 8.5906748650e-001	-5.3355791591e-001
 1.2207390541e+000	 8.7166287168e-001	-6.3114746188e-001
 1.2117060152e+000	 8.8417675429e-001	-7.2645861406e-001
 1.2025373230e+000	 8.9660692987e-001	-8.1948516180e-001
 1.1932341309e+000	 9.0895121369e-001	-9.1022489508e-001
 1.1837976384e+000	 9.2120744201e-001	-9.9867956500e-001
 1.1742290915e+000	 9.3337347334e-001	-1.0848548354e+000
 1.1645297814e+000	 9.4544718961e-001	-1.1687602260e+000
 1.2764181546e+000	 8.3449487390e-001	-3.2116539085e-001
 1.2677969841e+000	 8.4753513614e-001	-3.9047655406e-001
 1.2590336915e+000	 8.6049936873e-001	-4.5880990768e-001
 1.2501292558e+000	 8.7338527793e-001	-5.2603311981e-001
 1.2410847050e+000	 8.8619058620e-001	-6.2740482559e-001
 1.2319011154e+000	 8.9891303353e-001	-7.2705524554e-001
 1.2225796118e+000	 9.1155037870e-001	-8.2444987072e-001
 1.2131213664e+000	 9.2410040058e-001	-9.1958215393e-001
 1.2035275991e+000	 9.3656089938e-001	-1.0124495347e+000
 1.1937995763e+000	 9.4892969790e-001	-1.1030533925e+000
 1.1839386111e+000	 9.6120464277e-001	-1.1913989908e+000
 1.2973430424e+000	 8.4817511773e-001	-3.8259174007e-001
 1.2885805413e+000	 8.6142915476e-001	-4.5377838894e-001
 1.2796735881e+000	 8.7460591576e-001	-5.2417418223e-001
 1.2706231781e+000	 8.8770306937e-001	-5.9363504459e-001
 1.2614303559e+000	 9.0071830073e-001	-6.6201576333e-001
 1.2520962157e+000	 9.1364931276e-001	-7.2917021717e-001
 1.2426219005e+000	 9.2649382753e-001	-8.2254653305e-001
 1.2330086019e+000	 9.3924958748e-001	-9.2166058729e-001
 1.2232575597e+000	 9.5191435675e-001	-1.0185172369e+000
 1.2133700612e+000	 9.6448592246e-001	-1.1131139197e+000
 1.2033474407e+000	 9.7696209593e-001	-1.2054519993e+000
 1.3182679302e+000	 8.6185536157e-001	-4.3624135589e-001
 1.3093640984e+000	 8.7532317338e-001	-5.0904464460e-001
 1.3003134847e+000	 8.8871246279e-001	-5.8123790069e-001
 1.2911171003e+000	 9.0202086081e-001	-6.5266522077e-001
 1.2817760068e+000	 9.1524601526e-001	-7.2316928523e-001
 1.2722913159e+000	 9.2838559200e-001	-7.9259160232e-001
 1.2626641892e+000	 9.4143727636e-001	-8.6077275651e-001
 1.2528958375e+000	 9.5439877437e-001	-9.2755266066e-001
 1.2429875204e+000	 9.6726781412e-001	-1.0175800666e+000
 1.2329405461e+000	 9.8004214701e-001	-1.1157496531e+000
 1.2227562704e+000	 9.9271954909e-001	-1.2116484744e+000
 1.3391928179e+000	 8.7553560540e-001	-4.8252531805e-001
 1.3301476555e+000	 8.8921719201e-001	-5.5670462097e-001
 1.3209533813e+000	 9.0281900981e-001	-6.3044892057e-001
 1.3116110225e+000	 9.1633865225e-001	-7.0359038994e-001
 1.3021216577e+000	 9.2977372978e-001	-7.7595950947e-001
 1.2924864162e+000	 9.4312187124e-001	-8.4738532660e-001
 1.2827064779e+000	 9.5638072519e-001	-9.1769572019e-001
 1.2727830730e+000	 9.6954796126e-001	-9.8671766931e-001
 1.2627174810e+000	 9.8262127148e-001	-1.0542775255e+000
 1.2525110309e+000	 9.9559837157e-001	-1.1202012885e+000
 1.2421651001e+000	 1.0084770023e+000	-1.2106850340e+000
 1.3601177057e+000	 8.8921584923e-001	-5.2183437934e-001
 1.3509312126e+000	 9.0311121063e-001	-5.9716639975e-001
 1.3415932779e+000	 9.1692555684e-001	-6.7223296981e-001
 1.3321049447e+000	 9.3065644369e-001	-7.4685423300e-001
 1.3224673086e+000	 9.4430144431e-001	-8.2084836586e-001
 1.3126815164e+000	 9.5785815047e-001	-8.9403185356e-001
 1.3027487666e+000	 9.7132417402e-001	-9.6621977069e-001
 1.2926703085e+000	 9.8469714816e-001	-1.0372260668e+000
 1.2824474417e+000	 9.9797472885e-001	-1.1068638563e+000
 1.2720815158e+000	 1.0111545961e+000	-1.1749457111e+000
 1.2615739298e+000	 1.0242344554e+000	-1.2412839570e+000
 1.3810425935e+000	 9.0289609307e-001	-5.5454050553e-001
 1.3717147697e+000	 9.1700522925e-001	-6.3081845188e-001
 1.3622331744e+000	 9.3103210387e-001	-7.0699532324e-001
 1.3525988670e+000	 9.4497423513e-001	-7.8287911720e-001
 1.3428129595e+000	 9.5882915883e-001	-8.5827559210e-001
 1.3328766167e+000	 9.7259442971e-001	-9.3298855870e-001
 1.3227910554e+000	 9.8626762285e-001	-1.0068201777e+000
 1.3125575440e+000	 9.9984633505e-001	-1.0795712625e+000
 1.3021774023e+000	 1.0133281862e+000	-1.1510415863e+000
 1.2916520006e+000	 1.0267108207e+000	-1.2210301933e+000
 1.2809827595e+000	 1.0399919086e+000	-1.2893357131e+000
 1.4019674813e+000	 9.1657633690e-001	-5.8099827739e-001
 1.3924983268e+000	 9.3089924788e-001	-6.5803110103e-001
 1.3828730710e+000	 9.4513865090e-001	-7.3512232896e-001
 1.3730927892e+000	 9.5929202657e-001	-8.1206768671e-001
 1.3631586104e+000	 9.7335687336e-001	-8.8866038990e-001
 1.3530717169e+000	 9.8733070895e-001	-9.6469145245e-001
 1.3428333441e+000	 1.0012110717e+000	-1.0399500010e+000
 1.3324447795e+000	 1.0149955219e+000	-1.1142235951e+000
 1.3219073629e+000	 1.0286816436e+000	-1.1872985523e+000
 1.3112224855e+000	 1.0422670452e+000	-1.2589602777e+000
 1.3003915892e+000	 1.0557493617e+000	-1.3289935966e+000
 1.4228923691e+000	 9.3025658074e-001	-6.0154616900e-001
 1.4132818840e+000	 9.4479326650e-001	-6.7915785795e-001
 1.4035129676e+000	 9.5924519792e-001	-7.5698280001e-001
 1.3935867114e+000	 9.7360981801e-001	-8.3480431283e-001
 1.3835042613e+000	 9.8788458789e-001	-9.1240293503e-001
 1.3732668172e+000	 1.0020669882e+000	-9.8955675115e-001
 1.3628756328e+000	 1.0161545205e+000	-1.0660417234e+000
 1.3523320150e+000	 1.0301447088e+000	-1.1416320295e+000
 1.3416373236e+000	 1.0440351009e+000	-1.2161004061e+000
 1.3307929704e+000	 1.0578232698e+000	-1.2892184968e+000
 1.3198004189e+000	 1.0715068149e+000	-1.3607572042e+000
 1.4438172569e+000	 9.4393682457e-001	-6.1650771490e-001
 1.4340654411e+000	 9.5868728513e-001	-6.9453663881e-001
 1.4241528642e+000	 9.7335174495e-001	-7.7292928500e-001
 1.4140806337e+000	 9.8792760946e-001	-8.5145641812e-001
 1.4038499122e+000	 1.0024123024e+000	-9.2988575595e-001
 1.3934619174e+000	 1.0168032674e+000	-1.0079823114e+000
 1.3829179215e+000	 1.0310979693e+000	-1.0855087418e+000
 1.3722192506e+000	 1.0452938957e+000	-1.1622257051e+000
 1.3613672842e+000	 1.0593885583e+000	-1.2378922216e+000
 1.3503634552e+000	 1.0733794943e+000	-1.3122660408e+000
 1.3392092486e+000	 1.0872642681e+000	-1.3851040129e+000
 1.4647421446e+000	 9.5761706841e-001	-6.2619257717e-001
 1.4548489982e+000	 9.7258130376e-001	-7.0449087908e-001
 1.4447927608e+000	 9.8745829198e-001	-7.8329922988e-001
 1.4345745559e+000	 1.0022454009e+000	-8.6237568704e-001
 1.4241955631e+000	 1.0169400169e+000	-9.4147499437e-001
 1.4136570177e+000	 1.0315395467e+000	-1.0203489414e+000
 1.4029602102e+000	 1.0460414182e+000	-1.0987467308e+000
 1.3921064861e+000	 1.0604430826e+000	-1.1764153526e+000
 1.3810972449e+000	 1.0747420157e+000	-1.2530999652e+000
 1.3699339401e+000	 1.0889357189e+000	-1.3285442815e+000
 1.3586180783e+000	 1.1030217212e+000	-1.4024909596e+000
 1.1645297814e+000	 9.4544718961e-001	-1.1687602260e+000
 1.1547010445e+000	 9.5742649739e-001	-1.2307523889e+000
 1.1447442616e+000	 9.6930932910e-001	-1.2917843594e+000
 1.1346608574e+000	 9.8109364418e-001	-1.3518185554e+000
 1.1244522996e+000	 9.9277743021e-001	-1.4108193568e+000
 1.1141200983e+000	 1.0043587041e+000	-1.4687530683e+000
 1.1036658055e+000	 1.0158355131e+000	-1.5255878789e+000
 1.0930910140e+000	 1.0272059361e+000	-1.5812938144e+000
 1.0823973566e+000	 1.0384680844e+000	-1.6358426865e+000
 1.0715865057e+000	 1.0496201031e+000	-1.6892080372e+000
 1.0606601718e+000	 1.0606601718e+000	-1.7413650778e+000
 1.1839386111e+000	 9.6120464277e-001	-1.1913989908e+000
 1.1739460619e+000	 9.7338360568e-001	-1.2550106675e+000
 1.1638233327e+000	 9.8546448459e-001	-1.3170136007e+000
 1.1535718717e+000	 9.9744520492e-001	-1.3773921882e+000
 1.1431931713e+000	 1.0093237207e+000	-1.4361334871e+000
 1.1326887666e+000	 1.0210980158e+000	-1.4932271508e+000
 1.1220602356e+000	 1.0327661050e+000	-1.5486653601e+000
 1.1113091975e+000	 1.0443260351e+000	-1.6024427485e+000
 1.1004373125e+000	 1.0557758859e+000	-1.6545563211e+000
 1.0894462808e+000	 1.0671137715e+000	-1.7050053687e+000
 1.0783378413e+000	 1.0783378413e+000	-1.7537913761e+000
 1.2033474407e+000	 9.7696209593e-001	-1.2054519993e+000
 1.1931910793e+000	 9.8934071397e-001	-1.2715751471e+000
 1.1829024037e+000	 1.0016196401e+000	-1.3354516919e+000
 1.1724828860e+000	 1.0137967657e+000	-1.3970877748e+000
 1.1619340429e+000	 1.0258700112e+000	-1.4564928901e+000
 1.1512574349e+000	 1.0378373276e+000	-1.5136797966e+000
 1.1404546657e+000	 1.0496966969e+000	-1.5686644214e+000
 1.1295273811e+000	 1.0614461340e+000	-1.6214657561e+000
 1.1184772685e+000	 1.0730836873e+000	-1.6721057471e+000
 1.1073060559e+000	 1.0846074399e+000	-1.7206091788e+000
 1.0960155108e+000	 1.0960155108e+000	-1.7670035514e+000
 1.2227562704e+000	 9.9271954909e-001	-1.2116484744e+000
 1.2124360967e+000	 1.0052978223e+000	-1.2811268314e+000
 1.2019814747e+000	 1.0177747956e+000	-1.3477305109e+000
 1.1913939003e+000	 1.0301483264e+000	-1.4114871857e+000
 1.1806749146e+000	 1.0424163017e+000	-1.4724285738e+000
 1.1698261033e+000	 1.0545766393e+000	-1.5305903233e+000
 1.1588490958e+000	 1.0666272888e+000	-1.5860118882e+000
 1.1477455647e+000	 1.0785662329e+000	-1.6387363975e+000
 1.1365172244e+000	 1.0903914887e+000	-1.6888105151e+000
 1.1251658309e+000	 1.1021011083e+000	-1.7362842931e+000
 1.1136931804e+000	 1.1136931804e+000	-1.7812110184e+000
 1.2421651001e+000	 1.0084770023e+000	-1.2106850340e+000
 1.2316811141e+000	 1.0212549306e+000	-1.2843169778e+000
 1.2210605457e+000	 1.0339299511e+000	-1.3544550956e+000
 1.2103049146e+000	 1.0464998871e+000	-1.4211484051e+000
 1.1994157862e+000	 1.0589625922e+000	-1.4844506588e+000
 1.1883947716e+000	 1.0713159510e+000	-1.5444202029e+000
 1.1772435259e+000	 1.0835578807e+000	-1.6011198261e+000
 1.1659637482e+000	 1.0956863319e+000	-1.6546165997e+000
 1.1545571804e+000	 1.1076992901e+000	-1.7049817085e+000
 1.1430256060e+000	 1.1195947767e+000	-1.7522902742e+000
 1.1313708499e+000	 1.1313708499e+000	-1.7966211696e+000
 1.2615739298e+000	 1.0242344554e+000	-1.2412839570e+000
 1.2509261315e+000	 1.0372120388e+000	-1.2847829912e+000
 1.2401396168e+000	 1.0500851065e+000	-1.3562057089e+000
 1.2292159289e+000	 1.0628514479e+000	-1.4266073679e+000
 1.2181566579e+000	 1.0755088827e+000	-1.4930499842e+000
 1.2069634399e+000	 1.0880552628e+000	-1.5556144353e+000
 1.1956379560e+000	 1.1004884726e+000	-1.6143866761e+000
 1.1841819318e+000	 1.1128064308e+000	-1.6694575509e+000
 1.1725971363e+000	 1.1250070915e+000	-1.7209225947e+000
 1.1608853811e+000	 1.1370884451e+000	-1.7688818262e+000
 1.1490485194e+000	 1.1490485194e+000	-1.8134395310e+000
 1.2809827595e+000	 1.0399919086e+000	-1.2893357131e+000
 1.2701711489e+000	 1.0531691471e+000	-1.3381722318e+000
 1.2592186878e+000	 1.0662402620e+000	-1.3826004594e+000
 1.2481269432e+000	 1.0792030086e+000	-1.4283796305e+000
 1.2368975296e+000	 1.0920551733e+000	-1.4986995690e+000
 1.2255321082e+000	 1.1047945745e+000	-1.5646027956e+000
 1.2140323861e+000	 1.1174190645e+000	-1.6261982869e+000
 1.2024001154e+000	 1.1299265297e+000	-1.6836005144e+000
 1.1906370923e+000	 1.1423148929e+000	-1.7369292171e+000
 1.1787451562e+000	 1.1545821135e+000	-1.7863091632e+000
 1.1667261890e+000	 1.1667261890e+000	-1.8318699030e+000
 1.3003915892e+000	 1.0557493617e+000	-1.3289935966e+000
 1.2894161663e+000	 1.0691262554e+000	-1.3839889858e+000
 1.2782977588e+000	 1.0823954175e+000	-1.4340679995e+000
 1.2670379575e+000	 1.0955545694e+000	-1.4791282642e+000
 1.2556384012e+000	 1.1086014638e+000	-1.5190709698e+000
 1.2441007765e+000	 1.1215338863e+000	-1.5718009709e+000
 1.2324268162e+000	 1.1343496563e+000	-1.6369288547e+000
 1.2206182989e+000	 1.1470466287e+000	-1.6973775693e+000
 1.2086770482e+000	 1.1596226943e+000	-1.7532909343e+000
 1.1966049313e+000	 1.1720757818e+000	-1.8048183441e+000
 1.1844038585e+000	 1.1844038585e+000	-1.8521144894e+000
 1.3198004189e+000	 1.0715068149e+000	-1.3607572042e+000
 1.3086611837e+000	 1.0850833637e+000	-1.4227030214e+000
 1.2973768299e+000	 1.0985505730e+000	-1.4792350244e+000
 1.2859489718e+000	 1.1119061301e+000	-1.5302588486e+000
 1.2743792729e+000	 1.1251477543e+000	-1.5756841849e+000
 1.2626694448e+000	 1.1382731980e+000	-1.6154250019e+000
 1.2508212463e+000	 1.1512802482e+000	-1.6493997621e+000
 1.2388364825e+000	 1.1641667276e+000	-1.7111122854e+000
 1.2267170042e+000	 1.1769304957e+000	-1.7702909117e+000
 1.2144647064e+000	 1.1895694502e+000	-1.8246515783e+000
 1.2020815280e+000	 1.2020815280e+000	-1.8743740150e+000
 1.3392092486e+000	 1.0872642681e+000	-1.3851040129e+000
 1.3279062012e+000	 1.1010404720e+000	-1.4547639259e+000
 1.3164559009e+000	 1.1147057285e+000	-1.5185226627e+000
 1.3048599860e+000	 1.1282576908e+000	-1.5762932940e+000
 1.2931201445e+000	 1.1416940448e+000	-1.6279934325e+000
 1.2812381131e+000	 1.1550125097e+000	-1.6735454521e+000
 1.2692156764e+000	 1.1682108401e+000	-1.7128767014e+000
 1.2570546661e+000	 1.1812868266e+000	-1.7459197104e+000
 1.2447569601e+000	 1.1942382971e+000	-1.7882065702e+000
 1.2323244815e+000	 1.2070631186e+000	-1.8460475043e+000
 1.2197591976e+000	 1.2197591976e+000	-1.8988478327e+000
 1.3586180783e+000	 1.1030217212e+000	-1.4024909596e+000
 1.3471512186e+000	 1.1169975803e+000	-1.4806025475e+000
 1.3355349719e+000	 1.1308608840e+000	-1.5523351345e+000
 1.3237710003e+000	 1.1446092516e+000	-1.6176086627e+000
 1.3118610162e+000	 1.1582403353e+000	-1.6763480960e+000
 1.2998067814e+000	 1.1717518215e+000	-1.7284836384e+000
 1.2876101065e+000	 1.1851414320e+000	-1.7739509448e+000
 1.2752728496e+000	 1.1984069255e+000	-1.8126913243e+000
 1.2627969161e+000	 1.2115460986e+000	-1.8446519358e+000
 1.2501842566e+000	 1.2245567870e+000	-1.8697859748e+000
 1.2374368671e+000	 1.2374368671e+000	-1.9257340211e+000
 1.0606601718e+000	 1.0606601718e+000	-1.7413650778e+000
 1.0496201031e+000	 1.0715865057e+000	-1.7849829844e+000
 1.0384680844e+000	 1.0823973566e+000	-1.8261187017e+000
 1.0272059361e+000	 1.0930910140e+000	-1.8647749926e+000
 1.0158355131e+000	 1.1036658055e+000	-1.9009570892e+000
 1.0043587041e+000	 1.1141200983e+000	-1.9346725891e+000
 9.9277743021e-001	 1.1244522996e+000	-1.9659313473e+000
 9.8109364418e-001	 1.1346608574e+000	-1.9947453652e+000
 9.6930932910e-001	 1.1447442616e+000	-2.0211286747e+000
 9.5742649739e-001	 1.1547010445e+000	-2.0450972212e+000
 9.4544718961e-001	 1.1645297814e+000	-2.0666687424e+000
 1.0783378413e+000	 1.0783378413e+000	-1.7537913761e+000
 1.0671137715e+000	 1.0894462808e+000	-1.7948899762e+000
 1.0557758859e+000	 1.1004373125e+000	-1.8334458862e+000
 1.0443260351e+000	 1.1113091975e+000	-1.8694916722e+000
 1.0327661050e+000	 1.1220602356e+000	-1.9030624405e+000
 1.0210980158e+000	 1.1326887666e+000	-1.9341956974e+000
 1.0093237207e+000	 1.1431931713e+000	-1.9629312044e+000
 9.9744520492e-001	 1.1535718717e+000	-1.9893108304e+000
 9.8546448459e-001	 1.1638233327e+000	-2.0133783997e+000
 9.7338360568e-001	 1.1739460619e+000	-2.0351795377e+000
 9.6120464277e-001	 1.1839386111e+000	-2.0547615143e+000
 1.0960155108e+000	 1.0960155108e+000	-1.7670035514e+000
 1.0846074399e+000	 1.1073060559e+000	-1.8066881109e+000
 1.0730836873e+000	 1.1184772685e+000	-1.8437667143e+000
 1.0614461340e+000	 1.1295273811e+000	-1.8783014155e+000
 1.0496966969e+000	 1.1404546657e+000	-1.9103568840e+000
 1.0378373276e+000	 1.1512574349e+000	-1.9400002284e+000
 1.0258700112e+000	 1.1619340429e+000	-1.9673008147e+000
 1.0137967657e+000	 1.1724828860e+000	-1.9923300818e+000
 1.0016196401e+000	 1.1829024037e+000	-2.0151613535e+000
 9.8934071397e-001	 1.1931910793e+000	-2.0358696473e+000
 9.7696209593e-001	 1.2033474407e+000	-2.0545314819e+000
 1.1136931804e+000	 1.1136931804e+000	-1.7812110184e+000
 1.1021011083e+000	 1.1251658309e+000	-1.8205251456e+000
 1.0903914887e+000	 1.1365172244e+000	-1.8571671818e+000
 1.0785662329e+000	 1.1477455647e+000	-1.8912283867e+000
 1.0666272888e+000	 1.1588490958e+000	-1.9228027159e+000
 1.0545766393e+000	 1.1698261033e+000	-1.9519866067e+000
 1.0424163017e+000	 1.1806749146e+000	-1.9788787614e+000
 1.0301483264e+000	 1.1913939003e+000	-2.0035799249e+000
 1.0177747956e+000	 1.2019814747e+000	-2.0261926609e+000
 1.0052978223e+000	 1.2124360967e+000	-2.0468211242e+000
 9.9271954909e-001	 1.2227562704e+000	-2.0655708319e+000
 1.1313708499e+000	 1.1313708499e+000	-1.7966211696e+000
 1.1195947767e+000	 1.1430256060e+000	-1.8365504404e+000
 1.1076992901e+000	 1.1545571804e+000	-1.8737385137e+000
 1.0956863319e+000	 1.1659637482e+000	-1.9083056049e+000
 1.0835578807e+000	 1.1772435259e+000	-1.9403747094e+000
 1.0713159510e+000	 1.1883947716e+000	-1.9700713525e+000
 1.0589625922e+000	 1.1994157862e+000	-1.9975233355e+000
 1.0464998871e+000	 1.2103049146e+000	-2.0228604772e+000
 1.0339299511e+000	 1.2210605457e+000	-2.0462143533e+000
 1.0212549306e+000	 1.2316811141e+000	-2.0677180328e+000
 1.0084770023e+000	 1.2421651001e+000	-2.0875058119e+000
 1.1490485194e+000	 1.1490485194e+000	-1.8134395310e+000
 1.1370884451e+000	 1.1608853811e+000	-1.8549148351e+000
 1.1250070915e+000	 1.1725971363e+000	-1.8935767619e+000
 1.1128064308e+000	 1.1841819318e+000	-1.9295742621e+000
 1.1004884726e+000	 1.1956379560e+000	-1.9630591553e+000
 1.0880552628e+000	 1.2069634399e+000	-1.9941858433e+000
 1.0755088827e+000	 1.2181566579e+000	-2.0231110197e+000
 1.0628514479e+000	 1.2292159289e+000	-2.0499933752e+000
 1.0500851065e+000	 1.2401396168e+000	-2.0749932996e+000
 1.0372120388e+000	 1.2509261315e+000	-2.0952271786e+000
 1.0242344554e+000	 1.2615739298e+000	-2.0810964595e+000
 1.1667261890e+000	 1.1667261890e+000	-1.8318699030e+000
 1.1545821135e+000	 1.1787451562e+000	-1.8757705371e+000
 1.1423148929e+000	 1.1906370923e+000	-1.9167824397e+000
 1.1299265297e+000	 1.2024001154e+000	-1.9550831050e+000
 1.1174190645e+000	 1.2140323861e+000	-1.9908529893e+000
 1.1047945745e+000	 1.2255321082e+000	-2.0242751886e+000
 1.0920551733e+000	 1.2368975296e+000	-2.0555351106e+000
 1.0792030086e+000	 1.2481269432e+000	-2.0848201440e+000
 1.0662402620e+000	 1.2592186878e+000	-2.0841433056e+000
 1.0531691471e+000	 1.2701711489e+000	-2.0753727068e+000
 1.0399919086e+000	 1.2809827595e+000	-2.0641262979e+000
 1.1844038585e+000	 1.1844038585e+000	-1.8521144894e+000
 1.1720757818e+000	 1.1966049313e+000	-1.8992710195e+000
 1.1596226943e+000	 1.2086770482e+000	-1.9434601889e+000
 1.1470466287e+000	 1.2206182989e+000	-1.9848878705e+000
 1.1343496563e+000	 1.2324268162e+000	-2.0237629977e+000
 1.1215338863e+000	 1.2441007765e+000	-2.0602972048e+000
 1.1086014638e+000	 1.2556384012e+000	-2.0788384007e+000
 1.0955545694e+000	 1.2670379575e+000	-2.0785891311e+000
 1.0823954175e+000	 1.2782977588e+000	-2.0759629847e+000
 1.0691262554e+000	 1.2894161663e+000	-2.0709659575e+000
 1.0557493617e+000	 1.3003915892e+000	-2.0636048154e+000
 1.2020815280e+000	 1.2020815280e+000	-1.8743740150e+000
 1.1895694502e+000	 1.2144647064e+000	-1.9255709277e+000
 1.1769304957e+000	 1.2267170042e+000	-1.9737184758e+000
 1.1641667276e+000	 1.2388364825e+000	-2.0190507721e+000
 1.1512802482e+000	 1.2508212463e+000	-2.0596410511e+000
 1.1382731980e+000	 1.2626694448e+000	-2.0685980191e+000
 1.1251477543e+000	 1.2743792729e+000	-2.0752204504e+000
 1.1119061301e+000	 1.2859489718e+000	-2.0795282493e+000
 1.0985505730e+000	 1.2973768299e+000	-2.0815416783e+000
 1.0850833637e+000	 1.3086611837e+000	-2.0812814437e+000
 1.0715068149e+000	 1.3198004189e+000	-2.0787687854e+000
 1.2197591976e+000	 1.2197591976e+000	-1.8988478327e+000
 1.2070631186e+000	 1.2323244815e+000	-1.9548259949e+000
 1.1942382971e+000	 1.2447569601e+000	-2.0076693147e+000
 1.1812868266e+000	 1.2570546661e+000	-2.0398642615e+000
 1.1682108401e+000	 1.2692156764e+000	-2.0564919162e+000
 1.1550125097e+000	 1.2812381131e+000	-2.0708059339e+000
 1.1416940448e+000	 1.2931201445e+000	-2.0828406803e+000
 1.1282576908e+000	 1.3048599860e+000	-2.0926305867e+000
 1.1147057285e+000	 1.3164559009e+000	-2.1002102210e+000
 1.1010404720e+000	 1.3279062012e+000	-2.1056143642e+000
 1.0872642681e+000	 1.3392092486e+000	-2.1088780890e+000
 1.2374368671e+000	 1.2374368671e+000	-1.9257340211e+000
 1.2245567870e+000	 1.2501842566e+000	-1.9867411798e+000
 1.2115460986e+000	 1.2627969161e+000	-2.0142523109e+000
 1.1984069255e+000	 1.2752728496e+000	-2.0393963677e+000
 1.1851414320e+000	 1.2876101065e+000	-2.0622223169e+000
 1.1717518215e+000	 1.2998067814e+000	-2.0827788656e+000
 1.1582403353e+000	 1.3118610162e+000	-2.1011145126e+000
 1.1446092516e+000	 1.3237710003e+000	-2.1172776046e+000
 1.1308608840e+000	 1.3355349719e+000	-2.1313163981e+000
 1.1169975803e+000	 1.3471512186e+000	-2.1432791252e+000
 1.1030217212e+000	 1.3586180783e+000	-2.1532140645e+000
 9.4544718961e-001	 1.1645297814e+000	-2.0666687424e+000
 9.3337347334e-001	 1.1742290915e+000	-2.0981323028e+000
 9.2120744201e-001	 1.1837976384e+000	-2.1277284703e+000
 9.0895121369e-001	 1.1932341309e+000	-2.1555809855e+000
 8.9660692987e-001	 1.2025373230e+000	-2.1818139106e+000
 8.8417675429e-001	 1.2117060152e+000	-2.2065513971e+000
 8.7166287168e-001	 1.2207390541e+000	-2.2299174567e+000
 8.5906748650e-001	 1.2296353336e+000	-2.2520357323e+000
 8.4639282171e-001	 1.2383937949e+000	-2.2730292738e+000
 8.3364111751e-001	 1.2470134270e+000	-2.2930203155e+000
 8.2081463007e-001	 1.2554932668e+000	-2.2806057978e+000
 9.6120464277e-001	 1.1839386111e+000	-2.0547615143e+000
 9.4892969790e-001	 1.1937995763e+000	-2.0890524838e+000
 9.3656089938e-001	 1.2035275991e+000	-2.1217135267e+000
 9.2410040058e-001	 1.2131213664e+000	-2.1528642463e+000
 9.1155037870e-001	 1.2225796118e+000	-2.1826244125e+000
 8.9891303353e-001	 1.2319011154e+000	-2.2111137302e+000
 8.8619058620e-001	 1.2410847050e+000	-2.2384516090e+000
 8.7338527793e-001	 1.2501292558e+000	-2.2641095941e+000
 8.6049936873e-001	 1.2590336915e+000	-2.2435623898e+000
 8.4753513614e-001	 1.2677969841e+000	-2.2201924993e+000
 8.3449487390e-001	 1.2764181546e+000	-2.1939972801e+000
 9.7696209593e-001	 1.2033474407e+000	-2.0545314819e+000
 9.6448592246e-001	 1.2133700612e+000	-2.0910085009e+000
 9.5191435675e-001	 1.2232575597e+000	-2.1260878919e+000
 9.3924958748e-001	 1.2330086019e+000	-2.1598856676e+000
 9.2649382753e-001	 1.2426219005e+000	-2.1925178543e+000
 9.1364931276e-001	 1.2520962157e+000	-2.2146770616e+000
 9.0071830073e-001	 1.2614303559e+000	-2.2018758181e+000
 8.8770306937e-001	 1.2706231781e+000	-2.1863473112e+000
 8.7460591576e-001	 1.2796735881e+000	-2.1680690703e+000
 8.6142915476e-001	 1.2885805413e+000	-2.1470210684e+000
 8.4817511773e-001	 1.2973430424e+000	-2.1231858357e+000
 9.9271954909e-001	 1.2227562704e+000	-2.0655708319e+000
 9.8004214701e-001	 1.2329405461e+000	-2.1036125554e+000
 9.6726781412e-001	 1.2429875204e+000	-2.1404839849e+000
 9.5439877437e-001	 1.2528958375e+000	-2.1646099888e+000
 9.4143727636e-001	 1.2626641892e+000	-2.1586418404e+000
 9.2838559200e-001	 1.2722913159e+000	-2.1501074721e+000
 9.1524601526e-001	 1.2817760068e+000	-2.1389652635e+000
 9.0202086081e-001	 1.2911171003e+000	-2.1251757229e+000
 8.8871246279e-001	 1.3003134847e+000	-2.1087016262e+000
 8.7532317338e-001	 1.3093640984e+000	-2.0895081547e+000
 8.6185536157e-001	 1.3182679302e+000	-2.0675630294e+000
 1.0084770023e+000	 1.2421651001e+000	-2.0875058119e+000
 9.9559837157e-001	 1.2525110309e+000	-2.1173865775e+000
 9.8262127148e-001	 1.2627174810e+000	-2.1171897651e+000
 9.6954796126e-001	 1.2727830730e+000	-2.1146516183e+000
 9.5638072519e-001	 1.2827064779e+000	-2.1097123076e+000
 9.4312187124e-001	 1.2924864162e+000	-2.1023137227e+000
 9.2977372978e-001	 1.3021216577e+000	-2.0923996372e+000
 9.1633865225e-001	 1.3116110225e+000	-2.0799158700e+000
 9.0281900981e-001	 1.3209533813e+000	-2.0648104472e+000
 8.8921719201e-001	 1.3301476555e+000	-2.0470337599e+000
 8.7553560540e-001	 1.3391928179e+000	-2.0265387199e+000
 1.0242344554e+000	 1.2615739298e+000	-2.0810964595e+000
 1.0111545961e+000	 1.2720815158e+000	-2.0834073197e+000
 9.9797472885e-001	 1.2824474417e+000	-2.0835863320e+000
 9.8469714816e-001	 1.2926703085e+000	-2.0815578784e+000
 9.7132417402e-001	 1.3027487666e+000	-2.0772477468e+000
 9.5785815047e-001	 1.3126815164e+000	-2.0705833173e+000
 9.4430144431e-001	 1.3224673086e+000	-2.0614937470e+000
 9.3065644369e-001	 1.3321049447e+000	-2.0499101543e+000
 9.1692555684e-001	 1.3415932779e+000	-2.0357658008e+000
 9.0311121063e-001	 1.3509312126e+000	-2.0189962716e+000
 8.8921584923e-001	 1.3601177057e+000	-1.9995396527e+000
 1.0399919086e+000	 1.2809827595e+000	-2.0641262979e+000
 1.0267108207e+000	 1.2916520006e+000	-2.0662954074e+000
 1.0133281862e+000	 1.3021774023e+000	-2.0664791753e+000
 9.9984633505e-001	 1.3125575440e+000	-2.0645877325e+000
 9.8626762285e-001	 1.3227910554e+000	-2.0605324640e+000
 9.7259442971e-001	 1.3328766167e+000	-2.0542262168e+000
 9.5882915883e-001	 1.3428129595e+000	-2.0455835057e+000
 9.4497423513e-001	 1.3525988670e+000	-2.0345207198e+000
 9.3103210387e-001	 1.3622331744e+000	-2.0209563259e+000
 9.1700522925e-001	 1.3717147697e+000	-2.0048110709e+000
 9.0289609307e-001	 1.3810425935e+000	-1.9860081806e+000
 1.0557493617e+000	 1.3003915892e+000	-2.0636048154e+000
 1.0422670452e+000	 1.3112224855e+000	-2.0652858109e+000
 1.0286816436e+000	 1.3219073629e+000	-2.0651267236e+000
 1.0149955219e+000	 1.3324447795e+000	-2.0630234008e+000
 1.0012110717e+000	 1.3428333441e+000	-2.0588727893e+000
 9.8733070895e-001	 1.3530717169e+000	-2.0525731638e+000
 9.7335687336e-001	 1.3631586104e+000	-2.0440243556e+000
 9.5929202657e-001	 1.3730927892e+000	-2.0331279800e+000
 9.4513865090e-001	 1.3828730710e+000	-2.0197876627e+000
 9.3089924788e-001	 1.3924983268e+000	-2.0039092638e+000
 9.1657633690e-001	 1.4019674813e+000	-1.9854010987e+000
 1.0715068149e+000	 1.3198004189e+000	-2.0787687854e+000
 1.0578232698e+000	 1.3307929704e+000	-2.0796373022e+000
 1.0440351009e+000	 1.3416373236e+000	-2.0788100848e+000
 1.0301447088e+000	 1.3523320150e+000	-2.0761686505e+000
 1.0161545205e+000	 1.3628756328e+000	-2.0715954573e+000
 1.0020669882e+000	 1.3732668172e+000	-2.0649741543e+000
 9.8788458789e-001	 1.3835042613e+000	-2.0561898324e+000
 9.7360981801e-001	 1.3935867114e+000	-2.0451292740e+000
 9.5924519792e-001	 1.4035129676e+000	-2.0316812019e+000
 9.4479326650e-001	 1.4132818840e+000	-2.0157365252e+000
 9.3025658074e-001	 1.4228923691e+000	-1.9971885833e+000
 1.0872642681e+000	 1.3392092486e+000	-2.1088780890e+000
 1.0733794943e+000	 1.3503634552e+000	-2.1086307300e+000
 1.0593885583e+000	 1.3613672842e+000	-2.1068314028e+000
 1.0452938957e+000	 1.3722192506e+000	-2.1033472342e+000
 1.0310979693e+000	 1.3829179215e+000	-2.0980461289e+000
 1.0168032674e+000	 1.3934619174e+000	-2.0907970425e+000
 1.0024123024e+000	 1.4038499122e+000	-2.0814702545e+000
 9.8792760946e-001	 1.4140806337e+000	-2.0699376405e+000
 9.7335174495e-001	 1.4241528642e+000	-2.0560729436e+000
 9.5868728513e-001	 1.4340654411e+000	-2.0397520431e+000
 9.4393682457e-001	 1.4438172569e+000	-2.0208532214e+000
 1.1030217212e+000	 1.3586180783e+000	-2.1532140645e+000
 1.0889357189e+000	 1.3699339401e+000	-2.1515674431e+000
 1.0747420157e+000	 1.3810972449e+000	-2.1485123549e+000
 1.0604430826e+000	 1.3921064861e+000	-2.1439014624e+000
 1.0460414182e+000	 1.4029602102e+000	-2.1375880390e+000
 1.0315395467e+000	 1.4136570177e+000	-2.1294262653e+000
 1.0169400169e+000	 1.4241955631e+000	-2.1192715241e+000
 1.0022454009e+000	 1.4345745559e+000	-2.1069806961e+000
 9.8745829198e-001	 1.4447927608e+000	-2.0924124537e+000
 9.7258130376e-001	 1.4548489982e+000	-2.0754275533e+000
 9.5761706841e-001	 1.4647421446e+000	-2.0558891246e+000
 8.2081463007e-001	 1.2554932668e+000	-2.2806057978e+000
 8.0791563023e-001	 1.2638323996e+000	-2.2623673349e+000
 7.9494640225e-001	 1.2720299594e+000	-2.2425610984e+000
 7.8190924254e-001	 1.2800851286e+000	-2.2211795143e+000
 7.6880645833e-001	 1.2879971388e+000	-2.1982167890e+000
 7.5564036645e-001	 1.2957652706e+000	-2.1736690014e+000
 7.4241329201e-001	 1.3033888536e+000	-2.1475341927e+000
 7.2912756712e-001	 1.3108672667e+000	-2.1198124527e+000
 7.1578552965e-001	 1.3181999376e+000	-2.0905060012e+000
 7.0238952194e-001	 1.3253863434e+000	-2.0596192677e+000
 6.8894188956e-001	 1.3324260102e+000	-2.0271589644e+000
 8.3449487390e-001	 1.2764181546e+000	-2.1939972801e+000
 8.2138089073e-001	 1.2848962730e+000	-2.1776005373e+000
 8.0819550895e-001	 1.2932304587e+000	-2.1594168536e+000
 7.9494106324e-001	 1.3014198807e+000	-2.1394298703e+000
 7.8161989930e-001	 1.3094637578e+000	-2.1176252376e+000
 7.6823437256e-001	 1.3173613584e+000	-2.0939907190e+000
 7.5478684687e-001	 1.3251120012e+000	-2.0685162931e+000
 7.4127969323e-001	 1.3327150544e+000	-2.0411942511e+000
 7.2771528847e-001	 1.3401699365e+000	-2.0120192904e+000
 7.1409601397e-001	 1.3474761158e+000	-1.9809886033e+000
 7.0042425438e-001	 1.3546331104e+000	-1.9481019614e+000
 8.4817511773e-001	 1.2973430424e+000	-2.1231858357e+000
 8.3484615123e-001	 1.3059601463e+000	-2.1083935913e+000
 8.2144461565e-001	 1.3144309580e+000	-2.0915997583e+000
 8.0797288395e-001	 1.3227546328e+000	-2.0727790745e+000
 7.9443334027e-001	 1.3309303768e+000	-2.0519085111e+000
 7.8082837866e-001	 1.3389574463e+000	-2.0289673899e+000
 7.6716040174e-001	 1.3468351487e+000	-2.0039374975e+000
 7.5343181935e-001	 1.3545628422e+000	-1.9768031943e+000
 7.3964504730e-001	 1.3621399355e+000	-1.9475515198e+000
 7.2580250600e-001	 1.3695658882e+000	-1.9161722922e+000
 7.1190661921e-001	 1.3768402106e+000	-1.8826582033e+000
 8.6185536157e-001	 1.3182679302e+000	-2.0675630294e+000
 8.4831141173e-001	 1.3270240196e+000	-2.0541570696e+000
 8.3469372236e-001	 1.3356314573e+000	-2.0385392640e+000
 8.2100470466e-001	 1.3440893850e+000	-2.0206753165e+000
 8.0724678124e-001	 1.3523969957e+000	-2.0005333848e+000
 7.9342238477e-001	 1.3605535341e+000	-1.9780842112e+000
 7.7953395660e-001	 1.3685582963e+000	-1.9533012490e+000
 7.6558394547e-001	 1.3764106300e+000	-1.9261607842e+000
 7.5157480613e-001	 1.3841099345e+000	-1.8966420520e+000
 7.3750899804e-001	 1.3916556606e+000	-1.8647273483e+000
 7.2338898403e-001	 1.3990473107e+000	-1.8304021350e+000
 8.7553560540e-001	 1.3391928179e+000	-2.0265387199e+000
 8.6177667223e-001	 1.3480878930e+000	-2.0143190005e+000
 8.4794282906e-001	 1.3568319566e+000	-1.9996814547e+000
 8.3403652537e-001	 1.3654241371e+000	-1.9825826102e+000
 8.2006022222e-001	 1.3738636147e+000	-1.9629816655e+000
 8.0601639088e-001	 1.3821496220e+000	-1.9408406338e+000
 7.9190751147e-001	 1.3902814439e+000	-1.9161244830e+000
 7.7773607159e-001	 1.3982584178e+000	-1.8888012694e+000
 7.6350456496e-001	 1.4060799334e+000	-1.8588422670e+000
 7.4921549007e-001	 1.4137454330e+000	-1.8262220902e+000
 7.3487134886e-001	 1.4212544109e+000	-1.7909188109e+000
 8.8921584923e-001	 1.3601177057e+000	-1.9995396527e+000
 8.7524193274e-001	 1.3691517663e+000	-1.9883235257e+000
 8.6119193577e-001	 1.3780324560e+000	-1.9744877678e+000
 8.4706834608e-001	 1.3867588893e+000	-1.9579795768e+000
 8.3287366319e-001	 1.3953302337e+000	-1.9387490348e+000
 8.1861039699e-001	 1.4037457098e+000	-1.9167492658e+000
 8.0428106634e-001	 1.4120045914e+000	-1.8919365885e+000
 7.8988819771e-001	 1.4201062055e+000	-1.8642706642e+000
 7.7543432378e-001	 1.4280499324e+000	-1.8337146377e+000
 7.6092198210e-001	 1.4358352054e+000	-1.8002352723e+000
 7.4635371369e-001	 1.4434615111e+000	-1.7638030788e+000
 9.0289609307e-001	 1.3810425935e+000	-1.9860081806e+000
 8.8870719324e-001	 1.3902156396e+000	-1.9756296794e+000
 8.7444104247e-001	 1.3992329553e+000	-1.9624338307e+000
 8.6010016679e-001	 1.4080936414e+000	-1.9463583379e+000
 8.4568710416e-001	 1.4167968527e+000	-1.9273439985e+000
 8.3120440310e-001	 1.4253417977e+000	-1.9053348758e+000
 8.1665462121e-001	 1.4337277390e+000	-1.8802784658e+000
 8.0204032383e-001	 1.4419539933e+000	-1.8521258580e+000
 7.8736408261e-001	 1.4500199313e+000	-1.8208318897e+000
 7.7262847414e-001	 1.4579249778e+000	-1.7863552937e+000
 7.5783607852e-001	 1.4656686112e+000	-1.7486588384e+000
 9.1657633690e-001	 1.4019674813e+000	-1.9854010987e+000
 9.0217245375e-001	 1.4112795129e+000	-1.9757102771e+000
 8.8769014918e-001	 1.4204334546e+000	-1.9630084022e+000
 8.7313198750e-001	 1.4294283936e+000	-1.9472235082e+000
 8.5850054514e-001	 1.4382634717e+000	-1.9282869290e+000
 8.4379840921e-001	 1.4469378855e+000	-1.9061334855e+000
 8.2902817608e-001	 1.4554508865e+000	-1.8807016664e+000
 8.1419244995e-001	 1.4638017811e+000	-1.8519338028e+000
 7.9929384144e-001	 1.4719899303e+000	-1.8197762362e+000
 7.8433496617e-001	 1.4800147502e+000	-1.7841794785e+000
 7.6931844334e-001	 1.4878757114e+000	-1.7450983653e+000
 9.3025658074e-001	 1.4228923691e+000	-1.9971885833e+000
 9.1563771425e-001	 1.4323433863e+000	-1.9880509017e+000
 9.0093925588e-001	 1.4416339539e+000	-1.9757124066e+000
 8.8616380821e-001	 1.4507631457e+000	-1.9600912765e+000
 8.7131398611e-001	 1.4597300906e+000	-1.9411091930e+000
 8.5639241532e-001	 1.4685339734e+000	-1.9186915420e+000
 8.4140173095e-001	 1.4771740341e+000	-1.8927676104e+000
 8.2634457607e-001	 1.4856495689e+000	-1.8632707742e+000
 8.1122360028e-001	 1.4939599293e+000	-1.8301386801e+000
 7.9604145821e-001	 1.5021045226e+000	-1.7933134198e+000
 7.8080080817e-001	 1.5100828116e+000	-1.7527416952e+000
 9.4393682457e-001	 1.4438172569e+000	-2.0208532214e+000
 9.2910297476e-001	 1.4534072596e+000	-2.0121489793e+000
 9.1418836259e-001	 1.4628344533e+000	-2.0000580524e+000
 8.9919562892e-001	 1.4720978979e+000	-1.9844885678e+000
 8.8412742709e-001	 1.4811967096e+000	-1.9653523548e+000
 8.6898642143e-001	 1.4901300612e+000	-1.9425651628e+000
 8.5377528582e-001	 1.4988971817e+000	-1.9160468715e+000
 8.3849670220e-001	 1.5074973567e+000	-1.8857216951e+000
 8.2315335911e-001	 1.5159299282e+000	-1.8515183775e+000
 8.0774795024e-001	 1.5241942950e+000	-1.8133703804e+000
 7.9228317300e-001	 1.5322899118e+000	-1.7712160619e+000
 9.5761706841e-001	 1.4647421446e+000	-2.0558891246e+000
 9.4256823526e-001	 1.4744711329e+000	-2.0475129324e+000
 9.2743746930e-001	 1.4840349526e+000	-2.0355680262e+000
 9.1222744964e-001	 1.4934326500e+000	-2.0199522755e+000
 8.9694086807e-001	 1.5026633286e+000	-2.0005674482e+000
 8.8158042754e-001	 1.5117261490e+000	-1.9773194445e+000
 8.6614884069e-001	 1.5206203292e+000	-1.9501185227e+000
 8.5064882832e-001	 1.5293451444e+000	-1.9188795184e+000
 8.3508311794e-001	 1.5378999272e+000	-1.8835220549e+000
 8.1945444228e-001	 1.5462840674e+000	-1.8439707448e+000
 8.0376553783e-001	 1.5544970119e+000	-1.8001553828e+000
 6.8894188956e-001	 1.3324260102e+000	-2.0271589644e+000
 6.7544498003e-001	 1.3393185129e+000	-2.0076117786e+000
 6.6190114160e-001	 1.3460634750e+000	-1.9814390441e+000
 6.4831272205e-001	 1.3526605688e+000	-1.9487105945e+000
 6.3468206740e-001	 1.3591095148e+000	-1.9095027059e+000
 6.2101152078e-001	 1.3654100816e+000	-1.8728540588e+000
 6.0730342120e-001	 1.3715620856e+000	-1.8507115878e+000
 5.9356010237e-001	 1.3775653904e+000	-1.8210329628e+000
 5.7978389160e-001	 1.3834199070e+000	-1.7841243121e+000
 5.6597710858e-001	 1.3891255928e+000	-1.7402928577e+000
 5.5214206433e-001	 1.3946824516e+000	-1.6898463299e+000
 7.0042425438e-001	 1.3546331104e+000	-1.9481019614e+000
 6.8670239636e-001	 1.3616404881e+000	-1.9296259446e+000
 6.7293282730e-001	 1.3684978662e+000	-1.9050470441e+000
 6.5911793409e-001	 1.3752049116e+000	-1.8744183096e+000
 6.4526010186e-001	 1.3817613401e+000	-1.8377989539e+000
 6.3136171280e-001	 1.3881669163e+000	-1.7952543237e+000
 6.1742514488e-001	 1.3944214536e+000	-1.7626990066e+000
 6.0345277075e-001	 1.4005248136e+000	-1.7367236843e+000
 5.8944695646e-001	 1.4064769054e+000	-1.7039916499e+000
 5.7541006039e-001	 1.4122776860e+000	-1.6648112081e+000
 5.6134443207e-001	 1.4179271591e+000	-1.6194906779e+000
 7.1190661921e-001	 1.3768402106e+000	-1.8826582033e+000
 6.9795981269e-001	 1.3839624633e+000	-1.8647194627e+000
 6.8396451299e-001	 1.3909322575e+000	-1.8411777025e+000
 6.6992314612e-001	 1.3977492544e+000	-1.8120693408e+000
 6.5583813632e-001	 1.4044131653e+000	-1.7774366925e+000
 6.4171190481e-001	 1.4109237510e+000	-1.7373279653e+000
 6.2754686857e-001	 1.4172808217e+000	-1.6917972465e+000
 6.1334543912e-001	 1.4234842367e+000	-1.6632980985e+000
 5.9911002132e-001	 1.4295339039e+000	-1.6334985600e+000
 5.8484301220e-001	 1.4354297792e+000	-1.5977058090e+000
 5.7054679981e-001	 1.4411718666e+000	-1.5562300173e+000
 7.2338898403e-001	 1.3990473107e+000	-1.8304021350e+000
 7.0921722903e-001	 1.4062844385e+000	-1.8124999839e+000
 6.9499619869e-001	 1.4133666487e+000	-1.7894728731e+000
 6.8072835815e-001	 1.4202935972e+000	-1.7613407172e+000
 6.6641617078e-001	 1.4270649905e+000	-1.7281290738e+000
 6.5206209682e-001	 1.4336805857e+000	-1.6898691653e+000
 6.3766859226e-001	 1.4401401898e+000	-1.6465978908e+000
 6.2323810749e-001	 1.4464436599e+000	-1.6014743703e+000
 6.0877308618e-001	 1.4525909023e+000	-1.5733770756e+000
 5.9427596401e-001	 1.4585818724e+000	-1.5397233492e+000
 5.7974916755e-001	 1.4644165742e+000	-1.5008264772e+000
 7.3487134886e-001	 1.4212544109e+000	-1.7909188109e+000
 7.2047464536e-001	 1.4286064137e+000	-1.7725840899e+000
 7.0602788438e-001	 1.4358010400e+000	-1.7495816019e+000
 6.9153357019e-001	 1.4428379400e+000	-1.7219148627e+000
 6.7699420523e-001	 1.4497168158e+000	-1.6895927902e+000
 6.6241228884e-001	 1.4564374204e+000	-1.6526297507e+000
 6.4779031595e-001	 1.4629995579e+000	-1.6110455972e+000
 6.3313077587e-001	 1.4694030831e+000	-1.5648656974e+000
 6.1843615104e-001	 1.4756479008e+000	-1.5243547962e+000
 6.0370891582e-001	 1.4817339656e+000	-1.4916039577e+000
 5.8895153529e-001	 1.4876612817e+000	-1.4540334510e+000
 7.4635371369e-001	 1.4434615111e+000	-1.7638030788e+000
 7.3173206170e-001	 1.4509283889e+000	-1.7445966068e+000
 7.1705957007e-001	 1.4582354312e+000	-1.7211595745e+000
 7.0233878223e-001	 1.4653822828e+000	-1.6934791819e+000
 6.8757223969e-001	 1.4723686410e+000	-1.6615478017e+000
 6.7276248085e-001	 1.4791942551e+000	-1.6253630514e+000
 6.5791203963e-001	 1.4858589260e+000	-1.5849278567e+000
 6.4302344424e-001	 1.4923625062e+000	-1.5402505047e+000
 6.2809921590e-001	 1.4987048992e+000	-1.4913446880e+000
 6.1314186763e-001	 1.5048860588e+000	-1.4540817086e+000
 5.9815390303e-001	 1.5109059892e+000	-1.4165962680e+000
 7.5783607852e-001	 1.4656686112e+000	-1.7486588384e+000
 7.4298947803e-001	 1.4732503641e+000	-1.7281699801e+000
 7.2809125577e-001	 1.4806698225e+000	-1.7038686127e+000
 7.1314399426e-001	 1.4879266257e+000	-1.6757256820e+000
 6.9815027415e-001	 1.4950204663e+000	-1.6437170888e+000
 6.8311267287e-001	 1.5019510898e+000	-1.6078237870e+000
 6.6803376332e-001	 1.5087182941e+000	-1.5680318716e+000
 6.5291611261e-001	 1.5153219294e+000	-1.5243326578e+000
 6.3776228076e-001	 1.5217618977e+000	-1.4767227497e+000
 6.2257481944e-001	 1.5280381520e+000	-1.4278850798e+000
 6.0735627077e-001	 1.5341506967e+000	-1.3892528047e+000
 7.6931844334e-001	 1.4878757114e+000	-1.7450983653e+000
 7.5424689437e-001	 1.4955723393e+000	-1.7229437061e+000
 7.3912294146e-001	 1.5031042137e+000	-1.6973762167e+000
 7.2394920630e-001	 1.5104709685e+000	-1.6683506298e+000
 7.0872830861e-001	 1.5176722915e+000	-1.6358264272e+000
 6.9346286488e-001	 1.5247079245e+000	-1.5997679628e+000
 6.7815548701e-001	 1.5315776622e+000	-1.5601445771e+000
 6.6280878099e-001	 1.5382813526e+000	-1.5169307004e+000
 6.4742534562e-001	 1.5448188961e+000	-1.4701059470e+000
 6.3200777125e-001	 1.5511902453e+000	-1.4196551985e+000
 6.1655863851e-001	 1.5573954043e+000	-1.3727340407e+000
 7.8080080817e-001	 1.5100828116e+000	-1.7527416952e+000
 7.6550431070e-001	 1.5178943146e+000	-1.7285638138e+000
 7.5015462716e-001	 1.5255386050e+000	-1.7013551476e+000
 7.3475441833e-001	 1.5330153113e+000	-1.6710542384e+000
 7.1930634307e-001	 1.5403241168e+000	-1.6376041814e+000
 7.0381305690e-001	 1.5474647592e+000	-1.6009527754e+000
 6.8827721070e-001	 1.5544370303e+000	-1.5610526609e+000
 6.7270144936e-001	 1.5612407758e+000	-1.5178614504e+000
 6.5708841048e-001	 1.5678758946e+000	-1.4713418463e+000
 6.4144072306e-001	 1.5743423385e+000	-1.4214617495e+000
 6.2576100625e-001	 1.5806401118e+000	-1.3681943564e+000
 7.9228317300e-001	 1.5322899118e+000	-1.7712160619e+000
 7.7676172704e-001	 1.5402162898e+000	-1.7446823910e+000
 7.6118631286e-001	 1.5479729962e+000	-1.7154830462e+000
 7.4555963037e-001	 1.5555596541e+000	-1.6835403809e+000
 7.2988437753e-001	 1.5629759420e+000	-1.6487811183e+000
 7.1416324891e-001	 1.5702215939e+000	-1.6111365260e+000
 6.9839893439e-001	 1.5772963984e+000	-1.5705425812e+000
 6.8259411774e-001	 1.5842001989e+000	-1.5269401249e+000
 6.6675147534e-001	 1.5909328930e+000	-1.4802750060e+000
 6.5087367487e-001	 1.5974944317e+000	-1.4304982139e+000
 6.3496337399e-001	 1.6038848193e+000	-1.3775660003e+000
 8.0376553783e-001	 1.5544970119e+000	-1.8001553828e+000
 7.8801914338e-001	 1.5625382650e+000	-1.7709571521e+000
 7.7221799855e-001	 1.5704073875e+000	-1.7394420842e+000
 7.5636484241e-001	 1.5781039969e+000	-1.7055163296e+000
 7.4046241198e-001	 1.5856277673e+000	-1.6690902345e+000
 7.2451344093e-001	 1.5929784285e+000	-1.6300785420e+000
 7.0852065808e-001	 1.6001557665e+000	-1.5884005827e+000
 6.9248678611e-001	 1.6071596221e+000	-1.5439804545e+000
 6.7641454021e-001	 1.6139898915e+000	-1.4967471914e+000
 6.6030662669e-001	 1.6206465249e+000	-1.4466349215e+000
 6.4416574173e-001	 1.6271295268e+000	-1.3935830127e+000
 5.5214206433e-001	 1.3946824516e+000	-1.6898463299e+000
 5.3828106007e-001	 1.4000905329e+000	-1.6741126188e+000
 5.2439638615e-001	 1.4053499316e+000	-1.6534855483e+000
 5.1049032095e-001	 1.4104607872e+000	-1.6281431892e+000
 4.9656512994e-001	 1.4154232836e+000	-1.5982622992e+000
 4.8262306456e-001	 1.4202376483e+000	-1.5640179316e+000
 4.6866636131e-001	 1.4249041518e+000	-1.5255830572e+000
 4.5469724075e-001	 1.4294231071e+000	-1.4831282013e+000
 4.4071790656e-001	 1.4337948692e+000	-1.4368210969e+000
 4.2673054465e-001	 1.4380198337e+000	-1.3868263532e+000
 4.1273732227e-001	 1.4420984373e+000	-1.3333051408e+000
 5.6134443207e-001	 1.4179271591e+000	-1.6194906779e+000
 5.4725241107e-001	 1.4234253751e+000	-1.6033012396e+000
 5.3313632591e-001	 1.4287724304e+000	-1.5817876361e+000
 5.1899849297e-001	 1.4339684670e+000	-1.5551627425e+000
 5.0484121544e-001	 1.4390136716e+000	-1.5236379550e+000
 4.9066678230e-001	 1.4439082757e+000	-1.4874227528e+000
 4.7647746733e-001	 1.4486525543e+000	-1.4467242771e+000
 4.6227552809e-001	 1.4532468256e+000	-1.4017469258e+000
 4.4806320500e-001	 1.4576914503e+000	-1.3526919644e+000
 4.3384272040e-001	 1.4619868310e+000	-1.2997571559e+000
 4.1961627764e-001	 1.4661334112e+000	-1.2431364071e+000
 5.7054679981e-001	 1.4411718666e+000	-1.5562300173e+000
 5.5622376207e-001	 1.4467602173e+000	-1.5399431481e+000
 5.4187626568e-001	 1.4521949293e+000	-1.5179123146e+000
 5.2750666498e-001	 1.4574761468e+000	-1.4903855258e+000
 5.1311730094e-001	 1.4626040597e+000	-1.4576091302e+000
 4.9871050005e-001	 1.4675789032e+000	-1.4198273330e+000
 4.8428857336e-001	 1.4724009568e+000	-1.3772817298e+000
 4.6985381544e-001	 1.4770705440e+000	-1.3302108583e+000
 4.5540850345e-001	 1.4815880315e+000	-1.2788497683e+000
 4.4095489614e-001	 1.4859538282e+000	-1.2234296107e+000
 4.2649523301e-001	 1.4901683852e+000	-1.1641772456e+000
 5.7974916755e-001	 1.4644165742e+000	-1.5008264772e+000
 5.6519511307e-001	 1.4700950595e+000	-1.4847378285e+000
 5.5061620545e-001	 1.4756174281e+000	-1.4624959450e+000
 5.3601483700e-001	 1.4809838265e+000	-1.4343843386e+000
 5.2139338644e-001	 1.4861944478e+000	-1.4006846655e+000
 5.0675421779e-001	 1.4912495307e+000	-1.3616761960e+000
 4.9209967938e-001	 1.4961493594e+000	-1.3176353038e+000
 4.7743210279e-001	 1.5008942625e+000	-1.2688349739e+000
 4.6275380189e-001	 1.5054846126e+000	-1.2155443304e+000
 4.4806707189e-001	 1.5099208254e+000	-1.1580281851e+000
 4.3337418838e-001	 1.5142033591e+000	-1.0965466065e+000
 5.8895153529e-001	 1.4876612817e+000	-1.4540334510e+000
 5.7416646408e-001	 1.4934299018e+000	-1.4383787332e+000
 5.5935614522e-001	 1.4990399270e+000	-1.4161715907e+000
 5.4452300902e-001	 1.5044915063e+000	-1.3877314473e+000
 5.2966947193e-001	 1.5097848358e+000	-1.3533756600e+000
 5.1479793553e-001	 1.5149201581e+000	-1.3134189425e+000
 4.9991078540e-001	 1.5198977619e+000	-1.2681728086e+000
 4.8501039013e-001	 1.5247179809e+000	-1.2179450356e+000
 4.7009910033e-001	 1.5293811938e+000	-1.1630391500e+000
 4.5517924763e-001	 1.5338878227e+000	-1.1037539346e+000
 4.4025314375e-001	 1.5382383331e+000	-1.0403829581e+000
 5.9815390303e-001	 1.5109059892e+000	-1.4165962680e+000
 5.8313781508e-001	 1.5167647440e+000	-1.4015537463e+000
 5.6809608499e-001	 1.5224624259e+000	-1.3795692715e+000
 5.5303118103e-001	 1.5279991861e+000	-1.3509986254e+000
 5.3794555743e-001	 1.5333752239e+000	-1.3161952973e+000
 5.2284165328e-001	 1.5385907856e+000	-1.2755098595e+000
 5.0772189142e-001	 1.5436461644e+000	-1.2292893645e+000
 4.9258867748e-001	 1.5485416994e+000	-1.1778767643e+000
 4.7744439878e-001	 1.5532777749e+000	-1.1216103515e+000
 4.6229142338e-001	 1.5578548199e+000	-1.0608232261e+000
 4.4713209913e-001	 1.5622733070e+000	-9.9584278452e-001
 6.0735627077e-001	 1.5341506967e+000	-1.3892528047e+000
 5.9210916608e-001	 1.5400995862e+000	-1.3749456058e+000
 5.7683602476e-001	 1.5458849247e+000	-1.3533161940e+000
 5.6153935305e-001	 1.5515068659e+000	-1.3247571917e+000
 5.4622164294e-001	 1.5569656119e+000	-1.2896586880e+000
 5.3088537102e-001	 1.5622614131e+000	-1.2484075652e+000
 5.1553299745e-001	 1.5673945670e+000	-1.2013868496e+000
 5.0016696483e-001	 1.5723654179e+000	-1.1489750844e+000
 4.8478969722e-001	 1.5771743561e+000	-1.0915457283e+000
 4.6940359912e-001	 1.5818218171e+000	-1.0294665787e+000
 4.5401105450e-001	 1.5863082810e+000	-9.6309922152e-001
 6.1655863851e-001	 1.5573954043e+000	-1.3727340407e+000
 6.0108051709e-001	 1.5634344284e+000	-1.3592322875e+000
 5.8557596453e-001	 1.5693074236e+000	-1.3380369612e+000
 5.7004752507e-001	 1.5750145457e+000	-1.3095780435e+000
 5.5449772844e-001	 1.5805560000e+000	-1.2742827256e+000
 5.3892908877e-001	 1.5859320406e+000	-1.2325746864e+000
 5.2334410347e-001	 1.5911429695e+000	-1.1848733948e+000
 5.0774525217e-001	 1.5961891363e+000	-1.1315934372e+000
 4.9213499566e-001	 1.6010709372e+000	-1.0731438714e+000
 4.7651577487e-001	 1.6057888143e+000	-1.0099276068e+000
 4.6089000987e-001	 1.6103432550e+000	-9.4234081353e-001
 6.2576100625e-001	 1.5806401118e+000	-1.3681943564e+000
 6.1005186809e-001	 1.5867692706e+000	-1.3550873550e+000
 5.9431590430e-001	 1.5927299224e+000	-1.3343537647e+000
 5.7855569709e-001	 1.5985222255e+000	-1.3060316881e+000
 5.6277381394e-001	 1.6041463881e+000	-1.2705859556e+000
 5.4697280651e-001	 1.6096026680e+000	-1.2284775628e+000
 5.3115520949e-001	 1.6148913720e+000	-1.1801629243e+000
 5.1532353952e-001	 1.6200128548e+000	-1.1260931545e+000
 4.9948029411e-001	 1.6249675184e+000	-1.0667133762e+000
 4.8362795061e-001	 1.6297558116e+000	-1.0024620579e+000
 4.6776896524e-001	 1.6343782289e+000	-9.3377038070e-001
 6.3496337399e-001	 1.6038848193e+000	-1.3775660003e+000
 6.1902321909e-001	 1.6101041128e+000	-1.3631802799e+000
 6.0305584408e-001	 1.6161524213e+000	-1.3428865585e+000
 5.8706386911e-001	 1.6220299053e+000	-1.3146882706e+000
 5.7104989944e-001	 1.6277367761e+000	-1.2790884555e+000
 5.5501652426e-001	 1.6332732955e+000	-1.2365859786e+000
 5.3896631552e-001	 1.6386397745e+000	-1.1876747358e+000
 5.2290182687e-001	 1.6438365732e+000	-1.1328428867e+000
 5.0682559255e-001	 1.6488640995e+000	-1.0725721171e+000
 4.9074012636e-001	 1.6537228088e+000	-1.0073369329e+000
 4.7464792061e-001	 1.6584132029e+000	-9.3760398448e-001
 6.4416574173e-001	 1.6271295268e+000	-1.3935830127e+000
 6.2799457010e-001	 1.6334389551e+000	-1.3840011817e+000
 6.1179578385e-001	 1.6395749202e+000	-1.3642532197e+000
 5.9557204113e-001	 1.6455375851e+000	-1.3361176002e+000
 5.7932598494e-001	 1.6513271642e+000	-1.3003117257e+000
 5.6306024200e-001	 1.6569439230e+000	-1.2573729165e+000
 5.4677742155e-001	 1.6623881771e+000	-1.2078331169e+000
 5.3048011422e-001	 1.6676602917e+000	-1.1522180802e+000
 5.1417089100e-001	 1.6727606807e+000	-1.0910465847e+000
 4.9785230211e-001	 1.6776898060e+000	-1.0248296825e+000
 4.8152687598e-001	 1.6824481768e+000	-9.5406998180e-001
 4.1273732227e-001	 1.4420984373e+000	-1.3333051408e+000
 3.9874038711e-001	 1.4460311558e+000	-1.3298806842e+000
 3.8474186652e-001	 1.4498185045e+000	-1.3216507000e+000
 3.7074386670e-001	 1.4534610367e+000	-1.3088180758e+000
 3.5674847188e-001	 1.4569593432e+000	-1.2915816424e+000
 3.4275774362e-001	 1.4603140515e+000	-1.2701358809e+000
 3.2877372006e-001	 1.4635258252e+000	-1.2446706476e+000
 3.1479841525e-001	 1.4665953626e+000	-1.2153709190e+000
 3.0083381848e-001	 1.4695233968e+000	-1.1824165549e+000
 2.8688189364e-001	 1.4723106938e+000	-1.1459820803e+000
 2.7294457862e-001	 1.4749580526e+000	-1.1062364862e+000
 4.1961627764e-001	 1.4661334112e+000	-1.2431364071e+000
 4.0538606023e-001	 1.4701316751e+000	-1.2389306187e+000
 3.9115423097e-001	 1.4739821463e+000	-1.2295853601e+000
 3.7692293114e-001	 1.4776853873e+000	-1.2153267930e+000
 3.6269427974e-001	 1.4812419989e+000	-1.1963768189e+000
 3.4847037268e-001	 1.4846526191e+000	-1.1729527565e+000
 3.3425328206e-001	 1.4879179223e+000	-1.1452670401e+000
 3.2004505551e-001	 1.4910386187e+000	-1.1135269374e+000
 3.0584771546e-001	 1.4940154534e+000	-1.0779342872e+000
 2.9166325853e-001	 1.4968492054e+000	-1.0386852581e+000
 2.7749365493e-001	 1.4995406868e+000	-9.9597012624e-001
 4.2649523301e-001	 1.4901683852e+000	-1.1641772456e+000
 4.1203173334e-001	 1.4942321944e+000	-1.1590711990e+000
 3.9756659541e-001	 1.4981457880e+000	-1.1485142543e+000
 3.8310199559e-001	 1.5019097379e+000	-1.1327561951e+000
 3.6864008761e-001	 1.5055246547e+000	-1.1120423149e+000
 3.5418300174e-001	 1.5089911866e+000	-1.0866130658e+000
 3.3973284406e-001	 1.5123100193e+000	-1.0567037286e+000
 3.2529169576e-001	 1.5154818747e+000	-1.0225441043e+000
 3.1086161243e-001	 1.5185075100e+000	-9.8435822657e-001
 2.9644462343e-001	 1.5213877169e+000	-9.4236409633e-001
 2.8204273124e-001	 1.5241233210e+000	-8.9677343700e-001
 4.3337418838e-001	 1.5142033591e+000	-1.0965466065e+000
 4.1867740646e-001	 1.5183327136e+000	-1.0903843166e+000
 4.0397895985e-001	 1.5223094298e+000	-1.0784817022e+000
 3.8928106004e-001	 1.5261340886e+000	-1.0611125446e+000
 3.7458589548e-001	 1.5298073104e+000	-1.0385458787e+000
 3.5989563080e-001	 1.5333297541e+000	-1.0110456127e+000
 3.4521240607e-001	 1.5367021164e+000	-9.7887017013e-001
 3.3053833602e-001	 1.5399251308e+000	-9.4227215452e-001
 3.1587550941e-001	 1.5429995666e+000	-9.0149803673e-001
 3.0122598832e-001	 1.5459262285e+000	-8.5678786524e-001
 2.8659180755e-001	 1.5487059552e+000	-8.0837499911e-001
 4.4025314375e-001	 1.5382383331e+000	-1.0403829581e+000
 4.2532307958e-001	 1.5424332329e+000	-1.0329725422e+000
 4.1039132430e-001	 1.5464730715e+000	-1.0195539073e+000
 3.9546012448e-001	 1.5503584392e+000	-1.0004252348e+000
 3.8053170334e-001	 1.5540899661e+000	-9.7587967755e-001
 3.6560825986e-001	 1.5576683217e+000	-9.4620494926e-001
 3.5069196807e-001	 1.5610942135e+000	-9.1168293869e-001
 3.3578497627e-001	 1.5643683868e+000	-8.7258934729e-001
 3.2088940638e-001	 1.5674916232e+000	-8.2919335119e-001
 3.0600735321e-001	 1.5704647400e+000	-7.8175728731e-001
 2.9114088386e-001	 1.5732885894e+000	-7.3053636373e-001
 4.4713209913e-001	 1.5622733070e+000	-9.9584278452e-001
 4.3196875270e-001	 1.5665337522e+000	-9.8695753461e-001
 4.1680368874e-001	 1.5706367133e+000	-9.7181727291e-001
 4.0163918893e-001	 1.5745827898e+000	-9.5074501023e-001
 3.8647751121e-001	 1.5783726218e+000	-9.2405841929e-001
 3.7132088892e-001	 1.5820068892e+000	-8.9206939488e-001
 3.5617153007e-001	 1.5854863106e+000	-8.5508363903e-001
 3.4103161652e-001	 1.5888116429e+000	-8.1340027185e-001
 3.2590330335e-001	 1.5919836798e+000	-7.6731146778e-001
 3.1078871811e-001	 1.5950032516e+000	-7.1710211768e-001
 2.9568996017e-001	 1.5978712237e+000	-6.6304951642e-001
 4.5401105450e-001	 1.5863082810e+000	-9.6309922152e-001
 4.3861442582e-001	 1.5906342714e+000	-9.5247859504e-001
 4.2321605318e-001	 1.5948003550e+000	-9.3537687265e-001
 4.0781825337e-001	 1.5988071404e+000	-9.1214234904e-001
 3.9242331907e-001	 1.6026552775e+000	-8.8311764470e-001
 3.7703351798e-001	 1.6063454567e+000	-8.4863923576e-001
 3.6165109207e-001	 1.6098784077e+000	-8.0903701050e-001
 3.4627825678e-001	 1.6132548989e+000	-7.6463385284e-001
 3.3091720033e-001	 1.6164757364e+000	-7.1574525291e-001
 3.1557008300e-001	 1.6195417632e+000	-6.6267894479e-001
 3.0023903648e-001	 1.6224538579e+000	-6.0573457147e-001
 4.6089000987e-001	 1.6103432550e+000	-9.4234081353e-001
 4.4526009894e-001	 1.6147347907e+000	-9.2969135029e-001
 4.2962841762e-001	 1.6189639967e+000	-9.1035505662e-001
 4.1399731782e-001	 1.6230314910e+000	-8.8470599061e-001
 3.9836912694e-001	 1.6269379333e+000	-8.5311217285e-001
 3.8274614704e-001	 1.6306840242e+000	-8.1593508563e-001
 3.6713065407e-001	 1.6342705048e+000	-7.7352920051e-001
 3.5152489703e-001	 1.6376981549e+000	-7.2624153424e-001
 3.3593109730e-001	 1.6409677930e+000	-6.7441123342e-001
 3.2035144789e-001	 1.6440802747e+000	-6.1836918786e-001
 3.0478811279e-001	 1.6470364921e+000	-5.5843767273e-001
 4.6776896524e-001	 1.6343782289e+000	-9.3377038070e-001
 4.5190577206e-001	 1.6388353100e+000	-9.1876655238e-001
 4.3604078206e-001	 1.6431276385e+000	-8.9689018126e-001
 4.2017638226e-001	 1.6472558416e+000	-8.6854159264e-001
 4.0431493480e-001	 1.6512205890e+000	-8.3411468355e-001
 3.8845877610e-001	 1.6550225918e+000	-7.9399639105e-001
 3.7261021607e-001	 1.6586626019e+000	-7.4856619044e-001
 3.5677153728e-001	 1.6621414110e+000	-6.9819562349e-001
 3.4094499428e-001	 1.6654598497e+000	-6.4324785689e-001
 3.2513281279e-001	 1.6686187863e+000	-5.8407727111e-001
 3.0933718910e-001	 1.6716191263e+000	-5.2102907967e-001
 4.7464792061e-001	 1.6584132029e+000	-9.3760398448e-001
 4.5855144518e-001	 1.6629358292e+000	-9.1988898255e-001
 4.4245314651e-001	 1.6672912802e+000	-8.9513544946e-001
 4.2635544671e-001	 1.6714801922e+000	-8.6377050522e-001
 4.1026074266e-001	 1.6755032447e+000	-8.2621442310e-001
 3.9417140516e-001	 1.6793611593e+000	-7.8288006670e-001
 3.7808977807e-001	 1.6830546990e+000	-7.3417235842e-001
 3.6201817754e-001	 1.6865846670e+000	-6.8048777971e-001
 3.4595889125e-001	 1.6899519063e+000	-6.2221390316e-001
 3.2991417768e-001	 1.6931572979e+000	-5.5972895674e-001
 3.1388626541e-001	 1.6962017605e+000	-4.9340141992e-001
 4.8152687598e-001	 1.6824481768e+000	-9.5406998180e-001
 4.6519711830e-001	 1.6870363485e+000	-9.3325644915e-001
 4.4886551095e-001	 1.6914549220e+000	-9.0525785006e-001
 4.3253451115e-001	 1.6957045429e+000	-8.7052864994e-001
 4.1620655053e-001	 1.6997859004e+000	-8.2951602099e-001
 3.9988403422e-001	 1.7036997268e+000	-7.8265924770e-001
 3.8356934007e-001	 1.7074467960e+000	-7.3038916522e-001
 3.6726481779e-001	 1.7110279231e+000	-6.7312763135e-001
 3.5097278822e-001	 1.7144439629e+000	-6.1128703205e-001
 3.3469554257e-001	 1.7176958094e+000	-5.4526982076e-001
 3.1843534172e-001	 1.7207843947e+000	-4.7546809148e-001
 2.7294457862e-001	 1.4749580526e+000	-1.1062364862e+000
 2.5902378476e-001	 1.4774663038e+000	-1.1131843062e+000
 2.4512139625e-001	 1.4798363089e+000	-1.1161117410e+000
 2.3123926969e-001	 1.4820689593e+000	-1.1152087981e+000
 2.1737923353e-001	 1.4841651757e+000	-1.1106593853e+000
 2.0354308766e-001	 1.4861259070e+000	-1.1026411630e+000
 1.8973260296e-001	 1.4879521294e+000	-1.0913254147e+000
 1.7594952092e-001	 1.4896448456e+000	-1.0768769358e+000
 1.6219555323e-001	 1.4912050840e+000	-1.0594539406e+000
 1.4847238149e-001	 1.4926338975e+000	-1.0392079858e+000
 1.3478165685e-001	 1.4939323629e+000	-1.0162839121e+000
 2.7749365493e-001	 1.4995406868e+000	-9.9597012624e-001
 2.6334084783e-001	 1.5020907422e+000	-1.0018001197e+000
 2.4920675285e-001	 1.5045002474e+000	-1.0033288348e+000
 2.3509325751e-001	 1.5067701086e+000	-1.0007618486e+000
 2.2100222075e-001	 1.5089012620e+000	-9.9429843430e-001
 2.0693547245e-001	 1.5108946721e+000	-9.8413139685e-001
 1.9289481301e-001	 1.5127513315e+000	-9.7044692757e-001
 1.7888201293e-001	 1.5144722597e+000	-9.5342447836e-001
 1.6489881245e-001	 1.5160585020e+000	-9.3323665450e-001
 1.5094692118e-001	 1.5175111291e+000	-9.1004912593e-001
 1.3702801779e-001	 1.5188312356e+000	-8.8402055650e-001
 2.8204273124e-001	 1.5241233210e+000	-8.9677343700e-001
 2.6765791091e-001	 1.5267151806e+000	-9.0121275486e-001
 2.5329210946e-001	 1.5291641858e+000	-9.0110101584e-001
 2.3894724534e-001	 1.5314712579e+000	-8.9665955036e-001
 2.2462520797e-001	 1.5336373482e+000	-8.8810314977e-001
 2.1032785724e-001	 1.5356634372e+000	-8.7563988521e-001
 1.9605702305e-001	 1.5375505337e+000	-8.5947094690e-001
 1.8181450494e-001	 1.5392996738e+000	-8.3979050374e-001
 1.6760207167e-001	 1.5409119201e+000	-8.1678558274e-001
 1.5342146087e-001	 1.5423883607e+000	-7.9063596793e-001
 1.3927437874e-001	 1.5437301083e+000	-7.6151411826e-001
 2.8659180755e-001	 1.5487059552e+000	-8.0837499911e-001
 2.7197497399e-001	 1.5513396190e+000	-8.1112847758e-001
 2.5737746606e-001	 1.5538281243e+000	-8.0911168945e-001
 2.4280123317e-001	 1.5561724073e+000	-8.0256192264e-001
 2.2824819520e-001	 1.5583734345e+000	-7.9170965939e-001
 2.1372024203e-001	 1.5604322023e+000	-7.7677837862e-001
 1.9921923310e-001	 1.5623497358e+000	-7.5798438010e-001
 1.8474699695e-001	 1.5641270879e+000	-7.3553662981e-001
 1.7030533088e-001	 1.5657653382e+000	-7.0963662632e-001
 1.5589600055e-001	 1.5672655924e+000	-6.8047828777e-001
 1.4152073968e-001	 1.5686289811e+000	-6.4824785878e-001
 2.9114088386e-001	 1.5732885894e+000	-7.3053636373e-001
 2.7629203707e-001	 1.5759640574e+000	-7.3128691237e-001
 2.6146282266e-001	 1.5784920628e+000	-7.2707806074e-001
 2.4665522099e-001	 1.5808735566e+000	-7.1816327796e-001
 2.3187118242e-001	 1.5831095208e+000	-7.0478892919e-001
 2.1711262682e-001	 1.5852009674e+000	-6.8719406194e-001
 2.0238144315e-001	 1.5871489380e+000	-6.6561021509e-001
 1.8767948897e-001	 1.5889545020e+000	-6.4026125050e-001
 1.7300859010e-001	 1.5906187562e+000	-6.1136320669e-001
 1.5837054024e-001	 1.5921428240e+000	-5.7912417411e-001
 1.4376710062e-001	 1.5935278538e+000	-5.4374419162e-001
 2.9568996017e-001	 1.5978712237e+000	-6.6304951642e-001
 2.8060910014e-001	 1.6005884958e+000	-6.6145847650e-001
 2.6554817926e-001	 1.6031560013e+000	-6.5474853479e-001
 2.5050920882e-001	 1.6055747059e+000	-6.4318958422e-001
 2.3549416964e-001	 1.6078456070e+000	-6.2704408374e-001
 2.2050501162e-001	 1.6099697326e+000	-6.0656682862e-001
 2.0554365319e-001	 1.6119481402e+000	-5.8200474481e-001
 1.9061198098e-001	 1.6137819161e+000	-5.5359670692e-001
 1.7571184932e-001	 1.6154721743e+000	-5.2157337952e-001
 1.6084507993e-001	 1.6170200556e+000	-4.8615708116e-001
 1.4601346157e-001	 1.6184267265e+000	-4.4756167081e-001
 3.0023903648e-001	 1.6224538579e+000	-6.0573457147e-001
 2.8492616322e-001	 1.6252129342e+000	-6.0144204715e-001
 2.6963353587e-001	 1.6278199398e+000	-5.9190035296e-001
 2.5436319665e-001	 1.6302758552e+000	-5.7739606662e-001
 2.3911715687e-001	 1.6325816933e+000	-5.5820796982e-001
 2.2389739641e-001	 1.6347384977e+000	-5.3460680280e-001
 2.0870586324e-001	 1.6367473423e+000	-5.0685504416e-001
 1.9354447299e-001	 1.6386093302e+000	-4.7520671555e-001
 1.7841510854e-001	 1.6403255924e+000	-4.3990721089e-001
 1.6331961962e-001	 1.6418972872e+000	-4.0119314952e-001
 1.4825982252e-001	 1.6433255992e+000	-3.5929225292e-001
 3.0478811279e-001	 1.6470364921e+000	-5.5843767273e-001
 2.8924322630e-001	 1.6498373726e+000	-5.5106283756e-001
 2.7371889247e-001	 1.6524838782e+000	-5.3833744095e-001
 2.5821718447e-001	 1.6549770045e+000	-5.2056502420e-001
 2.4274014409e-001	 1.6573177795e+000	-4.9804093839e-001
 2.2728978120e-001	 1.6595072628e+000	-4.7105208327e-001
 2.1186807329e-001	 1.6615465445e+000	-4.3987667281e-001
 1.9647696501e-001	 1.6634367443e+000	-4.0478402685e-001
 1.8111836776e-001	 1.6651790104e+000	-3.6603438851e-001
 1.6579415931e-001	 1.6667745188e+000	-3.2387876688e-001
 1.5050618346e-001	 1.6682244719e+000	-2.7855880438e-001
 3.0933718910e-001	 1.6716191263e+000	-5.2102907967e-001
 2.9356028938e-001	 1.6744618110e+000	-5.1017046055e-001
 2.7780424907e-001	 1.6771478167e+000	-4.9388844668e-001
 2.6207117230e-001	 1.6796781539e+000	-4.7250383917e-001
 2.4636313132e-001	 1.6820538658e+000	-4.4632882221e-001
 2.3068216600e-001	 1.6842760279e+000	-4.1566668652e-001
 2.1503028334e-001	 1.6863457466e+000	-3.8081158073e-001
 1.9940945702e-001	 1.6882641584e+000	-3.4204829035e-001
 1.8382162698e-001	 1.6900324285e+000	-2.9965204359e-001
 1.6826869900e-001	 1.6916517505e+000	-2.5388834396e-001
 1.5275254441e-001	 1.6931233446e+000	-2.0501282865e-001
 3.1388626541e-001	 1.6962017605e+000	-4.9340141992e-001
 2.9787735246e-001	 1.6990862494e+000	-4.7863716045e-001
 2.8188960568e-001	 1.7018117552e+000	-4.5840494886e-001
 2.6592516013e-001	 1.7043793032e+000	-4.3304315927e-001
 2.4998611855e-001	 1.7067899521e+000	-4.0288108936e-001
 2.3407455079e-001	 1.7090447930e+000	-3.6823866864e-001
 2.1819249339e-001	 1.7111449488e+000	-3.2942619588e-001
 2.0234194904e-001	 1.7130915724e+000	-2.8674410549e-001
 1.8652488620e-001	 1.7148858466e+000	-2.4048276222e-001
 1.7074323870e-001	 1.7165289821e+000	-1.9092228386e-001
 1.5499890536e-001	 1.7180222173e+000	-1.3833239109e-001
 3.1843534172e-001	 1.7207843947e+000	-4.7546809148e-001
 3.0219441554e-001	 1.7237106878e+000	-4.5635619652e-001
 2.8597496228e-001	 1.7264756937e+000	-4.3175981909e-001
 2.6977914796e-001	 1.7290804525e+000	-4.0203523594e-001
 2.5360910577e-001	 1.7315260383e+000	-3.6752915496e-001
 2.3746693559e-001	 1.7338135582e+000	-3.2857840823e-001
 2.2135470344e-001	 1.7359441509e+000	-2.8550967574e-001
 2.0527444106e-001	 1.7379189865e+000	-2.3863923946e-001
 1.8922814542e-001	 1.7397392646e+000	-1.8827276715e-001
 1.7321777839e-001	 1.7414062137e+000	-1.3470512546e-001
 1.5724526631e-001	 1.7429210901e+000	-7.8220221667e-002
 1.3478165685e-001	 1.4939323629e+000	-1.0162839121e+000
 1.2112499974e-001	 1.4951015800e+000	-1.0343709197e+000
 1.0750399961e-001	 1.4961426704e+000	-1.0503111297e+000
 9.3920214705e-002	 1.4970567769e+000	-1.0642716812e+000
 8.0375171839e-002	 1.4978450627e+000	-1.0764116786e+000
 6.6870366229e-002	 1.4985087101e+000	-1.0868821977e+000
 5.3407261333e-002	 1.4990489200e+000	-1.0958263088e+000
 3.9987288723e-002	 1.4994669109e+000	-1.1033791134e+000
 2.6611847981e-002	 1.4997639179e+000	-1.1096677965e+000
 1.3282306613e-002	 1.4999411923e+000	-1.1148116922e+000
 0.0000000000e+000	 1.5000000000e+000	-1.1189223628e+000
 1.3702801779e-001	 1.5188312356e+000	-8.8402055650e-001
 1.2314374973e-001	 1.5200199396e+000	-9.0183975565e-001
 1.0929573293e-001	 1.5210783815e+000	-9.1738207103e-001
 9.5485551614e-002	 1.5220077232e+000	-9.3081224066e-001
 8.1714758035e-002	 1.5228091470e+000	-9.4228693940e-001
 6.7984872331e-002	 1.5234838552e+000	-9.5195478574e-001
 5.4297382354e-002	 1.5240330686e+000	-9.5995636467e-001
 4.0653743534e-002	 1.5244580260e+000	-9.6642426596e-001
 2.7055378780e-002	 1.5247599832e+000	-9.7148313725e-001
 1.3503678390e-002	 1.5249402122e+000	-9.7524975114e-001
 0.0000000000e+000	 1.5250000000e+000	-9.7783308587e-001
 1.3927437874e-001	 1.5437301083e+000	-7.6151411826e-001
 1.2516249972e-001	 1.5449382993e+000	-7.7809321838e-001
 1.1108746626e-001	 1.5460140927e+000	-7.9229966130e-001
 9.7050888523e-002	 1.5469586695e+000	-8.0429603690e-001
 8.3054344230e-002	 1.5477732314e+000	-8.1423680918e-001
 6.9099378434e-002	 1.5484590004e+000	-8.2226832370e-001
 5.5187503375e-002	 1.5490172173e+000	-8.2852883146e-001
 4.1320198346e-002	 1.5494491412e+000	-8.3314852854e-001
 2.7498909579e-002	 1.5497560485e+000	-8.3624961095e-001
 1.3725050166e-002	 1.5499392320e+000	-8.3794634381e-001
 0.0000000000e+000	 1.5500000000e+000	-8.3834514435e-001
 1.4152073968e-001	 1.5686289811e+000	-6.4824785878e-001
 1.2718124971e-001	 1.5698566590e+000	-6.6263602550e-001
 1.1287919958e-001	 1.5709498039e+000	-6.7458959174e-001
 9.8616225433e-002	 1.5719096157e+000	-6.8426925280e-001
 8.4393930425e-002	 1.5727373158e+000	-6.9182748099e-001
 7.0213884536e-002	 1.5734341456e+000	-6.9740853421e-001
 5.6077624396e-002	 1.5740013660e+000	-7.0114848124e-001
 4.1986653157e-002	 1.5744402564e+000	-7.0317524347e-001
 2.7942440378e-002	 1.5747521138e+000	-7.0360865189e-001
 1.3946421943e-002	 1.5749382519e+000	-7.0256051909e-001
 0.0000000000e+000	 1.5750000000e+000	-7.0013472520e-001
 1.4376710062e-001	 1.5935278538e+000	-5.4374419162e-001
 1.2919999971e-001	 1.5947750186e+000	-5.5500991128e-001
 1.1467093291e-001	 1.5958855150e+000	-5.6381248845e-001
 1.0018156234e-001	 1.5968605620e+000	-5.7031097822e-001
 8.5733516621e-002	 1.5977014002e+000	-5.7465608126e-001
 7.1328390638e-002	 1.5984092907e+000	-5.7699015386e-001
 5.6967745417e-002	 1.5989855146e+000	-5.7744723541e-001
 4.2653107968e-002	 1.5994313716e+000	-5.7615309240e-001
 2.8385971177e-002	 1.5997481791e+000	-5.7322527846e-001
 1.4167793719e-002	 1.5999372718e+000	-5.6877320956e-001
 0.0000000000e+000	 1.6000000000e+000	-5.6289825362e-001
 1.4601346157e-001	 1.6184267265e+000	-4.4756167081e-001
 1.3121874970e-001	 1.6196933783e+000	-4.5479077923e-001
 1.1646266623e-001	 1.6208212262e+000	-4.5956122509e-001
 1.0174689925e-001	 1.6218115083e+000	-4.6203067873e-001
 8.7073102817e-002	 1.6226654846e+000	-4.6234829022e-001
 7.2442896741e-002	 1.6233844359e+000	-4.6065470148e-001
 5.7857866438e-002	 1.6239696633e+000	-4.5708207624e-001
 4.3319562779e-002	 1.6244224868e+000	-4.5175414710e-001
 2.8829501976e-002	 1.6247442444e+000	-4.4478627898e-001
 1.4389165496e-002	 1.6249362916e+000	-4.3628554819e-001
 0.0000000000e+000	 1.6250000000e+000	-4.2635083639e-001
 1.4825982252e-001	 1.6433255992e+000	-3.5929225292e-001
 1.3323749970e-001	 1.6446117380e+000	-3.6158611351e-001
 1.1825439956e-001	 1.6457569374e+000	-3.6145847989e-001
 1.0331223616e-001	 1.6467624546e+000	-3.5906589437e-001
 8.8412689013e-002	 1.6476295689e+000	-3.5455617877e-001
 7.3557402843e-002	 1.6483595811e+000	-3.4806844909e-001
 5.8747987459e-002	 1.6489538120e+000	-3.3973314840e-001
 4.3986017590e-002	 1.6494136019e+000	-3.2967209751e-001
 2.9273032775e-002	 1.6497403097e+000	-3.1799856244e-001
 1.4610537273e-002	 1.6499353115e+000	-3.0481733797e-001
 0.0000000000e+000	 1.6500000000e+000	-2.9022484650e-001
 1.5050618346e-001	 1.6682244719e+000	-2.7855880438e-001
 1.3525624969e-001	 1.6695300976e+000	-2.7503262218e-001
 1.2004613288e-001	 1.6706926486e+000	-2.6915451140e-001
 1.0487757307e-001	 1.6717134009e+000	-2.6108014454e-001
 8.9752275209e-002	 1.6725936533e+000	-2.5095623903e-001
 7.4671908946e-002	 1.6733347262e+000	-2.3892057470e-001
 5.9638108481e-002	 1.6739379606e+000	-2.2510203035e-001
 4.4652472402e-002	 1.6744047171e+000	-2.0962063840e-001
 2.9716563574e-002	 1.6747363750e+000	-1.9258765700e-001
 1.4831909049e-002	 1.6749343314e+000	-1.7410565866e-001
 0.0000000000e+000	 1.6750000000e+000	-1.5426863471e-001
 1.5275254441e-001	 1.6931233446e+000	-2.0501282865e-001
 1.3727499969e-001	 1.6944484573e+000	-1.9479408836e-001
 1.2183786621e-001	 1.6956283597e+000	-1.8232513053e-001
 1.0644290998e-001	 1.6966643472e+000	-1.6776101781e-001
 9.1091861406e-002	 1.6975577377e+000	-1.5124758862e-001
 7.5786415049e-002	 1.6983098714e+000	-1.3292147804e-001
 6.0528229502e-002	 1.6989221093e+000	-1.1291015837e-001
 4.5318927213e-002	 1.6993958323e+000	-9.1331998442e-002
 3.0160094373e-002	 1.6997324403e+000	-6.8296340875e-002
 1.5053280826e-002	 1.6999333513e+000	-4.3903596436e-002
 0.0000000000e+000	 1.7000000000e+000	-1.8245354645e-002
 1.5499890536e-001	 1.7180222173e+000	-1.3833239109e-001
 1.3929374968e-001	 1.7193668170e+000	-1.2055940829e-001
 1.2362959954e-001	 1.7205640709e+000	-1.0066984894e-001
 1.0800824690e-001	 1.7216152934e+000	-7.8818427710e-002
 9.2431447602e-002	 1.7225218221e+000	-5.5150331190e-002
 7.6900921152e-002	 1.7232850166e+000	-2.9801242745e-002
 6.1418350523e-002	 1.7239062580e+000	-2.8973875746e-003
 4.5985382024e-002	 1.7243869475e+000	 2.5444402816e-002
 3.0603625172e-002	 1.7247285056e+000	 5.5116607610e-002
 1.5274652602e-002	 1.7249323711e+000	 8.6020916014e-002
 0.0000000000e+000	 1.7250000000e+000	 1.1806810983e-001
 1.5724526631e-001	 1.7429210901e+000	-7.8220221667e-002
 1.4131249968e-001	 1.7442851766e+000	-5.2040797503e-002
 1.2542133286e-001	 1.7454997821e+000	-2.3910186150e-002
 1.0957358381e-001	 1.7465662397e+000	 6.0169818712e-003
 9.3771033799e-002	 1.7474859064e+000	 3.7595942632e-002
 7.8015427255e-002	 1.7482601617e+000	 7.0691769639e-002
 6.2308471545e-002	 1.7488904066e+000	 1.0517932372e-001
 4.6651836836e-002	 1.7493780627e+000	 1.4094318288e-001
 3.1047155971e-002	 1.7497245709e+000	 1.7787755292e-001
 1.5496024379e-002	 1.7499313910e+000	 2.1588615994e-001
 0.0000000000e+000	 1.7500000000e+000	 2.5488212535e-001
 1.7500000000e+000	 0.0000000000e+000	 3.0204729864e+000
 1.7499313910e+000	 1.5496024379e-002	 3.0502947978e+000
 1.7497245709e+000	 3.1047155971e-002	 3.0746571937e+000
 1.7493780627e+000	 4.6651836836e-002	 3.0935574705e+000
 1.7488904066e+000	 6.2308471545e-002	 3.1069884467e+000
 1.7482601617e+000	 7.8015427255e-002	 3.1149382354e+000
 1.7474859064e+000	 9.3771033799e-002	 3.1173900212e+000
 1.7465662397e+000	 1.0957358381e-001	 3.1143218435e+000
 1.7454997821e+000	 1.2542133286e-001	 3.1057063869e+000
 1.7442851766e+000	 1.4131249968e-001	 3.0915107789e+000
 1.7429210901e+000	 1.5724526631e-001	 3.0716963962e+000
 1.7750000000e+000	 0.0000000000e+000	 3.1515222593e+000
 1.7749304109e+000	 1.5717396155e-002	 3.1682486084e+000
 1.7747206362e+000	 3.1490686771e-002	 3.1797606526e+000
 1.7743691778e+000	 4.7318291647e-002	 3.1860627139e+000
 1.7738745553e+000	 6.3198592567e-002	 3.1871542864e+000
 1.7732353069e+000	 7.9129933358e-002	 3.1830297903e+000
 1.7724499908e+000	 9.5110619996e-002	 3.1736783315e+000
 1.7715171860e+000	 1.1113892072e-001	 3.1590834666e+000
 1.7704354933e+000	 1.2721306619e-001	 3.1392229765e+000
 1.7692035363e+000	 1.4333124967e-001	 3.1140686464e+000
 1.7678199628e+000	 1.5949162725e-001	 3.0835860563e+000
 1.8000000000e+000	 0.0000000000e+000	 3.2876288170e+000
 1.7999294307e+000	 1.5938767932e-002	 3.2909153445e+000
 1.7997167015e+000	 3.1934217570e-002	 3.2892530675e+000
 1.7993602930e+000	 4.7984746459e-002	 3.2826537082e+000
 1.7988587040e+000	 6.4088713588e-002	 3.2711237944e+000
 1.7982104521e+000	 8.0244439462e-002	 3.2546643940e+000
 1.7974140752e+000	 9.6450206192e-002	 3.2332708557e+000
 1.7964681323e+000	 1.1270425763e-001	 3.2069325563e+000
 1.7953712044e+000	 1.2900479952e-001	 3.1756326551e+000
 1.7941218960e+000	 1.4534999967e-001	 3.1393478570e+000
 1.7927188355e+000	 1.6173798820e-001	 3.0980481851e+000
 1.8250000000e+000	 0.0000000000e+000	 3.4286495758e+000
 1.8249284506e+000	 1.6160139709e-002	 3.4181514183e+000
 1.8247127668e+000	 3.2377748369e-002	 3.4029905559e+000
 1.8243514082e+000	 4.8651201270e-002	 3.3831864892e+000
 1.8238428526e+000	 6.4978834610e-002	 3.3587531400e+000
 1.8231855972e+000	 8.1358945565e-002	 3.3296985665e+000
 1.8223781596e+000	 9.7789792389e-002	 3.2960246845e+000
 1.8214190786e+000	 1.1426959454e-001	 3.2577269950e+000
 1.8203069156e+000	 1.3079653284e-001	 3.2147943202e+000
 1.8190402556e+000	 1.4736874966e-001	 3.1672085473e+000
 1.8176177082e+000	 1.6398434915e-001	 3.1149443835e+000
 1.8500000000e+000	 0.0000000000e+000	 3.5744491863e+000
 1.8499274705e+000	 1.6381511485e-002	 3.5498208592e+000
 1.8497088321e+000	 3.2821279168e-002	 3.5208367434e+000
 1.8493425234e+000	 4.9317656081e-002	 3.4875244979e+000
 1.8488270013e+000	 6.5868955631e-002	 3.4499058019e+000
 1.8481607424e+000	 8.2473451668e-002	 3.4079960491e+000
 1.8473422440e+000	 9.9129378586e-002	 3.3618040487e+000
 1.8463700248e+000	 1.1583493145e-001	 3.3113317322e+000
 1.8452426268e+000	 1.3258826617e-001	 3.2565738704e+000
 1.8439586153e+000	 1.4938749966e-001	 3.1975177972e+000
 1.8425165809e+000	 1.6623071010e-001	 3.1341431457e+000
 1.8750000000e+000	 0.0000000000e+000	 3.7248995176e+000
 1.8749264904e+000	 1.6602883262e-002	 3.6857948066e+000
 1.8747048974e+000	 3.3264809967e-002	 3.6426622623e+000
 1.8743336386e+000	 4.9984110893e-002	 3.5955380861e+000
 1.8738111500e+000	 6.6759076653e-002	 3.5444520805e+000
 1.8731358876e+000	 8.3587957771e-002	 3.4894273227e+000
 1.8723063283e+000	 1.0046896478e-001	 3.4304798432e+000
 1.8713209711e+000	 1.1740026836e-001	 3.3676183131e+000
 1.8701783379e+000	 1.3437999950e-001	 3.3008437387e+000
 1.8688769750e+000	 1.5140624966e-001	 3.2301491666e+000
 1.8674154536e+000	 1.6847707105e-001	 3.1555193993e+000
 1.9000000000e+000	 0.0000000000e+000	 3.4701106191e+000
 1.8999255102e+000	 1.6824255038e-002	 3.4459308292e+000
 1.8997009627e+000	 3.3708340767e-002	 3.4192384697e+000
 1.8993247537e+000	 5.0650565704e-002	 3.3896078624e+000
 1.8987952986e+000	 6.7649197674e-002	 3.3566292364e+000
 1.8981110327e+000	 8.4702463874e-002	 3.3199097089e+000
 1.8972704127e+000	 1.0180855098e-001	 3.2790742589e+000
 1.8962719174e+000	 1.1896560528e-001	 3.2337666895e+000
 1.8951140491e+000	 1.3617173282e-001	 3.1836505777e+000
 1.8937953346e+000	 1.5342499965e-001	 3.1284102084e+000
 1.8923143264e+000	 1.7072343199e-001	 3.0677514905e+000
 1.9250000000e+000	 0.0000000000e+000	 3.2200396653e+000
 1.9249245301e+000	 1.7045626815e-002	 3.2100749341e+000
 1.9246970280e+000	 3.4151871566e-002	 3.1971530873e+000
 1.9243158689e+000	 5.1317020516e-002	 3.1808328487e+000
 1.9237794473e+000	 6.8539318696e-002	 3.1606897217e+000
 1.9230861779e+000	 8.5816969978e-002	 3.1363170128e+000
 1.9222344971e+000	 1.0314813718e-001	 3.1073268454e+000
 1.9212228637e+000	 1.2053094219e-001	 3.0733511627e+000
 1.9200497603e+000	 1.3796346615e-001	 3.0340427168e+000
 1.9187136943e+000	 1.5544374965e-001	 2.9890760417e+000
 1.9172131991e+000	 1.7296979294e-001	 2.9381484067e+000
 1.9500000000e+000	 0.0000000000e+000	 2.9745774767e+000
 1.9499235500e+000	 1.7266998592e-002	 2.9792395270e+000
 1.9496930933e+000	 3.4595402365e-002	 2.9804760822e+000
 1.9493069841e+000	 5.1983475327e-002	 2.9778299319e+000
 1.9487635960e+000	 6.9429439717e-002	 2.9708615477e+000
 1.9480613231e+000	 8.6931476081e-002	 2.9591501489e+000
 1.9471985815e+000	 1.0448772337e-001	 2.9422947586e+000
 1.9461738100e+000	 1.2209627910e-001	 2.9199152479e+000
 1.9449854715e+000	 1.3975519948e-001	 2.8916533653e+000
 1.9436320540e+000	 1.5746249964e-001	 2.8571737494e+000
 1.9421120718e+000	 1.7521615389e-001	 2.8161649211e+000
 1.9750000000e+000	 0.0000000000e+000	 2.7336204015e+000
 1.9749225698e+000	 1.7488370368e-002	 2.7533201487e+000
 1.9746891586e+000	 3.5038933164e-002	 2.7691015097e+000
 1.9742980993e+000	 5.2649930139e-002	 2.7804909980e+000
 1.9737477446e+000	 7.0319560739e-002	 2.7870337417e+000
 1.9730364682e+000	 8.8045982184e-002	 2.7882945918e+000
 1.9721626658e+000	 1.0582730957e-001	 2.7838592224e+000
 1.9711247563e+000	 1.2366161601e-001	 2.7733352163e+000
 1.9699211826e+000	 1.4154693280e-001	 2.7563531368e+000
 1.9685504136e+000	 1.5948124964e-001	 2.7325675805e+000
 1.9670109445e+000	 1.7746251484e-001	 2.7016582094e+000
 2.0000000000e+000	 0.0000000000e+000	 2.4970699707e+000
 1.9999215897e+000	 1.7709742145e-002	 2.5322174446e+000
 1.9996852239e+000	 3.5482463963e-002	 2.5629284558e+000
 1.9992892145e+000	 5.3316384950e-002	 2.5887128949e+000
 1.9987318933e+000	 7.1209681760e-002	 2.6091002288e+000
 1.9980116134e+000	 8.9160488287e-002	 2.6236406550e+000
 1.9971267502e+000	 1.0716689577e-001	 2.6319062449e+000
 1.9960757025e+000	 1.2522695292e-001	 2.6334920742e+000
 1.9948568938e+000	 1.4333866613e-001	 2.6280173361e+000
 1.9934687733e+000	 1.6149999964e-001	 2.6151264365e+000
 1.9919098172e+000	 1.7970887579e-001	 2.5944900662e+000
 1.7429210901e+000	 1.5724526631e-001	 3.0716963962e+000
 1.7414062137e+000	 1.7321777839e-001	 3.0717386105e+000
 1.7397392646e+000	 1.8922814542e-001	 3.0654569931e+000
 1.7379189865e+000	 2.0527444106e-001	 3.0527756094e+000
 1.7359441509e+000	 2.2135470344e-001	 3.0336125161e+000
 1.7338135582e+000	 2.3746693559e-001	 3.0078796521e+000
 1.7315260383e+000	 2.5360910577e-001	 2.9754827423e+000
 1.7290804525e+000	 2.6977914796e-001	 2.9363212170e+000
 1.7264756937e+000	 2.8597496228e-001	 2.8902881468e+000
 1.7237106878e+000	 3.0219441554e-001	 2.8372701935e+000
 1.7207843947e+000	 3.1843534172e-001	 2.7771475788e+000
 1.7678199628e+000	 1.5949162725e-001	 3.0835860563e+000
 1.7662834454e+000	 1.7569231808e-001	 3.0729766549e+000
 1.7645926827e+000	 1.9193140464e-001	 3.0568366123e+000
 1.7627464006e+000	 2.0820693307e-001	 3.0350987326e+000
 1.7607433531e+000	 2.2451691349e-001	 3.0076889850e+000
 1.7585823233e+000	 2.4085932039e-001	 2.9745263689e+000
 1.7562621246e+000	 2.5723209300e-001	 2.9355227927e+000
 1.7537816018e+000	 2.7363313579e-001	 2.8905829684e+000
 1.7511396322e+000	 2.9006031889e-001	 2.8396043232e+000
 1.7483351262e+000	 3.0651147862e-001	 2.7824769280e+000
 1.7453670289e+000	 3.2298441803e-001	 2.7190834448e+000
 1.7927188355e+000	 1.6173798820e-001	 3.0980481851e+000
 1.7911606770e+000	 1.7816685777e-001	 3.0767444307e+000
 1.7894461008e+000	 1.9463466387e-001	 3.0507129981e+000
 1.7875738147e+000	 2.1113942509e-001	 3.0198954394e+000
 1.7855425553e+000	 2.2767912354e-001	 2.9842256270e+000
 1.7833510884e+000	 2.4425170518e-001	 2.9436295914e+000
 1.7809982109e+000	 2.6085508023e-001	 2.8980253746e+000
 1.7784827512e+000	 2.7748712362e-001	 2.8473229000e+000
 1.7758035707e+000	 2.9414567549e-001	 2.7914238600e+000
 1.7729595646e+000	 3.1082854170e-001	 2.7302216217e+000
 1.7699496631e+000	 3.2753349434e-001	 2.6636011526e+000
 1.8176177082e+000	 1.6398434915e-001	 3.1149443835e+000
 1.8160379086e+000	 1.8064139747e-001	 3.0829018165e+000
 1.8142995188e+000	 1.9733792309e-001	 3.0469450878e+000
 1.8124012288e+000	 2.1407191711e-001	 3.0070245144e+000
 1.8103417574e+000	 2.3084133360e-001	 2.9630818681e+000
 1.8081198535e+000	 2.4764408998e-001	 2.9150501869e+000
 1.8057342971e+000	 2.6447806745e-001	 2.8628536017e+000
 1.8031839005e+000	 2.8134111145e-001	 2.8064071812e+000
 1.8004675091e+000	 2.9823103210e-001	 2.7456167952e+000
 1.7975840030e+000	 3.1514560478e-001	 2.6803789974e+000
 1.7945322974e+000	 3.3208257065e-001	 2.6105809287e+000
 1.8425165809e+000	 1.6623071010e-001	 3.1341431457e+000
 1.8409151402e+000	 1.8311593716e-001	 3.0913157260e+000
 1.8391529369e+000	 2.0004118231e-001	 3.0453989745e+000
 1.8372286429e+000	 2.1700440913e-001	 2.9963519959e+000
 1.8351409596e+000	 2.3400354365e-001	 2.9441244639e+000
 1.8328886186e+000	 2.5103647477e-001	 2.8886564052e+000
 1.8304703834e+000	 2.6810105468e-001	 2.8298779997e+000
 1.8278850498e+000	 2.8519509928e-001	 2.7677093997e+000
 1.8251314476e+000	 3.0231638870e-001	 2.7020605684e+000
 1.8222084414e+000	 3.1946266786e-001	 2.6328311391e+000
 1.8191149316e+000	 3.3663164696e-001	 2.5599102965e+000
 1.8674154536e+000	 1.6847707105e-001	 3.1555193993e+000
 1.8657923719e+000	 1.8559047685e-001	 3.1018596392e+000
 1.8640063550e+000	 2.0274444153e-001	 3.0459474299e+000
 1.8620560570e+000	 2.1993690114e-001	 2.9877506923e+000
 1.8599401617e+000	 2.3716575370e-001	 2.9272270102e+000
 1.8576573837e+000	 2.5442885957e-001	 2.8643233856e+000
 1.8552064696e+000	 2.7172404191e-001	 2.7989760120e+000
 1.8525861991e+000	 2.8904908711e-001	 2.7311100674e+000
 1.8497953861e+000	 3.0640174531e-001	 2.6606395275e+000
 1.8468328798e+000	 3.2377973094e-001	 2.5874670016e+000
 1.8436975658e+000	 3.4118072327e-001	 2.5114835900e+000
 1.8923143264e+000	 1.7072343199e-001	 3.0677514905e+000
 1.8906696035e+000	 1.8806501655e-001	 3.0264370118e+000
 1.8888597730e+000	 2.0544770075e-001	 2.9813567931e+000
 1.8868834711e+000	 2.2286939316e-001	 2.9323015852e+000
 1.8847393639e+000	 2.4032796375e-001	 2.8790858281e+000
 1.8824261489e+000	 2.5782124437e-001	 2.8215483968e+000
 1.8799425559e+000	 2.7534702914e-001	 2.7595533146e+000
 1.8772873485e+000	 2.9290307494e-001	 2.6929904313e+000
 1.8744593246e+000	 3.1048710192e-001	 2.6212444745e+000
 1.8714573182e+000	 3.2809679402e-001	 2.5441819579e+000
 1.8682802000e+000	 3.4572979958e-001	 2.4652015057e+000
 1.9172131991e+000	 1.7296979294e-001	 2.9381484067e+000
 1.9155468351e+000	 1.9053955624e-001	 2.9061878593e+000
 1.9137131911e+000	 2.0815095998e-001	 2.8703275499e+000
 1.9117108852e+000	 2.2580188518e-001	 2.8303582617e+000
 1.9095385661e+000	 2.4349017380e-001	 2.7860954359e+000
 1.9071949140e+000	 2.6121362916e-001	 2.7373799375e+000
 1.9046786422e+000	 2.7897001637e-001	 2.6840787877e+000
 1.9019884978e+000	 2.9675706277e-001	 2.6260858585e+000
 1.8991232631e+000	 3.1457245852e-001	 2.5633225281e+000
 1.8960817566e+000	 3.3241385710e-001	 2.4957382946e+000
 1.8928628342e+000	 3.5027887589e-001	 2.4233113447e+000
 1.9421120718e+000	 1.7521615389e-001	 2.8161649211e+000
 1.9404240667e+000	 1.9301409593e-001	 2.7937854211e+000
 1.9385666092e+000	 2.1085421920e-001	 2.7673357962e+000
 1.9365382993e+000	 2.2873437719e-001	 2.7366067391e+000
 1.9343377682e+000	 2.4665238385e-001	 2.7014146121e+000
 1.9319636791e+000	 2.6460601396e-001	 2.6616022346e+000
 1.9294147284e+000	 2.8259300359e-001	 2.6170396345e+000
 1.9266896471e+000	 3.0061105060e-001	 2.5676247603e+000
 1.9237872016e+000	 3.1865781513e-001	 2.5132841533e+000
 1.9207061950e+000	 3.3673092018e-001	 2.4539735741e+000
 1.9174454684e+000	 3.5482795221e-001	 2.3896785842e+000
 1.9670109445e+000	 1.7746251484e-001	 2.7016582094e+000
 1.9653012984e+000	 1.9548863562e-001	 2.6890766175e+000
 1.9634200273e+000	 2.1355747842e-001	 2.6722178893e+000
 1.9613657134e+000	 2.3166686921e-001	 2.6508725090e+000
 1.9591369704e+000	 2.4981459391e-001	 2.6248576860e+000
 1.9567324442e+000	 2.6799839876e-001	 2.5940181646e+000
 1.9541508147e+000	 2.8621599082e-001	 2.5582269950e+000
 1.9513907964e+000	 3.0446503843e-001	 2.5173862648e+000
 1.9484511400e+000	 3.2274317174e-001	 2.4714277870e+000
 1.9453306334e+000	 3.4104798327e-001	 2.4203137419e+000
 1.9420281026e+000	 3.5937702852e-001	 2.3640372710e+000
 1.9919098172e+000	 1.7970887579e-001	 2.5944900662e+000
 1.9901785300e+000	 1.9796317532e-001	 2.5919130831e+000
 1.9882734453e+000	 2.1626073764e-001	 2.5848149812e+000
 1.9861931275e+000	 2.3459936123e-001	 2.5729859235e+000
 1.9839361725e+000	 2.5297680396e-001	 2.5562438982e+000
 1.9815012093e+000	 2.7139078356e-001	 2.5344355506e+000
 1.9788869010e+000	 2.8983897805e-001	 2.5074369762e+000
 1.9760919458e+000	 3.0831902626e-001	 2.4751544711e+000
 1.9731150785e+000	 3.2682852835e-001	 2.4375252371e+000
 1.9699550718e+000	 3.4536504635e-001	 2.3945180397e+000
 1.9666107368e+000	 3.6392610484e-001	 2.3461338147e+000
 1.7207843947e+000	 3.1843534172e-001	 2.7771475788e+000
 1.7176958094e+000	 3.3469554257e-001	 2.7387199251e+000
 1.7144439629e+000	 3.5097278822e-001	 2.6954966502e+000
 1.7110279231e+000	 3.6726481779e-001	 2.6473332232e+000
 1.7074467960e+000	 3.8356934007e-001	 2.5940764493e+000
 1.7036997268e+000	 3.9988403422e-001	 2.5355644981e+000
 1.6997859004e+000	 4.1620655053e-001	 2.4716269545e+000
 1.6957045429e+000	 4.3253451115e-001	 2.4020848943e+000
 1.6914549220e+000	 4.4886551095e-001	 2.3267509837e+000
 1.6870363485e+000	 4.6519711830e-001	 2.2454296047e+000
 1.6824481768e+000	 4.8152687598e-001	 2.1579170056e+000
 1.7453670289e+000	 3.2298441803e-001	 2.7190834448e+000
 1.7422343210e+000	 3.3947690746e-001	 2.6769545765e+000
 1.7389360195e+000	 3.5598668519e-001	 2.6303649727e+000
 1.7354711791e+000	 3.7251145804e-001	 2.5791687295e+000
 1.7318388931e+000	 3.8904890206e-001	 2.5232106549e+000
 1.7280382943e+000	 4.0559666328e-001	 2.4623262901e+000
 1.7240685561e+000	 4.2215235839e-001	 2.3963419554e+000
 1.7199288935e+000	 4.3871357559e-001	 2.3250748213e+000
 1.7156185637e+000	 4.5527787539e-001	 2.2483330049e+000
 1.7111368678e+000	 4.7184279141e-001	 2.1659156938e+000
 1.7064831508e+000	 4.8840583136e-001	 2.0776132961e+000
 1.7699496631e+000	 3.2753349434e-001	 2.6636011526e+000
 1.7667728326e+000	 3.4425827236e-001	 2.6179953811e+000
 1.7634280761e+000	 3.6100058217e-001	 2.5682871724e+000
 1.7599144352e+000	 3.7775809829e-001	 2.5143290952e+000
 1.7562309902e+000	 3.9452846406e-001	 2.4559637752e+000
 1.7523768619e+000	 4.1130929234e-001	 2.3930239097e+000
 1.7483512119e+000	 4.2809816625e-001	 2.3253323073e+000
 1.7441532441e+000	 4.4489264004e-001	 2.2527019544e+000
 1.7397822055e+000	 4.6169023983e-001	 2.1749361093e+000
 1.7352373870e+000	 4.7848846453e-001	 2.0918284232e+000
 1.7305181247e+000	 4.9528478673e-001	 2.0031630905e+000
 1.7945322974e+000	 3.3208257065e-001	 2.6105809287e+000
 1.7913113441e+000	 3.4903963725e-001	 2.5617218500e+000
 1.7879201327e+000	 3.6601447914e-001	 2.5091422721e+000
 1.7843576912e+000	 3.8300473855e-001	 2.4526930810e+000
 1.7806230873e+000	 4.0000802606e-001	 2.3922145335e+000
 1.7767154294e+000	 4.1702192139e-001	 2.3275362648e+000
 1.7726338676e+000	 4.3404397412e-001	 2.2584773221e+000
 1.7683775947e+000	 4.5107170448e-001	 2.1848462269e+000
 1.7639458472e+000	 4.6810260427e-001	 2.1064410649e+000
 1.7593379063e+000	 4.8513413765e-001	 2.0230496058e+000
 1.7545530987e+000	 5.0216374210e-001	 1.9344494524e+000
 1.8191149316e+000	 3.3663164696e-001	 2.5599102965e+000
 1.8158498557e+000	 3.5382100214e-001	 2.5080210832e+000
 1.8124121893e+000	 3.7102837612e-001	 2.4528171842e+000
 1.8088009473e+000	 3.8825137880e-001	 2.3941476455e+000
 1.8050151844e+000	 4.0548758806e-001	 2.3318501665e+000
 1.8010539969e+000	 4.2273455045e-001	 2.2657511001e+000
 1.7969165233e+000	 4.3998978198e-001	 2.1956654804e+000
 1.7926019453e+000	 4.5725076893e-001	 2.1213970791e+000
 1.7881094890e+000	 4.7451496871e-001	 2.0427384932e+000
 1.7834384256e+000	 4.9177981077e-001	 1.9594712615e+000
 1.7785880727e+000	 5.0904269747e-001	 1.8713660137e+000
 1.8436975658e+000	 3.4118072327e-001	 2.5114835900e+000
 1.8403883673e+000	 3.5860236704e-001	 2.4567872643e+000
 1.8369042460e+000	 3.7604227309e-001	 2.3992061845e+000
 1.8332442033e+000	 3.9349801906e-001	 2.3385873979e+000
 1.8294072815e+000	 4.1096715007e-001	 2.2747658564e+000
 1.8253925645e+000	 4.2844717952e-001	 2.2075644083e+000
 1.8211991790e+000	 4.4593558984e-001	 2.1367938193e+000
 1.8168262959e+000	 4.6342983337e-001	 2.0622528247e+000
 1.8122731307e+000	 4.8092733315e-001	 1.9837282122e+000
 1.8075389448e+000	 4.9842548389e-001	 1.9009949372e+000
 1.8026230466e+000	 5.1592165284e-001	 1.8138162701e+000
 1.8682802000e+000	 3.4572979958e-001	 2.4652015057e+000
 1.8649268788e+000	 3.6338373194e-001	 2.4079211940e+000
 1.8613963026e+000	 3.8105617007e-001	 2.3482104277e+000
 1.8576874594e+000	 3.9874465931e-001	 2.2859140953e+000
 1.8537993786e+000	 4.1644671207e-001	 2.2208642088e+000
 1.8497311320e+000	 4.3415980858e-001	 2.1528798870e+000
 1.8454818348e+000	 4.5188139771e-001	 2.0817673703e+000
 1.8410506465e+000	 4.6960889782e-001	 2.0073200668e+000
 1.8364367724e+000	 4.8733969760e-001	 1.9293186317e+000
 1.8316394641e+000	 5.0507115701e-001	 1.8475310798e+000
 1.8266580206e+000	 5.2280060822e-001	 1.7617129326e+000
 1.8928628342e+000	 3.5027887589e-001	 2.4233113447e+000
 1.8894653904e+000	 3.6816509683e-001	 2.3694460767e+000
 1.8858883592e+000	 3.8607006704e-001	 2.3100954773e+000
 1.8821307154e+000	 4.0399129957e-001	 2.2453167013e+000
 1.8781914757e+000	 4.2192627407e-001	 2.1751978584e+000
 1.8740696995e+000	 4.3987243764e-001	 2.1016084390e+000
 1.8697644905e+000	 4.5782720558e-001	 2.0304986398e+000
 1.8652749971e+000	 4.7578796226e-001	 1.9565131599e+000
 1.8606004142e+000	 4.9375206204e-001	 1.8794261949e+000
 1.8557399833e+000	 5.1171683013e-001	 1.7989984585e+000
 1.8506929945e+000	 5.2967956359e-001	 1.7149773287e+000
 1.9174454684e+000	 3.5482795221e-001	 2.3896785842e+000
 1.9140039020e+000	 3.7294646173e-001	 2.3436054552e+000
 1.9103804158e+000	 3.9108396402e-001	 2.2915076627e+000
 1.9065739715e+000	 4.0923793982e-001	 2.2334526272e+000
 1.9025835728e+000	 4.2740583607e-001	 2.1695402313e+000
 1.8984082670e+000	 4.4558506670e-001	 2.0999031556e+000
 1.8940471462e+000	 4.6377301344e-001	 2.0247071531e+000
 1.8894993478e+000	 4.8196702671e-001	 1.9441512598e+000
 1.8847640559e+000	 5.0016442648e-001	 1.8584679406e+000
 1.8798405026e+000	 5.1836250325e-001	 1.7679231667e+000
 1.8747279685e+000	 5.3655851896e-001	 1.6735388500e+000
 1.9420281026e+000	 3.5937702852e-001	 2.3640372710e+000
 1.9385424135e+000	 3.7772782663e-001	 2.3257359659e+000
 1.9348724724e+000	 3.9609786100e-001	 2.2808458111e+000
 1.9310172275e+000	 4.1448458008e-001	 2.2294448817e+000
 1.9269756698e+000	 4.3288539808e-001	 2.1716452666e+000
 1.9227468346e+000	 4.5129769576e-001	 2.1075934129e+000
 1.9183298019e+000	 4.6971882131e-001	 2.0374704052e+000
 1.9137236984e+000	 4.8814609116e-001	 1.9614921796e+000
 1.9089276977e+000	 5.0657679093e-001	 1.8799096681e+000
 1.9039410219e+000	 5.2500817637e-001	 1.7930088734e+000
 1.8987629424e+000	 5.4343747433e-001	 1.7011108712e+000
 1.9666107368e+000	 3.6392610484e-001	 2.3461338147e+000
 1.9630809251e+000	 3.8250919152e-001	 2.3155660857e+000
 1.9593645290e+000	 4.0111175798e-001	 2.2778198115e+000
 1.9554604835e+000	 4.1973122034e-001	 2.2329841209e+000
 1.9513677669e+000	 4.3836496008e-001	 2.1811837531e+000
 1.9470854021e+000	 4.5701032483e-001	 2.1225794102e+000
 1.9426124576e+000	 4.7566462918e-001	 2.0573680433e+000
 1.9379480490e+000	 4.9432515561e-001	 1.9857830677e+000
 1.9330913394e+000	 5.1298915537e-001	 1.9080945077e+000
 1.9280415411e+000	 5.3165384949e-001	 1.8246090670e+000
 1.9227979164e+000	 5.5031642970e-001	 1.7356701245e+000
 1.6824481768e+000	 4.8152687598e-001	 2.1579170056e+000
 1.6776898060e+000	 4.9785230211e-001	 2.0954897691e+000
 1.6727606807e+000	 5.1417089100e-001	 2.0280976850e+000
 1.6676602917e+000	 5.3048011422e-001	 1.9554924359e+000
 1.6623881771e+000	 5.4677742155e-001	 1.8774166512e+000
 1.6569439230e+000	 5.6306024200e-001	 1.7936041832e+000
 1.6513271642e+000	 5.7932598494e-001	 1.7037804133e+000
 1.6455375851e+000	 5.9557204113e-001	 1.6076625876e+000
 1.6395749202e+000	 6.1179578385e-001	 1.5049601815e+000
 1.6334389551e+000	 6.2799457010e-001	 1.3950185265e+000
 1.6271295268e+000	 6.4416574173e-001	 1.2745008737e+000
 1.7064831508e+000	 4.8840583136e-001	 2.0776132961e+000
 1.7016568033e+000	 5.0496447785e-001	 2.0136438378e+000
 1.6966572618e+000	 5.2151618944e-001	 1.9456323895e+000
 1.6914840101e+000	 5.3805840157e-001	 1.8733259447e+000
 1.6861365796e+000	 5.5458852757e-001	 1.7964612579e+000
 1.6806145504e+000	 5.7110395975e-001	 1.7147651155e+000
 1.6749175522e+000	 5.8760207045e-001	 1.6279546394e+000
 1.6690452648e+000	 6.0408021315e-001	 1.5357376206e+000
 1.6629974190e+000	 6.2053572362e-001	 1.4378128858e+000
 1.6567737973e+000	 6.3696592110e-001	 1.3304830966e+000
 1.6503742344e+000	 6.5336810947e-001	 1.2125067523e+000
 1.7305181247e+000	 4.9528478673e-001	 2.0031630905e+000
 1.7256238005e+000	 5.1207665360e-001	 1.9380579266e+000
 1.7205538430e+000	 5.2886148789e-001	 1.8698363940e+000
 1.7153077286e+000	 5.4563668892e-001	 1.7982402236e+000
 1.7098849821e+000	 5.6239963360e-001	 1.7229996993e+000
 1.7042851779e+000	 5.7914767750e-001	 1.6438339250e+000
 1.6985079403e+000	 5.9587815595e-001	 1.5604511245e+000
 1.6925529446e+000	 6.1258838517e-001	 1.4725489753e+000
 1.6864199179e+000	 6.2927566340e-001	 1.3784255982e+000
 1.6801086395e+000	 6.4593727211e-001	 1.2724289282e+000
 1.6736189419e+000	 6.6257047722e-001	 1.1569701184e+000
 1.7545530987e+000	 5.0216374210e-001	 1.9344494524e+000
 1.7495907977e+000	 5.1918882934e-001	 1.8686182466e+000
 1.7444504242e+000	 5.3620678633e-001	 1.8005999814e+000
 1.7391314470e+000	 5.5321497627e-001	 1.7301305507e+000
 1.7336333847e+000	 5.7021073962e-001	 1.6569331712e+000
 1.7279558054e+000	 5.8719139524e-001	 1.5807186443e+000
 1.7220983284e+000	 6.0415424145e-001	 1.5011856545e+000
 1.7160606244e+000	 6.2109655719e-001	 1.4180211032e+000
 1.7098424168e+000	 6.3801560317e-001	 1.3245439713e+000
 1.7034434817e+000	 6.5490862311e-001	 1.2206237593e+000
 1.6968636494e+000	 6.7177284496e-001	 1.1076566289e+000
 1.7785880727e+000	 5.0904269747e-001	 1.8713660137e+000
 1.7735577950e+000	 5.2630100509e-001	 1.8052218540e+000
 1.7683470053e+000	 5.4355208478e-001	 1.7378245244e+000
 1.7629551655e+000	 5.6079326361e-001	 1.6689035064e+000
 1.7573817872e+000	 5.7802184564e-001	 1.5981743500e+000
 1.7516264329e+000	 5.9523511299e-001	 1.5253389326e+000
 1.7456887164e+000	 6.1243032695e-001	 1.4500857546e+000
 1.7395683042e+000	 6.2960472920e-001	 1.3698169284e+000
 1.7332649156e+000	 6.4675554294e-001	 1.2766991859e+000
 1.7267783239e+000	 6.6387997412e-001	 1.1748472011e+000
 1.7201083570e+000	 6.8097521270e-001	 1.0643437903e+000
 1.8026230466e+000	 5.1592165284e-001	 1.8138162701e+000
 1.7975247922e+000	 5.3341318083e-001	 1.7477759273e+000
 1.7922435865e+000	 5.5089738322e-001	 1.6814217462e+000
 1.7867788839e+000	 5.6837155096e-001	 1.6144762189e+000
 1.7811301897e+000	 5.8583295167e-001	 1.5466466280e+000
 1.7752970603e+000	 6.0327883073e-001	 1.4776253011e+000
 1.7692791045e+000	 6.2070641246e-001	 1.4070899067e+000
 1.7630759840e+000	 6.3811290122e-001	 1.3261140924e+000
 1.7566874145e+000	 6.5549548271e-001	 1.2346845379e+000
 1.7501131661e+000	 6.7285132512e-001	 1.1348899465e+000
 1.7433530645e+000	 6.9017758044e-001	 1.0268201680e+000
 1.8266580206e+000	 5.2280060822e-001	 1.7617129326e+000
 1.8214917894e+000	 5.4052535658e-001	 1.6961971013e+000
 1.8161401676e+000	 5.5824268167e-001	 1.6313130394e+000
 1.8106026024e+000	 5.7594983831e-001	 1.5667756712e+000
 1.8048785923e+000	 5.9364405769e-001	 1.5022834077e+000
 1.7989676878e+000	 6.1132254848e-001	 1.4375183990e+000
 1.7928694926e+000	 6.2898249796e-001	 1.3696757671e+000
 1.7865836638e+000	 6.4662107324e-001	 1.2880396174e+000
 1.7801099133e+000	 6.6423542248e-001	 1.1983036668e+000
 1.7734480084e+000	 6.8182267612e-001	 1.1005530413e+000
 1.7665977720e+000	 6.9937994818e-001	 9.9488465925e-001
 1.8506929945e+000	 5.2967956359e-001	 1.7149773287e+000
 1.8454587867e+000	 5.4763753232e-001	 1.6504108530e+000
 1.8400367488e+000	 5.6558798011e-001	 1.5874288385e+000
 1.8344263209e+000	 5.8352812565e-001	 1.5257380606e+000
 1.8286269948e+000	 6.0145516371e-001	 1.4650274524e+000
 1.8226383153e+000	 6.1936626622e-001	 1.4049683548e+000
 1.8164598806e+000	 6.3725858345e-001	 1.3356747157e+000
 1.8100913436e+000	 6.5512924526e-001	 1.2554098118e+000
 1.8035324122e+000	 6.7297536225e-001	 1.1673698840e+000
 1.7967828506e+000	 6.9079402712e-001	 1.0716472114e+000
 1.7898424795e+000	 7.0858231592e-001	 9.6834582217e-001
 1.8747279685e+000	 5.3655851896e-001	 1.6735388500e+000
 1.8694257839e+000	 5.5474970807e-001	 1.6103509348e+000
 1.8639333299e+000	 5.7293327855e-001	 1.5497080397e+000
 1.8582500393e+000	 5.9110641300e-001	 1.4913082081e+000
 1.8523753973e+000	 6.0926626974e-001	 1.4348302859e+000
 1.8463089428e+000	 6.2740998396e-001	 1.3782461863e+000
 1.8400502687e+000	 6.4553466895e-001	 1.3069261264e+000
 1.8335990234e+000	 6.6363741727e-001	 1.2280500015e+000
 1.8269549111e+000	 6.8171530202e-001	 1.1417055528e+000
 1.8201176928e+000	 6.9976537812e-001	 1.0479922428e+000
 1.8130871871e+000	 7.1778468366e-001	 9.4702125634e-001
 1.8987629424e+000	 5.4343747433e-001	 1.7011108712e+000
 1.8933927811e+000	 5.6186188381e-001	 1.6252380212e+000
 1.8878299111e+000	 5.8027857699e-001	 1.5518648059e+000
 1.8820737578e+000	 5.9868470035e-001	 1.4814197221e+000
 1.8761237999e+000	 6.1707737576e-001	 1.4143591548e+000
 1.8699795702e+000	 6.3545370170e-001	 1.3534658499e+000
 1.8636406567e+000	 6.5381075445e-001	 1.2832670587e+000
 1.8571067031e+000	 6.7214558929e-001	 1.2057939599e+000
 1.8503774099e+000	 6.9045524179e-001	 1.1211415155e+000
 1.8434525350e+000	 7.0873672912e-001	 1.0294164079e+000
 1.8363318946e+000	 7.2698705140e-001	 9.3073703062e-001
 1.9227979164e+000	 5.5031642970e-001	 1.7356701245e+000
 1.9173597783e+000	 5.6897405956e-001	 1.6609546693e+000
 1.9117264922e+000	 5.8762387544e-001	 1.5888261490e+000
 1.9058974762e+000	 6.0626298769e-001	 1.5197423691e+000
 1.8998722024e+000	 6.2488848178e-001	 1.4541900858e+000
 1.8936501977e+000	 6.4349741945e-001	 1.3744441922e+000
 1.8872310448e+000	 6.6208683995e-001	 1.2893579820e+000
 1.8806143829e+000	 6.8065376130e-001	 1.1990195411e+000
 1.8737999088e+000	 6.9919518155e-001	 1.1055165634e+000
 1.8667873772e+000	 7.1770808012e-001	 1.0157559350e+000
 1.8595766021e+000	 7.3618941913e-001	 9.1932715384e-001
 1.6271295268e+000	 6.4416574173e-001	 1.2745008737e+000
 1.6206465249e+000	 6.6030662669e-001	 1.1960889532e+000
 1.6139898915e+000	 6.7641454021e-001	 1.1134708964e+000
 1.6071596221e+000	 6.9248678611e-001	 1.0267547322e+000
 1.6001557665e+000	 7.0852065808e-001	 9.3605603258e-001
 1.5929784285e+000	 7.2451344093e-001	 8.4149782535e-001
 1.5856277673e+000	 7.4046241198e-001	 7.4321049074e-001
 1.5781039969e+000	 7.5636484241e-001	 6.4133164402e-001
 1.5704073875e+000	 7.7221799855e-001	 5.3600600305e-001
 1.5625382650e+000	 7.8801914338e-001	 4.2738524116e-001
 1.5544970119e+000	 8.0376553783e-001	 3.1562782554e-001
 1.6503742344e+000	 6.5336810947e-001	 1.2125067523e+000
 1.6437986181e+000	 6.6973957850e-001	 1.1364343312e+000
 1.6370468899e+000	 6.8607760507e-001	 1.0562114284e+000
 1.6301190453e+000	 7.0237945449e-001	 9.7194385995e-001
 1.6230151346e+000	 7.1864238176e-001	 8.8374503931e-001
 1.6157352632e+000	 7.3486363294e-001	 7.9173588904e-001
 1.6082795925e+000	 7.5104044644e-001	 6.9604473733e-001
 1.6006483397e+000	 7.6717005444e-001	 5.9680719967e-001
 1.5928417787e+000	 7.8324968425e-001	 4.9416604542e-001
 1.5848602402e+000	 7.9927655972e-001	 3.8827104943e-001
 1.5767041121e+000	 8.1524790266e-001	 2.7927882889e-001
 1.6736189419e+000	 6.6257047722e-001	 1.1569701184e+000
 1.6669507113e+000	 6.7917253031e-001	 1.0828952231e+000
 1.6601038884e+000	 6.9574066993e-001	 1.0047155969e+000
 1.6530784685e+000	 7.1227212286e-001	 9.2253510003e-001
 1.6458745027e+000	 7.2876410545e-001	 8.3646525595e-001
 1.6384920979e+000	 7.4521382496e-001	 7.4662516308e-001
 1.6309314178e+000	 7.6161848090e-001	 6.5314139050e-001
 1.6231926825e+000	 7.7797526648e-001	 5.5614785855e-001
 1.6152761700e+000	 7.9428136994e-001	 4.5578570413e-001
 1.6071822154e+000	 8.1053397605e-001	 3.5220313080e-001
 1.5989112123e+000	 8.2673026749e-001	 2.4555524380e-001
 1.6968636494e+000	 6.7177284496e-001	 1.1076566289e+000
 1.6901028046e+000	 6.8860548212e-001	 1.0352479772e+000
 1.6831608868e+000	 7.0540373479e-001	 9.5877055294e-001
 1.6760378917e+000	 7.2216479124e-001	 8.7832651453e-001
 1.6687338708e+000	 7.3888582914e-001	 7.9402576249e-001
 1.6612489326e+000	 7.5556401697e-001	 7.0598584998e-001
 1.6535832430e+000	 7.7219651536e-001	 6.1433187774e-001
 1.6457370254e+000	 7.8878047852e-001	 5.1919637344e-001
 1.6377105612e+000	 8.0531305564e-001	 4.2071915540e-001
 1.6295041906e+000	 8.2179139239e-001	 3.1904718088e-001
 1.6211183125e+000	 8.3821263232e-001	 2.1433437891e-001
 1.7201083570e+000	 6.8097521270e-001	 1.0643437903e+000
 1.7132548978e+000	 6.9803843393e-001	 9.9328007205e-001
 1.7062178853e+000	 7.1506679966e-001	 9.1817384681e-001
 1.6989973148e+000	 7.3205745961e-001	 8.3912582404e-001
 1.6915932389e+000	 7.4900755283e-001	 7.5624454612e-001
 1.6840057673e+000	 7.6591420899e-001	 6.6964629806e-001
 1.6762350683e+000	 7.8277454982e-001	 5.7945500125e-001
 1.6682813682e+000	 7.9958569055e-001	 4.8580209130e-001
 1.6601449525e+000	 8.1634474134e-001	 3.8882637995e-001
 1.6518261659e+000	 8.3304880872e-001	 2.8867390121e-001
 1.6433254126e+000	 8.4969499715e-001	 1.8549774181e-001
 1.7433530645e+000	 6.9017758044e-001	 1.0268201680e+000
 1.7364069910e+000	 7.0747138575e-001	 9.5678937370e-001
 1.7292748837e+000	 7.2472986452e-001	 8.8273273507e-001
 1.7219567380e+000	 7.4195012799e-001	 8.0474976372e-001
 1.7144526070e+000	 7.5912927652e-001	 7.2294790736e-001
 1.7067626020e+000	 7.7626440100e-001	 6.3744245841e-001
 1.6988868935e+000	 7.9335258428e-001	 5.4835644632e-001
 1.6908257110e+000	 8.1039090259e-001	 4.5582051366e-001
 1.6825793437e+000	 8.2737642703e-001	 3.5997277600e-001
 1.6741481411e+000	 8.4430622506e-001	 2.6095866561e-001
 1.6655325128e+000	 8.6117736198e-001	 1.5893075911e-001
 1.7665977720e+000	 6.9937994818e-001	 9.9488465925e-001
 1.7595590842e+000	 7.1690433756e-001	 9.2558345267e-001
 1.7523318822e+000	 7.3439292938e-001	 8.5226354176e-001
 1.7449161612e+000	 7.5184279636e-001	 7.7502349020e-001
 1.7373119751e+000	 7.6925100021e-001	 6.9396991319e-001
 1.7295194367e+000	 7.8661459301e-001	 6.0921738474e-001
 1.7215387188e+000	 8.0393061874e-001	 5.2088832849e-001
 1.7133700538e+000	 8.2119611462e-001	 4.2911289173e-001
 1.7050137350e+000	 8.3840811273e-001	 3.3402880292e-001
 1.6964701163e+000	 8.5556364139e-001	 2.3578121274e-001
 1.6877396130e+000	 8.7265972680e-001	 1.3452251864e-001
 1.7898424795e+000	 7.0858231592e-001	 9.6834582217e-001
 1.7827111774e+000	 7.2633728937e-001	 8.9947895367e-001
 1.7753888806e+000	 7.4405599424e-001	 8.2659106970e-001
 1.7678755844e+000	 7.6173546473e-001	 7.4978003479e-001
 1.7601713431e+000	 7.7937272389e-001	 6.6915189265e-001
 1.7522762714e+000	 7.9696478503e-001	 5.8482077212e-001
 1.7441905440e+000	 8.1450865319e-001	 4.9690877602e-001
 1.7359143966e+000	 8.3200132666e-001	 4.0554585302e-001
 1.7274481262e+000	 8.4943979842e-001	 3.1086965253e-001
 1.7187920915e+000	 8.6682105773e-001	 2.1302536270e-001
 1.7099467131e+000	 8.8414209163e-001	 1.1216553167e-001
 1.8130871871e+000	 7.1778468366e-001	 9.4702125634e-001
 1.8058632706e+000	 7.3577024118e-001	 8.7830101395e-001
 1.7984458791e+000	 7.5371905910e-001	 8.0554805697e-001
 1.7908350075e+000	 7.7162813311e-001	 7.2885979863e-001
 1.7830307112e+000	 7.8949444758e-001	 6.4834197141e-001
 1.7750331061e+000	 8.0731497704e-001	 5.6410853127e-001
 1.7668423693e+000	 8.2508668765e-001	 4.7628154443e-001
 1.7584587394e+000	 8.4280653869e-001	 3.8499105674e-001
 1.7498825175e+000	 8.6047148411e-001	 2.9037494576e-001
 1.7411140667e+000	 8.7807847406e-001	 1.9257875539e-001
 1.7321538133e+000	 8.9562445646e-001	 9.1755513471e-002
 1.8363318946e+000	 7.2698705140e-001	 9.3073703062e-001
 1.8290153638e+000	 7.4520319299e-001	 8.6188272581e-001
 1.8215028775e+000	 7.6338212396e-001	 7.8897467462e-001
 1.8137944307e+000	 7.8152080148e-001	 7.1211008628e-001
 1.8058900793e+000	 7.9961617127e-001	 6.3139464157e-001
 1.7977899408e+000	 8.1766516906e-001	 5.4694239519e-001
 1.7894941945e+000	 8.3566472211e-001	 4.5887566034e-001
 1.7810030823e+000	 8.5361175073e-001	 3.6732487530e-001
 1.7723169087e+000	 8.7150316981e-001	 2.7242845232e-001
 1.7634360419e+000	 8.8933589040e-001	 1.7433260875e-001
 1.7543609135e+000	 9.0710682128e-001	 7.3191180551e-002
 1.8595766021e+000	 7.3618941913e-001	 9.1932715384e-001
 1.8521674571e+000	 7.5463614479e-001	 8.5006463935e-001
 1.8445598760e+000	 7.7304518882e-001	 7.7671806220e-001
 1.8367538539e+000	 7.9141346985e-001	 6.9938467427e-001
 1.8287494474e+000	 8.0973789495e-001	 6.1817036371e-001
 1.8205467755e+000	 8.2801536107e-001	 5.3318955523e-001
 1.8121460198e+000	 8.4624275656e-001	 4.4456509208e-001
 1.8035474251e+000	 8.6441696276e-001	 3.5242809976e-001
 1.7947513000e+000	 8.8253485550e-001	 2.5691783141e-001
 1.7857580172e+000	 9.0059330673e-001	 1.5818149511e-001
 1.7765680137e+000	 9.1858918611e-001	 5.6374063052e-002
 1.5544970119e+000	 8.0376553783e-001	 3.1562782554e-001
 1.5462840674e+000	 8.1945444228e-001	 2.3199287914e-001
 1.5378999272e+000	 8.3508311794e-001	 1.4561364565e-001
 1.5293451444e+000	 8.5064882832e-001	 5.6630470443e-002
 1.5206203292e+000	 8.6614884069e-001	-3.4810433483e-002
 1.5117261490e+000	 8.8158042754e-001	-1.2855718023e-001
 1.5026633286e+000	 8.9694086807e-001	-2.2445241826e-001
 1.4934326500e+000	 9.1222744964e-001	-3.2233354994e-001
 1.4840349526e+000	 9.2743746930e-001	-4.2203296289e-001
 1.4744711329e+000	 9.4256823526e-001	-5.2337827279e-001
 1.4647421446e+000	 9.5761706841e-001	-6.2619257717e-001
 1.5767041121e+000	 8.1524790266e-001	 2.7927882889e-001
 1.5683738397e+000	 8.3116093432e-001	 1.9713574725e-001
 1.5598699262e+000	 8.4701287677e-001	 1.1217683824e-001
 1.5511929322e+000	 8.6280095444e-001	 2.4551828133e-002
 1.5423434768e+000	 8.7852239556e-001	-6.5583453737e-002
 1.5333222369e+000	 8.9417443366e-001	-1.5806728217e-001
 1.5241299476e+000	 9.0975430904e-001	-2.5273225652e-001
 1.5147674021e+000	 9.2525927035e-001	-3.4940553382e-001
 1.5052354519e+000	 9.4068657601e-001	-4.4790907428e-001
 1.4955350063e+000	 9.5603349577e-001	-5.4805989878e-001
 1.4856670324e+000	 9.7129731225e-001	-6.4967035775e-001
 1.5989112123e+000	 8.2673026749e-001	 2.4555524380e-001
 1.5904636121e+000	 8.4286742635e-001	 1.6500018840e-001
 1.5818399251e+000	 8.5894263560e-001	 8.1554780822e-002
 1.5730407200e+000	 8.7495308057e-001	-4.6217324946e-003
 1.5640666244e+000	 8.9089595043e-001	-9.3363761024e-002
 1.5549183247e+000	 9.0676843977e-001	-1.8449959017e-001
 1.5455965666e+000	 9.2256775002e-001	-2.7785161501e-001
 1.5361021543e+000	 9.3829109106e-001	-3.7323658729e-001
 1.5264359512e+000	 9.5393568271e-001	-4.7046587546e-001
 1.5165988796e+000	 9.6949875628e-001	-5.6934573697e-001
 1.5065919202e+000	 9.8497755608e-001	-6.6967760261e-001
 1.6211183125e+000	 8.3821263232e-001	 2.1433437891e-001
 1.6125533845e+000	 8.5457391839e-001	 1.3545367350e-001
 1.6038099241e+000	 8.7087239443e-001	 5.3605038408e-002
 1.5948885078e+000	 8.8710520669e-001	-3.1042613381e-002
 1.5857897719e+000	 9.0326950530e-001	-1.1831377814e-001
 1.5765144126e+000	 9.1936244588e-001	-2.0802659442e-001
 1.5670631856e+000	 9.3538119099e-001	-2.9999309042e-001
 1.5574369064e+000	 9.5132291177e-001	-3.9401944521e-001
 1.5476364506e+000	 9.6718478942e-001	-4.8990626334e-001
 1.5376627529e+000	 9.8296401678e-001	-5.8744886255e-001
 1.5275168080e+000	 9.9865779992e-001	-6.8643757370e-001
 1.6433254126e+000	 8.4969499715e-001	 1.8549774181e-001
 1.6346431569e+000	 8.6628041042e-001	 1.0836822168e-001
 1.6257799230e+000	 8.8280215326e-001	 2.8190074177e-002
 1.6167362956e+000	 8.9925733281e-001	-5.4857967872e-002
 1.6075129195e+000	 9.1564306017e-001	-1.4059032846e-001
 1.5981105004e+000	 9.3195645199e-001	-2.2881483471e-001
 1.5885298045e+000	 9.4819463197e-001	-3.1933297809e-001
 1.5787716586e+000	 9.6435473249e-001	-4.1194019009e-001
 1.5688369499e+000	 9.8043389613e-001	-5.0642613195e-001
 1.5587266262e+000	 9.9642927729e-001	-6.0257499774e-001
 1.5484416958e+000	 1.0123380438e+000	-7.0016583050e-001
 1.6655325128e+000	 8.6117736198e-001	 1.5893075911e-001
 1.6567329293e+000	 8.7798690246e-001	 8.3620097057e-002
 1.6477499220e+000	 8.9473191209e-001	 5.1769229110e-003
 1.6385840833e+000	 9.1140945893e-001	-7.6210050623e-002
 1.6292360671e+000	 9.2801661504e-001	-1.6034500929e-001
 1.6197065883e+000	 9.4455045810e-001	-2.4702529716e-001
 1.6099964235e+000	 9.6100807294e-001	-3.3604169200e-001
 1.6001064107e+000	 9.7738655320e-001	-4.2717869570e-001
 1.5900374492e+000	 9.9368300283e-001	-5.2021483930e-001
 1.5797904996e+000	 1.0098945378e+000	-6.1492300200e-001
 1.5693665835e+000	 1.0260182876e+000	-7.1107074357e-001
 1.6877396130e+000	 8.7265972680e-001	 1.3452251864e-001
 1.6788227017e+000	 8.8969339449e-001	 6.1089529497e-002
 1.6697199210e+000	 9.0666167092e-001	-1.5563109770e-002
 1.6604318711e+000	 9.2356158505e-001	-9.5236539884e-002
 1.6509592146e+000	 9.4039016991e-001	-1.7772453564e-001
 1.6413026761e+000	 9.5714446421e-001	-2.6281377956e-001
 1.6314630425e+000	 9.7382151392e-001	-3.5028415177e-001
 1.6214411629e+000	 9.9041837391e-001	-4.3990903544e-001
 1.6112379485e+000	 1.0069321095e+000	-5.3145563743e-001
 1.6008543729e+000	 1.0233597983e+000	-6.2468532352e-001
 1.5902914713e+000	 1.0396985314e+000	-7.1935396749e-001
 1.7099467131e+000	 8.8414209163e-001	 1.1216553167e-001
 1.7009124741e+000	 9.0139988653e-001	 4.0660457058e-002
 1.6916899199e+000	 9.1859142975e-001	-3.4154724729e-002
 1.6822796589e+000	 9.3571371117e-001	-1.1207083466e-001
 1.6726823622e+000	 9.5276372478e-001	-1.9287105725e-001
 1.6628987640e+000	 9.6973847032e-001	-2.7633122828e-001
 1.6529296615e+000	 9.8663495489e-001	-3.6222013942e-001
 1.6427759150e+000	 1.0034501946e+000	-4.5029985905e-001
 1.6324384478e+000	 1.0201812162e+000	-5.4032606885e-001
 1.6219182462e+000	 1.0368250588e+000	-6.3204841553e-001
 1.6112163591e+000	 1.0533787753e+000	-7.2521087697e-001
 1.7321538133e+000	 8.9562445646e-001	 9.1755513471e-002
 1.7230022465e+000	 9.1310637856e-001	 2.2220288309e-002
 1.7136599189e+000	 9.3052118858e-001	-5.0718885311e-002
 1.7041274467e+000	 9.4786583729e-001	-1.2684232905e-001
 1.6944055097e+000	 9.6513727965e-001	-2.0592245128e-001
 1.6844948518e+000	 9.8233247643e-001	-2.8772404925e-001
 1.6743962805e+000	 9.9944839587e-001	-3.7200462867e-001
 1.6641106671e+000	 1.0164820153e+000	-4.5851474025e-001
 1.6536389472e+000	 1.0334303230e+000	-5.4699833256e-001
 1.6429821195e+000	 1.0502903193e+000	-6.3719312060e-001
 1.6321412469e+000	 1.0670590191e+000	-7.2883096940e-001
 1.7543609135e+000	 9.0710682128e-001	 7.3191180551e-002
 1.7450920189e+000	 9.2481287059e-001	 5.6596826717e-003
 1.7356299178e+000	 9.4245094741e-001	-6.5373053893e-002
 1.7259752344e+000	 9.6001796341e-001	-1.3967666567e-001
 1.7161286573e+000	 9.7751083451e-001	-2.1701259271e-001
 1.7060909396e+000	 9.9492648253e-001	-2.9713439537e-001
 1.6958628994e+000	 1.0122618368e+000	-3.7978808932e-001
 1.6854454193e+000	 1.0295138360e+000	-4.6471249803e-001
 1.6748394465e+000	 1.0466794297e+000	-5.5163962223e-001
 1.6640459929e+000	 1.0637555798e+000	-6.4029502575e-001
 1.6530661346e+000	 1.0807392629e+000	-7.3039823681e-001
 1.7765680137e+000	 9.1858918611e-001	 5.6374063052e-002
 1.7671817913e+000	 9.3651936262e-001	-9.1276527597e-003
 1.7575999168e+000	 9.5438070623e-001	-7.8231410694e-002
 1.7478230222e+000	 9.7217008953e-001	-1.5069597018e-001
 1.7378518049e+000	 9.8988438938e-001	-2.2627160443e-001
 1.7276870275e+000	 1.0075204886e+000	-3.0470043227e-001
 1.7173295184e+000	 1.0250752778e+000	-3.8571676870e-001
 1.7067801714e+000	 1.0425456567e+000	-4.6904749378e-001
 1.6960399458e+000	 1.0599285364e+000	-5.5441243906e-001
 1.6851098662e+000	 1.0772208403e+000	-6.4152479091e-001
 1.6739910224e+000	 1.0944195068e+000	-7.3009151002e-001
 1.4647421446e+000	 9.5761706841e-001	-6.2619257717e-001
 1.4548489982e+000	 9.7258130376e-001	-7.0449087908e-001
 1.4447927608e+000	 9.8745829198e-001	-7.8329922988e-001
 1.4345745559e+000	 1.0022454009e+000	-8.6237568704e-001
 1.4241955631e+000	 1.0169400169e+000	-9.4147499437e-001
 1.4136570177e+000	 1.0315395467e+000	-1.0203489414e+000
 1.4029602102e+000	 1.0460414182e+000	-1.0987467308e+000
 1.3921064861e+000	 1.0604430826e+000	-1.1764153526e+000
 1.3810972449e+000	 1.0747420157e+000	-1.2530999652e+000
 1.3699339401e+000	 1.0889357189e+000	-1.3285442815e+000
 1.3586180783e+000	 1.1030217212e+000	-1.4024909596e+000
 1.4856670324e+000	 9.7129731225e-001	-6.4967035775e-001
 1.4756325553e+000	 9.8647532238e-001	-7.2453926269e-001
 1.4654326574e+000	 1.0015648390e+000	-7.9955781864e-001
 1.4550684781e+000	 1.0165631923e+000	-8.7449351800e-001
 1.4445412140e+000	 1.0314677315e+000	-9.4911087640e-001
 1.4338521179e+000	 1.0462758259e+000	-1.0231717897e+000
 1.4230024989e+000	 1.0609848670e+000	-1.0964358983e+000
 1.4119937216e+000	 1.0755922695e+000	-1.1686609585e+000
 1.4008272055e+000	 1.0900954730e+000	-1.2396032195e+000
 1.3895044249e+000	 1.1044919435e+000	-1.3090178054e+000
 1.3780269080e+000	 1.1187791744e+000	-1.3766591015e+000
 1.5065919202e+000	 9.8497755608e-001	-6.6967760261e-001
 1.4964161124e+000	 1.0003693410e+000	-7.4198871710e-001
 1.4860725539e+000	 1.0156713860e+000	-8.1410068171e-001
 1.4755624003e+000	 1.0308809838e+000	-8.8578981717e-001
 1.4648868649e+000	 1.0459954460e+000	-9.5682979359e-001
 1.4540472182e+000	 1.0610121051e+000	-1.0269919857e+000
 1.4430447877e+000	 1.0759283158e+000	-1.0960458351e+000
 1.4318809571e+000	 1.0907414564e+000	-1.1637592188e+000
 1.4205571661e+000	 1.1054489304e+000	-1.2298988236e+000
 1.4090749098e+000	 1.1200481680e+000	-1.2942305244e+000
 1.3974357376e+000	 1.1345366275e+000	-1.3565197670e+000
 1.5275168080e+000	 9.9865779992e-001	-6.8643757370e-001
 1.5171996695e+000	 1.0142633596e+000	-7.5703386411e-001
 1.5067124505e+000	 1.0297779331e+000	-8.2709337331e-001
 1.4960563226e+000	 1.0451987752e+000	-8.9640065319e-001
 1.4852325158e+000	 1.0605231605e+000	-9.6473792079e-001
 1.4742423185e+000	 1.0757483844e+000	-1.0318854123e+000
 1.4630870764e+000	 1.0908717647e+000	-1.0976217442e+000
 1.4517681926e+000	 1.1058906433e+000	-1.1617242795e+000
 1.4402871268e+000	 1.1208023878e+000	-1.2239695000e+000
 1.4286453946e+000	 1.1356043926e+000	-1.2841333824e+000
 1.4168445673e+000	 1.1502940807e+000	-1.3419917776e+000
 1.5484416958e+000	 1.0123380438e+000	-7.0016583050e-001
 1.5379832267e+000	 1.0281573783e+000	-7.6986337321e-001
 1.5273523471e+000	 1.0438844801e+000	-8.3869726915e-001
 1.5165502448e+000	 1.0595165667e+000	-9.0645971294e-001
 1.5055781667e+000	 1.0750508751e+000	-9.7294086988e-001
 1.4944374187e+000	 1.0904846636e+000	-1.0379292297e+000
 1.4831293651e+000	 1.1058152135e+000	-1.1012119664e+000
 1.4716554281e+000	 1.1210398302e+000	-1.1625753044e+000
 1.4600170874e+000	 1.1361558451e+000	-1.2218048883e+000
 1.4482158795e+000	 1.1511606171e+000	-1.2786861574e+000
 1.4362533970e+000	 1.1660515338e+000	-1.3330047231e+000
 1.5693665835e+000	 1.0260182876e+000	-7.1107074357e-001
 1.5587667838e+000	 1.0420513969e+000	-7.8066035842e-001
 1.5479922437e+000	 1.0579910271e+000	-8.4906984503e-001
 1.5370441670e+000	 1.0738343581e+000	-9.1609846026e-001
 1.5259238176e+000	 1.0895785896e+000	-9.8154372731e-001
 1.5146325190e+000	 1.1052209428e+000	-1.0452017897e+000
 1.5031716538e+000	 1.1207586623e+000	-1.1068677713e+000
 1.4915426636e+000	 1.1361890171e+000	-1.1663361413e+000
 1.4797470481e+000	 1.1515093025e+000	-1.2234010842e+000
 1.4677863643e+000	 1.1667168417e+000	-1.2778568726e+000
 1.4556622267e+000	 1.1818089870e+000	-1.3294982433e+000
 1.5902914713e+000	 1.0396985314e+000	-7.1935396749e-001
 1.5795503409e+000	 1.0559454155e+000	-7.8960274375e-001
 1.5686321403e+000	 1.0720975742e+000	-8.5836493336e-001
 1.5575380892e+000	 1.0881521496e+000	-9.2544628226e-001
 1.5462694685e+000	 1.1041063041e+000	-9.9065108869e-001
 1.5348276192e+000	 1.1199572221e+000	-1.0537825582e+000
 1.5232139425e+000	 1.1357021112e+000	-1.1146431640e+000
 1.5114298991e+000	 1.1513382040e+000	-1.1730350129e+000
 1.4994770087e+000	 1.1668627599e+000	-1.2287602144e+000
 1.4873568492e+000	 1.1822730662e+000	-1.2816212538e+000
 1.4750710564e+000	 1.1975664402e+000	-1.3314213668e+000
 1.6112163591e+000	 1.0533787753e+000	-7.2521087697e-001
 1.6003338980e+000	 1.0698394341e+000	-7.9686360023e-001
 1.5892720368e+000	 1.0862041212e+000	-8.6673295980e-001
 1.5780320114e+000	 1.1024699410e+000	-9.3463062415e-001
 1.5666151194e+000	 1.1186340186e+000	-1.0003670906e+000
 1.5550227194e+000	 1.1346935013e+000	-1.0637520420e+000
 1.5432562312e+000	 1.1506455600e+000	-1.1245947083e+000
 1.5313171347e+000	 1.1664873909e+000	-1.1827042335e+000
 1.5192069693e+000	 1.1822162172e+000	-1.2378900454e+000
 1.5069273341e+000	 1.1978292908e+000	-1.2899622292e+000
 1.4944798861e+000	 1.2133238933e+000	-1.3387319018e+000
 1.6321412469e+000	 1.0670590191e+000	-7.2883096940e-001
 1.6211174551e+000	 1.0837334528e+000	-8.0261145699e-001
 1.6099119334e+000	 1.1003106682e+000	-8.7432116159e-001
 1.5985259337e+000	 1.1167877324e+000	-9.4377711372e-001
 1.5869607703e+000	 1.1331617332e+000	-1.0107954402e+000
 1.5752178197e+000	 1.1494297806e+000	-1.0751917227e+000
 1.5632985200e+000	 1.1655890088e+000	-1.1367813621e+000
 1.5512043702e+000	 1.1816365778e+000	-1.1953799463e+000
 1.5389369300e+000	 1.1975696746e+000	-1.2508036217e+000
 1.5264978189e+000	 1.2133855153e+000	-1.3028694679e+000
 1.5138887158e+000	 1.2290813465e+000	-1.3513958728e+000
 1.6530661346e+000	 1.0807392629e+000	-7.3039823681e-001
 1.6419010122e+000	 1.0976274714e+000	-8.0701058875e-001
 1.6305518300e+000	 1.1144172153e+000	-8.8127378937e-001
 1.6190198559e+000	 1.1311055239e+000	-9.5300967637e-001
 1.6073064212e+000	 1.1476894477e+000	-1.0220394420e+000
 1.5954129199e+000	 1.1641660598e+000	-1.0881839948e+000
 1.5833408087e+000	 1.1805324577e+000	-1.1512643262e+000
 1.5710916057e+000	 1.1967857647e+000	-1.2111018811e+000
 1.5586668906e+000	 1.2129231320e+000	-1.2675189317e+000
 1.5460683038e+000	 1.2289417399e+000	-1.3203389531e+000
 1.5332975455e+000	 1.2448387997e+000	-1.3693870006e+000
 1.6739910224e+000	 1.0944195068e+000	-7.3009151002e-001
 1.6626845693e+000	 1.1115214900e+000	-8.1022128167e-001
 1.6511917266e+000	 1.1285237623e+000	-8.8773229387e-001
 1.6395137781e+000	 1.1454233153e+000	-9.6245064151e-001
 1.6276520721e+000	 1.1622171622e+000	-1.0342020236e+000
 1.6156080202e+000	 1.1789023391e+000	-1.1028121084e+000
 1.6033830974e+000	 1.1954759065e+000	-1.1681069038e+000
 1.5909788412e+000	 1.2119349516e+000	-1.2299131305e+000
 1.5783968513e+000	 1.2282765894e+000	-1.2880585990e+000
 1.5656387886e+000	 1.2444979645e+000	-1.3423725876e+000
 1.5527063751e+000	 1.2605962528e+000	-1.3701262276e+000
 1.3586180783e+000	 1.1030217212e+000	-1.4024909596e+000
 1.3471512186e+000	 1.1169975803e+000	-1.4806025475e+000
 1.3355349719e+000	 1.1308608840e+000	-1.5523351345e+000
 1.3237710003e+000	 1.1446092516e+000	-1.6176086627e+000
 1.3118610162e+000	 1.1582403353e+000	-1.6763480960e+000
 1.2998067814e+000	 1.1717518215e+000	-1.7284836384e+000
 1.2876101065e+000	 1.1851414320e+000	-1.7739509448e+000
 1.2752728496e+000	 1.1984069255e+000	-1.8126913243e+000
 1.2627969161e+000	 1.2115460986e+000	-1.8446519358e+000
 1.2501842566e+000	 1.2245567870e+000	-1.8697859748e+000
 1.2374368671e+000	 1.2374368671e+000	-1.9257340211e+000
 1.3780269080e+000	 1.1187791744e+000	-1.3766591015e+000
 1.3663962360e+000	 1.1329546886e+000	-1.4560350338e+000
 1.3546140429e+000	 1.1470160395e+000	-1.5295157283e+000
 1.3426820146e+000	 1.1609608123e+000	-1.5970099124e+000
 1.3306018879e+000	 1.1747866258e+000	-1.6584309114e+000
 1.3183754497e+000	 1.1884911332e+000	-1.7136968828e+000
 1.3060045366e+000	 1.2020720239e+000	-1.7627310452e+000
 1.2934910332e+000	 1.2155270244e+000	-1.8054618995e+000
 1.2808368720e+000	 1.2288539000e+000	-1.8418234429e+000
 1.2680440317e+000	 1.2420504554e+000	-1.8717553742e+000
 1.2551145366e+000	 1.2551145366e+000	-1.8828508317e+000
 1.3974357376e+000	 1.1345366275e+000	-1.3565197670e+000
 1.3856412534e+000	 1.1489117969e+000	-1.4370169328e+000
 1.3736931140e+000	 1.1631711949e+000	-1.5120867218e+000
 1.3615930289e+000	 1.1773123730e+000	-1.5816264775e+000
 1.3493427595e+000	 1.1913329163e+000	-1.6455377279e+000
 1.3369441180e+000	 1.2052304449e+000	-1.7037264377e+000
 1.3243989666e+000	 1.2190026158e+000	-1.7561032539e+000
 1.3117092168e+000	 1.2326471234e+000	-1.8025837461e+000
 1.2988768279e+000	 1.2461617014e+000	-1.8430886391e+000
 1.2859038068e+000	 1.2595441238e+000	-1.8547215337e+000
 1.2727922062e+000	 1.2727922062e+000	-1.8520229738e+000
 1.4168445673e+000	 1.1502940807e+000	-1.3419917776e+000
 1.4048862708e+000	 1.1648689052e+000	-1.4234799098e+000
 1.3927721850e+000	 1.1793263504e+000	-1.4999931682e+000
 1.3805040432e+000	 1.1936639338e+000	-1.5714173345e+000
 1.3680836312e+000	 1.2078792068e+000	-1.6376419722e+000
 1.3555127863e+000	 1.2219697567e+000	-1.6985606962e+000
 1.3427933967e+000	 1.2359332077e+000	-1.7540714374e+000
 1.3299274003e+000	 1.2497672223e+000	-1.8040767008e+000
 1.3169167839e+000	 1.2634695028e+000	-1.8165978960e+000
 1.3037635819e+000	 1.2770377922e+000	-1.8238378495e+000
 1.2904698757e+000	 1.2904698757e+000	-1.8264288200e+000
 1.4362533970e+000	 1.1660515338e+000	-1.3330047231e+000
 1.4241312882e+000	 1.1808260135e+000	-1.4153658996e+000
 1.4118512560e+000	 1.1954815059e+000	-1.4931898604e+000
 1.3994150575e+000	 1.2100154945e+000	-1.5663506385e+000
 1.3868245028e+000	 1.2244254973e+000	-1.6347256565e+000
 1.3740814546e+000	 1.2387090684e+000	-1.6981960141e+000
 1.3611878268e+000	 1.2528637995e+000	-1.7498961879e+000
 1.3481455839e+000	 1.2668873212e+000	-1.7704060259e+000
 1.3349567398e+000	 1.2807773042e+000	-1.7865251834e+000
 1.3216233570e+000	 1.2945314606e+000	-1.7983227839e+000
 1.3081475452e+000	 1.3081475452e+000	-1.8058706288e+000
 1.4556622267e+000	 1.1818089870e+000	-1.3294982433e+000
 1.4433763056e+000	 1.1967831217e+000	-1.4126264219e+000
 1.4309303270e+000	 1.2116366614e+000	-1.4916406814e+000
 1.4183260718e+000	 1.2263670552e+000	-1.5664031109e+000
 1.4055653745e+000	 1.2409717878e+000	-1.6367788068e+000
 1.3926501229e+000	 1.2554483801e+000	-1.6899628714e+000
 1.3795822569e+000	 1.2697943914e+000	-1.7179857545e+000
 1.3663637675e+000	 1.2840074202e+000	-1.7419526406e+000
 1.3529966958e+000	 1.2980851056e+000	-1.7619260993e+000
 1.3394831321e+000	 1.3120251289e+000	-1.7779710757e+000
 1.3258252148e+000	 1.3258252148e+000	-1.7901547606e+000
 1.4750710564e+000	 1.1975664402e+000	-1.3314213668e+000
 1.4626213230e+000	 1.2127402300e+000	-1.4152219507e+000
 1.4500093981e+000	 1.2277918169e+000	-1.4953180063e+000
 1.4372370861e+000	 1.2427186160e+000	-1.5715594756e+000
 1.4243062462e+000	 1.2575180783e+000	-1.6265606270e+000
 1.4112187912e+000	 1.2721876919e+000	-1.6610946668e+000
 1.3979766870e+000	 1.2867249833e+000	-1.6919058286e+000
 1.3845819510e+000	 1.3011275191e+000	-1.7190510797e+000
 1.3710366517e+000	 1.3153929070e+000	-1.7425894631e+000
 1.3573429072e+000	 1.3295187973e+000	-1.7625819693e+000
 1.3435028843e+000	 1.3435028843e+000	-1.7790914073e+000
 1.4944798861e+000	 1.2133238933e+000	-1.3387319018e+000
 1.4818663404e+000	 1.2286973383e+000	-1.4231213330e+000
 1.4690884691e+000	 1.2439469724e+000	-1.5042021514e+000
 1.4561481004e+000	 1.2590701767e+000	-1.5613387719e+000
 1.4430471178e+000	 1.2740643688e+000	-1.6014116643e+000
 1.4297874596e+000	 1.2889270036e+000	-1.6380919469e+000
 1.4163711171e+000	 1.3036555752e+000	-1.6714319203e+000
 1.4028001346e+000	 1.3182476180e+000	-1.7014856648e+000
 1.3890766077e+000	 1.3327007084e+000	-1.7283089133e+000
 1.3752026823e+000	 1.3470124657e+000	-1.7519589223e+000
 1.3611805538e+000	 1.3611805538e+000	-1.7724943436e+000
 1.5138887158e+000	 1.2290813465e+000	-1.3513958728e+000
 1.5011113578e+000	 1.2446544466e+000	-1.4363012517e+000
 1.4881675401e+000	 1.2601021278e+000	-1.4958707403e+000
 1.4750591147e+000	 1.2754217375e+000	-1.5405401012e+000
 1.4617879895e+000	 1.2906106593e+000	-1.5821430022e+000
 1.4483561279e+000	 1.3056663153e+000	-1.6207279936e+000
 1.4347655472e+000	 1.3205861671e+000	-1.6563451163e+000
 1.4210183182e+000	 1.3353677170e+000	-1.6890457728e+000
 1.4071165636e+000	 1.3500085098e+000	-1.7188825990e+000
 1.3930624574e+000	 1.3645061341e+000	-1.7459093349e+000
 1.3788582233e+000	 1.3788582233e+000	-1.7701806977e+000
 1.5332975455e+000	 1.2448387997e+000	-1.3693870006e+000
 1.5203563752e+000	 1.2606115549e+000	-1.4316567668e+000
 1.5072466111e+000	 1.2762572833e+000	-1.4800105350e+000
 1.4939701289e+000	 1.2917732982e+000	-1.5256186279e+000
 1.4805288611e+000	 1.3071569498e+000	-1.5685267412e+000
 1.4669247962e+000	 1.3224056271e+000	-1.6087817800e+000
 1.4531599773e+000	 1.3375167590e+000	-1.6464317277e+000
 1.4392365017e+000	 1.3524878159e+000	-1.6815255157e+000
 1.4251565195e+000	 1.3673163112e+000	-1.7141128938e+000
 1.4109222325e+000	 1.3819998025e+000	-1.7442443012e+000
 1.3965358929e+000	 1.3965358929e+000	-1.7719707388e+000
 1.5527063751e+000	 1.2605962528e+000	-1.3701262276e+000
 1.5396013926e+000	 1.2765686632e+000	-1.4212831253e+000
 1.5263256822e+000	 1.2924124388e+000	-1.4700085437e+000
 1.5128811432e+000	 1.3081248589e+000	-1.5163461964e+000
 1.4992697328e+000	 1.3237032403e+000	-1.5603407349e+000
 1.4854934645e+000	 1.3391449388e+000	-1.6020376149e+000
 1.4715544074e+000	 1.3544473509e+000	-1.6414829631e+000
 1.4574546853e+000	 1.3696079148e+000	-1.6787234447e+000
 1.4431964755e+000	 1.3846241126e+000	-1.7138061325e+000
 1.4287820076e+000	 1.3994934709e+000	-1.7467783773e+000
 1.4142135624e+000	 1.4142135624e+000	-1.7776876805e+000
 1.2374368671e+000	 1.2374368671e+000	-1.9257340211e+000
 1.2245567870e+000	 1.2501842566e+000	-1.9867411798e+000
 1.2115460986e+000	 1.2627969161e+000	-2.0142523109e+000
 1.1984069255e+000	 1.2752728496e+000	-2.0393963677e+000
 1.1851414320e+000	 1.2876101065e+000	-2.0622223169e+000
 1.1717518215e+000	 1.2998067814e+000	-2.0827788656e+000
 1.1582403353e+000	 1.3118610162e+000	-2.1011145126e+000
 1.1446092516e+000	 1.3237710003e+000	-2.1172776046e+000
 1.1308608840e+000	 1.3355349719e+000	-2.1313163981e+000
 1.1169975803e+000	 1.3471512186e+000	-2.1432791252e+000
 1.1030217212e+000	 1.3586180783e+000	-2.1532140645e+000
 1.2551145366e+000	 1.2551145366e+000	-1.8828508317e+000
 1.2420504554e+000	 1.2680440317e+000	-1.9047284657e+000
 1.2288539000e+000	 1.2808368720e+000	-1.9392418376e+000
 1.2155270244e+000	 1.2934910332e+000	-1.9713183284e+000
 1.2020720239e+000	 1.3060045366e+000	-2.0009840274e+000
 1.1884911332e+000	 1.3183754497e+000	-2.0282647121e+000
 1.1747866258e+000	 1.3306018879e+000	-2.0531859279e+000
 1.1609608123e+000	 1.3426820146e+000	-2.0757730739e+000
 1.1470160395e+000	 1.3546140429e+000	-2.0960514930e+000
 1.1329546886e+000	 1.3663962360e+000	-2.1140465674e+000
 1.1187791744e+000	 1.3780269080e+000	-2.1297838183e+000
 1.2727922062e+000	 1.2727922062e+000	-1.8520229738e+000
 1.2595441238e+000	 1.2859038068e+000	-1.8572049191e+000
 1.2461617014e+000	 1.2988768279e+000	-1.8697054781e+000
 1.2326471234e+000	 1.3117092168e+000	-1.9079458919e+000
 1.2190026158e+000	 1.3243989666e+000	-1.9436910840e+000
 1.2052304449e+000	 1.3369441180e+000	-1.9769440905e+000
 1.1913329163e+000	 1.3493427595e+000	-2.0077076804e+000
 1.1773123730e+000	 1.3615930289e+000	-2.0359844697e+000
 1.1631711949e+000	 1.3736931140e+000	-2.0617770409e+000
 1.1489117969e+000	 1.3856412534e+000	-2.0850880679e+000
 1.1345366275e+000	 1.3974357376e+000	-2.1059204445e+000
 1.2904698757e+000	 1.2904698757e+000	-1.8264288200e+000
 1.2770377922e+000	 1.3037635819e+000	-1.8379863770e+000
 1.2634695028e+000	 1.3169167839e+000	-1.8452128750e+000
 1.2497672223e+000	 1.3299274003e+000	-1.8489088136e+000
 1.2359332077e+000	 1.3427933967e+000	-1.8900093250e+000
 1.2219697567e+000	 1.3555127863e+000	-1.9285189838e+000
 1.2078792068e+000	 1.3680836312e+000	-1.9644179392e+000
 1.1936639338e+000	 1.3805040432e+000	-1.9976861687e+000
 1.1793263504e+000	 1.3927721850e+000	-2.0283036277e+000
 1.1648689052e+000	 1.4048862708e+000	-2.0562504027e+000
 1.1502940807e+000	 1.4168445673e+000	-2.0815068700e+000
 1.3081475452e+000	 1.3081475452e+000	-1.8058706288e+000
 1.2945314606e+000	 1.3216233570e+000	-1.8230427319e+000
 1.2807773042e+000	 1.3349567398e+000	-1.8357733793e+000
 1.2668873212e+000	 1.3481455839e+000	-1.8441468507e+000
 1.2528637995e+000	 1.3611878268e+000	-1.8482497361e+000
 1.2387090684e+000	 1.3740814546e+000	-1.8826867792e+000
 1.2244254973e+000	 1.3868245028e+000	-1.9230485007e+000
 1.2100154945e+000	 1.3994150575e+000	-1.9606444073e+000
 1.1954815059e+000	 1.4118512560e+000	-1.9954319407e+000
 1.1808260135e+000	 1.4241312882e+000	-2.0273687022e+000
 1.1660515338e+000	 1.4362533970e+000	-2.0564126407e+000
 1.3258252148e+000	 1.3258252148e+000	-1.7901547606e+000
 1.3120251289e+000	 1.3394831321e+000	-1.8122092024e+000
 1.2980851056e+000	 1.3529966958e+000	-1.8297147438e+000
 1.2840074202e+000	 1.3663637675e+000	-1.8427409324e+000
 1.2697943914e+000	 1.3795822569e+000	-1.8513596879e+000
 1.2554483801e+000	 1.3926501229e+000	-1.8556451721e+000
 1.2409717878e+000	 1.4055653745e+000	-1.8833252136e+000
 1.2263670552e+000	 1.4183260718e+000	-1.9246178241e+000
 1.2116366614e+000	 1.4309303270e+000	-1.9629534291e+000
 1.1967831217e+000	 1.4433763056e+000	-1.9982672278e+000
 1.1818089870e+000	 1.4556622267e+000	-2.0304948139e+000
 1.3435028843e+000	 1.3435028843e+000	-1.7790914073e+000
 1.3295187973e+000	 1.3573429072e+000	-1.8053232612e+000
 1.3153929070e+000	 1.3710366517e+000	-1.8269017131e+000
 1.3011275191e+000	 1.3845819510e+000	-1.8438819964e+000
 1.2867249833e+000	 1.3979766870e+000	-1.8563217734e+000
 1.2721876919e+000	 1.4112187912e+000	-1.8642810184e+000
 1.2575180783e+000	 1.4243062462e+000	-1.8678218998e+000
 1.2427186160e+000	 1.4372370861e+000	-1.8893579597e+000
 1.2277918169e+000	 1.4500093981e+000	-1.9306509112e+000
 1.2127402300e+000	 1.4626213230e+000	-1.9687600873e+000
 1.1975664402e+000	 1.4750710564e+000	-2.0035987798e+000
 1.3611805538e+000	 1.3611805538e+000	-1.7724943436e+000
 1.3470124657e+000	 1.3752026823e+000	-1.8022244886e+000
 1.3327007084e+000	 1.3890766077e+000	-1.8271996684e+000
 1.3182476180e+000	 1.4028001346e+000	-1.8474612083e+000
 1.3036555752e+000	 1.4163711171e+000	-1.8630529151e+000
 1.2889270036e+000	 1.4297874596e+000	-1.8740209722e+000
 1.2740643688e+000	 1.4430471178e+000	-1.8804138338e+000
 1.2590701767e+000	 1.4561481004e+000	-1.8822821209e+000
 1.2439469724e+000	 1.4690884691e+000	-1.8982991354e+000
 1.2286973383e+000	 1.4818663404e+000	-1.9386518935e+000
 1.2133238933e+000	 1.4944798861e+000	-1.9755590189e+000
 1.3788582233e+000	 1.3788582233e+000	-1.7701806977e+000
 1.3645061341e+000	 1.3930624574e+000	-1.8027544376e+000
 1.3500085098e+000	 1.4071165636e+000	-1.8304745862e+000
 1.3353677170e+000	 1.4210183182e+000	-1.8533689566e+000
 1.3205861671e+000	 1.4347655472e+000	-1.8714678909e+000
 1.3056663153e+000	 1.4483561279e+000	-1.8848041671e+000
 1.2906106593e+000	 1.4617879895e+000	-1.8934129060e+000
 1.2754217375e+000	 1.4750591147e+000	-1.8973314782e+000
 1.2601021278e+000	 1.4881675401e+000	-1.8965994109e+000
 1.2446544466e+000	 1.5011113578e+000	-1.9077383737e+000
 1.2290813465e+000	 1.5138887158e+000	-1.9461998018e+000
 1.3965358929e+000	 1.3965358929e+000	-1.7719707388e+000
 1.3819998025e+000	 1.4109222325e+000	-1.8067565089e+000
 1.3673163112e+000	 1.4251565195e+000	-1.8365930011e+000
 1.3524878159e+000	 1.4392365017e+000	-1.8614949019e+000
 1.3375167590e+000	 1.4531599773e+000	-1.8814794693e+000
 1.3224056271e+000	 1.4669247962e+000	-1.8965664519e+000
 1.3071569498e+000	 1.4805288611e+000	-1.9067780068e+000
 1.2917732982e+000	 1.4939701289e+000	-1.9121386186e+000
 1.2762572833e+000	 1.5072466111e+000	-1.9126750179e+000
 1.2606115549e+000	 1.5203563752e+000	-1.9084161008e+000
 1.2448387997e+000	 1.5332975455e+000	-1.9153358351e+000
 1.4142135624e+000	 1.4142135624e+000	-1.7776876805e+000
 1.3994934709e+000	 1.4287820076e+000	-1.8140758353e+000
 1.3846241126e+000	 1.4431964755e+000	-1.8454219707e+000
 1.3696079148e+000	 1.4574546853e+000	-1.8717280223e+000
 1.3544473509e+000	 1.4715544074e+000	-1.8929985356e+000
 1.3391449388e+000	 1.4854934645e+000	-1.9092405956e+000
 1.3237032403e+000	 1.4992697328e+000	-1.9204637564e+000
 1.3081248589e+000	 1.5128811432e+000	-1.9266799713e+000
 1.2924124388e+000	 1.5263256822e+000	-1.9279035225e+000
 1.2765686632e+000	 1.5396013926e+000	-1.9241509518e+000
 1.2605962528e+000	 1.5527063751e+000	-1.9154409918e+000
 1.1030217212e+000	 1.3586180783e+000	-2.1532140645e+000
 1.0889357189e+000	 1.3699339401e+000	-2.1515674431e+000
 1.0747420157e+000	 1.3810972449e+000	-2.1485123549e+000
 1.0604430826e+000	 1.3921064861e+000	-2.1439014624e+000
 1.0460414182e+000	 1.4029602102e+000	-2.1375880390e+000
 1.0315395467e+000	 1.4136570177e+000	-2.1294262653e+000
 1.0169400169e+000	 1.4241955631e+000	-2.1192715241e+000
 1.0022454009e+000	 1.4345745559e+000	-2.1069806961e+000
 9.8745829198e-001	 1.4447927608e+000	-2.0924124537e+000
 9.7258130376e-001	 1.4548489982e+000	-2.0754275533e+000
 9.5761706841e-001	 1.4647421446e+000	-2.0558891246e+000
 1.1187791744e+000	 1.3780269080e+000	-2.1297838183e+000
 1.1044919435e+000	 1.3895044249e+000	-2.1257253976e+000
 1.0900954730e+000	 1.4008272055e+000	-2.1201394941e+000
 1.0755922695e+000	 1.4119937216e+000	-2.1128882504e+000
 1.0609848670e+000	 1.4230024989e+000	-2.1038343370e+000
 1.0462758259e+000	 1.4338521179e+000	-2.0928412449e+000
 1.0314677315e+000	 1.4445412140e+000	-2.0797735788e+000
 1.0165631923e+000	 1.4550684781e+000	-2.0644973489e+000
 1.0015648390e+000	 1.4654326574e+000	-2.0468802639e+000
 9.8647532238e-001	 1.4756325553e+000	-2.0267920201e+000
 9.7129731225e-001	 1.4856670324e+000	-2.0041045899e+000
 1.1345366275e+000	 1.3974357376e+000	-2.1059204445e+000
 1.1200481680e+000	 1.4090749098e+000	-2.1002106347e+000
 1.1054489304e+000	 1.4205571661e+000	-2.0928589588e+000
 1.0907414564e+000	 1.4318809571e+000	-2.0837364480e+000
 1.0759283158e+000	 1.4430447877e+000	-2.0727145728e+000
 1.0610121051e+000	 1.4540472182e+000	-2.0596655333e+000
 1.0459954460e+000	 1.4648868649e+000	-2.0444625500e+000
 1.0308809838e+000	 1.4755624003e+000	-2.0269801548e+000
 1.0156713860e+000	 1.4860725539e+000	-2.0070944812e+000
 1.0003693410e+000	 1.4964161124e+000	-1.9846835537e+000
 9.8497755608e-001	 1.5065919202e+000	-1.9596275740e+000
 1.1502940807e+000	 1.4168445673e+000	-2.0815068700e+000
 1.1356043926e+000	 1.4286453946e+000	-2.0748822440e+000
 1.1208023878e+000	 1.4402871268e+000	-2.0665061192e+000
 1.1058906433e+000	 1.4517681926e+000	-2.0562578320e+000
 1.0908717647e+000	 1.4630870764e+000	-2.0440170638e+000
 1.0757483844e+000	 1.4742423185e+000	-2.0296641299e+000
 1.0605231605e+000	 1.4852325158e+000	-2.0130802687e+000
 1.0451987752e+000	 1.4960563226e+000	-1.9941479324e+000
 1.0297779331e+000	 1.5067124505e+000	-1.9727510762e+000
 1.0142633596e+000	 1.5171996695e+000	-1.9487754471e+000
 9.9865779992e-001	 1.5275168080e+000	-1.9221088703e+000
 1.1660515338e+000	 1.4362533970e+000	-2.0564126407e+000
 1.1511606171e+000	 1.4482158795e+000	-2.0495874505e+000
 1.1361558451e+000	 1.4600170874e+000	-2.0409060001e+000
 1.1210398302e+000	 1.4716554281e+000	-2.0302553545e+000
 1.1058152135e+000	 1.4831293651e+000	-2.0175228243e+000
 1.0904846636e+000	 1.4944374187e+000	-2.0025962529e+000
 1.0750508751e+000	 1.5055781667e+000	-1.9853643061e+000
 1.0595165667e+000	 1.5165502448e+000	-1.9657167616e+000
 1.0438844801e+000	 1.5273523471e+000	-1.9435447993e+000
 1.0281573783e+000	 1.5379832267e+000	-1.9187412896e+000
 1.0123380438e+000	 1.5484416958e+000	-1.8912010815e+000
 1.1818089870e+000	 1.4556622267e+000	-2.0304948139e+000
 1.1667168417e+000	 1.4677863643e+000	-2.0241624061e+000
 1.1515093025e+000	 1.4797470481e+000	-2.0158739701e+000
 1.1361890171e+000	 1.4915426636e+000	-2.0055237308e+000
 1.1207586623e+000	 1.5031716538e+000	-1.9930060521e+000
 1.1052209428e+000	 1.5146325190e+000	-1.9782157253e+000
 1.0895785896e+000	 1.5259238176e+000	-1.9610482584e+000
 1.0738343581e+000	 1.5370441670e+000	-1.9414001664e+000
 1.0579910271e+000	 1.5479922437e+000	-1.9191692624e+000
 1.0420513969e+000	 1.5587667838e+000	-1.8942549474e+000
 1.0260182876e+000	 1.5693665835e+000	-1.8665584991e+000
 1.1975664402e+000	 1.4750710564e+000	-2.0035987798e+000
 1.1822730662e+000	 1.4873568492e+000	-1.9984329173e+000
 1.1668627599e+000	 1.4994770087e+000	-1.9912163777e+000
 1.1513382040e+000	 1.5114298991e+000	-1.9818499816e+000
 1.1357021112e+000	 1.5232139425e+000	-1.9702345773e+000
 1.1199572221e+000	 1.5348276192e+000	-1.9562713291e+000
 1.1041063041e+000	 1.5462694685e+000	-1.9398620078e+000
 1.0881521496e+000	 1.5575380892e+000	-1.9209092826e+000
 1.0720975742e+000	 1.5686321403e+000	-1.8993170138e+000
 1.0559454155e+000	 1.5795503409e+000	-1.8749905447e+000
 1.0396985314e+000	 1.5902914713e+000	-1.8478369922e+000
 1.2133238933e+000	 1.4944798861e+000	-1.9755590189e+000
 1.1978292908e+000	 1.5069273341e+000	-1.9722151177e+000
 1.1822162172e+000	 1.5192069693e+000	-1.9667311360e+000
 1.1664873909e+000	 1.5313171347e+000	-1.9590139327e+000
 1.1506455600e+000	 1.5432562312e+000	-1.9489702759e+000
 1.1346935013e+000	 1.5550227194e+000	-1.9365071332e+000
 1.1186340186e+000	 1.5666151194e+000	-1.9215319639e+000
 1.1024699410e+000	 1.5780320114e+000	-1.9039530133e+000
 1.0862041212e+000	 1.5892720368e+000	-1.8836796073e+000
 1.0698394341e+000	 1.6003338980e+000	-1.8606224477e+000
 1.0533787753e+000	 1.6112163591e+000	-1.8346939052e+000
 1.2290813465e+000	 1.5138887158e+000	-1.9461998018e+000
 1.2133855153e+000	 1.5264978189e+000	-1.9453160877e+000
 1.1975696746e+000	 1.5389369300e+000	-1.9422082644e+000
 1.1816365778e+000	 1.5512043702e+000	-1.9367886759e+000
 1.1655890088e+000	 1.5632985200e+000	-1.9289694510e+000
 1.1494297806e+000	 1.5752178197e+000	-1.9186627952e+000
 1.1331617332e+000	 1.5869607703e+000	-1.9057812865e+000
 1.1167877324e+000	 1.5985259337e+000	-1.8902381719e+000
 1.1003106682e+000	 1.6099119334e+000	-1.8719476658e+000
 1.0837334528e+000	 1.6211174551e+000	-1.8508252485e+000
 1.0670590191e+000	 1.6321412469e+000	-1.8267879631e+000
 1.2448387997e+000	 1.5332975455e+000	-1.9153358351e+000
 1.2289417399e+000	 1.5460683038e+000	-1.9175344274e+000
 1.2129231320e+000	 1.5586668906e+000	-1.9174303875e+000
 1.1967857647e+000	 1.5710916057e+000	-1.9149409957e+000
 1.1805324577e+000	 1.5833408087e+000	-1.9099831858e+000
 1.1641660598e+000	 1.5954129199e+000	-1.9024738407e+000
 1.1476894477e+000	 1.6073064212e+000	-1.8923300906e+000
 1.1311055239e+000	 1.6190198559e+000	-1.8794696141e+000
 1.1144172153e+000	 1.6305518300e+000	-1.8638109403e+000
 1.0976274714e+000	 1.6419010122e+000	-1.8452737511e+000
 1.0807392629e+000	 1.6530661346e+000	-1.8237791841e+000
 1.2605962528e+000	 1.5527063751e+000	-1.9154409918e+000
 1.2444979645e+000	 1.5656387886e+000	-1.8886607870e+000
 1.2282765894e+000	 1.5783968513e+000	-1.8921731977e+000
 1.2119349516e+000	 1.5909788412e+000	-1.8932317629e+000
 1.1954759065e+000	 1.6033830974e+000	-1.8917576701e+000
 1.1789023391e+000	 1.6156080202e+000	-1.8876719217e+000
 1.1622171622e+000	 1.6276520721e+000	-1.8808956376e+000
 1.1454233153e+000	 1.6395137781e+000	-1.8713503608e+000
 1.1285237623e+000	 1.6511917266e+000	-1.8589583642e+000
 1.1115214900e+000	 1.6626845693e+000	-1.8436429583e+000
 1.0944195068e+000	 1.6739910224e+000	-1.8253287987e+000
 9.5761706841e-001	 1.4647421446e+000	-2.0558891246e+000
 9.4256823526e-001	 1.4744711329e+000	-2.0475129324e+000
 9.2743746930e-001	 1.4840349526e+000	-2.0355680262e+000
 9.1222744964e-001	 1.4934326500e+000	-2.0199522755e+000
 8.9694086807e-001	 1.5026633286e+000	-2.0005674482e+000
 8.8158042754e-001	 1.5117261490e+000	-1.9773194445e+000
 8.6614884069e-001	 1.5206203292e+000	-1.9501185227e+000
 8.5064882832e-001	 1.5293451444e+000	-1.9188795184e+000
 8.3508311794e-001	 1.5378999272e+000	-1.8835220549e+000
 8.1945444228e-001	 1.5462840674e+000	-1.8439707448e+000
 8.0376553783e-001	 1.5544970119e+000	-1.8001553828e+000
 9.7129731225e-001	 1.4856670324e+000	-2.0041045899e+000
 9.5603349577e-001	 1.4955350063e+000	-1.9934982387e+000
 9.4068657601e-001	 1.5052354519e+000	-1.9794603169e+000
 9.2525927035e-001	 1.5147674021e+000	-1.9618848995e+000
 9.0975430904e-001	 1.5241299476e+000	-1.9406697967e+000
 8.9417443366e-001	 1.5333222369e+000	-1.9157167998e+000
 8.7852239556e-001	 1.5423434768e+000	-1.8869319211e+000
 8.6280095444e-001	 1.5511929322e+000	-1.8542256250e+000
 8.4701287677e-001	 1.5598699262e+000	-1.8175130517e+000
 8.3116093432e-001	 1.5683738397e+000	-1.7767142322e+000
 8.1524790266e-001	 1.5767041121e+000	-1.7317542933e+000
 9.8497755608e-001	 1.5065919202e+000	-1.9596275740e+000
 9.6949875628e-001	 1.5165988796e+000	-1.9470485151e+000
 9.5393568271e-001	 1.5264359512e+000	-1.9311694485e+000
 9.3829109106e-001	 1.5361021543e+000	-1.9118803068e+000
 9.2256775002e-001	 1.5455965666e+000	-1.8890745980e+000
 9.0676843977e-001	 1.5549183247e+000	-1.8626496647e+000
 8.9089595043e-001	 1.5640666244e+000	-1.8325069369e+000
 8.7495308057e-001	 1.5730407200e+000	-1.7985521774e+000
 8.5894263560e-001	 1.5818399251e+000	-1.7606957182e+000
 8.4286742635e-001	 1.5904636121e+000	-1.7188526892e+000
 8.2673026749e-001	 1.5989112123e+000	-1.6729432371e+000
 9.9865779992e-001	 1.5275168080e+000	-1.9221088703e+000
 9.8296401678e-001	 1.5376627529e+000	-1.9078136994e+000
 9.6718478942e-001	 1.5476364506e+000	-1.8903448643e+000
 9.5132291177e-001	 1.5574369064e+000	-1.8695878031e+000
 9.3538119099e-001	 1.5670631856e+000	-1.8454313726e+000
 9.1936244588e-001	 1.5765144126e+000	-1.8177681214e+000
 9.0326950530e-001	 1.5857897719e+000	-1.7864945565e+000
 8.8710520669e-001	 1.5948885078e+000	-1.7515114026e+000
 8.7087239443e-001	 1.6038099241e+000	-1.7127238530e+000
 8.5457391839e-001	 1.6125533845e+000	-1.6700418118e+000
 8.3821263232e-001	 1.6211183125e+000	-1.6233801267e+000
 1.0123380438e+000	 1.5484416958e+000	-1.8912010815e+000
 9.9642927729e-001	 1.5587266262e+000	-1.8754458875e+000
 9.8043389613e-001	 1.5688369499e+000	-1.8566385011e+000
 9.6435473249e-001	 1.5787716586e+000	-1.8346595091e+000
 9.4819463197e-001	 1.5885298045e+000	-1.8093927630e+000
 9.3195645199e-001	 1.5981105004e+000	-1.7807256672e+000
 9.1564306017e-001	 1.6075129195e+000	-1.7485494596e+000
 8.9925733281e-001	 1.6167362956e+000	-1.7127594854e+000
 8.8280215326e-001	 1.6257799230e+000	-1.6732554626e+000
 8.6628041042e-001	 1.6346431569e+000	-1.6299417390e+000
 8.4969499715e-001	 1.6433254126e+000	-1.5827275390e+000
 1.0260182876e+000	 1.5693665835e+000	-1.8665584991e+000
 1.0098945378e+000	 1.5797904996e+000	-1.8495991900e+000
 9.9368300283e-001	 1.5900374492e+000	-1.8297046232e+000
 9.7738655320e-001	 1.6001064107e+000	-1.8067501724e+000
 9.6100807294e-001	 1.6099964235e+000	-1.7806143253e+000
 9.4455045810e-001	 1.6197065883e+000	-1.7511789865e+000
 9.2801661504e-001	 1.6292360671e+000	-1.7183297733e+000
 9.1140945893e-001	 1.6385840833e+000	-1.6819563044e+000
 8.9473191209e-001	 1.6477499220e+000	-1.6419524807e+000
 8.7798690246e-001	 1.6567329293e+000	-1.5982167569e+000
 8.6117736198e-001	 1.6655325128e+000	-1.5506524038e+000
 1.0396985314e+000	 1.5902914713e+000	-1.8478369922e+000
 1.0233597983e+000	 1.6008543729e+000	-1.8299295996e+000
 1.0069321095e+000	 1.6112379485e+000	-1.8091996692e+000
 9.9041837391e-001	 1.6214411629e+000	-1.7855169951e+000
 9.7382151392e-001	 1.6314630425e+000	-1.7587543377e+000
 9.5714446421e-001	 1.6413026761e+000	-1.7287877410e+000
 9.4039016991e-001	 1.6509592146e+000	-1.6954968450e+000
 9.2356158505e-001	 1.6604318711e+000	-1.6587651893e+000
 9.0666167092e-001	 1.6697199210e+000	-1.6184805098e+000
 8.8969339449e-001	 1.6788227017e+000	-1.5745350258e+000
 8.7265972680e-001	 1.6877396130e+000	-1.5268257179e+000
 1.0533787753e+000	 1.6112163591e+000	-1.8346939052e+000
 1.0368250588e+000	 1.6219182462e+000	-1.8160948687e+000
 1.0201812162e+000	 1.6324384478e+000	-1.7947821105e+000
 1.0034501946e+000	 1.6427759150e+000	-1.7706194742e+000
 9.8663495489e-001	 1.6529296615e+000	-1.7434736237e+000
 9.6973847032e-001	 1.6628987640e+000	-1.7132143768e+000
 9.5276372478e-001	 1.6726823622e+000	-1.6797150335e+000
 9.3571371117e-001	 1.6822796589e+000	-1.6428526964e+000
 9.1859142975e-001	 1.6916899199e+000	-1.6025085828e+000
 9.0139988653e-001	 1.7009124741e+000	-1.5585683284e+000
 8.8414209163e-001	 1.7099467131e+000	-1.5109222808e+000
 1.0670590191e+000	 1.6321412469e+000	-1.8267879631e+000
 1.0502903193e+000	 1.6429821195e+000	-1.8077543965e+000
 1.0334303230e+000	 1.6536389472e+000	-1.7861123214e+000
 1.0164820153e+000	 1.6641106671e+000	-1.7617192546e+000
 9.9944839587e-001	 1.6743962805e+000	-1.7344353890e+000
 9.8233247643e-001	 1.6844948518e+000	-1.7041239454e+000
 9.6513727965e-001	 1.6944055097e+000	-1.6706515160e+000
 9.4786583729e-001	 1.7041274467e+000	-1.6338884022e+000
 9.3052118858e-001	 1.7136599189e+000	-1.5937089436e+000
 9.1310637856e-001	 1.7230022465e+000	-1.5499918379e+000
 8.9562445646e-001	 1.7321538133e+000	-1.5026204510e+000
 1.0807392629e+000	 1.6530661346e+000	-1.8237791841e+000
 1.0637555798e+000	 1.6640459929e+000	-1.8045691253e+000
 1.0466794297e+000	 1.6748394465e+000	-1.7828524587e+000
 1.0295138360e+000	 1.6854454193e+000	-1.7584799928e+000
 1.0122618368e+000	 1.6958628994e+000	-1.7313050708e+000
 9.9492648253e-001	 1.7060909396e+000	-1.7011839393e+000
 9.7751083451e-001	 1.7161286573e+000	-1.6679761095e+000
 9.6001796341e-001	 1.7259752344e+000	-1.6315447120e+000
 9.4245094741e-001	 1.7356299178e+000	-1.5917568435e+000
 9.2481287059e-001	 1.7450920189e+000	-1.5484839031e+000
 9.0710682128e-001	 1.7543609135e+000	-1.5016019205e+000
 1.0944195068e+000	 1.6739910224e+000	-1.8253287987e+000
 1.0772208403e+000	 1.6851098662e+000	-1.8062014434e+000
 1.0599285364e+000	 1.6960399458e+000	-1.7846663498e+000
 1.0425456567e+000	 1.7067801714e+000	-1.7605672317e+000
 1.0250752778e+000	 1.7173295184e+000	-1.7337501980e+000
 1.0075204886e+000	 1.7276870275e+000	-1.7040641390e+000
 9.8988438938e-001	 1.7378518049e+000	-1.6713611059e+000
 9.7217008953e-001	 1.7478230222e+000	-1.6354966832e+000
 9.5438070623e-001	 1.7575999168e+000	-1.5963303530e+000
 9.3651936262e-001	 1.7671817913e+000	-1.5537258502e+000
 9.1858918611e-001	 1.7765680137e+000	-1.5075515069e+000
 8.0376553783e-001	 1.5544970119e+000	-1.8001553828e+000
 7.8801914338e-001	 1.5625382650e+000	-1.7709571521e+000
 7.7221799855e-001	 1.5704073875e+000	-1.7394420842e+000
 7.5636484241e-001	 1.5781039969e+000	-1.7055163296e+000
 7.4046241198e-001	 1.5856277673e+000	-1.6690902345e+000
 7.2451344093e-001	 1.5929784285e+000	-1.6300785420e+000
 7.0852065808e-001	 1.6001557665e+000	-1.5884005827e+000
 6.9248678611e-001	 1.6071596221e+000	-1.5439804545e+000
 6.7641454021e-001	 1.6139898915e+000	-1.4967471914e+000
 6.6030662669e-001	 1.6206465249e+000	-1.4466349215e+000
 6.4416574173e-001	 1.6271295268e+000	-1.3935830127e+000
 8.1524790266e-001	 1.5767041121e+000	-1.7317542933e+000
 7.9927655972e-001	 1.5848602402e+000	-1.7003505708e+000
 7.8324968425e-001	 1.5928417787e+000	-1.6663493726e+000
 7.6717005444e-001	 1.6006483397e+000	-1.6296622418e+000
 7.5104044644e-001	 1.6082795925e+000	-1.5902051081e+000
 7.3486363294e-001	 1.6157352632e+000	-1.5478984881e+000
 7.1864238176e-001	 1.6230151346e+000	-1.5026676750e+000
 7.0237945449e-001	 1.6301190453e+000	-1.4544429166e+000
 6.8607760507e-001	 1.6370468899e+000	-1.4031595829e+000
 6.6973957850e-001	 1.6437986181e+000	-1.3487583215e+000
 6.5336810947e-001	 1.6503742344e+000	-1.2911852016e+000
 8.2673026749e-001	 1.5989112123e+000	-1.6729432371e+000
 8.1053397605e-001	 1.6071822154e+000	-1.6398975555e+000
 7.9428136994e-001	 1.6152761700e+000	-1.6039748226e+000
 7.7797526648e-001	 1.6231926825e+000	-1.5650914568e+000
 7.6161848090e-001	 1.6309314178e+000	-1.5231684580e+000
 7.4521382496e-001	 1.6384920979e+000	-1.4781316076e+000
 7.2876410545e-001	 1.6458745027e+000	-1.4299116578e+000
 7.1227212286e-001	 1.6530784685e+000	-1.3784445091e+000
 6.9574066993e-001	 1.6601038884e+000	-1.3236713763e+000
 6.7917253031e-001	 1.6669507113e+000	-1.2655389428e+000
 6.6257047722e-001	 1.6736189419e+000	-1.2039995024e+000
 8.3821263232e-001	 1.6211183125e+000	-1.6233801267e+000
 8.2179139239e-001	 1.6295041906e+000	-1.5892430552e+000
 8.0531305564e-001	 1.6377105612e+000	-1.5519503200e+000
 7.8878047852e-001	 1.6457370254e+000	-1.5114227004e+000
 7.7219651536e-001	 1.6535832430e+000	-1.4675857560e+000
 7.5556401697e-001	 1.6612489326e+000	-1.4203700276e+000
 7.3888582914e-001	 1.6687338708e+000	-1.3697112259e+000
 7.2216479124e-001	 1.6760378917e+000	-1.3155504098e+000
 7.0540373479e-001	 1.6831608868e+000	-1.2578341510e+000
 6.8860548212e-001	 1.6901028046e+000	-1.1965146881e+000
 6.7177284496e-001	 1.6968636494e+000	-1.1315500664e+000
 8.4969499715e-001	 1.6433254126e+000	-1.5827275390e+000
 8.3304880872e-001	 1.6518261659e+000	-1.5480377271e+000
 8.1634474134e-001	 1.6601449525e+000	-1.5099145101e+000
 7.9958569055e-001	 1.6682813682e+000	-1.4682825160e+000
 7.8277454982e-001	 1.6762350683e+000	-1.4230713563e+000
 7.6591420899e-001	 1.6840057673e+000	-1.3742158280e+000
 7.4900755283e-001	 1.6915932389e+000	-1.3216561028e+000
 7.3205745961e-001	 1.6989973148e+000	-1.2653379059e+000
 7.1506679966e-001	 1.7062178853e+000	-1.2052126811e+000
 6.9803843393e-001	 1.7132548978e+000	-1.1412377438e+000
 6.8097521270e-001	 1.7201083570e+000	-1.0733764207e+000
 8.6117736198e-001	 1.6655325128e+000	-1.5506524038e+000
 8.4430622506e-001	 1.6741481411e+000	-1.5159375560e+000
 8.2737642703e-001	 1.6825793437e+000	-1.4775123469e+000
 8.1039090259e-001	 1.6908257110e+000	-1.4353047435e+000
 7.9335258428e-001	 1.6988868935e+000	-1.3892479033e+000
 7.7626440100e-001	 1.7067626020e+000	-1.3392803782e+000
 7.5912927652e-001	 1.7144526070e+000	-1.2853463055e+000
 7.4195012799e-001	 1.7219567380e+000	-1.2273955870e+000
 7.2472986452e-001	 1.7292748837e+000	-1.1653840555e+000
 7.0747138575e-001	 1.7364069910e+000	-1.0992736274e+000
 6.9017758044e-001	 1.7433530645e+000	-1.0290324430e+000
 8.7265972680e-001	 1.6877396130e+000	-1.5268257179e+000
 8.5556364139e-001	 1.6964701163e+000	-1.4926035035e+000
 8.3840811273e-001	 1.7050137350e+000	-1.4543946782e+000
 8.2119611462e-001	 1.7133700538e+000	-1.4121300394e+000
 8.0393061874e-001	 1.7215387188e+000	-1.3657457862e+000
 7.8661459301e-001	 1.7295194367e+000	-1.3151837260e+000
 7.6925100021e-001	 1.7373119751e+000	-1.2603914674e+000
 7.5184279636e-001	 1.7449161612e+000	-1.2013226013e+000
 7.3439292938e-001	 1.7523318822e+000	-1.1379368678e+000
 7.1690433756e-001	 1.7595590842e+000	-1.0702003107e+000
 6.9937994818e-001	 1.7665977720e+000	-9.9808541714e-001
 8.8414209163e-001	 1.7099467131e+000	-1.5109222808e+000
 8.6682105773e-001	 1.7187920915e+000	-1.4777011852e+000
 8.4943979842e-001	 1.7274481262e+000	-1.4402178629e+000
 8.3200132666e-001	 1.7359143966e+000	-1.3984054338e+000
 8.1450865319e-001	 1.7441905440e+000	-1.3522026359e+000
 7.9696478503e-001	 1.7522762714e+000	-1.3015540335e+000
 7.7937272389e-001	 1.7601713431e+000	-1.2464102138e+000
 7.6173546473e-001	 1.7678755844e+000	-1.1867279699e+000
 7.4405599424e-001	 1.7753888806e+000	-1.1224704694e+000
 7.2633728937e-001	 1.7827111774e+000	-1.0536074107e+000
 7.0858231592e-001	 1.7898424795e+000	-9.8011516312e-001
 8.9562445646e-001	 1.7321538133e+000	-1.5026204510e+000
 8.7807847406e-001	 1.7411140667e+000	-1.4709005723e+000
 8.6047148411e-001	 1.7498825175e+000	-1.4346434174e+000
 8.4280653869e-001	 1.7584587394e+000	-1.3937839224e+000
 8.2508668765e-001	 1.7668423693e+000	-1.3482628612e+000
 8.0731497704e-001	 1.7750331061e+000	-1.2980270576e+000
 7.8949444758e-001	 1.7830307112e+000	-1.2430295856e+000
 7.7162813311e-001	 1.7908350075e+000	-1.1832299542e+000
 7.5371905910e-001	 1.7984458791e+000	-1.1185942799e+000
 7.3577024118e-001	 1.8058632706e+000	-1.0490954436e+000
 7.1778468366e-001	 1.8130871871e+000	-9.7471323311e-001
 9.0710682128e-001	 1.7543609135e+000	-1.5016019205e+000
 8.8933589040e-001	 1.7634360419e+000	-1.4718757156e+000
 8.7150316981e-001	 1.7723169087e+000	-1.4373376896e+000
 8.5361175073e-001	 1.7810030823e+000	-1.3979240884e+000
 8.3566472211e-001	 1.7894941945e+000	-1.3535772194e+000
 8.1766516906e-001	 1.7977899408e+000	-1.3042456692e+000
 7.9961617127e-001	 1.8058900793e+000	-1.2498845063e+000
 7.8152080148e-001	 1.8137944307e+000	-1.1904554710e+000
 7.6338212396e-001	 1.8215028775e+000	-1.1259271496e+000
 7.4520319299e-001	 1.8290153638e+000	-1.0562751345e+000
 7.2698705140e-001	 1.8363318946e+000	-9.8148216904e-001
 9.1858918611e-001	 1.7765680137e+000	-1.5075515069e+000
 9.0059330673e-001	 1.7857580172e+000	-1.4803044909e+000
 8.8253485550e-001	 1.7947513000e+000	-1.4479715568e+000
 8.6441696276e-001	 1.8035474251e+000	-1.4104897534e+000
 8.4624275656e-001	 1.8121460198e+000	-1.3678024199e+000
 8.2801536107e-001	 1.8205467755e+000	-1.3198594081e+000
 8.0973789495e-001	 1.8287494474e+000	-1.2666172899e+000
 7.9141346985e-001	 1.8367538539e+000	-1.2080395512e+000
 7.7304518882e-001	 1.8445598760e+000	-1.1440967702e+000
 7.5463614479e-001	 1.8521674571e+000	-1.0747667798e+000
 7.3618941913e-001	 1.8595766021e+000	-1.0000348157e+000
 6.4416574173e-001	 1.6271295268e+000	-1.3935830127e+000
 6.2799457010e-001	 1.6334389551e+000	-1.3840011817e+000
 6.1179578385e-001	 1.6395749202e+000	-1.3642532197e+000
 5.9557204113e-001	 1.6455375851e+000	-1.3361176002e+000
 5.7932598494e-001	 1.6513271642e+000	-1.3003117257e+000
 5.6306024200e-001	 1.6569439230e+000	-1.2573729165e+000
 5.4677742155e-001	 1.6623881771e+000	-1.2078331169e+000
 5.3048011422e-001	 1.6676602917e+000	-1.1522180802e+000
 5.1417089100e-001	 1.6727606807e+000	-1.0910465847e+000
 4.9785230211e-001	 1.6776898060e+000	-1.0248296825e+000
 4.8152687598e-001	 1.6824481768e+000	-9.5406998180e-001
 6.5336810947e-001	 1.6503742344e+000	-1.2911852016e+000
 6.3696592110e-001	 1.6567737973e+000	-1.2839127757e+000
 6.2053572362e-001	 1.6629974190e+000	-1.2657021967e+000
 6.0408021315e-001	 1.6690452648e+000	-1.2350677900e+000
 5.8760207045e-001	 1.6749175522e+000	-1.1976200789e+000
 5.7110395975e-001	 1.6806145504e+000	-1.1538960944e+000
 5.5458852757e-001	 1.6861365796e+000	-1.1044266277e+000
 5.3805840157e-001	 1.6914840101e+000	-1.0497354128e+000
 5.2151618944e-001	 1.6966572618e+000	-9.9033834198e-001
 5.0496447785e-001	 1.7016568033e+000	-9.2674271471e-001
 4.8840583136e-001	 1.7064831508e+000	-8.5944652228e-001
 6.6257047722e-001	 1.6736189419e+000	-1.2039995024e+000
 6.4593727211e-001	 1.6801086395e+000	-1.1982257921e+000
 6.2927566340e-001	 1.6864199179e+000	-1.1838289869e+000
 6.1258838517e-001	 1.6925529446e+000	-1.1522929527e+000
 5.9587815595e-001	 1.6985079403e+000	-1.1115326532e+000
 5.7914767750e-001	 1.7042851779e+000	-1.0653366031e+000
 5.6239963360e-001	 1.7098849821e+000	-1.0142359263e+000
 5.4563668892e-001	 1.7153077286e+000	-9.5875381030e-001
 5.2886148789e-001	 1.7205538430e+000	-8.9940471813e-001
 5.1207665360e-001	 1.7256238005e+000	-8.3669363742e-001
 4.9528478673e-001	 1.7305181247e+000	-7.7111536506e-001
 6.7177284496e-001	 1.6968636494e+000	-1.1315500664e+000
 6.5490862311e-001	 1.7034434817e+000	-1.1265065394e+000
 6.3801560317e-001	 1.7098424168e+000	-1.1134591191e+000
 6.2109655719e-001	 1.7160606244e+000	-1.0881827006e+000
 6.0415424145e-001	 1.7220983284e+000	-1.0424580771e+000
 5.8719139524e-001	 1.7279558054e+000	-9.9212296925e-001
 5.7021073962e-001	 1.7336333847e+000	-9.3771031424e-001
 5.5321497627e-001	 1.7391314470e+000	-8.7974421856e-001
 5.3620678633e-001	 1.7444504242e+000	-8.1873916671e-001
 5.1918882934e-001	 1.7495907977e+000	-7.5519926728e-001
 5.0216374210e-001	 1.7545530987e+000	-6.8961753716e-001
 6.8097521270e-001	 1.7201083570e+000	-1.0733764207e+000
 6.6387997412e-001	 1.7267783239e+000	-1.0683347708e+000
 6.4675554294e-001	 1.7332649156e+000	-1.0558837519e+000
 6.2960472920e-001	 1.7395683042e+000	-1.0360665504e+000
 6.1243032695e-001	 1.7456887164e+000	-9.9081234919e-001
 5.9523511299e-001	 1.7516264329e+000	-9.3468897530e-001
 5.7802184564e-001	 1.7573817872e+000	-8.7530219099e-001
 5.6079326361e-001	 1.7629551655e+000	-8.1317848279e-001
 5.4355208478e-001	 1.7683470053e+000	-7.4883380108e-001
 5.2630100509e-001	 1.7735577950e+000	-6.8277280225e-001
 5.0904269747e-001	 1.7785880727e+000	-6.1548813074e-001
 6.9017758044e-001	 1.7433530645e+000	-1.0290324430e+000
 6.7285132512e-001	 1.7501131661e+000	-1.0233027876e+000
 6.5549548271e-001	 1.7566874145e+000	-1.0107343740e+000
 6.3811290122e-001	 1.7630759840e+000	-9.9134462319e-001
 6.2070641246e-001	 1.7692791045e+000	-9.5701834677e-001
 6.0327883073e-001	 1.7752970603e+000	-8.9347330872e-001
 5.8583295167e-001	 1.7811301897e+000	-8.2746684775e-001
 5.6837155096e-001	 1.7867788839e+000	-7.5952928733e-001
 5.5089738322e-001	 1.7922435865e+000	-6.9017948373e-001
 5.3341318083e-001	 1.7975247922e+000	-6.1992406290e-001
 5.1592165284e-001	 1.8026230466e+000	-5.4925669876e-001
 6.9937994818e-001	 1.7665977720e+000	-9.9808541714e-001
 6.8182267612e-001	 1.7734480084e+000	-9.9101461385e-001
 6.6423542248e-001	 1.7801099133e+000	-9.7765247145e-001
 6.4662107324e-001	 1.7865836638e+000	-9.5799085146e-001
 6.2898249796e-001	 1.7928694926e+000	-9.3203030236e-001
 6.1132254848e-001	 1.7989676878e+000	-8.6891923948e-001
 5.9364405769e-001	 1.8048785923e+000	-7.9466227706e-001
 5.7594983831e-001	 1.8106026024e+000	-7.1927010050e-001
 5.5824268167e-001	 1.8161401676e+000	-6.4326590859e-001
 5.4052535658e-001	 1.8214917894e+000	-5.6715971460e-001
 5.2280060822e-001	 1.8266580206e+000	-4.9144761940e-001
 7.0858231592e-001	 1.7898424795e+000	-9.8011516312e-001
 6.9079402712e-001	 1.7967828506e+000	-9.7108523515e-001
 6.7297536225e-001	 1.8035324122e+000	-9.5628887866e-001
 6.5512924526e-001	 1.8100913436e+000	-9.3569257785e-001
 6.3725858345e-001	 1.8164598806e+000	-9.0927144176e-001
 6.1936626622e-001	 1.8226383153e+000	-8.6147432248e-001
 6.0145516371e-001	 1.8286269948e+000	-7.7734899739e-001
 5.8352812565e-001	 1.8344263209e+000	-6.9287512369e-001
 5.6558798011e-001	 1.8400367488e+000	-6.0858167690e-001
 5.4763753232e-001	 1.8454587867e+000	-5.2498347238e-001
 5.2967956359e-001	 1.8506929945e+000	-4.4258043209e-001
 7.1778468366e-001	 1.8130871871e+000	-9.7471323311e-001
 6.9976537812e-001	 1.8201176928e+000	-9.6313989582e-001
 6.8171530202e-001	 1.8269549111e+000	-9.4630317890e-001
 6.6363741727e-001	 1.8335990234e+000	-9.2414434868e-001
 6.4553466895e-001	 1.8400502687e+000	-8.9661324856e-001
 6.2740998396e-001	 1.8463089428e+000	-8.6366840059e-001
 6.0926626974e-001	 1.8523753973e+000	-7.7598989124e-001
 5.9110641300e-001	 1.8582500393e+000	-6.8081924439e-001
 5.7293327855e-001	 1.8639333299e+000	-5.8661436721e-001
 5.5474970807e-001	 1.8694257839e+000	-4.9389629011e-001
 5.3655851896e-001	 1.8747279685e+000	-4.0317014766e-001
 7.2698705140e-001	 1.8363318946e+000	-9.8148216904e-001
 7.0873672912e-001	 1.8434525350e+000	-9.6681344978e-001
 6.9045524179e-001	 1.8503774099e+000	-9.4736315070e-001
 6.7214558929e-001	 1.8571067031e+000	-9.2304745799e-001
 6.5381075445e-001	 1.8636406567e+000	-8.9379110119e-001
 6.3545370170e-001	 1.8699795702e+000	-8.5952748817e-001
 6.1707737576e-001	 1.8761237999e+000	-7.9740271275e-001
 5.9868470035e-001	 1.8820737578e+000	-7.2431204816e-001
 5.8027857699e-001	 1.8878299111e+000	-6.5251810161e-001
 5.6186188381e-001	 1.8933927811e+000	-5.8174248032e-001
 5.4343747433e-001	 1.8987629424e+000	-5.1173165351e-001
 7.3618941913e-001	 1.8595766021e+000	-1.0000348157e+000
 7.1770808012e-001	 1.8667873772e+000	-9.8174975983e-001
 6.9919518155e-001	 1.8737999088e+000	-9.5914425564e-001
 6.8065376130e-001	 1.8806143829e+000	-9.6019345477e-001
 6.6208683995e-001	 1.8872310448e+000	-9.6336452199e-001
 6.4349741945e-001	 1.8936501977e+000	-9.6273430109e-001
 6.2488848178e-001	 1.8998722024e+000	-9.5776201101e-001
 6.0626298769e-001	 1.9058974762e+000	-8.7348521205e-001
 5.8762387544e-001	 1.9117264922e+000	-7.9067363504e-001
 5.6897405956e-001	 1.9173597783e+000	-7.0899450384e-001
 5.5031642970e-001	 1.9227979164e+000	-6.2814109439e-001
 4.8152687598e-001	 1.6824481768e+000	-9.5406998180e-001
 4.6519711830e-001	 1.6870363485e+000	-9.3325644915e-001
 4.4886551095e-001	 1.6914549220e+000	-9.0525785006e-001
 4.3253451115e-001	 1.6957045429e+000	-8.7052864994e-001
 4.1620655053e-001	 1.6997859004e+000	-8.2951602099e-001
 3.9988403422e-001	 1.7036997268e+000	-7.8265924770e-001
 3.8356934007e-001	 1.7074467960e+000	-7.3038916522e-001
 3.6726481779e-001	 1.7110279231e+000	-6.7312763135e-001
 3.5097278822e-001	 1.7144439629e+000	-6.1128703205e-001
 3.3469554257e-001	 1.7176958094e+000	-5.4526982076e-001
 3.1843534172e-001	 1.7207843947e+000	-4.7546809148e-001
 4.8840583136e-001	 1.7064831508e+000	-8.5944652228e-001
 4.7184279141e-001	 1.7111368678e+000	-8.4110469038e-001
 4.5527787539e-001	 1.7156185637e+000	-8.1581589500e-001
 4.3871357559e-001	 1.7199288935e+000	-7.8405816581e-001
 4.2215235839e-001	 1.7240685561e+000	-7.4630147322e-001
 4.0559666328e-001	 1.7280382943e+000	-7.0300711104e-001
 3.8904890206e-001	 1.7318388931e+000	-6.5462711432e-001
 3.7251145804e-001	 1.7354711791e+000	-6.0160371246e-001
 3.5598668519e-001	 1.7389360195e+000	-5.4436881778e-001
 3.3947690746e-001	 1.7422343210e+000	-4.8334354992e-001
 3.2298441803e-001	 1.7453670289e+000	-4.1893779572e-001
 4.9528478673e-001	 1.7305181247e+000	-7.7111536506e-001
 4.7848846453e-001	 1.7352373870e+000	-7.5478121019e-001
 4.6169023983e-001	 1.7397822055e+000	-7.3174564674e-001
 4.4489264004e-001	 1.7441532441e+000	-7.0251096557e-001
 4.2809816625e-001	 1.7483512119e+000	-6.6757060908e-001
 4.1130929234e-001	 1.7523768619e+000	-6.2740853073e-001
 3.9452846406e-001	 1.7562309902e+000	-5.8249859153e-001
 3.7775809829e-001	 1.7599144352e+000	-5.3330399385e-001
 3.6100058217e-001	 1.7634280761e+000	-4.8027675270e-001
 3.4425827236e-001	 1.7667728326e+000	-4.2385720468e-001
 3.2753349434e-001	 1.7699496631e+000	-3.6447355444e-001
 5.0216374210e-001	 1.7545530987e+000	-6.8961753716e-001
 4.8513413765e-001	 1.7593379063e+000	-6.7479911135e-001
 4.6810260427e-001	 1.7639458472e+000	-6.5353255762e-001
 4.5107170448e-001	 1.7683775947e+000	-6.2634514249e-001
 4.3404397412e-001	 1.7726338676e+000	-5.9375447135e-001
 4.1702192139e-001	 1.7767154294e+000	-5.5626782408e-001
 4.0000802606e-001	 1.7806230873e+000	-5.1438152977e-001
 3.8300473855e-001	 1.7843576912e+000	-4.6858038062e-001
 3.6601447914e-001	 1.7879201327e+000	-4.1933708553e-001
 3.4903963725e-001	 1.7913113441e+000	-3.6711176316e-001
 3.3208257065e-001	 1.7945322974e+000	-3.1235147464e-001
 5.0904269747e-001	 1.7785880727e+000	-6.1548813074e-001
 4.9177981077e-001	 1.7834384256e+000	-6.0166607247e-001
 4.7451496871e-001	 1.7881094890e+000	-5.8165716131e-001
 4.5725076893e-001	 1.7926019453e+000	-5.5601437139e-001
 4.3998978198e-001	 1.7969165233e+000	-5.2528017894e-001
 4.2273455045e-001	 1.8010539969e+000	-4.8998587351e-001
 4.0548758806e-001	 1.8050151844e+000	-4.5065091018e-001
 3.8825137880e-001	 1.8088009473e+000	-4.0778230318e-001
 3.7102837612e-001	 1.8124121893e+000	-3.6187406122e-001
 3.5382100214e-001	 1.8158498557e+000	-3.1340666432e-001
 3.3663164696e-001	 1.8191149316e+000	-2.6284658241e-001
 5.1592165284e-001	 1.8026230466e+000	-5.4925669876e-001
 4.9842548389e-001	 1.8075389448e+000	-5.3588470960e-001
 4.8092733315e-001	 1.8122731307e+000	-5.1659540076e-001
 4.6342983337e-001	 1.8168262959e+000	-4.9196820315e-001
 4.4593558984e-001	 1.8211991790e+000	-4.6257118853e-001
 4.2844717952e-001	 1.8253925645e+000	-4.2896035554e-001
 4.1096715007e-001	 1.8294072815e+000	-3.9167895889e-001
 3.9349801906e-001	 1.8332442033e+000	-3.5125688222e-001
 3.7604227309e-001	 1.8369042460e+000	-3.0821005455e-001
 3.5860236704e-001	 1.8403883673e+000	-2.6303991061e-001
 3.4118072327e-001	 1.8436975658e+000	-2.1623289493e-001
 5.2280060822e-001	 1.8266580206e+000	-4.9144761940e-001
 5.0507115701e-001	 1.8316394641e+000	-4.7795290931e-001
 4.8733969760e-001	 1.8364367724e+000	-4.5881893019e-001
 4.6960889782e-001	 1.8410506465e+000	-4.3465233607e-001
 4.5188139771e-001	 1.8454818348e+000	-4.0604753549e-001
 4.3415980858e-001	 1.8497311320e+000	-3.7358595171e-001
 4.1644671207e-001	 1.8537993786e+000	-3.3783532832e-001
 3.9874465931e-001	 1.8576874594e+000	-2.9934908067e-001
 3.8105617007e-001	 1.8613963026e+000	-2.5866569314e-001
 3.6338373194e-001	 1.8649268788e+000	-2.1630816248e-001
 3.4572979958e-001	 1.8682802000e+000	-1.7278348691e-001
 5.2967956359e-001	 1.8506929945e+000	-4.4258043209e-001
 5.1171683013e-001	 1.8557399833e+000	-4.2836413579e-001
 4.9375206204e-001	 1.8606004142e+000	-4.0879539361e-001
 4.7578796226e-001	 1.8652749971e+000	-3.8450886601e-001
 4.5782720558e-001	 1.8697644905e+000	-3.5612605604e-001
 4.3987243764e-001	 1.8740696995e+000	-3.2425454307e-001
 4.2192627407e-001	 1.8781914757e+000	-3.0360141265e-001
 4.0399129957e-001	 1.8821307154e+000	-2.8103042857e-001
 3.8607006704e-001	 1.8858883592e+000	-2.5234086551e-001
 3.6816509683e-001	 1.8894653904e+000	-2.1781228827e-001
 3.5027887589e-001	 1.8928628342e+000	-1.7775306479e-001
 5.3655851896e-001	 1.8747279685e+000	-4.0317014766e-001
 5.1836250325e-001	 1.8798405026e+000	-4.1553075914e-001
 5.0016442648e-001	 1.8847640559e+000	-4.2182469552e-001
 4.8196702671e-001	 1.8894993478e+000	-4.2053730580e-001
 4.6377301344e-001	 1.8940471462e+000	-4.1178299059e-001
 4.4558506670e-001	 1.8984082670e+000	-3.9570685889e-001
 4.2740583607e-001	 1.9025835728e+000	-3.7248480244e-001
 4.0923793982e-001	 1.9065739715e+000	-3.4232349493e-001
 3.9108396402e-001	 1.9103804158e+000	-3.0546031777e-001
 3.7294646173e-001	 1.9140039020e+000	-2.6216321339e-001
 3.5482795221e-001	 1.9174454684e+000	-2.1273046806e-001
 5.4343747433e-001	 1.8987629424e+000	-5.1173165351e-001
 5.2500817637e-001	 1.9039410219e+000	-5.2208915697e-001
 5.0657679093e-001	 1.9089276977e+000	-5.2427570033e-001
 4.8814609116e-001	 1.9137236984e+000	-5.1835309556e-001
 4.6971882131e-001	 1.9183298019e+000	-5.0441519910e-001
 4.5129769576e-001	 1.9227468346e+000	-4.8258809056e-001
 4.3288539808e-001	 1.9269756698e+000	-4.5303017162e-001
 4.1448458008e-001	 1.9310172275e+000	-4.1593218632e-001
 3.9609786100e-001	 1.9348724724e+000	-3.7151716403e-001
 3.7772782663e-001	 1.9385424135e+000	-3.2004028640e-001
 3.5937702852e-001	 1.9420281026e+000	-2.6178868018e-001
 5.5031642970e-001	 1.9227979164e+000	-6.2814109439e-001
 5.3165384949e-001	 1.9280415411e+000	-6.3574886393e-001
 5.1298915537e-001	 1.9330913394e+000	-6.3465578117e-001
 4.9432515561e-001	 1.9379480490e+000	-6.2490011555e-001
 4.7566462918e-001	 1.9426124576e+000	-6.0655372257e-001
 4.5701032483e-001	 1.9470854021e+000	-5.7972225216e-001
 4.3836496008e-001	 1.9513677669e+000	-5.4454527364e-001
 4.1973122034e-001	 1.9554604835e+000	-5.0119631803e-001
 4.0111175798e-001	 1.9593645290e+000	-4.4988283923e-001
 3.8250919152e-001	 1.9630809251e+000	-3.9084609554e-001
 3.6392610484e-001	 1.9666107368e+000	-3.2436095303e-001
 3.1843534172e-001	 1.7207843947e+000	-4.7546809148e-001
 3.0219441554e-001	 1.7237106878e+000	-4.5635619652e-001
 2.8597496228e-001	 1.7264756937e+000	-4.3175981909e-001
 2.6977914796e-001	 1.7290804525e+000	-4.0203523594e-001
 2.5360910577e-001	 1.7315260383e+000	-3.6752915496e-001
 2.3746693559e-001	 1.7338135582e+000	-3.2857840823e-001
 2.2135470344e-001	 1.7359441509e+000	-2.8550967574e-001
 2.0527444106e-001	 1.7379189865e+000	-2.3863923946e-001
 1.8922814542e-001	 1.7397392646e+000	-1.8827276715e-001
 1.7321777839e-001	 1.7414062137e+000	-1.3470512546e-001
 1.5724526631e-001	 1.7429210901e+000	-7.8220221667e-002
 3.2298441803e-001	 1.7453670289e+000	-4.1893779572e-001
 3.0651147862e-001	 1.7483351262e+000	-4.0482800427e-001
 2.9006031889e-001	 1.7511396322e+000	-3.8621069283e-001
 2.7363313579e-001	 1.7537816018e+000	-3.6344960484e-001
 2.5723209300e-001	 1.7562621246e+000	-3.3689769868e-001
 2.4085932039e-001	 1.7585823233e+000	-3.0689685020e-001
 2.2451691349e-001	 1.7607433531e+000	-2.7377758785e-001
 2.0820693307e-001	 1.7627464006e+000	-2.3785885964e-001
 1.9193140464e-001	 1.7645926827e+000	-1.9944783158e-001
 1.7569231808e-001	 1.7662834454e+000	-1.5883971699e-001
 1.5949162725e-001	 1.7678199628e+000	-1.1631763579e-001
 3.2753349434e-001	 1.7699496631e+000	-3.6447355444e-001
 3.1082854170e-001	 1.7729595646e+000	-3.5488276774e-001
 2.9414567549e-001	 1.7758035707e+000	-3.4176014909e-001
 2.7748712362e-001	 1.7784827512e+000	-3.2547754100e-001
 2.6085508023e-001	 1.7809982109e+000	-3.0639476363e-001
 2.4425170518e-001	 1.7833510884e+000	-2.8485932658e-001
 2.2767912354e-001	 1.7855425553e+000	-2.6120617498e-001
 2.1113942509e-001	 1.7875738147e+000	-2.3575746922e-001
 1.9463466387e-001	 1.7894461008e+000	-2.0882239788e-001
 1.7816685777e-001	 1.7911606770e+000	-1.8069702287e-001
 1.6173798820e-001	 1.7927188355e+000	-1.5166415643e-001
 3.3208257065e-001	 1.7945322974e+000	-3.1235147464e-001
 3.1514560478e-001	 1.7975840030e+000	-3.0677715249e-001
 2.9823103210e-001	 1.8004675091e+000	-2.9864643717e-001
 2.8134111145e-001	 1.8031839005e+000	-2.8833990698e-001
 2.6447806745e-001	 1.8057342971e+000	-2.7622485867e-001
 2.4764408998e-001	 1.8081198535e+000	-2.6265502819e-001
 2.3084133360e-001	 1.8103417574e+000	-2.4797034752e-001
 2.1407191711e-001	 1.8124012288e+000	-2.3249673689e-001
 1.9733792309e-001	 1.8142995188e+000	-2.1654593192e-001
 1.8064139747e-001	 1.8160379086e+000	-2.0041534473e-001
 1.6398434915e-001	 1.8176177082e+000	-1.8438795825e-001
 3.3663164696e-001	 1.8191149316e+000	-2.6284658241e-001
 3.1946266786e-001	 1.8222084414e+000	-2.6076692356e-001
 3.0231638870e-001	 1.8251314476e+000	-2.5710704715e-001
 2.8519509928e-001	 1.8278850498e+000	-2.5225690855e-001
 2.6810105468e-001	 1.8304703834e+000	-2.4659189978e-001
 2.5103647477e-001	 1.8328886186e+000	-2.4047257876e-001
 2.3400354365e-001	 1.8351409596e+000	-2.3424443667e-001
 2.1700440913e-001	 1.8372286429e+000	-2.2823770245e-001
 2.0004118231e-001	 1.8391529369e+000	-2.2276718404e-001
 1.8311593716e-001	 1.8409151402e+000	-2.1813214515e-001
 1.6623071010e-001	 1.8425165809e+000	-2.1461621704e-001
 3.4118072327e-001	 1.8436975658e+000	-2.1623289493e-001
 3.2377973094e-001	 1.8468328798e+000	-2.1710700552e-001
 3.0640174531e-001	 1.8497953861e+000	-2.1737876051e-001
 2.8904908711e-001	 1.8525861991e+000	-2.1744813857e-001
 2.7172404191e-001	 1.8552064696e+000	-2.1769924969e-001
 2.5442885957e-001	 1.8576573837e+000	-2.1850007274e-001
 2.3716575370e-001	 1.8599401617e+000	-2.2020223301e-001
 2.1993690114e-001	 1.8620560570e+000	-2.2314081883e-001
 2.0274444153e-001	 1.8640063550e+000	-2.2763423667e-001
 1.8559047685e-001	 1.8657923719e+000	-2.3398410361e-001
 1.6847707105e-001	 1.8674154536e+000	-2.4247517636e-001
 3.4572979958e-001	 1.8682802000e+000	-1.7278348691e-001
 3.2809679402e-001	 1.8714573182e+000	-1.7605153776e-001
 3.1048710192e-001	 1.8744593246e+000	-1.7969769674e-001
 2.9290307494e-001	 1.8772873485e+000	-1.8486533759e-001
 2.7534702914e-001	 1.8799425559e+000	-1.8765134684e-001
 2.5782124437e-001	 1.8824261489e+000	-1.8790747882e-001
 2.4032796375e-001	 1.8847393639e+000	-1.8606230211e-001
 2.2286939316e-001	 1.8868834711e+000	-1.8256891361e-001
 2.0544770075e-001	 1.8888597730e+000	-1.7790429173e-001
 1.8806501655e-001	 1.8906696035e+000	-1.7256860380e-001
 1.7072343199e-001	 1.8923143264e+000	-1.6708447022e-001
 3.5027887589e-001	 1.8928628342e+000	-1.7775306479e-001
 3.3241385710e-001	 1.8960817566e+000	-1.7849221927e-001
 3.1457245852e-001	 1.8991232631e+000	-1.7544450958e-001
 2.9675706277e-001	 1.9019884978e+000	-1.6895033480e-001
 2.7897001637e-001	 1.9046786422e+000	-1.5937746766e-001
 2.6121362916e-001	 1.9071949140e+000	-1.4712056507e-001
 2.4349017380e-001	 1.9095385661e+000	-1.3260062254e-001
 2.2580188518e-001	 1.9117108852e+000	-1.1626437512e-001
 2.0815095998e-001	 1.9137131911e+000	-9.8583647248e-002
 1.9053955624e-001	 1.9155468351e+000	-8.0054654090e-002
 1.7296979294e-001	 1.9172131991e+000	-6.1197257116e-002
 3.5482795221e-001	 1.9174454684e+000	-2.1273046806e-001
 3.3673092018e-001	 1.9207061950e+000	-2.0190967510e-001
 3.1865781513e-001	 1.9237872016e+000	-1.8713085875e-001
 3.0061105060e-001	 1.9266896471e+000	-1.6872249214e-001
 2.8259300359e-001	 1.9294147284e+000	-1.4704169242e-001
 2.6460601396e-001	 1.9319636791e+000	-1.2247373617e-001
 2.4665238385e-001	 1.9343377682e+000	-9.5431515863e-002
 2.2873437719e-001	 1.9365382993e+000	-6.6354939807e-002
 2.1085421920e-001	 1.9385666092e+000	-3.5710278205e-002
 1.9301409593e-001	 1.9404240667e+000	-3.9894579762e-003
 1.7521615389e-001	 1.9421120718e+000	 2.8290690872e-002
 3.5937702852e-001	 1.9420281026e+000	-2.6178868018e-001
 3.4104798327e-001	 1.9453306334e+000	-2.3983542136e-001
 3.2274317174e-001	 1.9484511400e+000	-2.1370590561e-001
 3.0446503843e-001	 1.9513907964e+000	-1.8371592771e-001
 2.8621599082e-001	 1.9541508147e+000	-1.5021126322e-001
 2.6799839876e-001	 1.9567324442e+000	-1.1356718880e-001
 2.4981459391e-001	 1.9591369704e+000	-7.4187940469e-002
 2.3166686921e-001	 1.9613657134e+000	-3.2506112278e-002
 2.1355747842e-001	 1.9634200273e+000	 1.1018001824e-002
 1.9548863562e-001	 1.9653012984e+000	 5.5897120188e-002
 1.7746251484e-001	 1.9670109445e+000	 1.0161773689e-001
 3.6392610484e-001	 1.9666107368e+000	-3.2436095303e-001
 3.4536504635e-001	 1.9699550718e+000	-2.9173631430e-001
 3.2682852835e-001	 1.9731150785e+000	-2.5466999036e-001
 3.0831902626e-001	 1.9760919458e+000	-2.1346431951e-001
 2.8983897805e-001	 1.9788869010e+000	-1.6845302490e-001
 2.7139078356e-001	 1.9815012093e+000	-1.2000073962e-001
 2.5297680396e-001	 1.9839361725e+000	-6.8502466614e-002
 2.3459936123e-001	 1.9861931275e+000	-1.4382975764e-002
 2.1626073764e-001	 1.9882734453e+000	 4.1903858764e-002
 1.9796317532e-001	 1.9901785300e+000	 9.9875778283e-002
 1.7970887579e-001	 1.9919098172e+000	 1.5902291337e-001
 1.5724526631e-001	 1.7429210901e+000	-7.8220221667e-002
 1.4131249968e-001	 1.7442851766e+000	-5.2040797503e-002
 1.2542133286e-001	 1.7454997821e+000	-2.3910186150e-002
 1.0957358381e-001	 1.7465662397e+000	 6.0169818712e-003
 9.3771033799e-002	 1.7474859064e+000	 3.7595942632e-002
 7.8015427255e-002	 1.7482601617e+000	 7.0691769639e-002
 6.2308471545e-002	 1.7488904066e+000	 1.0517932372e-001
 4.6651836836e-002	 1.7493780627e+000	 1.4094318288e-001
 3.1047155971e-002	 1.7497245709e+000	 1.7787755292e-001
 1.5496024379e-002	 1.7499313910e+000	 2.1588615994e-001
 0.0000000000e+000	 1.7500000000e+000	 2.5488212535e-001
 1.5949162725e-001	 1.7678199628e+000	-1.1631763579e-001
 1.4333124967e-001	 1.7692035363e+000	-1.0035589353e-001
 1.2721306619e-001	 1.7704354933e+000	-8.2831314872e-002
 1.1113892072e-001	 1.7715171860e+000	-6.3920137874e-002
 9.5110619996e-002	 1.7724499908e+000	-4.3787675272e-002
 7.9129933358e-002	 1.7732353069e+000	-2.2588344071e-002
 6.3198592567e-002	 1.7738745553e+000	-4.6571778868e-004
 4.7318291647e-002	 1.7743691778e+000	 2.2447399637e-002
 3.1490686771e-002	 1.7747206362e+000	 4.6028879232e-002
 1.5717396155e-002	 1.7749304109e+000	 7.0167152632e-002
 0.0000000000e+000	 1.7750000000e+000	 9.4761078985e-002
 1.6173798820e-001	 1.7927188355e+000	-1.5166415643e-001
 1.4534999967e-001	 1.7941218960e+000	-1.4655171027e-001
 1.2900479952e-001	 1.7953712044e+000	-1.4028271281e-001
 1.1270425763e-001	 1.7964681323e+000	-1.3305484945e-001
 9.6450206192e-002	 1.7974140752e+000	-1.2505380077e-001
 8.0244439462e-002	 1.7982104521e+000	-1.1645327316e-001
 6.4088713588e-002	 1.7988587040e+000	-1.0741505366e-001
 4.7984746459e-002	 1.7993602930e+000	-9.8089088159e-002
 3.1934217570e-002	 1.7997167015e+000	-8.8613581911e-002
 1.5938767932e-002	 1.7999294307e+000	-7.9115121213e-002
 0.0000000000e+000	 1.8000000000e+000	-6.9708815328e-002
 1.6398434915e-001	 1.8176177082e+000	-1.8438795825e-001
 1.4736874966e-001	 1.8190402556e+000	-1.9070206005e-001
 1.3079653284e-001	 1.8203069156e+000	-1.9628429286e-001
 1.1426959454e-001	 1.8214190786e+000	-2.0135364931e-001
 9.7789792389e-002	 1.8223781596e+000	-2.0611601625e-001
 8.1358945565e-002	 1.8231855972e+000	-2.1076420685e-001
 6.4978834610e-002	 1.8238428526e+000	-2.1547801863e-001
 4.8651201270e-002	 1.8243514082e+000	-2.2042431655e-001
 3.2377748369e-002	 1.8247127668e+000	-2.2575713987e-001
 1.6160139709e-002	 1.8249284506e+000	-2.3161783183e-001
 0.0000000000e+000	 1.8250000000e+000	-2.3813519099e-001
 1.6623071010e-001	 1.8425165809e+000	-2.1461621704e-001
 1.4938749966e-001	 1.8439586153e+000	-2.3288200771e-001
 1.3258826617e-001	 1.8452426268e+000	-2.5085946716e-001
 1.1583493145e-001	 1.8463700248e+000	-2.6878877439e-001
 9.9129378586e-002	 1.8473422440e+000	-2.8689587943e-001
 8.2473451668e-002	 1.8481607424e+000	-3.0539253746e-001
 6.5868955631e-002	 1.8488270013e+000	-3.2447637051e-001
 4.9317656081e-002	 1.8493425234e+000	-3.4433095592e-001
 3.2821279168e-002	 1.8497088321e+000	-3.6512594024e-001
 1.6381511485e-002	 1.8499274705e+000	-3.8701717747e-001
 0.0000000000e+000	 1.8500000000e+000	-4.1014689039e-001
 1.6847707105e-001	 1.8674154536e+000	-2.4247517636e-001
 1.5140624966e-001	 1.8688769750e+000	-2.7316778716e-001
 1.3437999950e-001	 1.8701783379e+000	-3.0403491380e-001
 1.1740026836e-001	 1.8713209711e+000	-3.3533781932e-001
 1.0046896478e-001	 1.8723063283e+000	-3.6732239168e-001
 8.3587957771e-002	 1.8731358876e+000	-4.0021918027e-001
 6.6759076653e-002	 1.8738111500e+000	-4.3424346194e-001
 4.9984110893e-002	 1.8743336386e+000	-4.6959533533e-001
 3.3264809967e-002	 1.8747048974e+000	-5.0645984243e-001
 1.6602883262e-002	 1.8749264904e+000	-5.4500711588e-001
 0.0000000000e+000	 1.8750000000e+000	-5.8539255102e-001
 1.7072343199e-001	 1.8923143264e+000	-1.6708447022e-001
 1.5342499965e-001	 1.8937953346e+000	-1.8212101252e-001
 1.3617173282e-001	 1.8951140491e+000	-1.9508691910e-001
 1.1896560528e-001	 1.8962719174e+000	-2.0661756302e-001
 1.0180855098e-001	 1.8972704127e+000	-2.1736887204e-001
 8.4702463874e-002	 1.8981110327e+000	-2.2801633644e-001
 6.7649197674e-002	 1.8987952986e+000	-2.3925399017e-001
 5.0650565704e-002	 1.8993247537e+000	-2.5179336831e-001
 3.3708340767e-002	 1.8997009627e+000	-2.6636244367e-001
 1.6824255038e-002	 1.8999255102e+000	-2.8370454528e-001
 0.0000000000e+000	 1.9000000000e+000	-3.0457726159e-001
 1.7296979294e-001	 1.9172131991e+000	-6.1197257116e-002
 1.5544374965e-001	 1.9187136943e+000	-6.3909488627e-002
 1.3796346615e-001	 1.9200497603e+000	-6.3834312225e-002
 1.2053094219e-001	 1.9212228637e+000	-6.1630416480e-002
 1.0314813718e-001	 1.9222344971e+000	-5.7978180209e-002
 8.5816969978e-002	 1.9230861779e+000	-5.3578639028e-002
 6.8539318696e-002	 1.9237794473e+000	-4.9152423964e-002
 5.1317020516e-002	 1.9243158689e+000	-4.5438675078e-002
 3.4151871566e-002	 1.9246970280e+000	-4.3193933084e-002
 1.7045626815e-002	 1.9249245301e+000	-4.3191011852e-002
 0.0000000000e+000	 1.9250000000e+000	-4.6217854725e-002
 1.7521615389e-001	 1.9421120718e+000	 2.8290690872e-002
 1.5746249964e-001	 1.9436320540e+000	 3.7139844144e-002
 1.3975519948e-001	 1.9449854715e+000	 4.9533633829e-002
 1.2209627910e-001	 1.9461738100e+000	 6.4790591114e-002
 1.0448772337e-001	 1.9471985815e+000	 8.2206359887e-002
 8.6931476081e-002	 1.9480613231e+000	 1.0105477208e-001
 6.9429439717e-002	 1.9487635960e+000	 1.2058895243e-001
 5.1983475327e-002	 1.9493069841e+000	 1.4004244953e-001
 3.4595402365e-002	 1.9496930933e+000	 1.5863039014e-001
 1.7266998592e-002	 1.9499235500e+000	 1.7555065370e-001
 0.0000000000e+000	 1.9500000000e+000	 1.8998506391e-001
 1.7746251484e-001	 1.9670109445e+000	 1.0161773689e-001
 1.5948124964e-001	 1.9685504136e+000	 1.2126666852e-001
 1.4154693280e-001	 1.9699211826e+000	 1.4525864993e-001
 1.2366161601e-001	 1.9711247563e+000	 1.7288996781e-001
 1.0582730957e-001	 1.9721626658e+000	 2.0343276217e-001
 8.8045982184e-002	 1.9730364682e+000	 2.3613614425e-001
 7.0319560739e-002	 1.9737477446e+000	 2.7022734547e-001
 5.2649930139e-002	 1.9742980993e+000	 3.0491289407e-001
 3.5038933164e-002	 1.9746891586e+000	 3.3937981627e-001
 1.7488370368e-002	 1.9749225698e+000	 3.7279685877e-001
 0.0000000000e+000	 1.9750000000e+000	 4.0431572946e-001
 1.7970887579e-001	 1.9919098172e+000	 1.5902291337e-001
 1.6149999964e-001	 1.9934687733e+000	 1.8870982793e-001
 1.4333866613e-001	 1.9948568938e+000	 2.2358012217e-001
 1.2522695292e-001	 1.9960757025e+000	 2.6290837510e-001
 1.0716689577e-001	 1.9971267502e+000	 3.0594369643e-001
 8.9160488287e-002	 1.9980116134e+000	 3.5191088791e-001
 7.1209681760e-002	 1.9987318933e+000	 4.0001163718e-001
 5.3316384950e-002	 1.9992892145e+000	 4.4942574093e-001
 3.5482463963e-002	 1.9996852239e+000	 4.9931235390e-001
 1.7709742145e-002	 1.9999215897e+000	 5.4881126043e-001
 0.0000000000e+000	 2.0000000000e+000	 5.9704416531e-001
 2.0000000000e+000	 0.0000000000e+000	 2.4970699707e+000
 1.9999215897e+000	 1.7709742145e-002	 2.5322174446e+000
 1.9996852239e+000	 3.5482463963e-002	 2.5629284558e+000
 1.9992892145e+000	 5.3316384950e-002	 2.5887128949e+000
 1.9987318933e+000	 7.1209681760e-002	 2.6091002288e+000
 1.9980116134e+000	 8.9160488287e-002	 2.6236406550e+000
 1.9971267502e+000	 1.0716689577e-001	 2.6319062449e+000
 1.9960757025e+000	 1.2522695292e-001	 2.6334920742e+000
 1.9948568938e+000	 1.4333866613e-001	 2.6280173361e+000
 1.9934687733e+000	 1.6149999964e-001	 2.6151264365e+000
 1.9919098172e+000	 1.7970887579e-001	 2.5944900662e+000
 2.0250000000e+000	 0.0000000000e+000	 2.4873350497e+000
 2.0249206096e+000	 1.7931113921e-002	 2.5152386933e+000
 2.0246812892e+000	 3.5925994762e-002	 2.5391446713e+000
 2.0242803297e+000	 5.3982839761e-002	 2.5585698180e+000
 2.0237160419e+000	 7.2099802782e-002	 2.5730511357e+000
 2.0229867586e+000	 9.0274994390e-002	 2.5821469640e+000
 2.0220908346e+000	 1.0850648196e-001	 2.5854381366e+000
 2.0210266488e+000	 1.2679228983e-001	 2.5825291244e+000
 2.0197926050e+000	 1.4513039946e-001	 2.5730491611e+000
 2.0183871330e+000	 1.6351874963e-001	 2.5566533479e+000
 2.0168086899e+000	 1.8195523674e-001	 2.5330237357e+000
 2.0500000000e+000	 0.0000000000e+000	 2.4777365651e+000
 2.0499196295e+000	 1.8152485698e-002	 2.4993455362e+000
 2.0496773545e+000	 3.6369525562e-002	 2.5173441165e+000
 2.0492714448e+000	 5.4649294573e-002	 2.5312552580e+000
 2.0487001906e+000	 7.2989923804e-002	 2.5406227101e+000
 2.0479619037e+000	 9.1389500493e-002	 2.5450122047e+000
 2.0470549190e+000	 1.0984606816e-001	 2.5440126293e+000
 2.0459775951e+000	 1.2835762674e-001	 2.5372371841e+000
 2.0447283162e+000	 1.4692213278e-001	 2.5243245204e+000
 2.0433054926e+000	 1.6553749963e-001	 2.5049398582e+000
 2.0417075627e+000	 1.8420159768e-001	 2.4787760784e+000
 2.0750000000e+000	 0.0000000000e+000	 2.4683375109e+000
 2.0749186493e+000	 1.8373857475e-002	 2.4845803161e+000
 2.0746734198e+000	 3.6813056361e-002	 2.4975487256e+000
 2.0742625600e+000	 5.5315749384e-002	 2.5067709945e+000
 2.0736843393e+000	 7.3880044825e-002	 2.5117968423e+000
 2.0729370489e+000	 9.2504006597e-002	 2.5121986560e+000
 2.0720190034e+000	 1.1118565436e-001	 2.5075726805e+000
 2.0709285414e+000	 1.2992296366e-001	 2.4975401912e+000
 2.0696640273e+000	 1.4871386611e-001	 2.4817486481e+000
 2.0682238523e+000	 1.6755624962e-001	 2.4598728260e+000
 2.0666064354e+000	 1.8644795863e-001	 2.4316159200e+000
 2.1000000000e+000	 0.0000000000e+000	 2.4591978815e+000
 2.0999176692e+000	 1.8595229251e-002	 2.4709832462e+000
 2.0996694851e+000	 3.7256587160e-002	 2.4797791341e+000
 2.0992536752e+000	 5.5982204196e-002	 2.4851182994e+000
 2.0986684879e+000	 7.4770165847e-002	 2.4865556655e+000
 2.0979121941e+000	 9.3618512700e-002	 2.4836695482e+000
 2.0969830877e+000	 1.1252524055e-001	 2.4760628647e+000
 2.0958794877e+000	 1.3148830057e-001	 2.4633643242e+000
 2.0945997385e+000	 1.5050559944e-001	 2.4452295978e+000
 2.0931422120e+000	 1.6957499962e-001	 2.4213424646e+000
 2.0915053081e+000	 1.8869431958e-001	 2.3914159301e+000
 2.1250000000e+000	 0.0000000000e+000	 2.4503748480e+000
 2.1249166891e+000	 1.8816601028e-002	 2.4585925359e+000
 2.1246655504e+000	 3.7700117959e-002	 2.4640547562e+000
 2.1242447904e+000	 5.6648659007e-002	 2.4662979674e+000
 2.1236526366e+000	 7.5660286868e-002	 2.4648815410e+000
 2.1228873393e+000	 9.4733018803e-002	 2.4593890060e+000
 2.1219471721e+000	 1.1386482675e-001	 2.4494292781e+000
 2.1208304339e+000	 1.3305363748e-001	 2.4346378693e+000
 2.1195354497e+000	 1.5229733276e-001	 2.4146780765e+000
 2.1180605716e+000	 1.7159374962e-001	 2.3892421439e+000
 2.1164041808e+000	 1.9094068053e-001	 2.3580523966e+000
 2.1500000000e+000	 0.0000000000e+000	 2.4419229223e+000
 2.1499157090e+000	 1.9037972804e-002	 2.4474445070e+000
 2.1496616157e+000	 3.8143648758e-002	 2.4503938546e+000
 2.1492359056e+000	 5.7315113819e-002	 2.4503103429e+000
 2.1486367853e+000	 7.6550407890e-002	 2.4467570451e+000
 2.1478624844e+000	 9.5847524906e-002	 2.4393219976e+000
 2.1469112565e+000	 1.1520441295e-001	 2.4276194503e+000
 2.1457813802e+000	 1.3461897439e-001	 2.4112910987e+000
 2.1444711609e+000	 1.5408906609e-001	 2.3900072906e+000
 2.1429789313e+000	 1.7361249961e-001	 2.3634682074e+000
 2.1413030535e+000	 1.9318704148e-001	 2.3314050148e+000
 2.1750000000e+000	 0.0000000000e+000	 2.4338941102e+000
 2.1749147288e+000	 1.9259344581e-002	 2.4375737023e+000
 2.1746576810e+000	 3.8587179558e-002	 2.4388136076e+000
 2.1742270207e+000	 5.7981568630e-002	 2.4371553467e+000
 2.1736209339e+000	 7.7440528911e-002	 2.4321649569e+000
 2.1728376296e+000	 9.6962031009e-002	 2.4234342851e+000
 2.1718753409e+000	 1.1654399914e-001	 2.4105822620e+000
 2.1707323265e+000	 1.3618431130e-001	 2.3932561559e+000
 2.1694068720e+000	 1.5588079942e-001	 2.3711328017e+000
 2.1678972910e+000	 1.7563124961e-001	 2.3439198011e+000
 2.1662019262e+000	 1.9543340243e-001	 2.3113566922e+000
 2.2000000000e+000	 0.0000000000e+000	 2.4263380534e+000
 2.1999137487e+000	 1.9480716358e-002	 2.4290129864e+000
 2.1996537463e+000	 3.9030710357e-002	 2.4293301703e+000
 2.1992181359e+000	 5.8648023441e-002	 2.4268324995e+000
 2.1986050826e+000	 7.8330649933e-002	 2.4210882464e+000
 2.1978127748e+000	 9.8076537113e-002	 2.4116923804e+000
 2.1968394252e+000	 1.1788358534e-001	 2.3982678679e+000
 2.1956832728e+000	 1.3774964821e-001	 2.3804669498e+000
 2.1943425832e+000	 1.5767253274e-001	 2.3579723934e+000
 2.1928156506e+000	 1.7764999960e-001	 2.3304987143e+000
 2.1911007990e+000	 1.9767976337e-001	 2.2977933656e+000
 2.2250000000e+000	 0.0000000000e+000	 2.4193021627e+000
 2.2249127686e+000	 1.9702088134e-002	 2.4217936405e+000
 2.2246498116e+000	 3.9474241156e-002	 2.4219587321e+000
 2.2242092511e+000	 5.9314478253e-002	 2.4193409446e+000
 2.2235892313e+000	 7.9220770954e-002	 2.4135100639e+000
 2.2227879199e+000	 9.9191043216e-002	 2.4040635024e+000
 2.2218035096e+000	 1.1922317154e-001	 2.3906276255e+000
 2.2206342191e+000	 1.3931498512e-001	 2.3728590552e+000
 2.2192782944e+000	 1.5946426607e-001	 2.3504459462e+000
 2.2177340103e+000	 1.7966874960e-001	 2.3231092311e+000
 2.2159996717e+000	 1.9992612432e-001	 2.2906038308e+000
 2.2500000000e+000	 0.0000000000e+000	 2.4128317415e+000
 2.2499117884e+000	 1.9923459911e-002	 2.4159454497e+000
 2.2496458769e+000	 3.9917771955e-002	 2.4167135705e+000
 2.2492003663e+000	 5.9980933064e-002	 2.4146794689e+000
 2.2485733799e+000	 8.0110891976e-002	 2.4094137304e+000
 2.2477630651e+000	 1.0030554932e-001	 2.4005155381e+000
 2.2467675940e+000	 1.2056275773e-001	 2.3876140281e+000
 2.2455851654e+000	 1.4088032204e-001	 2.3703696204e+000
 2.2442140055e+000	 1.6125599940e-001	 2.3484753211e+000
 2.2426523700e+000	 1.8168749959e-001	 2.3216579920e+000
 2.2408985444e+000	 2.0217248527e-001	 2.2896795841e+000
 1.9919098172e+000	 1.7970887579e-001	 2.5944900662e+000
 1.9901785300e+000	 1.9796317532e-001	 2.5919130831e+000
 1.9882734453e+000	 2.1626073764e-001	 2.5848149812e+000
 1.9861931275e+000	 2.3459936123e-001	 2.5729859235e+000
 1.9839361725e+000	 2.5297680396e-001	 2.5562438982e+000
 1.9815012093e+000	 2.7139078356e-001	 2.5344355506e+000
 1.9788869010e+000	 2.8983897805e-001	 2.5074369762e+000
 1.9760919458e+000	 3.0831902626e-001	 2.4751544711e+000
 1.9731150785e+000	 3.2682852835e-001	 2.4375252371e+000
 1.9699550718e+000	 3.4536504635e-001	 2.3945180397e+000
 1.9666107368e+000	 3.6392610484e-001	 2.3461338147e+000
 2.0168086899e+000	 1.8195523674e-001	 2.5330237357e+000
 2.0150557616e+000	 2.0043771501e-001	 2.5279623125e+000
 2.0131268634e+000	 2.1896399687e-001	 2.5185203409e+000
 2.0110205416e+000	 2.3753185325e-001	 2.5044971674e+000
 2.0087353747e+000	 2.5613901401e-001	 2.4857208916e+000
 2.0062699745e+000	 2.7478316835e-001	 2.4620492088e+000
 2.0036229872e+000	 2.9346196528e-001	 2.4333702112e+000
 2.0007930951e+000	 3.1217301410e-001	 2.3996031455e+000
 1.9977790170e+000	 3.3091388495e-001	 2.3606991232e+000
 1.9945795102e+000	 3.4968210943e-001	 2.3166417808e+000
 1.9911933711e+000	 3.6847518115e-001	 2.2674478873e+000
 2.0417075627e+000	 1.8420159768e-001	 2.4787760784e+000
 2.0399329932e+000	 2.0291225470e-001	 2.4716035296e+000
 2.0379802815e+000	 2.2166725609e-001	 2.4601426570e+000
 2.0358479557e+000	 2.4046434526e-001	 2.4442017122e+000
 2.0335345769e+000	 2.5930122406e-001	 2.4236186769e+000
 2.0310387396e+000	 2.7817555315e-001	 2.3982621165e+000
 2.0283590735e+000	 2.9708495251e-001	 2.3680319915e+000
 2.0254942444e+000	 3.1602700193e-001	 2.3328604232e+000
 2.0224429555e+000	 3.3499924156e-001	 2.2927124092e+000
 2.0192039486e+000	 3.5399917252e-001	 2.2475864880e+000
 2.0157760053e+000	 3.7302425746e-001	 2.1975153476e+000
 2.0666064354e+000	 1.8644795863e-001	 2.4316159200e+000
 2.0648102249e+000	 2.0538679439e-001	 2.4226889053e+000
 2.0628336995e+000	 2.2437051531e-001	 2.4095174704e+000
 2.0606753698e+000	 2.4339683728e-001	 2.3919185050e+000
 2.0583337790e+000	 2.6246343411e-001	 2.3697396541e+000
 2.0558075047e+000	 2.8156793795e-001	 2.3428601858e+000
 2.0530951598e+000	 3.0070793974e-001	 2.3111918128e+000
 2.0501953937e+000	 3.1988098976e-001	 2.2746794670e+000
 2.0471068940e+000	 3.3908459817e-001	 2.2333020226e+000
 2.0438283870e+000	 3.5831623560e-001	 2.1870729642e+000
 2.0403586395e+000	 3.7757333378e-001	 2.1360409990e+000
 2.0915053081e+000	 1.8869431958e-001	 2.3914159301e+000
 2.0896874565e+000	 2.0786133409e-001	 2.3810748500e+000
 2.0876871176e+000	 2.2707377453e-001	 2.3664849276e+000
 2.0855027839e+000	 2.4632932930e-001	 2.3474714332e+000
 2.0831329812e+000	 2.6562564417e-001	 2.3238914685e+000
 2.0805762698e+000	 2.8496032274e-001	 2.2956348476e+000
 2.0778312460e+000	 3.0433092696e-001	 2.2626249310e+000
 2.0748965430e+000	 3.2373497759e-001	 2.2248194105e+000
 2.0717708325e+000	 3.4316995478e-001	 2.1822110390e+000
 2.0684528254e+000	 3.6263329868e-001	 2.1348283058e+000
 2.0649412737e+000	 3.8212241009e-001	 2.0827360501e+000
 2.1164041808e+000	 1.9094068053e-001	 2.3580523966e+000
 2.1145646881e+000	 2.1033587378e-001	 2.3466217646e+000
 2.1125405357e+000	 2.2977703375e-001	 2.3308895093e+000
 2.1103301980e+000	 2.4926182132e-001	 2.3106890348e+000
 2.1079321833e+000	 2.6878785422e-001	 2.2858867024e+000
 2.1053450349e+000	 2.8835270754e-001	 2.2563827271e+000
 2.1025673323e+000	 3.0795391419e-001	 2.2221120246e+000
 2.0995976924e+000	 3.2758896542e-001	 2.1830450068e+000
 2.0964347709e+000	 3.4725531138e-001	 2.1391883212e+000
 2.0930772638e+000	 3.6695036176e-001	 2.0905855319e+000
 2.0895239079e+000	 3.8667148640e-001	 2.0373177379e+000
 2.1413030535e+000	 1.9318704148e-001	 2.3314050148e+000
 2.1394419197e+000	 2.1281041347e-001	 2.3191938082e+000
 2.1373939537e+000	 2.3248029298e-001	 2.3025797789e+000
 2.1351576121e+000	 2.5219431333e-001	 2.2814042273e+000
 2.1327313855e+000	 2.7195006427e-001	 2.2555425879e+000
 2.1301138000e+000	 2.9174509234e-001	 2.2249053418e+000
 2.1273034185e+000	 3.1157690142e-001	 2.1894388782e+000
 2.1242988417e+000	 3.3144295325e-001	 2.1491263018e+000
 2.1210987094e+000	 3.5134066799e-001	 2.1039881819e+000
 2.1177017022e+000	 3.7126742484e-001	 2.0540832409e+000
 2.1141065421e+000	 3.9122056271e-001	 1.9995089773e+000
 2.1662019262e+000	 1.9543340243e-001	 2.3113566922e+000
 2.1643191514e+000	 2.1528495317e-001	 2.2986586826e+000
 2.1622473718e+000	 2.3518355220e-001	 2.2814081476e+000
 2.1599850262e+000	 2.5512680535e-001	 2.2594540564e+000
 2.1575305876e+000	 2.7511227432e-001	 2.2326807397e+000
 2.1548825652e+000	 2.9513747713e-001	 2.2010088203e+000
 2.1520395048e+000	 3.1519988865e-001	 2.1643960901e+000
 2.1489999910e+000	 3.3529694108e-001	 2.1228383302e+000
 2.1457626479e+000	 3.5542602459e-001	 2.0763700711e+000
 2.1423261406e+000	 3.7558448792e-001	 2.0250652889e+000
 2.1386891763e+000	 3.9576963903e-001	 1.9690380348e+000
 2.1911007990e+000	 1.9767976337e-001	 2.2977933656e+000
 2.1891963830e+000	 2.1775949286e-001	 2.2848874302e+000
 2.1871007899e+000	 2.3788681142e-001	 2.2672306560e+000
 2.1848124402e+000	 2.5805929737e-001	 2.2446794613e+000
 2.1823297898e+000	 2.7827448437e-001	 2.2171269060e+000
 2.1796513303e+000	 2.9852986193e-001	 2.1845036402e+000
 2.1767755911e+000	 3.1882287587e-001	 2.1467787981e+000
 2.1737011403e+000	 3.3915092891e-001	 2.1039608318e+000
 2.1704265864e+000	 3.5951138120e-001	 2.0560982837e+000
 2.1669505789e+000	 3.7990155100e-001	 2.0032804915e+000
 2.1632718105e+000	 4.0031871534e-001	 1.9456382245e+000
 2.2159996717e+000	 1.9992612432e-001	 2.2906038308e+000
 2.2140736146e+000	 2.2023403255e-001	 2.2777542471e+000
 2.2119542079e+000	 2.4059007064e-001	 2.2599067698e+000
 2.2096398543e+000	 2.6099178938e-001	 2.2369250560e+000
 2.2071289919e+000	 2.8143669442e-001	 2.2087107365e+000
 2.2044200954e+000	 3.0192224673e-001	 2.1752043840e+000
 2.2015116773e+000	 3.2244586310e-001	 2.1363864247e+000
 2.1984022896e+000	 3.4300491674e-001	 2.0922779873e+000
 2.1950905249e+000	 3.6359673781e-001	 2.0429416879e+000
 2.1915750173e+000	 3.8421861408e-001	 1.9884823452e+000
 2.1878544447e+000	 4.0486779165e-001	 1.9290476242e+000
 2.2408985444e+000	 2.0217248527e-001	 2.2896795841e+000
 2.2389508462e+000	 2.2270857224e-001	 2.2771363076e+000
 2.2368076260e+000	 2.4329332986e-001	 2.2592991899e+000
 2.2344672684e+000	 2.6392428140e-001	 2.2360389251e+000
 2.2319281941e+000	 2.8459890447e-001	 2.2072655654e+000
 2.2291888605e+000	 3.0531463152e-001	 2.1729295108e+000
 2.2262477636e+000	 3.2606885033e-001	 2.1330224391e+000
 2.2231034390e+000	 3.4685890457e-001	 2.0875781715e+000
 2.2197544633e+000	 3.6768209441e-001	 2.0366734705e+000
 2.2161994557e+000	 3.8853567716e-001	 1.9804287670e+000
 2.2124370789e+000	 4.0941686796e-001	 1.9190088113e+000
 1.9666107368e+000	 3.6392610484e-001	 2.3461338147e+000
 1.9630809251e+000	 3.8250919152e-001	 2.3155660857e+000
 1.9593645290e+000	 4.0111175798e-001	 2.2778198115e+000
 1.9554604835e+000	 4.1973122034e-001	 2.2329841209e+000
 1.9513677669e+000	 4.3836496008e-001	 2.1811837531e+000
 1.9470854021e+000	 4.5701032483e-001	 2.1225794102e+000
 1.9426124576e+000	 4.7566462918e-001	 2.0573680433e+000
 1.9379480490e+000	 4.9432515561e-001	 1.9857830677e+000
 1.9330913394e+000	 5.1298915537e-001	 1.9080945077e+000
 1.9280415411e+000	 5.3165384949e-001	 1.8246090670e+000
 1.9227979164e+000	 5.5031642970e-001	 1.7356701245e+000
 1.9911933711e+000	 3.6847518115e-001	 2.2674478873e+000
 1.9876194366e+000	 3.8729055642e-001	 2.2367569788e+000
 1.9838565856e+000	 4.0612565496e-001	 2.1995044521e+000
 1.9799037396e+000	 4.2497786060e-001	 2.1557989065e+000
 1.9757598640e+000	 4.4384452209e-001	 2.1057852153e+000
 1.9714239696e+000	 4.6272295389e-001	 2.0496448620e+000
 1.9668951134e+000	 4.8161043705e-001	 1.9875962064e+000
 1.9621723996e+000	 5.0050422005e-001	 1.9198946796e+000
 1.9572549812e+000	 5.1940151982e-001	 1.8468329041e+000
 1.9521420604e+000	 5.3829952261e-001	 1.7687407393e+000
 1.9468328903e+000	 5.5719538508e-001	 1.6859852479e+000
 2.0157760053e+000	 3.7302425746e-001	 2.1975153476e+000
 2.0121579482e+000	 3.9207192132e-001	 2.1664958341e+000
 2.0083486423e+000	 4.1113955194e-001	 2.1294742424e+000
 2.0043469956e+000	 4.3022450086e-001	 2.0865788636e+000
 2.0001519611e+000	 4.4932408409e-001	 2.0379749886e+000
 1.9957625371e+000	 4.6843558295e-001	 1.9838652279e+000
 1.9911777691e+000	 4.8755624491e-001	 1.9244897596e+000
 1.9863967502e+000	 5.0668328450e-001	 1.8601265027e+000
 1.9814186229e+000	 5.2581388426e-001	 1.7910912149e+000
 1.9762425797e+000	 5.4494519573e-001	 1.7177375111e+000
 1.9708678643e+000	 5.6407434045e-001	 1.6404568020e+000
 2.0403586395e+000	 3.7757333378e-001	 2.1360409990e+000
 2.0366964598e+000	 3.9685328622e-001	 2.1044748063e+000
 2.0328406989e+000	 4.1615344891e-001	 2.0674091532e+000
 2.0287902517e+000	 4.3547114111e-001	 2.0249922603e+000
 2.0245440582e+000	 4.5480364609e-001	 1.9774101364e+000
 2.0201011047e+000	 4.7414821202e-001	 1.9248868824e+000
 2.0154604248e+000	 4.9350205278e-001	 1.8676849209e+000
 2.0106211008e+000	 5.1286234895e-001	 1.8061051493e+000
 2.0055822646e+000	 5.3222624870e-001	 1.7404870142e+000
 2.0003430989e+000	 5.5159086884e-001	 1.6712085044e+000
 1.9949028382e+000	 5.7095329582e-001	 1.5986860611e+000
 2.0649412737e+000	 3.8212241009e-001	 2.0827360501e+000
 2.0612349713e+000	 4.0163465111e-001	 2.0503923809e+000
 2.0573327555e+000	 4.2116734589e-001	 2.0129953628e+000
 2.0532335077e+000	 4.4071778137e-001	 1.9707134005e+000
 2.0489361553e+000	 4.6028320810e-001	 1.9237535373e+000
 2.0444396722e+000	 4.7986084108e-001	 1.8723617443e+000
 2.0397430805e+000	 4.9944786064e-001	 1.8168231323e+000
 2.0348454514e+000	 5.1904141339e-001	 1.7574620847e+000
 2.0297459064e+000	 5.3863861314e-001	 1.6946423087e+000
 2.0244436182e+000	 5.5823654196e-001	 1.6287668029e+000
 2.0189378122e+000	 5.7783225119e-001	 1.5602777391e+000
 2.0895239079e+000	 3.8667148640e-001	 2.0373177379e+000
 2.0857734829e+000	 4.0641601601e-001	 2.0039530015e+000
 2.0818248121e+000	 4.2618124287e-001	 1.9659248923e+000
 2.0776767638e+000	 4.4596442162e-001	 1.9234222690e+000
 2.0733282524e+000	 4.6576277010e-001	 1.8766735424e+000
 2.0687782397e+000	 4.8557347014e-001	 1.8259469505e+000
 2.0640257362e+000	 5.0539366851e-001	 1.7715507525e+000
 2.0590698020e+000	 5.2522047784e-001	 1.7138333425e+000
 2.0539095481e+000	 5.4505097759e-001	 1.6531832770e+000
 2.0485441375e+000	 5.6488221508e-001	 1.5900292181e+000
 2.0429727862e+000	 5.8471120656e-001	 1.5248397865e+000
 2.1141065421e+000	 3.9122056271e-001	 1.9995089773e+000
 2.1103119945e+000	 4.1119738090e-001	 1.9648667238e+000
 2.1063168687e+000	 4.3119513984e-001	 1.9258952657e+000
 2.1021200198e+000	 4.5121106188e-001	 1.8828042011e+000
 2.0977203495e+000	 4.7124233210e-001	 1.8358436578e+000
 2.0931168073e+000	 4.9128609920e-001	 1.7853045528e+000
 2.0883083920e+000	 5.1133947637e-001	 1.7315187712e+000
 2.0832941527e+000	 5.3139954228e-001	 1.6748592585e+000
 2.0780731899e+000	 5.5146334203e-001	 1.6157400272e+000
 2.0726446567e+000	 5.7152788820e-001	 1.5546160734e+000
 2.0670077601e+000	 5.9159016193e-001	 1.4919832023e+000
 2.1386891763e+000	 3.9576963903e-001	 1.9690380348e+000
 2.1348505060e+000	 4.1597874580e-001	 1.9328488927e+000
 2.1308089253e+000	 4.3620903682e-001	 1.8926091934e+000
 2.1265632759e+000	 4.5645770213e-001	 1.8485495754e+000
 2.1221124465e+000	 4.7672189410e-001	 1.8009422477e+000
 2.1174553748e+000	 4.9699872826e-001	 1.7501012356e+000
 2.1125910477e+000	 5.1728528424e-001	 1.6963825425e+000
 2.1075185033e+000	 5.3757860672e-001	 1.6401842239e+000
 2.1022368316e+000	 5.5787570647e-001	 1.5819463709e+000
 2.0967451760e+000	 5.7817356131e-001	 1.5221510018e+000
 2.0910427341e+000	 5.9846911730e-001	 1.4613218594e+000
 2.1632718105e+000	 4.0031871534e-001	 1.9456382245e+000
 2.1593890176e+000	 4.2076011069e-001	 1.9076198422e+000
 2.1553009819e+000	 4.4122293379e-001	 1.8657742780e+000
 2.1510065319e+000	 4.6170434238e-001	 1.8203535270e+000
 2.1465045436e+000	 4.8220145610e-001	 1.7716522590e+000
 2.1417939423e+000	 5.0271135732e-001	 1.7200080520e+000
 2.1368737034e+000	 5.2323109210e-001	 1.6658015372e+000
 2.1317428539e+000	 5.4375767117e-001	 1.6094564543e+000
 2.1264004734e+000	 5.6428807091e-001	 1.5514396127e+000
 2.1208456953e+000	 5.8481923443e-001	 1.4922607579e+000
 2.1150777080e+000	 6.0534807266e-001	 1.4324723407e+000
 2.1878544447e+000	 4.0486779165e-001	 1.9290476242e+000
 2.1839275292e+000	 4.2554147558e-001	 1.8889046147e+000
 2.1797930386e+000	 4.4623683076e-001	 1.8451027392e+000
 2.1754497879e+000	 4.6695098264e-001	 1.7979156801e+000
 2.1708966407e+000	 4.8768101810e-001	 1.7476609633e+000
 2.1661325098e+000	 5.0842398637e-001	 1.6947001792e+000
 2.1611563591e+000	 5.2917689996e-001	 1.6394391118e+000
 2.1559672045e+000	 5.4993673561e-001	 1.5823277755e+000
 2.1505641151e+000	 5.7070043534e-001	 1.5238603542e+000
 2.1449462145e+000	 5.9146490754e-001	 1.4645750426e+000
 2.1391126820e+000	 6.1222702803e-001	 1.4050537869e+000
 2.2124370789e+000	 4.0941686796e-001	 1.9190088113e+000
 2.2084660407e+000	 4.3032284048e-001	 1.8764326995e+000
 2.2042850952e+000	 4.5125072774e-001	 1.8303111572e+000
 2.1998930440e+000	 4.7219762289e-001	 1.7809398991e+000
 2.1952887378e+000	 4.9316058010e-001	 1.7286597170e+000
 2.1904710774e+000	 5.1413661543e-001	 1.6738566887e+000
 2.1854390149e+000	 5.3512270782e-001	 1.6169622920e+000
 2.1801915551e+000	 5.5611580005e-001	 1.5584534223e+000
 2.1747277568e+000	 5.7711279978e-001	 1.4988523106e+000
 2.1690467338e+000	 5.9811058066e-001	 1.4387263393e+000
 2.1631476559e+000	 6.1910598340e-001	 1.3786877548e+000
 1.9227979164e+000	 5.5031642970e-001	 1.7356701245e+000
 1.9173597783e+000	 5.6897405956e-001	 1.6609546693e+000
 1.9117264922e+000	 5.8762387544e-001	 1.5888261490e+000
 1.9058974762e+000	 6.0626298769e-001	 1.5197423691e+000
 1.8998722024e+000	 6.2488848178e-001	 1.4541900858e+000
 1.8936501977e+000	 6.4349741945e-001	 1.3744441922e+000
 1.8872310448e+000	 6.6208683995e-001	 1.2893579820e+000
 1.8806143829e+000	 6.8065376130e-001	 1.1990195411e+000
 1.8737999088e+000	 6.9919518155e-001	 1.1055165634e+000
 1.8667873772e+000	 7.1770808012e-001	 1.0157559350e+000
 1.8595766021e+000	 7.3618941913e-001	 9.1932715384e-001
 1.9468328903e+000	 5.5719538508e-001	 1.6859852479e+000
 1.9413267756e+000	 5.7608623530e-001	 1.6163623185e+000
 1.9356230734e+000	 5.9496917388e-001	 1.5494871632e+000
 1.9297211947e+000	 6.1384127504e-001	 1.4858408632e+000
 1.9236206049e+000	 6.3269958780e-001	 1.4193581814e+000
 1.9173208252e+000	 6.5154113719e-001	 1.3412344429e+000
 1.9108214328e+000	 6.7036292545e-001	 1.2584197829e+000
 1.9041220627e+000	 6.8916193331e-001	 1.1709147853e+000
 1.8972224076e+000	 7.0793512132e-001	 1.0787198655e+000
 1.8901222194e+000	 7.2667943112e-001	 9.8183535591e-001
 1.8828213097e+000	 7.4539178687e-001	 8.8026159866e-001
 1.9708678643e+000	 5.6407434045e-001	 1.6404568020e+000
 1.9652937728e+000	 5.8319841105e-001	 1.5752901281e+000
 1.9595196545e+000	 6.0231447232e-001	 1.5129964866e+000
 1.9535449131e+000	 6.2141956238e-001	 1.4540811510e+000
 1.9473690074e+000	 6.4051069382e-001	 1.3842203883e+000
 1.9409914526e+000	 6.5958485493e-001	 1.3075771917e+000
 1.9344118209e+000	 6.7863901094e-001	 1.2268016248e+000
 1.9276297425e+000	 6.9767010533e-001	 1.1418881691e+000
 1.9206449065e+000	 7.1667506109e-001	 1.0528304591e+000
 1.9134570617e+000	 7.3565078212e-001	 9.5962136850e-001
 1.9060660172e+000	 7.5459415461e-001	 8.6225310383e-001
 1.9949028382e+000	 5.7095329582e-001	 1.5986860611e+000
 1.9892607700e+000	 5.9031058679e-001	 1.5373276102e+000
 1.9834162357e+000	 6.0965977076e-001	 1.4789319044e+000
 1.9773686316e+000	 6.2899784972e-001	 1.4206662746e+000
 1.9711174100e+000	 6.4832179984e-001	 1.3488651690e+000
 1.9646620801e+000	 6.6762857267e-001	 1.2734915556e+000
 1.9580022090e+000	 6.8691509644e-001	 1.1945353091e+000
 1.9511374223e+000	 7.0617827734e-001	 1.1119847020e+000
 1.9440674054e+000	 7.2541500086e-001	 1.0258264822e+000
 1.9367919039e+000	 7.4462213312e-001	 9.3604596007e-001
 1.9293107247e+000	 7.6379652235e-001	 8.4262710319e-001
 2.0189378122e+000	 5.7783225119e-001	 1.5602777391e+000
 2.0132277673e+000	 5.9742276253e-001	 1.5020673594e+000
 2.0073128168e+000	 6.1700506920e-001	 1.4468739053e+000
 2.0011923500e+000	 6.3657613707e-001	 1.3845792020e+000
 1.9948658125e+000	 6.5613290586e-001	 1.3133013610e+000
 1.9883327076e+000	 6.7567229041e-001	 1.2389980836e+000
 1.9815925970e+000	 6.9519118194e-001	 1.1616536018e+000
 1.9746451021e+000	 7.1468644936e-001	 1.0812498683e+000
 1.9674899042e+000	 7.3415494062e-001	 9.9776663501e-001
 1.9601267461e+000	 7.5359348412e-001	 9.1118153941e-001
 1.9525554322e+000	 7.7299889008e-001	 8.2147020223e-001
 2.0429727862e+000	 5.8471120656e-001	 1.5248397865e+000
 2.0371947645e+000	 6.0453493827e-001	 1.4691048710e+000
 2.0312093980e+000	 6.2435036764e-001	 1.4164055214e+000
 2.0250160685e+000	 6.4415442441e-001	 1.3484743911e+000
 2.0186142150e+000	 6.6394401188e-001	 1.2775395697e+000
 2.0120033350e+000	 6.8371600815e-001	 1.2041186732e+000
 2.0051829851e+000	 7.0346726743e-001	 1.1281901766e+000
 1.9981527819e+000	 7.2319462137e-001	 1.0497295993e+000
 1.9909124031e+000	 7.4289488039e-001	 9.6870958261e-001
 1.9834615883e+000	 7.6256483512e-001	 8.8509997801e-001
 1.9758001398e+000	 7.8220125782e-001	 7.9886794627e-001
 2.0670077601e+000	 5.9159016193e-001	 1.4919832023e+000
 2.0611617617e+000	 6.1164711402e-001	 1.4380383726e+000
 2.0551059791e+000	 6.3169566608e-001	 1.3811850462e+000
 2.0488397869e+000	 6.5173271175e-001	 1.3123536834e+000
 2.0423626176e+000	 6.7175511790e-001	 1.2415920654e+000
 2.0356739625e+000	 6.9175972589e-001	 1.1688764915e+000
 2.0287733731e+000	 7.1174335293e-001	 1.0941795626e+000
 2.0216604616e+000	 7.3170279338e-001	 1.0174702469e+000
 2.0143349019e+000	 7.5163482016e-001	 9.3871395728e-001
 2.0067964305e+000	 7.7153618612e-001	 8.5787264134e-001
 1.9990448473e+000	 7.9140362556e-001	 7.7490488214e-001
 2.0910427341e+000	 5.9846911730e-001	 1.4613218594e+000
 2.0851287589e+000	 6.1875928976e-001	 1.4084686669e+000
 2.0790025603e+000	 6.3904096452e-001	 1.3455693892e+000
 2.0726635054e+000	 6.5931099910e-001	 1.2762208436e+000
 2.0661110201e+000	 6.7956622392e-001	 1.2054726874e+000
 2.0593445900e+000	 6.9980344363e-001	 1.1332959024e+000
 2.0523637612e+000	 7.2001943843e-001	 1.0596570947e+000
 2.0451681414e+000	 7.4021096540e-001	 9.8451855961e-001
 2.0377574008e+000	 7.6037475992e-001	 9.0783836028e-001
 2.0301312727e+000	 7.8050753712e-001	 8.2957041788e-001
 2.0222895548e+000	 8.0060599330e-001	 7.4966461553e-001
 2.1150777080e+000	 6.0534807266e-001	 1.4324723407e+000
 2.1090957562e+000	 6.2587146550e-001	 1.3792545826e+000
 2.1028991414e+000	 6.4638626296e-001	 1.3100909410e+000
 2.0964872238e+000	 6.6688928644e-001	 1.2400814498e+000
 2.0898594226e+000	 6.8737732993e-001	 1.1691967552e+000
 2.0830152175e+000	 7.0784716137e-001	 1.0974023987e+000
 2.0759541493e+000	 7.2829552392e-001	 1.0246588676e+000
 2.0686758212e+000	 7.4871913741e-001	 9.5092166024e-001
 2.0611798997e+000	 7.6911469969e-001	 8.7614136359e-001
 2.0534661149e+000	 7.8947888812e-001	 8.0026374625e-001
 2.0455342623e+000	 8.0980836103e-001	 7.2322986449e-001
 2.1391126820e+000	 6.1222702803e-001	 1.4050537869e+000
 2.1330627534e+000	 6.3298364124e-001	 1.3452308023e+000
 2.1267957226e+000	 6.5373156140e-001	 1.2747479843e+000
 2.1203109423e+000	 6.7446757378e-001	 1.2039427923e+000
 2.1136078252e+000	 6.9518843595e-001	 1.1327809850e+000
 2.1066858449e+000	 7.1589087911e-001	 1.0612225383e+000
 2.0995445373e+000	 7.3657160942e-001	 9.8922169405e-001
 2.0921835010e+000	 7.5722730942e-001	 9.1672702457e-001
 2.0846023985e+000	 7.7785463946e-001	 8.4368151161e-001
 2.0768009572e+000	 7.9845023912e-001	 7.7002264049e-001
 2.0687789699e+000	 8.1901072877e-001	 6.9568250926e-001
 2.1631476559e+000	 6.1910598340e-001	 1.3786877548e+000
 2.1570297506e+000	 6.4009581698e-001	 1.3114634347e+000
 2.1506923038e+000	 6.6107685984e-001	 1.2395407008e+000
 2.1441346607e+000	 6.8204586113e-001	 1.1678137782e+000
 2.1373562277e+000	 7.0299954197e-001	 1.0962434125e+000
 2.1303564724e+000	 7.2393459685e-001	 1.0247838856e+000
 2.1231349254e+000	 7.4484769492e-001	 9.5338306387e-001
 2.1156911808e+000	 7.6573548144e-001	 8.8198246187e-001
 2.1080248974e+000	 7.8659457923e-001	 8.1051732266e-001
 2.1001357994e+000	 8.0742159012e-001	 7.3891671363e-001
 2.0920236774e+000	 8.2821309651e-001	 6.6710363885e-001
 1.8595766021e+000	 7.3618941913e-001	 9.1932715384e-001
 1.8521674571e+000	 7.5463614479e-001	 8.5006463935e-001
 1.8445598760e+000	 7.7304518882e-001	 7.7671806220e-001
 1.8367538539e+000	 7.9141346985e-001	 6.9938467427e-001
 1.8287494474e+000	 8.0973789495e-001	 6.1817036371e-001
 1.8205467755e+000	 8.2801536107e-001	 5.3318955523e-001
 1.8121460198e+000	 8.4624275656e-001	 4.4456509208e-001
 1.8035474251e+000	 8.6441696276e-001	 3.5242809976e-001
 1.7947513000e+000	 8.8253485550e-001	 2.5691783141e-001
 1.7857580172e+000	 9.0059330673e-001	 1.5818149511e-001
 1.7765680137e+000	 9.1858918611e-001	 5.6374063052e-002
 1.8828213097e+000	 7.4539178687e-001	 8.8026159866e-001
 1.8753195503e+000	 7.6406909660e-001	 8.0468723382e-001
 1.8676168744e+000	 7.8270825368e-001	 7.3495011751e-001
 1.8597132771e+000	 8.0130613823e-001	 6.6122248578e-001
 1.8516088155e+000	 8.1985961864e-001	 5.8319689161e-001
 1.8433036102e+000	 8.3836555308e-001	 5.0099643588e-001
 1.8347978450e+000	 8.5682079102e-001	 4.1475324409e-001
 1.8260917679e+000	 8.7522217479e-001	 3.2460832303e-001
 1.8171856912e+000	 8.9356654119e-001	 2.3071139811e-001
 1.8080799924e+000	 9.1185072306e-001	 1.3322073137e-001
 1.7987751138e+000	 9.3007155093e-001	 3.2302920502e-002
 1.9060660172e+000	 7.5459415461e-001	 8.6225310383e-001
 1.8984716435e+000	 7.7350204841e-001	 7.8891980315e-001
 1.8906738729e+000	 7.9237131854e-001	 7.1223466179e-001
 1.8826727002e+000	 8.1119880660e-001	 6.3214235011e-001
 1.8744681836e+000	 8.2998134233e-001	 5.4912029170e-001
 1.8660604449e+000	 8.4871574509e-001	 4.6984752084e-001
 1.8574496703e+000	 8.6739882548e-001	 3.8613419402e-001
 1.8486361107e+000	 8.8602738683e-001	 2.9813133594e-001
 1.8396200825e+000	 9.0459822689e-001	 2.0599928518e-001
 1.8304019676e+000	 9.2310813940e-001	 1.0990750292e-001
 1.8209822140e+000	 9.4155391576e-001	 1.0034361320e-002
 1.9293107247e+000	 7.6379652235e-001	 8.4262710319e-001
 1.9216237367e+000	 7.8293500022e-001	 7.7177373852e-001
 1.9137308713e+000	 8.0203438340e-001	 6.9736233306e-001
 1.9056321234e+000	 8.2109147497e-001	 6.1933564458e-001
 1.8973275517e+000	 8.4010306601e-001	 5.3763505619e-001
 1.8888172796e+000	 8.5906593711e-001	 4.5220074407e-001
 1.8801014955e+000	 8.7797685993e-001	 3.6297185394e-001
 1.8711804535e+000	 8.9683259886e-001	 2.7293301441e-001
 1.8620544737e+000	 9.1562991258e-001	 1.8270574718e-001
 1.8527239428e+000	 9.3436555573e-001	 8.8154149970e-002
 1.8431893142e+000	 9.5303628058e-001	-1.0531474858e-002
 1.9525554322e+000	 7.7299889008e-001	 8.2147020223e-001
 1.9447758299e+000	 7.9236795203e-001	 7.5333231440e-001
 1.9367878698e+000	 8.1169744825e-001	 6.8143907010e-001
 1.9285915466e+000	 8.3098414334e-001	 6.0573108847e-001
 1.9201869198e+000	 8.5022478970e-001	 5.2614769472e-001
 1.9115741143e+000	 8.6941612912e-001	 4.4262709566e-001
 1.9027533208e+000	 8.8855489439e-001	 3.5510656413e-001
 1.8937247963e+000	 9.0763781090e-001	 2.6352263190e-001
 1.8844888650e+000	 9.2666159827e-001	 1.6781129077e-001
 1.8750459180e+000	 9.4562297206e-001	 6.7908201550e-002
 1.8653964143e+000	 9.6451864541e-001	-2.9491836504e-002
 1.9758001398e+000	 7.8220125782e-001	 7.9886794627e-001
 1.9679279231e+000	 8.0180090384e-001	 7.3367804938e-001
 1.9598448682e+000	 8.2136051311e-001	 6.6454419178e-001
 1.9515509698e+000	 8.4087681172e-001	 5.9140462630e-001
 1.9430462879e+000	 8.6034651339e-001	 5.1419638244e-001
 1.9343309490e+000	 8.7976632113e-001	 4.3285544992e-001
 1.9254051460e+000	 8.9913292885e-001	 3.4731697126e-001
 1.9162691391e+000	 9.1844302293e-001	 2.5751544300e-001
 1.9069232562e+000	 9.3769328397e-001	 1.6338492533e-001
 1.8973678932e+000	 9.5688038840e-001	 6.4859259550e-002
 1.8876035145e+000	 9.7600101023e-001	-3.8127706891e-002
 1.9990448473e+000	 7.9140362556e-001	 7.7490488214e-001
 1.9910800163e+000	 8.1123385565e-001	 7.1289275011e-001
 1.9829018667e+000	 8.3102357797e-001	 6.4675660177e-001
 1.9745103929e+000	 8.5076948009e-001	 5.7643209430e-001
 1.9659056560e+000	 8.7046823707e-001	 5.0185372202e-001
 1.9570877837e+000	 8.9011651315e-001	 4.2295500826e-001
 1.9480569713e+000	 9.0971096330e-001	 3.3966870625e-001
 1.9388134820e+000	 9.2924823496e-001	 2.5192700904e-001
 1.9293576475e+000	 9.4872496966e-001	 1.5966176784e-001
 1.9196898685e+000	 9.6813780473e-001	 6.2804718354e-002
 1.9098106147e+000	 9.8748337506e-001	-3.8712285164e-002
 2.0222895548e+000	 8.0060599330e-001	 7.4966461553e-001
 2.0142321096e+000	 8.2066680746e-001	 6.9105755226e-001
 2.0059588651e+000	 8.4068664283e-001	 6.2815481250e-001
 1.9974698161e+000	 8.6066214846e-001	 5.6088922666e-001
 1.9887650241e+000	 8.8058996076e-001	 4.8919251278e-001
 1.9798446184e+000	 9.0046670516e-001	 4.1299547677e-001
 1.9707087965e+000	 9.2028899776e-001	 3.3222822208e-001
 1.9613578248e+000	 9.4005344700e-001	 2.4682036842e-001
 1.9517920388e+000	 9.5975665535e-001	 1.5670127914e-001
 1.9420118437e+000	 9.7939522106e-001	 6.1800296858e-002
 1.9320177149e+000	 9.9896573988e-001	-3.7953013288e-002
 2.0455342623e+000	 8.0980836103e-001	 7.2322986449e-001
 2.0373842028e+000	 8.3009975926e-001	 6.6825295859e-001
 2.0290158636e+000	 8.5034970769e-001	 6.0881696729e-001
 2.0204292393e+000	 8.7055481683e-001	 5.4485166134e-001
 2.0116243922e+000	 8.9071168444e-001	 4.7628573951e-001
 2.0026014531e+000	 9.1081689717e-001	 4.0304703762e-001
 1.9933606218e+000	 9.3086703222e-001	 3.2506274710e-001
 1.9839021676e+000	 9.5085865903e-001	 2.4225964284e-001
 1.9742264300e+000	 9.7078834105e-001	 1.5456431996e-001
 1.9643338189e+000	 9.9065263740e-001	 6.1903438861e-002
 1.9542248150e+000	 1.0104481047e+000	-3.5796021758e-002
 2.0687789699e+000	 8.1901072877e-001	 6.9568250926e-001
 2.0605362960e+000	 8.3953271107e-001	 6.4455887454e-001
 2.0520728620e+000	 8.6001277255e-001	 5.8882086117e-001
 2.0433886625e+000	 8.8044748521e-001	 5.2839494542e-001
 2.0344837603e+000	 9.0083340813e-001	 4.6320656205e-001
 2.0253582878e+000	 9.2116708919e-001	 3.9318032226e-001
 2.0160124470e+000	 9.4144506667e-001	 3.1824024145e-001
 2.0064465104e+000	 9.6166387107e-001	 2.3830997653e-001
 1.9966608213e+000	 9.8182002674e-001	 1.5331307225e-001
 1.9866557941e+000	 1.0019100537e+000	 6.3173216162e-002
 1.9764319152e+000	 1.0219304695e+000	-3.2185498431e-002
 2.0920236774e+000	 8.2821309651e-001	 6.6710363885e-001
 2.0836883892e+000	 8.4896566288e-001	 6.2005464139e-001
 2.0751298605e+000	 8.6967583741e-001	 5.6824396017e-001
 2.0663480856e+000	 8.9034015358e-001	 5.1159454021e-001
 2.0573431284e+000	 9.1095513182e-001	 4.5002830558e-001
 2.0481151225e+000	 9.3151728120e-001	 3.8346638647e-001
 2.0386642723e+000	 9.5202310113e-001	 3.1182935643e-001
 2.0289908532e+000	 9.7246908310e-001	 2.3503747936e-001
 2.0190952125e+000	 9.9285171243e-001	 1.5301096583e-001
 2.0089777693e+000	 1.0131674701e+000	 6.5670238112e-002
 1.9986390154e+000	 1.0334128344e+000	-2.7063796446e-002
 1.7765680137e+000	 9.1858918611e-001	 5.6374063052e-002
 1.7671817913e+000	 9.3651936262e-001	-9.1276527597e-003
 1.7575999168e+000	 9.5438070623e-001	-7.8231410694e-002
 1.7478230222e+000	 9.7217008953e-001	-1.5069597018e-001
 1.7378518049e+000	 9.8988438938e-001	-2.2627160443e-001
 1.7276870275e+000	 1.0075204886e+000	-3.0470043227e-001
 1.7173295184e+000	 1.0250752778e+000	-3.8571676870e-001
 1.7067801714e+000	 1.0425456567e+000	-4.6904749378e-001
 1.6960399458e+000	 1.0599285364e+000	-5.5441243906e-001
 1.6851098662e+000	 1.0772208403e+000	-6.4152479091e-001
 1.6739910224e+000	 1.0944195068e+000	-7.3009151002e-001
 1.7987751138e+000	 9.3007155093e-001	 3.2302920502e-002
 1.7892715637e+000	 9.4822585465e-001	-2.9775438033e-002
 1.7795699158e+000	 9.6631046506e-001	-9.5233089368e-002
 1.7696708100e+000	 9.8432221564e-001	-1.6383066374e-001
 1.7595749524e+000	 1.0022579442e+000	-2.3532042466e-001
 1.7492831153e+000	 1.0201144947e+000	-3.0944660608e-001
 1.7387961374e+000	 1.0378887188e+000	-3.8594576847e-001
 1.7281149236e+000	 1.0555774775e+000	-4.6454717312e-001
 1.7172404451e+000	 1.0731776431e+000	-5.4497317414e-001
 1.7061737395e+000	 1.0906861008e+000	-6.2693962728e-001
 1.6949159102e+000	 1.1080997506e+000	-7.1015631498e-001
 1.8209822140e+000	 9.4155391576e-001	 1.0034361320e-002
 1.8113613361e+000	 9.5993234668e-001	-4.9156058111e-002
 1.8015399147e+000	 9.7824022389e-001	-1.1151546539e-001
 1.7915185978e+000	 9.9647434176e-001	-1.7680593808e-001
 1.7812981000e+000	 1.0146314991e+000	-2.4478129287e-001
 1.7708792032e+000	 1.0327085009e+000	-3.1518742849e-001
 1.7602627564e+000	 1.0507021598e+000	-3.8776268780e-001
 1.7494496757e+000	 1.0686092982e+000	-4.6223823803e-001
 1.7384409444e+000	 1.0864267498e+000	-5.3833846882e-001
 1.7272376128e+000	 1.1041513613e+000	-6.1578140717e-001
 1.7158407980e+000	 1.1217799944e+000	-6.9427914853e-001
 1.8431893142e+000	 9.5303628058e-001	-1.0531474858e-002
 1.8334511084e+000	 9.7163883872e-001	-6.7356824846e-002
 1.8235099137e+000	 9.9016998271e-001	-1.2715304695e-001
 1.8133663856e+000	 1.0086264679e+000	-1.8968324467e-001
 1.8030212475e+000	 1.0270050540e+000	-2.5470235290e-001
 1.7924752910e+000	 1.0453025070e+000	-3.2195748718e-001
 1.7817293753e+000	 1.0635156007e+000	-3.9118831212e-001
 1.7707844278e+000	 1.0816411189e+000	-4.6212742822e-001
 1.7596414438e+000	 1.0996758565e+000	-5.3450077639e-001
 1.7483014862e+000	 1.1176166218e+000	-6.0802805961e-001
 1.7367656858e+000	 1.1354602383e+000	-6.8242318061e-001
 1.8653964143e+000	 9.6451864541e-001	-2.9491836504e-002
 1.8555408808e+000	 9.8334533075e-001	-8.4463196529e-002
 1.8454799126e+000	 1.0020997415e+000	-1.4221926182e-001
 1.8352141733e+000	 1.0207785940e+000	-2.0252374218e-001
 1.8247443951e+000	 1.0393786088e+000	-2.6513225765e-001
 1.8140713789e+000	 1.0578965131e+000	-3.2979269459e-001
 1.8031959943e+000	 1.0763290417e+000	-3.9624558092e-001
 1.7921191800e+000	 1.0946729396e+000	-4.6422447996e-001
 1.7808419431e+000	 1.1129249632e+000	-5.3345640206e-001
 1.7693653595e+000	 1.1310818823e+000	-6.0366223342e-001
 1.7576905735e+000	 1.1491404821e+000	-6.7455718104e-001
 1.8876035145e+000	 9.7600101023e-001	-3.8127706891e-002
 1.8776306532e+000	 9.9505182278e-001	-9.8719735957e-002
 1.8674499116e+000	 1.0140295004e+000	-1.5678652090e-001
 1.8570619611e+000	 1.0329307201e+000	-2.1538831370e-001
 1.8464675427e+000	 1.0517521637e+000	-2.7612013911e-001
 1.8356674667e+000	 1.0704905192e+000	-3.3873021002e-001
 1.8246626133e+000	 1.0891424827e+000	-4.0295946104e-001
 1.8134539321e+000	 1.1077047603e+000	-4.6854194982e-001
 1.8020424424e+000	 1.1261740699e+000	-5.3520527640e-001
 1.7904292328e+000	 1.1445471428e+000	-6.0267101965e-001
 1.7786154613e+000	 1.1628207260e+000	-6.7065519009e-001
 1.9098106147e+000	 9.8748337506e-001	-3.8712285164e-002
 1.8997204256e+000	 1.0067583148e+000	-9.8380826717e-002
 1.8894199106e+000	 1.0259592592e+000	-1.6059296321e-001
 1.8789097489e+000	 1.0450828462e+000	-2.2543776474e-001
 1.8681906902e+000	 1.0641257186e+000	-2.8771558055e-001
 1.8572635545e+000	 1.0830845253e+000	-3.4880836713e-001
 1.8461292323e+000	 1.1019559236e+000	-4.1135682878e-001
 1.8347886843e+000	 1.1207365810e+000	-4.7509505069e-001
 1.8232429417e+000	 1.1394231766e+000	-5.3975074454e-001
 1.8114931061e+000	 1.1580124033e+000	-6.0504569322e-001
 1.7995403491e+000	 1.1765009698e+000	-6.7069621205e-001
 1.9320177149e+000	 9.9896573988e-001	-3.7953013288e-002
 1.9218101980e+000	 1.0184648068e+000	-9.6976912697e-002
 1.9113899095e+000	 1.0378890180e+000	-1.5826722025e-001
 1.9007575367e+000	 1.0572349723e+000	-2.2192861305e-001
 1.8899138378e+000	 1.0764992734e+000	-2.8806710486e-001
 1.8788596424e+000	 1.0956785314e+000	-3.5678975931e-001
 1.8675958513e+000	 1.1147693646e+000	-4.2146636021e-001
 1.8561234364e+000	 1.1337684017e+000	-4.8390149913e-001
 1.8444434411e+000	 1.1526722833e+000	-5.4709936997e-001
 1.8325569795e+000	 1.1714776638e+000	-6.1078147257e-001
 1.8204652369e+000	 1.1901812136e+000	-6.7466392998e-001
 1.9542248150e+000	 1.0104481047e+000	-3.5796021758e-002
 1.9438999704e+000	 1.0301712989e+000	-9.4438134111e-002
 1.9333599085e+000	 1.0498187768e+000	-1.5507573541e-001
 1.9226053244e+000	 1.0693870985e+000	-2.1782921664e-001
 1.9116369853e+000	 1.0888728283e+000	-2.8282074082e-001
 1.9004557302e+000	 1.1082725375e+000	-3.5017393695e-001
 1.8890624702e+000	 1.1275828056e+000	-4.2001358550e-001
 1.8774581886e+000	 1.1468002224e+000	-4.9246529617e-001
 1.8656439404e+000	 1.1659213900e+000	-5.5726075163e-001
 1.8536208528e+000	 1.1849429244e+000	-6.1987729550e-001
 1.8413901247e+000	 1.2038614575e+000	-6.8254643982e-001
 1.9764319152e+000	 1.0219304695e+000	-3.2185498431e-002
 1.9659897428e+000	 1.0418777909e+000	-9.0693252556e-002
 1.9553299075e+000	 1.0617485357e+000	-1.5093159969e-001
 1.9444531122e+000	 1.0815392246e+000	-2.1303676007e-001
 1.9333601329e+000	 1.1012463832e+000	-2.7714715967e-001
 1.9220518181e+000	 1.1208665436e+000	-3.4340310453e-001
 1.9105290892e+000	 1.1403962465e+000	-4.1194644577e-001
 1.8987929407e+000	 1.1598320431e+000	-4.8292023606e-001
 1.8868444397e+000	 1.1791704967e+000	-5.5646837824e-001
 1.8746847261e+000	 1.1984081849e+000	-6.3233561028e-001
 1.8623150124e+000	 1.2175417013e+000	-6.9433600251e-001
 1.9986390154e+000	 1.0334128344e+000	-2.7063796446e-002
 1.9880795152e+000	 1.0535842829e+000	-8.5669727601e-002
 1.9772999064e+000	 1.0736782945e+000	-1.4574714510e-001
 1.9663009000e+000	 1.0936913507e+000	-2.0744822220e-001
 1.9550832805e+000	 1.1136199380e+000	-2.7092777007e-001
 1.9436479059e+000	 1.1334605497e+000	-3.3634289224e-001
 1.9319957082e+000	 1.1532096875e+000	-4.0385262882e-001
 1.9201276929e+000	 1.1728638638e+000	-4.7361759135e-001
 1.9080449390e+000	 1.1924196034e+000	-5.4579958904e-001
 1.8957485995e+000	 1.2118734454e+000	-6.2056124733e-001
 1.8832399002e+000	 1.2312219451e+000	-6.9806561961e-001
 1.6739910224e+000	 1.0944195068e+000	-7.3009151002e-001
 1.6626845693e+000	 1.1115214900e+000	-8.1022128167e-001
 1.6511917266e+000	 1.1285237623e+000	-8.8773229387e-001
 1.6395137781e+000	 1.1454233153e+000	-9.6245064151e-001
 1.6276520721e+000	 1.1622171622e+000	-1.0342020236e+000
 1.6156080202e+000	 1.1789023391e+000	-1.1028121084e+000
 1.6033830974e+000	 1.1954759065e+000	-1.1681069038e+000
 1.5909788412e+000	 1.2119349516e+000	-1.2299131305e+000
 1.5783968513e+000	 1.2282765894e+000	-1.2880585990e+000
 1.5656387886e+000	 1.2444979645e+000	-1.3423725876e+000
 1.5527063751e+000	 1.2605962528e+000	-1.3701262276e+000
 1.6949159102e+000	 1.1080997506e+000	-7.1015631498e-001
 1.6834681265e+000	 1.1254155087e+000	-7.9027115836e-001
 1.6718316232e+000	 1.1426303093e+000	-8.6828365798e-001
 1.6600077003e+000	 1.1597411068e+000	-9.4400761433e-001
 1.6479977230e+000	 1.1767448768e+000	-1.0172558694e+000
 1.6358031204e+000	 1.1936386183e+000	-1.0878406894e+000
 1.6234253861e+000	 1.2104193553e+000	-1.1555741534e+000
 1.6108660767e+000	 1.2270841385e+000	-1.2202685458e+000
 1.5981268119e+000	 1.2436300467e+000	-1.2817367535e+000
 1.5852092735e+000	 1.2600541890e+000	-1.3189055958e+000
 1.5721152048e+000	 1.2763537060e+000	-1.3387200424e+000
 1.7158407980e+000	 1.1217799944e+000	-6.9427914853e-001
 1.7042516836e+000	 1.1393095273e+000	-7.7432726765e-001
 1.6924715197e+000	 1.1567368563e+000	-8.5277900675e-001
 1.6805016226e+000	 1.1740588982e+000	-9.2943561914e-001
 1.6683433739e+000	 1.1912725913e+000	-1.0040968415e+000
 1.6559982207e+000	 1.2083748975e+000	-1.0765612948e+000
 1.6434676748e+000	 1.2253628042e+000	-1.1466268913e+000
 1.6307533122e+000	 1.2422333254e+000	-1.2140912476e+000
 1.6178567725e+000	 1.2589835041e+000	-1.2606014470e+000
 1.6047797583e+000	 1.2756104136e+000	-1.2877084701e+000
 1.5915240345e+000	 1.2921111591e+000	-1.3108443191e+000
 1.7367656858e+000	 1.1354602383e+000	-6.8242318061e-001
 1.7250352407e+000	 1.1532035459e+000	-7.6236276701e-001
 1.7131114163e+000	 1.1708434034e+000	-8.4120191133e-001
 1.7009955448e+000	 1.1883766897e+000	-9.1872906005e-001
 1.6886890248e+000	 1.2058003058e+000	-9.9473058924e-001
 1.6761933210e+000	 1.2231111768e+000	-1.0689912238e+000
 1.6635099635e+000	 1.2403062530e+000	-1.1412944641e+000
 1.6506405477e+000	 1.2573825123e+000	-1.1969720815e+000
 1.6375867332e+000	 1.2743369615e+000	-1.2304215836e+000
 1.6243502432e+000	 1.2911666381e+000	-1.2601944828e+000
 1.6109328642e+000	 1.3078686123e+000	-1.2863559666e+000
 1.7576905735e+000	 1.1491404821e+000	-6.7455718104e-001
 1.7458187978e+000	 1.1670975645e+000	-7.5435611614e-001
 1.7337513129e+000	 1.1849499504e+000	-8.3354092765e-001
 1.7214894670e+000	 1.2026944811e+000	-9.1188698889e-001
 1.7090346757e+000	 1.2203280204e+000	-9.8916705293e-001
 1.6963884212e+000	 1.2378474560e+000	-1.0651516907e+000
 1.6835522522e+000	 1.2552497018e+000	-1.1296987885e+000
 1.6705277832e+000	 1.2725316992e+000	-1.1685690548e+000
 1.6573166938e+000	 1.2896904188e+000	-1.2040540379e+000
 1.6439207281e+000	 1.3067228627e+000	-1.2362145904e+000
 1.6303416939e+000	 1.3236260655e+000	-1.2651136406e+000
 1.7786154613e+000	 1.1628207260e+000	-6.7065519009e-001
 1.7666023549e+000	 1.1809915832e+000	-7.5029076506e-001
 1.7543912095e+000	 1.1990564974e+000	-8.2978930320e-001
 1.7419833892e+000	 1.2170122725e+000	-9.0891283177e-001
 1.7293803266e+000	 1.2348557349e+000	-9.8742021150e-001
 1.7165835215e+000	 1.2525837353e+000	-1.0603878892e+000
 1.7035945410e+000	 1.2701931507e+000	-1.1037863095e+000
 1.6904150188e+000	 1.2876808861e+000	-1.1440862254e+000
 1.6770466545e+000	 1.3050438762e+000	-1.1813449974e+000
 1.6634912129e+000	 1.3222790873e+000	-1.2156218375e+000
 1.6497505236e+000	 1.3393835186e+000	-1.2469776415e+000
 1.7995403491e+000	 1.1765009698e+000	-6.7069621205e-001
 1.7873859120e+000	 1.1948856018e+000	-7.5015486397e-001
 1.7750311061e+000	 1.2131630445e+000	-8.2994470432e-001
 1.7624773115e+000	 1.2313300640e+000	-9.0981413478e-001
 1.7497259775e+000	 1.2493834494e+000	-9.8950784764e-001
 1.7367786217e+000	 1.2673200145e+000	-1.0376363241e+000
 1.7236368297e+000	 1.2851365995e+000	-1.0818826189e+000
 1.7103022543e+000	 1.3028300730e+000	-1.1233660759e+000
 1.6967766151e+000	 1.3203973336e+000	-1.1621430173e+000
 1.6830616978e+000	 1.3378353118e+000	-1.1982712349e+000
 1.6691593533e+000	 1.3551409718e+000	-1.2318098181e+000
 1.8204652369e+000	 1.1901812136e+000	-6.7466392998e-001
 1.8081694692e+000	 1.2087796204e+000	-7.5394099316e-001
 1.7956710026e+000	 1.2272695915e+000	-8.3400896218e-001
 1.7829712337e+000	 1.2456478554e+000	-9.1460232719e-001
 1.7700716284e+000	 1.2639111639e+000	-9.7161117208e-001
 1.7569737220e+000	 1.2820562937e+000	-1.0189646913e+000
 1.7436791184e+000	 1.3000800483e+000	-1.0638274517e+000
 1.7301894898e+000	 1.3179792599e+000	-1.1062536833e+000
 1.7165065757e+000	 1.3357507909e+000	-1.1462988844e+000
 1.7026321826e+000	 1.3533915364e+000	-1.1840196469e+000
 1.6885681830e+000	 1.3708984249e+000	-1.2194734790e+000
 1.8413901247e+000	 1.2038614575e+000	-6.8254643982e-001
 1.8289530263e+000	 1.2226736390e+000	-7.6164591125e-001
 1.8163108992e+000	 1.2413761385e+000	-8.4198783616e-001
 1.8034651559e+000	 1.2599656469e+000	-9.0713334345e-001
 1.7904172793e+000	 1.2784388785e+000	-9.5678514785e-001
 1.7771688222e+000	 1.2967925730e+000	-1.0042108375e+000
 1.7637214071e+000	 1.3150234972e+000	-1.0494633162e+000
 1.7500767253e+000	 1.3331284468e+000	-1.0925965707e+000
 1.7362365364e+000	 1.3511042483e+000	-1.1336654902e+000
 1.7222026675e+000	 1.3689477609e+000	-1.1727256860e+000
 1.7079770127e+000	 1.3866558781e+000	-1.2098333095e+000
 1.8623150124e+000	 1.2175417013e+000	-6.9433600251e-001
 1.8497365834e+000	 1.2365676577e+000	-7.7327032048e-001
 1.8369507958e+000	 1.2554826855e+000	-8.4555686157e-001
 1.8239590782e+000	 1.2742834383e+000	-8.9672905067e-001
 1.8107629302e+000	 1.2929665930e+000	-9.4593116671e-001
 1.7973639225e+000	 1.3115288522e+000	-9.9321552109e-001
 1.7837636958e+000	 1.3299669460e+000	-1.0386353383e+000
 1.7699639608e+000	 1.3482776336e+000	-1.0822445707e+000
 1.7559664970e+000	 1.3664577057e+000	-1.1240977129e+000
 1.7417731524e+000	 1.3845039855e+000	-1.1642496146e+000
 1.7273858424e+000	 1.4024133313e+000	-1.2027552943e+000
 1.8832399002e+000	 1.2312219451e+000	-6.9806561961e-001
 1.8705201405e+000	 1.2504616763e+000	-7.8816821950e-001
 1.8575906924e+000	 1.2695892326e+000	-8.4011475529e-001
 1.8444530004e+000	 1.2886012298e+000	-8.9033753399e-001
 1.8311085811e+000	 1.3074943075e+000	-9.3888897285e-001
 1.8175590227e+000	 1.3262651314e+000	-9.8582225043e-001
 1.8038059846e+000	 1.3449103948e+000	-1.0311911158e+000
 1.7898511964e+000	 1.3634268205e+000	-1.0750496966e+000
 1.7756964577e+000	 1.3818111630e+000	-1.1174523067e+000
 1.7613436372e+000	 1.4000602100e+000	-1.1584532533e+000
 1.7467946721e+000	 1.4181707844e+000	-1.1981066454e+000
 1.5527063751e+000	 1.2605962528e+000	-1.3701262276e+000
 1.5396013926e+000	 1.2765686632e+000	-1.4212831253e+000
 1.5263256822e+000	 1.2924124388e+000	-1.4700085437e+000
 1.5128811432e+000	 1.3081248589e+000	-1.5163461964e+000
 1.4992697328e+000	 1.3237032403e+000	-1.5603407349e+000
 1.4854934645e+000	 1.3391449388e+000	-1.6020376149e+000
 1.4715544074e+000	 1.3544473509e+000	-1.6414829631e+000
 1.4574546853e+000	 1.3696079148e+000	-1.6787234447e+000
 1.4431964755e+000	 1.3846241126e+000	-1.7138061325e+000
 1.4287820076e+000	 1.3994934709e+000	-1.7467783773e+000
 1.4142135624e+000	 1.4142135624e+000	-1.7776876805e+000
 1.5721152048e+000	 1.2763537060e+000	-1.3387200424e+000
 1.5588464100e+000	 1.2925257715e+000	-1.3922191985e+000
 1.5454047532e+000	 1.3085675943e+000	-1.4429670137e+000
 1.5317921575e+000	 1.3244764197e+000	-1.4910030797e+000
 1.5180106045e+000	 1.3402495308e+000	-1.5363681591e+000
 1.5040621328e+000	 1.3558842505e+000	-1.5791040529e+000
 1.4899488375e+000	 1.3713779427e+000	-1.6192534688e+000
 1.4756728689e+000	 1.3867280138e+000	-1.6568598895e+000
 1.4612364314e+000	 1.4019319140e+000	-1.6919674425e+000
 1.4466417827e+000	 1.4169871393e+000	-1.7246207714e+000
 1.4318912319e+000	 1.4318912319e+000	-1.7548649082e+000
 1.5915240345e+000	 1.2921111591e+000	-1.3108443191e+000
 1.5780914275e+000	 1.3084828798e+000	-1.3663961106e+000
 1.5644838242e+000	 1.3247227498e+000	-1.4188833879e+000
 1.5507031718e+000	 1.3408279804e+000	-1.4683418726e+000
 1.5367514761e+000	 1.3567958213e+000	-1.5148086844e+000
 1.5226308011e+000	 1.3726235623e+000	-1.5583222103e+000
 1.5083432676e+000	 1.3883085346e+000	-1.5989219726e+000
 1.4938910524e+000	 1.4038481127e+000	-1.6366484993e+000
 1.4792763874e+000	 1.4192397154e+000	-1.6715431934e+000
 1.4645015578e+000	 1.4344808076e+000	-1.7036482043e+000
 1.4495689015e+000	 1.4495689015e+000	-1.7330063008e+000
 1.6109328642e+000	 1.3078686123e+000	-1.2863559666e+000
 1.5973364449e+000	 1.3244399881e+000	-1.3436784788e+000
 1.5835628953e+000	 1.3408779053e+000	-1.3976298119e+000
 1.5696141861e+000	 1.3571795411e+000	-1.4482420666e+000
 1.5554923478e+000	 1.3733421118e+000	-1.4955489636e+000
 1.5411994694e+000	 1.3893628740e+000	-1.5395857134e+000
 1.5267376977e+000	 1.4052391265e+000	-1.5803888853e+000
 1.5121092360e+000	 1.4209682117e+000	-1.6179962774e+000
 1.4973163433e+000	 1.4365475169e+000	-1.6524467868e+000
 1.4823613329e+000	 1.4519744760e+000	-1.6837802805e+000
 1.4672465710e+000	 1.4672465710e+000	-1.7120374681e+000
 1.6303416939e+000	 1.3236260655e+000	-1.2651136406e+000
 1.6165814623e+000	 1.3403970964e+000	-1.3239322202e+000
 1.6026419663e+000	 1.3570330608e+000	-1.3790792950e+000
 1.5885252004e+000	 1.3735311019e+000	-1.4305835918e+000
 1.5742332195e+000	 1.3898884023e+000	-1.4784756737e+000
 1.5597681377e+000	 1.4061021858e+000	-1.5227878107e+000
 1.5451321278e+000	 1.4221697184e+000	-1.5635538485e+000
 1.5303274196e+000	 1.4380883106e+000	-1.6008090791e+000
 1.5153562993e+000	 1.4538553183e+000	-1.6345901100e+000
 1.5002211079e+000	 1.4694681444e+000	-1.6649347355e+000
 1.4849242405e+000	 1.4849242405e+000	-1.6918818085e+000
 1.6497505236e+000	 1.3393835186e+000	-1.2469776415e+000
 1.6358264797e+000	 1.3563542047e+000	-1.3070244755e+000
 1.6217210373e+000	 1.3731882162e+000	-1.3631056594e+000
 1.6074362147e+000	 1.3898826626e+000	-1.4152467908e+000
 1.5929740911e+000	 1.4064346928e+000	-1.4634755149e+000
 1.5783368060e+000	 1.4228414975e+000	-1.5078213947e+000
 1.5635265579e+000	 1.4391003103e+000	-1.5483157805e+000
 1.5485456031e+000	 1.4552084095e+000	-1.5849916792e+000
 1.5333962552e+000	 1.4711631197e+000	-1.6178836242e+000
 1.5180808830e+000	 1.4869618128e+000	-1.6470275449e+000
 1.5026019100e+000	 1.5026019100e+000	-1.6724606384e+000
 1.6691593533e+000	 1.3551409718e+000	-1.2318098181e+000
 1.6550714971e+000	 1.3723113129e+000	-1.2928235376e+000
 1.6408001083e+000	 1.3893433717e+000	-1.3495834927e+000
 1.6263472290e+000	 1.4062342233e+000	-1.4021123948e+000
 1.6117149628e+000	 1.4229809833e+000	-1.4504352087e+000
 1.5969054743e+000	 1.4395808092e+000	-1.4945790227e+000
 1.5819209879e+000	 1.4560309022e+000	-1.5345729174e+000
 1.5667637867e+000	 1.4723285085e+000	-1.5704478351e+000
 1.5514362112e+000	 1.4884709211e+000	-1.6022364479e+000
 1.5359406581e+000	 1.5044554812e+000	-1.6299730272e+000
 1.5202795796e+000	 1.5202795796e+000	-1.6536933137e+000
 1.6885681830e+000	 1.3708984249e+000	-1.2194734790e+000
 1.6743165145e+000	 1.3882684212e+000	-1.2811987855e+000
 1.6598791794e+000	 1.4054985272e+000	-1.3383881043e+000
 1.6452582433e+000	 1.4225857841e+000	-1.3910615015e+000
 1.6304558344e+000	 1.4395272738e+000	-1.4392414974e+000
 1.6154741426e+000	 1.4563201210e+000	-1.4829529361e+000
 1.6003154180e+000	 1.4729614941e+000	-1.5222228534e+000
 1.5849819703e+000	 1.4894486074e+000	-1.5570803449e+000
 1.5694761671e+000	 1.5057787225e+000	-1.5875564339e+000
 1.5538004332e+000	 1.5219491496e+000	-1.6136839388e+000
 1.5379572491e+000	 1.5379572491e+000	-1.6354973423e+000
 1.7079770127e+000	 1.3866558781e+000	-1.2098333095e+000
 1.6935615319e+000	 1.4042255295e+000	-1.2720206229e+000
 1.6789582504e+000	 1.4216536827e+000	-1.3293954841e+000
 1.6641692576e+000	 1.4389373448e+000	-1.3819755537e+000
 1.6491967061e+000	 1.4560735643e+000	-1.4297811423e+000
 1.6340428109e+000	 1.4730594327e+000	-1.4728350784e+000
 1.6187098481e+000	 1.4898920859e+000	-1.5111625762e+000
 1.6032001538e+000	 1.5065687063e+000	-1.5447911022e+000
 1.5875161230e+000	 1.5230865239e+000	-1.5737502413e+000
 1.5716602083e+000	 1.5394428180e+000	-1.5980715631e+000
 1.5556349186e+000	 1.5556349186e+000	-1.6177884893e+000
 1.7273858424e+000	 1.4024133313e+000	-1.2027552943e+000
 1.7128065493e+000	 1.4201826378e+000	-1.2651604199e+000
 1.6980373214e+000	 1.4378088382e+000	-1.3224822643e+000
 1.6830802719e+000	 1.4552889056e+000	-1.3747363207e+000
 1.6679375778e+000	 1.4726198548e+000	-1.4219409228e+000
 1.6526114792e+000	 1.4897987444e+000	-1.4641171117e+000
 1.6371042782e+000	 1.5068226778e+000	-1.5012885020e+000
 1.6214183374e+000	 1.5236888053e+000	-1.5334811468e+000
 1.6055560790e+000	 1.5403943253e+000	-1.5607234024e+000
 1.5895199834e+000	 1.5569364863e+000	-1.5830457928e+000
 1.5733125882e+000	 1.5733125882e+000	-1.6004808746e+000
 1.7467946721e+000	 1.4181707844e+000	-1.1981066454e+000
 1.7320515667e+000	 1.4361397461e+000	-1.2604904602e+000
 1.7171163925e+000	 1.4539639937e+000	-1.3175256839e+000
 1.7019912862e+000	 1.4716404663e+000	-1.3692258794e+000
 1.6866784494e+000	 1.4891661453e+000	-1.4156076356e+000
 1.6711801475e+000	 1.5065380562e+000	-1.4566904327e+000
 1.6554987083e+000	 1.5237532697e+000	-1.4924965065e+000
 1.6396365210e+000	 1.5408089042e+000	-1.5230507120e+000
 1.6235960349e+000	 1.5577021267e+000	-1.5483803855e+000
 1.6073797585e+000	 1.5744301547e+000	-1.5685152073e+000
 1.5909902577e+000	 1.5909902577e+000	-1.5834870645e+000
 1.4142135624e+000	 1.4142135624e+000	-1.7776876805e+000
 1.3994934709e+000	 1.4287820076e+000	-1.8140758353e+000
 1.3846241126e+000	 1.4431964755e+000	-1.8454219707e+000
 1.3696079148e+000	 1.4574546853e+000	-1.8717280223e+000
 1.3544473509e+000	 1.4715544074e+000	-1.8929985356e+000
 1.3391449388e+000	 1.4854934645e+000	-1.9092405956e+000
 1.3237032403e+000	 1.4992697328e+000	-1.9204637564e+000
 1.3081248589e+000	 1.5128811432e+000	-1.9266799713e+000
 1.2924124388e+000	 1.5263256822e+000	-1.9279035225e+000
 1.2765686632e+000	 1.5396013926e+000	-1.9241509518e+000
 1.2605962528e+000	 1.5527063751e+000	-1.9154409918e+000
 1.4318912319e+000	 1.4318912319e+000	-1.7548649082e+000
 1.4169871393e+000	 1.4466417827e+000	-1.7889220183e+000
 1.4019319140e+000	 1.4612364314e+000	-1.8184152706e+000
 1.3867280138e+000	 1.4756728689e+000	-1.8433506920e+000
 1.3713779427e+000	 1.4899488375e+000	-1.8637363706e+000
 1.3558842505e+000	 1.5040621328e+000	-1.8795823798e+000
 1.3402495308e+000	 1.5180106045e+000	-1.8909007038e+000
 1.3244764197e+000	 1.5317921575e+000	-1.8977051629e+000
 1.3085675943e+000	 1.5454047532e+000	-1.9000113415e+000
 1.2925257715e+000	 1.5588464100e+000	-1.8978365160e+000
 1.2763537060e+000	 1.5721152048e+000	-1.8911995855e+000
 1.4495689015e+000	 1.4495689015e+000	-1.7330063008e+000
 1.4344808076e+000	 1.4645015578e+000	-1.7647866438e+000
 1.4192397154e+000	 1.4792763874e+000	-1.7924700310e+000
 1.4038481127e+000	 1.4938910524e+000	-1.8160666488e+000
 1.3883085346e+000	 1.5083432676e+000	-1.8355882008e+000
 1.3726235623e+000	 1.5226308011e+000	-1.8510478263e+000
 1.3567958213e+000	 1.5367514761e+000	-1.8624600208e+000
 1.3408279804e+000	 1.5507031718e+000	-1.8698405581e+000
 1.3247227498e+000	 1.5644838242e+000	-1.8732064144e+000
 1.3084828798e+000	 1.5780914275e+000	-1.8725756950e+000
 1.2921111591e+000	 1.5915240345e+000	-1.8679675627e+000
 1.4672465710e+000	 1.4672465710e+000	-1.7120374681e+000
 1.4519744760e+000	 1.4823613329e+000	-1.7415914975e+000
 1.4365475169e+000	 1.4973163433e+000	-1.7675047416e+000
 1.4209682117e+000	 1.5121092360e+000	-1.7897916172e+000
 1.4052391265e+000	 1.5267376977e+000	-1.8084675181e+000
 1.3893628740e+000	 1.5411994694e+000	-1.8235487287e+000
 1.3733421118e+000	 1.5554923478e+000	-1.8350523391e+000
 1.3571795411e+000	 1.5696141861e+000	-1.8429961633e+000
 1.3408779053e+000	 1.5835628953e+000	-1.8473986602e+000
 1.3244399881e+000	 1.5973364449e+000	-1.8482788578e+000
 1.3078686123e+000	 1.6109328642e+000	-1.8456562808e+000
 1.4849242405e+000	 1.4849242405e+000	-1.6918818085e+000
 1.4694681444e+000	 1.5002211079e+000	-1.7192562823e+000
 1.4538553183e+000	 1.5153562993e+000	-1.7434359164e+000
 1.4380883106e+000	 1.5303274196e+000	-1.7644394304e+000
 1.4221697184e+000	 1.5451321278e+000	-1.7822859859e+000
 1.4061021858e+000	 1.5597681377e+000	-1.7969950932e+000
 1.3898884023e+000	 1.5742332195e+000	-1.8085865213e+000
 1.3735311019e+000	 1.5885252004e+000	-1.8170802126e+000
 1.3570330608e+000	 1.6026419663e+000	-1.8224962000e+000
 1.3403970964e+000	 1.6165814623e+000	-1.8248545286e+000
 1.3236260655e+000	 1.6303416939e+000	-1.8241751823e+000
 1.5026019100e+000	 1.5026019100e+000	-1.6724606384e+000
 1.4869618128e+000	 1.5180808830e+000	-1.6976987411e+000
 1.4711631197e+000	 1.5333962552e+000	-1.7201782093e+000
 1.4552084095e+000	 1.5485456031e+000	-1.7399221419e+000
 1.4391003103e+000	 1.5635265579e+000	-1.7569535471e+000
 1.4228414975e+000	 1.5783368060e+000	-1.7712952435e+000
 1.4064346928e+000	 1.5929740911e+000	-1.7829697655e+000
 1.3898826626e+000	 1.6074362147e+000	-1.7919992723e+000
 1.3731882162e+000	 1.6217210373e+000	-1.7984054629e+000
 1.3563542047e+000	 1.6358264797e+000	-1.8022094946e+000
 1.3393835186e+000	 1.6497505236e+000	-1.8034319078e+000
 1.5202795796e+000	 1.5202795796e+000	-1.6536933137e+000
 1.5044554812e+000	 1.5359406581e+000	-1.6768347699e+000
 1.4884709211e+000	 1.5514362112e+000	-1.6976445230e+000
 1.4723285085e+000	 1.5667637867e+000	-1.7161501289e+000
 1.4560309022e+000	 1.5819209879e+000	-1.7323785238e+000
 1.4395808092e+000	 1.5969054743e+000	-1.7463559191e+000
 1.4229809833e+000	 1.6117149628e+000	-1.7581077013e+000
 1.4062342233e+000	 1.6263472290e+000	-1.7676583373e+000
 1.3893433717e+000	 1.6408001083e+000	-1.7750312843e+000
 1.3723113129e+000	 1.6550714971e+000	-1.7802489073e+000
 1.3551409718e+000	 1.6691593533e+000	-1.7833324005e+000
 1.5379572491e+000	 1.5379572491e+000	-1.6354973423e+000
 1.5219491496e+000	 1.5538004332e+000	-1.6565785247e+000
 1.5057787225e+000	 1.5694761671e+000	-1.6757461091e+000
 1.4894486074e+000	 1.5849819703e+000	-1.6930321885e+000
 1.4729614941e+000	 1.6003154180e+000	-1.7084677105e+000
 1.4563201210e+000	 1.6154741426e+000	-1.7220823655e+000
 1.4395272738e+000	 1.6304558344e+000	-1.7339044809e+000
 1.4225857841e+000	 1.6452582433e+000	-1.7439609219e+000
 1.4054985272e+000	 1.6598791794e+000	-1.7522769979e+000
 1.3882684212e+000	 1.6743165145e+000	-1.7588763766e+000
 1.3708984249e+000	 1.6885681830e+000	-1.7637810041e+000
 1.5556349186e+000	 1.5556349186e+000	-1.6177884893e+000
 1.5394428180e+000	 1.5716602083e+000	-1.6368425203e+000
 1.5230865239e+000	 1.5875161230e+000	-1.6543926620e+000
 1.5065687063e+000	 1.6032001538e+000	-1.6704756276e+000
 1.4898920859e+000	 1.6187098481e+000	-1.6851264613e+000
 1.4730594327e+000	 1.6340428109e+000	-1.6983784200e+000
 1.4560735643e+000	 1.6491967061e+000	-1.7102628623e+000
 1.4389373448e+000	 1.6641692576e+000	-1.7208091437e+000
 1.4216536827e+000	 1.6789582504e+000	-1.7300445202e+000
 1.4042255295e+000	 1.6935615319e+000	-1.7379940582e+000
 1.3866558781e+000	 1.7079770127e+000	-1.7446805533e+000
 1.5733125882e+000	 1.5733125882e+000	-1.6004808746e+000
 1.5569364863e+000	 1.5895199834e+000	-1.6175377220e+000
 1.5403943253e+000	 1.6055560790e+000	-1.6334924067e+000
 1.5236888053e+000	 1.6214183374e+000	-1.6483863467e+000
 1.5068226778e+000	 1.6371042782e+000	-1.6622587701e+000
 1.4897987444e+000	 1.6526114792e+000	-1.6751465902e+000
 1.4726198548e+000	 1.6679375778e+000	-1.6870842878e+000
 1.4552889056e+000	 1.6830802719e+000	-1.6981038024e+000
 1.4378088382e+000	 1.6980373214e+000	-1.7082344310e+000
 1.4201826378e+000	 1.7128065493e+000	-1.7175027354e+000
 1.4024133313e+000	 1.7273858424e+000	-1.7259324586e+000
 1.5909902577e+000	 1.5909902577e+000	-1.5834870645e+000
 1.5744301547e+000	 1.6073797585e+000	-1.5985736323e+000
 1.5577021267e+000	 1.6235960349e+000	-1.6129521798e+000
 1.5408089042e+000	 1.6396365210e+000	-1.6266689176e+000
 1.5237532697e+000	 1.6554987083e+000	-1.6397673469e+000
 1.5065380562e+000	 1.6711801475e+000	-1.6522881281e+000
 1.4891661453e+000	 1.6866784494e+000	-1.6642689574e+000
 1.4716404663e+000	 1.7019912862e+000	-1.6757444524e+000
 1.4539639937e+000	 1.7171163925e+000	-1.6867460469e+000
 1.4361397461e+000	 1.7320515667e+000	-1.6973018953e+000
 1.4181707844e+000	 1.7467946721e+000	-1.7074367858e+000
 1.2605962528e+000	 1.5527063751e+000	-1.9154409918e+000
 1.2444979645e+000	 1.5656387886e+000	-1.8886607870e+000
 1.2282765894e+000	 1.5783968513e+000	-1.8921731977e+000
 1.2119349516e+000	 1.5909788412e+000	-1.8932317629e+000
 1.1954759065e+000	 1.6033830974e+000	-1.8917576701e+000
 1.1789023391e+000	 1.6156080202e+000	-1.8876719217e+000
 1.1622171622e+000	 1.6276520721e+000	-1.8808956376e+000
 1.1454233153e+000	 1.6395137781e+000	-1.8713503608e+000
 1.1285237623e+000	 1.6511917266e+000	-1.8589583642e+000
 1.1115214900e+000	 1.6626845693e+000	-1.8436429583e+000
 1.0944195068e+000	 1.6739910224e+000	-1.8253287987e+000
 1.2763537060e+000	 1.5721152048e+000	-1.8911995855e+000
 1.2600541890e+000	 1.5852092735e+000	-1.8531134137e+000
 1.2436300467e+000	 1.5981268119e+000	-1.8311714169e+000
 1.2270841385e+000	 1.6108660767e+000	-1.8373161730e+000
 1.2104193553e+000	 1.6234253861e+000	-1.8403746083e+000
 1.1936386183e+000	 1.6358031204e+000	-1.8402580090e+000
 1.1767448768e+000	 1.6479977230e+000	-1.8368781972e+000
 1.1597411068e+000	 1.6600077003e+000	-1.8301478523e+000
 1.1426303093e+000	 1.6718316232e+000	-1.8199808329e+000
 1.1254155087e+000	 1.6834681265e+000	-1.8062925001e+000
 1.1080997506e+000	 1.6949159102e+000	-1.7890000391e+000
 1.2921111591e+000	 1.5915240345e+000	-1.8679675627e+000
 1.2756104136e+000	 1.6047797583e+000	-1.8354750520e+000
 1.2589835041e+000	 1.6178567725e+000	-1.7988517193e+000
 1.2422333254e+000	 1.6307533122e+000	-1.7822815361e+000
 1.2253628042e+000	 1.6434676748e+000	-1.7899244715e+000
 1.2083748975e+000	 1.6559982207e+000	-1.7938462759e+000
 1.1912725913e+000	 1.6683433739e+000	-1.7939491394e+000
 1.1740588982e+000	 1.6805016226e+000	-1.7901365296e+000
 1.1567368563e+000	 1.6924715197e+000	-1.7823135298e+000
 1.1393095273e+000	 1.7042516836e+000	-1.7703871775e+000
 1.1217799944e+000	 1.7158407980e+000	-1.7542668013e+000
 1.3078686123e+000	 1.6109328642e+000	-1.8456562808e+000
 1.2911666381e+000	 1.6243502432e+000	-1.8186380927e+000
 1.2743369615e+000	 1.6375867332e+000	-1.7869584779e+000
 1.2573825123e+000	 1.6506405477e+000	-1.7507366601e+000
 1.2403062530e+000	 1.6635099635e+000	-1.7401154355e+000
 1.2231111768e+000	 1.6761933210e+000	-1.7481522449e+000
 1.2058003058e+000	 1.6886890248e+000	-1.7518310015e+000
 1.1883766897e+000	 1.7009955448e+000	-1.7510456071e+000
 1.1708434034e+000	 1.7131114163e+000	-1.7456920029e+000
 1.1532035459e+000	 1.7250352407e+000	-1.7356685231e+000
 1.1354602383e+000	 1.7367656858e+000	-1.7208762487e+000
 1.3236260655e+000	 1.6303416939e+000	-1.8241751823e+000
 1.3067228627e+000	 1.6439207281e+000	-1.8025157747e+000
 1.2896904188e+000	 1.6573166938e+000	-1.7756789136e+000
 1.2725316992e+000	 1.6705277832e+000	-1.7437841664e+000
 1.2552497018e+000	 1.6835522522e+000	-1.7069522032e+000
 1.2378474560e+000	 1.6963884212e+000	-1.7028887020e+000
 1.2203280204e+000	 1.7090346757e+000	-1.7102434873e+000
 1.2026944811e+000	 1.7214894670e+000	-1.7126013916e+000
 1.1849499504e+000	 1.7337513129e+000	-1.7098488407e+000
 1.1670975645e+000	 1.7458187978e+000	-1.7018750814e+000
 1.1491404821e+000	 1.7576905735e+000	-1.6885725499e+000
 1.3393835186e+000	 1.6497505236e+000	-1.8034319078e+000
 1.3222790873e+000	 1.6634912129e+000	-1.7870193375e+000
 1.3050438762e+000	 1.6770466545e+000	-1.7649275153e+000
 1.2876808861e+000	 1.6904150188e+000	-1.7372764324e+000
 1.2701931507e+000	 1.7035945410e+000	-1.7041875576e+000
 1.2525837353e+000	 1.7165835215e+000	-1.6657836705e+000
 1.2348557349e+000	 1.7293803266e+000	-1.6689036338e+000
 1.2170122725e+000	 1.7419833892e+000	-1.6745274529e+000
 1.1990564974e+000	 1.7543912095e+000	-1.6745138469e+000
 1.1809915832e+000	 1.7666023549e+000	-1.6687425841e+000
 1.1628207260e+000	 1.7786154613e+000	-1.6570970545e+000
 1.3551409718e+000	 1.6691593533e+000	-1.7833324005e+000
 1.3378353118e+000	 1.6830616978e+000	-1.7720581380e+000
 1.3203973336e+000	 1.6967766151e+000	-1.7546167230e+000
 1.3028300730e+000	 1.7103022543e+000	-1.7311286514e+000
 1.2851365995e+000	 1.7236368297e+000	-1.7017162587e+000
 1.2673200145e+000	 1.7367786217e+000	-1.6665035490e+000
 1.2493834494e+000	 1.7497259775e+000	-1.6275259664e+000
 1.2313300640e+000	 1.7624773115e+000	-1.6365447837e+000
 1.2131630445e+000	 1.7750311061e+000	-1.6394142015e+000
 1.1948856018e+000	 1.7873859120e+000	-1.6360041136e+000
 1.1765009698e+000	 1.7995403491e+000	-1.6261884568e+000
 1.3708984249e+000	 1.6885681830e+000	-1.7637810041e+000
 1.3533915364e+000	 1.7026321826e+000	-1.7575397580e+000
 1.3357507909e+000	 1.7165065757e+000	-1.7446570458e+000
 1.3179792599e+000	 1.7301894898e+000	-1.7252539483e+000
 1.3000800483e+000	 1.7436791184e+000	-1.6994537357e+000
 1.2820562937e+000	 1.7569737220e+000	-1.6673816928e+000
 1.2639111639e+000	 1.7700716284e+000	-1.6291649464e+000
 1.2456478554e+000	 1.7829712337e+000	-1.5983719471e+000
 1.2272695915e+000	 1.7956710026e+000	-1.6042746121e+000
 1.2087796204e+000	 1.8081694692e+000	-1.6033902559e+000
 1.1901812136e+000	 1.8204652369e+000	-1.5955829491e+000
 1.3866558781e+000	 1.7079770127e+000	-1.7446805533e+000
 1.3689477609e+000	 1.7222026675e+000	-1.7433701056e+000
 1.3511042483e+000	 1.7362365364e+000	-1.7349571716e+000
 1.3331284468e+000	 1.7500767253e+000	-1.7195634972e+000
 1.3150234972e+000	 1.7637214071e+000	-1.6973133554e+000
 1.2967925730e+000	 1.7771688222e+000	-1.6683333677e+000
 1.2784388785e+000	 1.7904172793e+000	-1.6327523268e+000
 1.2599656469e+000	 1.8034651559e+000	-1.5907010236e+000
 1.2413761385e+000	 1.8163108992e+000	-1.5688174543e+000
 1.2226736390e+000	 1.8289530263e+000	-1.5706292416e+000
 1.2038614575e+000	 1.8413901247e+000	-1.5650143632e+000
 1.4024133313e+000	 1.7273858424e+000	-1.7259324586e+000
 1.3845039855e+000	 1.7417731524e+000	-1.7294535091e+000
 1.3664577057e+000	 1.7559664970e+000	-1.7254240695e+000
 1.3482776336e+000	 1.7699639608e+000	-1.7139666309e+000
 1.3299669460e+000	 1.7837636958e+000	-1.6952065378e+000
 1.3115288522e+000	 1.7973639225e+000	-1.6692718044e+000
 1.2929665930e+000	 1.8107629302e+000	-1.6362929336e+000
 1.2742834383e+000	 1.8239590782e+000	-1.5964027386e+000
 1.2554826855e+000	 1.8369507958e+000	-1.5497361683e+000
 1.2365676577e+000	 1.8497365834e+000	-1.5374470789e+000
 1.2175417013e+000	 1.8623150124e+000	-1.5342143033e+000
 1.4181707844e+000	 1.7467946721e+000	-1.7074367858e+000
 1.4000602100e+000	 1.7613436372e+000	-1.7156928047e+000
 1.3818111630e+000	 1.7756964577e+000	-1.7159630849e+000
 1.3634268205e+000	 1.7898511964e+000	-1.7083709434e+000
 1.3449103948e+000	 1.8038059846e+000	-1.6930428641e+000
 1.3262651314e+000	 1.8175590227e+000	-1.6701083108e+000
 1.3074943075e+000	 1.8311085811e+000	-1.6396995411e+000
 1.2886012298e+000	 1.8444530004e+000	-1.6019514236e+000
 1.2695892326e+000	 1.8575906924e+000	-1.5570012578e+000
 1.2504616763e+000	 1.8705201405e+000	-1.5049885976e+000
 1.2312219451e+000	 1.8832399002e+000	-1.5212422954e+000
 1.0944195068e+000	 1.6739910224e+000	-1.8253287987e+000
 1.0772208403e+000	 1.6851098662e+000	-1.8062014434e+000
 1.0599285364e+000	 1.6960399458e+000	-1.7846663498e+000
 1.0425456567e+000	 1.7067801714e+000	-1.7605672317e+000
 1.0250752778e+000	 1.7173295184e+000	-1.7337501980e+000
 1.0075204886e+000	 1.7276870275e+000	-1.7040641390e+000
 9.8988438938e-001	 1.7378518049e+000	-1.6713611059e+000
 9.7217008953e-001	 1.7478230222e+000	-1.6354966832e+000
 9.5438070623e-001	 1.7575999168e+000	-1.5963303530e+000
 9.3651936262e-001	 1.7671817913e+000	-1.5537258502e+000
 9.1858918611e-001	 1.7765680137e+000	-1.5075515069e+000
 1.1080997506e+000	 1.6949159102e+000	-1.7890000391e+000
 1.0906861008e+000	 1.7061737395e+000	-1.7672105269e+000
 1.0731776431e+000	 1.7172404451e+000	-1.7427313651e+000
 1.0555774775e+000	 1.7281149236e+000	-1.7154019948e+000
 1.0378887188e+000	 1.7387961374e+000	-1.6850644442e+000
 1.0201144947e+000	 1.7492831153e+000	-1.6515637274e+000
 1.0022579442e+000	 1.7595749524e+000	-1.6147482357e+000
 9.8432221564e-001	 1.7696708100e+000	-1.5744701226e+000
 9.6631046506e-001	 1.7795699158e+000	-1.5305856784e+000
 9.4822585465e-001	 1.7892715637e+000	-1.4829556970e+000
 9.3007155093e-001	 1.7987751138e+000	-1.4314458305e+000
 1.1217799944e+000	 1.7158407980e+000	-1.7542668013e+000
 1.1041513613e+000	 1.7272376128e+000	-1.7301220962e+000
 1.0864267498e+000	 1.7384409444e+000	-1.7030122248e+000
 1.0686092982e+000	 1.7494496757e+000	-1.6727719026e+000
 1.0507021598e+000	 1.7602627564e+000	-1.6392386210e+000
 1.0327085009e+000	 1.7708792032e+000	-1.6022530583e+000
 1.0146314991e+000	 1.7812981000e+000	-1.5616594847e+000
 9.9647434176e-001	 1.7915185978e+000	-1.5173061588e+000
 9.7824022389e-001	 1.8015399147e+000	-1.4690457153e+000
 9.5993234668e-001	 1.8113613361e+000	-1.4167355425e+000
 9.4155391576e-001	 1.8209822140e+000	-1.3602381487e+000
 1.1354602383e+000	 1.7367656858e+000	-1.7208762487e+000
 1.1176166218e+000	 1.7483014862e+000	-1.6946834724e+000
 1.0996758565e+000	 1.7596414438e+000	-1.6652563426e+000
 1.0816411189e+000	 1.7707844278e+000	-1.6324243940e+000
 1.0635156007e+000	 1.7817293753e+000	-1.5960201210e+000
 1.0453025070e+000	 1.7924752910e+000	-1.5558794039e+000
 1.0270050540e+000	 1.8030212475e+000	-1.5118419266e+000
 1.0086264679e+000	 1.8133663856e+000	-1.4637515867e+000
 9.9016998271e-001	 1.8235099137e+000	-1.4114568956e+000
 9.7163883872e-001	 1.8334511084e+000	-1.3548113687e+000
 9.5303628058e-001	 1.8431893142e+000	-1.2936739036e+000
 1.1491404821e+000	 1.7576905735e+000	-1.6885725499e+000
 1.1310818823e+000	 1.7693653595e+000	-1.6606392406e+000
 1.1129249632e+000	 1.7808419431e+000	-1.6292086640e+000
 1.0946729396e+000	 1.7921191800e+000	-1.5941047144e+000
 1.0763290417e+000	 1.8031959943e+000	-1.5551544265e+000
 1.0578965131e+000	 1.8140713789e+000	-1.5121884163e+000
 1.0393786088e+000	 1.8247443951e+000	-1.4650413133e+000
 1.0207785940e+000	 1.8352141733e+000	-1.4135521842e+000
 1.0020997415e+000	 1.8454799126e+000	-1.3575649467e+000
 9.8334533075e-001	 1.8555408808e+000	-1.2969287725e+000
 9.6451864541e-001	 1.8653964143e+000	-1.2314984783e+000
 1.1628207260e+000	 1.7786154613e+000	-1.6570970545e+000
 1.1445471428e+000	 1.7904292328e+000	-1.6277314110e+000
 1.1261740699e+000	 1.8020424424e+000	-1.5946118109e+000
 1.1077047603e+000	 1.8134539321e+000	-1.5575560450e+000
 1.0891424827e+000	 1.8246626133e+000	-1.5163852217e+000
 1.0704905192e+000	 1.8356674667e+000	-1.4709242232e+000
 1.0517521637e+000	 1.8464675427e+000	-1.4210021528e+000
 1.0329307201e+000	 1.8570619611e+000	-1.3664527728e+000
 1.0140295004e+000	 1.8674499116e+000	-1.3071149332e+000
 9.9505182278e-001	 1.8776306532e+000	-1.2503261798e+000
 9.7600101023e-001	 1.8876035145e+000	-1.2100056727e+000
 1.1765009698e+000	 1.7995403491e+000	-1.6261884568e+000
 1.1580124033e+000	 1.8114931061e+000	-1.5956995686e+000
 1.1394231766e+000	 1.8232429417e+000	-1.5612062172e+000
 1.1207365810e+000	 1.8347886843e+000	-1.5225196228e+000
 1.1019559236e+000	 1.8461292323e+000	-1.4794544976e+000
 1.0830845253e+000	 1.8572635545e+000	-1.4318295165e+000
 1.0641257186e+000	 1.8681906902e+000	-1.3794677810e+000
 1.0450828462e+000	 1.8789097489e+000	-1.3325240695e+000
 1.0259592592e+000	 1.8894199106e+000	-1.2985047929e+000
 1.0067583148e+000	 1.8997204256e+000	-1.2595839879e+000
 9.8748337506e-001	 1.9098106147e+000	-1.2156827554e+000
 1.1901812136e+000	 1.8204652369e+000	-1.5955829491e+000
 1.1714776638e+000	 1.8325569795e+000	-1.5642810128e+000
 1.1526722833e+000	 1.8444434411e+000	-1.5287302540e+000
 1.1337684017e+000	 1.8561234364e+000	-1.4887348524e+000
 1.1147693646e+000	 1.8675958513e+000	-1.4441026490e+000
 1.0956785314e+000	 1.8788596424e+000	-1.4042029623e+000
 1.0764992734e+000	 1.8899138378e+000	-1.3775202563e+000
 1.0572349723e+000	 1.9007575367e+000	-1.3458014583e+000
 1.0378890180e+000	 1.9113899095e+000	-1.3089534268e+000
 1.0184648068e+000	 1.9218101980e+000	-1.2668915610e+000
 9.9896573988e-001	 1.9320177149e+000	-1.2195398294e+000
 1.2038614575e+000	 1.8413901247e+000	-1.5650143632e+000
 1.1849429244e+000	 1.8536208528e+000	-1.5332108868e+000
 1.1659213900e+000	 1.8656439404e+000	-1.4969203475e+000
 1.1468002224e+000	 1.8774581886e+000	-1.4617232768e+000
 1.1275828056e+000	 1.8890624702e+000	-1.4433833164e+000
 1.1082725375e+000	 1.9004557302e+000	-1.4198967133e+000
 1.0888728283e+000	 1.9116369853e+000	-1.3911543139e+000
 1.0693870985e+000	 1.9226053244e+000	-1.3570558624e+000
 1.0498187768e+000	 1.9333599085e+000	-1.3175100629e+000
 1.0301712989e+000	 1.9438999704e+000	-1.2724346210e+000
 1.0104481047e+000	 1.9542248150e+000	-1.2217562658e+000
 1.2175417013e+000	 1.8623150124e+000	-1.5342143033e+000
 1.1984081849e+000	 1.8746847261e+000	-1.5022222990e+000
 1.1791704967e+000	 1.8868444397e+000	-1.4924714228e+000
 1.1598320431e+000	 1.8987929407e+000	-1.4782089247e+000
 1.1403962465e+000	 1.9105290892e+000	-1.4585919818e+000
 1.1208665436e+000	 1.9220518181e+000	-1.4335029091e+000
 1.1012463832e+000	 1.9333601329e+000	-1.4028333213e+000
 1.0815392246e+000	 1.9444531122e+000	-1.3664842107e+000
 1.0617485357e+000	 1.9553299075e+000	-1.3243660051e+000
 1.0418777909e+000	 1.9659897428e+000	-1.2763986032e+000
 1.0219304695e+000	 1.9764319152e+000	-1.2225113915e+000
 1.2312219451e+000	 1.8832399002e+000	-1.5212422954e+000
 1.2118734454e+000	 1.8957485995e+000	-1.5171424336e+000
 1.1924196034e+000	 1.9080449390e+000	-1.5076230787e+000
 1.1728638638e+000	 1.9201276929e+000	-1.4925474095e+000
 1.1532096875e+000	 1.9319957082e+000	-1.4717881824e+000
 1.1334605497e+000	 1.9436479059e+000	-1.4452278502e+000
 1.1136199380e+000	 1.9550832805e+000	-1.4127586580e+000
 1.0936913507e+000	 1.9663009000e+000	-1.3742827181e+000
 1.0736782945e+000	 1.9772999064e+000	-1.3297120622e+000
 1.0535842829e+000	 1.9880795152e+000	-1.2789686727e+000
 1.0334128344e+000	 1.9986390154e+000	-1.2219844922e+000
 9.1858918611e-001	 1.7765680137e+000	-1.5075515069e+000
 9.0059330673e-001	 1.7857580172e+000	-1.4803044909e+000
 8.8253485550e-001	 1.7947513000e+000	-1.4479715568e+000
 8.6441696276e-001	 1.8035474251e+000	-1.4104897534e+000
 8.4624275656e-001	 1.8121460198e+000	-1.3678024199e+000
 8.2801536107e-001	 1.8205467755e+000	-1.3198594081e+000
 8.0973789495e-001	 1.8287494474e+000	-1.2666172899e+000
 7.9141346985e-001	 1.8367538539e+000	-1.2080395512e+000
 7.7304518882e-001	 1.8445598760e+000	-1.1440967702e+000
 7.5463614479e-001	 1.8521674571e+000	-1.0747667798e+000
 7.3618941913e-001	 1.8595766021e+000	-1.0000348157e+000
 9.3007155093e-001	 1.7987751138e+000	-1.4314458305e+000
 9.1185072306e-001	 1.8080799924e+000	-1.4006514744e+000
 8.9356654119e-001	 1.8171856912e+000	-1.3645297989e+000
 8.7522217479e-001	 1.8260917679e+000	-1.3230178890e+000
 8.5682079102e-001	 1.8347978450e+000	-1.2760593340e+000
 8.3836555308e-001	 1.8433036102e+000	-1.2236044559e+000
 8.1985961864e-001	 1.8516088155e+000	-1.1656105240e+000
 8.0130613823e-001	 1.8597132771e+000	-1.1020419537e+000
 7.8270825368e-001	 1.8676168744e+000	-1.0328704901e+000
 7.6406909660e-001	 1.8753195503e+000	-9.5945151918e-001
 7.4539178687e-001	 1.8828213097e+000	-9.1219657180e-001
 9.4155391576e-001	 1.8209822140e+000	-1.3602381487e+000
 9.2310813940e-001	 1.8304019676e+000	-1.3263262560e+000
 9.0459822689e-001	 1.8396200825e+000	-1.2868454570e+000
 8.8602738683e-001	 1.8486361107e+000	-1.2417323885e+000
 8.6739882548e-001	 1.8574496703e+000	-1.1909304099e+000
 8.4871574509e-001	 1.8660604449e+000	-1.1343898389e+000
 8.2998134233e-001	 1.8744681836e+000	-1.0720681729e+000
 8.1119880660e-001	 1.8826727002e+000	-1.0338970787e+000
 7.9237131854e-001	 1.8906738729e+000	-9.9270053109e-001
 7.7350204841e-001	 1.8984716435e+000	-9.4647530668e-001
 7.5459415461e-001	 1.9060660172e+000	-8.9525156121e-001
 9.5303628058e-001	 1.8431893142e+000	-1.2936739036e+000
 9.3436555573e-001	 1.8527239428e+000	-1.2570707694e+000
 9.1562991258e-001	 1.8620544737e+000	-1.2146569322e+000
 8.9683259886e-001	 1.8711804535e+000	-1.1663680942e+000
 8.7797685993e-001	 1.8801014955e+000	-1.1298274663e+000
 8.5906593711e-001	 1.8888172796e+000	-1.1009445974e+000
 8.4010306601e-001	 1.8973275517e+000	-1.0667868004e+000
 8.2109147497e-001	 1.9056321234e+000	-1.0273728579e+000
 8.0203438340e-001	 1.9137308713e+000	-9.8272821340e-001
 7.8293500022e-001	 1.9216237367e+000	-9.3288483457e-001
 7.6379652235e-001	 1.9293107247e+000	-8.7788106576e-001
 9.6451864541e-001	 1.8653964143e+000	-1.2314984783e+000
 9.4562297206e-001	 1.8750459180e+000	-1.1927695988e+000
 9.2666159827e-001	 1.8844888650e+000	-1.1777039098e+000
 9.0763781090e-001	 1.8937247963e+000	-1.1571293405e+000
 8.8855489439e-001	 1.9027533208e+000	-1.1310505250e+000
 8.6941612912e-001	 1.9115741143e+000	-1.0994793906e+000
 8.5022478970e-001	 1.9201869198e+000	-1.0624350473e+000
 8.3098414334e-001	 1.9285915466e+000	-1.0199436642e+000
 8.1169744825e-001	 1.9367878698e+000	-9.7203833272e-001
 7.9236795203e-001	 1.9447758299e+000	-9.1875891735e-001
 7.7299889008e-001	 1.9525554322e+000	-8.6015189497e-001
 9.7600101023e-001	 1.8876035145e+000	-1.2100056727e+000
 9.5688038840e-001	 1.8973678932e+000	-1.1988312699e+000
 9.3769328397e-001	 1.9069232562e+000	-1.1819209343e+000
 9.1844302293e-001	 1.9162691391e+000	-1.1592780177e+000
 8.9913292885e-001	 1.9254051460e+000	-1.1309135788e+000
 8.7976632113e-001	 1.9343309490e+000	-1.0968462762e+000
 8.6034651339e-001	 1.9430462879e+000	-1.0571022458e+000
 8.4087681172e-001	 1.9515509698e+000	-1.0117149658e+000
 8.2136051311e-001	 1.9598448682e+000	-9.6072510712e-001
 8.0180090384e-001	 1.9679279231e+000	-9.0418037196e-001
 7.8220125782e-001	 1.9758001398e+000	-8.4213531982e-001
 9.8748337506e-001	 1.9098106147e+000	-1.2156827554e+000
 9.6813780473e-001	 1.9196898685e+000	-1.2030959789e+000
 9.4872496966e-001	 1.9293576475e+000	-1.1845384411e+000
 9.2924823496e-001	 1.9388134820e+000	-1.1600194908e+000
 9.0971096330e-001	 1.9480569713e+000	-1.1295565110e+000
 8.9011651315e-001	 1.9570877837e+000	-1.0931747997e+000
 8.7046823707e-001	 1.9659056560e+000	-1.0509074375e+000
 8.5076948009e-001	 1.9745103929e+000	-1.0027951393e+000
 8.3102357797e-001	 1.9829018667e+000	-9.4888609303e-001
 8.1123385565e-001	 1.9910800163e+000	-8.8923578506e-001
 7.9140362556e-001	 1.9990448473e+000	-8.2390681338e-001
 9.9896573988e-001	 1.9320177149e+000	-1.2195398294e+000
 9.7939522106e-001	 1.9420118437e+000	-1.2057339149e+000
 9.5975665535e-001	 1.9517920388e+000	-1.1857172064e+000
 9.4005344700e-001	 1.9613578248e+000	-1.1595049438e+000
 9.2028899776e-001	 1.9707087965e+000	-1.1271207380e+000
 9.0046670516e-001	 1.9798446184e+000	-1.0885964410e+000
 8.8058996076e-001	 1.9887650241e+000	-1.0439720008e+000
 8.6066214846e-001	 1.9974698161e+000	-9.9329530243e-001
 8.4068664283e-001	 2.0059588651e+000	-9.3662199336e-001
 8.2066680746e-001	 2.0142321096e+000	-8.7401529638e-001
 8.0060599330e-001	 2.0222895548e+000	-8.0554580929e-001
 1.0104481047e+000	 1.9542248150e+000	-1.2217562658e+000
 9.9065263740e-001	 1.9643338189e+000	-1.2069155904e+000
 9.7078834105e-001	 1.9742264300e+000	-1.1856187019e+000
 9.5085865903e-001	 1.9839021676e+000	-1.1578866303e+000
 9.3086703222e-001	 1.9933606218e+000	-1.1237491230e+000
 9.1081689717e-001	 2.0026014531e+000	-1.0832445041e+000
 8.9071168444e-001	 2.0116243922e+000	-1.0364195181e+000
 8.7055481683e-001	 2.0204292393e+000	-9.8332915801e-001
 8.5034970769e-001	 2.0290158636e+000	-9.2403647873e-001
 8.3009975926e-001	 2.0373842028e+000	-8.5861239685e-001
 8.0980836103e-001	 2.0455342623e+000	-7.8713547677e-001
 1.0219304695e+000	 1.9764319152e+000	-1.2225113915e+000
 1.0019100537e+000	 1.9866557941e+000	-1.2068118228e+000
 9.8182002674e-001	 1.9966608213e+000	-1.1844050559e+000
 9.6166387107e-001	 2.0064465104e+000	-1.1553178138e+000
 9.4144506667e-001	 2.0160124470e+000	-1.1195858937e+000
 9.2116708919e-001	 2.0253582878e+000	-1.0772540153e+000
 9.0083340813e-001	 2.0344837603e+000	-1.0283756523e+000
 8.8044748521e-001	 2.0433886625e+000	-9.7301284904e-001
 8.6001277255e-001	 2.0520728620e+000	-9.1123602078e-001
 8.3953271107e-001	 2.0605362960e+000	-8.4312374031e-001
 8.1901072877e-001	 2.0687789699e+000	-7.6876251070e-001
 1.0334128344e+000	 1.9986390154e+000	-1.2219844922e+000
 1.0131674701e+000	 2.0089777693e+000	-1.2055937178e+000
 9.9285171243e-001	 2.0190952125e+000	-1.1822390164e+000
 9.7246908310e-001	 2.0289908532e+000	-1.1519527114e+000
 9.5202310113e-001	 2.0386642723e+000	-1.1147765672e+000
 9.3151728120e-001	 2.0481151225e+000	-1.0707616267e+000
 9.1095513182e-001	 2.0573431284e+000	-1.0199680309e+000
 8.9034015358e-001	 2.0663480856e+000	-9.6246482303e-001
 8.6967583741e-001	 2.0751298605e+000	-8.9832973650e-001
 8.4896566288e-001	 2.0836883892e+000	-8.2764896781e-001
 8.2821309651e-001	 2.0920236774e+000	-7.5051693578e-001
 7.3618941913e-001	 1.8595766021e+000	-1.0000348157e+000
 7.1770808012e-001	 1.8667873772e+000	-9.8174975983e-001
 6.9919518155e-001	 1.8737999088e+000	-9.5914425564e-001
 6.8065376130e-001	 1.8806143829e+000	-9.6019345477e-001
 6.6208683995e-001	 1.8872310448e+000	-9.6336452199e-001
 6.4349741945e-001	 1.8936501977e+000	-9.6273430109e-001
 6.2488848178e-001	 1.8998722024e+000	-9.5776201101e-001
 6.0626298769e-001	 1.9058974762e+000	-8.7348521205e-001
 5.8762387544e-001	 1.9117264922e+000	-7.9067363504e-001
 5.6897405956e-001	 1.9173597783e+000	-7.0899450384e-001
 5.5031642970e-001	 1.9227979164e+000	-6.2814109439e-001
 7.4539178687e-001	 1.8828213097e+000	-9.1219657180e-001
 7.2667943112e-001	 1.8901222194e+000	-9.1821743393e-001
 7.0793512132e-001	 1.8972224076e+000	-9.2122155215e-001
 6.8916193331e-001	 1.9041220627e+000	-9.2113277139e-001
 6.7036292545e-001	 1.9108214328e+000	-9.1788033048e-001
 6.5154113719e-001	 1.9173208252e+000	-9.1139880489e-001
 6.3269958780e-001	 1.9236206049e+000	-9.0162804000e-001
 6.1384127504e-001	 1.9297211947e+000	-8.3746560416e-001
 5.9496917388e-001	 1.9356230734e+000	-7.3875162345e-001
 5.7608623530e-001	 1.9413267756e+000	-6.4145349804e-001
 5.5719538508e-001	 1.9468328903e+000	-5.4523613516e-001
 7.5459415461e-001	 1.9060660172e+000	-8.9525156121e-001
 7.3565078212e-001	 1.9134570617e+000	-8.9369569271e-001
 7.1667506109e-001	 1.9206449065e+000	-8.8964233083e-001
 6.9767010533e-001	 1.9276297425e+000	-8.8302604540e-001
 6.7863901094e-001	 1.9344118209e+000	-8.7378632927e-001
 6.5958485493e-001	 1.9409914526e+000	-8.6186753538e-001
 6.4051069382e-001	 1.9473690074e+000	-8.4721880489e-001
 6.2141956238e-001	 1.9535449131e+000	-8.1181224618e-001
 6.0231447232e-001	 1.9595196545e+000	-6.9849385565e-001
 5.8319841105e-001	 1.9652937728e+000	-5.8683918205e-001
 5.6407434045e-001	 1.9708678643e+000	-4.7648301897e-001
 7.6379652235e-001	 1.9293107247e+000	-8.7788106576e-001
 7.4462213312e-001	 1.9367919039e+000	-8.6922734163e-001
 7.2541500086e-001	 1.9440674054e+000	-8.5857379262e-001
 7.0617827734e-001	 1.9511374223e+000	-8.4586565626e-001
 6.8691509644e-001	 1.9580022090e+000	-8.3105264077e-001
 6.6762857267e-001	 1.9646620801e+000	-8.1408885608e-001
 6.4832179984e-001	 1.9711174100e+000	-7.9493273644e-001
 6.2899784972e-001	 1.9773686316e+000	-7.7354695524e-001
 6.0965977076e-001	 1.9834162357e+000	-6.6859685018e-001
 5.9031058679e-001	 1.9892607700e+000	-5.4387288863e-001
 5.7095329582e-001	 1.9949028382e+000	-4.2062824277e-001
 7.7299889008e-001	 1.9525554322e+000	-8.6015189497e-001
 7.5359348412e-001	 1.9601267461e+000	-8.4485649719e-001
 7.3415494062e-001	 1.9674899042e+000	-8.2803780925e-001
 7.1468644936e-001	 1.9746451021e+000	-8.0965168642e-001
 6.9519118194e-001	 1.9815925970e+000	-7.8965802050e-001
 6.7567229041e-001	 1.9883327076e+000	-7.6802066450e-001
 6.5613290586e-001	 1.9948658125e+000	-7.4470734950e-001
 6.3657613707e-001	 2.0011923500e+000	-7.1968959406e-001
 6.1700506920e-001	 2.0073128168e+000	-6.4776918576e-001
 5.9742276253e-001	 2.0132277673e+000	-5.1128879343e-001
 5.7783225119e-001	 2.0189378122e+000	-3.7643189909e-001
 7.8220125782e-001	 1.9758001398e+000	-8.4213531982e-001
 7.6256483512e-001	 1.9834615883e+000	-8.2063269366e-001
 7.4289488039e-001	 1.9909124031e+000	-7.9806259978e-001
 7.2319462137e-001	 1.9981527819e+000	-7.7439146820e-001
 7.0346726743e-001	 2.0051829851e+000	-7.4958934919e-001
 6.8371600815e-001	 2.0120033350e+000	-7.2362983138e-001
 6.6394401188e-001	 2.0186142150e+000	-6.9648995243e-001
 6.4415442441e-001	 2.0250160685e+000	-6.6815010292e-001
 6.2435036764e-001	 2.0312093980e+000	-6.3473079191e-001
 6.0453493827e-001	 2.0371947645e+000	-4.8783315948e-001
 5.8471120656e-001	 2.0429727862e+000	-3.4266687628e-001
 7.9140362556e-001	 1.9990448473e+000	-8.2390681338e-001
 7.7153618612e-001	 2.0067964305e+000	-7.9661056806e-001
 7.5163482016e-001	 2.0143349019e+000	-7.6868236153e-001
 7.3170279338e-001	 2.0216604616e+000	-7.4009916229e-001
 7.1174335293e-001	 2.0287733731e+000	-7.1084116044e-001
 6.9175972589e-001	 2.0356739625e+000	-6.8089167893e-001
 6.7175511790e-001	 2.0423626176e+000	-6.5023707778e-001
 6.5173271175e-001	 2.0488397869e+000	-6.1886665204e-001
 6.3169566608e-001	 2.0551059791e+000	-5.8677252371e-001
 6.1164711402e-001	 2.0611617617e+000	-4.7226363445e-001
 5.9159016193e-001	 2.0670077601e+000	-3.1811811457e-001
 8.0060599330e-001	 2.0222895548e+000	-8.0554580929e-001
 7.8050753712e-001	 2.0301312727e+000	-7.7284956692e-001
 7.6037475992e-001	 2.0377574008e+000	-7.3993692653e-001
 7.4021096540e-001	 2.0451681414e+000	-7.0679536532e-001
 7.2001943843e-001	 2.0523637612e+000	-6.7341520087e-001
 6.9980344363e-001	 2.0593445900e+000	-6.3978949516e-001
 6.7956622392e-001	 2.0661110201e+000	-6.0591395213e-001
 6.5931099910e-001	 2.0726635054e+000	-5.7178680928e-001
 6.3904096452e-001	 2.0790025603e+000	-5.3740872384e-001
 6.1875928976e-001	 2.0851287589e+000	-4.6334859633e-001
 5.9846911730e-001	 2.0910427341e+000	-3.0158191343e-001
 8.0980836103e-001	 2.0455342623e+000	-7.8713547677e-001
 7.8947888812e-001	 2.0534661149e+000	-7.4941367300e-001
 7.6911469969e-001	 2.0611798997e+000	-7.1187144134e-001
 7.4871913741e-001	 2.0686758212e+000	-6.7450674419e-001
 7.2829552392e-001	 2.0759541493e+000	-6.3732002028e-001
 7.0784716137e-001	 2.0830152175e+000	-6.0031408124e-001
 6.8737732993e-001	 2.0898594226e+000	-5.6349400209e-001
 6.6688928644e-001	 2.0964872238e+000	-5.2686700618e-001
 6.4638626296e-001	 2.1028991414e+000	-4.9044234523e-001
 6.2587146550e-001	 2.1090957562e+000	-4.5423117476e-001
 6.0534807266e-001	 2.1150777080e+000	-2.9186528616e-001
 8.1901072877e-001	 2.0687789699e+000	-7.6876251070e-001
 7.9845023912e-001	 2.0768009572e+000	-7.2637115047e-001
 7.7785463946e-001	 2.0846023985e+000	-6.8453606850e-001
 7.5722730942e-001	 2.0921835010e+000	-6.4326569501e-001
 7.3657160942e-001	 2.0995445373e+000	-6.0257058948e-001
 7.1589087911e-001	 2.1066858449e+000	-5.6246332946e-001
 6.9518843595e-001	 2.1136078252e+000	-5.2295839366e-001
 6.7446757378e-001	 2.1203109423e+000	-4.8407203999e-001
 6.5373156140e-001	 2.1267957226e+000	-4.4582217895e-001
 6.3298364124e-001	 2.1330627534e+000	-4.0822824305e-001
 6.1222702803e-001	 2.1391126820e+000	-2.8778535801e-001
 8.2821309651e-001	 2.0920236774e+000	-7.5051693578e-001
 8.0742159012e-001	 2.1001357994e+000	-7.0379430703e-001
 7.8659457923e-001	 2.1080248974e+000	-6.5798570787e-001
 7.6573548144e-001	 2.1156911808e+000	-6.1311002484e-001
 7.4484769492e-001	 2.1231349254e+000	-5.6918794353e-001
 7.2393459685e-001	 2.1303564724e+000	-5.2624182920e-001
 7.0299954197e-001	 2.1373562277e+000	-4.8429560226e-001
 6.8204586113e-001	 2.1441346607e+000	-4.4337460890e-001
 6.6107685984e-001	 2.1506923038e+000	-4.0350548769e-001
 6.4009581698e-001	 2.1570297506e+000	-3.6471603247e-001
 6.1910598340e-001	 2.1631476559e+000	-2.8816880438e-001
 5.5031642970e-001	 1.9227979164e+000	-6.2814109439e-001
 5.3165384949e-001	 1.9280415411e+000	-6.3574886393e-001
 5.1298915537e-001	 1.9330913394e+000	-6.3465578117e-001
 4.9432515561e-001	 1.9379480490e+000	-6.2490011555e-001
 4.7566462918e-001	 1.9426124576e+000	-6.0655372257e-001
 4.5701032483e-001	 1.9470854021e+000	-5.7972225216e-001
 4.3836496008e-001	 1.9513677669e+000	-5.4454527364e-001
 4.1973122034e-001	 1.9554604835e+000	-5.0119631803e-001
 4.0111175798e-001	 1.9593645290e+000	-4.4988283923e-001
 3.8250919152e-001	 1.9630809251e+000	-3.9084609554e-001
 3.6392610484e-001	 1.9666107368e+000	-3.2436095303e-001
 5.5719538508e-001	 1.9468328903e+000	-5.4523613516e-001
 5.3829952261e-001	 1.9521420604e+000	-5.4666842464e-001
 5.1940151982e-001	 1.9572549812e+000	-5.4079626796e-001
 5.0050422005e-001	 1.9621723996e+000	-5.2760333193e-001
 4.8161043705e-001	 1.9668951134e+000	-5.0710725284e-001
 4.6272295389e-001	 1.9714239696e+000	-4.7935992731e-001
 4.4384452209e-001	 1.9757598640e+000	-4.4444771581e-001
 4.2497786060e-001	 1.9799037396e+000	-4.0249156017e-001
 4.0612565496e-001	 1.9838565856e+000	-3.5364701610e-001
 3.8729055642e-001	 1.9876194366e+000	-2.9810420231e-001
 3.6847518115e-001	 1.9911933711e+000	-2.3608766777e-001
 5.6407434045e-001	 1.9708678643e+000	-4.7648301897e-001
 5.4494519573e-001	 1.9762425797e+000	-4.7206033412e-001
 5.2581388426e-001	 1.9814186229e+000	-4.6166137718e-001
 5.0668328450e-001	 1.9863967502e+000	-4.4521425291e-001
 4.8755624491e-001	 1.9911777691e+000	-4.2268149400e-001
 4.6843558295e-001	 1.9957625371e+000	-3.9406043467e-001
 4.4932408409e-001	 2.0001519611e+000	-3.5938349358e-001
 4.3022450086e-001	 2.0043469956e+000	-3.1871836667e-001
 4.1113955194e-001	 2.0083486423e+000	-2.7216813128e-001
 3.9207192132e-001	 2.0121579482e+000	-2.1987126298e-001
 3.7302425746e-001	 2.0157760053e+000	-1.6200156662e-001
 5.7095329582e-001	 1.9949028382e+000	-4.2062824277e-001
 5.5159086884e-001	 2.0003430989e+000	-4.1072786159e-001
 5.3222624870e-001	 2.0055822646e+000	-3.9611243720e-001
 5.1286234895e-001	 2.0106211008e+000	-3.7665350119e-001
 4.9350205278e-001	 2.0154604248e+000	-3.5225754645e-001
 4.7414821202e-001	 2.0201011047e+000	-3.2286648446e-001
 4.5480364609e-001	 2.0245440582e+000	-2.8845800789e-001
 4.3547114111e-001	 2.0287902517e+000	-2.4904585929e-001
 4.1615344891e-001	 2.0328406989e+000	-2.0468000704e-001
 3.9685328622e-001	 2.0366964598e+000	-1.5544672998e-001
 3.7757333378e-001	 2.0403586395e+000	-1.0146861227e-001
 5.7783225119e-001	 2.0189378122e+000	-3.7643189909e-001
 5.5823654196e-001	 2.0244436182e+000	-3.6148710454e-001
 5.3863861314e-001	 2.0297459064e+000	-3.4302275973e-001
 5.1904141339e-001	 2.0348454514e+000	-3.2085276103e-001
 4.9944786064e-001	 2.0397430805e+000	-2.9482657478e-001
 4.7986084108e-001	 2.0444396722e+000	-2.6482977893e-001
 4.6028320810e-001	 2.0489361553e+000	-2.3078450595e-001
 4.4071778137e-001	 2.0532335077e+000	-1.9264978775e-001
 4.2116734589e-001	 2.0573327555e+000	-1.5042180383e-001
 4.0163465111e-001	 2.0612349713e+000	-1.0413403386e-001
 3.8212241009e-001	 2.0649412737e+000	-5.3857316359e-002
 5.8471120656e-001	 2.0429727862e+000	-3.4266687628e-001
 5.6488221508e-001	 2.0485441375e+000	-3.2316623412e-001
 5.4505097759e-001	 2.0539095481e+000	-3.0127693485e-001
 5.2522047784e-001	 2.0590698020e+000	-2.7675412763e-001
 5.0539366851e-001	 2.0640257362e+000	-2.4938921576e-001
 4.8557347014e-001	 2.0687782397e+000	-2.1901048347e-001
 4.6576277010e-001	 2.0733282524e+000	-1.8548361970e-001
 4.4596442162e-001	 2.0776767638e+000	-1.4871213984e-001
 4.2618124287e-001	 2.0818248121e+000	-1.0863770628e-001
 4.0641601601e-001	 2.0857734829e+000	-6.5240349277e-002
 3.8667148640e-001	 2.0895239079e+000	-1.8538589473e-002
 5.9159016193e-001	 2.0670077601e+000	-3.1811811457e-001
 5.7152788820e-001	 2.0726446567e+000	-2.9460479321e-001
 5.5146334203e-001	 2.0780731899e+000	-2.6977017533e-001
 5.3139954228e-001	 2.0832941527e+000	-2.4330950179e-001
 5.1133947637e-001	 2.0883083920e+000	-2.1495502759e-001
 4.9128609920e-001	 2.0931168073e+000	-1.8447673449e-001
 4.7124233210e-001	 2.0977203495e+000	-1.5168293647e-001
 4.5121106188e-001	 2.1021200198e+000	-1.1642077871e-001
 4.3119513984e-001	 2.1063168687e+000	-7.8576631067e-002
 4.1119738090e-001	 2.1103119945e+000	-3.8076377307e-002
 3.9122056271e-001	 2.1141065421e+000	 5.1143982905e-003
 5.9846911730e-001	 2.0910427341e+000	-3.0158191343e-001
 5.7817356131e-001	 2.0967451760e+000	-2.7465304284e-001
 5.5787570647e-001	 2.1022368316e+000	-2.4740770611e-001
 5.3757860672e-001	 2.1075185033e+000	-2.1948002644e-001
 5.1728528424e-001	 2.1125910477e+000	-1.9054197721e-001
 4.9699872826e-001	 2.1174553748e+000	-1.6030418136e-001
 4.7672189410e-001	 2.1221124465e+000	-1.2851659922e-001
 4.5645770213e-001	 2.1265632759e+000	-9.4969105265e-002
 4.3620903682e-001	 2.1308089253e+000	-5.9491954974e-002
 4.1597874580e-001	 2.1348505060e+000	-2.1956142776e-002
 3.9576963903e-001	 2.1386891763e+000	 1.7726347192e-002
 6.0534807266e-001	 2.1150777080e+000	-2.9186528616e-001
 5.8481923443e-001	 2.1208456953e+000	-2.6217135323e-001
 5.6428807091e-001	 2.1264004734e+000	-2.3310419543e-001
 5.4375767117e-001	 2.1317428539e+000	-2.0423556144e-001
 5.2323109210e-001	 2.1368737034e+000	-1.7517596251e-001
 5.0271135732e-001	 2.1417939423e+000	-1.4557555956e-001
 4.8220145610e-001	 2.1465045436e+000	-1.1512493409e-001
 4.6170434238e-001	 2.1510065319e+000	-8.3555743463e-002
 4.4122293379e-001	 2.1553009819e+000	-5.0641261477e-002
 4.2076011069e-001	 2.1593890176e+000	-1.6196805417e-002
 4.0031871534e-001	 2.1632718105e+000	 1.9919948850e-002
 6.1222702803e-001	 2.1391126820e+000	-2.8778535801e-001
 5.9146490754e-001	 2.1449462145e+000	-2.5602963582e-001
 5.7070043534e-001	 2.1505641151e+000	-2.2578322433e-001
 5.4993673561e-001	 2.1559672045e+000	-1.9655419394e-001
 5.2917689996e-001	 2.1611563591e+000	-1.6789036679e-001
 5.0842398637e-001	 2.1661325098e+000	-1.3938029251e-001
 4.8768101810e-001	 2.1708966407e+000	-1.1065410301e-001
 4.6695098264e-001	 2.1754497879e+000	-8.1384246918e-002
 4.4623683076e-001	 2.1797930386e+000	-5.1286104411e-002
 4.2554147558e-001	 2.1839275292e+000	-2.0118483747e-002
 4.0486779165e-001	 2.1878544447e+000	 1.2315999086e-002
 6.1910598340e-001	 2.1631476559e+000	-2.8816880438e-001
 5.9811058066e-001	 2.1690467338e+000	-2.5510681325e-001
 5.7711279978e-001	 2.1747277568e+000	-2.2437679145e-001
 5.5611580005e-001	 2.1801915551e+000	-1.9542178124e-001
 5.3512270782e-001	 2.1854390149e+000	-1.6772564289e-001
 5.1413661543e-001	 2.1904710774e+000	-1.4081412010e-001
 4.9316058010e-001	 2.1952887378e+000	-1.1425577952e-001
 4.7219762289e-001	 2.1998930440e+000	-8.7662825021e-002
 4.5125072774e-001	 2.2042850952e+000	-6.0691787392e-002
 4.3032284048e-001	 2.2084660407e+000	-3.3044090693e-002
 4.0941686796e-001	 2.2124370789e+000	-4.4664967521e-003
 3.6392610484e-001	 1.9666107368e+000	-3.2436095303e-001
 3.4536504635e-001	 1.9699550718e+000	-2.9173631430e-001
 3.2682852835e-001	 1.9731150785e+000	-2.5466999036e-001
 3.0831902626e-001	 1.9760919458e+000	-2.1346431951e-001
 2.8983897805e-001	 1.9788869010e+000	-1.6845302490e-001
 2.7139078356e-001	 1.9815012093e+000	-1.2000073962e-001
 2.5297680396e-001	 1.9839361725e+000	-6.8502466614e-002
 2.3459936123e-001	 1.9861931275e+000	-1.4382975764e-002
 2.1626073764e-001	 1.9882734453e+000	 4.1903858764e-002
 1.9796317532e-001	 1.9901785300e+000	 9.9875778283e-002
 1.7970887579e-001	 1.9919098172e+000	 1.5902291337e-001
 3.6847518115e-001	 1.9911933711e+000	-2.3608766777e-001
 3.4968210943e-001	 1.9945795102e+000	-2.0672099509e-001
 3.3091388495e-001	 1.9977790170e+000	-1.7344063351e-001
 3.1217301410e-001	 2.0007930951e+000	-1.3650675616e-001
 2.9346196528e-001	 2.0036229872e+000	-9.6212156530e-002
 2.7478316835e-001	 2.0062699745e+000	-5.2881809413e-002
 2.5613901401e-001	 2.0087353747e+000	-6.8723628455e-003
 2.3753185325e-001	 2.0110205416e+000	 4.1428436383e-002
 2.1896399687e-001	 2.0131268634e+000	 9.1602380751e-002
 2.0043771501e-001	 2.0150557616e+000	 1.4320150063e-001
 1.8195523674e-001	 2.0168086899e+000	 1.9574882052e-001
 3.7302425746e-001	 2.0157760053e+000	-1.6200156662e-001
 3.5399917252e-001	 2.0192039486e+000	-1.3559927555e-001
 3.3499924156e-001	 2.0224429555e+000	-1.0574524834e-001
 3.1602700193e-001	 2.0254942444e+000	-7.2657173951e-002
 2.9708495251e-001	 2.0283590735e+000	-3.6586669249e-002
 2.7817555315e-001	 2.0310387396e+000	 2.1811246200e-003
 2.5930122406e-001	 2.0335345769e+000	 4.3328018883e-002
 2.4046434526e-001	 2.0358479557e+000	 8.6503323975e-002
 2.2166725609e-001	 2.0379802815e+000	 1.3132446369e-001
 2.0291225470e-001	 2.0399329932e+000	 1.7737765361e-001
 1.8420159768e-001	 2.0417075627e+000	 2.2421864077e-001
 3.7757333378e-001	 2.0403586395e+000	-1.0146861227e-001
 3.5831623560e-001	 2.0438283870e+000	-7.7800761339e-002
 3.3908459817e-001	 2.0471068940e+000	-5.1077563594e-002
 3.1988098976e-001	 2.0501953937e+000	-2.1473861197e-002
 3.0070793974e-001	 2.0530951598e+000	 1.0800195369e-002
 2.8156793795e-001	 2.0558075047e+000	 4.5499516082e-002
 2.6246343411e-001	 2.0583337790e+000	 8.2344517132e-002
 2.4339683728e-001	 2.0606753698e+000	 1.2102164082e-001
 2.2437051531e-001	 2.0628336995e+000	 1.6118394661e-001
 2.0538679439e-001	 2.0648102249e+000	 2.0245177031e-001
 1.8644795863e-001	 2.0666064354e+000	 2.4441344811e-001
 3.8212241009e-001	 2.0649412737e+000	-5.3857316359e-002
 3.6263329868e-001	 2.0684528254e+000	-3.2756286004e-002
 3.4316995478e-001	 2.0717708325e+000	-8.9311625295e-003
 3.2373497759e-001	 2.0748965430e+000	 1.7486463867e-002
 3.0433092696e-001	 2.0778312460e+000	 4.6328240712e-002
 2.8496032274e-001	 2.0805762698e+000	 7.7389387610e-002
 2.6562564417e-001	 2.0831329812e+000	 1.1042911167e-001
 2.4632932930e-001	 2.0855027839e+000	 1.4517110114e-001
 2.2707377453e-001	 2.0876871176e+000	 1.8130409413e-001
 2.0786133409e-001	 2.0896874565e+000	 2.1848251941e-001
 1.8869431958e-001	 2.0915053081e+000	 2.5632720580e-001
 3.8667148640e-001	 2.0895239079e+000	-1.8538589473e-002
 3.6695036176e-001	 2.0930772638e+000	 1.0216124501e-004
 3.4725531138e-001	 2.0964347709e+000	 2.1200508474e-002
 3.2758896542e-001	 2.0995976924e+000	 4.4668560736e-002
 3.0795391419e-001	 2.1025673323e+000	 7.0380136016e-002
 2.8835270754e-001	 2.1053450349e+000	 9.8171062107e-002
 2.6878785422e-001	 2.1079321833e+000	 1.2783956225e-001
 2.4926182132e-001	 2.1103301980e+000	 1.5914672312e-001
 2.2977703375e-001	 2.1125405357e+000	 1.9181704203e-001
 2.1033587378e-001	 2.1145646881e+000	 2.2553905014e-001
 1.9094068053e-001	 2.1164041808e+000	 2.5996600821e-001
 3.9122056271e-001	 2.1141065421e+000	 5.1143982905e-003
 3.7126742484e-001	 2.1177017022e+000	 2.1341502726e-002
 3.5134066799e-001	 2.1210987094e+000	 3.9824131977e-002
 3.3144295325e-001	 2.1242988417e+000	 6.0518580717e-002
 3.1157690142e-001	 2.1273034185e+000	 8.3341249748e-002
 2.9174509234e-001	 2.1301138000e+000	 1.0816891273e-001
 2.7195006427e-001	 2.1327313855e+000	 1.3483907252e-001
 2.5219431333e-001	 2.1351576121e+000	 1.6315040420e-001
 2.3248029298e-001	 2.1373939537e+000	 1.9286328143e-001
 2.1281041347e-001	 2.1394419197e+000	 2.2370038292e-001
 1.9318704148e-001	 2.1413030535e+000	 2.5534737552e-001
 3.9576963903e-001	 2.1386891763e+000	 1.7726347192e-002
 3.7558448792e-001	 2.1423261406e+000	 3.1527634841e-002
 3.5542602459e-001	 2.1457626479e+000	 4.7446512066e-002
 3.3529694108e-001	 2.1489999910e+000	 6.5483986941e-002
 3.1519988865e-001	 2.1520395048e+000	 8.5599494476e-002
 2.9513747713e-001	 2.1548825652e+000	 1.0771113009e-001
 2.7511227432e-001	 2.1575305876e+000	 1.3169597720e-001
 2.5512680535e-001	 2.1599850262e+000	 1.5739052578e-001
 2.3518355220e-001	 2.1622473718e+000	 1.8459117866e-001
 2.1528495317e-001	 2.1643191514e+000	 2.1305484209e-001
 1.9543340243e-001	 2.1662019262e+000	 2.4249959705e-001
 4.0031871534e-001	 2.1632718105e+000	 1.9919948850e-002
 3.7990155100e-001	 2.1669505789e+000	 3.1225486366e-002
 3.5951138120e-001	 2.1704265864e+000	 4.4574567450e-002
 3.3915092891e-001	 2.1737011403e+000	 6.0013479827e-002
 3.1882287587e-001	 2.1767755911e+000	 7.7545182318e-002
 2.9852986193e-001	 2.1796513303e+000	 9.7129505411e-002
 2.7827448437e-001	 2.1823297898e+000	 1.1868345052e-001
 2.5805929737e-001	 2.1848124402e+000	 1.4208158475e-001
 2.3788681142e-001	 2.1871007899e+000	 1.6715652775e-001
 2.1775949286e-001	 2.1891963830e+000	 1.9369952724e-001
 1.9767976337e-001	 2.1911007990e+000	 2.2146111937e-001
 4.0486779165e-001	 2.1878544447e+000	 1.2315999086e-002
 3.8421861408e-001	 2.1915750173e+000	 2.0999072813e-002
 3.6359673781e-001	 2.1950905249e+000	 3.1715325020e-002
 3.4300491674e-001	 2.1984022896e+000	 4.4556927572e-002
 3.2244586310e-001	 2.2015116773e+000	 5.9570890137e-002
 3.0192224673e-001	 2.2044200954e+000	 7.6759228179e-002
 2.8143669442e-001	 2.2071289919e+000	 9.6079234346e-002
 2.6099178938e-001	 2.2096398543e+000	 1.1744384996e-001
 2.4059007064e-001	 2.2119542079e+000	 1.4072213320e-001
 2.2023403255e-001	 2.2140736146e+000	 1.6573982024e-001
 1.9992612432e-001	 2.2159996717e+000	 1.9227997571e-001
 4.0941686796e-001	 2.2124370789e+000	-4.4664967521e-003
 3.8853567716e-001	 2.2161994557e+000	 1.4115471669e-003
 3.6768209441e-001	 2.2197544633e+000	 9.3759138404e-003
 3.4685890457e-001	 2.2231034390e+000	 1.9565301274e-002
 3.2606885033e-001	 2.2262477636e+000	 3.2071333720e-002
 3.0531463152e-001	 2.2291888605e+000	 4.6938697396e-002
 2.8459890447e-001	 2.2319281941e+000	 6.4165384413e-002
 2.6392428140e-001	 2.2344672684e+000	 8.3703041573e-002
 2.4329332986e-001	 2.2368076260e+000	 1.0545742046e-001
 2.2270857224e-001	 2.2389508462e+000	 1.2928892511e-001
 2.0217248527e-001	 2.2408985444e+000	 1.5501325333e-001
 1.7970887579e-001	 1.9919098172e+000	 1.5902291337e-001
 1.6149999964e-001	 1.9934687733e+000	 1.8870982793e-001
 1.4333866613e-001	 1.9948568938e+000	 2.2358012217e-001
 1.2522695292e-001	 1.9960757025e+000	 2.6290837510e-001
 1.0716689577e-001	 1.9971267502e+000	 3.0594369643e-001
 8.9160488287e-002	 1.9980116134e+000	 3.5191088791e-001
 7.1209681760e-002	 1.9987318933e+000	 4.0001163718e-001
 5.3316384950e-002	 1.9992892145e+000	 4.4942574093e-001
 3.5482463963e-002	 1.9996852239e+000	 4.9931235390e-001
 1.7709742145e-002	 1.9999215897e+000	 5.4881126043e-001
 0.0000000000e+000	 2.0000000000e+000	 5.9704416531e-001
 1.8195523674e-001	 2.0168086899e+000	 1.9574882052e-001
 1.6351874963e-001	 2.0183871330e+000	 2.1446467872e-001
 1.4513039946e-001	 2.0197926050e+000	 2.3781705784e-001
 1.2679228983e-001	 2.0210266488e+000	 2.6512837548e-001
 1.0850648196e-001	 2.0220908346e+000	 2.9569405195e-001
 9.0274994390e-002	 2.0229867586e+000	 3.2878365511e-001
 7.2099802782e-002	 2.0237160419e+000	 3.6364208121e-001
 5.3982839761e-002	 2.0242803297e+000	 3.9949076838e-001
 3.5925994762e-002	 2.0246812892e+000	 4.3552893916e-001
 1.7931113921e-002	 2.0249206096e+000	 4.7093486882e-001
 0.0000000000e+000	 2.0250000000e+000	 5.0486717585e-001
 1.8420159768e-001	 2.0417075627e+000	 2.2421864077e-001
 1.6553749963e-001	 2.0433054926e+000	 2.3369196427e-001
 1.4692213278e-001	 2.0447283162e+000	 2.4732820343e-001
 1.2835762674e-001	 2.0459775951e+000	 2.6449687392e-001
 1.0984606816e-001	 2.0470549190e+000	 2.8453890563e-001
 9.1389500493e-002	 2.0479619037e+000	 3.0676777262e-001
 7.2989923804e-002	 2.0487001906e+000	 3.3047066273e-001
 5.4649294573e-002	 2.0492714448e+000	 3.5490968305e-001
 3.6369525562e-002	 2.0496773545e+000	 3.7932309796e-001
 1.8152485698e-002	 2.0499196295e+000	 4.0292659591e-001
 0.0000000000e+000	 2.0500000000e+000	 4.2491458162e-001
 1.8644795863e-001	 2.0666064354e+000	 2.4441344811e-001
 1.6755624962e-001	 2.0682238523e+000	 2.4627840031e-001
 1.4871386611e-001	 2.0696640273e+000	 2.5190557691e-001
 1.2992296366e-001	 2.0709285414e+000	 2.6071089997e-001
 1.1118565436e-001	 2.0720190034e+000	 2.7208005569e-001
 9.2504006597e-002	 2.0729370489e+000	 2.8536961121e-001
 7.3880044825e-002	 2.0736843393e+000	 2.9990817460e-001
 5.5315749384e-002	 2.0742625600e+000	 3.1499759418e-001
 3.6813056361e-002	 2.0746734198e+000	 3.2991419374e-001
 1.8373857475e-002	 2.0749186493e+000	 3.4391003977e-001
 0.0000000000e+000	 2.0750000000e+000	 3.5621423715e-001
 1.8869431958e-001	 2.0915053081e+000	 2.5632720580e-001
 1.6957499962e-001	 2.0931422120e+000	 2.5212671116e-001
 1.5050559944e-001	 2.0945997385e+000	 2.5136037806e-001
 1.3148830057e-001	 2.0958794877e+000	 2.5348989021e-001
 1.1252524055e-001	 2.0969830877e+000	 2.5794498290e-001
 9.3618512700e-002	 2.0979121941e+000	 2.6412454821e-001
 7.4770165847e-002	 2.0986684879e+000	 2.7139778704e-001
 5.5982204196e-002	 2.0992536752e+000	 2.7910540410e-001
 3.7256587160e-002	 2.0996694851e+000	 2.8656084203e-001
 1.8595229251e-002	 2.0999176692e+000	 2.9305155096e-001
 0.0000000000e+000	 2.1000000000e+000	 2.9784028960e-001
 1.9094068053e-001	 2.1164041808e+000	 2.5996600821e-001
 1.7159374962e-001	 2.1180605716e+000	 2.5115468810e-001
 1.5229733276e-001	 2.1195354497e+000	 2.4552186008e-001
 1.3305363748e-001	 2.1208304339e+000	 2.4257437016e-001
 1.1386482675e-001	 2.1219471721e+000	 2.4178533983e-001
 9.4733018803e-002	 2.1228873393e+000	 2.4259526125e-001
 7.5660286868e-002	 2.1236526366e+000	 2.4441314309e-001
 5.6648659007e-002	 2.1242447904e+000	 2.4661770280e-001
 3.7700117959e-002	 2.1246655504e+000	 2.4855860152e-001
 1.8816601028e-002	 2.1249166891e+000	 2.4955771774e-001
 0.0000000000e+000	 2.1250000000e+000	 2.4891045569e-001
 1.9318704148e-001	 2.1413030535e+000	 2.5534737552e-001
 1.7361249961e-001	 2.1429789313e+000	 2.4329431334e-001
 1.5408906609e-001	 2.1444711609e+000	 2.3423627999e-001
 1.3461897439e-001	 2.1457813802e+000	 2.2772472821e-001
 1.1520441295e-001	 2.1469112565e+000	 2.2327554550e-001
 9.5847524906e-002	 2.1478624844e+000	 2.2037014106e-001
 7.6550407890e-002	 2.1486367853e+000	 2.1845658691e-001
 5.7315113819e-002	 2.1492359056e+000	 2.1695080931e-001
 3.8143648758e-002	 2.1496616157e+000	 2.1523782617e-001
 1.9037972804e-002	 2.1499157090e+000	 2.1267302661e-001
 0.0000000000e+000	 2.1500000000e+000	 2.0858348857e-001
 1.9543340243e-001	 2.1662019262e+000	 2.4249959705e-001
 1.7563124961e-001	 2.1678972910e+000	 2.2849094447e-001
 1.5588079942e-001	 2.1694068720e+000	 2.1736592142e-001
 1.3618431130e-001	 2.1707323265e+000	 2.0872007403e-001
 1.1654399914e-001	 2.1718753409e+000	 2.0211147698e-001
 9.6962031009e-002	 2.1728376296e+000	 1.9706181365e-001
 7.7440528911e-002	 2.1736209339e+000	 1.9305751431e-001
 5.7981568630e-002	 2.1742270207e+000	 1.8955094825e-001
 3.8587179558e-002	 2.1746576810e+000	 1.8596166552e-001
 1.9259344581e-002	 2.1749147288e+000	 1.8167768429e-001
 0.0000000000e+000	 2.1750000000e+000	 1.7605681940e-001
 1.9767976337e-001	 2.1911007990e+000	 2.2146111937e-001
 1.7764999960e-001	 2.1928156506e+000	 2.0670255449e-001
 1.5767253274e-001	 2.1943425832e+000	 1.9478818398e-001
 1.3774964821e-001	 2.1956832728e+000	 1.8535717491e-001
 1.1788358534e-001	 2.1968394252e+000	 1.7800925017e-001
 9.8076537113e-002	 2.1978127748e+000	 1.7230576337e-001
 7.8330649933e-002	 2.1986050826e+000	 1.6777083572e-001
 5.8648023441e-002	 2.1992181359e+000	 1.6389255056e-001
 3.9030710357e-002	 2.1996537463e+000	 1.6012420128e-001
 1.9480716358e-002	 2.1999137487e+000	 1.5588558813e-001
 0.0000000000e+000	 2.2000000000e+000	 1.5056435974e-001
 1.9992612432e-001	 2.2159996717e+000	 1.9227997571e-001
 1.7966874960e-001	 2.2177340103e+000	 1.7789902310e-001
 1.5946426607e-001	 2.2192782944e+000	 1.6639473405e-001
 1.3931498512e-001	 2.2206342191e+000	 1.5744946372e-001
 1.1922317154e-001	 2.2218035096e+000	 1.5070408279e-001
 9.9191043216e-002	 2.2227879199e+000	 1.4575904869e-001
 7.9220770954e-002	 2.2235892313e+000	 1.4217554276e-001
 5.9314478253e-002	 2.2242092511e+000	 1.3947666896e-001
 3.9474241156e-002	 2.2246498116e+000	 1.3714870956e-001
 1.9702088134e-002	 2.2249127686e+000	 1.3464243339e-001
 0.0000000000e+000	 2.2250000000e+000	 1.3137445210e-001
 2.0217248527e-001	 2.2408985444e+000	 1.5501325333e-001
 1.8168749959e-001	 2.2426523700e+000	 1.4206147517e-001
 1.6125599940e-001	 2.2442140055e+000	 1.3209071219e-001
 1.4088032204e-001	 2.2455851654e+000	 1.2482611307e-001
 1.2056275773e-001	 2.2467675940e+000	 1.1994923319e-001
 1.0030554932e-001	 2.2477630651e+000	 1.1709910366e-001
 8.0110891976e-002	 2.2485733799e+000	 1.1587337046e-001
 5.9980933064e-002	 2.2492003663e+000	 1.1582949891e-001
 3.9917771955e-002	 2.2496458769e+000	 1.1648603899e-001
 1.9923459911e-002	 2.2499117884e+000	 1.1732394672e-001
 0.0000000000e+000	 2.2500000000e+000	 1.1778795711e-001
 2.2500000000e+000	 0.0000000000e+000	 2.4128317415e+000
 2.2499117884e+000	 1.9923459911e-002	 2.4159454497e+000
 2.2496458769e+000	 3.9917771955e-002	 2.4167135705e+000
 2.2492003663e+000	 5.9980933064e-002	 2.4146794689e+000
 2.2485733799e+000	 8.0110891976e-002	 2.4094137304e+000
 2.2477630651e+000	 1.0030554932e-001	 2.4005155381e+000
 2.2467675940e+000	 1.2056275773e-001	 2.3876140281e+000
 2.2455851654e+000	 1.4088032204e-001	 2.3703696204e+000
 2.2442140055e+000	 1.6125599940e-001	 2.3484753211e+000
 2.2426523700e+000	 1.8168749959e-001	 2.3216579920e+000
 2.2408985444e+000	 2.0217248527e-001	 2.2896795841e+000
 2.2750000000e+000	 0.0000000000e+000	 2.3589131621e+000
 2.2749108083e+000	 2.0144831687e-002	 2.3601411458e+000
 2.2746419422e+000	 4.0361302754e-002	 2.3592155359e+000
 2.2741914815e+000	 6.0647387876e-002	 2.3556824964e+000
 2.2735575286e+000	 8.1001012998e-002	 2.3491162445e+000
 2.2727382103e+000	 1.0142005542e-001	 2.3391204522e+000
 2.2717316784e+000	 1.2190234393e-001	 2.3253296257e+000
 2.2705361116e+000	 1.4244565895e-001	 2.3074104582e+000
 2.2691497167e+000	 1.6304773272e-001	 2.2850631530e+000
 2.2675707296e+000	 1.8370624959e-001	 2.2580227126e+000
 2.2657974171e+000	 2.0441884622e-001	 2.2260601901e+000
 2.3000000000e+000	 0.0000000000e+000	 2.3054205825e+000
 2.2999098282e+000	 2.0366203464e-002	 2.3055638588e+000
 2.2996380075e+000	 4.0804833554e-002	 2.3036891091e+000
 2.2991825966e+000	 6.1313842688e-002	 2.2993444836e+000
 2.2985416773e+000	 8.1891134020e-002	 2.2921070617e+000
 2.2977133554e+000	 1.0253456153e-001	 2.2815842802e+000
 2.2966957628e+000	 1.2324193013e-001	 2.2674153374e+000
 2.2954870579e+000	 1.4401099586e-001	 2.2492725704e+000
 2.2940854279e+000	 1.6483946605e-001	 2.2268628007e+000
 2.2924890893e+000	 1.8572499959e-001	 2.1999286443e+000
 2.2906962898e+000	 2.0666520717e-001	 2.1682497823e+000
 2.3250000000e+000	 0.0000000000e+000	 2.2524008823e+000
 2.3249088481e+000	 2.0587575241e-002	 2.2522457958e+000
 2.3246340728e+000	 4.1248364354e-002	 2.2501519478e+000
 2.3241737118e+000	 6.1980297500e-002	 2.2456686700e+000
 2.3235258259e+000	 8.2781255043e-002	 2.2383751429e+000
 2.3226885006e+000	 1.0364906763e-001	 2.2278818515e+000
 2.3216598471e+000	 1.2458151633e-001	 2.2138320177e+000
 2.3204380042e+000	 1.4557633277e-001	 2.1959030022e+000
 2.3190211390e+000	 1.6663119938e-001	 2.1738076750e+000
 2.3174074490e+000	 1.8774374958e-001	 2.1472957482e+000
 2.3155951625e+000	 2.0891156812e-001	 2.1161550676e+000
 2.3500000000e+000	 0.0000000000e+000	 2.1998989464e+000
 2.3499078679e+000	 2.0808947019e-002	 2.2002176925e+000
 2.3496301381e+000	 4.1691895154e-002	 2.1986207318e+000
 2.3491648270e+000	 6.2646752313e-002	 2.1946577799e+000
 2.3485099746e+000	 8.3671376066e-002	 2.1879093645e+000
 2.3476636458e+000	 1.0476357374e-001	 2.1779883112e+000
 2.3466239315e+000	 1.2592110253e-001	 2.1645412044e+000
 2.3453889505e+000	 1.4714166968e-001	 2.1472498170e+000
 2.3439568502e+000	 1.6842293271e-001	 2.1258325070e+000
 2.3423258086e+000	 1.8976249958e-001	 2.1000455744e+000
 2.3404940352e+000	 2.1115792906e-001	 2.0696845759e+000
 2.3750000000e+000	 0.0000000000e+000	 2.1479577699e+000
 2.3749068878e+000	 2.1030318796e-002	 2.1495088904e+000
 2.3746262034e+000	 4.2135425955e-002	 2.1491112138e+000
 2.3741559422e+000	 6.3313207127e-002	 2.1463140488e+000
 2.3734941233e+000	 8.4561497090e-002	 2.1406985236e+000
 2.3726387909e+000	 1.0587807984e-001	 2.1318791035e+000
 2.3715880159e+000	 1.2726068872e-001	 2.1195050827e+000
 2.3703398968e+000	 1.4870700660e-001	 2.1032620432e+000
 2.3688925614e+000	 1.7021466604e-001	 2.0828732787e+000
 2.3672441683e+000	 1.9178124958e-001	 2.0581011782e+000
 2.3653929079e+000	 2.1340429001e-001	 2.0287485646e+000
 2.4000000000e+000	 0.0000000000e+000	 2.0966185563e+000
 2.3999059077e+000	 2.1251690574e-002	 2.1001474097e+000
 2.3996222687e+000	 4.2578956756e-002	 2.1016382683e+000
 2.3991470574e+000	 6.3979661940e-002	 2.1006392494e+000
 2.3984782719e+000	 8.5451618114e-002	 2.0967313413e+000
 2.3976139361e+000	 1.0699258595e-001	 2.0895299560e+000
 2.3965521003e+000	 1.2860027492e-001	 2.0786864516e+000
 2.3952908430e+000	 1.5027234351e-001	 2.0638896237e+000
 2.3938282726e+000	 1.7200639936e-001	 2.0448671579e+000
 2.3921625279e+000	 1.9379999957e-001	 2.0213870415e+000
 2.3902917807e+000	 2.1565065096e-001	 1.9932589283e+000
 2.4250000000e+000	 0.0000000000e+000	 2.0459208101e+000
 2.4249049275e+000	 2.1473062351e-002	 2.0521600173e+000
 2.4246183340e+000	 4.3022487557e-002	 2.0562159366e+000
 2.4241381725e+000	 6.4646116755e-002	 2.0576347149e+000
 2.4234624206e+000	 8.6341739139e-002	 2.0559964675e+000
 2.4225890813e+000	 1.0810709205e-001	 2.0509168652e+000
 2.4215161846e+000	 1.2993986112e-001	 2.0420486921e+000
 2.4202417893e+000	 1.5183768043e-001	 2.0290833688e+000
 2.4187639837e+000	 1.7379813269e-001	 2.0117524369e+000
 2.4170808876e+000	 1.9581874957e-001	 1.9898289997e+000
 2.4151906534e+000	 2.1789701191e-001	 1.9631291147e+000
 2.4500000000e+000	 0.0000000000e+000	 1.9959024232e+000
 2.4499039474e+000	 2.1694434129e-002	 2.0055722906e+000
 2.4496143993e+000	 4.3466018359e-002	 2.0128574692e+000
 2.4491292877e+000	 6.5312571569e-002	 2.0173013622e+000
 2.4484465693e+000	 8.7231860164e-002	 2.0184824838e+000
 2.4475642264e+000	 1.0922159816e-001	 2.0160160829e+000
 2.4464802690e+000	 1.3127944732e-001	 2.0095557374e+000
 2.4451927356e+000	 1.5340301734e-001	 1.9987949121e+000
 2.4436996949e+000	 1.7558986602e-001	 1.9834684756e+000
 2.4419992473e+000	 1.9783749957e-001	 1.9633541724e+000
 2.4400895261e+000	 2.2014337286e-001	 1.9382740452e+000
 2.4750000000e+000	 0.0000000000e+000	 1.9465997566e+000
 2.4749029673e+000	 2.1915805907e-002	 1.9604086778e+000
 2.4746104646e+000	 4.3909549161e-002	 1.9715753658e+000
 2.4741204029e+000	 6.5979026384e-002	 1.9796397123e+000
 2.4734307179e+000	 8.8121981189e-002	 1.9841779072e+000
 2.4725393716e+000	 1.1033610427e-001	 1.9848041028e+000
 2.4714443534e+000	 1.3261903353e-001	 1.9811720454e+000
 2.4701436819e+000	 1.5496835426e-001	 1.9729766687e+000
 2.4686354061e+000	 1.7738159935e-001	 1.9599556468e+000
 2.4669176069e+000	 1.9985624957e-001	 1.9418908985e+000
 2.4649883988e+000	 2.2238973381e-001	 1.9186100403e+000
 2.5000000000e+000	 0.0000000000e+000	 1.8980477170e+000
 2.4999019872e+000	 2.2137177686e-002	 1.9166925542e+000
 2.4996065299e+000	 4.4353079963e-002	 1.9323814131e+000
 2.4991115181e+000	 6.6645481200e-002	 1.9446499100e+000
 2.4984148666e+000	 8.9012102215e-002	 1.9530711935e+000
 2.4975145168e+000	 1.1145061038e-001	 1.9572576493e+000
 2.4964084378e+000	 1.3395861973e-001	 1.9568625719e+000
 2.4950946282e+000	 1.5653369117e-001	 1.9515817961e+000
 2.4935711173e+000	 1.7917333268e-001	 1.9411552863e+000
 2.4918359666e+000	 2.0187499956e-001	 1.9253686753e+000
 2.4898872715e+000	 2.2463609475e-001	 1.9040547501e+000
 2.2408985444e+000	 2.0217248527e-001	 2.2896795841e+000
 2.2389508462e+000	 2.2270857224e-001	 2.2771363076e+000
 2.2368076260e+000	 2.4329332986e-001	 2.2592991899e+000
 2.2344672684e+000	 2.6392428140e-001	 2.2360389251e+000
 2.2319281941e+000	 2.8459890447e-001	 2.2072655654e+000
 2.2291888605e+000	 3.0531463152e-001	 2.1729295108e+000
 2.2262477636e+000	 3.2606885033e-001	 2.1330224391e+000
 2.2231034390e+000	 3.4685890457e-001	 2.0875781715e+000
 2.2197544633e+000	 3.6768209441e-001	 2.0366734705e+000
 2.2161994557e+000	 3.8853567716e-001	 1.9804287670e+000
 2.2124370789e+000	 4.0941686796e-001	 1.9190088113e+000
 2.2657974171e+000	 2.0441884622e-001	 2.2260601901e+000
 2.2638280779e+000	 2.2518311194e-001	 2.2136687405e+000
 2.2616610440e+000	 2.4599658909e-001	 2.1962784491e+000
 2.2592946825e+000	 2.6685677342e-001	 2.1737704482e+000
 2.2567273962e+000	 2.8776111452e-001	 2.1460661799e+000
 2.2539576256e+000	 3.0870701632e-001	 2.1131283944e+000
 2.2509838498e+000	 3.2969183756e-001	 2.0749620860e+000
 2.2478045883e+000	 3.5071289240e-001	 2.0316153632e+000
 2.2444184018e+000	 3.7176745101e-001	 1.9831802487e+000
 2.2408238941e+000	 3.9285274024e-001	 1.9297934055e+000
 2.2370197131e+000	 4.1396594427e-001	 1.8716367853e+000
 2.2906962898e+000	 2.0666520717e-001	 2.1682497823e+000
 2.2887053095e+000	 2.2765765163e-001	 2.1561336149e+000
 2.2865144621e+000	 2.4869984831e-001	 2.1392501536e+000
 2.2841220966e+000	 2.6978926543e-001	 2.1174906882e+000
 2.2815265984e+000	 2.9092332457e-001	 2.0907878302e+000
 2.2787263907e+000	 3.1209940111e-001	 2.0591165212e+000
 2.2757199361e+000	 3.3331482478e-001	 2.0224949766e+000
 2.2725057376e+000	 3.5456688023e-001	 1.9809855612e+000
 2.2690823403e+000	 3.7585280762e-001	 1.9346955923e+000
 2.2654483325e+000	 3.9716980332e-001	 1.8837780665e+000
 2.2616023474e+000	 4.1851502058e-001	 1.8284323058e+000
 2.3155951625e+000	 2.0891156812e-001	 2.1161550676e+000
 2.3135825411e+000	 2.3013219132e-001	 2.1044272428e+000
 2.3113678802e+000	 2.5140310753e-001	 2.0881004714e+000
 2.3089495107e+000	 2.7272175745e-001	 2.0670759299e+000
 2.3063258005e+000	 2.9408553462e-001	 2.0412971896e+000
 2.3034951558e+000	 3.1549178591e-001	 2.0107512361e+000
 2.3004560224e+000	 3.3693781201e-001	 1.9754694219e+000
 2.2972068869e+000	 3.5842086805e-001	 1.9355283490e+000
 2.2937462788e+000	 3.7993816422e-001	 1.8910506760e+000
 2.2900727709e+000	 4.0148686640e-001	 1.8422058467e+000
 2.2861849816e+000	 4.2306409689e-001	 1.7892107351e+000
 2.3404940352e+000	 2.1115792906e-001	 2.0696845759e+000
 2.3384597727e+000	 2.3260673101e-001	 2.0584478468e+000
 2.3362212982e+000	 2.5410636675e-001	 2.0427175315e+000
 2.3337769248e+000	 2.7565424947e-001	 2.0224044331e+000
 2.3311250027e+000	 2.9724774467e-001	 1.9974628837e+000
 2.3282639210e+000	 3.1888417070e-001	 1.9678917759e+000
 2.3251921086e+000	 3.4056079923e-001	 1.9337355270e+000
 2.3219080362e+000	 3.6227485588e-001	 1.8950849682e+000
 2.3184102172e+000	 3.8402352083e-001	 1.8520781580e+000
 2.3146972093e+000	 4.0580392948e-001	 1.8049011133e+000
 2.3107676158e+000	 4.2761317319e-001	 1.7537884546e+000
 2.3653929079e+000	 2.1340429001e-001	 2.0287485646e+000
 2.3633370043e+000	 2.3508127071e-001	 2.0180954591e+000
 2.3610747163e+000	 2.5680962597e-001	 2.0029913210e+000
 2.3586043389e+000	 2.7858674148e-001	 1.9833563293e+000
 2.3559242049e+000	 3.0040995472e-001	 1.9591553877e+000
 2.3530326861e+000	 3.2227655550e-001	 1.9303991703e+000
 2.3499281949e+000	 3.4418378646e-001	 1.8971450966e+000
 2.3466091856e+000	 3.6612884371e-001	 1.8594982312e+000
 2.3430741557e+000	 3.8810887743e-001	 1.8176121024e+000
 2.3393216477e+000	 4.1012099256e-001	 1.7716894379e+000
 2.3353502500e+000	 4.3216224950e-001	 1.7219828110e+000
 2.3902917807e+000	 2.1565065096e-001	 1.9932589283e+000
 2.3882142360e+000	 2.3755581040e-001	 1.9832718276e+000
 2.3859281344e+000	 2.5951288519e-001	 1.9688135879e+000
 2.3834317530e+000	 2.8151923350e-001	 1.9498135234e+000
 2.3807234070e+000	 3.0357216477e-001	 1.9262469302e+000
 2.3778014512e+000	 3.2566894029e-001	 1.8981361477e+000
 2.3746642811e+000	 3.4780677368e-001	 1.8655515468e+000
 2.3713103349e+000	 3.6998283154e-001	 1.8286124394e+000
 2.3677380942e+000	 3.9219423403e-001	 1.7874879055e+000
 2.3639460861e+000	 4.1443805563e-001	 1.7423975330e+000
 2.3599328842e+000	 4.3671132581e-001	 1.6936120666e+000
 2.4151906534e+000	 2.1789701191e-001	 1.9631291147e+000
 2.4130914676e+000	 2.4003035009e-001	 1.9538803272e+000
 2.4107815524e+000	 2.6221614441e-001	 1.9400777508e+000
 2.4082591671e+000	 2.8445172551e-001	 1.9216596029e+000
 2.4055226092e+000	 3.0673437482e-001	 1.8986114025e+000
 2.4025702163e+000	 3.2906132508e-001	 1.8709670483e+000
 2.3994003674e+000	 3.5142976091e-001	 1.8388098214e+000
 2.3960114842e+000	 3.7383681936e-001	 1.8022733066e+000
 2.3924020327e+000	 3.9627959064e-001	 1.7615422276e+000
 2.3885705245e+000	 4.1875511871e-001	 1.7168531939e+000
 2.3845155184e+000	 4.4126040212e-001	 1.6684953515e+000
 2.4400895261e+000	 2.2014337286e-001	 1.9382740452e+000
 2.4379686992e+000	 2.4250488978e-001	 1.9298258769e+000
 2.4356349705e+000	 2.6491940363e-001	 1.9166788134e+000
 2.4330865812e+000	 2.8738421752e-001	 1.8987797520e+000
 2.4303218113e+000	 3.0989658487e-001	 1.8761242740e+000
 2.4273389814e+000	 3.3245370987e-001	 1.8487577415e+000
 2.4241364537e+000	 3.5505274813e-001	 1.8167763148e+000
 2.4207126335e+000	 3.7769080719e-001	 1.7803278866e+000
 2.4170659712e+000	 4.0036494724e-001	 1.7396129285e+000
 2.4131949629e+000	 4.2307218179e-001	 1.6948852430e+000
 2.4090981526e+000	 4.4580947843e-001	 1.6464526196e+000
 2.4649883988e+000	 2.2238973381e-001	 1.9186100403e+000
 2.4628459308e+000	 2.4497942947e-001	 1.9110148620e+000
 2.4604883886e+000	 2.6762266285e-001	 1.8985132844e+000
 2.4579139953e+000	 2.9031670954e-001	 1.8810606705e+000
 2.4551210135e+000	 3.1305879491e-001	 1.8586625127e+000
 2.4521077465e+000	 3.3584609467e-001	 1.8313755490e+000
 2.4488725399e+000	 3.5867573535e-001	 1.7993087978e+000
 2.4454137828e+000	 3.8154479501e-001	 1.7626245061e+000
 2.4417299097e+000	 4.0445030384e-001	 1.7215390064e+000
 2.4378194013e+000	 4.2738924487e-001	 1.6763234779e+000
 2.4336807868e+000	 4.5035855474e-001	 1.6273046069e+000
 2.4898872715e+000	 2.2463609475e-001	 1.9040547501e+000
 2.4877231625e+000	 2.4745396916e-001	 1.8973550603e+000
 2.4853418066e+000	 2.7032592207e-001	 1.8854791024e+000
 2.4827414094e+000	 2.9324920155e-001	 1.8683904986e+000
 2.4799202156e+000	 3.1622100496e-001	 1.8461045096e+000
 2.4768765117e+000	 3.3923847946e-001	 1.8186891717e+000
 2.4736086262e+000	 3.6229872257e-001	 1.7862663497e+000
 2.4701149322e+000	 3.8539878284e-001	 1.7490127002e+000
 2.4663938481e+000	 4.0853566044e-001	 1.7071605415e+000
 2.4624438397e+000	 4.3170630795e-001	 1.6609986231e+000
 2.4582634210e+000	 4.5490763105e-001	 1.6108727925e+000
 2.2124370789e+000	 4.0941686796e-001	 1.9190088113e+000
 2.2084660407e+000	 4.3032284048e-001	 1.8764326995e+000
 2.2042850952e+000	 4.5125072774e-001	 1.8303111572e+000
 2.1998930440e+000	 4.7219762289e-001	 1.7809398991e+000
 2.1952887378e+000	 4.9316058010e-001	 1.7286597170e+000
 2.1904710774e+000	 5.1413661543e-001	 1.6738566887e+000
 2.1854390149e+000	 5.3512270782e-001	 1.6169622920e+000
 2.1801915551e+000	 5.5611580005e-001	 1.5584534223e+000
 2.1747277568e+000	 5.7711279978e-001	 1.4988523106e+000
 2.1690467338e+000	 5.9811058066e-001	 1.4387263393e+000
 2.1631476559e+000	 6.1910598340e-001	 1.3786877548e+000
 2.2370197131e+000	 4.1396594427e-001	 1.8716367853e+000
 2.2330045523e+000	 4.3510420537e-001	 1.8322015392e+000
 2.2287771518e+000	 4.5626462471e-001	 1.7892532173e+000
 2.2243363000e+000	 4.7744426314e-001	 1.7431090454e+000
 2.2196808349e+000	 4.9864014209e-001	 1.6941326412e+000
 2.2148096449e+000	 5.1984924449e-001	 1.6427342128e+000
 2.2097216706e+000	 5.4106851568e-001	 1.5893706582e+000
 2.2044159057e+000	 5.6229486449e-001	 1.5345455656e+000
 2.1988913986e+000	 5.8352516422e-001	 1.4788091102e+000
 2.1931472531e+000	 6.0475625377e-001	 1.4227578461e+000
 2.1871826299e+000	 6.2598493877e-001	 1.3662043329e+000
 2.2616023474e+000	 4.1851502058e-001	 1.8284323058e+000
 2.2575430638e+000	 4.3988557026e-001	 1.7918110356e+000
 2.2532692084e+000	 4.6127852168e-001	 1.7516551249e+000
 2.2487795561e+000	 4.8269090339e-001	 1.7083036859e+000
 2.2440729320e+000	 5.0411970409e-001	 1.6621436037e+000
 2.2391482124e+000	 5.2556187355e-001	 1.6136097230e+000
 2.2340043263e+000	 5.4701432354e-001	 1.5631849349e+000
 2.2286402563e+000	 5.6847392893e-001	 1.5114001589e+000
 2.2230550403e+000	 5.8993752866e-001	 1.4588342199e+000
 2.2172477723e+000	 6.1140192689e-001	 1.4061136153e+000
 2.2112176038e+000	 6.3286389413e-001	 1.3473693216e+000
 2.2861849816e+000	 4.2306409689e-001	 1.7892107351e+000
 2.2820815754e+000	 4.4466693515e-001	 1.7550630678e+000
 2.2777612650e+000	 4.6629241865e-001	 1.7173053403e+000
 2.2732228121e+000	 4.8793754364e-001	 1.6762989410e+000
 2.2684650291e+000	 5.0959926609e-001	 1.6324544771e+000
 2.2634867799e+000	 5.3127450260e-001	 1.5862319516e+000
 2.2582869820e+000	 5.5296013141e-001	 1.5381408358e+000
 2.2528646070e+000	 5.7465299337e-001	 1.4887400354e+000
 2.2472186821e+000	 5.9634989310e-001	 1.4386377457e+000
 2.2413482916e+000	 6.1804760000e-001	 1.3884911954e+000
 2.2352525778e+000	 6.3974284950e-001	 1.3271572745e+000
 2.3107676158e+000	 4.2761317319e-001	 1.7537884546e+000
 2.3066200870e+000	 4.4944830005e-001	 1.7217605027e+000
 2.3022533216e+000	 4.7130631563e-001	 1.6859932546e+000
 2.2976660682e+000	 4.9318418390e-001	 1.6468707778e+000
 2.2928571261e+000	 5.1507882809e-001	 1.6048278705e+000
 2.2878253475e+000	 5.3698713166e-001	 1.5603502295e+000
 2.2825696377e+000	 5.5890593927e-001	 1.5139745093e+000
 2.2770889576e+000	 5.8083205782e-001	 1.4662882709e+000
 2.2713823238e+000	 6.0276225754e-001	 1.4179298173e+000
 2.2654488109e+000	 6.2469327312e-001	 1.3695879122e+000
 2.2592875518e+000	 6.4662180487e-001	 1.3056152645e+000
 2.3353502500e+000	 4.3216224950e-001	 1.7219828110e+000
 2.3311585985e+000	 4.5422966494e-001	 1.6917071437e+000
 2.3267453782e+000	 4.7632021260e-001	 1.6575091409e+000
 2.3221093242e+000	 4.9843082415e-001	 1.6197959657e+000
 2.3172492232e+000	 5.2055839009e-001	 1.5790270904e+000
 2.3121639150e+000	 5.4269976072e-001	 1.5357144553e+000
 2.3068522935e+000	 5.6485174713e-001	 1.4904225151e+000
 2.3013133082e+000	 5.8701112226e-001	 1.4437681713e+000
 2.2955459656e+000	 6.0917462198e-001	 1.3964205867e+000
 2.2895493301e+000	 6.3133894624e-001	 1.3442580520e+000
 2.2833225257e+000	 6.5350076025e-001	 1.2827898940e+000
 2.3599328842e+000	 4.3671132581e-001	 1.6936120666e+000
 2.3556971101e+000	 4.5901102983e-001	 1.6647076811e+000
 2.3512374348e+000	 4.8133410958e-001	 1.6316441080e+000
 2.3465525803e+000	 5.0367746441e-001	 1.5948520348e+000
 2.3416413203e+000	 5.2603795209e-001	 1.5548161046e+000
 2.3365024825e+000	 5.4841238978e-001	 1.5120750650e+000
 2.3311349492e+000	 5.7079755500e-001	 1.4672218030e+000
 2.3255376588e+000	 5.9319018671e-001	 1.4209032600e+000
 2.3197096073e+000	 6.1558698643e-001	 1.3738202269e+000
 2.3136498494e+000	 6.3798461936e-001	 1.3175686339e+000
 2.3073574997e+000	 6.6037971562e-001	 1.2587273185e+000
 2.3845155184e+000	 4.4126040212e-001	 1.6684953515e+000
 2.3802356217e+000	 4.6379239473e-001	 1.6405676472e+000
 2.3757294915e+000	 4.8634800655e-001	 1.6081900573e+000
 2.3709958363e+000	 5.0892410466e-001	 1.5718172365e+000
 2.3660334174e+000	 5.3151751410e-001	 1.5319595080e+000
 2.3608410500e+000	 5.5412501884e-001	 1.4891830050e+000
 2.3554176049e+000	 5.7674336287e-001	 1.4441096927e+000
 2.3497620094e+000	 5.9936925116e-001	 1.3974172674e+000
 2.3438732491e+000	 6.2199935087e-001	 1.3498389311e+000
 2.3377503686e+000	 6.4463029248e-001	 1.2898045917e+000
 2.3313924736e+000	 6.6725867099e-001	 1.2334732707e+000
 2.4090981526e+000	 4.4580947843e-001	 1.6464526196e+000
 2.4047741332e+000	 4.6857375962e-001	 1.6190933727e+000
 2.4002215481e+000	 4.9136190353e-001	 1.5869396429e+000
 2.3954390923e+000	 5.1417074492e-001	 1.5504705067e+000
 2.3904255145e+000	 5.3699707610e-001	 1.5102224908e+000
 2.3851796176e+000	 5.5983764791e-001	 1.4667897056e+000
 2.3797002606e+000	 5.8268917073e-001	 1.4208238551e+000
 2.3739863600e+000	 6.0554831560e-001	 1.3730341199e+000
 2.3680368908e+000	 6.2841171532e-001	 1.3218400303e+000
 2.3618508879e+000	 6.5127596560e-001	 1.2610036030e+000
 2.3554274476e+000	 6.7413762637e-001	 1.2070730812e+000
 2.4336807868e+000	 4.5035855474e-001	 1.6273046069e+000
 2.4293126448e+000	 4.7335512452e-001	 1.6000919469e+000
 2.4247136047e+000	 4.9637580050e-001	 1.5676862330e+000
 2.4198823484e+000	 5.1941738517e-001	 1.5305914312e+000
 2.4148176116e+000	 5.4247663810e-001	 1.4893708082e+000
 2.4095181851e+000	 5.6555027697e-001	 1.4446470569e+000
 2.4039829163e+000	 5.8863497860e-001	 1.3971022944e+000
 2.3982107106e+000	 6.1172738005e-001	 1.3474779301e+000
 2.3922005325e+000	 6.3482407976e-001	 1.2906608175e+000
 2.3859514072e+000	 6.5792163873e-001	 1.2312031744e+000
 2.3794624215e+000	 6.8101658174e-001	 1.1795716991e+000
 2.4582634210e+000	 4.5490763105e-001	 1.6108727925e+000
 2.4538511564e+000	 4.7813648941e-001	 1.5833711793e+000
 2.4492056613e+000	 5.0138969748e-001	 1.5502238744e+000
 2.4443256044e+000	 5.2466402543e-001	 1.5119602135e+000
 2.4392097087e+000	 5.4795620010e-001	 1.4691707524e+000
 2.4338567526e+000	 5.7126290603e-001	 1.4225073853e+000
 2.4282655721e+000	 5.9458078647e-001	 1.3726833314e+000
 2.4224350612e+000	 6.1790644450e-001	 1.3204729874e+000
 2.4163641743e+000	 6.4123644421e-001	 1.2586039676e+000
 2.4100519264e+000	 6.6456731185e-001	 1.2004406499e+000
 2.4034973955e+000	 6.8789553712e-001	 1.1510137114e+000
 2.1631476559e+000	 6.1910598340e-001	 1.3786877548e+000
 2.1570297506e+000	 6.4009581698e-001	 1.3114634347e+000
 2.1506923038e+000	 6.6107685984e-001	 1.2395407008e+000
 2.1441346607e+000	 6.8204586113e-001	 1.1678137782e+000
 2.1373562277e+000	 7.0299954197e-001	 1.0962434125e+000
 2.1303564724e+000	 7.2393459685e-001	 1.0247838856e+000
 2.1231349254e+000	 7.4484769492e-001	 9.5338306387e-001
 2.1156911808e+000	 7.6573548144e-001	 8.8198246187e-001
 2.1080248974e+000	 7.8659457923e-001	 8.1051732266e-001
 2.1001357994e+000	 8.0742159012e-001	 7.3891671363e-001
 2.0920236774e+000	 8.2821309651e-001	 6.6710363885e-001
 2.1871826299e+000	 6.2598493877e-001	 1.3662043329e+000
 2.1809967479e+000	 6.4720799272e-001	 1.2971426408e+000
 2.1745888849e+000	 6.6842215828e-001	 1.2277153307e+000
 2.1679583792e+000	 6.8962414847e-001	 1.1578830920e+000
 2.1611046302e+000	 7.1081064799e-001	 1.0876004296e+000
 2.1540270999e+000	 7.3197831459e-001	 1.0168157114e+000
 2.1467253135e+000	 7.5312378041e-001	 9.4547123076e-001
 2.1391988606e+000	 7.7424365345e-001	 8.7350328569e-001
 2.1314473962e+000	 7.9533451899e-001	 8.0084227344e-001
 2.1234706416e+000	 8.1639294112e-001	 7.2741280162e-001
 2.1152683849e+000	 8.3741546425e-001	 6.5313381522e-001
 2.2112176038e+000	 6.3286389413e-001	 1.3473693216e+000
 2.2049637451e+000	 6.5432016846e-001	 1.2815260937e+000
 2.1984854661e+000	 6.7576745672e-001	 1.2147433462e+000
 2.1917820976e+000	 6.9720243581e-001	 1.1469751588e+000
 2.1848530328e+000	 7.1862175401e-001	 1.0781697212e+000
 2.1776977274e+000	 7.4002203233e-001	 1.0082693955e+000
 2.1703157015e+000	 7.6139986591e-001	 9.3721079355e-001
 2.1627065404e+000	 7.8275182547e-001	 8.6492487052e-001
 2.1548698951e+000	 8.0407445876e-001	 7.9133703492e-001
 2.1468054838e+000	 8.2536429212e-001	 7.1636727424e-001
 2.1385130925e+000	 8.4661783199e-001	 6.3993029703e-001
 2.2352525778e+000	 6.3974284950e-001	 1.3271572745e+000
 2.2289307423e+000	 6.6143234421e-001	 1.2646612058e+000
 2.2223820472e+000	 6.8311275516e-001	 1.2006715720e+000
 2.2156058161e+000	 7.0478072316e-001	 1.1351357808e+000
 2.2086014353e+000	 7.2643286003e-001	 1.0679956279e+000
 2.2013683548e+000	 7.4806575007e-001	 9.9918737373e-001
 2.1939060896e+000	 7.6967595141e-001	 9.2864183577e-001
 2.1862142202e+000	 7.9125999748e-001	 8.5628449691e-001
 2.1782923940e+000	 8.1281439853e-001	 7.8203563011e-001
 2.1701403260e+000	 8.3433564312e-001	 7.0581043915e-001
 2.1617578000e+000	 8.5582019972e-001	 6.2751921555e-001
 2.2592875518e+000	 6.4662180487e-001	 1.3056152645e+000
 2.2528977396e+000	 6.6854451995e-001	 1.2465950067e+000
 2.2462786284e+000	 6.9045805361e-001	 1.1855465852e+000
 2.2394295346e+000	 7.1235901050e-001	 1.1224106694e+000
 2.2323498378e+000	 7.3424396605e-001	 1.0571225777e+000
 2.2250389823e+000	 7.5610946781e-001	 9.8961236926e-001
 2.2174964776e+000	 7.7795203691e-001	 9.1980495048e-001
 2.2097219000e+000	 7.9976816950e-001	 8.4762019850e-001
 2.2017148928e+000	 8.2155433830e-001	 7.7297310055e-001
 2.1934751683e+000	 8.4330699412e-001	 6.9577390972e-001
 2.1850025075e+000	 8.6502256746e-001	 6.1592831680e-001
 2.2833225257e+000	 6.5350076025e-001	 1.2827898940e+000
 2.2768647368e+000	 6.7565669569e-001	 1.2273741630e+000
 2.2701752095e+000	 6.9780335205e-001	 1.1694147283e+000
 2.2632532530e+000	 7.1993729785e-001	 1.1088454499e+000
 2.2560982403e+000	 7.4205507208e-001	 1.0455950819e+000
 2.2487096098e+000	 7.6415318556e-001	 9.7958737806e-001
 2.2410868657e+000	 7.8622812241e-001	 9.1074121351e-001
 2.2332295797e+000	 8.0827634151e-001	 8.3897072244e-001
 2.2251373917e+000	 8.3029427807e-001	 7.6418545268e-001
 2.2168100105e+000	 8.5227834513e-001	 6.8629053630e-001
 2.2082472150e+000	 8.7422493520e-001	 6.0518687652e-001
 2.3073574997e+000	 6.6037971562e-001	 1.2587273185e+000
 2.3008317340e+000	 6.8276887144e-001	 1.2070449973e+000
 2.2940717907e+000	 7.0514865049e-001	 1.1523221212e+000
 2.2870769715e+000	 7.2751558520e-001	 1.0944856660e+000
 2.2798466429e+000	 7.4986617810e-001	 1.0334577302e+000
 2.2723802372e+000	 7.7219690330e-001	 9.6915565447e-001
 2.2646772538e+000	 7.9450420791e-001	 9.0149215824e-001
 2.2567372595e+000	 8.1678451353e-001	 8.3037549219e-001
 2.2485598905e+000	 8.3903421784e-001	 7.5570960755e-001
 2.2401448527e+000	 8.6124969613e-001	 6.7739434176e-001
 2.2314919226e+000	 8.8342730294e-001	 5.9532562053e-001
 2.3313924736e+000	 6.6725867099e-001	 1.2334732707e+000
 2.3247987313e+000	 6.8988104719e-001	 1.1856535061e+000
 2.3179683718e+000	 7.1249394894e-001	 1.1343146731e+000
 2.3109006899e+000	 7.3509387254e-001	 1.0793767844e+000
 2.3035950454e+000	 7.5767728412e-001	 1.0207551872e+000
 2.2960508647e+000	 7.8024062105e-001	 9.5836069788e-001
 2.2882676418e+000	 8.0278029341e-001	 8.9209975209e-001
 2.2802449393e+000	 8.2529268555e-001	 8.2187457268e-001
 2.2719823894e+000	 8.4777415761e-001	 7.4758335371e-001
 2.2634796949e+000	 8.7022104713e-001	 6.6912046111e-001
 2.2547366301e+000	 8.9262967068e-001	 5.8637664995e-001
 2.3554274476e+000	 6.7413762637e-001	 1.2070730812e+000
 2.3487657285e+000	 6.9699322293e-001	 1.1632453760e+000
 2.3418649530e+000	 7.1983924738e-001	 1.1154380928e+000
 2.3347244084e+000	 7.4267215989e-001	 1.0635641979e+000
 2.3273434479e+000	 7.6548839015e-001	 1.0075321883e+000
 2.3197214922e+000	 7.8828433879e-001	 9.4724624026e-001
 2.3118580299e+000	 8.1105637891e-001	 8.8260637430e-001
 2.3037526191e+000	 8.3380085757e-001	 8.1350863758e-001
 2.2954048883e+000	 8.5651409738e-001	 7.3984530295e-001
 2.2868145371e+000	 8.7919239814e-001	 6.6150508471e-001
 2.2779813376e+000	 9.0183203843e-001	 5.7837337106e-001
 2.3794624215e+000	 6.8101658174e-001	 1.1795716991e+000
 2.3727327257e+000	 7.0410539868e-001	 1.1398659999e+000
 2.3657615341e+000	 7.2718454583e-001	 1.0957378992e+000
 2.3585481268e+000	 7.5025044724e-001	 1.0470932300e+000
 2.3510918505e+000	 7.7329949618e-001	 9.9383353606e-001
 2.3433921197e+000	 7.9632805654e-001	 9.3585623442e-001
 2.3354484179e+000	 8.1933246442e-001	 8.7305479519e-001
 2.3272602989e+000	 8.4230902959e-001	 8.0531893854e-001
 2.3188273871e+000	 8.6525403716e-001	 7.3253484871e-001
 2.3101493793e+000	 8.8816374914e-001	 6.5458540497e-001
 2.3012260451e+000	 9.1103440617e-001	 5.7135042937e-001
 2.4034973955e+000	 6.8789553712e-001	 1.1510137114e+000
 2.3966997229e+000	 7.1121757443e-001	 1.1155604912e+000
 2.3896581153e+000	 7.3452984428e-001	 1.0752594304e+000
 2.3823718453e+000	 7.5782873460e-001	 1.0300091378e+000
 2.3748402530e+000	 7.8111060220e-001	 9.7970409697e-001
 2.3670627471e+000	 8.0437177429e-001	 9.2423484295e-001
 2.3590388060e+000	 8.2760854992e-001	 8.6348815659e-001
 2.3507679787e+000	 8.5081720161e-001	 7.9734727630e-001
 2.3422498860e+000	 8.7399397693e-001	 7.2569212699e-001
 2.3334842215e+000	 8.9713510015e-001	 6.4839956628e-001
 2.3244707527e+000	 9.2023677391e-001	 5.6534364766e-001
 2.0920236774e+000	 8.2821309651e-001	 6.6710363885e-001
 2.0836883892e+000	 8.4896566288e-001	 6.2005464139e-001
 2.0751298605e+000	 8.6967583741e-001	 5.6824396017e-001
 2.0663480856e+000	 8.9034015358e-001	 5.1159454021e-001
 2.0573431284e+000	 9.1095513182e-001	 4.5002830558e-001
 2.0481151225e+000	 9.3151728120e-001	 3.8346638647e-001
 2.0386642723e+000	 9.5202310113e-001	 3.1182935643e-001
 2.0289908532e+000	 9.7246908310e-001	 2.3503747936e-001
 2.0190952125e+000	 9.9285171243e-001	 1.5301096583e-001
 2.0089777693e+000	 1.0131674701e+000	 6.5670238112e-002
 1.9986390154e+000	 1.0334128344e+000	-2.7063796446e-002
 2.1152683849e+000	 8.3741546425e-001	 6.5313381522e-001
 2.1068404824e+000	 8.5839861469e-001	 6.0492086619e-001
 2.0981868589e+000	 8.7933890227e-001	 5.5238825799e-001
 2.0893075088e+000	 9.0023282195e-001	 4.9545199432e-001
 2.0802024965e+000	 9.2107685550e-001	 4.3402648636e-001
 2.0708719572e+000	 9.4186747321e-001	 3.6802478592e-001
 2.0613160975e+000	 9.6260113559e-001	 2.9735882974e-001
 2.0515351960e+000	 9.8327429514e-001	 2.2193969465e-001
 2.0415296038e+000	 1.0038833981e+000	 1.4167786290e-001
 2.0312997445e+000	 1.0244248864e+000	 5.6483497377e-002
 2.0208461156e+000	 1.0448951992e+000	-3.3733274063e-002
 2.1385130925e+000	 8.4661783199e-001	 6.3993029703e-001
 2.1299925756e+000	 8.6783156650e-001	 5.9051696705e-001
 2.1212438574e+000	 8.8900196713e-001	 5.3722062272e-001
 2.1122669320e+000	 9.1012549032e-001	 4.7995012879e-001
 2.1030618646e+000	 9.3119857919e-001	 4.1861218449e-001
 2.0936287919e+000	 9.5221766522e-001	 3.5311156303e-001
 2.0839679228e+000	 9.7317917004e-001	 2.8335136342e-001
 2.0740795389e+000	 9.9407950717e-001	 2.0923327394e-001
 2.0639639950e+000	 1.0149150838e+000	 1.3065784693e-001
 2.0536217198e+000	 1.0356823027e+000	 4.7524784459e-002
 2.0430532157e+000	 1.0563775640e+000	-4.0266765951e-002
 2.1617578000e+000	 8.5582019972e-001	 6.2751921555e-001
 2.1531446689e+000	 8.7726451831e-001	 5.7687616077e-001
 2.1443008558e+000	 8.9866503199e-001	 5.2278167454e-001
 2.1352263552e+000	 9.2001815870e-001	 4.6513728152e-001
 2.1259212327e+000	 9.4132030288e-001	 4.0384176617e-001
 2.1163856266e+000	 9.6256785724e-001	 3.3879141897e-001
 2.1066197480e+000	 9.8375720450e-001	 2.6988029591e-001
 2.0966238817e+000	 1.0048847192e+000	 1.9700049076e-001
 2.0863983863e+000	 1.0259467695e+000	 1.2004241961e-001
 2.0759436950e+000	 1.0469397191e+000	 3.8895117263e-002
 2.0652603159e+000	 1.0678599288e+000	-4.6553455179e-002
 2.1850025075e+000	 8.6502256746e-001	 6.1592831680e-001
 2.1762967621e+000	 8.8669747012e-001	 5.6403311078e-001
 2.1673578543e+000	 9.0832809685e-001	 5.0911330055e-001
 2.1581857783e+000	 9.2991082707e-001	 4.5106286609e-001
 2.1487806008e+000	 9.5144202657e-001	 3.8977247055e-001
 2.1391424613e+000	 9.7291804925e-001	 3.2512971351e-001
 2.1292715733e+000	 9.9433523896e-001	 2.5701939849e-001
 2.1191682245e+000	 1.0156899312e+000	 1.8532381430e-001
 2.1088327775e+000	 1.0369784552e+000	 1.0992302970e-001
 2.0982656702e+000	 1.0581971354e+000	 3.0695200880e-002
 2.0874674161e+000	 1.0793422937e+000	-5.2483108808e-002
 2.2082472150e+000	 8.7422493520e-001	 6.0518687652e-001
 2.1994488553e+000	 8.9613042193e-001	 5.5202385097e-001
 2.1904148527e+000	 9.1799116171e-001	 4.9625858812e-001
 2.1811452015e+000	 9.3980349544e-001	 4.3777731517e-001
 2.1716399689e+000	 9.6156375025e-001	 3.7646236374e-001
 2.1618992960e+000	 9.8326824127e-001	 3.1219243039e-001
 2.1519233985e+000	 1.0049132734e+000	 2.4484285253e-001
 2.1417125673e+000	 1.0264951433e+000	 1.7428589913e-001
 2.1312671688e+000	 1.0480101409e+000	 1.0039107586e-001
 2.1205876454e+000	 1.0694545517e+000	 2.3025444048e-002
 2.1096745162e+000	 1.0908246585e+000	-5.7946047146e-002
 2.2314919226e+000	 8.8342730294e-001	 5.9532562053e-001
 2.2226009485e+000	 9.0556337374e-001	 5.4088571434e-001
 2.2134718512e+000	 9.2765422657e-001	 4.8426176233e-001
 2.2041046247e+000	 9.4969616382e-001	 4.2533202742e-001
 2.1944993369e+000	 9.7168547394e-001	 3.6397029576e-001
 2.1846561306e+000	 9.9361843328e-001	 3.0004614484e-001
 2.1745752237e+000	 1.0154913079e+000	 2.3342522814e-001
 2.1642569101e+000	 1.0373003553e+000	 1.6396957554e-001
 2.1537015600e+000	 1.0590418266e+000	 9.1537909247e-002
 2.1429096206e+000	 1.0807119681e+000	 1.5985974592e-002
 2.1318816164e+000	 1.1023070233e+000	-6.2833114938e-002
 2.2547366301e+000	 8.9262967068e-001	 5.8637664995e-001
 2.2457530417e+000	 9.1499632555e-001	 5.3065726600e-001
 2.2365288496e+000	 9.3731729143e-001	 4.7316812736e-001
 2.2270640479e+000	 9.5958883219e-001	 4.1377931771e-001
 2.2173587050e+000	 9.8180719763e-001	 3.5235586010e-001
 2.2074129653e+000	 1.0039686253e+000	 2.8875799305e-001
 2.1972270490e+000	 1.0260693423e+000	 2.2284146413e-001
 2.1868012529e+000	 1.0481055673e+000	 1.5445784049e-001
 2.1761359513e+000	 1.0700735123e+000	 8.3454835937e-002
 2.1652315958e+000	 1.0919693844e+000	 9.6766538995e-003
 2.1540887166e+000	 1.1137893881e+000	-6.7035654333e-002
 2.2779813376e+000	 9.0183203843e-001	 5.7837337106e-001
 2.2689051349e+000	 9.2442927736e-001	 5.2137824035e-001
 2.2595858481e+000	 9.4698035630e-001	 4.6302401144e-001
 2.2500234710e+000	 9.6948150057e-001	 4.0317237038e-001
 2.2402180731e+000	 9.9192892132e-001	 3.4167935586e-001
 2.2301698000e+000	 1.0143188173e+000	 2.7839564358e-001
 2.2198788742e+000	 1.0366473768e+000	 2.1316684916e-001
 2.2093455957e+000	 1.0589107794e+000	 1.4583384908e-001
 2.1985703425e+000	 1.0811051980e+000	 7.6233119252e-002
 2.1875535710e+000	 1.1032268007e+000	 4.1970905160e-003
 2.1762958168e+000	 1.1252717530e+000	-7.0445479504e-002
 2.3012260451e+000	 9.1103440617e-001	 5.7135042937e-001
 2.2920572281e+000	 9.3386222918e-001	 5.1308948199e-001
 2.2826428465e+000	 9.5664342116e-001	 4.5387671510e-001
 2.2729828942e+000	 9.7937416894e-001	 3.9356519529e-001
 2.2630774412e+000	 1.0020506450e+000	 3.3200175201e-001
 2.2529266347e+000	 1.0246690093e+000	 2.6902727045e-001
 2.2425306995e+000	 1.0472254113e+000	 2.0447700412e-001
 2.2318899385e+000	 1.0697159914e+000	 1.3818090660e-001
 2.2210047338e+000	 1.0921368837e+000	 6.9963981907e-002
 2.2098755463e+000	 1.1144842171e+000	-3.5334708490e-004
 2.1985029169e+000	 1.1367541178e+000	-7.2954852810e-002
 2.3244707527e+000	 9.2023677391e-001	 5.6534364766e-001
 2.3152093213e+000	 9.4329518099e-001	 5.0583289023e-001
 2.3056998450e+000	 9.6630648602e-001	 4.4577446256e-001
 2.2959423174e+000	 9.8926683732e-001	 3.8501258661e-001
 2.2859368093e+000	 1.0121723687e+000	 3.2338465400e-001
 2.2756834694e+000	 1.0350192013e+000	 2.6072152788e-001
 2.2651825247e+000	 1.0578034457e+000	 1.9684786549e-001
 2.2544342814e+000	 1.0805212035e+000	 1.3158246100e-001
 2.2434391250e+000	 1.1031685694e+000	 6.4738608047e-002
 2.2321975215e+000	 1.1257416334e+000	-3.8755184982e-003
 2.2207100171e+000	 1.1482364826e+000	-7.4456462388e-002
 1.9986390154e+000	 1.0334128344e+000	-2.7063796446e-002
 1.9880795152e+000	 1.0535842829e+000	-8.5669727601e-002
 1.9772999064e+000	 1.0736782945e+000	-1.4574714510e-001
 1.9663009000e+000	 1.0936913507e+000	-2.0744822220e-001
 1.9550832805e+000	 1.1136199380e+000	-2.7092777007e-001
 1.9436479059e+000	 1.1334605497e+000	-3.3634289224e-001
 1.9319957082e+000	 1.1532096875e+000	-4.0385262882e-001
 1.9201276929e+000	 1.1728638638e+000	-4.7361759135e-001
 1.9080449390e+000	 1.1924196034e+000	-5.4579958904e-001
 1.8957485995e+000	 1.2118734454e+000	-6.2056124733e-001
 1.8832399002e+000	 1.2312219451e+000	-6.9806561961e-001
 2.0208461156e+000	 1.0448951992e+000	-3.3733274063e-002
 2.0101692876e+000	 1.0652907750e+000	-9.2581021793e-002
 1.9992699054e+000	 1.0856080533e+000	-1.5284547086e-001
 1.9881486878e+000	 1.1058434768e+000	-2.1468973967e-001
 1.9768064280e+000	 1.1259934929e+000	-2.7827979133e-001
 1.9652439938e+000	 1.1460545558e+000	-3.4378407139e-001
 1.9534623272e+000	 1.1660231285e+000	-4.1137313479e-001
 1.9414624450e+000	 1.1858956845e+000	-4.8121926290e-001
 1.9292454384e+000	 1.2056687101e+000	-5.5349607152e-001
 1.9168124728e+000	 1.2253387059e+000	-6.2837811074e-001
 1.9041647880e+000	 1.2449021889e+000	-7.0604045760e-001
 2.0430532157e+000	 1.0563775640e+000	-4.0266765951e-002
 2.0322590600e+000	 1.0769972670e+000	-9.9354443659e-002
 2.0212399043e+000	 1.0975378121e+000	-1.5980499040e-001
 2.0099964756e+000	 1.1179956029e+000	-2.2179268803e-001
 1.9985295756e+000	 1.1383670478e+000	-2.8549487211e-001
 1.9868400816e+000	 1.1586485619e+000	-3.5109155252e-001
 1.9749289462e+000	 1.1788365695e+000	-4.1876502275e-001
 1.9627971972e+000	 1.1989275052e+000	-4.8869945879e-001
 1.9504459377e+000	 1.2189178168e+000	-5.6108050846e-001
 1.9378763461e+000	 1.2388039664e+000	-6.3609487220e-001
 1.9250896758e+000	 1.2585824328e+000	-7.0296696898e-001
 2.0652603159e+000	 1.0678599288e+000	-4.6553455179e-002
 2.0543488324e+000	 1.0887037590e+000	-1.0587236160e-001
 2.0432099033e+000	 1.1094675710e+000	-1.6650119324e-001
 2.0318442634e+000	 1.1301477291e+000	-2.2862561900e-001
 2.0202527232e+000	 1.1507406026e+000	-2.9243457275e-001
 2.0084361695e+000	 1.1712425680e+000	-3.5811985644e-001
 1.9963955652e+000	 1.1916500104e+000	-4.2587573137e-001
 1.9841319493e+000	 1.2119593259e+000	-4.9589849851e-001
 1.9716464370e+000	 1.2321669235e+000	-5.6838606879e-001
 1.9589402195e+000	 1.2522692269e+000	-6.4090635607e-001
 1.9460145636e+000	 1.2722626766e+000	-6.9351545109e-001
 2.0874674161e+000	 1.0793422937e+000	-5.2483108808e-002
 2.0764386048e+000	 1.1004102511e+000	-1.1201787157e-001
 2.0651799023e+000	 1.1213973298e+000	-1.7281044231e-001
 2.0536920511e+000	 1.1422998552e+000	-2.3505810579e-001
 2.0419758707e+000	 1.1631141575e+000	-2.9896162533e-001
 2.0300322573e+000	 1.1838365741e+000	-3.6472482809e-001
 2.0178621842e+000	 1.2044634514e+000	-4.3255417786e-001
 2.0054667014e+000	 1.2249911467e+000	-5.0265833648e-001
 1.9928469363e+000	 1.2454160302e+000	-5.7524771466e-001
 1.9800040928e+000	 1.2657344874e+000	-6.3261302301e-001
 1.9669394514e+000	 1.2859429204e+000	-6.8423261528e-001
 2.1096745162e+000	 1.0908246585e+000	-5.7946047146e-002
 2.0985283772e+000	 1.1121167431e+000	-1.1767475880e-001
 2.0871499012e+000	 1.1333270886e+000	-1.7860992802e-001
 2.0755398389e+000	 1.1544519813e+000	-2.4096068937e-001
 2.0636990183e+000	 1.1754877124e+000	-3.0493987205e-001
 2.0516283452e+000	 1.1964305802e+000	-3.7076356683e-001
 2.0393288031e+000	 1.2172768924e+000	-4.3865068014e-001
 2.0268014536e+000	 1.2380229674e+000	-5.0882247600e-001
 2.0140474357e+000	 1.2586651369e+000	-5.7265462977e-001
 2.0010679661e+000	 1.2791997479e+000	-6.2435460985e-001
 1.9878643392e+000	 1.2996231643e+000	-6.7508108286e-001
 2.1318816164e+000	 1.1023070233e+000	-6.2833114938e-002
 2.1206181496e+000	 1.1238232351e+000	-1.2272746188e-001
 2.1091199002e+000	 1.1452568475e+000	-1.8377762508e-001
 2.0973876267e+000	 1.1666041074e+000	-2.4620482804e-001
 2.0854221659e+000	 1.1878612672e+000	-3.1023420735e-001
 2.0732244330e+000	 1.2090245863e+000	-3.7609436116e-001
 2.0607954221e+000	 1.2300903333e+000	-4.4401688390e-001
 2.0481362057e+000	 1.2510547881e+000	-5.1328021819e-001
 2.0352479350e+000	 1.2719142436e+000	-5.6518664894e-001
 2.0221318395e+000	 1.2926650084e+000	-6.1609852361e-001
 2.0087892269e+000	 1.3133034081e+000	-6.6602537480e-001
 2.1540887166e+000	 1.1137893881e+000	-6.7035654333e-002
 2.1427079219e+000	 1.1355297272e+000	-1.2706103906e-001
 2.1310898991e+000	 1.1571866063e+000	-1.8819225217e-001
 2.1192354145e+000	 1.1787562335e+000	-2.5066285013e-001
 2.1071453134e+000	 1.2002348221e+000	-3.1471052373e-001
 2.0948205209e+000	 1.2216185925e+000	-3.8057662734e-001
 2.0822620411e+000	 1.2429037743e+000	-4.4850569418e-001
 2.0694709579e+000	 1.2640866088e+000	-5.0638115505e-001
 2.0564484343e+000	 1.2851633503e+000	-5.5760094388e-001
 2.0431957128e+000	 1.3061302689e+000	-6.0781383511e-001
 2.0297141147e+000	 1.3269836519e+000	-6.5703181375e-001
 2.1762958168e+000	 1.1252717530e+000	-7.0445479504e-002
 2.1647976943e+000	 1.1472362192e+000	-1.3056113671e-001
 2.1530598981e+000	 1.1691163651e+000	-1.9173323390e-001
 2.1410832022e+000	 1.1909083597e+000	-2.5420790967e-001
 2.1288684610e+000	 1.2126083770e+000	-3.1823566076e-001
 2.1164166087e+000	 1.2342125986e+000	-3.8407085193e-001
 2.1037286601e+000	 1.2557172153e+000	-4.4760278303e-001
 2.0908057100e+000	 1.2771184295e+000	-4.9925273951e-001
 2.0776489336e+000	 1.2984124570e+000	-5.4987075150e-001
 2.0642595861e+000	 1.3195955294e+000	-5.9947119405e-001
 2.0506390025e+000	 1.3406638958e+000	-6.4806843216e-001
 2.1985029169e+000	 1.1367541178e+000	-7.2954852810e-002
 2.1868874667e+000	 1.1589427112e+000	-1.3311395954e-001
 2.1750298971e+000	 1.1810461240e+000	-1.9428066519e-001
 2.1629309900e+000	 1.2030604858e+000	-2.5671394461e-001
 2.1505916085e+000	 1.2249819318e+000	-3.2067735734e-001
 2.1380126965e+000	 1.2468066047e+000	-3.8643853768e-001
 2.1251952790e+000	 1.2685306563e+000	-4.4073009673e-001
 2.1121404622e+000	 1.2901502502e+000	-4.9187201965e-001
 2.0988494330e+000	 1.3116615637e+000	-5.4197068496e-001
 2.0853234594e+000	 1.3330607899e+000	-5.9104274928e-001
 2.0715638903e+000	 1.3543441396e+000	-6.3910488589e-001
 2.2207100171e+000	 1.1482364826e+000	-7.4456462388e-002
 2.2089772391e+000	 1.1706492033e+000	-1.3460624271e-001
 2.1969998960e+000	 1.1929758828e+000	-1.9571527778e-001
 2.1847787778e+000	 1.2152126119e+000	-2.5805563769e-001
 2.1723147561e+000	 1.2373554867e+000	-3.2190420664e-001
 2.1596087844e+000	 1.2594006108e+000	-3.8172086535e-001
 2.1466618980e+000	 1.2813440973e+000	-4.3350491716e-001
 2.1334752143e+000	 1.3031820709e+000	-4.8421723556e-001
 2.1200499323e+000	 1.3249106704e+000	-5.3387666482e-001
 2.1063873328e+000	 1.3465260504e+000	-5.8250207385e-001
 2.0924887780e+000	 1.3680243835e+000	-6.3011237306e-001
 1.8832399002e+000	 1.2312219451e+000	-6.9806561961e-001
 1.8705201405e+000	 1.2504616763e+000	-7.8816821950e-001
 1.8575906924e+000	 1.2695892326e+000	-8.4011475529e-001
 1.8444530004e+000	 1.2886012298e+000	-8.9033753399e-001
 1.8311085811e+000	 1.3074943075e+000	-9.3888897285e-001
 1.8175590227e+000	 1.3262651314e+000	-9.8582225043e-001
 1.8038059846e+000	 1.3449103948e+000	-1.0311911158e+000
 1.7898511964e+000	 1.3634268205e+000	-1.0750496966e+000
 1.7756964577e+000	 1.3818111630e+000	-1.1174523067e+000
 1.7613436372e+000	 1.4000602100e+000	-1.1584532533e+000
 1.7467946721e+000	 1.4181707844e+000	-1.1981066454e+000
 1.9041647880e+000	 1.2449021889e+000	-7.0604045760e-001
 1.8913036977e+000	 1.2643556949e+000	-7.8334044899e-001
 1.8782305890e+000	 1.2836957796e+000	-8.5574578425e-001
 1.8649469226e+000	 1.3029190212e+000	-9.1047800765e-001
 1.8514542320e+000	 1.3220220220e+000	-9.5728497198e-001
 1.8377541230e+000	 1.3410014107e+000	-1.0020189692e+000
 1.8238482733e+000	 1.3598538436e+000	-1.0447349645e+000
 1.8097384319e+000	 1.3785760074e+000	-1.0854886723e+000
 1.7954264183e+000	 1.3971646204e+000	-1.1243363600e+000
 1.7809141221e+000	 1.4156164346e+000	-1.1613346510e+000
 1.7662035017e+000	 1.4339282376e+000	-1.1965403272e+000
 1.9250896758e+000	 1.2585824328e+000	-7.0296696898e-001
 1.9120872548e+000	 1.2782497135e+000	-7.7154157136e-001
 1.8988704856e+000	 1.2978023266e+000	-8.4148019953e-001
 1.8854408449e+000	 1.3172368126e+000	-9.1275698930e-001
 1.8717998829e+000	 1.3365497366e+000	-9.7854889916e-001
 1.8579492232e+000	 1.3557376899e+000	-1.0209511782e+000
 1.8438905620e+000	 1.3747972925e+000	-1.0608899968e+000
 1.8296256674e+000	 1.3937251943e+000	-1.0984228623e+000
 1.8151563790e+000	 1.4125180778e+000	-1.1336081958e+000
 1.8004846069e+000	 1.4311726591e+000	-1.1665051306e+000
 1.7856123314e+000	 1.4496856907e+000	-1.1971733093e+000
 1.9460145636e+000	 1.2722626766e+000	-6.9351545109e-001
 1.9328708119e+000	 1.2921437321e+000	-7.5982786037e-001
 1.9195103822e+000	 1.3119088736e+000	-8.2718495703e-001
 1.9059347671e+000	 1.3315546041e+000	-8.9555636057e-001
 1.8921455338e+000	 1.3510774511e+000	-9.6490952206e-001
 1.8781443235e+000	 1.3704739692e+000	-1.0352097750e+000
 1.8639328507e+000	 1.3897407413e+000	-1.0795257582e+000
 1.8495129029e+000	 1.4088743812e+000	-1.1137221345e+000
 1.8348863396e+000	 1.4278715351e+000	-1.1451377763e+000
 1.8200550918e+000	 1.4467288837e+000	-1.1738345217e+000
 1.8050211611e+000	 1.4654431439e+000	-1.1998750629e+000
 1.9669394514e+000	 1.2859429204e+000	-6.8423261528e-001
 1.9536543690e+000	 1.3060377508e+000	-7.4816396367e-001
 1.9401502787e+000	 1.3260154207e+000	-8.1282849399e-001
 1.9264286893e+000	 1.3458723955e+000	-8.7819134872e-001
 1.9124911847e+000	 1.3656051656e+000	-9.4421576995e-001
 1.8983394238e+000	 1.3852102484e+000	-1.0108631578e+000
 1.8839751394e+000	 1.4046841901e+000	-1.0780931323e+000
 1.8694001384e+000	 1.4240235681e+000	-1.1312575922e+000
 1.8546163002e+000	 1.4432249925e+000	-1.1587962183e+000
 1.8396255767e+000	 1.4622851082e+000	-1.1831937389e+000
 1.8244299908e+000	 1.4812005971e+000	-1.2045160854e+000
 1.9878643392e+000	 1.2996231643e+000	-6.7508108286e-001
 1.9744379261e+000	 1.3199317694e+000	-7.3651638266e-001
 1.9607901753e+000	 1.3401219677e+000	-7.9838096135e-001
 1.9469226115e+000	 1.3601901869e+000	-8.6063552098e-001
 1.9328368356e+000	 1.3801328802e+000	-9.2323912619e-001
 1.9185345240e+000	 1.3999465276e+000	-9.8614927033e-001
 1.9040174282e+000	 1.4196276390e+000	-1.0493219448e+000
 1.8892873739e+000	 1.4391727550e+000	-1.1127117114e+000
 1.8743462609e+000	 1.4585784499e+000	-1.1744557322e+000
 1.8591960615e+000	 1.4778413328e+000	-1.1944547244e+000
 1.8438388205e+000	 1.4969580502e+000	-1.2109678472e+000
 2.0087892269e+000	 1.3133034081e+000	-6.6602537480e-001
 1.9952214832e+000	 1.3338257880e+000	-7.2485337591e-001
 1.9814300719e+000	 1.3542285147e+000	-7.8381413456e-001
 1.9674165338e+000	 1.3745079784e+000	-8.4286394611e-001
 1.9531824865e+000	 1.3946605947e+000	-9.0195772679e-001
 1.9387296243e+000	 1.4146828069e+000	-9.6104908737e-001
 1.9240597169e+000	 1.4345710878e+000	-1.0200904098e+000
 1.9091746095e+000	 1.4543219419e+000	-1.0790329267e+000
 1.8940762215e+000	 1.4739319072e+000	-1.1378268029e+000
 1.8787665464e+000	 1.4933975573e+000	-1.1964212203e+000
 1.8632476502e+000	 1.5127155034e+000	-1.2191027404e+000
 2.0297141147e+000	 1.3269836519e+000	-6.5703181375e-001
 2.0160050404e+000	 1.3477198066e+000	-7.1314486861e-001
 2.0020699685e+000	 1.3683350618e+000	-7.6910132976e-001
 1.9879104560e+000	 1.3888257698e+000	-8.2485311703e-001
 1.9735281374e+000	 1.4091883092e+000	-8.8035102472e-001
 1.9589247245e+000	 1.4294190861e+000	-9.3554480281e-001
 1.9441020056e+000	 1.4495145366e+000	-9.9038324092e-001
 1.9290618450e+000	 1.4694711288e+000	-1.0448142547e+000
 1.9138061822e+000	 1.4892853646e+000	-1.0987849744e+000
 1.8983370312e+000	 1.5089537819e+000	-1.1522418356e+000
 1.8826564799e+000	 1.5284729565e+000	-1.2051306715e+000
 2.0506390025e+000	 1.3406638958e+000	-6.4806843216e-001
 2.0367885975e+000	 1.3616138253e+000	-7.0136236755e-001
 2.0227098651e+000	 1.3824416088e+000	-7.5421732523e-001
 2.0084043782e+000	 1.4031435613e+000	-8.0658087815e-001
 1.9938737883e+000	 1.4237160237e+000	-8.5839972270e-001
 1.9791198248e+000	 1.4441553653e+000	-9.0961976752e-001
 1.9641442943e+000	 1.4644579854e+000	-9.6018622480e-001
 1.9489490805e+000	 1.4846203157e+000	-1.0100437036e+000
 1.9335361428e+000	 1.5046388219e+000	-1.0591363052e+000
 1.9179075161e+000	 1.5245100065e+000	-1.1074077200e+000
 1.9020653096e+000	 1.5442304097e+000	-1.1548013264e+000
 2.0715638903e+000	 1.3543441396e+000	-6.3910488589e-001
 2.0575721546e+000	 1.3755078439e+000	-6.8947888120e-001
 2.0433497617e+000	 1.3965481558e+000	-7.3913828753e-001
 2.0288983004e+000	 1.4174613527e+000	-7.8802635710e-001
 2.0142194392e+000	 1.4382437383e+000	-8.3608571004e-001
 1.9993149250e+000	 1.4588916446e+000	-8.8325843094e-001
 1.9841865830e+000	 1.4794014343e+000	-9.2948616727e-001
 1.9688363160e+000	 1.4997695026e+000	-9.7471022982e-001
 1.9532661034e+000	 1.5199922793e+000	-1.0188716947e+000
 1.9374780009e+000	 1.5400662310e+000	-1.0619115067e+000
 1.9214741392e+000	 1.5599878628e+000	-1.1037705840e+000
 2.0924887780e+000	 1.3680243835e+000	-6.3011237306e-001
 2.0783557117e+000	 1.3894018625e+000	-6.7746884466e-001
 2.0639896582e+000	 1.4106547028e+000	-7.2384170210e-001
 2.0493922227e+000	 1.4317791441e+000	-7.6916990056e-001
 2.0345650901e+000	 1.4527714528e+000	-8.1339200340e-001
 2.0195100253e+000	 1.4736279238e+000	-8.5644628612e-001
 2.0042288717e+000	 1.4943448831e+000	-8.9827084220e-001
 1.9887235515e+000	 1.5149186895e+000	-9.3880369050e-001
 1.9729960641e+000	 1.5353457367e+000	-9.7798288399e-001
 1.9570484858e+000	 1.5556224556e+000	-1.0157466195e+000
 1.9408829689e+000	 1.5757453160e+000	-1.0520333486e+000
 1.7467946721e+000	 1.4181707844e+000	-1.1981066454e+000
 1.7320515667e+000	 1.4361397461e+000	-1.2604904602e+000
 1.7171163925e+000	 1.4539639937e+000	-1.3175256839e+000
 1.7019912862e+000	 1.4716404663e+000	-1.3692258794e+000
 1.6866784494e+000	 1.4891661453e+000	-1.4156076356e+000
 1.6711801475e+000	 1.5065380562e+000	-1.4566904327e+000
 1.6554987083e+000	 1.5237532697e+000	-1.4924965065e+000
 1.6396365210e+000	 1.5408089042e+000	-1.5230507120e+000
 1.6235960349e+000	 1.5577021267e+000	-1.5483803855e+000
 1.6073797585e+000	 1.5744301547e+000	-1.5685152073e+000
 1.5909902577e+000	 1.5909902577e+000	-1.5834870645e+000
 1.7662035017e+000	 1.4339282376e+000	-1.1965403272e+000
 1.7512965841e+000	 1.4520968544e+000	-1.2534251226e+000
 1.7361954635e+000	 1.4701191492e+000	-1.3057567348e+000
 1.7209023004e+000	 1.4879920270e+000	-1.3535497677e+000
 1.7054193211e+000	 1.5057124358e+000	-1.3968210135e+000
 1.6897488158e+000	 1.5232773679e+000	-1.4355893132e+000
 1.6738931384e+000	 1.5406838616e+000	-1.4698754149e+000
 1.6578547045e+000	 1.5579290031e+000	-1.4997018337e+000
 1.6416359909e+000	 1.5750099281e+000	-1.5250927121e+000
 1.6252395336e+000	 1.5919238231e+000	-1.5460736806e+000
 1.6086679272e+000	 1.6086679272e+000	-1.5626717208e+000
 1.7856123314e+000	 1.4496856907e+000	-1.1971733093e+000
 1.7705416015e+000	 1.4680539627e+000	-1.2483731366e+000
 1.7552745345e+000	 1.4862743046e+000	-1.2957975478e+000
 1.7398133147e+000	 1.5043435878e+000	-1.3394623810e+000
 1.7241601927e+000	 1.5222587263e+000	-1.3793848358e+000
 1.7083174841e+000	 1.5400166796e+000	-1.4155833261e+000
 1.6922875685e+000	 1.5576144535e+000	-1.4480773346e+000
 1.6760728881e+000	 1.5750491021e+000	-1.4768872677e+000
 1.6596759468e+000	 1.5923177295e+000	-1.5020343132e+000
 1.6430993087e+000	 1.6094174915e+000	-1.5235403000e+000
 1.6263455968e+000	 1.6263455968e+000	-1.5414275601e+000
 1.8050211611e+000	 1.4654431439e+000	-1.1998750629e+000
 1.7897866190e+000	 1.4840110710e+000	-1.2452067854e+000
 1.7743536055e+000	 1.5024294601e+000	-1.2875238627e+000
 1.7587243290e+000	 1.5206951485e+000	-1.3268435613e+000
 1.7429010644e+000	 1.5388050168e+000	-1.3631836912e+000
 1.7268861525e+000	 1.5567559914e+000	-1.3965624522e+000
 1.7106819986e+000	 1.5745450454e+000	-1.4269982824e+000
 1.6942910717e+000	 1.5921692010e+000	-1.4545097094e+000
 1.6777159028e+000	 1.6096255309e+000	-1.4791152046e+000
 1.6609590838e+000	 1.6269111599e+000	-1.5008330405e+000
 1.6440232663e+000	 1.6440232663e+000	-1.5196811534e+000
 1.8244299908e+000	 1.4812005971e+000	-1.2045160854e+000
 1.8090316364e+000	 1.4999681792e+000	-1.2437991874e+000
 1.7934326766e+000	 1.5185846156e+000	-1.2808120381e+000
 1.7776353433e+000	 1.5370467092e+000	-1.3155735270e+000
 1.7616419361e+000	 1.5553513073e+000	-1.3481022781e+000
 1.7454548208e+000	 1.5734953031e+000	-1.3784164893e+000
 1.7290764287e+000	 1.5914756372e+000	-1.4065337749e+000
 1.7125092552e+000	 1.6092892999e+000	-1.4324710121e+000
 1.6957558587e+000	 1.6269333323e+000	-1.4562441923e+000
 1.6788188589e+000	 1.6444048283e+000	-1.4778682760e+000
 1.6617009358e+000	 1.6617009358e+000	-1.4973570541e+000
 1.8438388205e+000	 1.4969580502e+000	-1.2109678472e+000
 1.8282766538e+000	 1.5159252875e+000	-1.2440242528e+000
 1.8125117476e+000	 1.5347397711e+000	-1.2755390190e+000
 1.7965463576e+000	 1.5533982700e+000	-1.3055328537e+000
 1.7803828077e+000	 1.5718975978e+000	-1.3340253988e+000
 1.7640234891e+000	 1.5902346148e+000	-1.3610350622e+000
 1.7474708588e+000	 1.6084062291e+000	-1.3865788546e+000
 1.7307274388e+000	 1.6264093989e+000	-1.4106722307e+000
 1.7137958146e+000	 1.6442411337e+000	-1.4333289367e+000
 1.6966786340e+000	 1.6618984966e+000	-1.4545608630e+000
 1.6793786053e+000	 1.6793786053e+000	-1.4743779046e+000
 1.8632476502e+000	 1.5127155034e+000	-1.2191027404e+000
 1.8475216712e+000	 1.5318823958e+000	-1.2457566420e+000
 1.8315908186e+000	 1.5508949266e+000	-1.2715823061e+000
 1.8154573719e+000	 1.5697498307e+000	-1.2966024554e+000
 1.7991236794e+000	 1.5884438884e+000	-1.3208379539e+000
 1.7825921574e+000	 1.6069739266e+000	-1.3443076317e+000
 1.7658652889e+000	 1.6253368210e+000	-1.3670281152e+000
 1.7489456224e+000	 1.6435294978e+000	-1.3890136636e+000
 1.7318357706e+000	 1.6615489351e+000	-1.4102760116e+000
 1.7145384091e+000	 1.6793921650e+000	-1.4308242204e+000
 1.6970562749e+000	 1.6970562749e+000	-1.4506645355e+000
 1.8826564799e+000	 1.5284729565e+000	-1.2051306715e+000
 1.8667666886e+000	 1.5478395041e+000	-1.2488717266e+000
 1.8506698896e+000	 1.5670500821e+000	-1.2688199272e+000
 1.8343683862e+000	 1.5861013914e+000	-1.2886635673e+000
 1.8178645510e+000	 1.6049901789e+000	-1.3084249377e+000
 1.8011608257e+000	 1.6237132383e+000	-1.3281235028e+000
 1.7842597190e+000	 1.6422674129e+000	-1.3477757241e+000
 1.7671638059e+000	 1.6606495967e+000	-1.3673948913e+000
 1.7498757265e+000	 1.6788567365e+000	-1.3869909608e+000
 1.7323981842e+000	 1.6968858334e+000	-1.4065704031e+000
 1.7147339444e+000	 1.7147339444e+000	-1.4261360593e+000
 1.9020653096e+000	 1.5442304097e+000	-1.1548013264e+000
 1.8860117060e+000	 1.5637966124e+000	-1.2176433782e+000
 1.8697489607e+000	 1.5832052375e+000	-1.2671304102e+000
 1.8532794005e+000	 1.6024529522e+000	-1.2815977289e+000
 1.8366054227e+000	 1.6215364694e+000	-1.2966714328e+000
 1.8197294940e+000	 1.6404525500e+000	-1.3123718328e+000
 1.8026541490e+000	 1.6591980048e+000	-1.3287154446e+000
 1.7853819895e+000	 1.6777696957e+000	-1.3457148138e+000
 1.7679156825e+000	 1.6961645380e+000	-1.3633783502e+000
 1.7502579593e+000	 1.7143795018e+000	-1.3817101716e+000
 1.7324116139e+000	 1.7324116139e+000	-1.4007099579e+000
 1.9214741392e+000	 1.5599878628e+000	-1.1037705840e+000
 1.9052567234e+000	 1.5797537207e+000	-1.1594091006e+000
 1.8888280317e+000	 1.5993603930e+000	-1.2198473946e+000
 1.8721904147e+000	 1.6188045129e+000	-1.2752867691e+000
 1.8553462943e+000	 1.6380827599e+000	-1.2854626061e+000
 1.8382981623e+000	 1.6571918618e+000	-1.2969416388e+000
 1.8210485791e+000	 1.6761285967e+000	-1.3097406559e+000
 1.8036001731e+000	 1.6948897946e+000	-1.3238716842e+000
 1.7859556384e+000	 1.7134723394e+000	-1.3393418176e+000
 1.7681177343e+000	 1.7318731702e+000	-1.3561530576e+000
 1.7500892834e+000	 1.7500892834e+000	-1.3743021648e+000
 1.9408829689e+000	 1.5757453160e+000	-1.0520333486e+000
 1.9245017408e+000	 1.5957108290e+000	-1.1003554014e+000
 1.9079071027e+000	 1.6155155485e+000	-1.1541971151e+000
 1.8911014290e+000	 1.6351560736e+000	-1.2134339754e+000
 1.8740871660e+000	 1.6546290504e+000	-1.2746837044e+000
 1.8568668306e+000	 1.6739311735e+000	-1.2817218046e+000
 1.8394430092e+000	 1.6930591885e+000	-1.2907443728e+000
 1.8218183566e+000	 1.7120098935e+000	-1.3017631414e+000
 1.8039955943e+000	 1.7307801408e+000	-1.3147841187e+000
 1.7859775094e+000	 1.7493668386e+000	-1.3298074254e+000
 1.7677669530e+000	 1.7677669530e+000	-1.3468271428e+000
 1.5909902577e+000	 1.5909902577e+000	-1.5834870645e+000
 1.5744301547e+000	 1.6073797585e+000	-1.5985736323e+000
 1.5577021267e+000	 1.6235960349e+000	-1.6129521798e+000
 1.5408089042e+000	 1.6396365210e+000	-1.6266689176e+000
 1.5237532697e+000	 1.6554987083e+000	-1.6397673469e+000
 1.5065380562e+000	 1.6711801475e+000	-1.6522881281e+000
 1.4891661453e+000	 1.6866784494e+000	-1.6642689574e+000
 1.4716404663e+000	 1.7019912862e+000	-1.6757444524e+000
 1.4539639937e+000	 1.7171163925e+000	-1.6867460469e+000
 1.4361397461e+000	 1.7320515667e+000	-1.6973018953e+000
 1.4181707844e+000	 1.7467946721e+000	-1.7074367858e+000
 1.6086679272e+000	 1.6086679272e+000	-1.5626717208e+000
 1.5919238231e+000	 1.6252395336e+000	-1.5800378070e+000
 1.5750099281e+000	 1.6416359909e+000	-1.5957771802e+000
 1.5579290031e+000	 1.6578547045e+000	-1.6099420442e+000
 1.5406838616e+000	 1.6738931384e+000	-1.6225826350e+000
 1.5232773679e+000	 1.6897488158e+000	-1.6337470774e+000
 1.5057124358e+000	 1.7054193211e+000	-1.6434812513e+000
 1.4879920270e+000	 1.7209023004e+000	-1.6518286639e+000
 1.4701191492e+000	 1.7361954635e+000	-1.6588303319e+000
 1.4520968544e+000	 1.7512965841e+000	-1.6645246714e+000
 1.4339282376e+000	 1.7662035017e+000	-1.6689473975e+000
 1.6263455968e+000	 1.6263455968e+000	-1.5414275601e+000
 1.6094174915e+000	 1.6430993087e+000	-1.5611085000e+000
 1.5923177295e+000	 1.6596759468e+000	-1.5782654624e+000
 1.5750491021e+000	 1.6760728881e+000	-1.5929567088e+000
 1.5576144535e+000	 1.6922875685e+000	-1.6052392574e+000
 1.5400166796e+000	 1.7083174841e+000	-1.6151687287e+000
 1.5222587263e+000	 1.7241601927e+000	-1.6227991999e+000
 1.5043435878e+000	 1.7398133147e+000	-1.6281830650e+000
 1.4862743046e+000	 1.7552745345e+000	-1.6313709034e+000
 1.4680539627e+000	 1.7705416015e+000	-1.6324113566e+000
 1.4496856907e+000	 1.7856123314e+000	-1.6313510120e+000
 1.6440232663e+000	 1.6440232663e+000	-1.5196811534e+000
 1.6269111599e+000	 1.6609590838e+000	-1.5417089997e+000
 1.6096255309e+000	 1.6777159028e+000	-1.5603364777e+000
 1.5921692010e+000	 1.6942910717e+000	-1.5756279743e+000
 1.5745450454e+000	 1.7106819986e+000	-1.5876473405e+000
 1.5567559914e+000	 1.7268861525e+000	-1.5964577271e+000
 1.5388050168e+000	 1.7429010644e+000	-1.6021214268e+000
 1.5206951485e+000	 1.7587243290e+000	-1.6046997214e+000
 1.5024294601e+000	 1.7743536055e+000	-1.6042527381e+000
 1.4840110710e+000	 1.7897866190e+000	-1.6008393112e+000
 1.4654431439e+000	 1.8050211611e+000	-1.5945168523e+000
 1.6617009358e+000	 1.6617009358e+000	-1.4973570541e+000
 1.6444048283e+000	 1.6788188589e+000	-1.5217606693e+000
 1.6269333323e+000	 1.6957558587e+000	-1.5419078711e+000
 1.6092892999e+000	 1.7125092552e+000	-1.5578692417e+000
 1.5914756372e+000	 1.7290764287e+000	-1.5697155199e+000
 1.5734953031e+000	 1.7454548208e+000	-1.5775174246e+000
 1.5553513073e+000	 1.7616419361e+000	-1.5813454856e+000
 1.5370467092e+000	 1.7776353433e+000	-1.5812698786e+000
 1.5185846156e+000	 1.7934326766e+000	-1.5773602673e+000
 1.4999681792e+000	 1.8090316364e+000	-1.5696856517e+000
 1.4812005971e+000	 1.8244299908e+000	-1.5583142238e+000
 1.6793786053e+000	 1.6793786053e+000	-1.4743779046e+000
 1.6618984966e+000	 1.6966786340e+000	-1.5011830481e+000
 1.6442411337e+000	 1.7137958146e+000	-1.5228955756e+000
 1.6264093989e+000	 1.7307274388e+000	-1.5395923381e+000
 1.6084062291e+000	 1.7474708588e+000	-1.5513510192e+000
 1.5902346148e+000	 1.7640234891e+000	-1.5582499479e+000
 1.5718975978e+000	 1.7803828077e+000	-1.5603679169e+000
 1.5533982700e+000	 1.7965463576e+000	-1.5577840049e+000
 1.5347397711e+000	 1.8125117476e+000	-1.5505774057e+000
 1.5159252875e+000	 1.8282766538e+000	-1.5388272627e+000
 1.4969580502e+000	 1.8438388205e+000	-1.5226125092e+000
 1.6970562749e+000	 1.6970562749e+000	-1.4506645355e+000
 1.6793921650e+000	 1.7145384091e+000	-1.4798939465e+000
 1.6615489351e+000	 1.7318357706e+000	-1.5032139020e+000
 1.6435294978e+000	 1.7489456224e+000	-1.5207075980e+000
 1.6253368210e+000	 1.7658652889e+000	-1.5324597235e+000
 1.6069739266e+000	 1.7825921574e+000	-1.5385562627e+000
 1.5884438884e+000	 1.7991236794e+000	-1.5390843002e+000
 1.5697498307e+000	 1.8154573719e+000	-1.5341318318e+000
 1.5508949266e+000	 1.8315908186e+000	-1.5237875789e+000
 1.5318823958e+000	 1.8475216712e+000	-1.5081408096e+000
 1.5127155034e+000	 1.8632476502e+000	-1.4872811648e+000
 1.7147339444e+000	 1.7147339444e+000	-1.4261360593e+000
 1.6968858334e+000	 1.7323981842e+000	-1.4578095352e+000
 1.6788567365e+000	 1.7498757265e+000	-1.4827756224e+000
 1.6606495967e+000	 1.7671638059e+000	-1.5011239406e+000
 1.6422674129e+000	 1.7842597190e+000	-1.5129462483e+000
 1.6237132383e+000	 1.8011608257e+000	-1.5183362330e+000
 1.6049901789e+000	 1.8178645510e+000	-1.5173893045e+000
 1.5861013914e+000	 1.8343683862e+000	-1.5102023924e+000
 1.5670500821e+000	 1.8506698896e+000	-1.4968737478e+000
 1.5478395041e+000	 1.8667666886e+000	-1.4775027497e+000
 1.5284729565e+000	 1.8826564799e+000	-1.4677143515e+000
 1.7324116139e+000	 1.7324116139e+000	-1.4007099579e+000
 1.7143795018e+000	 1.7502579593e+000	-1.4348444287e+000
 1.6961645380e+000	 1.7679156825e+000	-1.4614920483e+000
 1.6777696957e+000	 1.7853819895e+000	-1.4807489420e+000
 1.6591980048e+000	 1.8026541490e+000	-1.4927140043e+000
 1.6404525500e+000	 1.8197294940e+000	-1.4974886777e+000
 1.6215364694e+000	 1.8366054227e+000	-1.4951767335e+000
 1.6024529522e+000	 1.8532794005e+000	-1.4858840565e+000
 1.5832052375e+000	 1.8697489607e+000	-1.4697184328e+000
 1.5637966124e+000	 1.8860117060e+000	-1.4687484433e+000
 1.5442304097e+000	 1.9020653096e+000	-1.4713689342e+000
 1.7500892834e+000	 1.7500892834e+000	-1.3743021648e+000
 1.7318731702e+000	 1.7681177343e+000	-1.4109117640e+000
 1.7134723394e+000	 1.7859556384e+000	-1.4392731049e+000
 1.6948897946e+000	 1.8036001731e+000	-1.4594889029e+000
 1.6761285967e+000	 1.8210485791e+000	-1.4716652584e+000
 1.6571918618e+000	 1.8382981623e+000	-1.4759114233e+000
 1.6380827599e+000	 1.8553462943e+000	-1.4723395705e+000
 1.6188045129e+000	 1.8721904147e+000	-1.4610645645e+000
 1.5993603930e+000	 1.8888280317e+000	-1.4692994042e+000
 1.5797537207e+000	 1.9052567234e+000	-1.4754293942e+000
 1.5599878628e+000	 1.9214741392e+000	-1.4740135318e+000
 1.7677669530e+000	 1.7677669530e+000	-1.3468271428e+000
 1.7493668386e+000	 1.7859775094e+000	-1.3859232744e+000
 1.7307801408e+000	 1.8039955943e+000	-1.4160274002e+000
 1.7120098935e+000	 1.8218183566e+000	-1.4372489127e+000
 1.6930591885e+000	 1.8394430092e+000	-1.4497011905e+000
 1.6739311735e+000	 1.8568668306e+000	-1.4535013535e+000
 1.6546290504e+000	 1.8740871660e+000	-1.4487700187e+000
 1.6351560736e+000	 1.8911014290e+000	-1.4666014167e+000
 1.6155155485e+000	 1.9079071027e+000	-1.4778575447e+000
 1.5957108290e+000	 1.9245017408e+000	-1.4808322671e+000
 1.5757453160e+000	 1.9408829689e+000	-1.4755682459e+000
 1.4181707844e+000	 1.7467946721e+000	-1.7074367858e+000
 1.4000602100e+000	 1.7613436372e+000	-1.7156928047e+000
 1.3818111630e+000	 1.7756964577e+000	-1.7159630849e+000
 1.3634268205e+000	 1.7898511964e+000	-1.7083709434e+000
 1.3449103948e+000	 1.8038059846e+000	-1.6930428641e+000
 1.3262651314e+000	 1.8175590227e+000	-1.6701083108e+000
 1.3074943075e+000	 1.8311085811e+000	-1.6396995411e+000
 1.2886012298e+000	 1.8444530004e+000	-1.6019514236e+000
 1.2695892326e+000	 1.8575906924e+000	-1.5570012578e+000
 1.2504616763e+000	 1.8705201405e+000	-1.5049885976e+000
 1.2312219451e+000	 1.8832399002e+000	-1.5212422954e+000
 1.4339282376e+000	 1.7662035017e+000	-1.6689473975e+000
 1.4156164346e+000	 1.7809141221e+000	-1.6741360386e+000
 1.3971646204e+000	 1.7954264183e+000	-1.6720719665e+000
 1.3785760074e+000	 1.8097384319e+000	-1.6628691861e+000
 1.3598538436e+000	 1.8238482733e+000	-1.6466441164e+000
 1.3410014107e+000	 1.8377541230e+000	-1.6235154143e+000
 1.3220220220e+000	 1.8514542320e+000	-1.5936038038e+000
 1.3029190212e+000	 1.8649469226e+000	-1.5570319076e+000
 1.2836957796e+000	 1.8782305890e+000	-1.5210407395e+000
 1.2643556949e+000	 1.8913036977e+000	-1.5002279088e+000
 1.2449021889e+000	 1.9041647880e+000	-1.4880260668e+000
 1.4496856907e+000	 1.7856123314e+000	-1.6313510120e+000
 1.4311726591e+000	 1.8004846069e+000	-1.6330959807e+000
 1.4125180778e+000	 1.8151563790e+000	-1.6283088642e+000
 1.3937251943e+000	 1.8296256674e+000	-1.6170946301e+000
 1.3747972925e+000	 1.8438905620e+000	-1.5995599093e+000
 1.3557376899e+000	 1.8579492232e+000	-1.5758128331e+000
 1.3365497366e+000	 1.8717998829e+000	-1.5459628754e+000
 1.3172368126e+000	 1.8854408449e+000	-1.5328426967e+000
 1.2978023266e+000	 1.8988704856e+000	-1.5202362485e+000
 1.2782497135e+000	 1.9120872548e+000	-1.5012301994e+000
 1.2585824328e+000	 1.9250896758e+000	-1.4758891280e+000
 1.4654431439e+000	 1.8050211611e+000	-1.5945168523e+000
 1.4467288837e+000	 1.8200550918e+000	-1.5924534197e+000
 1.4278715351e+000	 1.8348863396e+000	-1.5845667100e+000
 1.4088743812e+000	 1.8495129029e+000	-1.5709529213e+000
 1.3897407413e+000	 1.8639328507e+000	-1.5517091675e+000
 1.3704739692e+000	 1.8781443235e+000	-1.5336982111e+000
 1.3510774511e+000	 1.8921455338e+000	-1.5335758636e+000
 1.3315546041e+000	 1.9059347671e+000	-1.5275647828e+000
 1.3119088736e+000	 1.9195103822e+000	-1.5157093151e+000
 1.2921437321e+000	 1.9328708119e+000	-1.4980561656e+000
 1.2722626766e+000	 1.9460145636e+000	-1.4746543640e+000
 1.4812005971e+000	 1.8244299908e+000	-1.5583142238e+000
 1.4622851082e+000	 1.8396255767e+000	-1.5520887178e+000
 1.4432249925e+000	 1.8546163002e+000	-1.5407374790e+000
 1.4240235681e+000	 1.8694001384e+000	-1.5243481978e+000
 1.4046841901e+000	 1.8839751394e+000	-1.5220614663e+000
 1.3852102484e+000	 1.8983394238e+000	-1.5263351225e+000
 1.3656051656e+000	 1.9124911847e+000	-1.5253114264e+000
 1.3458723955e+000	 1.9264286893e+000	-1.5190187182e+000
 1.3260154207e+000	 1.9401502787e+000	-1.5074871428e+000
 1.3060377508e+000	 1.9536543690e+000	-1.4907486345e+000
 1.2859429204e+000	 1.9669394514e+000	-1.4688369025e+000
 1.4969580502e+000	 1.8438388205e+000	-1.5226125092e+000
 1.4778413328e+000	 1.8591960615e+000	-1.5118818326e+000
 1.4585784499e+000	 1.8743462609e+000	-1.4967122395e+000
 1.4391727550e+000	 1.8892873739e+000	-1.5070954592e+000
 1.4196276390e+000	 1.9040174282e+000	-1.5141444204e+000
 1.3999465276e+000	 1.9185345240e+000	-1.5165042902e+000
 1.3801328802e+000	 1.9328368356e+000	-1.5141887852e+000
 1.3601901869e+000	 1.9469226115e+000	-1.5072128399e+000
 1.3401219677e+000	 1.9607901753e+000	-1.4955926093e+000
 1.3199317694e+000	 1.9744379261e+000	-1.4793454727e+000
 1.2996231643e+000	 1.9878643392e+000	-1.4584900391e+000
 1.5127155034e+000	 1.8632476502e+000	-1.4872811648e+000
 1.4933975573e+000	 1.8787665464e+000	-1.4794716801e+000
 1.4739319072e+000	 1.8940762215e+000	-1.4917484339e+000
 1.4543219419e+000	 1.9091746095e+000	-1.4999593516e+000
 1.4345710878e+000	 1.9240597169e+000	-1.5041043543e+000
 1.4146828069e+000	 1.9387296243e+000	-1.5041839491e+000
 1.3946605947e+000	 1.9531824865e+000	-1.5001992445e+000
 1.3745079784e+000	 1.9674165338e+000	-1.4921519690e+000
 1.3542285147e+000	 1.9814300719e+000	-1.4800444917e+000
 1.3338257880e+000	 1.9952214832e+000	-1.4638798448e+000
 1.3133034081e+000	 2.0087892269e+000	-1.4436617489e+000
 1.5284729565e+000	 1.8826564799e+000	-1.4677143515e+000
 1.5089537819e+000	 1.8983370312e+000	-1.4789011903e+000
 1.4892853646e+000	 1.9138061822e+000	-1.4866694019e+000
 1.4694711288e+000	 1.9290618450e+000	-1.4910077971e+000
 1.4495145366e+000	 1.9441020056e+000	-1.4919051164e+000
 1.4294190861e+000	 1.9589247245e+000	-1.4893500584e+000
 1.4091883092e+000	 1.9735281374e+000	-1.4833313119e+000
 1.3888257698e+000	 1.9879104560e+000	-1.4738375919e+000
 1.3683350618e+000	 2.0020699685e+000	-1.4608576780e+000
 1.3477198066e+000	 2.0160050404e+000	-1.4443804556e+000
 1.3269836519e+000	 2.0297141147e+000	-1.4243949610e+000
 1.5442304097e+000	 1.9020653096e+000	-1.4713689342e+000
 1.5245100065e+000	 1.9179075161e+000	-1.4770998764e+000
 1.5046388219e+000	 1.9335361428e+000	-1.4800480038e+000
 1.4846203157e+000	 1.9489490805e+000	-1.4801917587e+000
 1.4644579854e+000	 1.9641442943e+000	-1.4775088741e+000
 1.4441553653e+000	 1.9791198248e+000	-1.4719764177e+000
 1.4237160237e+000	 1.9938737883e+000	-1.4635708407e+000
 1.4031435613e+000	 2.0084043782e+000	-1.4522680301e+000
 1.3824416088e+000	 2.0227098651e+000	-1.4380433652e+000
 1.3616138253e+000	 2.0367885975e+000	-1.4208717779e+000
 1.3406638958e+000	 2.0506390025e+000	-1.4007278161e+000
 1.5599878628e+000	 1.9214741392e+000	-1.4740135318e+000
 1.5400662310e+000	 1.9374780009e+000	-1.4739972737e+000
 1.5199922793e+000	 1.9532661034e+000	-1.4718236980e+000
 1.4997695026e+000	 1.9688363160e+000	-1.4674610420e+000
 1.4794014343e+000	 1.9841865830e+000	-1.4608761986e+000
 1.4588916446e+000	 1.9993149250e+000	-1.4520347766e+000
 1.4382437383e+000	 2.0142194392e+000	-1.4409011645e+000
 1.4174613527e+000	 2.0288983004e+000	-1.4274386005e+000
 1.3965481558e+000	 2.0433497617e+000	-1.4116092463e+000
 1.3755078439e+000	 2.0575721546e+000	-1.3933742659e+000
 1.3543441396e+000	 2.0715638903e+000	-1.3726939079e+000
 1.5757453160e+000	 1.9408829689e+000	-1.4755682459e+000
 1.5556224556e+000	 1.9570484858e+000	-1.4695226062e+000
 1.5353457367e+000	 1.9729960641e+000	-1.4619352451e+000
 1.5149186895e+000	 1.9887235515e+000	-1.4527643529e+000
 1.4943448831e+000	 2.0042288717e+000	-1.4419661449e+000
 1.4736279238e+000	 2.0195100253e+000	-1.4294949362e+000
 1.4527714528e+000	 2.0345650901e+000	-1.4153032224e+000
 1.4317791441e+000	 2.0493922227e+000	-1.3993417653e+000
 1.4106547028e+000	 2.0639896582e+000	-1.3815596849e+000
 1.3894018625e+000	 2.0783557117e+000	-1.3619045563e+000
 1.3680243835e+000	 2.0924887780e+000	-1.3403225109e+000
 1.2312219451e+000	 1.8832399002e+000	-1.5212422954e+000
 1.2118734454e+000	 1.8957485995e+000	-1.5171424336e+000
 1.1924196034e+000	 1.9080449390e+000	-1.5076230787e+000
 1.1728638638e+000	 1.9201276929e+000	-1.4925474095e+000
 1.1532096875e+000	 1.9319957082e+000	-1.4717881824e+000
 1.1334605497e+000	 1.9436479059e+000	-1.4452278502e+000
 1.1136199380e+000	 1.9550832805e+000	-1.4127586580e+000
 1.0936913507e+000	 1.9663009000e+000	-1.3742827181e+000
 1.0736782945e+000	 1.9772999064e+000	-1.3297120622e+000
 1.0535842829e+000	 1.9880795152e+000	-1.2789686727e+000
 1.0334128344e+000	 1.9986390154e+000	-1.2219844922e+000
 1.2449021889e+000	 1.9041647880e+000	-1.4880260668e+000
 1.2253387059e+000	 1.9168124728e+000	-1.4870138357e+000
 1.2056687101e+000	 1.9292454384e+000	-1.4800585993e+000
 1.1858956845e+000	 1.9414624450e+000	-1.4670334316e+000
 1.1660231285e+000	 1.9534623272e+000	-1.4478215728e+000
 1.1460545558e+000	 1.9652439938e+000	-1.4223165335e+000
 1.1259934929e+000	 1.9768064280e+000	-1.3904221762e+000
 1.1058434768e+000	 1.9881486878e+000	-1.3520527735e+000
 1.0856080533e+000	 1.9992699054e+000	-1.3071330444e+000
 1.0652907750e+000	 2.0101692876e+000	-1.2555981672e+000
 1.0448951992e+000	 2.0208461156e+000	-1.1973937714e+000
 1.2585824328e+000	 1.9250896758e+000	-1.4758891280e+000
 1.2388039664e+000	 1.9378763461e+000	-1.4521783191e+000
 1.2189178168e+000	 1.9504459377e+000	-1.4482909338e+000
 1.1989275052e+000	 1.9627971972e+000	-1.4378193590e+000
 1.1788365695e+000	 1.9749289462e+000	-1.4206569797e+000
 1.1586485619e+000	 1.9868400816e+000	-1.3967080342e+000
 1.1383670478e+000	 1.9985295756e+000	-1.3658876806e+000
 1.1179956029e+000	 2.0099964756e+000	-1.3281220401e+000
 1.0975378121e+000	 2.0212399043e+000	-1.2833482155e+000
 1.0769972670e+000	 2.0322590600e+000	-1.2315142883e+000
 1.0563775640e+000	 2.0430532157e+000	-1.1725792908e+000
 1.2722626766e+000	 1.9460145636e+000	-1.4746543640e+000
 1.2522692269e+000	 1.9589402195e+000	-1.4197614022e+000
 1.2321669235e+000	 1.9716464370e+000	-1.4126108873e+000
 1.2119593259e+000	 1.9841319493e+000	-1.4051803112e+000
 1.1916500104e+000	 1.9963955652e+000	-1.3905535097e+000
 1.1712425680e+000	 2.0084361695e+000	-1.3686451260e+000
 1.1507406026e+000	 2.0202527232e+000	-1.3393813008e+000
 1.1301477291e+000	 2.0318442634e+000	-1.3026996992e+000
 1.1094675710e+000	 2.0432099033e+000	-1.2585495137e+000
 1.0887037590e+000	 2.0543488324e+000	-1.2068914436e+000
 1.0678599288e+000	 2.0652603159e+000	-1.1476976497e+000
 1.2859429204e+000	 1.9669394514e+000	-1.4688369025e+000
 1.2657344874e+000	 1.9800040928e+000	-1.4168386601e+000
 1.2454160302e+000	 1.9928469363e+000	-1.3733046478e+000
 1.2249911467e+000	 2.0054667014e+000	-1.3693874570e+000
 1.2044634514e+000	 2.0178621842e+000	-1.3577669934e+000
 1.1838365741e+000	 2.0300322573e+000	-1.3383679900e+000
 1.1631141575e+000	 2.0419758707e+000	-1.3111272636e+000
 1.1422998552e+000	 2.0536920511e+000	-1.2759937271e+000
 1.1213973298e+000	 2.0651799023e+000	-1.2329283762e+000
 1.1004102511e+000	 2.0764386048e+000	-1.1819042512e+000
 1.0793422937e+000	 2.0874674161e+000	-1.1229063749e+000
 1.2996231643e+000	 1.9878643392e+000	-1.4584900391e+000
 1.2791997479e+000	 2.0010679661e+000	-1.4098384579e+000
 1.2586651369e+000	 2.0140474357e+000	-1.3559008073e+000
 1.2380229674e+000	 2.0268014536e+000	-1.3307082224e+000
 1.2172768924e+000	 2.0393288031e+000	-1.3225501581e+000
 1.1964305802e+000	 2.0516283452e+000	-1.3061143502e+000
 1.1754877124e+000	 2.0636990183e+000	-1.2813479931e+000
 1.1544519813e+000	 2.0755398389e+000	-1.2482109585e+000
 1.1333270886e+000	 2.0871499012e+000	-1.2066757659e+000
 1.1121167431e+000	 2.0985283772e+000	-1.1567275283e+000
 1.0908246585e+000	 2.1096745162e+000	-1.0983638714e+000
 1.3133034081e+000	 2.0087892269e+000	-1.4436617489e+000
 1.2926650084e+000	 2.0221318395e+000	-1.3987959962e+000
 1.2719142436e+000	 2.0352479350e+000	-1.3483243561e+000
 1.2510547881e+000	 2.0481362057e+000	-1.2923665401e+000
 1.2300903333e+000	 2.0607954221e+000	-1.2851527893e+000
 1.2090245863e+000	 2.0732244330e+000	-1.2721196024e+000
 1.1878612672e+000	 2.0854221659e+000	-1.2502642051e+000
 1.1666041074e+000	 2.0973876267e+000	-1.2195571457e+000
 1.1452568475e+000	 2.1091199002e+000	-1.1799821963e+000
 1.1238232351e+000	 2.1206181496e+000	-1.1315362807e+000
 1.1023070233e+000	 2.1318816164e+000	-1.0742293772e+000
 1.3269836519e+000	 2.0297141147e+000	-1.4243949610e+000
 1.3061302689e+000	 2.0431957128e+000	-1.3837419826e+000
 1.2851633503e+000	 2.0564484343e+000	-1.3371706296e+000
 1.2640866088e+000	 2.0694709579e+000	-1.2848135967e+000
 1.2429037743e+000	 2.0822620411e+000	-1.2458218823e+000
 1.2216185925e+000	 2.0948205209e+000	-1.2366169336e+000
 1.2002348221e+000	 2.1071453134e+000	-1.2180949943e+000
 1.1787562335e+000	 2.1192354145e+000	-1.1902370147e+000
 1.1571866063e+000	 2.1310898991e+000	-1.1530377542e+000
 1.1355297272e+000	 2.1427079219e+000	-1.1065056937e+000
 1.1137893881e+000	 2.1540887166e+000	-1.0506629201e+000
 1.3406638958e+000	 2.0506390025e+000	-1.4007278161e+000
 1.3195955294e+000	 2.0642595861e+000	-1.3647028608e+000
 1.2984124570e+000	 2.0776489336e+000	-1.3224542431e+000
 1.2771184295e+000	 2.0908057100e+000	-1.2741273995e+000
 1.2557172153e+000	 2.1037286601e+000	-1.2198690933e+000
 1.2342125986e+000	 2.1164166087e+000	-1.1998374350e+000
 1.2126083770e+000	 2.1288684610e+000	-1.1850579181e+000
 1.1909083597e+000	 2.1410832022e+000	-1.1604543174e+000
 1.1691163651e+000	 2.1530598981e+000	-1.1260321219e+000
 1.1472362192e+000	 2.1647976943e+000	-1.0818111221e+000
 1.1252717530e+000	 2.1762958168e+000	-1.0278252774e+000
 1.3543441396e+000	 2.0715638903e+000	-1.3726939079e+000
 1.3330607899e+000	 2.0853234594e+000	-1.3417010258e+000
 1.3116615637e+000	 2.0988494330e+000	-1.3041862686e+000
 1.2901502502e+000	 2.1121404622e+000	-1.2603075786e+000
 1.2685306563e+000	 2.1251952790e+000	-1.2102243338e+000
 1.2468066047e+000	 2.1380126965e+000	-1.1620102077e+000
 1.2249819318e+000	 2.1505916085e+000	-1.1513690733e+000
 1.2030604858e+000	 2.1629309900e+000	-1.1304118808e+000
 1.1810461240e+000	 2.1750298971e+000	-1.0991545974e+000
 1.1589427112e+000	 2.1868874667e+000	-1.0576280825e+000
 1.1367541178e+000	 2.1985029169e+000	-1.0058779381e+000
 1.3680243835e+000	 2.0924887780e+000	-1.3403225109e+000
 1.3465260504e+000	 2.1063873328e+000	-1.3147550264e+000
 1.3249106704e+000	 2.1200499323e+000	-1.2823744115e+000
 1.3031820709e+000	 2.1334752143e+000	-1.2433508834e+000
 1.2813440973e+000	 2.1466618980e+000	-1.1978561996e+000
 1.2594006108e+000	 2.1596087844e+000	-1.1460635186e+000
 1.2373554867e+000	 2.1723147561e+000	-1.1172431695e+000
 1.2152126119e+000	 2.1847787778e+000	-1.1003116534e+000
 1.1929758828e+000	 2.1969998960e+000	-1.0725941137e+000
 1.1706492033e+000	 2.2089772391e+000	-1.0341322444e+000
 1.1482364826e+000	 2.2207100171e+000	-9.8498306738e-001
 1.0334128344e+000	 1.9986390154e+000	-1.2219844922e+000
 1.0131674701e+000	 2.0089777693e+000	-1.2055937178e+000
 9.9285171243e-001	 2.0190952125e+000	-1.1822390164e+000
 9.7246908310e-001	 2.0289908532e+000	-1.1519527114e+000
 9.5202310113e-001	 2.0386642723e+000	-1.1147765672e+000
 9.3151728120e-001	 2.0481151225e+000	-1.0707616267e+000
 9.1095513182e-001	 2.0573431284e+000	-1.0199680309e+000
 8.9034015358e-001	 2.0663480856e+000	-9.6246482303e-001
 8.6967583741e-001	 2.0751298605e+000	-8.9832973650e-001
 8.4896566288e-001	 2.0836883892e+000	-8.2764896781e-001
 8.2821309651e-001	 2.0920236774e+000	-7.5051693578e-001
 1.0448951992e+000	 2.0208461156e+000	-1.1973937714e+000
 1.0244248864e+000	 2.0312997445e+000	-1.1821359405e+000
 1.0038833981e+000	 2.0415296038e+000	-1.1602362207e+000
 9.8327429514e-001	 2.0515351960e+000	-1.1317201381e+000
 9.6260113559e-001	 2.0613160975e+000	-1.0966226208e+000
 9.4186747321e-001	 2.0708719572e+000	-1.0549878427e+000
 9.2107685550e-001	 2.0802024965e+000	-1.0068690496e+000
 9.0023282195e-001	 2.0893075088e+000	-9.5232836866e-001
 8.7933890227e-001	 2.0981868589e+000	-8.9143660203e-001
 8.5839861469e-001	 2.1068404824e+000	-8.2427300522e-001
 8.3741546425e-001	 2.1152683849e+000	-7.5092505110e-001
 1.0563775640e+000	 2.0430532157e+000	-1.1725792908e+000
 1.0356823027e+000	 2.0536217198e+000	-1.1582964421e+000
 1.0149150838e+000	 2.0639639950e+000	-1.1376755100e+000
 9.9407950717e-001	 2.0740795389e+000	-1.1107353468e+000
 9.7317917004e-001	 2.0839679228e+000	-1.0775041841e+000
 9.5221766522e-001	 2.0936287919e+000	-1.0380194827e+000
 9.3119857919e-001	 2.1030618646e+000	-9.9232776461e-001
 9.1012549032e-001	 2.1122669320e+000	-9.4048442775e-001
 8.8900196713e-001	 2.1212438574e+000	-8.8255354491e-001
 8.6783156650e-001	 2.1299925756e+000	-8.1860764690e-001
 8.4661783199e-001	 2.1385130925e+000	-7.4872749102e-001
 1.0678599288e+000	 2.0652603159e+000	-1.1476976497e+000
 1.0469397191e+000	 2.0759436950e+000	-1.1342345339e+000
 1.0259467695e+000	 2.0863983863e+000	-1.1147191271e+000
 1.0048847192e+000	 2.0966238817e+000	-1.0891637282e+000
 9.8375720450e-001	 2.1066197480e+000	-1.0575900093e+000
 9.6256785724e-001	 2.1163856266e+000	-1.0200288711e+000
 9.4132030288e-001	 2.1259212327e+000	-9.7652027982e-001
 9.2001815870e-001	 2.1352263552e+000	-9.2711308816e-001
 8.9866503199e-001	 2.1443008558e+000	-8.7186483807e-001
 8.7726451831e-001	 2.1531446689e+000	-8.1084154877e-001
 8.5582019972e-001	 2.1617578000e+000	-7.4411748929e-001
 1.0793422937e+000	 2.0874674161e+000	-1.1229063749e+000
 1.0581971354e+000	 2.0982656702e+000	-1.1101102927e+000
 1.0369784552e+000	 2.1088327775e+000	-1.0915299033e+000
 1.0156899312e+000	 2.1191682245e+000	-1.0671710701e+000
 9.9433523896e-001	 2.1292715733e+000	-1.0370490396e+000
 9.7291804925e-001	 2.1391424613e+000	-1.0011883021e+000
 9.5144202657e-001	 2.1487806008e+000	-9.5962243396e-001
 9.2991082707e-001	 2.1581857783e+000	-9.1239392314e-001
 9.0832809685e-001	 2.1673578543e+000	-8.5955397654e-001
 8.8669747012e-001	 2.1762967621e+000	-8.0116231190e-001
 8.6502256746e-001	 2.1850025075e+000	-7.3728693420e-001
 1.0908246585e+000	 2.1096745162e+000	-1.0983638714e+000
 1.0694545517e+000	 2.1205876454e+000	-1.0860845205e+000
 1.0480101409e+000	 2.1312671688e+000	-1.0682712278e+000
 1.0264951433e+000	 2.1417125673e+000	-1.0449235365e+000
 1.0049132734e+000	 2.1519233985e+000	-1.0160503987e+000
 9.8326824127e-001	 2.1618992960e+000	-9.8167004151e-001
 9.6156375025e-001	 2.1716399689e+000	-9.4180981436e-001
 9.3980349544e-001	 2.1811452015e+000	-8.9650601842e-001
 9.1799116171e-001	 2.1904148527e+000	-8.4580371839e-001
 8.9613042193e-001	 2.1994488553e+000	-7.8975653794e-001
 8.7422493520e-001	 2.2082472150e+000	-7.2842643940e-001
 1.1023070233e+000	 2.1318816164e+000	-1.0742293772e+000
 1.0807119681e+000	 2.1429096206e+000	-1.0623187067e+000
 1.0590418266e+000	 2.1537015600e+000	-1.0451070185e+000
 1.0373003553e+000	 2.1642569101e+000	-1.0225876479e+000
 1.0154913079e+000	 2.1745752237e+000	-9.9476338156e-001
 9.9361843328e-001	 2.1846561306e+000	-9.6164632809e-001
 9.7168547394e-001	 2.1944993369e+000	-9.2325777014e-001
 9.4969616382e-001	 2.2041046247e+000	-8.7962799757e-001
 9.2765422657e-001	 2.2134718512e+000	-8.3079612318e-001
 9.0556337374e-001	 2.2226009485e+000	-7.7680988127e-001
 8.8342730294e-001	 2.2314919226e+000	-7.1772541030e-001
 1.1137893881e+000	 2.1540887166e+000	-1.0506629201e+000
 1.0919693844e+000	 2.1652315958e+000	-1.0389749928e+000
 1.0700735123e+000	 2.1761359513e+000	-1.0222016945e+000
 1.0481055673e+000	 2.1868012529e+000	-1.0003302629e+000
 1.0260693423e+000	 2.1972270490e+000	-9.7335744555e-001
 1.0039686253e+000	 2.2074129653e+000	-9.4128937486e-001
 9.8180719763e-001	 2.2173587050e+000	-9.0414142441e-001
 9.5958883219e-001	 2.2270640479e+000	-8.6193804585e-001
 9.3731729143e-001	 2.2365288496e+000	-8.1471258787e-001
 9.1499632555e-001	 2.2457530417e+000	-7.6250709773e-001
 8.9262967068e-001	 2.2547366301e+000	-7.0537210635e-001
 1.1252717530e+000	 2.1762958168e+000	-1.0278252774e+000
 1.1032268007e+000	 2.1875535710e+000	-1.0162161390e+000
 1.0811051980e+000	 2.1985703425e+000	-9.9972015089e-001
 1.0589107794e+000	 2.2093455957e+000	-9.7831856117e-001
 1.0366473768e+000	 2.2198788742e+000	-9.5200220226e-001
 1.0143188173e+000	 2.2301698000e+000	-9.2077137048e-001
 9.9192892132e-001	 2.2402180731e+000	-8.8463568585e-001
 9.6948150057e-001	 2.2500234710e+000	-8.4361393255e-001
 9.4698035630e-001	 2.2595858481e+000	-7.9773388071e-001
 9.2442927736e-001	 2.2689051349e+000	-7.4703209055e-001
 9.0183203843e-001	 2.2779813376e+000	-6.9155369950e-001
 1.1367541178e+000	 2.1985029169e+000	-1.0058779381e+000
 1.1144842171e+000	 2.2098755463e+000	-9.9420549313e-001
 1.0921368837e+000	 2.2210047338e+000	-9.7782773457e-001
 1.0697159914e+000	 2.2318899385e+000	-9.5672002695e-001
 1.0472254113e+000	 2.2425306995e+000	-9.3086740960e-001
 1.0246690093e+000	 2.2529266347e+000	-9.0026448050e-001
 1.0020506450e+000	 2.2630774412e+000	-8.6491525955e-001
 9.7937416894e-001	 2.2729828942e+000	-8.2483303202e-001
 9.5664342116e-001	 2.2826428465e+000	-7.8004017294e-001
 9.3386222918e-001	 2.2920572281e+000	-7.3056795334e-001
 9.1103440617e-001	 2.3012260451e+000	-6.7645632912e-001
 1.1482364826e+000	 2.2207100171e+000	-9.8498306738e-001
 1.1257416334e+000	 2.2321975215e+000	-9.7310696088e-001
 1.1031685694e+000	 2.2434391250e+000	-9.5669022159e-001
 1.0805212035e+000	 2.2544342814e+000	-9.3570243403e-001
 1.0578034457e+000	 2.2651825247e+000	-9.1012296450e-001
 1.0350192013e+000	 2.2756834694e+000	-8.7994084848e-001
 1.0121723687e+000	 2.2859368093e+000	-8.4515465714e-001
 9.8926683732e-001	 2.2959423174e+000	-8.0577234342e-001
 9.6630648602e-001	 2.3056998450e+000	-7.6181106867e-001
 9.4329518099e-001	 2.3152093213e+000	-7.1329701065e-001
 9.2023677391e-001	 2.3244707527e+000	-6.6026515363e-001
 8.2821309651e-001	 2.0920236774e+000	-7.5051693578e-001
 8.0742159012e-001	 2.1001357994e+000	-7.0379430703e-001
 7.8659457923e-001	 2.1080248974e+000	-6.5798570787e-001
 7.6573548144e-001	 2.1156911808e+000	-6.1311002484e-001
 7.4484769492e-001	 2.1231349254e+000	-5.6918794353e-001
 7.2393459685e-001	 2.1303564724e+000	-5.2624182920e-001
 7.0299954197e-001	 2.1373562277e+000	-4.8429560226e-001
 6.8204586113e-001	 2.1441346607e+000	-4.4337460890e-001
 6.6107685984e-001	 2.1506923038e+000	-4.0350548769e-001
 6.4009581698e-001	 2.1570297506e+000	-3.6471603247e-001
 6.1910598340e-001	 2.1631476559e+000	-2.8816880438e-001
 8.3741546425e-001	 2.1152683849e+000	-7.5092505110e-001
 8.1639294112e-001	 2.1234706416e+000	-7.0657730964e-001
 7.9533451899e-001	 2.1314473962e+000	-6.6212546312e-001
 7.7424365345e-001	 2.1391988606e+000	-6.1761701945e-001
 7.5312378041e-001	 2.1467253135e+000	-5.7310194744e-001
 7.3197831459e-001	 2.1540270999e+000	-5.2863251543e-001
 7.1081064799e-001	 2.1611046302e+000	-4.8426312439e-001
 6.8962414847e-001	 2.1679583792e+000	-4.4005013613e-001
 6.6842215828e-001	 2.1745888849e+000	-3.9605169720e-001
 6.4720799272e-001	 2.1809967479e+000	-3.5232755913e-001
 6.2598493877e-001	 2.1871826299e+000	-3.0893889567e-001
 8.4661783199e-001	 2.1385130925e+000	-7.4872749102e-001
 8.2536429212e-001	 2.1468054838e+000	-7.0741197952e-001
 8.0407445876e-001	 2.1548698951e+000	-6.6498374394e-001
 7.8275182547e-001	 2.1627065404e+000	-6.2151856619e-001
 7.6139986591e-001	 2.1703157015e+000	-5.7709535414e-001
 7.4002203233e-001	 2.1776977274e+000	-5.3179593836e-001
 7.1862175401e-001	 2.1848530328e+000	-4.8570486308e-001
 6.9720243581e-001	 2.1917820976e+000	-4.3890917200e-001
 6.7576745672e-001	 2.1984854661e+000	-3.9149818972e-001
 6.5432016846e-001	 2.2049637451e+000	-3.4356329942e-001
 6.3286389413e-001	 2.2112176038e+000	-2.9519771762e-001
 8.5582019972e-001	 2.1617578000e+000	-7.4411748929e-001
 8.3433564312e-001	 2.1701403260e+000	-7.0646437829e-001
 8.1281439853e-001	 2.1782923940e+000	-6.6669879518e-001
 7.9125999748e-001	 2.1862142202e+000	-6.2492446510e-001
 7.6967595141e-001	 2.1939060896e+000	-5.8124890772e-001
 7.4806575007e-001	 2.2013683548e+000	-5.3578319217e-001
 7.2643286003e-001	 2.2086014353e+000	-4.8864168601e-001
 7.0478072316e-001	 2.2156058161e+000	-4.3994179873e-001
 6.8311275516e-001	 2.2223820472e+000	-3.8980372086e-001
 6.6143234421e-001	 2.2289307423e+000	-3.3835015917e-001
 6.3974284950e-001	 2.2352525778e+000	-2.8570606900e-001
 8.6502256746e-001	 2.1850025075e+000	-7.3728693420e-001
 8.4330699412e-001	 2.1934751683e+000	-7.0390027746e-001
 8.2155433830e-001	 2.2017148928e+000	-6.6740964920e-001
 7.9976816950e-001	 2.2097219000e+000	-6.2794640311e-001
 7.7795203691e-001	 2.2174964776e+000	-5.8564635962e-001
 7.5610946781e-001	 2.2250389823e+000	-5.4064951929e-001
 7.3424396605e-001	 2.2323498378e+000	-4.9309976979e-001
 7.1235901050e-001	 2.2394295346e+000	-4.4314458734e-001
 6.9045805361e-001	 2.2462786284e+000	-3.9093473337e-001
 6.6854451995e-001	 2.2528977396e+000	-3.3662394754e-001
 6.4662180487e-001	 2.2592875518e+000	-2.8036863755e-001
 8.7422493520e-001	 2.2082472150e+000	-7.2842643940e-001
 8.5227834513e-001	 2.2168100105e+000	-6.9988517367e-001
 8.3029427807e-001	 2.2251373917e+000	-6.6725608450e-001
 8.0827634151e-001	 2.2332295797e+000	-6.3069785476e-001
 7.8622812241e-001	 2.2410868657e+000	-5.9037431036e-001
 7.6415318556e-001	 2.2487096098e+000	-5.4645409204e-001
 7.4205507208e-001	 2.2560982403e+000	-4.9911032058e-001
 7.1993729785e-001	 2.2632532530e+000	-4.4852025609e-001
 6.9780335205e-001	 2.2701752095e+000	-3.9486495255e-001
 6.7565669569e-001	 2.2768647368e+000	-3.3832890841e-001
 6.5350076025e-001	 2.2833225257e+000	-2.7909971421e-001
 8.8342730294e-001	 2.2314919226e+000	-7.1772541030e-001
 8.6124969613e-001	 2.2401448527e+000	-6.9458430305e-001
 8.3903421784e-001	 2.2485598905e+000	-6.6637858676e-001
 8.1678451353e-001	 2.2567372595e+000	-6.3329398908e-001
 7.9450420791e-001	 2.2646772538e+000	-5.9552206114e-001
 7.7219690330e-001	 2.2723802372e+000	-5.5325980801e-001
 7.4986617810e-001	 2.2798466429e+000	-5.0670931208e-001
 7.2751558520e-001	 2.2870769715e+000	-4.5607735038e-001
 7.0514865049e-001	 2.2940717907e+000	-4.0157500693e-001
 6.8276887144e-001	 2.3008317340e+000	-3.4341728111e-001
 6.6037971562e-001	 2.3073574997e+000	-2.8182269298e-001
 8.9262967068e-001	 2.2547366301e+000	-7.0537210635e-001
 8.7022104713e-001	 2.2634796949e+000	-6.8816265459e-001
 8.4777415761e-001	 2.2719823894e+000	-6.6491831246e-001
 8.2529268555e-001	 2.2802449393e+000	-6.3585158222e-001
 8.0278029341e-001	 2.2882676418e+000	-6.0118147463e-001
 7.8024062105e-001	 2.2960508647e+000	-5.6113309798e-001
 7.5767728412e-001	 2.3035950454e+000	-5.1593723982e-001
 7.3509387254e-001	 2.3109006899e+000	-4.6582994232e-001
 7.1249394894e-001	 2.3179683718e+000	-4.1105207248e-001
 6.8988104719e-001	 2.3247987313e+000	-3.5184888825e-001
 6.6725867099e-001	 2.3313924736e+000	-2.8846960167e-001
 9.0183203843e-001	 2.2779813376e+000	-6.9155369950e-001
 8.7919239814e-001	 2.2868145371e+000	-6.8078498282e-001
 8.5651409738e-001	 2.2954048883e+000	-6.6301705463e-001
 8.3380085757e-001	 2.3037526191e+000	-6.3848893552e-001
 8.1105637891e-001	 2.3118580299e+000	-6.0744684428e-001
 7.8828433879e-001	 2.3197214922e+000	-5.7014374566e-001
 7.6548839015e-001	 2.3273434479e+000	-5.2683889043e-001
 7.4267215989e-001	 2.3347244084e+000	-4.7779734879e-001
 7.1983924738e-001	 2.3418649530e+000	-4.2328953851e-001
 6.9699322293e-001	 2.3487657285e+000	-3.6359074885e-001
 6.7413762637e-001	 2.3554274476e+000	-2.9898066138e-001
 9.1103440617e-001	 2.3012260451e+000	-6.7645632912e-001
 8.8816374914e-001	 2.3101493793e+000	-6.7261581958e-001
 8.6525403716e-001	 2.3188273871e+000	-6.6081721069e-001
 8.4230902959e-001	 2.3272602989e+000	-6.4132579842e-001
 8.1933246442e-001	 2.3354484179e+000	-6.1441477158e-001
 7.9632805654e-001	 2.3433921197e+000	-5.8036471841e-001
 7.7329949618e-001	 2.3510918505e+000	-5.3946312493e-001
 7.5025044724e-001	 2.3585481268e+000	-4.9200386652e-001
 7.2718454583e-001	 2.3657615341e+000	-4.3828669391e-001
 7.0410539868e-001	 2.3727327257e+000	-3.7861671484e-001
 6.8101658174e-001	 2.3794624215e+000	-3.1330387274e-001
 9.2023677391e-001	 2.3244707527e+000	-6.6026515363e-001
 8.9713510015e-001	 2.3334842215e+000	-6.6381948520e-001
 8.7399397693e-001	 2.3422498860e+000	-6.5846175226e-001
 8.5081720161e-001	 2.3507679787e+000	-6.4448329606e-001
 8.2760854992e-001	 2.3590388060e+000	-6.2218405061e-001
 8.0437177429e-001	 2.3670627471e+000	-5.9187200796e-001
 7.8111060220e-001	 2.3748402530e+000	-5.5386267501e-001
 7.5782873460e-001	 2.3823718453e+000	-5.0847852315e-001
 7.3452984428e-001	 2.3896581153e+000	-4.5604843212e-001
 7.1121757443e-001	 2.3966997229e+000	-3.9690712947e-001
 6.8789553712e-001	 2.4034973955e+000	-3.3139462691e-001
 6.1910598340e-001	 2.1631476559e+000	-2.8816880438e-001
 5.9811058066e-001	 2.1690467338e+000	-2.5510681325e-001
 5.7711279978e-001	 2.1747277568e+000	-2.2437679145e-001
 5.5611580005e-001	 2.1801915551e+000	-1.9542178124e-001
 5.3512270782e-001	 2.1854390149e+000	-1.6772564289e-001
 5.1413661543e-001	 2.1904710774e+000	-1.4081412010e-001
 4.9316058010e-001	 2.1952887378e+000	-1.1425577952e-001
 4.7219762289e-001	 2.1998930440e+000	-8.7662825021e-002
 4.5125072774e-001	 2.2042850952e+000	-6.0691787392e-002
 4.3032284048e-001	 2.2084660407e+000	-3.3044090693e-002
 4.0941686796e-001	 2.2124370789e+000	-4.4664967521e-003
 6.2598493877e-001	 2.1871826299e+000	-3.0893889567e-001
 6.0475625377e-001	 2.1931472531e+000	-2.7572008223e-001
 5.8352516422e-001	 2.1988913986e+000	-2.3903636731e-001
 5.6229486449e-001	 2.2044159057e+000	-2.0475561772e-001
 5.4106851568e-001	 2.2097216706e+000	-1.7229138307e-001
 5.1984924449e-001	 2.2148096449e+000	-1.4110049532e-001
 4.9864014209e-001	 2.2196808349e+000	-1.1068409616e-001
 4.7744426314e-001	 2.2243363000e+000	-8.0588533838e-002
 4.5626462471e-001	 2.2287771518e+000	-5.0406129928e-002
 4.3510420537e-001	 2.2330045523e+000	-1.9775817468e-002
 4.1396594427e-001	 2.2370197131e+000	 1.1616348235e-002
 6.3286389413e-001	 2.2112176038e+000	-2.9519771762e-001
 6.1140192689e-001	 2.2172477723e+000	-3.0089062046e-001
 5.8993752866e-001	 2.2230550403e+000	-2.5879730393e-001
 5.6847392893e-001	 2.2286402563e+000	-2.1967783795e-001
 5.4701432354e-001	 2.2340043263e+000	-1.8287418579e-001
 5.2556187355e-001	 2.2391482124e+000	-1.4777306830e-001
 5.0411970409e-001	 2.2440729320e+000	-1.1380708005e-001
 4.8269090339e-001	 2.2487795561e+000	-8.0455669389e-002
 4.6127852168e-001	 2.2532692084e+000	-4.7245983051e-002
 4.3988557026e-001	 2.2575430638e+000	-1.3753576400e-002
 4.1851502058e-001	 2.2616023474e+000	 2.0397009081e-002
 6.3974284950e-001	 2.2352525778e+000	-2.8570606900e-001
 6.1804760000e-001	 2.2413482916e+000	-3.2947136450e-001
 5.9634989310e-001	 2.2472186821e+000	-2.8257228030e-001
 5.7465299337e-001	 2.2528646070e+000	-2.3916141283e-001
 5.5296013141e-001	 2.2582869820e+000	-1.9850781666e-001
 5.3127450260e-001	 2.2634867799e+000	-1.5992685601e-001
 5.0959926609e-001	 2.2684650291e+000	-1.2278141062e-001
 4.8793754364e-001	 2.2732228121e+000	-8.6482939887e-002
 4.6629241865e-001	 2.2777612650e+000	-5.0492405798e-002
 4.4466693515e-001	 2.2820815754e+000	-1.4321055944e-002
 4.2306409689e-001	 2.2861849816e+000	 2.2468932040e-002
 6.4662180487e-001	 2.2592875518e+000	-2.8036863755e-001
 6.2469327312e-001	 2.2654488109e+000	-3.6032460098e-001
 6.0276225754e-001	 2.2713823238e+000	-3.0928249877e-001
 5.8083205782e-001	 2.2770889576e+000	-2.6218697051e-001
 5.5890593927e-001	 2.2825696377e+000	-2.1823279372e-001
 5.3698713166e-001	 2.2878253475e+000	-1.7666268503e-001
 5.1507882809e-001	 2.2928571261e+000	-1.3676859684e-001
 4.9318418390e-001	 2.2976660682e+000	-9.7892866322e-002
 4.7130631563e-001	 2.3022533216e+000	-5.9429217414e-002
 4.4944830005e-001	 2.3066200870e+000	-2.0823617078e-002
 4.2761317319e-001	 2.3107676158e+000	 1.8425012892e-002
 6.5350076025e-001	 2.2833225257e+000	-2.7909971421e-001
 6.3133894624e-001	 2.2895493301e+000	-3.5331257706e-001
 6.0917462198e-001	 2.2955459656e+000	-3.3785723642e-001
 5.8701112226e-001	 2.3013133082e+000	-2.8774239339e-001
 5.6485174713e-001	 2.3068522935e+000	-2.4109603206e-001
 5.4269976072e-001	 2.3121639150e+000	-1.9708688580e-001
 5.2055839009e-001	 2.3172492232e+000	-1.5493472298e-001
 4.9843082415e-001	 2.3221093242e+000	-1.1391158180e-001
 4.7632021260e-001	 2.3267453782e+000	-7.3342852078e-002
 4.5422966494e-001	 2.3311585985e+000	-3.2608205272e-002
 4.3216224950e-001	 2.3353502500e+000	 8.8576259173e-003
 6.6037971562e-001	 2.3073574997e+000	-2.8182269298e-001
 6.3798461936e-001	 2.3136498494e+000	-3.4765429126e-001
 6.1558698643e-001	 2.3197096073e+000	-3.6723342454e-001
 5.9319018671e-001	 2.3255376588e+000	-3.1482244026e-001
 5.7079755500e-001	 2.3311349492e+000	-2.6615051067e-001
 5.4841238978e-001	 2.3365024825e+000	-2.2031100595e-001
 5.2603795209e-001	 2.3416413203e+000	-1.7645021031e-001
 5.0367746441e-001	 2.3465525803e+000	-1.3376864339e-001
 4.8133410958e-001	 2.3512374348e+000	-9.1522222711e-002
 4.5901102983e-001	 2.3556971101e+000	-4.9023267967e-002
 4.3671132581e-001	 2.3599328842e+000	-5.6413489435e-003
 6.6725867099e-001	 2.3313924736e+000	-2.8846960167e-001
 6.4463029248e-001	 2.3377503686e+000	-3.4524119410e-001
 6.2199935087e-001	 2.3438732491e+000	-3.9635525403e-001
 5.9936925116e-001	 2.3497620094e+000	-3.4242839188e-001
 5.7674336287e-001	 2.3554176049e+000	-2.9245495981e-001
 5.5412501884e-001	 2.3608410500e+000	-2.4545154140e-001
 5.3151751410e-001	 2.3660334174e+000	-2.0048959357e-001
 5.0892410466e-001	 2.3709958363e+000	-1.5669685567e-001
 4.8634800655e-001	 2.3757294915e+000	-1.1325859320e-001
 4.6379239473e-001	 2.3802356217e+000	-6.9418677148e-002
 4.4126040212e-001	 2.3845155184e+000	-2.4480500606e-002
 6.7413762637e-001	 2.3554274476e+000	-2.9898066138e-001
 6.5127596560e-001	 2.3618508879e+000	-3.4602498051e-001
 6.2841171532e-001	 2.3680368908e+000	-4.0573396192e-001
 6.0554831560e-001	 2.3739863600e+000	-3.6956771821e-001
 5.8268917073e-001	 2.3797002606e+000	-3.1907356762e-001
 5.5983764791e-001	 2.3851796176e+000	-2.7162968383e-001
 5.3699707610e-001	 2.3904255145e+000	-2.2623131108e-001
 5.1417074492e-001	 2.3954390923e+000	-1.8193210500e-001
 4.9136190353e-001	 2.4002215481e+000	-1.3784545846e-001
 4.6857375962e-001	 2.4047741332e+000	-9.3145656668e-002
 4.4580947843e-001	 2.4090981526e+000	-4.7068862923e-002
 6.8101658174e-001	 2.3794624215e+000	-3.1330387274e-001
 6.5792163873e-001	 2.3859514072e+000	-3.4996452118e-001
 6.3482407976e-001	 2.3922005325e+000	-4.0035883598e-001
 6.1172738005e-001	 2.3982107106e+000	-3.9525376581e-001
 5.8863497860e-001	 2.4039829163e+000	-3.4507570445e-001
 5.6555027697e-001	 2.4095181851e+000	-2.9797108362e-001
 5.4247663810e-001	 2.4148176116e+000	-2.5285750763e-001
 5.1941738517e-001	 2.4198823484e+000	-2.0871320389e-001
 4.9637580050e-001	 2.4247136047e+000	-1.6457843175e-001
 4.7335512452e-001	 2.4293126448e+000	-1.1955671397e-001
 4.5035855474e-001	 2.4336807868e+000	-7.2815892211e-002
 6.8789553712e-001	 2.4034973955e+000	-3.3139462691e-001
 6.6456731185e-001	 2.4100519264e+000	-3.5702550380e-001
 6.4123644421e-001	 2.4163641743e+000	-3.9743027428e-001
 6.1790644450e-001	 2.4224350612e+000	-4.1850546406e-001
 5.9458078647e-001	 2.4282655721e+000	-3.6953566377e-001
 5.7126290603e-001	 2.4338567526e+000	-3.2360562681e-001
 5.4795620010e-001	 2.4392097087e+000	-2.7955384907e-001
 5.2466402543e-001	 2.4443256044e+000	-2.3628174468e-001
 5.0138969748e-001	 2.4492056613e+000	-1.9275513876e-001
 4.7813648941e-001	 2.4538511564e+000	-1.4800557591e-001
 4.5490763105e-001	 2.4582634210e+000	-1.0113144613e-001
 4.0941686796e-001	 2.2124370789e+000	-4.4664967521e-003
 3.8853567716e-001	 2.2161994557e+000	 1.4115471669e-003
 3.6768209441e-001	 2.2197544633e+000	 9.3759138404e-003
 3.4685890457e-001	 2.2231034390e+000	 1.9565301274e-002
 3.2606885033e-001	 2.2262477636e+000	 3.2071333720e-002
 3.0531463152e-001	 2.2291888605e+000	 4.6938697396e-002
 2.8459890447e-001	 2.2319281941e+000	 6.4165384413e-002
 2.6392428140e-001	 2.2344672684e+000	 8.3703041573e-002
 2.4329332986e-001	 2.2368076260e+000	 1.0545742046e-001
 2.2270857224e-001	 2.2389508462e+000	 1.2928892511e-001
 2.0217248527e-001	 2.2408985444e+000	 1.5501325333e-001
 4.1396594427e-001	 2.2370197131e+000	 1.1616348235e-002
 3.9285274024e-001	 2.2408238941e+000	 2.0878851743e-002
 3.7176745101e-001	 2.2444184018e+000	 3.1616129313e-002
 3.5071289240e-001	 2.2478045883e+000	 4.4018188267e-002
 3.2969183756e-001	 2.2509838498e+000	 5.8226514305e-002
 3.0870701632e-001	 2.2539576256e+000	 7.4334159659e-002
 2.8776111452e-001	 2.2567273962e+000	 9.2385944135e-002
 2.6685677342e-001	 2.2592946825e+000	 1.1237876565e-001
 2.4599658909e-001	 2.2616610440e+000	 1.3426201659e-001
 2.2518311194e-001	 2.2638280779e+000	 1.5793810229e-001
 2.0441884622e-001	 2.2657974171e+000	 1.8326305745e-001
 4.1851502058e-001	 2.2616023474e+000	 2.0397009081e-002
 3.9716980332e-001	 2.2654483325e+000	 3.2672085071e-002
 3.7585280762e-001	 2.2690823403e+000	 4.5889315401e-002
 3.5456688023e-001	 2.2725057376e+000	 6.0290618131e-002
 3.3331482478e-001	 2.2757199361e+000	 7.6067854637e-002
 3.1209940111e-001	 2.2787263907e+000	 9.3362870675e-002
 2.9092332457e-001	 2.2815265984e+000	 1.1226765516e-001
 2.6978926543e-001	 2.2841220966e+000	 1.3282461316e-001
 2.4869984831e-001	 2.2865144621e+000	 1.5502694947e-001
 2.2765765163e-001	 2.2887053095e+000	 1.7881915872e-001
 2.0666520717e-001	 2.2906962898e+000	 2.0409761815e-001
 4.2306409689e-001	 2.2861849816e+000	 2.2468932040e-002
 4.0148686640e-001	 2.2900727709e+000	 3.7333919100e-002
 3.7993816422e-001	 2.2937462788e+000	 5.2686791673e-002
 3.5842086805e-001	 2.2972068869e+000	 6.8822019218e-002
 3.3693781201e-001	 2.3004560224e+000	 8.5982391639e-002
 3.1549178591e-001	 2.3034951558e+000	 1.0435901373e-001
 2.9408553462e-001	 2.3063258005e+000	 1.2409142224e-001
 2.7272175745e-001	 2.3089495107e+000	 1.4526782214e-001
 2.5140310753e-001	 2.3113678802e+000	 1.6792543808e-001
 2.3013219132e-001	 2.3135825411e+000	 1.9205097729e-001
 2.0891156812e-001	 2.3155951625e+000	 2.1758119966e-001
 4.2761317319e-001	 2.3107676158e+000	 1.8425012892e-002
 4.0580392948e-001	 2.3146972093e+000	 3.5407108190e-002
 3.8402352083e-001	 2.3184102172e+000	 5.2500643920e-002
 3.6227485588e-001	 2.3219080362e+000	 7.0053320097e-002
 3.4056079923e-001	 2.3251921086e+000	 8.8359445887e-002
 3.1888417070e-001	 2.3282639210e+000	 1.0765988784e-001
 2.9724774467e-001	 2.3311250027e+000	 1.2814214587e-001
 2.7565424947e-001	 2.3337769248e+000	 1.4994055335e-001
 2.5410636675e-001	 2.3362212982e+000	 1.7313659746e-001
 2.3260673101e-001	 2.3384597727e+000	 1.9775935570e-001
 2.1115792906e-001	 2.3404940352e+000	 2.2378604433e-001
 4.3216224950e-001	 2.3353502500e+000	 8.8576259173e-003
 4.1012099256e-001	 2.3393216477e+000	 2.7434484775e-002
 3.8810887743e-001	 2.3430741557e+000	 4.5823683823e-002
 3.6612884371e-001	 2.3466091856e+000	 6.4426870597e-002
 3.4418378646e-001	 2.3499281949e+000	 8.3590501411e-002
 3.2227655550e-001	 2.3530326861e+000	 1.0360574380e-001
 3.0040995472e-001	 2.3559242049e+000	 1.2470851193e-001
 2.7858674148e-001	 2.3586043389e+000	 1.4707963123e-001
 2.5680962597e-001	 2.3610747163e+000	 1.7084512840e-001
 2.3508127071e-001	 2.3633370043e+000	 1.9607664247e-001
 2.1340429001e-001	 2.3653929079e+000	 2.2279195265e-001
 4.3671132581e-001	 2.3599328842e+000	-5.6413489435e-003
 4.1443805563e-001	 2.3639460861e+000	 1.3958955301e-002
 3.9219423403e-001	 2.3677380942e+000	 3.3149411155e-002
 3.6998283154e-001	 2.3713103349e+000	 5.2386367780e-002
 3.4780677368e-001	 2.3746642811e+000	 7.2069093018e-002
 3.2566894029e-001	 2.3778014512e+000	 9.2539630416e-002
 3.0357216477e-001	 2.3807234070e+000	 1.1408279457e-001
 2.8151923350e-001	 2.3834317530e+000	 1.3692630099e-001
 2.5951288519e-001	 2.3859281344e+000	 1.6124102650e-001
 2.3755581040e-001	 2.3882142360e+000	 1.8714139577e-001
 2.1565065096e-001	 2.3902917807e+000	 2.1468588965e-001
 4.4126040212e-001	 2.3845155184e+000	-2.4480500606e-002
 4.1875511871e-001	 2.3885705245e+000	-4.4765035950e-003
 3.9627959064e-001	 2.3924020327e+000	 1.4971978302e-002
 3.7383681936e-001	 2.3960114842e+000	 3.4376786500e-002
 3.5142976091e-001	 2.3994003674e+000	 5.4190700584e-002
 3.2906132508e-001	 2.4025702163e+000	 7.4807250279e-002
 3.0673437482e-001	 2.4055226092e+000	 9.6560671230e-002
 2.8445172551e-001	 2.4082591671e+000	 1.1972600073e-001
 2.6221614441e-001	 2.4107815524e+000	 1.4451930924e-001
 2.4003035009e-001	 2.4130914676e+000	 1.7109806337e-001
 2.1789701191e-001	 2.4151906534e+000	 1.9956161559e-001
 4.4580947843e-001	 2.4090981526e+000	-4.7068862923e-002
 4.2307218179e-001	 2.4131949629e+000	-2.7328848662e-002
 4.0036494724e-001	 2.4170659712e+000	-8.2138430238e-003
 3.7769080719e-001	 2.4207126335e+000	 1.0844314206e-002
 3.5505274813e-001	 2.4241364537e+000	 3.0352649811e-002
 3.3245370987e-001	 2.4273389814e+000	 5.0756824383e-002
 3.0989658487e-001	 2.4303218113e+000	 7.2441049019e-002
 2.8738421752e-001	 2.4330865812e+000	 9.5728147510e-002
 2.6491940363e-001	 2.4356349705e+000	 1.2087975978e-001
 2.4250488978e-001	 2.4379686992e+000	 1.4809668209e-001
 2.2014337286e-001	 2.4400895261e+000	 1.7751933925e-001
 4.5035855474e-001	 2.4336807868e+000	-7.2815892211e-002
 4.2738924487e-001	 2.4378194013e+000	-5.4054973402e-002
 4.0445030384e-001	 2.4417299097e+000	-3.5912693071e-002
 3.8154479501e-001	 2.4454137828e+000	-1.7763710298e-002
 3.5867573535e-001	 2.4488725399e+000	 9.5401900636e-004
 3.3584609467e-001	 2.4521077465e+000	 2.0738964921e-002
 3.1305879491e-001	 2.4551210135e+000	 4.2025901579e-002
 2.9031670954e-001	 2.4579139953e+000	 6.5185936413e-002
 2.6762266285e-001	 2.4604883886e+000	 9.0526686243e-002
 2.4497942947e-001	 2.4628459308e+000	 1.1829259557e-001
 2.2238973381e-001	 2.4649883988e+000	 1.4866539225e-001
 4.5490763105e-001	 2.4582634210e+000	-1.0113144613e-001
 4.3170630795e-001	 2.4624438397e+000	-8.4111711229e-002
 4.0853566044e-001	 2.4663938481e+000	-6.7628653448e-002
 3.8539878284e-001	 2.4701149322e+000	-5.0998854422e-002
 3.6229872257e-001	 2.4736086262e+000	-3.3604448546e-002
 3.3923847946e-001	 2.4768765117e+000	-1.4893444269e-002
 3.1622100496e-001	 2.4799202156e+000	 5.6201157710e-003
 2.9324920155e-001	 2.4827414094e+000	 2.8356151628e-002
 2.7032592207e-001	 2.4853418066e+000	 5.3668695485e-002
 2.4745396916e-001	 2.4877231625e+000	 8.1846188907e-002
 2.2463609475e-001	 2.4898872715e+000	 1.1311192291e-001
 2.0217248527e-001	 2.2408985444e+000	 1.5501325333e-001
 1.8168749959e-001	 2.2426523700e+000	 1.4206147517e-001
 1.6125599940e-001	 2.2442140055e+000	 1.3209071219e-001
 1.4088032204e-001	 2.2455851654e+000	 1.2482611307e-001
 1.2056275773e-001	 2.2467675940e+000	 1.1994923319e-001
 1.0030554932e-001	 2.2477630651e+000	 1.1709910366e-001
 8.0110891976e-002	 2.2485733799e+000	 1.1587337046e-001
 5.9980933064e-002	 2.2492003663e+000	 1.1582949891e-001
 3.9917771955e-002	 2.2496458769e+000	 1.1648603899e-001
 1.9923459911e-002	 2.2499117884e+000	 1.1732394672e-001
 0.0000000000e+000	 2.2500000000e+000	 1.1778795711e-001
 2.0441884622e-001	 2.2657974171e+000	 1.8326305745e-001
 1.8370624959e-001	 2.2675707296e+000	 1.7193680292e-001
 1.6304773272e-001	 2.2691497167e+000	 1.6313873402e-001
 1.4244565895e-001	 2.2705361116e+000	 1.5663618212e-001
 1.2190234393e-001	 2.2717316784e+000	 1.5215124279e-001
 1.0142005542e-001	 2.2727382103e+000	 1.4936183209e-001
 8.1001012998e-002	 2.2735575286e+000	 1.4790281665e-001
 6.0647387876e-002	 2.2741914815e+000	 1.4736721296e-001
 4.0361302754e-002	 2.2746419422e+000	 1.4730745091e-001
 2.0144831687e-002	 2.2749108083e+000	 1.4723669699e-001
 0.0000000000e+000	 2.2750000000e+000	 1.4663023219e-001
 2.0666520717e-001	 2.2906962898e+000	 2.0409761815e-001
 1.8572499959e-001	 2.2924890893e+000	 1.9499180634e-001
 1.6483946605e-001	 2.2940854279e+000	 1.8804797360e-001
 1.4401099586e-001	 2.2954870579e+000	 1.8307527986e-001
 1.2324193013e-001	 2.2966957628e+000	 1.7983592871e-001
 1.0253456153e-001	 2.2977133554e+000	 1.7804621259e-001
 8.1891134020e-002	 2.2985416773e+000	 1.7737763562e-001
 6.1313842688e-002	 2.2991825966e+000	 1.7745810954e-001
 4.0804833554e-002	 2.2996380075e+000	 1.7787321741e-001
 2.0366203464e-002	 2.2999098282e+000	 1.7816754061e-001
 0.0000000000e+000	 2.3000000000e+000	 1.7784604378e-001
 2.0891156812e-001	 2.3155951625e+000	 2.1758119966e-001
 1.8774374958e-001	 2.3174074490e+000	 2.1123069564e-001
 1.6663119938e-001	 2.3190211390e+000	 2.0676219312e-001
 1.4557633277e-001	 2.3204380042e+000	 2.0402636256e-001
 1.2458151633e-001	 2.3216598471e+000	 2.0282511866e-001
 1.0364906763e-001	 2.3226885006e+000	 2.0291265613e-001
 8.2781255043e-002	 2.3235258259e+000	 2.0399656715e-001
 6.1980297500e-002	 2.3241737118e+000	 2.0573903563e-001
 4.1248364354e-002	 2.3246340728e+000	 2.0775810321e-001
 2.0587575241e-002	 2.3249088481e+000	 2.0962900180e-001
 0.0000000000e+000	 2.3250000000e+000	 2.1088554782e-001
 2.1115792906e-001	 2.3404940352e+000	 2.2378604433e-001
 1.8976249958e-001	 2.3423258086e+000	 2.2066698682e-001
 1.6842293271e-001	 2.3439568502e+000	 2.1923583875e-001
 1.4714166968e-001	 2.3453889505e+000	 2.1938449801e-001
 1.2592110253e-001	 2.3466239315e+000	 2.2095422774e-001
 1.0476357374e-001	 2.3476636458e+000	 2.2373668424e-001
 8.3671376066e-002	 2.3485099746e+000	 2.2747503089e-001
 6.2646752313e-002	 2.3491648270e+000	 2.3186513260e-001
 4.1691895154e-002	 2.3496301381e+000	 2.3655682589e-001
 2.0808947019e-002	 2.3499078679e+000	 2.4115525910e-001
 0.0000000000e+000	 2.3500000000e+000	 2.4522229785e-001
 2.1340429001e-001	 2.3653929079e+000	 2.2279195265e-001
 1.9178124958e-001	 2.3672441683e+000	 2.2332301189e-001
 1.7021466604e-001	 2.3688925614e+000	 2.2543347828e-001
 1.4870700660e-001	 2.3703398968e+000	 2.2905622807e-001
 1.2726068872e-001	 2.3715880159e+000	 2.3407154329e-001
 1.0587807984e-001	 2.3726387909e+000	 2.4030813367e-001
 8.4561497090e-002	 2.3734941233e+000	 2.4754424850e-001
 6.3313207127e-002	 2.3741559422e+000	 2.5550887331e-001
 4.2135425955e-002	 2.3746262034e+000	 2.6388300576e-001
 2.1030318796e-002	 2.3749068878e+000	 2.7230100569e-001
 0.0000000000e+000	 2.3750000000e+000	 2.8035201359e-001
 2.1565065096e-001	 2.3902917807e+000	 2.1468588965e-001
 1.9379999957e-001	 2.3921625279e+000	 2.1922945977e-001
 1.7200639936e-001	 2.3938282726e+000	 2.2532927403e-001
 1.5027234351e-001	 2.3952908430e+000	 2.3295897103e-001
 1.2860027492e-001	 2.3965521003e+000	 2.4203755453e-001
 1.0699258595e-001	 2.3976139361e+000	 2.5243041085e-001
 8.5451618114e-002	 2.3984782719e+000	 2.6395042066e-001
 6.3979661940e-002	 2.3991470574e+000	 2.7635915944e-001
 4.2578956756e-002	 2.3996222687e+000	 2.8936818137e-001
 2.1251690574e-002	 2.3999059077e+000	 3.0264038087e-001
 0.0000000000e+000	 2.4000000000e+000	 3.1579142644e-001
 2.1789701191e-001	 2.4151906534e+000	 1.9956161559e-001
 1.9581874957e-001	 2.4170808876e+000	 2.0842494542e-001
 1.7379813269e-001	 2.4187639837e+000	 2.1890648819e-001
 1.5183768043e-001	 2.4202417893e+000	 2.3102046103e-001
 1.2993986112e-001	 2.4215161846e+000	 2.4472432353e-001
 1.0810709205e-001	 2.4225890813e+000	 2.5991979244e-001
 8.6341739139e-002	 2.4234624206e+000	 2.7645395488e-001
 6.4646116755e-002	 2.4241381725e+000	 2.9412047467e-001
 4.3022487557e-002	 2.4246183340e+000	 3.1266088583e-001
 2.1473062351e-002	 2.4249049275e+000	 3.3176596777e-001
 0.0000000000e+000	 2.4250000000e+000	 3.5107719639e-001
 2.2014337286e-001	 2.4400895261e+000	 1.7751933925e-001
 1.9783749957e-001	 2.4419992473e+000	 1.9095560555e-001
 1.7558986602e-001	 2.4436996949e+000	 2.0615701863e-001
 1.5340301734e-001	 2.4451927356e+000	 2.2317822167e-001
 1.3127944732e-001	 2.4464802690e+000	 2.4201489479e-001
 1.0922159816e-001	 2.4475642264e+000	 2.6260476861e-001
 8.7231860164e-002	 2.4484465693e+000	 2.8482874075e-001
 6.5312571569e-002	 2.4491292877e+000	 3.0851208966e-001
 4.3466018359e-002	 2.4496143993e+000	 3.3342577977e-001
 2.1694434129e-002	 2.4499039474e+000	 3.5928785224e-001
 0.0000000000e+000	 2.4500000000e+000	 3.8576489528e-001
 2.2238973381e-001	 2.4649883988e+000	 1.4866539225e-001
 1.9985624957e-001	 2.4669176069e+000	 1.6687471864e-001
 1.7738159935e-001	 2.4686354061e+000	 1.8708096270e-001
 1.5496835426e-001	 2.4701436819e+000	 2.0937907167e-001
 1.3261903353e-001	 2.4714443534e+000	 2.3380274058e-001
 1.1033610427e-001	 2.4725393716e+000	 2.6032542628e-001
 8.8121981189e-002	 2.4734307179e+000	 2.8886146897e-001
 6.5979026384e-002	 2.4741204029e+000	 3.1926731524e-001
 4.3909549161e-002	 2.4746104646e+000	 3.5134283686e-001
 2.1915805907e-002	 2.4749029673e+000	 3.8483273894e-001
 0.0000000000e+000	 2.4750000000e+000	 4.1942805164e-001
 2.2463609475e-001	 2.4898872715e+000	 1.1311192291e-001
 2.0187499956e-001	 2.4918359666e+000	 1.3624234793e-001
 1.7917333268e-001	 2.4935711173e+000	 1.6168620727e-001
 1.5653369117e-001	 2.4950946282e+000	 1.8957866003e-001
 1.3395861973e-001	 2.4964084378e+000	 2.1999123950e-001
 1.1145061038e-001	 2.4975145168e+000	 2.5293286924e-001
 8.9012102215e-002	 2.4984148666e+000	 2.8835099128e-001
 6.6645481200e-002	 2.4991115181e+000	 3.2613280038e-001
 4.4353079963e-002	 2.4996065299e+000	 3.6610657807e-001
 2.2137177686e-002	 2.4999019872e+000	 4.0804312038e-001
 0.0000000000e+000	 2.5000000000e+000	 4.5165725284e-001
 2.5000000000e+000	 0.0000000000e+000	 1.8980477170e+000
 2.4999019872e+000	 2.2137177686e-002	 1.9166925542e+000
 2.4996065299e+000	 4.4353079963e-002	 1.9323814131e+000
 2.4991115181e+000	 6.6645481200e-002	 1.9446499100e+000
 2.4984148666e+000	 8.9012102215e-002	 1.9530711935e+000
 2.4975145168e+000	 1.1145061038e-001	 1.9572576493e+000
 2.4964084378e+000	 1.3395861973e-001	 1.9568625719e+000
 2.4950946282e+000	 1.5653369117e-001	 1.9515817961e+000
 2.4935711173e+000	 1.7917333268e-001	 1.9411552863e+000
 2.4918359666e+000	 2.0187499956e-001	 1.9253686753e+000
 2.4898872715e+000	 2.2463609475e-001	 1.9040547501e+000
 2.5250000000e+000	 0.0000000000e+000	 1.8775536279e+000
 2.5249010070e+000	 2.2358549464e-002	 1.8950292037e+000
 2.5246025952e+000	 4.4796610765e-002	 1.9051820725e+000
 2.5241026333e+000	 6.7311936015e-002	 1.9085465945e+000
 2.5233990153e+000	 8.9902223242e-002	 1.9056238884e+000
 2.5224896619e+000	 1.1256511648e-001	 1.8968800792e+000
 2.5213725222e+000	 1.3529820593e-001	 1.8827445754e+000
 2.5200455744e+000	 1.5809902809e-001	 1.8636083773e+000
 2.5185068284e+000	 1.8096506601e-001	 1.8398224229e+000
 2.5167543263e+000	 2.0389374956e-001	 1.8116959777e+000
 2.5147861442e+000	 2.2688245570e-001	 1.7794950702e+000
 2.5500000000e+000	 0.0000000000e+000	 1.8587530340e+000
 2.5499000269e+000	 2.2579921242e-002	 1.8767311467e+000
 2.5495986605e+000	 4.5240141567e-002	 1.8874975741e+000
 2.5490937484e+000	 6.7978390830e-002	 1.8915859218e+000
 2.5483831639e+000	 9.0792344267e-002	 1.8894952093e+000
 2.5474648071e+000	 1.1367962259e-001	 1.8816880769e+000
 2.5463366065e+000	 1.3663779213e-001	 1.8685890218e+000
 2.5449965207e+000	 1.5966436500e-001	 1.8505826686e+000
 2.5434425396e+000	 1.8275679934e-001	 1.8280120791e+000
 2.5416726859e+000	 2.0591249956e-001	 1.8011771060e+000
 2.5396850170e+000	 2.2912881665e-001	 1.7703327974e+000
 2.5750000000e+000	 0.0000000000e+000	 1.8415800961e+000
 2.5748990468e+000	 2.2801293020e-002	 1.8591821085e+000
 2.5745947258e+000	 4.5683672368e-002	 1.8697294013e+000
 2.5740848636e+000	 6.8644845644e-002	 1.8737555571e+000
 2.5733673126e+000	 9.1682465292e-002	 1.8717581868e+000
 2.5724399523e+000	 1.1479412870e-001	 1.8641970932e+000
 2.5713006909e+000	 1.3797737833e-001	 1.8514924659e+000
 2.5699474670e+000	 1.6122970192e-001	 1.8340231112e+000
 2.5683782508e+000	 1.8454853267e-001	 1.8121247234e+000
 2.5665910456e+000	 2.0793124956e-001	 1.7860882031e+000
 2.5645838897e+000	 2.3137517760e-001	 1.7561580269e+000
 2.6000000000e+000	 0.0000000000e+000	 1.8259715073e+000
 2.5998980666e+000	 2.3022664798e-002	 1.8423339279e+000
 2.5995907911e+000	 4.6127203170e-002	 1.8518447845e+000
 2.5990759788e+000	 6.9311300459e-002	 1.8550383641e+000
 2.5983514613e+000	 9.2572586317e-002	 1.8524115551e+000
 2.5974150974e+000	 1.1590863480e-001	 1.8444219659e+000
 2.5962647753e+000	 1.3931696453e-001	 1.8314860762e+000
 2.5948984133e+000	 1.6279503883e-001	 1.8139774251e+000
 2.5933139620e+000	 1.8634026600e-001	 1.7922248427e+000
 2.5915094053e+000	 2.0994999955e-001	 1.7665107306e+000
 2.5894827624e+000	 2.3362153855e-001	 1.7370693954e+000
 2.6250000000e+000	 0.0000000000e+000	 1.8118663722e+000
 2.6248970865e+000	 2.3244036575e-002	 1.8261403548e+000
 2.6245868564e+000	 4.6570733970e-002	 1.8338123768e+000
 2.6240670940e+000	 6.9977755272e-002	 1.8354181535e+000
 2.6233356099e+000	 9.3462707341e-002	 1.8314545329e+000
 2.6223902426e+000	 1.1702314091e-001	 1.8223775673e+000
 2.6212288597e+000	 1.4065655073e-001	 1.8086006191e+000
 2.6198493596e+000	 1.6436037574e-001	 1.7904925061e+000
 2.6182496731e+000	 1.8813199933e-001	 1.7683756912e+000
 2.6164277650e+000	 2.1196874955e-001	 1.7425245232e+000
 2.6143816351e+000	 2.3586789950e-001	 1.7131635338e+000
 2.6500000000e+000	 0.0000000000e+000	 1.7992060937e+000
 2.6498961064e+000	 2.3465408353e-002	 1.8105569601e+000
 2.6495829217e+000	 4.7014264771e-002	 1.8156021869e+000
 2.6490582092e+000	 7.0644210086e-002	 1.8148796384e+000
 2.6483197586e+000	 9.4352828365e-002	 1.8088868002e+000
 2.6473653878e+000	 1.1813764702e-001	 1.7980788023e+000
 2.6461929440e+000	 1.4199613693e-001	 1.7828664782e+000
 2.6448003059e+000	 1.6592571266e-001	 1.7636144646e+000
 2.6431853843e+000	 1.8992373266e-001	 1.7406393485e+000
 2.6413461246e+000	 2.1398749955e-001	 1.7142078663e+000
 2.6392805078e+000	 2.3811426044e-001	 1.6845351621e+000
 2.6750000000e+000	 0.0000000000e+000	 1.7879342649e+000
 2.6748951263e+000	 2.3686780130e-002	 1.7955410507e+000
 2.6745789870e+000	 4.7457795571e-002	 1.7971855160e+000
 2.6740493244e+000	 7.1310664899e-002	 1.7934083920e+000
 2.6733039073e+000	 9.5242949388e-002	 1.7847084764e+000
 2.6723405329e+000	 1.1925215312e-001	 1.7715406071e+000
 2.6711570284e+000	 1.4333572313e-001	 1.7543136720e+000
 2.6697512521e+000	 1.6749104957e-001	 1.7333886625e+000
 2.6681210955e+000	 1.9171546598e-001	 1.7090767750e+000
 2.6662644843e+000	 2.1600624954e-001	 1.6816375677e+000
 2.6641793805e+000	 2.4036062139e-001	 1.6512771785e+000
 2.7000000000e+000	 0.0000000000e+000	 1.7779965682e+000
 2.6998941461e+000	 2.3908151907e-002	 1.7810515887e+000
 2.6995750523e+000	 4.7901326371e-002	 1.7785348978e+000
 2.6990404395e+000	 7.1977119711e-002	 1.7709908079e+000
 2.6982880559e+000	 9.6133070411e-002	 1.7589201005e+000
 2.6973156781e+000	 1.2036665923e-001	 1.7427779477e+000
 2.6961211128e+000	 1.4467530933e-001	 1.7229718712e+000
 2.6947021984e+000	 1.6905638648e-001	 1.6998597475e+000
 2.6930568066e+000	 1.9350719931e-001	 1.6737478630e+000
 2.6911828440e+000	 2.1802499954e-001	 1.6448890262e+000
 2.6890782533e+000	 2.4260698234e-001	 1.6134807437e+000
 2.7250000000e+000	 0.0000000000e+000	 1.7693406794e+000
 2.7248931660e+000	 2.4129523684e-002	 1.7670491163e+000
 2.7245711176e+000	 4.8344857171e-002	 1.7596240418e+000
 2.7240315547e+000	 7.2643574523e-002	 1.7476140624e+000
 2.7232722046e+000	 9.7023191433e-002	 1.7315226117e+000
 2.7222908233e+000	 1.2148116533e-001	 1.7118058185e+000
 2.7210851972e+000	 1.4601489552e-001	 1.6888704140e+000
 2.7196531447e+000	 1.7062172340e-001	 1.6630716860e+000
 2.7179925178e+000	 1.9529893264e-001	 1.6347114863e+000
 2.7161012036e+000	 2.2004374954e-001	 1.6040362966e+000
 2.7139771260e+000	 2.4485334329e-001	 1.5712353608e+000
 2.7500000000e+000	 0.0000000000e+000	 1.7619161768e+000
 2.7498921859e+000	 2.4350895461e-002	 1.7534956829e+000
 2.7495671829e+000	 4.8788387970e-002	 1.7404277803e+000
 2.7490226699e+000	 7.3310029335e-002	 1.7232660790e+000
 2.7482563533e+000	 9.7913312455e-002	 1.7025173310e+000
 2.7472659684e+000	 1.2259567143e-001	 1.6786392412e+000
 2.7460492816e+000	 1.4735448172e-001	 1.6520383218e+000
 2.7446040910e+000	 1.7218706031e-001	 1.6230677942e+000
 2.7429282290e+000	 1.9709066597e-001	 1.5920255462e+000
 2.7410195633e+000	 2.2206249953e-001	 1.5591521502e+000
 2.7388759987e+000	 2.4709970424e-001	 1.5246289507e+000
 2.4898872715e+000	 2.2463609475e-001	 1.9040547501e+000
 2.4877231625e+000	 2.4745396916e-001	 1.8973550603e+000
 2.4853418066e+000	 2.7032592207e-001	 1.8854791024e+000
 2.4827414094e+000	 2.9324920155e-001	 1.8683904986e+000
 2.4799202156e+000	 3.1622100496e-001	 1.8461045096e+000
 2.4768765117e+000	 3.3923847946e-001	 1.8186891717e+000
 2.4736086262e+000	 3.6229872257e-001	 1.7862663497e+000
 2.4701149322e+000	 3.8539878284e-001	 1.7490127002e+000
 2.4663938481e+000	 4.0853566044e-001	 1.7071605415e+000
 2.4624438397e+000	 4.3170630795e-001	 1.6609986231e+000
 2.4582634210e+000	 4.5490763105e-001	 1.6108727925e+000
 2.5147861442e+000	 2.2688245570e-001	 1.7794950702e+000
 2.5126003941e+000	 2.4992850885e-001	 1.7629454449e+000
 2.5101952247e+000	 2.7302918129e-001	 1.7431248358e+000
 2.5075688234e+000	 2.9618169356e-001	 1.7201468908e+000
 2.5047194178e+000	 3.1938321501e-001	 1.6940757410e+000
 2.5016452768e+000	 3.4263086425e-001	 1.6649247532e+000
 2.4983447125e+000	 3.6592170980e-001	 1.6420729079e+000
 2.4948160815e+000	 3.8925277066e-001	 1.6228813889e+000
 2.4910577866e+000	 4.1262101704e-001	 1.5968830716e+000
 2.4870682781e+000	 4.3602337102e-001	 1.5643675203e+000
 2.4828460553e+000	 4.5945670736e-001	 1.5256845203e+000
 2.5396850170e+000	 2.2912881665e-001	 1.7703327974e+000
 2.5374776257e+000	 2.5240304855e-001	 1.7546800246e+000
 2.5350486428e+000	 2.7573244051e-001	 1.7356667200e+000
 2.5323962375e+000	 2.9911418558e-001	 1.7133956855e+000
 2.5295186200e+000	 3.2254542506e-001	 1.6879187352e+000
 2.5264140419e+000	 3.4602324904e-001	 1.6592354279e+000
 2.5230807987e+000	 3.6954469702e-001	 1.6272918812e+000
 2.5195172308e+000	 3.9310675849e-001	 1.5919796730e+000
 2.5157217251e+000	 4.1670637365e-001	 1.5531348372e+000
 2.5116927165e+000	 4.4034043410e-001	 1.5105369555e+000
 2.5074286895e+000	 4.6400578367e-001	 1.4639083541e+000
 2.5645838897e+000	 2.3137517760e-001	 1.7561580269e+000
 2.5623548573e+000	 2.5487758824e-001	 1.7412468849e+000
 2.5599020608e+000	 2.7843569973e-001	 1.7229401414e+000
 2.5572236516e+000	 3.0204667759e-001	 1.7013299361e+000
 2.5543178221e+000	 3.2570763510e-001	 1.6764558911e+000
 2.5511828070e+000	 3.4941563383e-001	 1.6483038210e+000
 2.5478168850e+000	 3.7316768424e-001	 1.6168045280e+000
 2.5442183801e+000	 3.9696074632e-001	 1.5818326888e+000
 2.5403856636e+000	 4.2079173025e-001	 1.5432058356e+000
 2.5363171549e+000	 4.4465749718e-001	 1.5006834403e+000
 2.5320113237e+000	 4.6855485998e-001	 1.4539661034e+000
 2.5894827624e+000	 2.3362153855e-001	 1.7370693954e+000
 2.5872320890e+000	 2.5735212793e-001	 1.7227552131e+000
 2.5847554789e+000	 2.8113895895e-001	 1.7050649274e+000
 2.5820510657e+000	 3.0497916961e-001	 1.6840801933e+000
 2.5791170243e+000	 3.2886984515e-001	 1.6598285575e+000
 2.5759515721e+000	 3.5280801863e-001	 1.6322821460e+000
 2.5725529713e+000	 3.7679067147e-001	 1.6013564397e+000
 2.5689195295e+000	 4.0081473414e-001	 1.5669091429e+000
 2.5650496021e+000	 4.2487708685e-001	 1.5287391521e+000
 2.5609415933e+000	 4.4897456026e-001	 1.4865856282e+000
 2.5565939579e+000	 4.7310393629e-001	 1.4401271793e+000
 2.6143816351e+000	 2.3586789950e-001	 1.7131635338e+000
 2.6121093206e+000	 2.5982666762e-001	 1.6993120859e+000
 2.6096088970e+000	 2.8384221817e-001	 1.6821587098e+000
 2.6068784798e+000	 3.0791166162e-001	 1.6617747454e+000
 2.6039162264e+000	 3.3203205520e-001	 1.6381757737e+000
 2.6007203373e+000	 3.5620040342e-001	 1.6113202800e+000
 2.5972890575e+000	 3.8041365869e-001	 1.5811084086e+000
 2.5936206788e+000	 4.0466872197e-001	 1.5473808127e+000
 2.5897135406e+000	 4.2896244345e-001	 1.5099176084e+000
 2.5855660317e+000	 4.5329162333e-001	 1.4684374356e+000
 2.5811765921e+000	 4.7765301260e-001	 1.4225966325e+000
 2.6392805078e+000	 2.3811426044e-001	 1.6845351621e+000
 2.6369865522e+000	 2.6230120731e-001	 1.6710225699e+000
 2.6344623150e+000	 2.8654547739e-001	 1.6543370285e+000
 2.6317058939e+000	 3.1084415364e-001	 1.6345397256e+000
 2.6287154286e+000	 3.3519426525e-001	 1.6116343789e+000
 2.6254891024e+000	 3.5959278821e-001	 1.5855658734e+000
 2.6220251438e+000	 3.8403664592e-001	 1.5562189932e+000
 2.6183218281e+000	 4.0852270980e-001	 1.5234172527e+000
 2.6143774790e+000	 4.3304780006e-001	 1.4869218344e+000
 2.6101904701e+000	 4.5760868641e-001	 1.4464306369e+000
 2.6057592263e+000	 4.8220208891e-001	 1.4015774407e+000
 2.6641793805e+000	 2.4036062139e-001	 1.6512771785e+000
 2.6618637839e+000	 2.6477574700e-001	 1.6379898149e+000
 2.6593157331e+000	 2.8924873661e-001	 1.6217134286e+000
 2.6565333080e+000	 3.1377664565e-001	 1.6024992121e+000
 2.6535146308e+000	 3.3835647530e-001	 1.5803391149e+000
 2.6502578675e+000	 3.6298517301e-001	 1.5551644540e+000
 2.6467612300e+000	 3.8765963314e-001	 1.5268446223e+000
 2.6430229774e+000	 4.1237669763e-001	 1.4951858991e+000
 2.6390414175e+000	 4.3713315666e-001	 1.4599303705e+000
 2.6348149085e+000	 4.6192574949e-001	 1.4207549644e+000
 2.6303418605e+000	 4.8675116522e-001	 1.3772706063e+000
 2.6890782533e+000	 2.4260698234e-001	 1.6134807437e+000
 2.6867410155e+000	 2.6725028670e-001	 1.6003151428e+000
 2.6841691512e+000	 2.9195199583e-001	 1.5843995537e+000
 2.6813607221e+000	 3.1670913767e-001	 1.5657753239e+000
 2.6783138329e+000	 3.4151868535e-001	 1.5444227229e+000
 2.6750266326e+000	 3.6637755780e-001	 1.5202595254e+000
 2.6714973163e+000	 3.9128262037e-001	 1.4931396937e+000
 2.6677241268e+000	 4.1623068545e-001	 1.4628521671e+000
 2.6637053560e+000	 4.4121851326e-001	 1.4291197642e+000
 2.6594393469e+000	 4.6624281257e-001	 1.3915982034e+000
 2.6549244947e+000	 4.9130024153e-001	 1.3498752475e+000
 2.7139771260e+000	 2.4485334329e-001	 1.5712353608e+000
 2.7116182471e+000	 2.6972482639e-001	 1.5580981313e+000
 2.7090225692e+000	 2.9465525505e-001	 1.5425052322e+000
 2.7061881362e+000	 3.1964162968e-001	 1.5244883099e+000
 2.7031130351e+000	 3.4468089540e-001	 1.5040160358e+000
 2.6997953977e+000	 3.6976994260e-001	 1.4809926599e+000
 2.6962334026e+000	 3.9490560759e-001	 1.4552566671e+000
 2.6924252761e+000	 4.2008467328e-001	 1.4265795442e+000
 2.6883692945e+000	 4.4530386987e-001	 1.3946646621e+000
 2.6840637853e+000	 4.7055987565e-001	 1.3591462811e+000
 2.6795071290e+000	 4.9584931784e-001	 1.3195886844e+000
 2.7388759987e+000	 2.4709970424e-001	 1.5246289507e+000
 2.7364954787e+000	 2.7219936608e-001	 1.5114366937e+000
 2.7338759873e+000	 2.9735851428e-001	 1.4961385606e+000
 2.7310155503e+000	 3.2257412170e-001	 1.4787566347e+000
 2.7279122372e+000	 3.4784310545e-001	 1.4592480643e+000
 2.7245641628e+000	 3.7316232739e-001	 1.4375035859e+000
 2.7209694888e+000	 3.9852859482e-001	 1.4133461528e+000
 2.7171264254e+000	 4.2393866111e-001	 1.3865296777e+000
 2.7130332330e+000	 4.4938922647e-001	 1.3567378954e+000
 2.7086882237e+000	 4.7487693873e-001	 1.3235833512e+000
 2.7040897632e+000	 5.0039839415e-001	 1.2866065215e+000
 2.4582634210e+000	 4.5490763105e-001	 1.6108727925e+000
 2.4538511564e+000	 4.7813648941e-001	 1.5833711793e+000
 2.4492056613e+000	 5.0138969748e-001	 1.5502238744e+000
 2.4443256044e+000	 5.2466402543e-001	 1.5119602135e+000
 2.4392097087e+000	 5.4795620010e-001	 1.4691707524e+000
 2.4338567526e+000	 5.7126290603e-001	 1.4225073853e+000
 2.4282655721e+000	 5.9458078647e-001	 1.3726833314e+000
 2.4224350612e+000	 6.1790644450e-001	 1.3204729874e+000
 2.4163641743e+000	 6.4123644421e-001	 1.2586039676e+000
 2.4100519264e+000	 6.6456731185e-001	 1.2004406499e+000
 2.4034973955e+000	 6.8789553712e-001	 1.1510137114e+000
 2.4828460553e+000	 4.5945670736e-001	 1.5256845203e+000
 2.4783896679e+000	 4.8291785430e-001	 1.5086931176e+000
 2.4736977179e+000	 5.0640359445e-001	 1.4840641218e+000
 2.4687688605e+000	 5.2991066568e-001	 1.4523404974e+000
 2.4636018058e+000	 5.5343576211e-001	 1.4141295598e+000
 2.4581953202e+000	 5.7697553510e-001	 1.3701031184e+000
 2.4525482278e+000	 6.0052659434e-001	 1.3209974842e+000
 2.4466594119e+000	 6.2408550895e-001	 1.2676133367e+000
 2.4405278160e+000	 6.4764880865e-001	 1.2022067044e+000
 2.4341524457e+000	 6.7121298497e-001	 1.1443510792e+000
 2.4275323694e+000	 6.9477449249e-001	 1.0945832897e+000
 2.5074286895e+000	 4.6400578367e-001	 1.4639083541e+000
 2.5029281795e+000	 4.8769921920e-001	 1.4415663086e+000
 2.4981897745e+000	 5.1141749143e-001	 1.4168227900e+000
 2.4932121165e+000	 5.3515730594e-001	 1.3911722207e+000
 2.4879939028e+000	 5.5891532411e-001	 1.3570495638e+000
 2.4825338877e+000	 5.8268816416e-001	 1.3151473851e+000
 2.4768308835e+000	 6.0647240220e-001	 1.2662259834e+000
 2.4708837625e+000	 6.3026457340e-001	 1.2084371856e+000
 2.4646914578e+000	 6.5406117310e-001	 1.1436081374e+000
 2.4582529650e+000	 6.7785865809e-001	 1.0862750967e+000
 2.4515673434e+000	 7.0165344787e-001	 1.0364032598e+000
 2.5320113237e+000	 4.6855485998e-001	 1.4539661034e+000
 2.5274666911e+000	 4.9248058409e-001	 1.4324946103e+000
 2.5226818311e+000	 5.1643138840e-001	 1.4040741847e+000
 2.5176553726e+000	 5.4040394619e-001	 1.3682345408e+000
 2.5123859999e+000	 5.6439488611e-001	 1.3244465721e+000
 2.5068724552e+000	 5.8840079322e-001	 1.2721221743e+000
 2.5011135392e+000	 6.1241821007e-001	 1.2106142000e+000
 2.4951081131e+000	 6.3644363785e-001	 1.1463740439e+000
 2.4888550995e+000	 6.6047353755e-001	 1.0828793141e+000
 2.4823534842e+000	 6.8450433122e-001	 1.0262816017e+000
 2.4756023173e+000	 7.0853240324e-001	 9.7653997710e-001
 2.5565939579e+000	 4.7310393629e-001	 1.4401271793e+000
 2.5520052026e+000	 4.9726194898e-001	 1.4198718150e+000
 2.5471738878e+000	 5.2144528538e-001	 1.3926912926e+000
 2.5420986286e+000	 5.4565058645e-001	 1.3580883165e+000
 2.5367780970e+000	 5.6987444812e-001	 1.3155049489e+000
 2.5312110227e+000	 5.9411342228e-001	 1.2643224419e+000
 2.5253961950e+000	 6.1836401794e-001	 1.2038612057e+000
 2.5193324637e+000	 6.4262270229e-001	 1.1286096442e+000
 2.5130187412e+000	 6.6688590199e-001	 1.0533618024e+000
 2.5064540035e+000	 6.9115000434e-001	 9.8183794155e-001
 2.4996372913e+000	 7.1541135862e-001	 9.1505862525e-001
 2.5811765921e+000	 4.7765301260e-001	 1.4225966325e+000
 2.5765437142e+000	 5.0204331388e-001	 1.4039157347e+000
 2.5716659444e+000	 5.2645918235e-001	 1.3783833867e+000
 2.5665418847e+000	 5.5089722670e-001	 1.3454747933e+000
 2.5611701941e+000	 5.7535401012e-001	 1.3046026279e+000
 2.5555495903e+000	 5.9982605134e-001	 1.2551168738e+000
 2.5496788507e+000	 6.2430982580e-001	 1.1963048049e+000
 2.5435568143e+000	 6.4880176674e-001	 1.1230738912e+000
 2.5371823830e+000	 6.7329826643e-001	 1.0525004856e+000
 2.5305545228e+000	 6.9779567746e-001	 9.8489485895e-001
 2.5236722653e+000	 7.2229031399e-001	 9.2025086520e-001
 2.6057592263e+000	 4.8220208891e-001	 1.4015774407e+000
 2.6010822257e+000	 5.0682467877e-001	 1.3848421375e+000
 2.5961580010e+000	 5.3147307933e-001	 1.3613791643e+000
 2.5909851407e+000	 5.5614386696e-001	 1.3306357250e+000
 2.5855622912e+000	 5.8083357212e-001	 1.2919945350e+000
 2.5798881578e+000	 6.0553868040e-001	 1.2447736705e+000
 2.5739615064e+000	 6.3025563367e-001	 1.1863133358e+000
 2.5677811649e+000	 6.5498083118e-001	 1.1182632845e+000
 2.5613460247e+000	 6.7971063087e-001	 1.0524441686e+000
 2.5546550420e+000	 7.0444135058e-001	 9.8885175246e-001
 2.5477072392e+000	 7.2916926936e-001	 9.2747930617e-001
 2.6303418605e+000	 4.8675116522e-001	 1.3772706063e+000
 2.6256207373e+000	 5.1160604366e-001	 1.3628648437e+000
 2.6206500576e+000	 5.3648697630e-001	 1.3419054171e+000
 2.6154283968e+000	 5.6139050721e-001	 1.3138110173e+000
 2.6099543883e+000	 5.8631313412e-001	 1.2779338204e+000
 2.6042267253e+000	 6.1125130946e-001	 1.2335593454e+000
 2.5982441621e+000	 6.3620144153e-001	 1.1766462778e+000
 2.5920055155e+000	 6.6115989563e-001	 1.1141498166e+000
 2.5855096665e+000	 6.8612299532e-001	 1.0531589753e+000
 2.5787555613e+000	 7.1108702369e-001	 9.9366849416e-001
 2.5717422132e+000	 7.3604822473e-001	 9.3567121153e-001
 2.6549244947e+000	 4.9130024153e-001	 1.3498752475e+000
 2.6501592489e+000	 5.1638740856e-001	 1.3381958149e+000
 2.6451421142e+000	 5.4150087327e-001	 1.3201871189e+000
 2.6398716528e+000	 5.6663714746e-001	 1.2952388130e+000
 2.6343464854e+000	 5.9179269612e-001	 1.2626719411e+000
 2.6285652928e+000	 6.1696393852e-001	 1.2217388023e+000
 2.6225268178e+000	 6.4214724939e-001	 1.1675929201e+000
 2.6162298662e+000	 6.6733896007e-001	 1.1107040829e+000
 2.6096733082e+000	 6.9253535976e-001	 1.0546097611e+000
 2.6028560806e+000	 7.1773269681e-001	 9.9930383108e-001
 2.5957771871e+000	 7.4292718010e-001	 9.4477885184e-001
 2.6795071290e+000	 4.9584931784e-001	 1.3195886844e+000
 2.6746977604e+000	 5.2116877345e-001	 1.3110452405e+000
 2.6696341708e+000	 5.4651477025e-001	 1.2964475095e+000
 2.6643149089e+000	 5.7188378771e-001	 1.2751555732e+000
 2.6587385825e+000	 5.9727225811e-001	 1.2464587385e+000
 2.6529038604e+000	 6.2267656758e-001	 1.2095754098e+000
 2.6468094736e+000	 6.4809305726e-001	 1.1591277882e+000
 2.6404542168e+000	 6.7351802451e-001	 1.1078953461e+000
 2.6338369500e+000	 6.9894772419e-001	 1.0567601715e+000
 2.6269565998e+000	 7.2437836993e-001	 1.0057154368e+000
 2.6198121611e+000	 7.4980613547e-001	 9.5475357528e-001
 2.7040897632e+000	 5.0039839415e-001	 1.2866065215e+000
 2.6992362720e+000	 5.2595013834e-001	 1.2816216172e+000
 2.6941262274e+000	 5.5152866722e-001	 1.2709081730e+000
 2.6887581649e+000	 5.7713042797e-001	 1.2537961534e+000
 2.6831306796e+000	 6.0275182011e-001	 1.2295425117e+000
 2.6772424279e+000	 6.2838919664e-001	 1.1961773424e+000
 2.6710921293e+000	 6.5403886512e-001	 1.1512240317e+000
 2.6646785674e+000	 6.7969708895e-001	 1.1056915966e+000
 2.6580005917e+000	 7.0536008863e-001	 1.0595726962e+000
 2.6510571191e+000	 7.3102404304e-001	 1.0128599602e+000
 2.6438471350e+000	 7.5668509084e-001	 9.6554584962e-001
 2.4034973955e+000	 6.8789553712e-001	 1.1510137114e+000
 2.3966997229e+000	 7.1121757443e-001	 1.1155604912e+000
 2.3896581153e+000	 7.3452984428e-001	 1.0752594304e+000
 2.3823718453e+000	 7.5782873460e-001	 1.0300091378e+000
 2.3748402530e+000	 7.8111060220e-001	 9.7970409697e-001
 2.3670627471e+000	 8.0437177429e-001	 9.2423484295e-001
 2.3590388060e+000	 8.2760854992e-001	 8.6348815659e-001
 2.3507679787e+000	 8.5081720161e-001	 7.9734727630e-001
 2.3422498860e+000	 8.7399397693e-001	 7.2569212699e-001
 2.3334842215e+000	 8.9713510015e-001	 6.4839956628e-001
 2.3244707527e+000	 9.2023677391e-001	 5.6534364766e-001
 2.4275323694e+000	 6.9477449249e-001	 1.0945832897e+000
 2.4206667202e+000	 7.1832975018e-001	 1.0604942692e+000
 2.4135546964e+000	 7.4187514273e-001	 1.0219549289e+000
 2.4061955637e+000	 7.6540702195e-001	 9.7886112032e-001
 2.3985886555e+000	 7.8892170823e-001	 9.3110403342e-001
 2.3907333746e+000	 8.1241549204e-001	 8.7857037251e-001
 2.3826291940e+000	 8.3588463542e-001	 8.2114255070e-001
 2.3742756584e+000	 8.5932537363e-001	 7.5869890270e-001
 2.3656723848e+000	 8.8273391670e-001	 6.9111391586e-001
 2.3568190637e+000	 9.0610645115e-001	 6.1825847941e-001
 2.3477154602e+000	 9.2943914165e-001	 5.4000015162e-001
 2.4515673434e+000	 7.0165344787e-001	 1.0364032598e+000
 2.4446337174e+000	 7.2544192593e-001	 1.0037679971e+000
 2.4374512776e+000	 7.4922044118e-001	 9.6708060431e-001
 2.4300192822e+000	 7.7298530930e-001	 9.2623398406e-001
 2.4223370580e+000	 7.9673281426e-001	 8.8111583373e-001
 2.4144040021e+000	 8.2045920978e-001	 8.3160882106e-001
 2.4062195821e+000	 8.4416072093e-001	 7.7759077894e-001
 2.3977833382e+000	 8.6783354565e-001	 7.1893491939e-001
 2.3890948837e+000	 8.9147385648e-001	 6.5551006701e-001
 2.3801539060e+000	 9.1507780216e-001	 5.8718091139e-001
 2.3709601677e+000	 9.3864150939e-001	 5.1380827859e-001
 2.4756023173e+000	 7.0853240324e-001	 9.7653997710e-001
 2.4686007146e+000	 7.3255410168e-001	 9.4545001146e-001
 2.4613478587e+000	 7.5656573962e-001	 9.1070698576e-001
 2.4538430006e+000	 7.8056359665e-001	 8.7220066055e-001
 2.4460854606e+000	 8.0454392028e-001	 8.2981504062e-001
 2.4380746295e+000	 8.2850292753e-001	 7.8342855003e-001
 2.4298099702e+000	 8.5243680643e-001	 7.3291422741e-001
 2.4212910180e+000	 8.7634171767e-001	 6.7813994150e-001
 2.4125173825e+000	 9.0021379625e-001	 6.1896862701e-001
 2.4034887482e+000	 9.2404915316e-001	 5.5525854059e-001
 2.3942048752e+000	 9.4784387714e-001	 4.8686353682e-001
 2.4996372913e+000	 7.1541135862e-001	 9.1505862525e-001
 2.4925677118e+000	 7.3966627743e-001	 8.8560749822e-001
 2.4852444399e+000	 7.6391103807e-001	 8.5290346686e-001
 2.4776667191e+000	 7.8814188400e-001	 8.1683295579e-001
 2.4698338631e+000	 8.1235502631e-001	 7.7727607592e-001
 2.4617452570e+000	 8.3654664528e-001	 7.3410679914e-001
 2.4534003582e+000	 8.6071289193e-001	 6.8719315426e-001
 2.4447986978e+000	 8.8484988969e-001	 6.3639744431e-001
 2.4359398814e+000	 9.0895373602e-001	 5.8157648514e-001
 2.4268235904e+000	 9.3302050416e-001	 5.2258186506e-001
 2.4174495828e+000	 9.5704624488e-001	 4.5926022564e-001
 2.5236722653e+000	 7.2229031399e-001	 9.2025086520e-001
 2.5165347091e+000	 7.4677845317e-001	 8.7398862095e-001
 2.5091410210e+000	 7.7125633651e-001	 8.2225456979e-001
 2.5014904375e+000	 7.9572017134e-001	 7.6501099819e-001
 2.4935822656e+000	 8.2016613233e-001	 7.2357229400e-001
 2.4854158845e+000	 8.4459036302e-001	 6.8371973984e-001
 2.4769907463e+000	 8.6898897743e-001	 6.4050674329e-001
 2.4683063776e+000	 8.9335806171e-001	 5.9378981753e-001
 2.4593623803e+000	 9.1769367579e-001	 5.4341942856e-001
 2.4501584326e+000	 9.4199185517e-001	 4.8924025883e-001
 2.4406942903e+000	 9.6624861262e-001	 4.3109149311e-001
 2.5477072392e+000	 7.2916926936e-001	 9.2747930617e-001
 2.5405017063e+000	 7.5389062892e-001	 8.8530830011e-001
 2.5330376022e+000	 7.7860163495e-001	 8.3788229134e-001
 2.5253141560e+000	 8.0329845869e-001	 7.8516683600e-001
 2.5173306682e+000	 8.2797723835e-001	 7.2713081181e-001
 2.5090865119e+000	 8.5263408076e-001	 6.6374637055e-001
 2.5005811343e+000	 8.7726506293e-001	 5.9498888562e-001
 2.4918140574e+000	 9.0186623372e-001	 5.5039841649e-001
 2.4827848791e+000	 9.2643361556e-001	 5.0458219423e-001
 2.4734932748e+000	 9.5096320617e-001	 4.5532202489e-001
 2.4639389978e+000	 9.7545098036e-001	 4.0244939024e-001
 2.5717422132e+000	 7.3604822473e-001	 9.3567121153e-001
 2.5644687035e+000	 7.6100280466e-001	 8.9756383727e-001
 2.5569341833e+000	 7.8594693340e-001	 8.5441521952e-001
 2.5491378744e+000	 8.1087674604e-001	 8.0619424943e-001
 2.5410790707e+000	 8.3578834438e-001	 7.5287296131e-001
 2.5327571394e+000	 8.6067779851e-001	 6.9442647469e-001
 2.5241715224e+000	 8.8554114843e-001	 6.3083293171e-001
 2.5153217372e+000	 9.1037440574e-001	 5.6207342979e-001
 2.5062073780e+000	 9.3517355533e-001	 4.8813195013e-001
 2.4968281170e+000	 9.5993455717e-001	 4.2091444520e-001
 2.4871837053e+000	 9.8465334810e-001	 3.7342492231e-001
 2.5957771871e+000	 7.4292718010e-001	 9.4477885184e-001
 2.5884357008e+000	 7.6811498040e-001	 9.1070472195e-001
 2.5808307645e+000	 7.9329223184e-001	 8.7180020253e-001
 2.5729615929e+000	 8.1845503338e-001	 8.2803758794e-001
 2.5648274732e+000	 8.4359945040e-001	 7.7939213865e-001
 2.5564277669e+000	 8.6872151625e-001	 7.2584201287e-001
 2.5477619105e+000	 8.9381723393e-001	 6.6736819342e-001
 2.5388294169e+000	 9.1888257776e-001	 6.0395441011e-001
 2.5296298768e+000	 9.4391349510e-001	 5.3558705796e-001
 2.5201629592e+000	 9.6890590817e-001	 4.6225511149e-001
 2.5104284129e+000	 9.9385571584e-001	 3.8395003548e-001
 2.6198121611e+000	 7.4980613547e-001	 9.5475357528e-001
 2.6124026980e+000	 7.7522715614e-001	 9.2467953769e-001
 2.6047273457e+000	 8.0063753028e-001	 8.8998319471e-001
 2.5967853113e+000	 8.2603332072e-001	 8.5064031499e-001
 2.5885758757e+000	 8.5141055642e-001	 8.0662945759e-001
 2.5800983944e+000	 8.7676523399e-001	 7.5793189296e-001
 2.5713522985e+000	 9.0209331943e-001	 7.0453151926e-001
 2.5623370967e+000	 9.2739074977e-001	 6.4641477424e-001
 2.5530523757e+000	 9.5265343487e-001	 5.8357054304e-001
 2.5434978015e+000	 9.7787725917e-001	 5.1599006225e-001
 2.5336731204e+000	 1.0030580836e+000	 4.4366682048e-001
 2.6438471350e+000	 7.5668509084e-001	 9.6554584962e-001
 2.6363696952e+000	 7.8233933189e-001	 9.3943600317e-001
 2.6286239268e+000	 8.0798282872e-001	 9.0890929714e-001
 2.6206090298e+000	 8.3361160807e-001	 8.7394504839e-001
 2.6123242783e+000	 8.5922166244e-001	 8.3452518969e-001
 2.6037690218e+000	 8.8480895173e-001	 7.9063418002e-001
 2.5949426866e+000	 9.1036940492e-001	 7.4225891016e-001
 2.5858447765e+000	 9.3589892178e-001	 6.8938860390e-001
 2.5764748746e+000	 9.6139337463e-001	 6.3201471532e-001
 2.5668326437e+000	 9.8684861017e-001	 5.7013082237e-001
 2.5569178279e+000	 1.0122604513e+000	 5.0373251721e-001
 2.3244707527e+000	 9.2023677391e-001	 5.6534364766e-001
 2.3152093213e+000	 9.4329518099e-001	 5.0583289023e-001
 2.3056998450e+000	 9.6630648602e-001	 4.4577446256e-001
 2.2959423174e+000	 9.8926683732e-001	 3.8501258661e-001
 2.2859368093e+000	 1.0121723687e+000	 3.2338465400e-001
 2.2756834694e+000	 1.0350192013e+000	 2.6072152788e-001
 2.2651825247e+000	 1.0578034457e+000	 1.9684786549e-001
 2.2544342814e+000	 1.0805212035e+000	 1.3158246100e-001
 2.2434391250e+000	 1.1031685694e+000	 6.4738608047e-002
 2.2321975215e+000	 1.1257416334e+000	-3.8755184982e-003
 2.2207100171e+000	 1.1482364826e+000	-7.4456462388e-002
 2.3477154602e+000	 9.2943914165e-001	 5.4000015162e-001
 2.3383614145e+000	 9.5272813280e-001	 4.8386924516e-001
 2.3287568434e+000	 9.7596955088e-001	 4.2694191716e-001
 2.3189017405e+000	 9.9915950569e-001	 3.6905436176e-001
 2.3087961774e+000	 1.0222940924e+000	 3.1003596427e-001
 2.2984403041e+000	 1.0453693934e+000	 2.4970961826e-001
 2.2878343500e+000	 1.0683814802e+000	 1.8789206376e-001
 2.2769786242e+000	 1.0913264155e+000	 1.2439424607e-001
 2.2658735162e+000	 1.1142002551e+000	 5.9021694740e-002
 2.2545194967e+000	 1.1369990498e+000	-8.4250780833e-003
 2.2429171172e+000	 1.1597188475e+000	-7.8150160533e-002
 2.3709601677e+000	 9.3864150939e-001	 5.1380827859e-001
 2.3615135077e+000	 9.6216108461e-001	 4.6125325179e-001
 2.3518138419e+000	 9.8563261575e-001	 4.0766333588e-001
 2.3418611637e+000	 1.0090521741e+000	 3.5286646031e-001
 2.3316555455e+000	 1.0324158161e+000	 2.9668375541e-001
 2.3211971388e+000	 1.0557195854e+000	 2.3892988496e-001
 2.3104861752e+000	 1.0789595146e+000	 1.7941340030e-001
 2.2995229670e+000	 1.1021316275e+000	 1.1793711546e-001
 2.2883079075e+000	 1.1252319408e+000	 5.4298502784e-002
 2.2768414719e+000	 1.1482564661e+000	-1.1709891731e-002
 2.2651242174e+000	 1.1712012123e+000	-8.0300014001e-002
 2.3942048752e+000	 9.4784387714e-001	 4.8686353682e-001
 2.3846656010e+000	 9.7159403643e-001	 4.3808126276e-001
 2.3748708403e+000	 9.9529568061e-001	 3.8803576441e-001
 2.3648205869e+000	 1.0189448424e+000	 3.3654646636e-001
 2.3545149136e+000	 1.0425375398e+000	 2.8342599207e-001
 2.3439539735e+000	 1.0660697774e+000	 2.2848051216e-001
 2.3331380004e+000	 1.0895375491e+000	 1.7151011467e-001
 2.3220673098e+000	 1.1129368396e+000	 1.1230919685e-001
 2.3107422987e+000	 1.1362636265e+000	 5.0666877701e-002
 2.2991634471e+000	 1.1595138824e+000	-1.3632569335e-002
 2.2873313176e+000	 1.1826835771e+000	-8.0809264282e-002
 2.4174495828e+000	 9.5704624488e-001	 4.5926022564e-001
 2.4078176942e+000	 9.8102698824e-001	 4.1444850995e-001
 2.3979278388e+000	 1.0049587455e+000	 3.6815522334e-001
 2.3877800100e+000	 1.0288375108e+000	 3.2019104218e-001
 2.3773742817e+000	 1.0526592634e+000	 2.7035982794e-001
 2.3667108082e+000	 1.0764199694e+000	 2.1845899152e-001
 2.3557898257e+000	 1.1001155835e+000	 1.6427987993e-001
 2.3446116526e+000	 1.1237420516e+000	 1.0760818501e-001
 2.3331766900e+000	 1.1472953122e+000	 4.8224373202e-002
 2.3214854223e+000	 1.1707712988e+000	-1.4095863995e-002
 2.3095384178e+000	 1.1941659420e+000	-7.9581139992e-002
 2.4406942903e+000	 9.6624861262e-001	 4.3109149311e-001
 2.4309697874e+000	 9.9045994005e-001	 3.9044915781e-001
 2.4209848372e+000	 1.0146218103e+000	 3.4811675698e-001
 2.4107394332e+000	 1.0387301792e+000	 3.0389597211e-001
 2.4002336497e+000	 1.0627809871e+000	 2.5758164437e-001
 2.3894676429e+000	 1.0867701614e+000	 2.0896215518e-001
 2.3784416509e+000	 1.1106936180e+000	 1.5781982963e-001
 2.3671559954e+000	 1.1345472636e+000	 1.0393136238e-001
 2.3556110812e+000	 1.1583269979e+000	 4.7068265078e-002
 2.3438073975e+000	 1.1820287151e+000	-1.3002665196e-002
 2.3317455179e+000	 1.2056483068e+000	-7.6518857484e-002
 2.4639389978e+000	 9.7545098036e-001	 4.0244939024e-001
 2.4541218806e+000	 9.9989289186e-001	 3.6617635373e-001
 2.4440418357e+000	 1.0242848752e+000	 3.2801447939e-001
 2.4336988564e+000	 1.0486228476e+000	 2.8775620397e-001
 2.4230930178e+000	 1.0729027108e+000	 2.4518708680e-001
 2.4122244775e+000	 1.0971203534e+000	 2.0008620686e-001
 2.4010934762e+000	 1.1212716525e+000	 1.5222658326e-001
 2.3897003382e+000	 1.1453524757e+000	 1.0137561858e-001
 2.3780454725e+000	 1.1693586836e+000	 4.7295564315e-002
 2.3661293727e+000	 1.1932861314e+000	-1.0255992379e-002
 2.3539526181e+000	 1.2171306716e+000	-7.1525621432e-002
 2.4871837053e+000	 9.8465334810e-001	 3.7342492231e-001
 2.4772739738e+000	 1.0093258437e+000	 3.4172227555e-001
 2.4670988341e+000	 1.0339479401e+000	 3.0794161787e-001
 2.4566582796e+000	 1.0585155159e+000	 2.7186588816e-001
 2.4459523859e+000	 1.0830244345e+000	 2.3327109915e-001
 2.4349813122e+000	 1.1074705454e+000	 1.9192675123e-001
 2.4237453014e+000	 1.1318496869e+000	 1.4759627026e-001
 2.4122446810e+000	 1.1561576877e+000	 1.0003746873e-001
 2.4004798637e+000	 1.1803903692e+000	 4.9003029464e-002
 2.3884513479e+000	 1.2045435478e+000	-5.7589888619e-003
 2.3761597183e+000	 1.2286130364e+000	-6.4504625371e-002
 2.5104284129e+000	 9.9385571584e-001	 3.8395003548e-001
 2.5004260670e+000	 1.0187587955e+000	 3.1882141489e-001
 2.4901558326e+000	 1.0436110049e+000	 2.8799055401e-001
 2.4796177027e+000	 1.0684081843e+000	 2.5631841457e-001
 2.4688117540e+000	 1.0931461582e+000	 2.2192795630e-001
 2.4577381469e+000	 1.1178207375e+000	 1.8457882163e-001
 2.4463971267e+000	 1.1424277214e+000	 1.4402455273e-001
 2.4347890238e+000	 1.1669628997e+000	 1.0001307078e-001
 2.4229142550e+000	 1.1914220549e+000	 5.2287178330e-002
 2.4107733232e+000	 1.2158009641e+000	 5.8508388992e-004
 2.3983668184e+000	 1.2400954013e+000	-5.5359052216e-002
 2.5336731204e+000	 1.0030580836e+000	 4.4366682048e-001
 2.5235781602e+000	 1.0281917473e+000	 3.8377213415e-001
 2.5132128310e+000	 1.0532740698e+000	 3.1964926189e-001
 2.5025771259e+000	 1.0783008527e+000	 2.5127531493e-001
 2.4916711221e+000	 1.1032678819e+000	 2.1125129477e-001
 2.4804949816e+000	 1.1281709295e+000	 1.7813690628e-001
 2.4690489519e+000	 1.1530057558e+000	 1.4160664682e-001
 2.4573333667e+000	 1.1777681118e+000	 1.0139824190e-001
 2.4453486462e+000	 1.2024537406e+000	 5.7244299014e-002
 2.4330952984e+000	 1.2270583804e+000	 8.8728516858e-003
 2.4205739186e+000	 1.2515777661e+000	-4.4074406978e-002
 2.5569178279e+000	 1.0122604513e+000	 5.0373251721e-001
 2.5467302535e+000	 1.0376246991e+000	 4.4909981944e-001
 2.5362698295e+000	 1.0629371346e+000	 3.8997114471e-001
 2.5255365491e+000	 1.0881935211e+000	 3.2632507485e-001
 2.5145304902e+000	 1.1133896056e+000	 2.5814142397e-001
 2.5032518163e+000	 1.1385211215e+000	 1.8540113647e-001
 2.4917007772e+000	 1.1635837903e+000	 1.4043734308e-001
 2.4798777095e+000	 1.1885733238e+000	 1.0428847401e-001
 2.4677830375e+000	 1.2134854263e+000	 6.3970460356e-002
 2.4554172736e+000	 1.2383157968e+000	 1.9200832733e-002
 2.4427810188e+000	 1.2630601309e+000	-3.1706200412e-002
 2.2207100171e+000	 1.1482364826e+000	-7.4456462388e-002
 2.2089772391e+000	 1.1706492033e+000	-1.3460624271e-001
 2.1969998960e+000	 1.1929758828e+000	-1.9571527778e-001
 2.1847787778e+000	 1.2152126119e+000	-2.5805563769e-001
 2.1723147561e+000	 1.2373554867e+000	-3.2190420664e-001
 2.1596087844e+000	 1.2594006108e+000	-3.8172086535e-001
 2.1466618980e+000	 1.2813440973e+000	-4.3350491716e-001
 2.1334752143e+000	 1.3031820709e+000	-4.8421723556e-001
 2.1200499323e+000	 1.3249106704e+000	-5.3387666482e-001
 2.1063873328e+000	 1.3465260504e+000	-5.8250207385e-001
 2.0924887780e+000	 1.3680243835e+000	-6.3011237306e-001
 2.2429171172e+000	 1.1597188475e+000	-7.8150160533e-002
 2.2310670115e+000	 1.1823556953e+000	-1.3969381532e-001
 2.2189698950e+000	 1.2049056416e+000	-2.0222563691e-001
 2.2066265656e+000	 1.2273647380e+000	-2.6601921752e-001
 2.1940379036e+000	 1.2497290416e+000	-3.3135302372e-001
 2.1812048722e+000	 1.2719946169e+000	-3.8573278261e-001
 2.1681285170e+000	 1.2941575382e+000	-4.3889940817e-001
 2.1548099664e+000	 1.3162138916e+000	-4.9100021565e-001
 2.1412504316e+000	 1.3381597771e+000	-5.4204358309e-001
 2.1274512061e+000	 1.3599913109e+000	-5.9203782227e-001
 2.1134136658e+000	 1.3817046273e+000	-6.4099120729e-001
 2.2651242174e+000	 1.1712012123e+000	-8.0300014001e-002
 2.2531567839e+000	 1.1940621873e+000	-1.4279816002e-001
 2.2409398939e+000	 1.2168354005e+000	-2.0631159740e-001
 2.2284743533e+000	 1.2395168641e+000	-2.7111587539e-001
 2.2157610512e+000	 1.2621025965e+000	-3.3177080381e-001
 2.2028009601e+000	 1.2845886230e+000	-3.8706598575e-001
 2.1895951360e+000	 1.3069709792e+000	-4.4130340700e-001
 2.1761447186e+000	 1.3292457123e+000	-4.9448128565e-001
 2.1624509309e+000	 1.3514088839e+000	-5.4659764400e-001
 2.1485150794e+000	 1.3734565714e+000	-5.9765034712e-001
 2.1343385536e+000	 1.3953848711e+000	-6.4763714302e-001
 2.2873313176e+000	 1.1826835771e+000	-8.0809264282e-002
 2.2752465563e+000	 1.2057686794e+000	-1.4382777164e-001
 2.2629098929e+000	 1.2287651593e+000	-2.0788692523e-001
 2.2503221411e+000	 1.2516689903e+000	-2.7264782767e-001
 2.2374841988e+000	 1.2744761513e+000	-3.2972384642e-001
 2.2243970479e+000	 1.2971826291e+000	-3.8577048494e-001
 2.2110617550e+000	 1.3197844202e+000	-4.4077615955e-001
 2.1974794707e+000	 1.3422775331e+000	-4.9472894074e-001
 2.1836514302e+000	 1.3646579906e+000	-5.4761660088e-001
 2.1695789527e+000	 1.3869218319e+000	-5.9942666400e-001
 2.1552634414e+000	 1.4090651150e+000	-6.5014645755e-001
 2.3095384178e+000	 1.1941659420e+000	-7.9581139992e-002
 2.2973363287e+000	 1.2174751714e+000	-1.4269079775e-001
 2.2848798918e+000	 1.2406949181e+000	-2.0686470360e-001
 2.2721699289e+000	 1.2638211164e+000	-2.6788390195e-001
 2.2592073463e+000	 1.2868497062e+000	-3.2539043161e-001
 2.2459931357e+000	 1.3097766352e+000	-3.8189459623e-001
 2.2325283739e+000	 1.3325978612e+000	-4.3737487930e-001
 2.2188142229e+000	 1.3553093538e+000	-4.9180930509e-001
 2.2048519296e+000	 1.3779070973e+000	-5.4517549728e-001
 2.1906428261e+000	 1.4003870924e+000	-5.9745073999e-001
 2.1761883292e+000	 1.4227453588e+000	-6.4861204104e-001
 2.3317455179e+000	 1.2056483068e+000	-7.6518857484e-002
 2.3194261010e+000	 1.2291816635e+000	-1.3929505519e-001
 2.3068498908e+000	 1.2526246769e+000	-2.0256134802e-001
 2.2940177167e+000	 1.2759732425e+000	-2.6115724167e-001
 2.2809304939e+000	 1.2992232611e+000	-3.1880870395e-001
 2.2675892236e+000	 1.3223706413e+000	-3.7548502215e-001
 2.2539949929e+000	 1.3454113021e+000	-4.3115484405e-001
 2.2401489750e+000	 1.3683411745e+000	-4.8578624470e-001
 2.2260524289e+000	 1.3911562040e+000	-5.3934679597e-001
 2.2117066994e+000	 1.4138523529e+000	-5.9180363882e-001
 2.1971132169e+000	 1.4364256026e+000	-6.4312355786e-001
 2.3539526181e+000	 1.2171306716e+000	-7.1525621432e-002
 2.3415158734e+000	 1.2408881555e+000	-1.3354804568e-001
 2.3288198898e+000	 1.2645544358e+000	-1.9407011822e-001
 2.3158655044e+000	 1.2881253686e+000	-2.5249653018e-001
 2.3026536414e+000	 1.3115968159e+000	-3.1001557718e-001
 2.2891853114e+000	 1.3349646475e+000	-3.6658692790e-001
 2.2754616119e+000	 1.3582247431e+000	-4.2216948728e-001
 2.2614837271e+000	 1.3813729952e+000	-4.7672147397e-001
 2.2472529282e+000	 1.4044053107e+000	-5.3020050074e-001
 2.2327705727e+000	 1.4273176134e+000	-5.8256365776e-001
 2.2180381047e+000	 1.4501058465e+000	-6.3376759869e-001
 2.3761597183e+000	 1.2286130364e+000	-6.4504625371e-002
 2.3636056458e+000	 1.2525946475e+000	-1.2513359183e-001
 2.3507898887e+000	 1.2764841946e+000	-1.8394220631e-001
 2.3377132922e+000	 1.3002774948e+000	-2.4192956918e-001
 2.3243767890e+000	 1.3239703708e+000	-2.9904679177e-001
 2.3107813993e+000	 1.3475586536e+000	-3.5524401311e-001
 2.2969282309e+000	 1.3710381841e+000	-4.1047048427e-001
 2.2828184793e+000	 1.3944048159e+000	-4.6467465625e-001
 2.2684534275e+000	 1.4176544174e+000	-5.1780427124e-001
 2.2538344460e+000	 1.4407828739e+000	-5.6980645699e-001
 2.2389629925e+000	 1.4637860903e+000	-6.2062782417e-001
 2.3983668184e+000	 1.2400954013e+000	-5.5359052216e-002
 2.3856954182e+000	 1.2643011396e+000	-1.1413601836e-001
 2.3727598877e+000	 1.2884139534e+000	-1.7219693646e-001
 2.3595610800e+000	 1.3124296209e+000	-2.2948331959e-001
 2.3460999366e+000	 1.3363439257e+000	-2.8593696917e-001
 2.3323774871e+000	 1.3601526597e+000	-3.4149857976e-001
 2.3183948499e+000	 1.3838516251e+000	-3.9610783355e-001
 2.3041532314e+000	 1.4074366366e+000	-4.4970349874e-001
 2.2896539269e+000	 1.4309035241e+000	-5.0222353155e-001
 2.2748983194e+000	 1.4542481344e+000	-5.5360518159e-001
 2.2598878803e+000	 1.4774663341e+000	-6.0378510059e-001
 2.4205739186e+000	 1.2515777661e+000	-4.4074406978e-002
 2.4077851906e+000	 1.2760076316e+000	-1.0179455605e-001
 2.3947298867e+000	 1.3003437123e+000	-1.5885309542e-001
 2.3814088678e+000	 1.3245817470e+000	-2.1518394010e-001
 2.3678230841e+000	 1.3487174805e+000	-2.7071966320e-001
 2.3539735750e+000	 1.3727466658e+000	-3.2539159624e-001
 2.3398614688e+000	 1.3966650660e+000	-3.7912993380e-001
 2.3254879836e+000	 1.4204684573e+000	-4.3186384228e-001
 2.3108544262e+000	 1.4441526308e+000	-4.8352157269e-001
 2.2959621927e+000	 1.4677133949e+000	-5.3403057698e-001
 2.2808127681e+000	 1.4911465780e+000	-5.8331762801e-001
 2.4427810188e+000	 1.2630601309e+000	-3.1706200412e-002
 2.4298749630e+000	 1.2877141236e+000	-8.8120385643e-002
 2.4166998856e+000	 1.3122734711e+000	-1.4392895693e-001
 2.4032566556e+000	 1.3367338731e+000	-1.9905682363e-001
 2.3895462317e+000	 1.3610910354e+000	-2.5342740855e-001
 2.3755696628e+000	 1.3853406719e+000	-3.0696275800e-001
 2.3613280878e+000	 1.4094785070e+000	-3.5958365654e-001
 2.3468227357e+000	 1.4335002780e+000	-4.1120974616e-001
 2.3320549255e+000	 1.4574017375e+000	-4.6175964964e-001
 2.3170260660e+000	 1.4811786555e+000	-5.1115109798e-001
 2.3017376559e+000	 1.5048268218e+000	-5.5930106148e-001
 2.0924887780e+000	 1.3680243835e+000	-6.3011237306e-001
 2.0783557117e+000	 1.3894018625e+000	-6.7746884466e-001
 2.0639896582e+000	 1.4106547028e+000	-7.2384170210e-001
 2.0493922227e+000	 1.4317791441e+000	-7.6916990056e-001
 2.0345650901e+000	 1.4527714528e+000	-8.1339200340e-001
 2.0195100253e+000	 1.4736279238e+000	-8.5644628612e-001
 2.0042288717e+000	 1.4943448831e+000	-8.9827084220e-001
 1.9887235515e+000	 1.5149186895e+000	-9.3880369050e-001
 1.9729960641e+000	 1.5353457367e+000	-9.7798288399e-001
 1.9570484858e+000	 1.5556224556e+000	-1.0157466195e+000
 1.9408829689e+000	 1.5757453160e+000	-1.0520333486e+000
 2.1134136658e+000	 1.3817046273e+000	-6.4099120729e-001
 2.0991392688e+000	 1.4032958811e+000	-6.8745121370e-001
 2.0846295548e+000	 1.4247612499e+000	-7.3290091662e-001
 2.0698861449e+000	 1.4460969356e+000	-7.7728809539e-001
 2.0549107410e+000	 1.4672991673e+000	-8.2056018657e-001
 2.0397051255e+000	 1.4883642030e+000	-8.6266438021e-001
 2.0242711605e+000	 1.5092883319e+000	-9.0354771792e-001
 2.0086107870e+000	 1.5300678764e+000	-9.4315719242e-001
 1.9927260247e+000	 1.5506991940e+000	-9.8143984835e-001
 1.9766189706e+000	 1.5711786801e+000	-1.0183428841e+000
 1.9602917986e+000	 1.5915027692e+000	-1.0538137545e+000
 2.1343385536e+000	 1.3953848711e+000	-6.4763714302e-001
 2.1199228259e+000	 1.4171898998e+000	-6.9350886468e-001
 2.1052694514e+000	 1.4388677969e+000	-7.3834480242e-001
 2.0903800671e+000	 1.4604147270e+000	-7.8210137628e-001
 2.0752563919e+000	 1.4818268818e+000	-8.2473471082e-001
 2.0599002258e+000	 1.5031004823e+000	-8.6620072393e-001
 2.0443134492e+000	 1.5242317808e+000	-9.0645521732e-001
 2.0284980225e+000	 1.5452170632e+000	-9.4545396840e-001
 2.0124559853e+000	 1.5660526514e+000	-9.8315282340e-001
 1.9961894555e+000	 1.5867349047e+000	-1.0195077914e+000
 1.9797006283e+000	 1.6072602223e+000	-1.0544751392e+000
 2.1552634414e+000	 1.4090651150e+000	-6.5014645755e-001
 2.1407063830e+000	 1.4310839184e+000	-6.9572935874e-001
 2.1259093480e+000	 1.4529743439e+000	-7.4025218560e-001
 2.1108739893e+000	 1.4747325185e+000	-7.8367981911e-001
 2.0956020428e+000	 1.4963545964e+000	-8.2597689039e-001
 2.0800953260e+000	 1.5178367615e+000	-8.6710786221e-001
 2.0643557379e+000	 1.5391752296e+000	-9.0703711211e-001
 2.0483852580e+000	 1.5603662501e+000	-9.4572901681e-001
 2.0321859460e+000	 1.5814061088e+000	-9.8314803782e-001
 2.0157599404e+000	 1.6022911292e+000	-1.0192588079e+000
 1.9991094580e+000	 1.6230176755e+000	-1.0540262184e+000
 2.1761883292e+000	 1.4227453588e+000	-6.4861204104e-001
 2.1614899402e+000	 1.4449779370e+000	-6.9419722286e-001
 2.1465492446e+000	 1.4670808910e+000	-7.3869921194e-001
 2.1313679116e+000	 1.4890503099e+000	-7.8209117396e-001
 2.1159476937e+000	 1.5108823109e+000	-8.2434606869e-001
 2.1002904263e+000	 1.5325730408e+000	-8.6543672443e-001
 2.0843980266e+000	 1.5541186784e+000	-9.0533591387e-001
 2.0682724935e+000	 1.5755154370e+000	-9.4401643130e-001
 2.0519159066e+000	 1.5967595661e+000	-9.8145117082e-001
 2.0353304252e+000	 1.6178473538e+000	-1.0176132055e+000
 2.0185182877e+000	 1.6387751286e+000	-1.0524758673e+000
 2.1971132169e+000	 1.4364256026e+000	-6.4312355786e-001
 2.1822734973e+000	 1.4588719557e+000	-6.8899409443e-001
 2.1671891411e+000	 1.4811874380e+000	-7.3375947457e-001
 2.1518618338e+000	 1.5033681014e+000	-7.7740097579e-001
 2.1362933446e+000	 1.5254100254e+000	-8.1989971208e-001
 2.1204855265e+000	 1.5473093200e+000	-8.6123670129e-001
 2.1044403153e+000	 1.5690621273e+000	-9.0139293404e-001
 2.0881597291e+000	 1.5906646239e+000	-9.4034944387e-001
 2.0716458673e+000	 1.6121130235e+000	-9.7808737830e-001
 2.0549009101e+000	 1.6334035783e+000	-1.0145880708e+000
 2.0379271174e+000	 1.6545325818e+000	-1.0498331134e+000
 2.2180381047e+000	 1.4501058465e+000	-6.3376759869e-001
 2.2030570544e+000	 1.4727659743e+000	-6.8019885747e-001
 2.1878290377e+000	 1.4952939850e+000	-7.2550413432e-001
 2.1723557560e+000	 1.5176858928e+000	-7.6967264902e-001
 2.1566389955e+000	 1.5399377400e+000	-8.1269349847e-001
 2.1406806268e+000	 1.5620455992e+000	-8.5455571743e-001
 2.1244826040e+000	 1.5840055761e+000	-8.9524834054e-001
 2.1080469646e+000	 1.6058138108e+000	-9.3476046554e-001
 2.0913758279e+000	 1.6274664809e+000	-9.7308131748e-001
 2.0744713949e+000	 1.6489598029e+000	-1.0102003136e+000
 2.0573359470e+000	 1.6702900350e+000	-1.0461071291e+000
 2.2389629925e+000	 1.4637860903e+000	-6.2062782417e-001
 2.2238406115e+000	 1.4866599929e+000	-6.6788777134e-001
 2.2084689343e+000	 1.5094005321e+000	-7.1400203346e-001
 2.1928496783e+000	 1.5320036842e+000	-7.5896760606e-001
 2.1769846464e+000	 1.5544654545e+000	-8.0278140085e-001
 2.1608757270e+000	 1.5767818785e+000	-8.4544029994e-001
 2.1445248928e+000	 1.5989490249e+000	-8.8694121117e-001
 2.1279342001e+000	 1.6209629977e+000	-9.2728112468e-001
 2.1111057885e+000	 1.6428199382e+000	-9.6645717027e-001
 2.0940418798e+000	 1.6645160274e+000	-1.0044666756e+000
 2.0767447767e+000	 1.6860474881e+000	-1.0413072250e+000
 2.2598878803e+000	 1.4774663341e+000	-6.0378510059e-001
 2.2446241686e+000	 1.5005540115e+000	-6.5213459223e-001
 2.2291088309e+000	 1.5235070791e+000	-6.9931980298e-001
 2.2133436005e+000	 1.5463214757e+000	-7.4534534052e-001
 2.1973302973e+000	 1.5689931690e+000	-7.9021576624e-001
 2.1810708273e+000	 1.5915181577e+000	-8.3393564302e-001
 2.1645671815e+000	 1.6138924738e+000	-8.7650958414e-001
 2.1478214356e+000	 1.6361121846e+000	-9.1794230324e-001
 2.1308357492e+000	 1.6581733956e+000	-9.5823866522e-001
 2.1136123646e+000	 1.6800722520e+000	-9.9740373777e-001
 2.0961536064e+000	 1.7018049413e+000	-1.0354428434e+000
 2.2808127681e+000	 1.4911465780e+000	-5.8331762801e-001
 2.2654077258e+000	 1.5144480302e+000	-6.3301068800e-001
 2.2497487275e+000	 1.5376136261e+000	-6.8152196404e-001
 2.2338375227e+000	 1.5606392671e+000	-7.2886351521e-001
 2.2176759482e+000	 1.5835208835e+000	-7.7504739028e-001
 2.2012659275e+000	 1.6062544370e+000	-8.2008566918e-001
 2.1846094702e+000	 1.6288359226e+000	-8.6399050569e-001
 2.1677086711e+000	 1.6512613715e+000	-9.0677417104e-001
 2.1505657098e+000	 1.6735268530e+000	-9.4844909837e-001
 2.1331828495e+000	 1.6956284766e+000	-9.8902792788e-001
 2.1155624361e+000	 1.7175623944e+000	-1.0285235524e+000
 2.3017376559e+000	 1.5048268218e+000	-5.5930106148e-001
 2.2861912829e+000	 1.5283420488e+000	-6.1058514673e-001
 2.2703886241e+000	 1.5517201731e+000	-6.6067102387e-001
 2.2543314449e+000	 1.5749570586e+000	-7.0957804536e-001
 2.2380215991e+000	 1.5980485981e+000	-7.5732558772e-001
 2.2214610278e+000	 1.6209907162e+000	-8.0393308700e-001
 2.2046517589e+000	 1.6437793714e+000	-8.4942007525e-001
 2.1875959066e+000	 1.6664105584e+000	-8.9380621808e-001
 2.1702956705e+000	 1.6888803104e+000	-9.3711135285e-001
 2.1527533344e+000	 1.7111847011e+000	-9.7935552753e-001
 2.1349712658e+000	 1.7333198476e+000	-1.0205590401e+000
 1.9408829689e+000	 1.5757453160e+000	-1.0520333486e+000
 1.9245017408e+000	 1.5957108290e+000	-1.1003554014e+000
 1.9079071027e+000	 1.6155155485e+000	-1.1541971151e+000
 1.8911014290e+000	 1.6351560736e+000	-1.2134339754e+000
 1.8740871660e+000	 1.6546290504e+000	-1.2746837044e+000
 1.8568668306e+000	 1.6739311735e+000	-1.2817218046e+000
 1.8394430092e+000	 1.6930591885e+000	-1.2907443728e+000
 1.8218183566e+000	 1.7120098935e+000	-1.3017631414e+000
 1.8039955943e+000	 1.7307801408e+000	-1.3147841187e+000
 1.7859775094e+000	 1.7493668386e+000	-1.3298074254e+000
 1.7677669530e+000	 1.7677669530e+000	-1.3468271428e+000
 1.9602917986e+000	 1.5915027692e+000	-1.0538137545e+000
 1.9437467582e+000	 1.6116679373e+000	-1.0987769067e+000
 1.9269861737e+000	 1.6316707040e+000	-1.1482403403e+000
 1.9100124433e+000	 1.6515076344e+000	-1.2020836693e+000
 1.8928280376e+000	 1.6711753409e+000	-1.2601811602e+000
 1.8754354989e+000	 1.6906704852e+000	-1.3224018969e+000
 1.8578374393e+000	 1.7099897804e+000	-1.3245561905e+000
 1.8400365402e+000	 1.7291299925e+000	-1.3260936513e+000
 1.8220355503e+000	 1.7480879422e+000	-1.3286337611e+000
 1.8038372845e+000	 1.7668605069e+000	-1.3321931177e+000
 1.7854446225e+000	 1.7854446225e+000	-1.3367830968e+000
 1.9797006283e+000	 1.6072602223e+000	-1.0544751392e+000
 1.9629917756e+000	 1.6276250456e+000	-1.0962716367e+000
 1.9460652448e+000	 1.6478258595e+000	-1.1415694611e+000
 1.9289234576e+000	 1.6678591951e+000	-1.1902522394e+000
 1.9115689093e+000	 1.6877216314e+000	-1.2421991976e+000
 1.8940041672e+000	 1.7074097970e+000	-1.2972853245e+000
 1.8762318694e+000	 1.7269203723e+000	-1.3553815428e+000
 1.8582547237e+000	 1.7462500914e+000	-1.3523400808e+000
 1.8400755062e+000	 1.7653957436e+000	-1.3446849477e+000
 1.8216970596e+000	 1.7843541753e+000	-1.3370879310e+000
 1.8031222920e+000	 1.8031222920e+000	-1.3295776736e+000
 1.9991094580e+000	 1.6230176755e+000	-1.0540262184e+000
 1.9822367930e+000	 1.6435821538e+000	-1.0928430547e+000
 1.9651443158e+000	 1.6639810150e+000	-1.1341820929e+000
 1.9478344719e+000	 1.6842107558e+000	-1.1779308591e+000
 1.9303097810e+000	 1.7042679219e+000	-1.2239734120e+000
 1.9125728355e+000	 1.7241491087e+000	-1.2721905061e+000
 1.8946262995e+000	 1.7438509642e+000	-1.3224597608e+000
 1.8764729073e+000	 1.7633701903e+000	-1.3746558331e+000
 1.8581154622e+000	 1.7827035450e+000	-1.3627530015e+000
 1.8395568347e+000	 1.8018478437e+000	-1.3442955791e+000
 1.8207999616e+000	 1.8207999616e+000	-1.3250024780e+000
 2.0185182877e+000	 1.6387751286e+000	-1.0524758673e+000
 2.0014818104e+000	 1.6595392621e+000	-1.0884950035e+000
 1.9842233868e+000	 1.6801361704e+000	-1.1260764731e+000
 1.9667454862e+000	 1.7005623166e+000	-1.1651115887e+000
 1.9490506526e+000	 1.7208142124e+000	-1.2054891170e+000
 1.9311415038e+000	 1.7408884204e+000	-1.2470954413e+000
 1.9130207296e+000	 1.7607815561e+000	-1.2898147285e+000
 1.8946910909e+000	 1.7804902893e+000	-1.3335290987e+000
 1.8761554181e+000	 1.8000113464e+000	-1.3781187987e+000
 1.8574166098e+000	 1.8193415121e+000	-1.3536227238e+000
 1.8384776311e+000	 1.8384776311e+000	-1.3228524824e+000
 2.0379271174e+000	 1.6545325818e+000	-1.0498331134e+000
 2.0207268278e+000	 1.6754963704e+000	-1.0832316873e+000
 2.0033024578e+000	 1.6962913259e+000	-1.1172514310e+000
 1.9856565005e+000	 1.7169138773e+000	-1.1517873329e+000
 1.9677915243e+000	 1.7373605029e+000	-1.1867327448e+000
 1.9497101721e+000	 1.7576277322e+000	-1.2219795438e+000
 1.9314151596e+000	 1.7777121480e+000	-1.2574182975e+000
 1.9129092744e+000	 1.7976103882e+000	-1.2929384311e+000
 1.8941953740e+000	 1.8173191478e+000	-1.3284283959e+000
 1.8752763849e+000	 1.8368351805e+000	-1.3637758398e+000
 1.8561553006e+000	 1.8561553006e+000	-1.3229258665e+000
 2.0573359470e+000	 1.6702900350e+000	-1.0461071291e+000
 2.0399718452e+000	 1.6914534787e+000	-1.0770576545e+000
 2.0223815288e+000	 1.7124464814e+000	-1.1077063604e+000
 2.0045675147e+000	 1.7332654380e+000	-1.1379518016e+000
 1.9865323959e+000	 1.7539067934e+000	-1.1676917937e+000
 1.9682788404e+000	 1.7743670439e+000	-1.1968235747e+000
 1.9498095897e+000	 1.7946427398e+000	-1.2252439686e+000
 1.9311274580e+000	 1.8147304871e+000	-1.2528495501e+000
 1.9122353300e+000	 1.8346269492e+000	-1.2795368087e+000
 1.8931361600e+000	 1.8543288489e+000	-1.3052023137e+000
 1.8738329701e+000	 1.8738329701e+000	-1.3250238659e+000
 2.0767447767e+000	 1.6860474881e+000	-1.0413072250e+000
 2.0592168626e+000	 1.7074105870e+000	-1.0699777815e+000
 2.0414605999e+000	 1.7286016369e+000	-1.0974411928e+000
 2.0234785290e+000	 1.7496169988e+000	-1.1235994718e+000
 2.0052732676e+000	 1.7704530839e+000	-1.1483547780e+000
 1.9868475087e+000	 1.7911063556e+000	-1.1716095794e+000
 1.9682040198e+000	 1.8115733317e+000	-1.1932668148e+000
 1.9493456416e+000	 1.8318505861e+000	-1.2132300549e+000
 1.9302752859e+000	 1.8519347506e+000	-1.2314036636e+000
 1.9109959351e+000	 1.8718225172e+000	-1.2476929576e+000
 1.8915106397e+000	 1.8915106397e+000	-1.2887872969e+000
 2.0961536064e+000	 1.7018049413e+000	-1.0354428434e+000
 2.0784618800e+000	 1.7233676953e+000	-1.0619972580e+000
 2.0605396709e+000	 1.7447567924e+000	-1.0864563730e+000
 2.0423895433e+000	 1.7659685595e+000	-1.1087255522e+000
 2.0240141392e+000	 1.7869993744e+000	-1.1287111810e+000
 2.0054161770e+000	 1.8078456674e+000	-1.1463208285e+000
 1.9865984499e+000	 1.8285039236e+000	-1.1614634080e+000
 1.9675638251e+000	 1.8489706850e+000	-1.1740493361e+000
 1.9483152419e+000	 1.8692425520e+000	-1.1839906900e+000
 1.9288557102e+000	 1.8893161856e+000	-1.2137344244e+000
 1.9091883092e+000	 1.9091883092e+000	-1.2502509735e+000
 2.1155624361e+000	 1.7175623944e+000	-1.0285235524e+000
 2.0977068974e+000	 1.7393248036e+000	-1.0531215721e+000
 2.0796187419e+000	 1.7609119479e+000	-1.0747528350e+000
 2.0613005576e+000	 1.7823201203e+000	-1.0933259497e+000
 2.0427550109e+000	 1.8035456649e+000	-1.1087514108e+000
 2.0239848453e+000	 1.8245849791e+000	-1.1209417612e+000
 2.0049928800e+000	 1.8454345155e+000	-1.1298117509e+000
 1.9857820087e+000	 1.8660907839e+000	-1.1352784944e+000
 1.9663551978e+000	 1.8865503534e+000	-1.1549193762e+000
 1.9467154853e+000	 1.9068098540e+000	-1.1850309676e+000
 1.9268659787e+000	 1.9268659787e+000	-1.2121800965e+000
 2.1349712658e+000	 1.7333198476e+000	-1.0205590401e+000
 2.1169519149e+000	 1.7552819119e+000	-1.0433564971e+000
 2.0986978130e+000	 1.7770671034e+000	-1.0623319801e+000
 2.0802115719e+000	 1.7986716810e+000	-1.0773972375e+000
 2.0614958826e+000	 1.8200919554e+000	-1.0884667580e+000
 2.0425535136e+000	 1.8413242908e+000	-1.0954579324e+000
 2.0233873101e+000	 1.8623651074e+000	-1.0982912117e+000
 2.0040001923e+000	 1.8832108829e+000	-1.1090970646e+000
 1.9843951538e+000	 1.9038581548e+000	-1.1346744659e+000
 1.9645752604e+000	 1.9243035224e+000	-1.1564865058e+000
 1.9445436483e+000	 1.9445436482e+000	-1.1745444123e+000
 1.7677669530e+000	 1.7677669530e+000	-1.3468271428e+000
 1.7493668386e+000	 1.7859775094e+000	-1.3859232744e+000
 1.7307801408e+000	 1.8039955943e+000	-1.4160274002e+000
 1.7120098935e+000	 1.8218183566e+000	-1.4372489127e+000
 1.6930591885e+000	 1.8394430092e+000	-1.4497011905e+000
 1.6739311735e+000	 1.8568668306e+000	-1.4535013535e+000
 1.6546290504e+000	 1.8740871660e+000	-1.4487700187e+000
 1.6351560736e+000	 1.8911014290e+000	-1.4666014167e+000
 1.6155155485e+000	 1.9079071027e+000	-1.4778575447e+000
 1.5957108290e+000	 1.9245017408e+000	-1.4808322671e+000
 1.5757453160e+000	 1.9408829689e+000	-1.4755682459e+000
 1.7854446225e+000	 1.7854446225e+000	-1.3367830968e+000
 1.7668605069e+000	 1.8038372845e+000	-1.3669393021e+000
 1.7480879422e+000	 1.8220355503e+000	-1.3892631290e+000
 1.7291299925e+000	 1.8400365402e+000	-1.4038542873e+000
 1.7099897804e+000	 1.8578374393e+000	-1.4108152844e+000
 1.6906704852e+000	 1.8754354989e+000	-1.4110663208e+000
 1.6711753409e+000	 1.8928280376e+000	-1.4358924235e+000
 1.6515076344e+000	 1.9100124433e+000	-1.4534540103e+000
 1.6316707040e+000	 1.9269861737e+000	-1.4637662961e+000
 1.6116679373e+000	 1.9437467582e+000	-1.4668476786e+000
 1.5915027692e+000	 1.9602917986e+000	-1.4627197100e+000
 1.8031222920e+000	 1.8031222920e+000	-1.3295776736e+000
 1.7843541753e+000	 1.8216970596e+000	-1.3503045022e+000
 1.7653957436e+000	 1.8400755062e+000	-1.3643393221e+000
 1.7462500914e+000	 1.8582547237e+000	-1.3717725182e+000
 1.7269203723e+000	 1.8762318694e+000	-1.3749510658e+000
 1.7074097970e+000	 1.8940041672e+000	-1.4023015453e+000
 1.6877216314e+000	 1.9115689093e+000	-1.4234642066e+000
 1.6678591951e+000	 1.9289234576e+000	-1.4384333716e+000
 1.6478258595e+000	 1.9460652448e+000	-1.4472055164e+000
 1.6276250456e+000	 1.9629917756e+000	-1.4497792652e+000
 1.6072602223e+000	 1.9797006283e+000	-1.4461553857e+000
 1.8207999616e+000	 1.8207999616e+000	-1.3250024780e+000
 1.8018478437e+000	 1.8395568347e+000	-1.3358223669e+000
 1.7827035450e+000	 1.8581154622e+000	-1.3410720692e+000
 1.7633701903e+000	 1.8764729073e+000	-1.3434658345e+000
 1.7438509642e+000	 1.8946262995e+000	-1.3706324331e+000
 1.7241491087e+000	 1.9125728355e+000	-1.3927058165e+000
 1.7042679219e+000	 1.9303097810e+000	-1.4096618228e+000
 1.6842107558e+000	 1.9478344719e+000	-1.4214773822e+000
 1.6639810150e+000	 1.9651443158e+000	-1.4281305308e+000
 1.6435821538e+000	 1.9822367930e+000	-1.4296004270e+000
 1.6230176755e+000	 1.9991094580e+000	-1.4258673703e+000
 1.8384776311e+000	 1.8384776311e+000	-1.3228524824e+000
 1.8193415121e+000	 1.8574166098e+000	-1.3232992557e+000
 1.8000113464e+000	 1.8761554181e+000	-1.3212931451e+000
 1.7804902893e+000	 1.8946910909e+000	-1.3455878644e+000
 1.7607815561e+000	 1.9130207296e+000	-1.3658984477e+000
 1.7408884204e+000	 1.9311415038e+000	-1.3821846806e+000
 1.7208142124e+000	 1.9490506526e+000	-1.3944063512e+000
 1.7005623166e+000	 1.9667454862e+000	-1.4025232799e+000
 1.6801361704e+000	 1.9842233868e+000	-1.4064953534e+000
 1.6595392621e+000	 2.0014818104e+000	-1.4062825630e+000
 1.6387751286e+000	 2.0185182877e+000	-1.4018450473e+000
 1.8561553006e+000	 1.8561553006e+000	-1.3229258665e+000
 1.8368351805e+000	 1.8752763849e+000	-1.3130128497e+000
 1.8173191478e+000	 1.8941953740e+000	-1.3317708317e+000
 1.7976103882e+000	 1.9129092744e+000	-1.3476647938e+000
 1.7777121480e+000	 1.9314151596e+000	-1.3606409180e+000
 1.7576277322e+000	 1.9497101721e+000	-1.3706442760e+000
 1.7373605029e+000	 1.9677915243e+000	-1.3776188715e+000
 1.7169138773e+000	 1.9856565005e+000	-1.3815076892e+000
 1.6962913259e+000	 2.0033024578e+000	-1.3822527490e+000
 1.6754963704e+000	 2.0207268278e+000	-1.3797951658e+000
 1.6545325818e+000	 2.0379271174e+000	-1.3740752154e+000
 1.8738329701e+000	 1.8738329701e+000	-1.3250238659e+000
 1.8543288489e+000	 1.8931361600e+000	-1.3336853030e+000
 1.8346269492e+000	 1.9122353300e+000	-1.3425314605e+000
 1.8147304871e+000	 1.9311274580e+000	-1.3495763469e+000
 1.7946427398e+000	 1.9498095897e+000	-1.3547527592e+000
 1.7743670439e+000	 1.9682788404e+000	-1.3579913054e+000
 1.7539067934e+000	 1.9865323959e+000	-1.3592204638e+000
 1.7332654380e+000	 2.0045675147e+000	-1.3583666503e+000
 1.7124464814e+000	 2.0223815288e+000	-1.3553542926e+000
 1.6914534787e+000	 2.0399718452e+000	-1.3501059117e+000
 1.6702900350e+000	 2.0573359470e+000	-1.3425422105e+000
 1.8915106397e+000	 1.8915106397e+000	-1.2887872969e+000
 1.8718225172e+000	 1.9109959351e+000	-1.3549294802e+000
 1.8519347506e+000	 1.9302752859e+000	-1.3534441945e+000
 1.8318505861e+000	 1.9493456416e+000	-1.3512037988e+000
 1.8115733317e+000	 1.9682040198e+000	-1.3481279411e+000
 1.7911063556e+000	 1.9868475087e+000	-1.3441330095e+000
 1.7704530839e+000	 2.0052732676e+000	-1.3391322090e+000
 1.7496169988e+000	 2.0234785290e+000	-1.3330356464e+000
 1.7286016369e+000	 2.0414605999e+000	-1.3257504247e+000
 1.7074105870e+000	 2.0592168626e+000	-1.3171807457e+000
 1.6860474881e+000	 2.0767447767e+000	-1.3072280209e+000
 1.9091883092e+000	 1.9091883092e+000	-1.2502509735e+000
 1.8893161856e+000	 1.9288557102e+000	-1.3179576101e+000
 1.8692425520e+000	 1.9483152419e+000	-1.3643801291e+000
 1.8489706850e+000	 1.9675638251e+000	-1.3524299041e+000
 1.8285039236e+000	 1.9865984499e+000	-1.3406614396e+000
 1.8078456674e+000	 2.0054161770e+000	-1.3289771419e+000
 1.7869993744e+000	 2.0240141392e+000	-1.3172751882e+000
 1.7659685595e+000	 2.0423895433e+000	-1.3054496294e+000
 1.7447567924e+000	 2.0605396709e+000	-1.2933905038e+000
 1.7233676953e+000	 2.0784618800e+000	-1.2809839613e+000
 1.7018049413e+000	 2.0961536064e+000	-1.2681123960e+000
 1.9268659787e+000	 1.9268659787e+000	-1.2121800965e+000
 1.9068098540e+000	 1.9467154853e+000	-1.2680724833e+000
 1.8865503534e+000	 1.9663551978e+000	-1.3274637704e+000
 1.8660907839e+000	 1.9857820087e+000	-1.3531388287e+000
 1.8454345155e+000	 2.0049928800e+000	-1.3322491905e+000
 1.8245849791e+000	 2.0239848453e+000	-1.3124319458e+000
 1.8035456649e+000	 2.0427550109e+000	-1.2935704833e+000
 1.7823201203e+000	 2.0613005576e+000	-1.2755430443e+000
 1.7609119479e+000	 2.0796187419e+000	-1.2582228563e+000
 1.7393248036e+000	 2.0977068974e+000	-1.2414782767e+000
 1.7175623944e+000	 2.1155624361e+000	-1.2251729487e+000
 1.9445436483e+000	 1.9445436482e+000	-1.1745444123e+000
 1.9243035224e+000	 1.9645752604e+000	-1.2182445509e+000
 1.9038581548e+000	 1.9843951538e+000	-1.2664365080e+000
 1.8832108829e+000	 2.0040001923e+000	-1.3190017197e+000
 1.8623651074e+000	 2.0233873101e+000	-1.3227880459e+000
 1.8413242908e+000	 2.0425535136e+000	-1.2944061316e+000
 1.8200919554e+000	 2.0614958826e+000	-1.2679391764e+000
 1.7986716810e+000	 2.0802115719e+000	-1.2432498525e+000
 1.7770671034e+000	 2.0986978130e+000	-1.2201948230e+000
 1.7552819119e+000	 2.1169519149e+000	-1.1986249061e+000
 1.7333198476e+000	 2.1349712658e+000	-1.1783852530e+000
 1.5757453160e+000	 1.9408829689e+000	-1.4755682459e+000
 1.5556224556e+000	 1.9570484858e+000	-1.4695226062e+000
 1.5353457367e+000	 1.9729960641e+000	-1.4619352451e+000
 1.5149186895e+000	 1.9887235515e+000	-1.4527643529e+000
 1.4943448831e+000	 2.0042288717e+000	-1.4419661449e+000
 1.4736279238e+000	 2.0195100253e+000	-1.4294949362e+000
 1.4527714528e+000	 2.0345650901e+000	-1.4153032224e+000
 1.4317791441e+000	 2.0493922227e+000	-1.3993417653e+000
 1.4106547028e+000	 2.0639896582e+000	-1.3815596849e+000
 1.3894018625e+000	 2.0783557117e+000	-1.3619045563e+000
 1.3680243835e+000	 2.0924887780e+000	-1.3403225109e+000
 1.5915027692e+000	 1.9602917986e+000	-1.4627197100e+000
 1.5711786801e+000	 1.9766189706e+000	-1.4564047871e+000
 1.5506991940e+000	 1.9927260247e+000	-1.4482058332e+000
 1.5300678764e+000	 2.0086107870e+000	-1.4381019264e+000
 1.5092883319e+000	 2.0242711605e+000	-1.4260703009e+000
 1.4883642030e+000	 2.0397051255e+000	-1.4120863989e+000
 1.4672991673e+000	 2.0549107410e+000	-1.3961239288e+000
 1.4460969356e+000	 2.0698861449e+000	-1.3781549293e+000
 1.4247612499e+000	 2.0846295548e+000	-1.3581498389e+000
 1.4032958811e+000	 2.0991392688e+000	-1.3360775711e+000
 1.3817046273e+000	 2.1134136658e+000	-1.3119055944e+000
 1.6072602223e+000	 1.9797006283e+000	-1.4461553857e+000
 1.5867349047e+000	 1.9961894555e+000	-1.4402010610e+000
 1.5660526514e+000	 2.0124559853e+000	-1.4320289562e+000
 1.5452170632e+000	 2.0284980225e+000	-1.4216387158e+000
 1.5242317808e+000	 2.0443134492e+000	-1.4090282649e+000
 1.5031004823e+000	 2.0599002258e+000	-1.3941938386e+000
 1.4818268818e+000	 2.0752563919e+000	-1.3771300188e+000
 1.4604147270e+000	 2.0903800671e+000	-1.3578297763e+000
 1.4388677969e+000	 2.1052694514e+000	-1.3362845183e+000
 1.4171898998e+000	 2.1199228259e+000	-1.3124841426e+000
 1.3953848711e+000	 2.1343385536e+000	-1.2864170961e+000
 1.6230176755e+000	 1.9991094580e+000	-1.4258673703e+000
 1.6022911292e+000	 2.0157599404e+000	-1.4208855764e+000
 1.5814061088e+000	 2.0321859460e+000	-1.4133606714e+000
 1.5603662501e+000	 2.0483852580e+000	-1.4033125536e+000
 1.5391752296e+000	 2.0643557379e+000	-1.3907595197e+000
 1.5178367615e+000	 2.0800953260e+000	-1.3757182731e+000
 1.4963545964e+000	 2.0956020428e+000	-1.3582039386e+000
 1.4747325185e+000	 2.1108739893e+000	-1.3382300830e+000
 1.4529743439e+000	 2.1259093480e+000	-1.3158087420e+000
 1.4310839184e+000	 2.1407063830e+000	-1.2909504524e+000
 1.4090651150e+000	 2.1552634414e+000	-1.2636642901e+000
 1.6387751286e+000	 2.0185182877e+000	-1.4018450473e+000
 1.6178473538e+000	 2.0353304252e+000	-1.3984304666e+000
 1.5967595661e+000	 2.0519159066e+000	-1.3921557268e+000
 1.5755154370e+000	 2.0682724935e+000	-1.3830606755e+000
 1.5541186784e+000	 2.0843980266e+000	-1.3711836707e+000
 1.5325730408e+000	 2.1002904263e+000	-1.3565615677e+000
 1.5108823109e+000	 2.1159476937e+000	-1.3392297123e+000
 1.4890503099e+000	 2.1313679116e+000	-1.3192219407e+000
 1.4670808910e+000	 2.1465492446e+000	-1.2965705846e+000
 1.4449779370e+000	 2.1614899402e+000	-1.2713064835e+000
 1.4227453588e+000	 2.1761883292e+000	-1.2434590015e+000
 1.6545325818e+000	 2.0379271174e+000	-1.3740752154e+000
 1.6334035783e+000	 2.0549009101e+000	-1.3728059459e+000
 1.6121130235e+000	 2.0716458673e+000	-1.3683676234e+000
 1.5906646239e+000	 2.0881597291e+000	-1.3608197489e+000
 1.5690621273e+000	 2.1044403153e+000	-1.3502204396e+000
 1.5473093200e+000	 2.1204855265e+000	-1.3366263947e+000
 1.5254100254e+000	 2.1362933446e+000	-1.3200928675e+000
 1.5033681014e+000	 2.1518618338e+000	-1.3006736446e+000
 1.4811874380e+000	 2.1671891411e+000	-1.2784210306e+000
 1.4588719557e+000	 2.1822734973e+000	-1.2533858391e+000
 1.4364256026e+000	 2.1971132169e+000	-1.2256173901e+000
 1.6702900350e+000	 2.0573359470e+000	-1.3425422105e+000
 1.6489598029e+000	 2.0744713949e+000	-1.3439803997e+000
 1.6274664809e+000	 2.0913758279e+000	-1.3419486740e+000
 1.6058138108e+000	 2.1080469646e+000	-1.3365258998e+000
 1.5840055761e+000	 2.1244826040e+000	-1.3277896593e+000
 1.5620455992e+000	 2.1406806268e+000	-1.3158161954e+000
 1.5399377400e+000	 2.1566389955e+000	-1.3006803638e+000
 1.5176858928e+000	 2.1723557560e+000	-1.2824555906e+000
 1.4952939850e+000	 2.1878290377e+000	-1.2612138373e+000
 1.4727659743e+000	 2.2030570544e+000	-1.2370255719e+000
 1.4501058465e+000	 2.2180381047e+000	-1.2099597460e+000
 1.6860474881e+000	 2.0767447767e+000	-1.3072280209e+000
 1.6645160274e+000	 2.0940418798e+000	-1.3119204702e+000
 1.6428199382e+000	 2.1111057885e+000	-1.3128500587e+000
 1.6209629977e+000	 2.1279342001e+000	-1.3101147379e+000
 1.5989490249e+000	 2.1445248928e+000	-1.3038112682e+000
 1.5767818785e+000	 2.1608757270e+000	-1.2940351444e+000
 1.5544654545e+000	 2.1769846464e+000	-1.2808805261e+000
 1.5320036842e+000	 2.1928496783e+000	-1.2644401762e+000
 1.5094005321e+000	 2.2084689343e+000	-1.2448054054e+000
 1.4866599929e+000	 2.2238406115e+000	-1.2220660233e+000
 1.4637860903e+000	 2.2389629925e+000	-1.1963102961e+000
 1.7018049413e+000	 2.0961536064e+000	-1.2681123960e+000
 1.6800722520e+000	 2.1136123646e+000	-1.2765911371e+000
 1.6581733956e+000	 2.1308357492e+000	-1.2810218776e+000
 1.6361121846e+000	 2.1478214356e+000	-1.2815213806e+000
 1.6138924738e+000	 2.1645671815e+000	-1.2782053061e+000
 1.5915181577e+000	 2.1810708273e+000	-1.2711881152e+000
 1.5689931690e+000	 2.1973302973e+000	-1.2605829815e+000
 1.5463214757e+000	 2.2133436005e+000	-1.2465017088e+000
 1.5235070791e+000	 2.2291088309e+000	-1.2290546564e+000
 1.5005540115e+000	 2.2446241686e+000	-1.2083506704e+000
 1.4774663341e+000	 2.2598878803e+000	-1.1844970227e+000
 1.7175623944e+000	 2.1155624361e+000	-1.2251729487e+000
 1.6956284766e+000	 2.1331828495e+000	-1.2379557939e+000
 1.6735268530e+000	 2.1505657098e+000	-1.2464131999e+000
 1.6512613715e+000	 2.1677086711e+000	-1.2506804759e+000
 1.6288359226e+000	 2.1846094702e+000	-1.2508919088e+000
 1.6062544370e+000	 2.2012659275e+000	-1.2471806487e+000
 1.5835208835e+000	 2.2176759482e+000	-1.2396785994e+000
 1.5606392671e+000	 2.2338375227e+000	-1.2285163174e+000
 1.5376136261e+000	 2.2497487275e+000	-1.2138229169e+000
 1.5144480302e+000	 2.2654077258e+000	-1.1957259829e+000
 1.4911465780e+000	 2.2808127681e+000	-1.1743514902e+000
 1.7333198476e+000	 2.1349712658e+000	-1.1783852530e+000
 1.7111847011e+000	 2.1527533344e+000	-1.1959763197e+000
 1.6888803104e+000	 2.1702956705e+000	-1.2089721112e+000
 1.6664105584e+000	 2.1875959066e+000	-1.2175262230e+000
 1.6437793714e+000	 2.2046517589e+000	-1.2217913041e+000
 1.6209907162e+000	 2.2214610278e+000	-1.2219189222e+000
 1.5980485981e+000	 2.2380215991e+000	-1.2180594351e+000
 1.5749570586e+000	 2.2543314449e+000	-1.2103618700e+000
 1.5517201731e+000	 2.2703886241e+000	-1.1989738098e+000
 1.5283420488e+000	 2.2861912829e+000	-1.1840412867e+000
 1.5048268218e+000	 2.3017376559e+000	-1.1657086832e+000
 1.3680243835e+000	 2.0924887780e+000	-1.3403225109e+000
 1.3465260504e+000	 2.1063873328e+000	-1.3147550264e+000
 1.3249106704e+000	 2.1200499323e+000	-1.2823744115e+000
 1.3031820709e+000	 2.1334752143e+000	-1.2433508834e+000
 1.2813440973e+000	 2.1466618980e+000	-1.1978561996e+000
 1.2594006108e+000	 2.1596087844e+000	-1.1460635186e+000
 1.2373554867e+000	 2.1723147561e+000	-1.1172431695e+000
 1.2152126119e+000	 2.1847787778e+000	-1.1003116534e+000
 1.1929758828e+000	 2.1969998960e+000	-1.0725941137e+000
 1.1706492033e+000	 2.2089772391e+000	-1.0341322444e+000
 1.1482364826e+000	 2.2207100171e+000	-9.8498306738e-001
 1.3817046273e+000	 2.1134136658e+000	-1.3119055944e+000
 1.3599913109e+000	 2.1274512061e+000	-1.2897926997e+000
 1.3381597771e+000	 2.1412504316e+000	-1.2612855242e+000
 1.3162138916e+000	 2.1548099664e+000	-1.2265308677e+000
 1.2941575382e+000	 2.1681285170e+000	-1.1856768175e+000
 1.2719946169e+000	 2.1812048722e+000	-1.1388726366e+000
 1.2497290416e+000	 2.1940379036e+000	-1.0868717651e+000
 1.2273647380e+000	 2.2066265656e+000	-1.0756601651e+000
 1.2049056416e+000	 2.2189698950e+000	-1.0536578991e+000
 1.1823556953e+000	 2.2310670115e+000	-1.0208802907e+000
 1.1597188475e+000	 2.2429171172e+000	-9.7735847689e-001
 1.3953848711e+000	 2.1343385536e+000	-1.2864170961e+000
 1.3734565714e+000	 2.1485150794e+000	-1.2671054960e+000
 1.3514088839e+000	 2.1624509309e+000	-1.2418139117e+000
 1.3292457123e+000	 2.1761447186e+000	-1.2106660334e+000
 1.3069709792e+000	 2.1895951360e+000	-1.1737865849e+000
 1.2845886230e+000	 2.2028009601e+000	-1.1313012397e+000
 1.2621025965e+000	 2.2157610512e+000	-1.0833365395e+000
 1.2395168641e+000	 2.2284743533e+000	-1.0511677881e+000
 1.2168354005e+000	 2.2409398939e+000	-1.0341367053e+000
 1.1940621873e+000	 2.2531567839e+000	-1.0062865845e+000
 1.1712012123e+000	 2.2651242174e+000	-9.6762301260e-001
 1.4090651150e+000	 2.1552634414e+000	-1.2636642901e+000
 1.3869218319e+000	 2.1695789527e+000	-1.2465211460e+000
 1.3646579906e+000	 2.1836514302e+000	-1.2238079905e+000
 1.3422775331e+000	 2.1974794707e+000	-1.1956257008e+000
 1.3197844202e+000	 2.2110617550e+000	-1.1620759332e+000
 1.2971826291e+000	 2.2243970479e+000	-1.1232610663e+000
 1.2744761513e+000	 2.2374841988e+000	-1.0792841480e+000
 1.2516689903e+000	 2.2503221411e+000	-1.0302488436e+000
 1.2287651593e+000	 2.2629098929e+000	-1.0142557227e+000
 1.2057686794e+000	 2.2752465563e+000	-9.9059655295e-001
 1.1826835771e+000	 2.2873313176e+000	-9.5604231275e-001
 1.4227453588e+000	 2.1761883292e+000	-1.2434590015e+000
 1.4003870924e+000	 2.1906428261e+000	-1.2278711693e+000
 1.3779070973e+000	 2.2048519296e+000	-1.2071191960e+000
 1.3553093538e+000	 2.2188142229e+000	-1.1812814323e+000
 1.3325978612e+000	 2.2325283739e+000	-1.1504367524e+000
 1.3097766352e+000	 2.2459931357e+000	-1.1146645249e+000
 1.2868497062e+000	 2.2592073463e+000	-1.0740445863e+000
 1.2638211164e+000	 2.2721699289e+000	-1.0286572175e+000
 1.2406949181e+000	 2.2848798918e+000	-9.9423841042e-001
 1.2174751714e+000	 2.2973363287e+000	-9.7405308191e-001
 1.1941659420e+000	 2.3095384178e+000	-9.4287865994e-001
 1.4364256026e+000	 2.1971132169e+000	-1.2256173901e+000
 1.4138523529e+000	 2.2117066994e+000	-1.2109906938e+000
 1.3911562040e+000	 2.2260524289e+000	-1.1916018388e+000
 1.3683411745e+000	 2.2401489750e+000	-1.1675069258e+000
 1.3454113021e+000	 2.2539949929e+000	-1.1387623224e+000
 1.3223706413e+000	 2.2675892236e+000	-1.1054246613e+000
 1.2992232611e+000	 2.2809304939e+000	-1.0675508409e+000
 1.2759732425e+000	 2.2940177167e+000	-1.0251980286e+000
 1.2526246769e+000	 2.3068498908e+000	-9.7842366813e-001
 1.2291816635e+000	 2.3194261010e+000	-9.5689663666e-001
 1.2056483068e+000	 2.3317455179e+000	-9.2839114095e-001
 1.4501058465e+000	 2.2180381047e+000	-1.2099597460e+000
 1.4273176134e+000	 2.2327705727e+000	-1.1957182857e+000
 1.4044053107e+000	 2.2472529282e+000	-1.1771129693e+000
 1.3813729952e+000	 2.2614837271e+000	-1.1541779141e+000
 1.3582247431e+000	 2.2754616119e+000	-1.1269472470e+000
 1.3349646475e+000	 2.2891853114e+000	-1.0954551293e+000
 1.3115968159e+000	 2.3026536414e+000	-1.0597357841e+000
 1.2881253686e+000	 2.3158655044e+000	-1.0198235273e+000
 1.2645544358e+000	 2.3288198898e+000	-9.7575280104e-001
 1.2408881555e+000	 2.3415158734e+000	-9.3936537624e-001
 1.2171306716e+000	 2.3539526181e+000	-9.1283579740e-001
 1.4637860903e+000	 2.2389629925e+000	-1.1963102961e+000
 1.4407828739e+000	 2.2538344460e+000	-1.1818957888e+000
 1.4176544174e+000	 2.2684534275e+000	-1.1635122494e+000
 1.3944048159e+000	 2.2828184793e+000	-1.1411720696e+000
 1.3710381841e+000	 2.2969282309e+000	-1.1148873921e+000
 1.3475586536e+000	 2.3107813993e+000	-1.0846701616e+000
 1.3239703708e+000	 2.3243767890e+000	-1.0505321799e+000
 1.3002774948e+000	 2.3377132922e+000	-1.0124851628e+000
 1.2764841946e+000	 2.3507898887e+000	-9.7054080117e-001
 1.2525946475e+000	 2.3636056458e+000	-9.2471082366e-001
 1.2286130364e+000	 2.3761597183e+000	-8.9646576816e-001
 1.4774663341e+000	 2.2598878803e+000	-1.1844970227e+000
 1.4542481344e+000	 2.2748983194e+000	-1.1693681725e+000
 1.4309035241e+000	 2.2896539269e+000	-1.1506618317e+000
 1.4074366366e+000	 2.3041532314e+000	-1.1283689147e+000
 1.3838516251e+000	 2.3183948499e+000	-1.1024798272e+000
 1.3601526597e+000	 2.3323774871e+000	-1.0729845437e+000
 1.3363439257e+000	 2.3460999366e+000	-1.0398726885e+000
 1.3124296209e+000	 2.3595610800e+000	-1.0031336203e+000
 1.2884139534e+000	 2.3727598877e+000	-9.6275651942e-001
 1.2643011396e+000	 2.3856954182e+000	-9.1873047728e-001
 1.2400954013e+000	 2.3983668184e+000	-8.7953142363e-001
 1.4911465780e+000	 2.2808127681e+000	-1.1743514902e+000
 1.4677133949e+000	 2.2959621927e+000	-1.1579833889e+000
 1.4441526308e+000	 2.3108544262e+000	-1.1384262453e+000
 1.4204684573e+000	 2.3254879836e+000	-1.1156497367e+000
 1.3966650660e+000	 2.3398614688e+000	-1.0896227705e+000
 1.3727466658e+000	 2.3539735750e+000	-1.0603135879e+000
 1.3487174805e+000	 2.3678230841e+000	-1.0276898714e+000
 1.3245817470e+000	 2.3814088678e+000	-9.9171885626e-001
 1.3003437123e+000	 2.3947298867e+000	-9.5236744377e-001
 1.2760076316e+000	 2.4077851906e+000	-9.0960231804e-001
 1.2515777661e+000	 2.4205739186e+000	-8.6339006451e-001
 1.5048268218e+000	 2.3017376559e+000	-1.1657086832e+000
 1.4811786555e+000	 2.3170260660e+000	-1.1475922368e+000
 1.4574017375e+000	 2.3320549255e+000	-1.1266722878e+000
 1.4335002780e+000	 2.3468227357e+000	-1.1028975079e+000
 1.4094785070e+000	 2.3613280878e+000	-1.0762155364e+000
 1.3853406719e+000	 2.3755696628e+000	-1.0465731097e+000
 1.3610910354e+000	 2.3895462317e+000	-1.0139161958e+000
 1.3367338731e+000	 2.4032566556e+000	-9.7819013107e-001
 1.3122734711e+000	 2.4166998856e+000	-9.3933976120e-001
 1.2877141236e+000	 2.4298749630e+000	-8.9730958371e-001
 1.2630601309e+000	 2.4427810188e+000	-8.5204389325e-001
 1.1482364826e+000	 2.2207100171e+000	-9.8498306738e-001
 1.1257416334e+000	 2.2321975215e+000	-9.7310696088e-001
 1.1031685694e+000	 2.2434391250e+000	-9.5669022159e-001
 1.0805212035e+000	 2.2544342814e+000	-9.3570243403e-001
 1.0578034457e+000	 2.2651825247e+000	-9.1012296450e-001
 1.0350192013e+000	 2.2756834694e+000	-8.7994084848e-001
 1.0121723687e+000	 2.2859368093e+000	-8.4515465714e-001
 9.8926683732e-001	 2.2959423174e+000	-8.0577234342e-001
 9.6630648602e-001	 2.3056998450e+000	-7.6181106867e-001
 9.4329518099e-001	 2.3152093213e+000	-7.1329701065e-001
 9.2023677391e-001	 2.3244707527e+000	-6.6026515363e-001
 1.1597188475e+000	 2.2429171172e+000	-9.7735847689e-001
 1.1369990498e+000	 2.2545194967e+000	-9.6800501726e-001
 1.1142002551e+000	 2.2658735162e+000	-9.5299842269e-001
 1.0913264155e+000	 2.2769786242e+000	-9.3231356459e-001
 1.0683814802e+000	 2.2878343500e+000	-9.0593625830e-001
 1.0453693934e+000	 2.2984403041e+000	-8.7386312994e-001
 1.0222940924e+000	 2.3087961774e+000	-8.3610146063e-001
 9.9915950569e-001	 2.3189017405e+000	-7.9266900898e-001
 9.7596955088e-001	 2.3287568434e+000	-7.4359381265e-001
 9.5272813280e-001	 2.3383614145e+000	-6.8891397003e-001
 9.2943914165e-001	 2.3477154602e+000	-6.2867740273e-001
 1.1712012123e+000	 2.2651242174e+000	-9.6762301260e-001
 1.1482564661e+000	 2.2768414719e+000	-9.6079187426e-001
 1.1252319408e+000	 2.2883079075e+000	-9.4720215153e-001
 1.1021316275e+000	 2.2995229670e+000	-9.2683391221e-001
 1.0789595146e+000	 2.3104861752e+000	-8.9967933334e-001
 1.0557195854e+000	 2.3211971388e+000	-8.6574254737e-001
 1.0324158161e+000	 2.3316555455e+000	-8.2503946415e-001
 1.0090521741e+000	 2.3418611637e+000	-7.7759756983e-001
 9.8563261575e-001	 2.3518138419e+000	-7.2345570331e-001
 9.6216108461e-001	 2.3615135077e+000	-6.6266381152e-001
 9.3864150939e-001	 2.3709601677e+000	-5.9528268432e-001
 1.1826835771e+000	 2.2873313176e+000	-9.5604231275e-001
 1.1595138824e+000	 2.2991634471e+000	-9.5173060385e-001
 1.1362636265e+000	 2.3107422987e+000	-9.3956132393e-001
 1.1129368396e+000	 2.3220673098e+000	-9.1951965052e-001
 1.0895375491e+000	 2.3331380004e+000	-8.9160403924e-001
 1.0660697774e+000	 2.3439539735e+000	-8.5582604917e-001
 1.0425375398e+000	 2.3545149136e+000	-8.1221014276e-001
 1.0189448424e+000	 2.3648205869e+000	-7.6079346091e-001
 9.9529568061e-001	 2.3748708403e+000	-7.0162557444e-001
 9.7159403643e-001	 2.3846656010e+000	-6.3476821287e-001
 9.4784387714e-001	 2.3942048752e+000	-5.6029497164e-001
 1.1941659420e+000	 2.3095384178e+000	-9.4287865994e-001
 1.1707712988e+000	 2.3214854223e+000	-9.4108097913e-001
 1.1472953122e+000	 2.3331766900e+000	-9.3033263113e-001
 1.1237420516e+000	 2.3446116526e+000	-9.1062382036e-001
 1.1001155835e+000	 2.3557898257e+000	-8.8195920192e-001
 1.0764199694e+000	 2.3667108082e+000	-8.4435768640e-001
 1.0526592634e+000	 2.3773742817e+000	-7.9785221747e-001
 1.0288375108e+000	 2.3877800100e+000	-7.4248952330e-001
 1.0049587455e+000	 2.3979278388e+000	-6.7832984288e-001
 9.8102698824e-001	 2.4078176942e+000	-6.0544662828e-001
 9.5704624488e-001	 2.4174495828e+000	-5.2392622418e-001
 1.2056483068e+000	 2.3317455179e+000	-9.2839114095e-001
 1.1820287151e+000	 2.3438073975e+000	-9.2909963137e-001
 1.1583269979e+000	 2.3556110812e+000	-9.1976969338e-001
 1.1345472636e+000	 2.3671559954e+000	-9.0039647894e-001
 1.1106936180e+000	 2.3784416509e+000	-8.7099076761e-001
 1.0867701614e+000	 2.3894676429e+000	-8.3157875064e-001
 1.0627809871e+000	 2.4002336497e+000	-7.8220178634e-001
 1.0387301792e+000	 2.4107394332e+000	-7.2291612771e-001
 1.0146218103e+000	 2.4209848372e+000	-6.5379262357e-001
 9.9045994005e-001	 2.4309697874e+000	-5.7491639432e-001
 9.6624861262e-001	 2.4406942903e+000	-4.8638648357e-001
 1.2171306716e+000	 2.3539526181e+000	-9.1283579740e-001
 1.1932861314e+000	 2.3661293727e+000	-9.1604019825e-001
 1.1693586836e+000	 2.3780454725e+000	-9.0812320475e-001
 1.1453524757e+000	 2.3897003382e+000	-8.8908484062e-001
 1.1212716525e+000	 2.4010934762e+000	-8.5894193868e-001
 1.0971203534e+000	 2.4122244775e+000	-8.1772790425e-001
 1.0729027108e+000	 2.4230930178e+000	-7.6549244826e-001
 1.0486228476e+000	 2.4336988564e+000	-7.0230129103e-001
 1.0242848752e+000	 2.4440418357e+000	-6.2823583819e-001
 9.9989289186e-001	 2.4541218806e+000	-5.4339282980e-001
 9.7545098036e-001	 2.4639389978e+000	-4.4788396404e-001
 1.2286130364e+000	 2.3761597183e+000	-8.9646576816e-001
 1.2045435478e+000	 2.3884513479e+000	-9.0215346371e-001
 1.1803903692e+000	 2.4004798637e+000	-8.9564106990e-001
 1.1561576877e+000	 2.4122446810e+000	-8.7693340974e-001
 1.1318496869e+000	 2.4237453014e+000	-8.4605330185e-001
 1.1074705454e+000	 2.4349813122e+000	-8.0304130318e-001
 1.0830244345e+000	 2.4459523859e+000	-7.4795541968e-001
 1.0585155159e+000	 2.4566582796e+000	-6.8087078632e-001
 1.0339479401e+000	 2.4670988341e+000	-6.0187931760e-001
 1.0093258437e+000	 2.4772739738e+000	-5.1108933004e-001
 9.8465334810e-001	 2.4871837053e+000	-4.0862513784e-001
 1.2400954013e+000	 2.3983668184e+000	-8.7953142363e-001
 1.2158009641e+000	 2.4107733232e+000	-8.8768749012e-001
 1.1914220549e+000	 2.4229142550e+000	-8.8256853321e-001
 1.1669628997e+000	 2.4347890238e+000	-8.6418410605e-001
 1.1424277214e+000	 2.4463971267e+000	-8.3256294930e-001
 1.1178207375e+000	 2.4577381469e+000	-7.8775271302e-001
 1.0931461582e+000	 2.4688117540e+000	-7.2981964496e-001
 1.0684081843e+000	 2.4796177027e+000	-6.5884824668e-001
 1.0436110049e+000	 2.4901558326e+000	-5.7494089866e-001
 1.0187587955e+000	 2.5004260670e+000	-4.7980590509e-001
 9.9385571584e-001	 2.5104284129e+000	-4.1017158934e-001
 1.2515777661e+000	 2.4205739186e+000	-8.6339006451e-001
 1.2270583804e+000	 2.4330952984e+000	-8.7288774307e-001
 1.2024537406e+000	 2.4453486462e+000	-8.6914830079e-001
 1.1777681118e+000	 2.4573333667e+000	-8.5107638332e-001
 1.1530057558e+000	 2.4690489519e+000	-8.1870659309e-001
 1.1281709295e+000	 2.4804949816e+000	-7.7209361865e-001
 1.1032678819e+000	 2.4916711221e+000	-7.1131190055e-001
 1.0783008527e+000	 2.5025771259e+000	-6.4496762909e-001
 1.0532740698e+000	 2.5132128310e+000	-5.9395221762e-001
 1.0281917473e+000	 2.5235781602e+000	-5.3290986140e-001
 1.0030580836e+000	 2.5336731204e+000	-4.6246135731e-001
 1.2630601309e+000	 2.4427810188e+000	-8.5204389325e-001
 1.2383157968e+000	 2.4554172736e+000	-8.5799720945e-001
 1.2134854263e+000	 2.4677830375e+000	-8.5562065590e-001
 1.1885733238e+000	 2.4798777095e+000	-8.3784734140e-001
 1.1635837903e+000	 2.4917007772e+000	-8.0471767333e-001
 1.1385211215e+000	 2.5032518163e+000	-7.6583384826e-001
 1.1133896056e+000	 2.5145304902e+000	-7.3767188037e-001
 1.0881935211e+000	 2.5255365491e+000	-6.9778393555e-001
 1.0629371346e+000	 2.5362698295e+000	-6.4686854232e-001
 1.0376246991e+000	 2.5467302535e+000	-5.8559468092e-001
 1.0122604513e+000	 2.5569178279e+000	-5.1460151021e-001
 9.2023677391e-001	 2.3244707527e+000	-6.6026515363e-001
 8.9713510015e-001	 2.3334842215e+000	-6.6381948520e-001
 8.7399397693e-001	 2.3422498860e+000	-6.5846175226e-001
 8.5081720161e-001	 2.3507679787e+000	-6.4448329606e-001
 8.2760854992e-001	 2.3590388060e+000	-6.2218405061e-001
 8.0437177429e-001	 2.3670627471e+000	-5.9187200796e-001
 7.8111060220e-001	 2.3748402530e+000	-5.5386267501e-001
 7.5782873460e-001	 2.3823718453e+000	-5.0847852315e-001
 7.3452984428e-001	 2.3896581153e+000	-4.5604843212e-001
 7.1121757443e-001	 2.3966997229e+000	-3.9690712947e-001
 6.8789553712e-001	 2.4034973955e+000	-3.3139462691e-001
 9.2943914165e-001	 2.3477154602e+000	-6.2867740273e-001
 9.0610645115e-001	 2.3568190637e+000	-6.3085317377e-001
 8.8273391670e-001	 2.3656723848e+000	-6.2387919429e-001
 8.5932537363e-001	 2.3742756584e+000	-6.0801903463e-001
 8.3588463542e-001	 2.3826291940e+000	-5.8354563695e-001
 8.1241549204e-001	 2.3907333746e+000	-5.5074079326e-001
 7.8892170823e-001	 2.3985886555e+000	-5.0989461353e-001
 7.6540702195e-001	 2.4061955637e+000	-4.6130498533e-001
 7.4187514273e-001	 2.4135546964e+000	-4.0527702621e-001
 7.1832975018e-001	 2.4206667202e+000	-3.4212253031e-001
 6.9477449249e-001	 2.4275323694e+000	-2.7215941056e-001
 9.3864150939e-001	 2.3709601677e+000	-5.9528268432e-001
 9.1507780216e-001	 2.3801539060e+000	-5.9484019722e-001
 8.9147385648e-001	 2.3890948837e+000	-5.8500364347e-001
 8.6783354565e-001	 2.3977833382e+000	-5.6600943272e-001
 8.4416072093e-001	 2.4062195821e+000	-5.3810412890e-001
 8.2045920978e-001	 2.4144040021e+000	-5.0154394037e-001
 7.9673281426e-001	 2.4223370580e+000	-4.5659419877e-001
 7.7298530930e-001	 2.4300192822e+000	-4.0352882782e-001
 7.4922044118e-001	 2.4374512776e+000	-3.4262980369e-001
 7.2544192593e-001	 2.4446337174e+000	-2.7418660809e-001
 7.0165344787e-001	 2.4515673434e+000	-1.9849567560e-001
 9.4784387714e-001	 2.3942048752e+000	-5.6029497164e-001
 9.2404915316e-001	 2.4034887482e+000	-5.5602432719e-001
 9.0021379625e-001	 2.4125173825e+000	-5.4210851151e-001
 8.7634171767e-001	 2.4212910180e+000	-5.1875737163e-001
 8.5243680643e-001	 2.4298099702e+000	-4.8619169506e-001
 8.2850292753e-001	 2.4380746295e+000	-4.4464271145e-001
 8.0454392028e-001	 2.4460854606e+000	-3.9435158134e-001
 7.8056359665e-001	 2.4538430006e+000	-3.3556887373e-001
 7.5656573962e-001	 2.4613478587e+000	-2.6855403353e-001
 7.3255410168e-001	 2.4686007146e+000	-1.9357484064e-001
 7.0853240324e-001	 2.4756023173e+000	-1.1090686180e-001
 9.5704624488e-001	 2.4174495828e+000	-5.2392622418e-001
 9.3302050416e-001	 2.4268235904e+000	-5.1464608426e-001
 9.0895373602e-001	 2.4359398814e+000	-4.9546272318e-001
 8.8484988969e-001	 2.4447986978e+000	-4.6656001191e-001
 8.6071289193e-001	 2.4534003582e+000	-4.2813355208e-001
 8.3654664528e-001	 2.4617452570e+000	-3.8039018846e-001
 8.1235502631e-001	 2.4698338631e+000	-3.2354750715e-001
 7.8814188400e-001	 2.4776667191e+000	-2.5783332098e-001
 7.6391103807e-001	 2.4852444399e+000	-1.8348514369e-001
 7.3966627743e-001	 2.4925677118e+000	-1.0074965415e-001
 7.1541135862e-001	 2.4996372913e+000	-9.8821521436e-003
 9.6624861262e-001	 2.4406942903e+000	-4.8638648357e-001
 9.4199185517e-001	 2.4501584326e+000	-4.7094289274e-001
 9.1769367579e-001	 2.4593623803e+000	-4.4533093003e-001
 8.9335806171e-001	 2.4683063776e+000	-4.0970906582e-001
 8.6898897743e-001	 2.4769907463e+000	-3.6424829563e-001
 8.4459036302e-001	 2.4854158845e+000	-3.0913166276e-001
 8.2016613233e-001	 2.4935822656e+000	-2.4455376518e-001
 7.9572017134e-001	 2.5014904375e+000	-1.7956644787e-001
 7.7125633651e-001	 2.5091410210e+000	-1.4538862988e-001
 7.4677845317e-001	 2.5165347091e+000	-1.0645810666e-001
 7.2229031399e-001	 2.5236722653e+000	-6.3077707368e-002
 9.7545098036e-001	 2.4639389978e+000	-4.4788396404e-001
 9.5096320617e-001	 2.4734932748e+000	-4.2514922674e-001
 9.2643361556e-001	 2.4827848791e+000	-3.9197371191e-001
 9.0186623372e-001	 2.4918140574e+000	-3.4849105429e-001
 8.7726506293e-001	 2.5005811343e+000	-2.9776342318e-001
 8.5263408076e-001	 2.5090865119e+000	-2.7967147470e-001
 8.2797723835e-001	 2.5173306682e+000	-2.5598271685e-001
 8.0329845869e-001	 2.5253141560e+000	-2.2705097966e-001
 7.7860163495e-001	 2.5330376022e+000	-1.9320355991e-001
 7.5389062892e-001	 2.5405017063e+000	-1.5474157236e-001
 7.2916926936e-001	 2.5477072392e+000	-1.1194035245e-001
 9.8465334810e-001	 2.4871837053e+000	-4.0862513784e-001
 9.5993455717e-001	 2.4968281170e+000	-3.7749674800e-001
 9.3517355533e-001	 2.5062073780e+000	-3.6340634479e-001
 9.1037440574e-001	 2.5153217372e+000	-3.5613438914e-001
 8.8554114843e-001	 2.5241715224e+000	-3.4276414939e-001
 8.6067779851e-001	 2.5327571394e+000	-3.2367888136e-001
 8.3578834438e-001	 2.5410790707e+000	-2.9923411652e-001
 8.1087674604e-001	 2.5491378744e+000	-2.6975794393e-001
 7.8594693340e-001	 2.5569341833e+000	-2.3555134938e-001
 7.6100280466e-001	 2.5644687035e+000	-1.9688860945e-001
 7.3604822473e-001	 2.5717422132e+000	-1.5401773768e-001
 9.9385571584e-001	 2.5104284129e+000	-4.1017158934e-001
 9.6890590817e-001	 2.5201629592e+000	-4.1337555480e-001
 9.4391349510e-001	 2.5296298768e+000	-4.0998296601e-001
 9.1888257776e-001	 2.5388294169e+000	-4.0041045824e-001
 8.9381723393e-001	 2.5477619105e+000	-3.8504579516e-001
 8.6872151625e-001	 2.5564277669e+000	-3.6424806851e-001
 8.4359945040e-001	 2.5648274732e+000	-3.3834796073e-001
 8.1845503338e-001	 2.5729615929e+000	-3.0764806856e-001
 7.9329223184e-001	 2.5808307645e+000	-2.7242328463e-001
 7.6811498040e-001	 2.5884357008e+000	-2.3292123477e-001
 7.4292718010e-001	 2.5957771871e+000	-1.8936276811e-001
 1.0030580836e+000	 2.5336731204e+000	-4.6246135731e-001
 9.7787725917e-001	 2.5434978015e+000	-4.6191571435e-001
 9.5265343487e-001	 2.5530523757e+000	-4.5514452176e-001
 9.2739074977e-001	 2.5623370967e+000	-4.4254210347e-001
 9.0209331943e-001	 2.5713522985e+000	-4.2447311464e-001
 8.7676523399e-001	 2.5800983944e+000	-4.0127278091e-001
 8.5141055642e-001	 2.5885758757e+000	-3.7324720213e-001
 8.2603332072e-001	 2.5967853113e+000	-3.4067371772e-001
 8.0063753028e-001	 2.6047273457e+000	-3.0380133126e-001
 7.7522715614e-001	 2.6124026980e+000	-2.6285119142e-001
 7.4980613547e-001	 2.6198121611e+000	-2.1801712643e-001
 1.0122604513e+000	 2.5569178279e+000	-5.1460151021e-001
 9.8684861017e-001	 2.5668326437e+000	-5.0956606963e-001
 9.6139337463e-001	 2.5764748746e+000	-4.9869511899e-001
 9.3589892178e-001	 2.5858447765e+000	-4.8236102061e-001
 9.1036940492e-001	 2.5949426866e+000	-4.6090563835e-001
 8.8480895173e-001	 2.6037690218e+000	-4.3464061693e-001
 8.5922166244e-001	 2.6123242783e+000	-4.0384772684e-001
 8.3361160807e-001	 2.6206090298e+000	-3.6877927205e-001
 8.0798282872e-001	 2.6286239268e+000	-3.2965855781e-001
 7.8233933189e-001	 2.6363696952e+000	-2.8668041572e-001
 7.5668509084e-001	 2.6438471350e+000	-2.4001178310e-001
 6.8789553712e-001	 2.4034973955e+000	-3.3139462691e-001
 6.6456731185e-001	 2.4100519264e+000	-3.5702550380e-001
 6.4123644421e-001	 2.4163641743e+000	-3.9743027428e-001
 6.1790644450e-001	 2.4224350612e+000	-4.1850546406e-001
 5.9458078647e-001	 2.4282655721e+000	-3.6953566377e-001
 5.7126290603e-001	 2.4338567526e+000	-3.2360562681e-001
 5.4795620010e-001	 2.4392097087e+000	-2.7955384907e-001
 5.2466402543e-001	 2.4443256044e+000	-2.3628174468e-001
 5.0138969748e-001	 2.4492056613e+000	-1.9275513876e-001
 4.7813648941e-001	 2.4538511564e+000	-1.4800557591e-001
 4.5490763105e-001	 2.4582634210e+000	-1.0113144613e-001
 6.9477449249e-001	 2.4275323694e+000	-2.7215941056e-001
 6.7121298497e-001	 2.4341524457e+000	-2.8108674407e-001
 6.4764880865e-001	 2.4405278160e+000	-3.0268030692e-001
 6.2408550895e-001	 2.4466594119e+000	-3.3286175435e-001
 6.0052659434e-001	 2.4525482278e+000	-2.7177860161e-001
 5.7697553510e-001	 2.4581953202e+000	-2.1065717576e-001
 5.5343576211e-001	 2.4636018058e+000	-1.4830322387e-001
 5.2991066568e-001	 2.4687688605e+000	-8.3589596547e-002
 5.0640359445e-001	 2.4736977179e+000	-1.5457745527e-002
 4.8291785430e-001	 2.4783896679e+000	 5.7080970364e-002
 4.5945670736e-001	 2.4828460553e+000	 1.3494416924e-001
 7.0165344787e-001	 2.4515673434e+000	-1.9849567560e-001
 6.7785865809e-001	 2.4582529650e+000	-1.9061969205e-001
 6.5406117310e-001	 2.4646914578e+000	-1.9333151720e-001
 6.3026457340e-001	 2.4708837625e+000	-2.0652246529e-001
 6.0647240220e-001	 2.4768308835e+000	-1.5496212665e-001
 5.8268816416e-001	 2.4825338877e+000	-8.0344568935e-002
 5.5891532411e-001	 2.4879939028e+000	-1.3796700397e-003
 5.3515730594e-001	 2.4932121165e+000	 8.3090530018e-002
 5.1141749143e-001	 2.4981897745e+000	 1.7415113500e-001
 4.8769921920e-001	 2.5029281795e+000	 2.3713239178e-001
 4.6400578367e-001	 2.5074286895e+000	 2.8157077229e-001
 7.0853240324e-001	 2.4756023173e+000	-1.1090686180e-001
 6.8450433122e-001	 2.4823534842e+000	-8.6121167663e-002
 6.6047353755e-001	 2.4888550995e+000	-6.9872974211e-002
 6.3644363785e-001	 2.4951081131e+000	-6.2079533647e-002
 6.1241821007e-001	 2.5011135392e+000	-2.8041203677e-002
 5.8840079322e-001	 2.5068724552e+000	 6.0317533443e-003
 5.6439488611e-001	 2.5123859999e+000	 4.2582185467e-002
 5.4040394619e-001	 2.5176553726e+000	 8.1616470342e-002
 5.1643138840e-001	 2.5226818311e+000	 1.2319286390e-001
 4.9248058409e-001	 2.5274666911e+000	 1.6742183809e-001
 4.6855485998e-001	 2.5320113237e+000	 2.1446627679e-001
 7.1541135862e-001	 2.4996372913e+000	-9.8821521436e-003
 6.9115000434e-001	 2.5064540035e+000	-1.5418448641e-002
 6.6688590199e-001	 2.5130187412e+000	-3.3631341758e-002
 6.4262270229e-001	 2.5193324637e+000	-6.1927240929e-002
 6.1836401794e-001	 2.5253961950e+000	-8.0816896858e-002
 5.9411342228e-001	 2.5312110227e+000	-4.9435941881e-002
 5.6987444812e-001	 2.5367780970e+000	-1.4355419011e-002
 5.4565058645e-001	 2.5420986286e+000	 2.4371493381e-002
 5.2144528538e-001	 2.5471738878e+000	 6.6744653027e-002
 4.9726194898e-001	 2.5520052026e+000	 1.1281737082e-001
 4.7310393629e-001	 2.5565939579e+000	 1.6269668077e-001
 7.2229031399e-001	 2.5236722653e+000	-6.3077707368e-002
 6.9779567746e-001	 2.5305545228e+000	-6.5172183616e-002
 6.7329826643e-001	 2.5371823830e+000	-7.5945280848e-002
 6.4880176674e-001	 2.5435568143e+000	-9.5334632913e-002
 6.2430982580e-001	 2.5496788507e+000	-1.2159291631e-001
 5.9982605134e-001	 2.5555495903e+000	-9.2336951590e-002
 5.7535401012e-001	 2.5611701941e+000	-5.8215969184e-002
 5.5089722670e-001	 2.5665418847e+000	-1.9343870322e-002
 5.2645918235e-001	 2.5716659444e+000	 2.4219713574e-002
 5.0204331388e-001	 2.5765437142e+000	 7.2469917890e-002
 4.7765301260e-001	 2.5811765921e+000	 1.2545698938e-001
 7.2916926936e-001	 2.5477072392e+000	-1.1194035245e-001
 7.0444135058e-001	 2.5546550420e+000	-1.0846460397e-001
 6.7971063087e-001	 2.5613460247e+000	-1.1223353630e-001
 6.5498083118e-001	 2.5677811649e+000	-1.2319842648e-001
 6.3025563367e-001	 2.5739615064e+000	-1.4128084995e-001
 6.0553868040e-001	 2.5798881578e+000	-1.2368019592e-001
 5.8083357212e-001	 2.5855622912e+000	-8.9966437665e-002
 5.5614386696e-001	 2.5909851407e+000	-5.0454166692e-002
 5.3147307933e-001	 2.5961580010e+000	-5.2636296212e-003
 5.0682467877e-001	 2.6010822257e+000	 4.5541084374e-002
 4.8220208891e-001	 2.6057592263e+000	 1.0195246326e-001
 7.3604822473e-001	 2.5717422132e+000	-1.5401773768e-001
 7.1108702369e-001	 2.5787555613e+000	-1.4536298988e-001
 6.8612299532e-001	 2.5855096665e+000	-1.4256538393e-001
 6.6115989563e-001	 2.5920055155e+000	-1.4558927924e-001
 6.3620144153e-001	 2.5982441621e+000	-1.5436962544e-001
 6.1125130946e-001	 2.6042267253e+000	-1.4446312761e-001
 5.8631313412e-001	 2.6099543883e+000	-1.1056260336e-001
 5.6139050721e-001	 2.6154283968e+000	-6.9873054315e-002
 5.3648697630e-001	 2.6206500576e+000	-2.2576503024e-002
 5.1160604366e-001	 2.6256207373e+000	 3.1202653532e-002
 4.8675116522e-001	 2.6303418605e+000	 9.1398139298e-002
 7.4292718010e-001	 2.5957771871e+000	-1.8936276811e-001
 7.1773269681e-001	 2.6028560806e+000	-1.7592295962e-001
 6.9253535976e-001	 2.6096733082e+000	-1.6699857052e-001
 6.6733896007e-001	 2.6162298662e+000	-1.6256648519e-001
 6.4214724939e-001	 2.6225268178e+000	-1.6257443556e-001
 6.1696393852e-001	 2.6285652928e+000	-1.5567226284e-001
 5.9179269612e-001	 2.6343464854e+000	-1.2094956967e-001
 5.6663714746e-001	 2.6398716528e+000	-7.8503808484e-002
 5.4150087327e-001	 2.6451421142e+000	-2.8579972772e-002
 5.1638740856e-001	 2.6501592489e+000	 2.8636115603e-002
 4.9130024153e-001	 2.6549244947e+000	 9.3018378064e-002
 7.4980613547e-001	 2.6198121611e+000	-2.1801712643e-001
 7.2437836993e-001	 2.6269565998e+000	-2.0018900452e-001
 6.9894772419e-001	 2.6338369500e+000	-1.8557984264e-001
 6.7351802451e-001	 2.6404542168e+000	-1.7417849593e-001
 6.4809305726e-001	 2.6468094736e+000	-1.6594488998e-001
 6.2267656758e-001	 2.6529038604e+000	-1.5828368301e-001
 5.9727225811e-001	 2.6587385825e+000	-1.2206225425e-001
 5.7188378771e-001	 2.6643149089e+000	-7.7239797493e-002
 5.4651477025e-001	 2.6696341708e+000	-2.4125506157e-002
 5.2116877345e-001	 2.6746977604e+000	 3.7032222536e-002
 4.9584931784e-001	 2.6795071290e+000	 1.0604643609e-001
 7.5668509084e-001	 2.6438471350e+000	-2.4001178310e-001
 7.3102404304e-001	 2.6510571191e+000	-2.1819499473e-001
 7.0536008863e-001	 2.6580005917e+000	-1.9834544671e-001
 6.7969708895e-001	 2.6646785674e+000	-1.8046341353e-001
 6.5403886512e-001	 2.6710921293e+000	-1.6452042886e-001
 6.2838919664e-001	 2.6772424279e+000	-1.5046024190e-001
 6.0275182011e-001	 2.6831306796e+000	-1.1482585192e-001
 5.7713042797e-001	 2.6887581649e+000	-6.6964932959e-002
 5.5152866722e-001	 2.6941262274e+000	-1.0055407937e-002
 5.2595013834e-001	 2.6992362720e+000	 5.5590566998e-002
 5.0039839415e-001	 2.7040897632e+000	 1.2972406150e-001
 4.5490763105e-001	 2.4582634210e+000	-1.0113144613e-001
 4.3170630795e-001	 2.4624438397e+000	-8.4111711229e-002
 4.0853566044e-001	 2.4663938481e+000	-6.7628653448e-002
 3.8539878284e-001	 2.4701149322e+000	-5.0998854422e-002
 3.6229872257e-001	 2.4736086262e+000	-3.3604448546e-002
 3.3923847946e-001	 2.4768765117e+000	-1.4893444269e-002
 3.1622100496e-001	 2.4799202156e+000	 5.6201157710e-003
 2.9324920155e-001	 2.4827414094e+000	 2.8356151628e-002
 2.7032592207e-001	 2.4853418066e+000	 5.3668695485e-002
 2.4745396916e-001	 2.4877231625e+000	 8.1846188907e-002
 2.2463609475e-001	 2.4898872715e+000	 1.1311192291e-001
 4.5945670736e-001	 2.4828460553e+000	 1.3494416924e-001
 4.3602337102e-001	 2.4870682781e+000	 1.8356293766e-001
 4.1262101704e-001	 2.4910577866e+000	 2.3439716508e-001
 3.8925277066e-001	 2.4948160815e+000	 2.8813301425e-001
 3.6592170980e-001	 2.4983447125e+000	 3.4538747779e-001
 3.4263086425e-001	 2.5016452768e+000	 3.7317844119e-001
 3.1938321501e-001	 2.5047194178e+000	 3.6843013970e-001
 2.9618169356e-001	 2.5075688234e+000	 3.6286085994e-001
 2.7302918129e-001	 2.5101952247e+000	 3.5713752011e-001
 2.4992850885e-001	 2.5126003941e+000	 3.5197611065e-001
 2.2688245570e-001	 2.5147861442e+000	 3.4814051324e-001
 4.6400578367e-001	 2.5074286895e+000	 2.8157077229e-001
 4.4034043410e-001	 2.5116927165e+000	 2.8983308985e-001
 4.1670637365e-001	 2.5157217251e+000	 2.9526233849e-001
 3.9310675849e-001	 2.5195172308e+000	 2.9821485675e-001
 3.6954469702e-001	 2.5230807987e+000	 2.9910224903e-001
 3.4602324904e-001	 2.5264140419e+000	 2.9839077991e-001
 3.2254542506e-001	 2.5295186200e+000	 2.9660064707e-001
 2.9911418558e-001	 2.5323962375e+000	 2.9430513748e-001
 2.7573244051e-001	 2.5350486428e+000	 2.9212967136e-001
 2.5240304855e-001	 2.5374776257e+000	 2.9075073875e-001
 2.2912881665e-001	 2.5396850170e+000	 2.9089473362e-001
 4.6855485998e-001	 2.5320113237e+000	 2.1446627679e-001
 4.4465749718e-001	 2.5363171549e+000	 2.2335367256e-001
 4.2079173025e-001	 2.5403856636e+000	 2.2990652890e-001
 3.9696074632e-001	 2.5442183801e+000	 2.3442944549e-001
 3.7316768424e-001	 2.5478168850e+000	 2.3728420715e-001
 3.4941563383e-001	 2.5511828070e+000	 2.3888921803e-001
 3.2570763510e-001	 2.5543178221e+000	 2.3971880919e-001
 3.0204667759e-001	 2.5572236516e+000	 2.4030242423e-001
 2.7843569973e-001	 2.5599020608e+000	 2.4122368760e-001
 2.5487758824e-001	 2.5623548573e+000	 2.4311936053e-001
 2.3137517760e-001	 2.5645838897e+000	 2.4667818970e-001
 4.7310393629e-001	 2.5565939579e+000	 1.6269668077e-001
 4.4897456026e-001	 2.5609415933e+000	 1.7219508084e-001
 4.2487708685e-001	 2.5650496021e+000	 1.7980391590e-001
 4.0081473414e-001	 2.5689195295e+000	 1.8577536220e-001
 3.7679067147e-001	 2.5725529713e+000	 1.9042077237e-001
 3.5280801863e-001	 2.5759515721e+000	 1.9411014933e-001
 3.2886984515e-001	 2.5791170243e+000	 1.9727148835e-001
 3.0497916961e-001	 2.5820510657e+000	 2.0038999178e-001
 2.8113895895e-001	 2.5847554789e+000	 2.0400716121e-001
 2.5735212793e-001	 2.5872320890e+000	 2.0871977228e-001
 2.3362153855e-001	 2.5894827624e+000	 2.1517873717e-001
 4.7765301260e-001	 2.5811765921e+000	 1.2545698938e-001
 4.5329162333e-001	 2.5855660317e+000	 1.3560193701e-001
 4.2896244345e-001	 2.5897135406e+000	 1.4424881456e-001
 4.0466872197e-001	 2.5936206788e+000	 1.5159665774e-001
 3.8041365869e-001	 2.5972890575e+000	 1.5790574245e-001
 3.5620040342e-001	 2.6007203373e+000	 1.6349709854e-001
 3.3203205520e-001	 2.6039162264e+000	 1.6875188600e-001
 3.0791166162e-001	 2.6068784798e+000	 1.7411063848e-001
 2.8384221817e-001	 2.6096088970e+000	 1.8007237893e-001
 2.5982666762e-001	 2.6121093206e+000	 1.8719361268e-001
 2.3586789950e-001	 2.6143816351e+000	 1.9608720305e-001
 4.8220208891e-001	 2.6057592263e+000	 1.0195246326e-001
 4.5760868641e-001	 2.6101904701e+000	 1.1282846981e-001
 4.3304780006e-001	 2.6143774790e+000	 1.2254447530e-001
 4.0852270980e-001	 2.6183218281e+000	 1.3124562560e-001
 3.8403664592e-001	 2.6220251438e+000	 1.3914044409e-001
 3.5959278821e-001	 2.6254891024e+000	 1.4650038501e-001
 3.3519426525e-001	 2.6287154286e+000	 1.5365924375e-001
 3.1084415364e-001	 2.6317058939e+000	 1.6101242880e-001
 2.8654547739e-001	 2.6344623150e+000	 1.6901610044e-001
 2.6230120731e-001	 2.6369865522e+000	 1.7818618151e-001
 2.3811426044e-001	 2.6392805078e+000	 1.8909724555e-001
 4.8675116522e-001	 2.6303418605e+000	 9.1398139298e-002
 4.6192574949e-001	 2.6348149085e+000	 1.0313806550e-001
 4.3713315666e-001	 2.6390414175e+000	 1.1400266631e-001
 4.1237669763e-001	 2.6430229774e+000	 1.2408241681e-001
 3.8765963314e-001	 2.6467612300e+000	 1.3353338108e-001
 3.6298517301e-001	 2.6502578675e+000	 1.4257680515e-001
 3.3835647530e-001	 2.6535146308e+000	 1.5149856111e-001
 3.1377664565e-001	 2.6565333080e+000	 1.6064844722e-001
 2.8924873661e-001	 2.6593157331e+000	 1.7043934930e-001
 2.6477574700e-001	 2.6618637839e+000	 1.8134626858e-001
 2.4036062139e-001	 2.6641793805e+000	 1.9390522181e-001
 4.9130024153e-001	 2.6549244947e+000	 9.3018378064e-002
 4.6624281257e-001	 2.6594393469e+000	 1.0580284393e-001
 4.4121851326e-001	 2.6637053560e+000	 1.1794327920e-001
 4.1623068545e-001	 2.6677241268e+000	 1.2947467607e-001
 3.9128262037e-001	 2.6714973163e+000	 1.4049990207e-001
 3.6637755780e-001	 2.6750266326e+000	 1.5118933264e-001
 3.4151868535e-001	 2.6783138329e+000	 1.6178032893e-001
 3.1670913767e-001	 2.6813607221e+000	 1.7257656585e-001
 2.9195199583e-001	 2.6841691512e+000	 1.8394721558e-001
 2.6725028670e-001	 2.6867410155e+000	 1.9632599217e-001
 2.4260698234e-001	 2.6890782533e+000	 2.1021006286e-001
 4.9584931784e-001	 2.6795071290e+000	 1.0604643609e-001
 4.7055987565e-001	 2.6840637853e+000	 1.2010325785e-001
 4.4530386987e-001	 2.6883692945e+000	 1.3369395642e-001
 4.2008467328e-001	 2.6924252761e+000	 1.4679719809e-001
 3.9490560759e-001	 2.6962334026e+000	 1.5946188655e-001
 3.6976994260e-001	 2.6997953977e+000	 1.7180683499e-001
 3.4468089540e-001	 2.7031130351e+000	 1.8402027752e-001
 3.1964162968e-001	 2.7061881362e+000	 1.9635922477e-001
 2.9465525505e-001	 2.7090225692e+000	 2.0914866931e-001
 2.6972482639e-001	 2.7116182471e+000	 2.2278064634e-001
 2.4485334329e-001	 2.7139771260e+000	 2.3771315565e-001
 5.0039839415e-001	 2.7040897632e+000	 1.2972406150e-001
 4.7487693873e-001	 2.7086882237e+000	 1.4532771421e-001
 4.4938922647e-001	 2.7130332330e+000	 1.6058973890e-001
 4.2393866111e-001	 2.7171264254e+000	 1.7543160255e-001
 3.9852859482e-001	 2.7209694888e+000	 1.8984744801e-001
 3.7316232739e-001	 2.7245641628e+000	 2.0390380571e-001
 3.4784310545e-001	 2.7279122372e+000	 2.1773913845e-001
 3.2257412170e-001	 2.7310155503e+000	 2.3156322444e-001
 2.9735851428e-001	 2.7338759873e+000	 2.4565638413e-001
 2.7219936608e-001	 2.7364954787e+000	 2.6036855656e-001
 2.4709970424e-001	 2.7388759987e+000	 2.7611823136e-001
 2.2463609475e-001	 2.4898872715e+000	 1.1311192291e-001
 2.0187499956e-001	 2.4918359666e+000	 1.3624234793e-001
 1.7917333268e-001	 2.4935711173e+000	 1.6168620727e-001
 1.5653369117e-001	 2.4950946282e+000	 1.8957866003e-001
 1.3395861973e-001	 2.4964084378e+000	 2.1999123950e-001
 1.1145061038e-001	 2.4975145168e+000	 2.5293286924e-001
 8.9012102215e-002	 2.4984148666e+000	 2.8835099128e-001
 6.6645481200e-002	 2.4991115181e+000	 3.2613280038e-001
 4.4353079963e-002	 2.4996065299e+000	 3.6610657807e-001
 2.2137177686e-002	 2.4999019872e+000	 4.0804312038e-001
 0.0000000000e+000	 2.5000000000e+000	 4.5165725284e-001
 2.2688245570e-001	 2.5147861442e+000	 3.4814051324e-001
 2.0389374956e-001	 2.5167543263e+000	 3.3809382980e-001
 1.8096506601e-001	 2.5185068284e+000	 3.2977162728e-001
 1.5809902809e-001	 2.5200455744e+000	 3.2415297266e-001
 1.3529820593e-001	 2.5213725222e+000	 3.2225835679e-001
 1.1256511648e-001	 2.5224896619e+000	 3.2514805255e-001
 8.9902223242e-002	 2.5233990153e+000	 3.3392040913e-001
 6.7311936015e-002	 2.5241026333e+000	 3.4971008798e-001
 4.4796610765e-002	 2.5246025952e+000	 3.7368624580e-001
 2.2358549464e-002	 2.5249010070e+000	 4.0705066997e-001
 0.0000000000e+000	 2.5250000000e+000	 4.5103587198e-001
 2.2912881665e-001	 2.5396850170e+000	 2.9089473362e-001
 2.0591249956e-001	 2.5416726859e+000	 2.8696183477e-001
 1.8275679934e-001	 2.5434425396e+000	 2.8465030827e-001
 1.5966436500e-001	 2.5449965207e+000	 2.8488431498e-001
 1.3663779213e-001	 2.5463366065e+000	 2.8863214612e-001
 1.1367962259e-001	 2.5474648071e+000	 2.9690458079e-001
 9.0792344267e-002	 2.5483831639e+000	 3.1075317476e-001
 6.7978390830e-002	 2.5490937484e+000	 3.3126848624e-001
 4.5240141567e-002	 2.5495986605e+000	 3.5957824420e-001
 2.2579921242e-002	 2.5499000269e+000	 3.9684546484e-001
 0.0000000000e+000	 2.5500000000e+000	 4.4426652183e-001
 2.3137517760e-001	 2.5645838897e+000	 2.4667818970e-001
 2.0793124956e-001	 2.5665910456e+000	 2.4720595167e-001
 1.8454853267e-001	 2.5683782508e+000	 2.4920262687e-001
 1.6122970192e-001	 2.5699474670e+000	 2.5353783214e-001
 1.3797737833e-001	 2.5713006909e+000	 2.6112807684e-001
 1.1479412870e-001	 2.5724399523e+000	 2.7293511847e-001
 9.1682465292e-002	 2.5733673126e+000	 2.8996424482e-001
 6.8644845644e-002	 2.5740848636e+000	 3.1326248814e-001
 4.5683672368e-002	 2.5745947258e+000	 3.4391677742e-001
 2.2801293020e-002	 2.5748990468e+000	 3.8305203440e-001
 0.0000000000e+000	 2.5750000000e+000	 4.3182921916e-001
 2.3362153855e-001	 2.5894827624e+000	 2.1517873717e-001
 2.0994999955e-001	 2.5915094053e+000	 2.1859367578e-001
 1.8634026600e-001	 2.5933139620e+000	 2.2327529995e-001
 1.6279503883e-001	 2.5948984133e+000	 2.3003901021e-001
 1.3931696453e-001	 2.5962647753e+000	 2.3974991857e-001
 1.1590863480e-001	 2.5974150974e+000	 2.5332120108e-001
 9.2572586317e-002	 2.5983514613e+000	 2.7171237198e-001
 6.9311300459e-002	 2.5990759788e+000	 2.9592748500e-001
 4.6127203170e-002	 2.5995907911e+000	 3.2701326816e-001
 2.3022664798e-002	 2.5998980666e+000	 3.6605719790e-001
 0.0000000000e+000	 2.6000000000e+000	 4.1418551853e-001
 2.3586789950e-001	 2.6143816351e+000	 1.9608720305e-001
 2.1196874955e-001	 2.6164277650e+000	 2.0089345084e-001
 1.8813199933e-001	 2.6182496731e+000	 2.0671396037e-001
 1.6436037574e-001	 2.6198493596e+000	 2.1431021015e-001
 1.4065655073e-001	 2.6212288597e+000	 2.2449626697e-001
 1.1702314091e-001	 2.6223902426e+000	 2.3813713434e-001
 9.3462707341e-002	 2.6233356099e+000	 2.5614701725e-001
 6.9977755272e-002	 2.6240670940e+000	 2.7948750935e-001
 4.6570733970e-002	 2.6245868564e+000	 3.0916570887e-001
 2.3244036575e-002	 2.6248970865e+000	 3.4623226936e-001
 0.0000000000e+000	 2.6250000000e+000	 3.9177939148e-001
 2.3811426044e-001	 2.6392805078e+000	 1.8909724555e-001
 2.1398749955e-001	 2.6413461246e+000	 1.9387462430e-001
 1.8992373266e-001	 2.6431853843e+000	 1.9936320817e-001
 1.6592571266e-001	 2.6448003059e+000	 2.0627081526e-001
 1.4199613693e-001	 2.6461929440e+000	 2.1536078780e-001
 1.1813764702e-001	 2.6473653878e+000	 2.2745033521e-001
 9.4352828365e-002	 2.6483197586e+000	 2.4340878827e-001
 7.0644210086e-002	 2.6490582092e+000	 2.6415577080e-001
 4.7014264771e-002	 2.6495829217e+000	 2.9065929532e-001
 2.3465408353e-002	 2.6498961064e+000	 3.2393378891e-001
 0.0000000000e+000	 2.6500000000e+000	 3.6503805592e-001
 2.4036062139e-001	 2.6641793805e+000	 1.9390522181e-001
 2.1600624954e-001	 2.6662644843e+000	 1.9730740512e-001
 1.9171546598e-001	 2.6681210955e+000	 2.0106665879e-001
 1.6749104957e-001	 2.6697512521e+000	 2.0583737030e-001
 1.4333572313e-001	 2.6711570284e+000	 2.1233244725e-001
 1.1925215312e-001	 2.6723405329e+000	 2.2132165379e-001
 9.5242949388e-002	 2.6733039073e+000	 2.3362985301e-001
 7.1310664899e-002	 2.6740493244e+000	 2.5013516173e-001
 4.7457795571e-002	 2.6745789870e+000	 2.7176702449e-001
 2.3686780130e-002	 2.6748951263e+000	 2.9950421317e-001
 0.0000000000e+000	 2.6750000000e+000	 3.3437275897e-001
 2.4260698234e-001	 2.6890782533e+000	 2.1021006286e-001
 2.1802499954e-001	 2.6911828440e+000	 2.1096282385e-001
 1.9350719931e-001	 2.6930568066e+000	 2.1166698867e-001
 1.6905638648e-001	 2.6947021984e+000	 2.1292371293e-001
 1.4467530933e-001	 2.6961211128e+000	 2.1539572954e-001
 1.2036665923e-001	 2.6973156781e+000	 2.1980567737e-001
 9.6133070411e-002	 2.6982880559e+000	 2.2693433052e-001
 7.1977119711e-002	 2.6990404395e+000	 2.3761873495e-001
 4.7901326371e-002	 2.6995750523e+000	 2.5275025942e-001
 2.3908151907e-002	 2.6998941461e+000	 2.7327256730e-001
 0.0000000000e+000	 2.7000000000e+000	 3.0017951640e-001
 2.4485334329e-001	 2.7139771260e+000	 2.3771315565e-001
 2.2004374954e-001	 2.7161012036e+000	 2.3461269499e-001
 1.9529893264e-001	 2.7179925178e+000	 2.3100597833e-001
 1.7062172340e-001	 2.7196531447e+000	 2.2744109787e-001
 1.4601489552e-001	 2.7210851972e+000	 2.2453084253e-001
 1.2148116533e-001	 2.7222908233e+000	 2.2295101769e-001
 9.7023191433e-002	 2.7232722046e+000	 2.2343866012e-001
 7.2643574523e-002	 2.7240315547e+000	 2.2679015509e-001
 4.8344857171e-002	 2.7245711176e+000	 2.3385926280e-001
 2.4129523684e-002	 2.7248931660e+000	 2.4555506105e-001
 0.0000000000e+000	 2.7250000000e+000	 2.6283981128e-001
 2.4709970424e-001	 2.7388759987e+000	 2.7611823136e-001
 2.2206249953e-001	 2.7410195633e+000	 2.6802958129e-001
 1.9709066597e-001	 2.7429282290e+000	 2.5892455308e-001
 1.7218706031e-001	 2.7446040910e+000	 2.4929831430e-001
 1.4735448172e-001	 2.7460492816e+000	 2.3971391204e-001
 1.2259567143e-001	 2.7472659684e+000	 2.3080058255e-001
 9.7913312455e-002	 2.7482563533e+000	 2.2325195049e-001
 7.3310029335e-002	 2.7490226699e+000	 2.1782412527e-001
 4.8788387970e-002	 2.7495671829e+000	 2.1533370158e-001
 2.4350895461e-002	 2.7498921859e+000	 2.1665567134e-001
 0.0000000000e+000	 2.7500000000e+000	 2.2272125455e-001
 2.7500000000e+000	 0.0000000000e+000	 1.7619161768e+000
 2.7498921859e+000	 2.4350895461e-002	 1.7534956829e+000
 2.7495671829e+000	 4.8788387970e-002	 1.7404277803e+000
 2.7490226699e+000	 7.3310029335e-002	 1.7232660790e+000
 2.7482563533e+000	 9.7913312455e-002	 1.7025173310e+000
 2.7472659684e+000	 1.2259567143e-001	 1.6786392412e+000
 2.7460492816e+000	 1.4735448172e-001	 1.6520383218e+000
 2.7446040910e+000	 1.7218706031e-001	 1.6230677942e+000
 2.7429282290e+000	 1.9709066597e-001	 1.5920255462e+000
 2.7410195633e+000	 2.2206249953e-001	 1.5591521502e+000
 2.7388759987e+000	 2.4709970424e-001	 1.5246289507e+000
 2.7750000000e+000	 0.0000000000e+000	 1.6837141985e+000
 2.7748912057e+000	 2.4572267237e-002	 1.6849815254e+000
 2.7745632482e+000	 4.9231918770e-002	 1.6809243344e+000
 2.7740137851e+000	 7.3976484146e-002	 1.6720924048e+000
 2.7732405019e+000	 9.8803433477e-002	 1.6589877777e+000
 2.7722411136e+000	 1.2371017754e-001	 1.6420625384e+000
 2.7710133659e+000	 1.4869406792e-001	 1.6217166418e+000
 2.7695550373e+000	 1.7375239722e-001	 1.5982957888e+000
 2.7678639402e+000	 1.9888239929e-001	 1.5720893585e+000
 2.7659379230e+000	 2.2408124953e-001	 1.5433284046e+000
 2.7637748714e+000	 2.4934606519e-001	 1.5121837211e+000
 2.8000000000e+000	 0.0000000000e+000	 1.6039671687e+000
 2.7998902256e+000	 2.4793639014e-002	 1.6143566925e+000
 2.7995593135e+000	 4.9675449569e-002	 1.6188162323e+000
 2.7990049003e+000	 7.4642938958e-002	 1.6178926135e+000
 2.7982246506e+000	 9.9693554498e-002	 1.6120839879e+000
 2.7972162588e+000	 1.2482468364e-001	 1.6018375847e+000
 2.7959774503e+000	 1.5003365411e-001	 1.5875475066e+000
 2.7945059836e+000	 1.7531773413e-001	 1.5695525771e+000
 2.7927996513e+000	 2.0067413262e-001	 1.5481342469e+000
 2.7908562826e+000	 2.2609999953e-001	 1.5235145647e+000
 2.7886737441e+000	 2.5159242613e-001	 1.4958542213e+000
 2.8250000000e+000	 0.0000000000e+000	 1.5227010537e+000
 2.8248892455e+000	 2.5015010790e-002	 1.5416534188e+000
 2.8245553788e+000	 5.0118980368e-002	 1.5541417019e+000
 2.8239960154e+000	 7.5309393769e-002	 1.5607106445e+000
 2.8232087993e+000	 1.0058367552e-001	 1.5618553242e+000
 2.8221914039e+000	 1.2593918974e-001	 1.5580188721e+000
 2.8209415347e+000	 1.5137324031e-001	 1.5495902363e+000
 2.8194569298e+000	 1.7688307104e-001	 1.5369019995e+000
 2.8177353625e+000	 2.0246586595e-001	 1.5202282563e+000
 2.8157746423e+000	 2.2811874952e-001	 1.4997825577e+000
 2.8135726168e+000	 2.5383878708e-001	 1.4757159302e+000
 2.8500000000e+000	 0.0000000000e+000	 1.4399409088e+000
 2.8498882654e+000	 2.5236382567e-002	 1.4669028785e+000
 2.8495514441e+000	 5.0562511167e-002	 1.4869377901e+000
 2.8489871306e+000	 7.5975848581e-002	 1.5005891661e+000
 2.8481929479e+000	 1.0147379654e-001	 1.5083498190e+000
 2.8471665491e+000	 1.2705369585e-001	 1.5106595329e+000
 2.8459056191e+000	 1.5271282651e-001	 1.5079027932e+000
 2.8444078761e+000	 1.7844840795e-001	 1.5004065715e+000
 2.8426710737e+000	 2.0425759927e-001	 1.4884381719e+000
 2.8406930020e+000	 2.3013749952e-001	 1.4722031472e+000
 2.8384714896e+000	 2.5608514803e-001	 1.4518432916e+000
 2.8750000000e+000	 0.0000000000e+000	 1.3557109180e+000
 2.8748872852e+000	 2.5457754343e-002	 1.3901352312e+000
 2.8745475094e+000	 5.1006041966e-002	 1.4172404148e+000
 2.8739782458e+000	 7.6642303392e-002	 1.4375696313e+000
 2.8731770966e+000	 1.0236391756e-001	 1.4516142318e+000
 2.8721416943e+000	 1.2816820195e-001	 1.4598113989e+000
 2.8708697034e+000	 1.5405241270e-001	 1.4625418410e+000
 2.8693588224e+000	 1.8001374486e-001	 1.4601275414e+000
 2.8676067849e+000	 2.0604933260e-001	 1.4528295731e+000
 2.8656113616e+000	 2.3215624951e-001	 1.4408459838e+000
 2.8633703623e+000	 2.5833150898e-001	 1.4243097600e+000
 2.9000000000e+000	 0.0000000000e+000	 1.2700344309e+000
 2.8998863051e+000	 2.5679126120e-002	 1.3113796656e+000
 2.8995435747e+000	 5.1449572765e-002	 1.3450844130e+000
 2.8989693610e+000	 7.7308758203e-002	 1.3716923300e+000
 2.8981612453e+000	 1.0325403858e-001	 1.3916941042e+000
 2.8971168394e+000	 1.2928270805e-001	 1.4055250574e+000
 2.8958337878e+000	 1.5539199890e-001	 1.4135628000e+000
 2.8943097687e+000	 1.8157908178e-001	 1.4161249449e+000
 2.8925424960e+000	 2.0784106593e-001	 1.4134668864e+000
 2.8905297213e+000	 2.3417499951e-001	 1.4057796534e+000
 2.8882692350e+000	 2.6057786993e-001	 1.3931878425e+000
 2.9250000000e+000	 0.0000000000e+000	 1.1829339992e+000
 2.9248853250e+000	 2.5900497897e-002	 1.2306644413e+000
 2.9245396400e+000	 5.1893103565e-002	 1.2705035874e+000
 2.9239604762e+000	 7.7975213015e-002	 1.3029964385e+000
 2.9231453939e+000	 1.0414415961e-001	 1.3286338124e+000
 2.9220919846e+000	 1.3039721416e-001	 1.3478499043e+000
 2.9207978722e+000	 1.5673158510e-001	 1.3610199012e+000
 2.9192607150e+000	 1.8314441869e-001	 1.3684576569e+000
 2.9174782072e+000	 2.0963279925e-001	 1.3704134340e+000
 2.9154480810e+000	 2.3619374951e-001	 1.3670717222e+000
 2.9131681077e+000	 2.6282423087e-001	 1.3585491397e+000
 2.9500000000e+000	 0.0000000000e+000	 1.0944314101e+000
 2.9498843448e+000	 2.6121869673e-002	 1.1480169277e+000
 2.9495357053e+000	 5.2336634364e-002	 1.1935307499e+000
 2.9489515913e+000	 7.8641667826e-002	 1.2315200672e+000
 2.9481295426e+000	 1.0503428063e-001	 1.2624766159e+000
 2.9470671298e+000	 1.3151172026e-001	 1.2868341946e+000
 2.9457619566e+000	 1.5807117129e-001	 1.3049662360e+000
 2.9442116612e+000	 1.8470975560e-001	 1.3171834408e+000
 2.9424139184e+000	 2.1142453258e-001	 1.3237314807e+000
 2.9403664406e+000	 2.3821249950e-001	 1.3247887803e+000
 2.9380669804e+000	 2.6507059182e-001	 1.3204643839e+000
 2.9750000000e+000	 0.0000000000e+000	 1.0045477183e+000
 2.9748833647e+000	 2.6343241450e-002	 1.0634636417e+000
 2.9745317706e+000	 5.2780165163e-002	 1.1141977635e+000
 2.9739427065e+000	 7.9308122638e-002	 1.1573003048e+000
 2.9731136913e+000	 1.0592440165e-001	 1.1932647046e+000
 2.9720422749e+000	 1.3262622636e-001	 1.2225250904e+000
 2.9707260410e+000	 1.5941075749e-001	 1.2454538045e+000
 2.9691626075e+000	 1.8627509251e-001	 1.2623589951e+000
 2.9673496295e+000	 2.1321626591e-001	 1.2734822785e+000
 2.9652848003e+000	 2.4023124950e-001	 1.2789964823e+000
 2.9629658531e+000	 2.6731695277e-001	 1.2790034756e+000
 3.0000000000e+000	 0.0000000000e+000	 9.1330327672e-001
 2.9998823846e+000	 2.6564613226e-002	 9.7703028319e-001
 2.9995278359e+000	 5.3223695962e-002	 1.0325355818e+000
 2.9989338217e+000	 7.9974577449e-002	 1.0803732613e+000
 2.9980978399e+000	 1.0681452267e-001	 1.1210392439e+000
 2.9970174201e+000	 1.3374073246e-001	 1.1549687065e+000
 2.9956901253e+000	 1.6075034369e-001	 1.1825335607e+000
 2.9941135538e+000	 1.8784042942e-001	 1.2040399977e+000
 2.9922853407e+000	 2.1500799923e-001	 1.2197261087e+000
 2.9902031599e+000	 2.4224999949e-001	 1.2297595867e+000
 2.9878647258e+000	 2.6956331372e-001	 1.2342355186e+000
 2.7388759987e+000	 2.4709970424e-001	 1.5246289507e+000
 2.7364954787e+000	 2.7219936608e-001	 1.5114366937e+000
 2.7338759873e+000	 2.9735851428e-001	 1.4961385606e+000
 2.7310155503e+000	 3.2257412170e-001	 1.4787566347e+000
 2.7279122372e+000	 3.4784310545e-001	 1.4592480643e+000
 2.7245641628e+000	 3.7316232739e-001	 1.4375035859e+000
 2.7209694888e+000	 3.9852859482e-001	 1.4133461528e+000
 2.7171264254e+000	 4.2393866111e-001	 1.3865296777e+000
 2.7130332330e+000	 4.4938922647e-001	 1.3567378954e+000
 2.7086882237e+000	 4.7487693873e-001	 1.3235833512e+000
 2.7040897632e+000	 5.0039839415e-001	 1.2866065215e+000
 2.7637748714e+000	 2.4934606519e-001	 1.5121837211e+000
 2.7613727104e+000	 2.7467390578e-001	 1.5028394920e+000
 2.7587294054e+000	 3.0006177350e-001	 1.4905933024e+000
 2.7558429644e+000	 3.2550661372e-001	 1.4754466742e+000
 2.7527114394e+000	 3.5100531550e-001	 1.4573350121e+000
 2.7493329280e+000	 3.7655471219e-001	 1.4361261228e+000
 2.7457055751e+000	 4.0215158205e-001	 1.4116188426e+000
 2.7418275747e+000	 4.2779264894e-001	 1.3835417827e+000
 2.7376971715e+000	 4.5347458308e-001	 1.3515521965e+000
 2.7333126621e+000	 4.7919400181e-001	 1.3152349778e+000
 2.7286723974e+000	 5.0494747046e-001	 1.2741017930e+000
 2.7886737441e+000	 2.5159242613e-001	 1.4958542213e+000
 2.7862499420e+000	 2.7714844547e-001	 1.4903104132e+000
 2.7835828235e+000	 3.0276503272e-001	 1.4811461931e+000
 2.7806703785e+000	 3.2843910574e-001	 1.4683428462e+000
 2.7775106416e+000	 3.5416752555e-001	 1.4518142858e+000
 2.7741016931e+000	 3.7994709699e-001	 1.4314055656e+000
 2.7704416614e+000	 4.0577456927e-001	 1.4068915055e+000
 2.7665287241e+000	 4.3164663677e-001	 1.3779754373e+000
 2.7623611099e+000	 4.5755993968e-001	 1.3442880767e+000
 2.7579371005e+000	 4.8351106489e-001	 1.3053865279e+000
 2.7532550316e+000	 5.0949654677e-001	 1.2607534283e+000
 2.8135726168e+000	 2.5383878708e-001	 1.4757159302e+000
 2.8111271736e+000	 2.7962298516e-001	 1.4739342771e+000
 2.8084362415e+000	 3.0546829194e-001	 1.4678910477e+000
 2.8054977926e+000	 3.3137159775e-001	 1.4575476053e+000
 2.8023098437e+000	 3.5732973560e-001	 1.4427966121e+000
 2.7988704582e+000	 3.8333948178e-001	 1.4234605345e+000
 2.7951777476e+000	 4.0939755650e-001	 1.3992902650e+000
 2.7912298734e+000	 4.3550062460e-001	 1.3699638667e+000
 2.7870250484e+000	 4.6164529629e-001	 1.3350854482e+000
 2.7825615389e+000	 4.8782812797e-001	 1.2941841745e+000
 2.7778376658e+000	 5.1404562308e-001	 1.2467134215e+000
 2.8384714896e+000	 2.5608514803e-001	 1.4518432916e+000
 2.8360044052e+000	 2.8209752485e-001	 1.4537948146e+000
 2.8332896596e+000	 3.0817155116e-001	 1.4509205717e+000
 2.8303252067e+000	 3.3430408977e-001	 1.4431623082e+000
 2.8271090459e+000	 3.6049194565e-001	 1.4303916651e+000
 2.8236392233e+000	 3.8673186658e-001	 1.4124086763e+000
 2.8199138339e+000	 4.1302054373e-001	 1.3889403840e+000
 2.8159310227e+000	 4.3935461243e-001	 1.3596395820e+000
 2.8116889869e+000	 4.6573065289e-001	 1.3240836906e+000
 2.8071859773e+000	 4.9214519105e-001	 1.2817737736e+000
 2.8024203000e+000	 5.1859469938e-001	 1.2321337010e+000
 2.8633703623e+000	 2.5833150898e-001	 1.4243097600e+000
 2.8608816369e+000	 2.8457206455e-001	 1.4299747156e+000
 2.8581430777e+000	 3.1087481039e-001	 1.4303264093e+000
 2.8551526208e+000	 3.3723658179e-001	 1.4252872617e+000
 2.8519082480e+000	 3.6365415570e-001	 1.4147081124e+000
 2.8484079884e+000	 3.9012425137e-001	 1.3983667062e+000
 2.8446499202e+000	 4.1664353095e-001	 1.3759663021e+000
 2.8406321720e+000	 4.4320860026e-001	 1.3471344114e+000
 2.8363529254e+000	 4.6981600950e-001	 1.3114216743e+000
 2.8318104157e+000	 4.9646225412e-001	 1.2683008792e+000
 2.8270029342e+000	 5.2314377569e-001	 1.2171661331e+000
 2.8882692350e+000	 2.6057786993e-001	 1.3931878425e+000
 2.8857588685e+000	 2.8704660424e-001	 1.4025556737e+000
 2.8829964957e+000	 3.1357806961e-001	 1.4061991890e+000
 2.8799800349e+000	 3.4016907380e-001	 1.4040217680e+000
 2.8767074502e+000	 3.6681636576e-001	 1.3958536581e+000
 2.8731767535e+000	 3.9351663617e-001	 1.3814504487e+000
 2.8693860064e+000	 4.2026651818e-001	 1.3604916706e+000
 2.8653333213e+000	 4.4706258809e-001	 1.3325795300e+000
 2.8610168639e+000	 4.7390136610e-001	 1.2972377824e+000
 2.8564348541e+000	 5.0077931720e-001	 1.2539107551e+000
 2.8515855684e+000	 5.2769285200e-001	 1.2019625238e+000
 2.9131681077e+000	 2.6282423087e-001	 1.3585491397e+000
 2.9106361001e+000	 2.8952114393e-001	 1.3716184288e+000
 2.9078499138e+000	 3.1628132883e-001	 1.3786285671e+000
 2.9048074490e+000	 3.4310156582e-001	 1.3794641673e+000
 2.9015066523e+000	 3.6997857581e-001	 1.3739350844e+000
 2.8979455187e+000	 3.9690902097e-001	 1.3617748750e+000
 2.8941220927e+000	 4.2388950541e-001	 1.3426393871e+000
 2.8900344707e+000	 4.5091657592e-001	 1.3161054872e+000
 2.8856808023e+000	 4.7798672271e-001	 1.2816699313e+000
 2.8810592925e+000	 5.0509638028e-001	 1.2387483883e+000
 2.8761682026e+000	 5.3224192831e-001	 1.1866746220e+000
 2.9380669804e+000	 2.6507059182e-001	 1.3204643839e+000
 2.9355133317e+000	 2.9199568362e-001	 1.3372428073e+000
 2.9327033318e+000	 3.1898458805e-001	 1.3477032688e+000
 2.9296348631e+000	 3.4603405784e-001	 1.3517118791e+000
 2.9263058545e+000	 3.7314078586e-001	 1.3490582902e+000
 2.9227142838e+000	 4.0030140576e-001	 1.3394541393e+000
 2.9188581789e+000	 4.2751249264e-001	 1.3225316265e+000
 2.9147356200e+000	 4.5477056375e-001	 1.2978422335e+000
 2.9103447408e+000	 4.8207207931e-001	 1.2648555907e+000
 2.9056837309e+000	 5.0941344336e-001	 1.2229585002e+000
 2.9007508368e+000	 5.3679100462e-001	 1.1714541217e+000
 2.9629658531e+000	 2.6731695277e-001	 1.2790034756e+000
 2.9603905634e+000	 2.9447022332e-001	 1.2995077609e+000
 2.9575567499e+000	 3.2168784727e-001	 1.3135111275e+000
 2.9544622771e+000	 3.4896654985e-001	 1.3208614403e+000
 2.9511050566e+000	 3.7630299591e-001	 1.3213283287e+000
 2.9474830489e+000	 4.0369379056e-001	 1.3146016136e+000
 2.9435942652e+000	 4.3113547986e-001	 1.3002898720e+000
 2.9394367693e+000	 4.5862455157e-001	 1.2779191456e+000
 2.9350086793e+000	 4.8615743592e-001	 1.2469318023e+000
 2.9303081693e+000	 5.1373050644e-001	 1.2066855578e+000
 2.9253334710e+000	 5.4134008093e-001	 1.1564526642e+000
 2.9878647258e+000	 2.6956331372e-001	 1.2342355186e+000
 2.9852677950e+000	 2.9694476301e-001	 1.2584914025e+000
 2.9824101680e+000	 3.2439110650e-001	 1.2761391218e+000
 2.9792896912e+000	 3.5189904187e-001	 1.2870085423e+000
 2.9759042588e+000	 3.7946520596e-001	 1.2908494420e+000
 2.9722518140e+000	 4.0708617535e-001	 1.2873299196e+000
 2.9683303514e+000	 4.3475846709e-001	 1.2760349437e+000
 2.9641379186e+000	 4.6247853940e-001	 1.2564650504e+000
 2.9596726178e+000	 4.9024279252e-001	 1.2280351977e+000
 2.9549326076e+000	 5.1804756952e-001	 1.1900737844e+000
 2.9499161052e+000	 5.4588915724e-001	 1.1418218405e+000
 2.7040897632e+000	 5.0039839415e-001	 1.2866065215e+000
 2.6992362720e+000	 5.2595013834e-001	 1.2816216172e+000
 2.6941262274e+000	 5.5152866722e-001	 1.2709081730e+000
 2.6887581649e+000	 5.7713042797e-001	 1.2537961534e+000
 2.6831306796e+000	 6.0275182011e-001	 1.2295425117e+000
 2.6772424279e+000	 6.2838919664e-001	 1.1961773424e+000
 2.6710921293e+000	 6.5403886512e-001	 1.1512240317e+000
 2.6646785674e+000	 6.7969708895e-001	 1.1056915966e+000
 2.6580005917e+000	 7.0536008863e-001	 1.0595726962e+000
 2.6510571191e+000	 7.3102404304e-001	 1.0128599602e+000
 2.6438471350e+000	 7.5668509084e-001	 9.6554584962e-001
 2.7286723974e+000	 5.0494747046e-001	 1.2741017930e+000
 2.7237747836e+000	 5.3073150323e-001	 1.2653724095e+000
 2.7186182841e+000	 5.5654256419e-001	 1.2515071533e+000
 2.7132014209e+000	 5.8237706822e-001	 1.2318123775e+000
 2.7075227766e+000	 6.0823138211e-001	 1.2055190317e+000
 2.7015809954e+000	 6.3410182569e-001	 1.1689148860e+000
 2.6953747850e+000	 6.5998467298e-001	 1.1237806893e+000
 2.6889029180e+000	 6.8587615339e-001	 1.0776480766e+000
 2.6821642335e+000	 7.1177245307e-001	 1.0305153169e+000
 2.6751576384e+000	 7.3766971615e-001	 9.8238108098e-001
 2.6678821090e+000	 7.6356404620e-001	 9.3324429999e-001
 2.7532550316e+000	 5.0949654677e-001	 1.2607534283e+000
 2.7483132951e+000	 5.3551286813e-001	 1.2488653869e+000
 2.7431103407e+000	 5.6155646116e-001	 1.2324817467e+000
 2.7376446770e+000	 5.8762370847e-001	 1.2108845947e+000
 2.7319148737e+000	 6.1371094411e-001	 1.1832781512e+000
 2.7259195630e+000	 6.3981445475e-001	 1.1442512546e+000
 2.7196574407e+000	 6.6593048084e-001	 1.0990756559e+000
 2.7131272686e+000	 6.9205521784e-001	 1.0524910372e+000
 2.7063278752e+000	 7.1818481751e-001	 1.0045013640e+000
 2.6992581576e+000	 7.4431538927e-001	 9.5511143018e-001
 2.6919170830e+000	 7.7044300157e-001	 9.0432671362e-001
 2.7778376658e+000	 5.1404562308e-001	 1.2467134215e+000
 2.7728518067e+000	 5.4029423302e-001	 1.2322618529e+000
 2.7676023973e+000	 5.6657035814e-001	 1.2140028920e+000
 2.7620879330e+000	 5.9287034872e-001	 1.1911936968e+000
 2.7563069708e+000	 6.1919050611e-001	 1.1630110235e+000
 2.7502581305e+000	 6.4552708381e-001	 1.1221042267e+000
 2.7439400964e+000	 6.7187628870e-001	 1.0770189895e+000
 2.7373516192e+000	 6.9823428228e-001	 1.0301226183e+000
 2.7304915169e+000	 7.2459718195e-001	 9.8142486423e-001
 2.7233586769e+000	 7.5096106238e-001	 9.3093672855e-001
 2.7159520569e+000	 7.7732195694e-001	 8.7867031568e-001
 2.8024203000e+000	 5.1859469938e-001	 1.2321337010e+000
 2.7973903183e+000	 5.4507559791e-001	 1.2157231932e+000
 2.7920944539e+000	 5.7158425511e-001	 1.1962417659e+000
 2.7865311891e+000	 5.9811698897e-001	 1.1729209760e+000
 2.7806990679e+000	 6.2467006810e-001	 1.1449093729e+000
 2.7745966980e+000	 6.5123971286e-001	 1.1023923300e+000
 2.7682227522e+000	 6.7782209656e-001	 1.0575216828e+000
 2.7615759698e+000	 7.0441334672e-001	 1.0104460874e+000
 2.7546551587e+000	 7.3100954638e-001	 9.6118117211e-001
 2.7474591962e+000	 7.5760673550e-001	 9.0974423278e-001
 2.7399870309e+000	 7.8420091230e-001	 8.5615408262e-001
 2.8270029342e+000	 5.2314377569e-001	 1.2171661331e+000
 2.8219288298e+000	 5.4985696280e-001	 1.1994108727e+000
 2.8165865105e+000	 5.7659815208e-001	 1.1793697723e+000
 2.8109744451e+000	 6.0336362922e-001	 1.1562481083e+000
 2.8050911650e+000	 6.3014963010e-001	 1.1269639782e+000
 2.7989352655e+000	 6.5695234192e-001	 1.0850348088e+000
 2.7925054079e+000	 6.8376790442e-001	 1.0404956225e+000
 2.7858003204e+000	 7.1059241116e-001	 9.9336579071e-001
 2.7788188004e+000	 7.3742191082e-001	 9.4366691264e-001
 2.7715597154e+000	 7.6425240861e-001	 8.9142266871e-001
 2.7640220048e+000	 7.9107986767e-001	 8.3665866601e-001
 2.8515855684e+000	 5.2769285200e-001	 1.2019625238e+000
 2.8464673414e+000	 5.5463832770e-001	 1.1834864313e+000
 2.8410785671e+000	 5.8161204905e-001	 1.1635585331e+000
 2.8354177012e+000	 6.0861026947e-001	 1.1413571360e+000
 2.8294832621e+000	 6.3562919210e-001	 1.1110562051e+000
 2.8232738331e+000	 6.6266497097e-001	 1.0699515927e+000
 2.8167880636e+000	 6.8971371228e-001	 1.0258535509e+000
 2.8100246711e+000	 7.1677147560e-001	 9.7878710629e-001
 2.8029824422e+000	 7.4383427526e-001	 9.2877992632e-001
 2.7956602347e+000	 7.7089808172e-001	 8.7586216805e-001
 2.7880569788e+000	 7.9795882304e-001	 8.2006632033e-001
 2.8761682026e+000	 5.3224192831e-001	 1.1866746220e+000
 2.8710058529e+000	 5.5941969259e-001	 1.1681114815e+000
 2.8655706237e+000	 5.8662594603e-001	 1.1489798781e+000
 2.8598609572e+000	 6.1385690972e-001	 1.1284304528e+000
 2.8538753591e+000	 6.4110875410e-001	 1.0972483334e+000
 2.8476124006e+000	 6.6837760003e-001	 1.0570632683e+000
 2.8410707193e+000	 6.9565952014e-001	 1.0135090287e+000
 2.8342490217e+000	 7.2295054004e-001	 9.6661640034e-001
 2.8271460839e+000	 7.5024663970e-001	 9.1641921726e-001
 2.8197607539e+000	 7.7754375484e-001	 8.6295420826e-001
 2.8120919527e+000	 8.0483777841e-001	 8.0626083447e-001
 2.9007508368e+000	 5.3679100462e-001	 1.1714541217e+000
 2.8955443645e+000	 5.6420105748e-001	 1.1534477046e+000
 2.8900626803e+000	 5.9163984300e-001	 1.1358058371e+000
 2.8843042132e+000	 6.1910354998e-001	 1.1176507884e+000
 2.8782674562e+000	 6.4658831609e-001	 1.0854682819e+000
 2.8719509681e+000	 6.7409022909e-001	 1.0462910501e+000
 2.8653533750e+000	 7.0160532800e-001	 1.0033764014e+000
 2.8584733723e+000	 7.2912960448e-001	 9.5676098511e-001
 2.8513097256e+000	 7.5665900413e-001	 9.0648490387e-001
 2.8438612732e+000	 7.8418942795e-001	 8.5259155554e-001
 2.8361269267e+000	 8.1171673377e-001	 7.9512746673e-001
 2.9253334710e+000	 5.4134008093e-001	 1.1564526642e+000
 2.9200828761e+000	 5.6898242237e-001	 1.1396568485e+000
 2.9145547369e+000	 5.9665373997e-001	 1.1242086307e+000
 2.9087474693e+000	 6.2435019023e-001	 1.1092011947e+000
 2.9026595533e+000	 6.5206787809e-001	 1.0756444284e+000
 2.8962895356e+000	 6.7980285814e-001	 1.0375567552e+000
 2.8896360307e+000	 7.0755113586e-001	 9.9537076522e-001
 2.8826977229e+000	 7.3530866892e-001	 9.4912907922e-001
 2.8754733674e+000	 7.6307136857e-001	 8.9887817205e-001
 2.8679617925e+000	 7.9083510107e-001	 8.4466821068e-001
 2.8601619006e+000	 8.1859568914e-001	 7.8655288306e-001
 2.9499161052e+000	 5.4588915724e-001	 1.1418218405e+000
 2.9446213876e+000	 5.7376378727e-001	 1.1269007242e+000
 2.9390467935e+000	 6.0166763694e-001	 1.1143606628e+000
 2.9331907253e+000	 6.2959683048e-001	 1.1001320809e+000
 2.9270516504e+000	 6.5754744009e-001	 1.0677055908e+000
 2.9206281031e+000	 6.8551548720e-001	 1.0307827777e+000
 2.9139186865e+000	 7.1349694372e-001	 9.8940793665e-001
 2.9069220735e+000	 7.4148773336e-001	 9.4362976988e-001
 2.8996370091e+000	 7.6948373301e-001	 8.9350123069e-001
 2.8920623117e+000	 7.9748077418e-001	 8.3907935762e-001
 2.8841968746e+000	 8.2547464451e-001	 7.8042509842e-001
 2.6438471350e+000	 7.5668509084e-001	 9.6554584962e-001
 2.6363696952e+000	 7.8233933189e-001	 9.3943600317e-001
 2.6286239268e+000	 8.0798282872e-001	 9.0890929714e-001
 2.6206090298e+000	 8.3361160807e-001	 8.7394504839e-001
 2.6123242783e+000	 8.5922166244e-001	 8.3452518969e-001
 2.6037690218e+000	 8.8480895173e-001	 7.9063418002e-001
 2.5949426866e+000	 9.1036940492e-001	 7.4225891016e-001
 2.5858447765e+000	 9.3589892178e-001	 6.8938860390e-001
 2.5764748746e+000	 9.6139337463e-001	 6.3201471532e-001
 2.5668326437e+000	 9.8684861017e-001	 5.7013082237e-001
 2.5569178279e+000	 1.0122604513e+000	 5.0373251721e-001
 2.6678821090e+000	 7.6356404620e-001	 9.3324429999e-001
 2.6603366925e+000	 7.8945150763e-001	 9.0567367553e-001
 2.6525205080e+000	 8.1532812716e-001	 8.7412869795e-001
 2.6444327482e+000	 8.4118989541e-001	 8.3859192904e-001
 2.6360726808e+000	 8.6703276845e-001	 7.9904815590e-001
 2.6274396493e+000	 8.9285266947e-001	 7.5548428783e-001
 2.6185330746e+000	 9.1864549042e-001	 7.0788924883e-001
 2.6093524563e+000	 9.4440709380e-001	 6.5625386608e-001
 2.5998973734e+000	 9.7013331440e-001	 6.0057075472e-001
 2.5901674859e+000	 9.9581996117e-001	 5.4083419948e-001
 2.5801625355e+000	 1.0214628190e+000	 4.7704003330e-001
 2.6919170830e+000	 7.7044300157e-001	 9.0432671362e-001
 2.6843036897e+000	 7.9656368337e-001	 8.7516708199e-001
 2.6764170891e+000	 8.2267342560e-001	 8.4246906572e-001
 2.6682564667e+000	 8.4876818275e-001	 8.0621856021e-001
 2.6598210833e+000	 8.7484387447e-001	 7.6640329931e-001
 2.6511102768e+000	 9.0089638721e-001	 7.2301273872e-001
 2.6421234627e+000	 9.2692157592e-001	 6.7603793524e-001
 2.6328601361e+000	 9.5291526581e-001	 6.2547142238e-001
 2.6233198723e+000	 9.7887325417e-001	 5.7130708258e-001
 2.6135023281e+000	 1.0047913122e+000	 5.1354001659e-001
 2.6034072430e+000	 1.0306651868e+000	 4.5216641039e-001
 2.7159520569e+000	 7.7732195694e-001	 8.7867031568e-001
 2.7082706869e+000	 8.0367585911e-001	 8.4779304778e-001
 2.7003136703e+000	 8.3001872403e-001	 8.1380705645e-001
 2.6920801852e+000	 8.5634647009e-001	 7.7670166187e-001
 2.6835694859e+000	 8.8265498049e-001	 7.3646763942e-001
 2.6747809043e+000	 9.0894010495e-001	 6.9309708949e-001
 2.6657138508e+000	 9.3519766141e-001	 6.4658330336e-001
 2.6563678159e+000	 9.6142343782e-001	 5.9692062579e-001
 2.6467423712e+000	 9.8761319394e-001	 5.4410431451e-001
 2.6368371703e+000	 1.0137626632e+000	 4.8813039727e-001
 2.6266519505e+000	 1.0398675545e+000	 4.2899552683e-001
 2.7399870309e+000	 7.8420091230e-001	 8.5615408262e-001
 2.7322376842e+000	 8.1078803485e-001	 8.2343008145e-001
 2.7242102514e+000	 8.3736402247e-001	 7.8802093435e-001
 2.7159039036e+000	 8.6392475744e-001	 7.4991947986e-001
 2.7073178884e+000	 8.9046608651e-001	 7.0911963201e-001
 2.6984515317e+000	 9.1698382269e-001	 6.6561623637e-001
 2.6893042388e+000	 9.4347374691e-001	 6.1940492248e-001
 2.6798754957e+000	 9.6993160984e-001	 5.7048195322e-001
 2.6701648700e+000	 9.9635313370e-001	 5.1884407144e-001
 2.6601720126e+000	 1.0227340142e+000	 4.6448834452e-001
 2.6498966580e+000	 1.0490699223e+000	 4.0741200726e-001
 2.7640220048e+000	 7.9107986767e-001	 8.3665866601e-001
 2.7562046814e+000	 8.1790021059e-001	 8.0195830175e-001
 2.7481068326e+000	 8.4470932091e-001	 7.6499050194e-001
 2.7397276221e+000	 8.7150304478e-001	 7.2575171954e-001
 2.7310662909e+000	 8.9827719253e-001	 6.8423910666e-001
 2.7221221592e+000	 9.2502754043e-001	 6.4045035678e-001
 2.7128946269e+000	 9.5174983241e-001	 5.9438354352e-001
 2.7033831755e+000	 9.7843978185e-001	 5.4603695669e-001
 2.6935873689e+000	 1.0050930735e+000	 4.9540893591e-001
 2.6835068548e+000	 1.0317053652e+000	 4.4249770250e-001
 2.6731413656e+000	 1.0582722900e+000	 3.8730119015e-001
 2.7880569788e+000	 7.9795882304e-001	 8.2006632033e-001
 2.7801716786e+000	 8.2501238633e-001	 7.8325936813e-001
 2.7720034137e+000	 8.5205461935e-001	 7.4459703372e-001
 2.7635513405e+000	 8.7908133212e-001	 7.0407948289e-001
 2.7548146935e+000	 9.0608829855e-001	 6.6170720759e-001
 2.7457927867e+000	 9.3307125817e-001	 6.1748085410e-001
 2.7364850150e+000	 9.6002591790e-001	 5.7140104806e-001
 2.7268908553e+000	 9.8694795386e-001	 5.2346821693e-001
 2.7170098677e+000	 1.0138330132e+000	 4.7368241060e-001
 2.7068416970e+000	 1.0406767162e+000	 4.2204312032e-001
 2.6963860731e+000	 1.0674746577e+000	 3.6854909703e-001
 2.8120919527e+000	 8.0483777841e-001	 8.0626083447e-001
 2.8041386758e+000	 8.3212456207e-001	 7.6721641499e-001
 2.7958999949e+000	 8.5939991779e-001	 7.2672321326e-001
 2.7873750590e+000	 8.8665961946e-001	 6.8478520880e-001
 2.7785630960e+000	 9.1389940457e-001	 6.4140633743e-001
 2.7694634141e+000	 9.4111497591e-001	 5.9659030530e-001
 2.7600754030e+000	 9.6830200340e-001	 5.5034040002e-001
 2.7503985350e+000	 9.9545612588e-001	 5.0265929947e-001
 2.7404323666e+000	 1.0225729530e+000	 4.5354887902e-001
 2.7301765392e+000	 1.0496480672e+000	 4.0301001760e-001
 2.7196307806e+000	 1.0766770255e+000	 3.5104240331e-001
 2.8361269267e+000	 8.1171673377e-001	 7.9512746673e-001
 2.8281056731e+000	 8.3923673781e-001	 7.5371398909e-001
 2.8197965760e+000	 8.6674521623e-001	 7.1125307353e-001
 2.8111987774e+000	 8.9423790680e-001	 6.6775261646e-001
 2.8023114985e+000	 9.2171051058e-001	 6.2322010392e-001
 2.7931340416e+000	 9.4915869365e-001	 5.7766241119e-001
 2.7836657911e+000	 9.7657808889e-001	 5.3108559985e-001
 2.7739062148e+000	 1.0039642979e+000	 4.8349471287e-001
 2.7638548655e+000	 1.0313128928e+000	 4.3489356822e-001
 2.7535113814e+000	 1.0586194182e+000	 3.8528455185e-001
 2.7428754882e+000	 1.0858793932e+000	 3.3466841056e-001
 2.8601619006e+000	 8.1859568914e-001	 7.8655288306e-001
 2.8520726703e+000	 8.4634891355e-001	 7.4263799030e-001
 2.8436931572e+000	 8.7409051467e-001	 6.9807194014e-001
 2.8350224959e+000	 9.0181619415e-001	 6.5286665153e-001
 2.8260599011e+000	 9.2952161660e-001	 6.0703326927e-001
 2.8168046691e+000	 9.5720241139e-001	 5.6058194918e-001
 2.8072561791e+000	 9.8485417439e-001	 5.1352164093e-001
 2.7974138946e+000	 1.0124724699e+000	 4.6585986912e-001
 2.7872773643e+000	 1.0400528325e+000	 4.1760251327e-001
 2.7768462236e+000	 1.0675907692e+000	 3.6875358745e-001
 2.7661201957e+000	 1.0950817609e+000	 3.1931502021e-001
 2.8841968746e+000	 8.2547464451e-001	 7.8042509842e-001
 2.8760396675e+000	 8.5346108929e-001	 7.3387561515e-001
 2.8675897383e+000	 8.8143581311e-001	 6.8706637755e-001
 2.8588462143e+000	 9.0939448149e-001	 6.4001343505e-001
 2.8498083036e+000	 9.3733272262e-001	 5.9273170206e-001
 2.8404752965e+000	 9.6524612913e-001	 5.4523472849e-001
 2.8308465672e+000	 9.9313025989e-001	 4.9753446821e-001
 2.8209215744e+000	 1.0209806419e+000	 4.4964104600e-001
 2.8106998632e+000	 1.0487927723e+000	 4.0156252367e-001
 2.8001810658e+000	 1.0765621202e+000	 3.5330466621e-001
 2.7893649032e+000	 1.1042841287e+000	 3.0487070856e-001
 2.5569178279e+000	 1.0122604513e+000	 5.0373251721e-001
 2.5467302535e+000	 1.0376246991e+000	 4.4909981944e-001
 2.5362698295e+000	 1.0629371346e+000	 3.8997114471e-001
 2.5255365491e+000	 1.0881935211e+000	 3.2632507485e-001
 2.5145304902e+000	 1.1133896056e+000	 2.5814142397e-001
 2.5032518163e+000	 1.1385211215e+000	 1.8540113647e-001
 2.4917007772e+000	 1.1635837903e+000	 1.4043734308e-001
 2.4798777095e+000	 1.1885733238e+000	 1.0428847401e-001
 2.4677830375e+000	 1.2134854263e+000	 6.3970460356e-002
 2.4554172736e+000	 1.2383157968e+000	 1.9200832733e-002
 2.4427810188e+000	 1.2630601309e+000	-3.1706200412e-002
 2.5801625355e+000	 1.0214628190e+000	 4.7704003330e-001
 2.5698823467e+000	 1.0470576509e+000	 4.2496625694e-001
 2.5593268279e+000	 1.0726001995e+000	 3.6909451430e-001
 2.5484959723e+000	 1.0980861894e+000	 3.0940194027e-001
 2.5373898583e+000	 1.1235113293e+000	 2.4586616339e-001
 2.5260086510e+000	 1.1488713135e+000	 1.7846519228e-001
 2.5143526024e+000	 1.1741618247e+000	 1.0717730295e-001
 2.5024220523e+000	 1.1993785358e+000	 3.1980927536e-002
 2.4902174287e+000	 1.2245171120e+000	-9.6929352961e-003
 2.4777392488e+000	 1.2495732131e+000	-4.5785958858e-002
 2.4649881190e+000	 1.2745424957e+000	-8.9997266399e-002
 2.6034072430e+000	 1.0306651868e+000	 4.5216641039e-001
 2.5930344399e+000	 1.0564906027e+000	 4.0242123231e-001
 2.5823838264e+000	 1.0822632644e+000	 3.4956616482e-001
 2.5714553954e+000	 1.1079788578e+000	 2.9357701016e-001
 2.5602492264e+000	 1.1336330529e+000	 2.3442933056e-001
 2.5487654857e+000	 1.1592215055e+000	 1.7209832294e-001
 2.5370044277e+000	 1.1847398592e+000	 1.0655869540e-001
 2.5249663951e+000	 1.2101837479e+000	 3.7784545992e-002
 2.5126518200e+000	 1.2355487977e+000	-3.4250755701e-002
 2.5000612240e+000	 1.2608306294e+000	-1.1222266236e-001
 2.4871952191e+000	 1.2860248606e+000	-1.4888129302e-001
 2.6266519505e+000	 1.0398675545e+000	 4.2899552683e-001
 2.6161865331e+000	 1.0659235545e+000	 3.8135171880e-001
 2.6054408248e+000	 1.0919263292e+000	 3.3127653160e-001
 2.5944148186e+000	 1.1178715262e+000	 2.7874455031e-001
 2.5831085945e+000	 1.1437547766e+000	 2.2372939107e-001
 2.5715223204e+000	 1.1695716975e+000	 1.6620356396e-001
 2.5596562529e+000	 1.1953178937e+000	 1.0613833843e-001
 2.5475107379e+000	 1.2209889599e+000	 4.3503612062e-002
 2.5350862112e+000	 1.2465804834e+000	-2.1732216993e-002
 2.5223831993e+000	 1.2720880458e+000	-9.6234860543e-002
 2.5094023193e+000	 1.2975072254e+000	-1.7372206401e-001
 2.6498966580e+000	 1.0490699223e+000	 4.0741200726e-001
 2.6393386263e+000	 1.0753565063e+000	 3.6164525725e-001
 2.6284978233e+000	 1.1015893941e+000	 3.1411642753e-001
 2.6173742418e+000	 1.1277641945e+000	 2.6479900271e-001
 2.6059679626e+000	 1.1538765003e+000	 2.1366477409e-001
 2.5942791551e+000	 1.1799218895e+000	 1.6068369045e-001
 2.5823080782e+000	 1.2058959281e+000	 1.0582371246e-001
 2.5700550807e+000	 1.2317941719e+000	 4.9050671111e-002
 2.5575206025e+000	 1.2576121691e+000	-1.2454791773e-002
 2.5447051745e+000	 1.2833454621e+000	-8.2144487537e-002
 2.5316094195e+000	 1.3089895902e+000	-1.5313280064e-001
 2.6731413656e+000	 1.0582722900e+000	 3.8730119015e-001
 2.6624907195e+000	 1.0847894581e+000	 3.4318993143e-001
 2.6515548217e+000	 1.1112524589e+000	 2.9797702666e-001
 2.6403336650e+000	 1.1376568629e+000	 2.5163497792e-001
 2.6288273307e+000	 1.1639982240e+000	 2.0413387388e-001
 2.6170359898e+000	 1.1902720815e+000	 1.5544122848e-001
 2.6049599034e+000	 1.2164739626e+000	 1.0552182394e-001
 2.5925994236e+000	 1.2425993840e+000	 5.4337558873e-002
 2.5799549938e+000	 1.2686438548e+000	-5.8678938451e-003
 2.5670271497e+000	 1.2946028784e+000	-6.9916335081e-002
 2.5538165197e+000	 1.3204719550e+000	-1.3466172598e-001
 2.6963860731e+000	 1.0674746577e+000	 3.6854909703e-001
 2.6856428127e+000	 1.0942224100e+000	 3.2587434462e-001
 2.6746118202e+000	 1.1209155238e+000	 2.8274984860e-001
 2.6632930881e+000	 1.1475495313e+000	 2.3914724774e-001
 2.6516866988e+000	 1.1741199477e+000	 1.9503505138e-001
 2.6397928245e+000	 1.2006222736e+000	 1.5037846577e-001
 2.6276117287e+000	 1.2270519970e+000	 1.0513922572e-001
 2.6151437664e+000	 1.2534045960e+000	 5.7677886368e-002
 2.6023893850e+000	 1.2796755405e+000	-8.7070108960e-004
 2.5893491249e+000	 1.3058602948e+000	-5.9516355399e-002
 2.5760236198e+000	 1.3319543199e+000	-1.1826754117e-001
 2.7196307806e+000	 1.0766770255e+000	 3.5104240331e-001
 2.7087949060e+000	 1.1036553618e+000	 3.0958759741e-001
 2.6976688186e+000	 1.1305785886e+000	 2.6832674379e-001
 2.6862525113e+000	 1.1574421997e+000	 2.2723073838e-001
 2.6745460669e+000	 1.1842416714e+000	 1.8626663554e-001
 2.6625496592e+000	 1.2109724656e+000	 1.4539746191e-001
 2.6502635539e+000	 1.2376300315e+000	 1.0458203649e-001
 2.6376881092e+000	 1.2642098080e+000	 5.6529549064e-002
 2.6248237763e+000	 1.2907072262e+000	 2.5629906017e-003
 2.6116711001e+000	 1.3171177111e+000	-5.0911611604e-002
 2.5982307200e+000	 1.3434366847e+000	-1.0391030317e-001
 2.7428754882e+000	 1.0858793932e+000	 3.3466841056e-001
 2.7319469992e+000	 1.1130883136e+000	 2.9421926662e-001
 2.7207258171e+000	 1.1402416535e+000	 2.5459987946e-001
 2.7092119345e+000	 1.1673348680e+000	 2.1578052390e-001
 2.6974054350e+000	 1.1943633951e+000	 1.7772692474e-001
 2.6853064939e+000	 1.2213226576e+000	 1.4040005802e-001
 2.6729153792e+000	 1.2482080659e+000	 1.0375595914e-001
 2.6602324520e+000	 1.2750150201e+000	 5.4058543325e-002
 2.6472581675e+000	 1.3017389119e+000	 4.4585468303e-003
 2.6339930753e+000	 1.3283751274e+000	-4.4070230628e-002
 2.6204378202e+000	 1.3549190495e+000	-9.1551367273e-002
 2.7661201957e+000	 1.0950817609e+000	 3.1931502021e-001
 2.7550990924e+000	 1.1225212654e+000	 2.7965938534e-001
 2.7437828155e+000	 1.1499047184e+000	 2.4146172632e-001
 2.7321713577e+000	 1.1772275364e+000	 2.0469181997e-001
 2.7202648031e+000	 1.2044851188e+000	 1.6931418808e-001
 2.7080633286e+000	 1.2316728496e+000	 1.3528788589e-001
 2.6955672044e+000	 1.2587861004e+000	 9.7395675771e-002
 2.6827767948e+000	 1.2858202321e+000	 5.0283396889e-002
 2.6696925588e+000	 1.3127705976e+000	 4.8405299228e-003
 2.6563150506e+000	 1.3396325438e+000	-3.8961358523e-002
 2.6426449203e+000	 1.3664014143e+000	-8.1153332576e-002
 2.7893649032e+000	 1.1042841287e+000	 3.0487070856e-001
 2.7782511856e+000	 1.1319542172e+000	 2.6579842383e-001
 2.7668398140e+000	 1.1595677832e+000	 2.2880504591e-001
 2.7551307808e+000	 1.1871202048e+000	 1.9385997800e-001
 2.7431241712e+000	 1.2146068424e+000	 1.6092666655e-001
 2.7308201633e+000	 1.2420230416e+000	 1.2996237676e-001
 2.7182190297e+000	 1.2693641349e+000	 8.8948144251e-002
 2.7053211376e+000	 1.2966254442e+000	 4.5222066015e-002
 2.6921269500e+000	 1.3238022833e+000	 3.7327323998e-003
 2.6786370258e+000	 1.3508899601e+000	-3.5555117996e-002
 2.6648520205e+000	 1.3778837792e+000	-7.2679990160e-002
 2.4427810188e+000	 1.2630601309e+000	-3.1706200412e-002
 2.4298749630e+000	 1.2877141236e+000	-8.8120385643e-002
 2.4166998856e+000	 1.3122734711e+000	-1.4392895693e-001
 2.4032566556e+000	 1.3367338731e+000	-1.9905682363e-001
 2.3895462317e+000	 1.3610910354e+000	-2.5342740855e-001
 2.3755696628e+000	 1.3853406719e+000	-3.0696275800e-001
 2.3613280878e+000	 1.4094785070e+000	-3.5958365654e-001
 2.3468227357e+000	 1.4335002780e+000	-4.1120974616e-001
 2.3320549255e+000	 1.4574017375e+000	-4.6175964964e-001
 2.3170260660e+000	 1.4811786555e+000	-5.1115109798e-001
 2.3017376559e+000	 1.5048268218e+000	-5.5930106148e-001
 2.4649881190e+000	 1.2745424957e+000	-8.9997266399e-002
 2.4519647354e+000	 1.2994206156e+000	-1.3879802979e-001
 2.4386698846e+000	 1.3242032299e+000	-1.8740040891e-001
 2.4251044434e+000	 1.3488859992e+000	-2.3573170438e-001
 2.4112693793e+000	 1.3734645903e+000	-2.8371734505e-001
 2.3971657507e+000	 1.3979346780e+000	-3.3128099421e-001
 2.3827947068e+000	 1.4222919480e+000	-3.7834466102e-001
 2.3681574879e+000	 1.4465320987e+000	-4.2482881688e-001
 2.3532554248e+000	 1.4706508442e+000	-4.7065251656e-001
 2.3380899394e+000	 1.4946439160e+000	-5.1573352386e-001
 2.3226625436e+000	 1.5185070657e+000	-5.5998844157e-001
 2.4871952191e+000	 1.2860248606e+000	-1.4888129302e-001
 2.4740545078e+000	 1.3111271077e+000	-1.9009464622e-001
 2.4606398835e+000	 1.3361329887e+000	-2.3151121557e-001
 2.4469522311e+000	 1.3610381253e+000	-2.7306061978e-001
 2.4329925268e+000	 1.3858381451e+000	-3.1467022304e-001
 2.4187618385e+000	 1.4105286841e+000	-3.5626523754e-001
 2.4042613258e+000	 1.4351053889e+000	-3.9776883166e-001
 2.3894922400e+000	 1.4595639195e+000	-4.3910224365e-001
 2.3744559242e+000	 1.4838999509e+000	-4.8018490063e-001
 2.3591538127e+000	 1.5081091765e+000	-5.2093454265e-001
 2.3435874314e+000	 1.5321873095e+000	-5.6126735153e-001
 2.5094023193e+000	 1.2975072254e+000	-1.7372206401e-001
 2.4961442802e+000	 1.3228335997e+000	-2.4196946053e-001
 2.4826098825e+000	 1.3480627476e+000	-2.7622024847e-001
 2.4688000189e+000	 1.3731902515e+000	-3.1100226830e-001
 2.4547156744e+000	 1.3982117000e+000	-3.4624474939e-001
 2.4403579264e+000	 1.4231226902e+000	-3.8187438511e-001
 2.4257279448e+000	 1.4479188299e+000	-4.1781543795e-001
 2.4108269922e+000	 1.4725957402e+000	-4.5398985065e-001
 2.3956564235e+000	 1.4971490576e+000	-4.9031736310e-001
 2.3802176860e+000	 1.5215744370e+000	-5.2671563492e-001
 2.3645123192e+000	 1.5458675533e+000	-5.6310037337e-001
 2.5316094195e+000	 1.3089895902e+000	-1.5313280064e-001
 2.5182340526e+000	 1.3345400917e+000	-2.2864249620e-001
 2.5045798815e+000	 1.3599925064e+000	-3.0513668318e-001
 2.4906478067e+000	 1.3853423776e+000	-3.4951697656e-001
 2.4764388219e+000	 1.4105852549e+000	-3.7840127380e-001
 2.4619540142e+000	 1.4357166963e+000	-4.0806898542e-001
 2.4471945638e+000	 1.4607322709e+000	-4.3844540320e-001
 2.4321617443e+000	 1.4856275609e+000	-4.6945311207e-001
 2.4168569228e+000	 1.5103981643e+000	-5.0101210515e-001
 2.4012815594e+000	 1.5350396975e+000	-5.3303990490e-001
 2.3854372070e+000	 1.5595477972e+000	-5.6545169017e-001
 2.5538165197e+000	 1.3204719550e+000	-1.3466172598e-001
 2.5403238250e+000	 1.3462465838e+000	-2.0340123972e-001
 2.5265498804e+000	 1.3719222652e+000	-2.7346086670e-001
 2.5124955945e+000	 1.3974945037e+000	-3.4482527921e-001
 2.4981619695e+000	 1.4229588097e+000	-4.1110171740e-001
 2.4835501020e+000	 1.4483107024e+000	-4.3481116661e-001
 2.4686611827e+000	 1.4735457119e+000	-4.5962123257e-001
 2.4534964965e+000	 1.4986593816e+000	-4.8545508028e-001
 2.4380574221e+000	 1.5236472710e+000	-5.1223289655e-001
 2.4223454327e+000	 1.5485049580e+000	-5.3987200980e-001
 2.4063620948e+000	 1.5732280410e+000	-5.6828701645e-001
 2.5760236198e+000	 1.3319543199e+000	-1.1826754117e-001
 2.5624135974e+000	 1.3579530758e+000	-1.8024722772e-001
 2.5485198794e+000	 1.3838520240e+000	-2.4387648257e-001
 2.5343433823e+000	 1.4096466298e+000	-3.0914393767e-001
 2.5198851171e+000	 1.4353323646e+000	-3.7603753048e-001
 2.5051461899e+000	 1.4609047085e+000	-4.4454449613e-001
 2.4901278017e+000	 1.4863591528e+000	-4.8130694494e-001
 2.4748312486e+000	 1.5116912023e+000	-5.0196031790e-001
 2.4592579215e+000	 1.5368963777e+000	-5.2394500809e-001
 2.4434093060e+000	 1.5619702185e+000	-5.4717809296e-001
 2.4272869826e+000	 1.5869082848e+000	-5.7157353216e-001
 2.5982307200e+000	 1.3434366847e+000	-1.0391030317e-001
 2.5845033698e+000	 1.3696595678e+000	-1.5913961275e-001
 2.5704898784e+000	 1.3957817829e+000	-2.1634192752e-001
 2.5561911700e+000	 1.4217987559e+000	-2.7550981830e-001
 2.5416082646e+000	 1.4477059195e+000	-3.3663488653e-001
 2.5267422777e+000	 1.4734987146e+000	-3.9970775000e-001
 2.5115944207e+000	 1.4991725938e+000	-4.6471802932e-001
 2.4961660007e+000	 1.5247230230e+000	-5.1893483317e-001
 2.4804584208e+000	 1.5501454844e+000	-5.3611514742e-001
 2.4644731793e+000	 1.5754354790e+000	-5.5492572026e-001
 2.4482118703e+000	 1.6005885287e+000	-5.7527982009e-001
 2.6204378202e+000	 1.3549190495e+000	-9.1551367273e-002
 2.6065931422e+000	 1.3813660599e+000	-1.4003887339e-001
 2.5924598773e+000	 1.4077115417e+000	-1.9081694686e-001
 2.5780389578e+000	 1.4339508820e+000	-2.4388207770e-001
 2.5633314122e+000	 1.4600794743e+000	-2.9922951530e-001
 2.5483383656e+000	 1.4860927207e+000	-3.5685324782e-001
 2.5330610397e+000	 1.5119860348e+000	-4.1674598261e-001
 2.5175007529e+000	 1.5377548437e+000	-4.7889912758e-001
 2.5016589201e+000	 1.5633945911e+000	-5.4330277367e-001
 2.4855370527e+000	 1.5889007395e+000	-5.6308381990e-001
 2.4691367581e+000	 1.6142687725e+000	-5.7937580639e-001
 2.6426449203e+000	 1.3664014143e+000	-8.1153332576e-002
 2.6286829145e+000	 1.3930725519e+000	-1.2290675850e-001
 2.6144298763e+000	 1.4196413005e+000	-1.6726257784e-001
 2.5998867456e+000	 1.4461030082e+000	-2.1422118117e-001
 2.5850545598e+000	 1.4724530292e+000	-2.6378145073e-001
 2.5699344534e+000	 1.4986867268e+000	-3.1594073360e-001
 2.5545276587e+000	 1.5247994757e+000	-3.7069481609e-001
 2.5388355050e+000	 1.5507866644e+000	-4.2803789950e-001
 2.5228594194e+000	 1.5766436978e+000	-4.8796257709e-001
 2.5066009260e+000	 1.6023660000e+000	-5.5045981268e-001
 2.4900616459e+000	 1.6279490163e+000	-5.8383270413e-001
 2.6648520205e+000	 1.3778837792e+000	-7.2679990160e-002
 2.6507726869e+000	 1.4047790439e+000	-1.0770623430e-001
 2.6363998752e+000	 1.4315710593e+000	-1.4564109583e-001
 2.6217345334e+000	 1.4582551343e+000	-1.8648884816e-001
 2.6067777073e+000	 1.4848265841e+000	-2.3025199224e-001
 2.5915305413e+000	 1.5112807329e+000	-2.7693122345e-001
 2.5759942776e+000	 1.5376129167e+000	-3.2652540005e-001
 2.5601702572e+000	 1.5638184851e+000	-3.7903151325e-001
 2.5440599187e+000	 1.5898928045e+000	-4.3444465891e-001
 2.5276647993e+000	 1.6158312605e+000	-4.9275801105e-001
 2.5109865337e+000	 1.6416292602e+000	-5.5396279719e-001
 2.3017376559e+000	 1.5048268218e+000	-5.5930106148e-001
 2.2861912829e+000	 1.5283420488e+000	-6.1058514673e-001
 2.2703886241e+000	 1.5517201731e+000	-6.6067102387e-001
 2.2543314449e+000	 1.5749570586e+000	-7.0957804536e-001
 2.2380215991e+000	 1.5980485981e+000	-7.5732558772e-001
 2.2214610278e+000	 1.6209907162e+000	-8.0393308700e-001
 2.2046517589e+000	 1.6437793714e+000	-8.4942007525e-001
 2.1875959066e+000	 1.6664105584e+000	-8.9380621808e-001
 2.1702956705e+000	 1.6888803104e+000	-9.3711135285e-001
 2.1527533344e+000	 1.7111847011e+000	-9.7935552753e-001
 2.1349712658e+000	 1.7333198476e+000	-1.0205590401e+000
 2.3226625436e+000	 1.5185070657e+000	-5.5998844157e-001
 2.3069748400e+000	 1.5422360674e+000	-6.1043763664e-001
 2.2910285207e+000	 1.5658267202e+000	-6.5989464079e-001
 2.2748253672e+000	 1.5892748500e+000	-7.0835992328e-001
 2.2583672500e+000	 1.6125763126e+000	-7.5583368770e-001
 2.2416561281e+000	 1.6357269954e+000	-8.0231592785e-001
 2.2246940476e+000	 1.6587228203e+000	-8.4780648527e-001
 2.2074831422e+000	 1.6815597453e+000	-8.9230510809e-001
 2.1900256311e+000	 1.7042337677e+000	-9.3581151119e-001
 2.1723238192e+000	 1.7267409257e+000	-9.7832543735e-001
 2.1543800955e+000	 1.7490773008e+000	-1.0198467192e+000
 2.3435874314e+000	 1.5321873095e+000	-5.6126735153e-001
 2.3277583971e+000	 1.5561300860e+000	-6.1036033033e-001
 2.3116684172e+000	 1.5799332672e+000	-6.5866406676e-001
 2.2953192894e+000	 1.6035926415e+000	-7.0616034364e-001
 2.2787129009e+000	 1.6271040271e+000	-7.5283039084e-001
 2.2618512283e+000	 1.6504632747e+000	-7.9865496152e-001
 2.2447363364e+000	 1.6736662691e+000	-8.4361441039e-001
 2.2273703777e+000	 1.6967089322e+000	-8.8768877396e-001
 2.2097555918e+000	 1.7195872251e+000	-9.3085785238e-001
 2.1918943041e+000	 1.7422971502e+000	-9.7310129279e-001
 2.1737889252e+000	 1.7648347539e+000	-1.0143986738e+000
 2.3645123192e+000	 1.5458675533e+000	-5.6310037337e-001
 2.3485419542e+000	 1.5700241047e+000	-6.1033005073e-001
 2.3323083138e+000	 1.5940398142e+000	-6.5697046286e-001
 2.3158132116e+000	 1.6179104329e+000	-7.0298489598e-001
 2.2990585519e+000	 1.6416317417e+000	-7.4833579849e-001
 2.2820463286e+000	 1.6651995539e+000	-7.9298487730e-001
 2.2647786251e+000	 1.6886097179e+000	-8.3689319689e-001
 2.2472576132e+000	 1.7118581191e+000	-8.8002128070e-001
 2.2294855524e+000	 1.7349406825e+000	-9.2232921459e-001
 2.2114647889e+000	 1.7578533748e+000	-9.6377675223e-001
 2.1931977549e+000	 1.7805922071e+000	-1.0043234220e+000
 2.3854372070e+000	 1.5595477972e+000	-5.6545169017e-001
 2.3693255114e+000	 1.5839181233e+000	-6.1032473832e-001
 2.3529482104e+000	 1.6081463613e+000	-6.5480562093e-001
 2.3363071339e+000	 1.6322282244e+000	-6.9883931075e-001
 2.3194042028e+000	 1.6561594562e+000	-7.4236966007e-001
 2.3022414288e+000	 1.6799358332e+000	-7.8533951715e-001
 2.2848209138e+000	 1.7035531668e+000	-8.2769084586e-001
 2.2671448487e+000	 1.7270073060e+000	-8.6936484809e-001
 2.2492155131e+000	 1.7502941398e+000	-9.1030208876e-001
 2.2310352738e+000	 1.7734095994e+000	-9.5044262309e-001
 2.2126065846e+000	 1.7963496603e+000	-9.8972612573e-001
 2.4063620948e+000	 1.5732280410e+000	-5.6828701645e-001
 2.3901090685e+000	 1.5978121419e+000	-6.1032340260e-001
 2.3735881070e+000	 1.6222529083e+000	-6.5216193618e-001
 2.3568010561e+000	 1.6465460158e+000	-6.9372945310e-001
 2.3397498537e+000	 1.6706871707e+000	-7.3495138839e-001
 2.3224365291e+000	 1.6946721124e+000	-7.7575191254e-001
 2.3048632025e+000	 1.7184966156e+000	-8.1605407168e-001
 2.2870320842e+000	 1.7421564929e+000	-8.5577993089e-001
 2.2689454737e+000	 1.7656475972e+000	-8.9485072065e-001
 2.2506057587e+000	 1.7889658239e+000	-9.3318698582e-001
 2.2320154143e+000	 1.8121071134e+000	-9.7070873698e-001
 2.4272869826e+000	 1.5869082848e+000	-5.7157353216e-001
 2.4108926256e+000	 1.6117061606e+000	-6.1030607598e-001
 2.3942280036e+000	 1.6363594553e+000	-6.4903238116e-001
 2.3772949783e+000	 1.6608638072e+000	-6.8766131716e-001
 2.3600955046e+000	 1.6852148853e+000	-7.2610007414e-001
 2.3426316293e+000	 1.7094083916e+000	-7.6425431934e-001
 2.3249054912e+000	 1.7334400644e+000	-8.0202835745e-001
 2.3069193198e+000	 1.7573056798e+000	-8.3932529492e-001
 2.2886754343e+000	 1.7810010546e+000	-8.7604720760e-001
 2.2701762435e+000	 1.8045220485e+000	-9.1209531140e-001
 2.2514242440e+000	 1.8278645666e+000	-9.4737013570e-001
 2.4482118703e+000	 1.6005885287e+000	-5.7527982009e-001
 2.4316761827e+000	 1.6256001792e+000	-6.1025377004e-001
 2.4148679002e+000	 1.6504660024e+000	-6.4541048110e-001
 2.3977889005e+000	 1.6751815987e+000	-6.8064102044e-001
 2.3804411555e+000	 1.6997425998e+000	-7.1583449970e-001
 2.3628267296e+000	 1.7241446709e+000	-7.5087825099e-001
 2.3449477800e+000	 1.7483835133e+000	-7.8565800765e-001
 2.3268065553e+000	 1.7724548667e+000	-8.2005808924e-001
 2.3084053950e+000	 1.7963545119e+000	-8.5396159034e-001
 2.2897467284e+000	 1.8200782730e+000	-8.8725057287e-001
 2.2708330737e+000	 1.8436220197e+000	-9.1980626131e-001
 2.4691367581e+000	 1.6142687725e+000	-5.7937580639e-001
 2.4524597398e+000	 1.6394941978e+000	-6.1014843412e-001
 2.4355077967e+000	 1.6645725494e+000	-6.4129029046e-001
 2.4182828228e+000	 1.6894993901e+000	-6.7267479869e-001
 2.4007868064e+000	 1.7142703143e+000	-7.0417315214e-001
 2.3830218298e+000	 1.7388809501e+000	-7.3565450997e-001
 2.3649900687e+000	 1.7633269621e+000	-7.6698619806e-001
 2.3466937908e+000	 1.7876040536e+000	-7.9803391463e-001
 2.3281353556e+000	 1.8117079693e+000	-8.2866194018e-001
 2.3093172132e+000	 1.8356344976e+000	-8.5873335120e-001
 2.2902419033e+000	 1.8593794729e+000	-8.8811023729e-001
 2.4900616459e+000	 1.6279490163e+000	-5.8383270413e-001
 2.4732432969e+000	 1.6533882164e+000	-6.0997291581e-001
 2.4561476933e+000	 1.6786790964e+000	-6.3666637073e-001
 2.4387767450e+000	 1.7038171816e+000	-6.6376900085e-001
 2.4211324573e+000	 1.7287980288e+000	-6.9113423568e-001
 2.4032169301e+000	 1.7536172294e+000	-7.1861321767e-001
 2.3850323574e+000	 1.7782704109e+000	-7.4605502319e-001
 2.3665810263e+000	 1.8027532405e+000	-7.7330688871e-001
 2.3478653163e+000	 1.8270614267e+000	-8.0021444171e-001
 2.3288876981e+000	 1.8511907221e+000	-8.2662193577e-001
 2.3096507330e+000	 1.8751369261e+000	-8.5254517973e-001
 2.5109865337e+000	 1.6416292602e+000	-5.5396279719e-001
 2.4940268541e+000	 1.6672822350e+000	-6.0971092362e-001
 2.4767875899e+000	 1.6927856434e+000	-6.3153376930e-001
 2.4592706672e+000	 1.7181349730e+000	-6.5393008440e-001
 2.4414781082e+000	 1.7433257434e+000	-6.7673568345e-001
 2.4234120303e+000	 1.7683535086e+000	-6.9978384274e-001
 2.4050746461e+000	 1.7932138597e+000	-7.2290554132e-001
 2.3864682618e+000	 1.8179024274e+000	-7.4592970766e-001
 2.3675952769e+000	 1.8424148840e+000	-7.6868347141e-001
 2.3484581830e+000	 1.8667469467e+000	-7.9099241985e-001
 2.3290595627e+000	 1.8908943792e+000	-8.3255084798e-001
 2.1349712658e+000	 1.7333198476e+000	-1.0205590401e+000
 2.1169519149e+000	 1.7552819119e+000	-1.0433564971e+000
 2.0986978130e+000	 1.7770671034e+000	-1.0623319801e+000
 2.0802115719e+000	 1.7986716810e+000	-1.0773972375e+000
 2.0614958826e+000	 1.8200919554e+000	-1.0884667580e+000
 2.0425535136e+000	 1.8413242908e+000	-1.0954579324e+000
 2.0233873101e+000	 1.8623651074e+000	-1.0982912117e+000
 2.0040001923e+000	 1.8832108829e+000	-1.1090970646e+000
 1.9843951538e+000	 1.9038581548e+000	-1.1346744659e+000
 1.9645752604e+000	 1.9243035224e+000	-1.1564865058e+000
 1.9445436483e+000	 1.9445436482e+000	-1.1745444123e+000
 2.1543800955e+000	 1.7490773008e+000	-1.0198467192e+000
 2.1361969323e+000	 1.7712390202e+000	-1.0402399462e+000
 2.1177768840e+000	 1.7932222588e+000	-1.0566661314e+000
 2.0991225862e+000	 1.8150232417e+000	-1.0690505662e+000
 2.0802367542e+000	 1.8366382459e+000	-1.0773214459e+000
 2.0611221819e+000	 1.8580636026e+000	-1.0814100194e+000
 2.0417817402e+000	 1.8792956993e+000	-1.0874697548e+000
 2.0222183758e+000	 1.9003309818e+000	-1.1139173499e+000
 2.0024351097e+000	 1.9211659562e+000	-1.1365389541e+000
 1.9824350355e+000	 1.9417971908e+000	-1.1553593468e+000
 1.9622213178e+000	 1.9622213178e+000	-1.1704070909e+000
 2.1737889252e+000	 1.7648347539e+000	-1.0143986738e+000
 2.1554419497e+000	 1.7871961285e+000	-1.0328138652e+000
 2.1368559550e+000	 1.8093774143e+000	-1.0471192914e+000
 2.1180336005e+000	 1.8313748025e+000	-1.0572535387e+000
 2.0989776259e+000	 1.8531845364e+000	-1.0631582589e+000
 2.0796908502e+000	 1.8748029143e+000	-1.0647783080e+000
 2.0601761703e+000	 1.8962262912e+000	-1.0923766878e+000
 2.0404365594e+000	 1.9174510807e+000	-1.1163368505e+000
 2.0204750656e+000	 1.9384737576e+000	-1.1364183664e+000
 2.0002948105e+000	 1.9592908592e+000	-1.1526630563e+000
 1.9798989873e+000	 1.9798989873e+000	-1.1651166327e+000
 2.1931977549e+000	 1.7805922071e+000	-1.0043234220e+000
 2.1746869671e+000	 1.8031532367e+000	-1.0211759363e+000
 2.1559350260e+000	 1.8255325698e+000	-1.0337782420e+000
 2.1369446148e+000	 1.8477263632e+000	-1.0420819767e+000
 2.1177184976e+000	 1.8697308269e+000	-1.0460420042e+000
 2.0982595185e+000	 1.8915422260e+000	-1.0686700142e+000
 2.0785706004e+000	 1.9131568830e+000	-1.0945318960e+000
 2.0586547430e+000	 1.9345711797e+000	-1.1164082504e+000
 2.0385150216e+000	 1.9557815590e+000	-1.1343536757e+000
 2.0181545856e+000	 1.9767845275e+000	-1.1484268535e+000
 1.9975766568e+000	 1.9975766568e+000	-1.1586904666e+000
 2.2126065846e+000	 1.7963496603e+000	-9.8972612573e-001
 2.1939319845e+000	 1.8191103450e+000	-1.0054208818e+000
 2.1750140971e+000	 1.8416877253e+000	-1.0167272036e+000
 2.1558556291e+000	 1.8640779239e+000	-1.0236095413e+000
 2.1364593692e+000	 1.8862771174e+000	-1.0413999757e+000
 2.1168281868e+000	 1.9082815378e+000	-1.0697598229e+000
 2.0969650305e+000	 1.9300874749e+000	-1.0939987767e+000
 2.0768729265e+000	 1.9516912786e+000	-1.1141836896e+000
 2.0565549775e+000	 1.9730893604e+000	-1.1303857179e+000
 2.0360143607e+000	 1.9942781959e+000	-1.1426802288e+000
 2.0152543264e+000	 2.0152543264e+000	-1.1511467015e+000
 2.2320154143e+000	 1.8121071134e+000	-9.7070873698e-001
 2.2131770019e+000	 1.8350674533e+000	-9.8564059310e-001
 2.1940931681e+000	 1.8578428808e+000	-9.9604794676e-001
 2.1747666434e+000	 1.8804294847e+000	-1.0091544656e+000
 2.1552002409e+000	 1.9028234079e+000	-1.0406404743e+000
 2.1353968551e+000	 1.9250208495e+000	-1.0678427446e+000
 2.1153594606e+000	 1.9470180668e+000	-1.0908398181e+000
 2.0950911101e+000	 1.9688113775e+000	-1.1097147880e+000
 2.0745949335e+000	 1.9903971619e+000	-1.1245551980e+000
 2.0538741358e+000	 2.0117718643e+000	-1.1354529318e+000
 2.0329319959e+000	 2.0329319959e+000	-1.1425040964e+000
 2.2514242440e+000	 1.8278645666e+000	-9.4737013570e-001
 2.2324220193e+000	 1.8510245616e+000	-9.6192425224e-001
 2.2131722391e+000	 1.8739980363e+000	-9.7181989749e-001
 2.1936776577e+000	 1.8967810454e+000	-1.0057780004e+000
 2.1739411125e+000	 1.9193696984e+000	-1.0365761153e+000
 2.1539655234e+000	 1.9417601612e+000	-1.0629908442e+000
 2.1337538907e+000	 1.9639486587e+000	-1.0851166389e+000
 2.1133092937e+000	 1.9859314765e+000	-1.1030526675e+000
 2.0926348894e+000	 2.0077049633e+000	-1.1169026959e+000
 2.0717339109e+000	 2.0292655327e+000	-1.1267749605e+000
 2.0506096654e+000	 2.0506096654e+000	-1.1327820323e+000
 2.2708330737e+000	 1.8436220197e+000	-9.1980626131e-001
 2.2516670367e+000	 1.8669816699e+000	-9.3435844806e-001
 2.2322513102e+000	 1.8901531918e+000	-9.6376116771e-001
 2.2125886720e+000	 1.9131326061e+000	-9.9881826689e-001
 2.1926819842e+000	 1.9359159889e+000	-1.0292878134e+000
 2.1725341917e+000	 1.9584994730e+000	-1.0552749993e+000
 2.1521483208e+000	 1.9808792506e+000	-1.0768900252e+000
 2.1315274772e+000	 2.0030515754e+000	-1.0942479733e+000
 2.1106748454e+000	 2.0250127647e+000	-1.1074686719e+000
 2.0895936860e+000	 2.0467592011e+000	-1.1166765504e+000
 2.0682873350e+000	 2.0682873350e+000	-1.1220004861e+000
 2.2902419033e+000	 1.8593794729e+000	-8.8811023729e-001
 2.2709120541e+000	 1.8829387782e+000	-9.1316377598e-001
 2.2513303812e+000	 1.9063083472e+000	-9.5317235963e-001
 2.2314996862e+000	 1.9294841669e+000	-9.8836434445e-001
 2.2114228559e+000	 1.9524622794e+000	-1.0188550076e+000
 2.1911028601e+000	 1.9752387847e+000	-1.0447649505e+000
 2.1705427509e+000	 1.9978098425e+000	-1.0662199660e+000
 2.1497456608e+000	 2.0201716744e+000	-1.0833508944e+000
 2.1287148013e+000	 2.0423205661e+000	-1.0962934712e+000
 2.1074534611e+000	 2.0642528695e+000	-1.1051881646e+000
 2.0859650045e+000	 2.0859650045e+000	-1.1101800046e+000
 2.3096507330e+000	 1.8751369261e+000	-8.5254517973e-001
 2.2901570715e+000	 1.8988958865e+000	-8.9822580693e-001
 2.2704094522e+000	 1.9224635027e+000	-9.3883704850e-001
 2.2504107005e+000	 1.9458357276e+000	-9.7450357570e-001
 2.2301637275e+000	 1.9690085699e+000	-1.0053557230e+000
 2.2096715284e+000	 1.9919780964e+000	-1.0315293490e+000
 2.1889371809e+000	 2.0147404344e+000	-1.0531656864e+000
 2.1679638444e+000	 2.0372917733e+000	-1.0704111824e+000
 2.1467547572e+000	 2.0596283675e+000	-1.0834173292e+000
 2.1253132362e+000	 2.0817465379e+000	-1.0923404841e+000
 2.1036426740e+000	 2.1036426740e+000	-1.0973416813e+000
 2.3290595627e+000	 1.8908943792e+000	-8.3255084798e-001
 2.3094020889e+000	 1.9148529948e+000	-8.7930605128e-001
 2.2894885232e+000	 1.9386186582e+000	-9.2084986001e-001
 2.2693217148e+000	 1.9621872884e+000	-9.5732163855e-001
 2.2489045992e+000	 1.9855548604e+000	-9.8886663015e-001
 2.2282401967e+000	 2.0087174082e+000	-1.0156358020e+000
 2.2073316110e+000	 2.0316710262e+000	-1.0377856796e+000
 2.1861820279e+000	 2.0544118722e+000	-1.0554781700e+000
 2.1647947132e+000	 2.0769361689e+000	-1.0688803760e+000
 2.1431730113e+000	 2.0992402062e+000	-1.0781643990e+000
 2.1213203436e+000	 2.1213203435e+000	-1.0835071331e+000
 1.9445436483e+000	 1.9445436482e+000	-1.1745444123e+000
 1.9243035224e+000	 1.9645752604e+000	-1.2182445509e+000
 1.9038581548e+000	 1.9843951538e+000	-1.2664365080e+000
 1.8832108829e+000	 2.0040001923e+000	-1.3190017197e+000
 1.8623651074e+000	 2.0233873101e+000	-1.3227880459e+000
 1.8413242908e+000	 2.0425535136e+000	-1.2944061316e+000
 1.8200919554e+000	 2.0614958826e+000	-1.2679391764e+000
 1.7986716810e+000	 2.0802115719e+000	-1.2432498525e+000
 1.7770671034e+000	 2.0986978130e+000	-1.2201948230e+000
 1.7552819119e+000	 2.1169519149e+000	-1.1986249061e+000
 1.7333198476e+000	 2.1349712658e+000	-1.1783852530e+000
 1.9622213178e+000	 1.9622213178e+000	-1.1704070909e+000
 1.9417971908e+000	 1.9824350355e+000	-1.2074094189e+000
 1.9211659562e+000	 2.0024351097e+000	-1.2485946844e+000
 1.9003309818e+000	 2.0222183758e+000	-1.2938621151e+000
 1.8792956993e+000	 2.0417817402e+000	-1.3431071643e+000
 1.8580636026e+000	 2.0611221819e+000	-1.3246684879e+000
 1.8366382459e+000	 2.0802367542e+000	-1.2899054043e+000
 1.8150232417e+000	 2.0991225862e+000	-1.2567222375e+000
 1.7932222588e+000	 2.1177768840e+000	-1.2249939032e+000
 1.7712390202e+000	 2.1361969323e+000	-1.1945895137e+000
 1.7490773008e+000	 2.1543800955e+000	-1.1653725361e+000
 1.9798989873e+000	 1.9798989873e+000	-1.1651166327e+000
 1.9592908592e+000	 2.0002948105e+000	-1.1958513337e+000
 1.9384737576e+000	 2.0204750656e+000	-1.2304655746e+000
 1.9174510807e+000	 2.0404365594e+000	-1.2688761811e+000
 1.8962262912e+000	 2.0601761703e+000	-1.3109965016e+000
 1.8748029143e+000	 2.0796908502e+000	-1.3559047250e+000
 1.8531845364e+000	 2.0989776259e+000	-1.3133217408e+000
 1.8313748025e+000	 2.1180336005e+000	-1.2721284274e+000
 1.8093774143e+000	 2.1368559550e+000	-1.2322177234e+000
 1.7871961285e+000	 2.1554419497e+000	-1.1934767986e+000
 1.7648347539e+000	 2.1737889252e+000	-1.1557871941e+000
 1.9975766568e+000	 1.9975766568e+000	-1.1586904666e+000
 1.9767845275e+000	 2.0181545856e+000	-1.1835755233e+000
 1.9557815590e+000	 2.0385150216e+000	-1.2120420268e+000
 1.9345711797e+000	 2.0586547430e+000	-1.2440242138e+000
 1.9131568830e+000	 2.0785706004e+000	-1.2794531384e+000
 1.8915422260e+000	 2.0982595185e+000	-1.3182567157e+000
 1.8697308269e+000	 2.1177184976e+000	-1.3380154319e+000
 1.8477263632e+000	 2.1369446148e+000	-1.2892828144e+000
 1.8255325698e+000	 2.1559350260e+000	-1.2416677424e+000
 1.8031532367e+000	 2.1746869671e+000	-1.1950752136e+000
 1.7805922071e+000	 2.1931977549e+000	-1.1494046072e+000
 2.0152543264e+000	 2.0152543264e+000	-1.1511467015e+000
 1.9942781959e+000	 2.0360143607e+000	-1.1705883179e+000
 1.9730893604e+000	 2.0565549775e+000	-1.1933184194e+000
 1.9516912786e+000	 2.0768729265e+000	-1.2192884723e+000
 1.9300874749e+000	 2.0969650305e+000	-1.2484470535e+000
 1.9082815378e+000	 2.1168281868e+000	-1.2807398738e+000
 1.8862771174e+000	 2.1364593692e+000	-1.3161098037e+000
 1.8640779239e+000	 2.1558556291e+000	-1.3080035360e+000
 1.8416877253e+000	 2.1750140971e+000	-1.2531496214e+000
 1.8191103450e+000	 2.1939319845e+000	-1.1991778750e+000
 1.7963496603e+000	 2.2126065846e+000	-1.1460052839e+000
 2.0329319959e+000	 2.0329319959e+000	-1.1425040964e+000
 2.0117718643e+000	 2.0538741358e+000	-1.1568971017e+000
 1.9903971619e+000	 2.0745949335e+000	-1.1742905938e+000
 1.9688113775e+000	 2.0950911101e+000	-1.1946530936e+000
 1.9470180668e+000	 2.1153594606e+000	-1.2179505230e+000
 1.9250208495e+000	 2.1353968551e+000	-1.2441462095e+000
 1.9028234079e+000	 2.1552002409e+000	-1.2732008917e+000
 1.8804294847e+000	 2.1747666434e+000	-1.3050727276e+000
 1.8578428808e+000	 2.1940931681e+000	-1.2664730415e+000
 1.8350674533e+000	 2.2131770019e+000	-1.2055823595e+000
 1.8121071134e+000	 2.2320154143e+000	-1.1453746378e+000
 2.0506096654e+000	 2.0506096654e+000	-1.1327820323e+000
 2.0292655327e+000	 2.0717339109e+000	-1.1425102676e+000
 2.0077049633e+000	 2.0926348894e+000	-1.1549557919e+000
 1.9859314765e+000	 2.1133092937e+000	-1.1701040112e+000
 1.9639486587e+000	 2.1337538907e+000	-1.1879380209e+000
 1.9417601612e+000	 2.1539655234e+000	-1.2084385915e+000
 1.9193696984e+000	 2.1739411125e+000	-1.2315841550e+000
 1.8967810454e+000	 2.1936776577e+000	-1.2573507928e+000
 1.8739980363e+000	 2.2131722391e+000	-1.2814515303e+000
 1.8510245616e+000	 2.2324220193e+000	-1.2140905125e+000
 1.8278645666e+000	 2.2514242440e+000	-1.1473027767e+000
 2.0682873350e+000	 2.0682873350e+000	-1.1220004861e+000
 2.0467592011e+000	 2.0895936860e+000	-1.1274371738e+000
 2.0250127647e+000	 2.1106748454e+000	-1.1353125960e+000
 2.0030515754e+000	 2.1315274772e+000	-1.1456288789e+000
 1.9808792506e+000	 2.1521483208e+000	-1.1583861254e+000
 1.9584994730e+000	 2.1725341917e+000	-1.1735823812e+000
 1.9359159889e+000	 2.1926819842e+000	-1.1912136023e+000
 1.9131326061e+000	 2.2125886720e+000	-1.2112736228e+000
 1.8901531918e+000	 2.2322513102e+000	-1.2337541241e+000
 1.8669816699e+000	 2.2516670367e+000	-1.2245082653e+000
 1.8436220197e+000	 2.2708330737e+000	-1.1515843014e+000
 2.0859650045e+000	 2.0859650045e+000	-1.1101800046e+000
 2.0642528695e+000	 2.1074534611e+000	-1.1116881035e+000
 2.0423205661e+000	 2.1287148013e+000	-1.1153608719e+000
 2.0201716744e+000	 2.1497456608e+000	-1.1212169974e+000
 1.9978098425e+000	 2.1705427509e+000	-1.1292734295e+000
 1.9752387847e+000	 2.1911028601e+000	-1.1395453268e+000
 1.9524622794e+000	 2.2114228559e+000	-1.1520460054e+000
 1.9294841669e+000	 2.2314996862e+000	-1.1667868870e+000
 1.9063083472e+000	 2.2513303812e+000	-1.1837774482e+000
 1.8829387782e+000	 2.2709120541e+000	-1.2030251700e+000
 1.8593794729e+000	 2.2902419033e+000	-1.1580181158e+000
 2.1036426740e+000	 2.1036426740e+000	-1.0973416813e+000
 2.0817465379e+000	 2.1253132362e+000	-1.0952742253e+000
 2.0596283675e+000	 2.1467547572e+000	-1.0951017150e+000
 2.0372917733e+000	 2.1679638444e+000	-1.0968592455e+000
 2.0147404344e+000	 2.1889371809e+000	-1.1005804568e+000
 1.9919780964e+000	 2.2096715284e+000	-1.1062974635e+000
 1.9690085699e+000	 2.2301637275e+000	-1.1140407831e+000
 1.9458357276e+000	 2.2504107005e+000	-1.1238392654e+000
 1.9224635027e+000	 2.2704094522e+000	-1.1357200213e+000
 1.8988958865e+000	 2.2901570715e+000	-1.1497083526e+000
 1.8751369261e+000	 2.3096507330e+000	-1.1658276823e+000
 2.1213203436e+000	 2.1213203435e+000	-1.0835071331e+000
 2.0992402062e+000	 2.1431730113e+000	-1.0782075569e+000
 2.0769361689e+000	 2.1647947132e+000	-1.0745373995e+000
 2.0544118722e+000	 2.1861820279e+000	-1.0725480138e+000
 2.0316710262e+000	 2.2073316110e+000	-1.0722895804e+000
 2.0087174082e+000	 2.2282401967e+000	-1.0738110174e+000
 1.9855548604e+000	 2.2489045992e+000	-1.0771598906e+000
 1.9621872884e+000	 2.2693217148e+000	-1.0823823231e+000
 1.9386186582e+000	 2.2894885232e+000	-1.0895229048e+000
 1.9148529948e+000	 2.3094020889e+000	-1.0986246018e+000
 1.8908943792e+000	 2.3290595627e+000	-1.1097286668e+000
 1.7333198476e+000	 2.1349712658e+000	-1.1783852530e+000
 1.7111847011e+000	 2.1527533344e+000	-1.1959763197e+000
 1.6888803104e+000	 2.1702956705e+000	-1.2089721112e+000
 1.6664105584e+000	 2.1875959066e+000	-1.2175262230e+000
 1.6437793714e+000	 2.2046517589e+000	-1.2217913041e+000
 1.6209907162e+000	 2.2214610278e+000	-1.2219189222e+000
 1.5980485981e+000	 2.2380215991e+000	-1.2180594351e+000
 1.5749570586e+000	 2.2543314449e+000	-1.2103618700e+000
 1.5517201731e+000	 2.2703886241e+000	-1.1989738098e+000
 1.5283420488e+000	 2.2861912829e+000	-1.1840412867e+000
 1.5048268218e+000	 2.3017376559e+000	-1.1657086832e+000
 1.7490773008e+000	 2.1543800955e+000	-1.1653725361e+000
 1.7267409257e+000	 2.1723238192e+000	-1.1824438848e+000
 1.7042337677e+000	 2.1900256311e+000	-1.1952948667e+000
 1.6815597453e+000	 2.2074831422e+000	-1.2040543281e+000
 1.6587228203e+000	 2.2246940476e+000	-1.2088498703e+000
 1.6357269954e+000	 2.2416561281e+000	-1.2098077427e+000
 1.6125763126e+000	 2.2583672500e+000	-1.2070527435e+000
 1.5892748500e+000	 2.2748253672e+000	-1.2007081280e+000
 1.5658267202e+000	 2.2910285207e+000	-1.1908955241e+000
 1.5422360674e+000	 2.3069748400e+000	-1.1777348558e+000
 1.5185070657e+000	 2.3226625436e+000	-1.1613442731e+000
 1.7648347539e+000	 2.1737889252e+000	-1.1557871941e+000
 1.7422971502e+000	 2.1918943041e+000	-1.1716443038e+000
 1.7195872251e+000	 2.2097555918e+000	-1.1836540140e+000
 1.6967089322e+000	 2.2273703777e+000	-1.1919207593e+000
 1.6736662691e+000	 2.2447363364e+000	-1.1965474282e+000
 1.6504632747e+000	 2.2618512283e+000	-1.1976352849e+000
 1.6271040271e+000	 2.2787129009e+000	-1.1952838979e+000
 1.6035926415e+000	 2.2953192894e+000	-1.1895910779e+000
 1.5799332672e+000	 2.3116684172e+000	-1.1806528219e+000
 1.5561300860e+000	 2.3277583971e+000	-1.1685632657e+000
 1.5321873095e+000	 2.3435874314e+000	-1.1534146444e+000
 1.7805922071e+000	 2.1931977549e+000	-1.1494046072e+000
 1.7578533748e+000	 2.2114647889e+000	-1.1633718348e+000
 1.7349406825e+000	 2.2294855524e+000	-1.1738628532e+000
 1.7118581191e+000	 2.2472576132e+000	-1.1809580132e+000
 1.6886097179e+000	 2.2647786251e+000	-1.1847358163e+000
 1.6651995539e+000	 2.2820463286e+000	-1.1852728644e+000
 1.6416317417e+000	 2.2990585519e+000	-1.1826438170e+000
 1.6179104329e+000	 2.3158132116e+000	-1.1769213575e+000
 1.5940398142e+000	 2.3323083138e+000	-1.1681761662e+000
 1.5700241047e+000	 2.3485419542e+000	-1.1564769017e+000
 1.5458675533e+000	 2.3645123192e+000	-1.1418901907e+000
 1.7963496603e+000	 2.2126065846e+000	-1.1460052839e+000
 1.7734095994e+000	 2.2310352738e+000	-1.1574252094e+000
 1.7502941398e+000	 2.2492155131e+000	-1.1657384990e+000
 1.7270073060e+000	 2.2671448487e+000	-1.1710017383e+000
 1.7035531668e+000	 2.2848209138e+000	-1.1732693581e+000
 1.6799358332e+000	 2.3022414288e+000	-1.1725936122e+000
 1.6561594562e+000	 2.3194042028e+000	-1.1690245621e+000
 1.6322282244e+000	 2.3363071339e+000	-1.1626100719e+000
 1.6081463613e+000	 2.3529482104e+000	-1.1533958098e+000
 1.5839181233e+000	 2.3693255114e+000	-1.1414252586e+000
 1.5595477972e+000	 2.3854372070e+000	-1.1267397341e+000
 1.8121071134e+000	 2.2320154143e+000	-1.1453746378e+000
 1.7889658239e+000	 2.2506057587e+000	-1.1536074384e+000
 1.7656475972e+000	 2.2689454737e+000	-1.1591017148e+000
 1.7421564929e+000	 2.2870320842e+000	-1.1618905974e+000
 1.7184966156e+000	 2.3048632025e+000	-1.1620047543e+000
 1.6946721124e+000	 2.3224365291e+000	-1.1594723956e+000
 1.6706871707e+000	 2.3397498537e+000	-1.1543192872e+000
 1.6465460158e+000	 2.3568010561e+000	-1.1465687727e+000
 1.6222529083e+000	 2.3735881070e+000	-1.1362418040e+000
 1.5978121419e+000	 2.3901090685e+000	-1.1233569801e+000
 1.5732280410e+000	 2.4063620948e+000	-1.1079305938e+000
 1.8278645666e+000	 2.2514242440e+000	-1.1473027767e+000
 1.8045220485e+000	 2.2701762435e+000	-1.1517256271e+000
 1.7810010546e+000	 2.2886754343e+000	-1.1537767554e+000
 1.7573056798e+000	 2.3069193198e+000	-1.1534661383e+000
 1.7334400644e+000	 2.3249054912e+000	-1.1508009799e+000
 1.7094083916e+000	 2.3426316293e+000	-1.1457857434e+000
 1.6852148853e+000	 2.3600955046e+000	-1.1384221922e+000
 1.6608638072e+000	 2.3772949783e+000	-1.1287094396e+000
 1.6363594553e+000	 2.3942280036e+000	-1.1166440077e+000
 1.6117061606e+000	 2.4108926256e+000	-1.1022198948e+000
 1.5869082848e+000	 2.4272869826e+000	-1.0854286506e+000
 1.8436220197e+000	 2.2708330737e+000	-1.1515843014e+000
 1.8200782730e+000	 2.2897467284e+000	-1.1515908004e+000
 1.7963545119e+000	 2.3084053950e+000	-1.1495912177e+000
 1.7724548667e+000	 2.3268065553e+000	-1.1455726698e+000
 1.7483835133e+000	 2.3449477800e+000	-1.1395191876e+000
 1.7241446709e+000	 2.3628267296e+000	-1.1314117751e+000
 1.6997425998e+000	 2.3804411555e+000	-1.1212284780e+000
 1.6751815987e+000	 2.3977889005e+000	-1.1089444611e+000
 1.6504660024e+000	 2.4148679002e+000	-1.0945320950e+000
 1.6256001792e+000	 2.4316761827e+000	-1.0779610519e+000
 1.6005885287e+000	 2.4482118703e+000	-1.0591984086e+000
 1.8593794729e+000	 2.2902419033e+000	-1.1580181158e+000
 1.8356344976e+000	 2.3093172132e+000	-1.1530177367e+000
 1.8117079693e+000	 2.3281353556e+000	-1.1463758995e+000
 1.7876040536e+000	 2.3466937908e+000	-1.1380571455e+000
 1.7633269621e+000	 2.3649900687e+000	-1.1280226152e+000
 1.7388809501e+000	 2.3830218298e+000	-1.1162301332e+000
 1.7142703143e+000	 2.4007868064e+000	-1.1026343042e+000
 1.6894993901e+000	 2.4182828228e+000	-1.0871866181e+000
 1.6645725494e+000	 2.4355077967e+000	-1.0698355638e+000
 1.6394941978e+000	 2.4524597398e+000	-1.0505267533e+000
 1.6142687725e+000	 2.4691367581e+000	-1.0292030533e+000
 1.8751369261e+000	 2.3096507330e+000	-1.1658276823e+000
 1.8511907221e+000	 2.3288876981e+000	-1.1558248102e+000
 1.8270614267e+000	 2.3478653163e+000	-1.1439646643e+000
 1.8027532405e+000	 2.3665810263e+000	-1.1307690520e+000
 1.7782704109e+000	 2.3850323574e+000	-1.1161764978e+000
 1.7536172294e+000	 2.4032169301e+000	-1.1001219192e+000
 1.7287980288e+000	 2.4211324573e+000	-1.0825367489e+000
 1.7038171816e+000	 2.4387767450e+000	-1.0633490668e+000
 1.6786790964e+000	 2.4561476933e+000	-1.0424837424e+000
 1.6533882164e+000	 2.4732432969e+000	-1.0198625857e+000
 1.6279490163e+000	 2.4900616459e+000	-9.9540450718e-001
 1.8908943792e+000	 2.3290595627e+000	-1.1097286668e+000
 1.8667469467e+000	 2.3484581830e+000	-1.1598338413e+000
 1.8424148840e+000	 2.3675952769e+000	-1.1421943145e+000
 1.8179024274e+000	 2.3864682618e+000	-1.1235603035e+000
 1.7932138597e+000	 2.4050746461e+000	-1.1038479850e+000
 1.7683535086e+000	 2.4234120303e+000	-1.0829696333e+000
 1.7433257434e+000	 2.4414781082e+000	-1.0608337701e+000
 1.7181349730e+000	 2.4592706672e+000	-1.0373453234e+000
 1.6927856434e+000	 2.4767875899e+000	-1.0124057972e+000
 1.6672822350e+000	 2.4940268541e+000	-9.8591344986e-001
 1.6416292602e+000	 2.5109865337e+000	-9.7502666331e-001
 1.5048268218e+000	 2.3017376559e+000	-1.1657086832e+000
 1.4811786555e+000	 2.3170260660e+000	-1.1475922368e+000
 1.4574017375e+000	 2.3320549255e+000	-1.1266722878e+000
 1.4335002780e+000	 2.3468227357e+000	-1.1028975079e+000
 1.4094785070e+000	 2.3613280878e+000	-1.0762155364e+000
 1.3853406719e+000	 2.3755696628e+000	-1.0465731097e+000
 1.3610910354e+000	 2.3895462317e+000	-1.0139161958e+000
 1.3367338731e+000	 2.4032566556e+000	-9.7819013107e-001
 1.3122734711e+000	 2.4166998856e+000	-9.3933976120e-001
 1.2877141236e+000	 2.4298749630e+000	-8.9730958371e-001
 1.2630601309e+000	 2.4427810188e+000	-8.5204389325e-001
 1.5185070657e+000	 2.3226625436e+000	-1.1613442731e+000
 1.4946439160e+000	 2.3380899394e+000	-1.1401960166e+000
 1.4706508442e+000	 2.3532554248e+000	-1.1160874513e+000
 1.4465320987e+000	 2.3681574879e+000	-1.0889752161e+000
 1.4222919480e+000	 2.3827947068e+000	-1.0588149164e+000
 1.3979346780e+000	 2.3971657507e+000	-1.0255612486e+000
 1.3734645903e+000	 2.4112693793e+000	-9.8916812762e-001
 1.3488859992e+000	 2.4251044434e+000	-9.4958881767e-001
 1.3242032299e+000	 2.4386698846e+000	-9.0677606716e-001
 1.2994206156e+000	 2.4519647354e+000	-8.6068224570e-001
 1.2745424957e+000	 2.4649881190e+000	-8.1125948364e-001
 1.5321873095e+000	 2.3435874314e+000	-1.1534146444e+000
 1.5081091765e+000	 2.3591538127e+000	-1.1295049348e+000
 1.4838999509e+000	 2.3744559242e+000	-1.1024835208e+000
 1.4595639195e+000	 2.3894922400e+000	-1.0723148390e+000
 1.4351053889e+000	 2.4042613258e+000	-1.0389622884e+000
 1.4105286841e+000	 2.4187618385e+000	-1.0023883479e+000
 1.3858381451e+000	 2.4329925268e+000	-9.6255469814e-001
 1.3610381253e+000	 2.4469522311e+000	-9.1942234659e-001
 1.3361329887e+000	 2.4606398835e+000	-8.7295175640e-001
 1.3111271077e+000	 2.4740545078e+000	-8.2310297805e-001
 1.2860248606e+000	 2.4871952191e+000	-7.6983578356e-001
 1.5458675533e+000	 2.3645123192e+000	-1.1418901907e+000
 1.5215744370e+000	 2.3802176860e+000	-1.1154837334e+000
 1.4971490576e+000	 2.3956564235e+000	-1.0858195443e+000
 1.4725957402e+000	 2.4108269922e+000	-1.0528696915e+000
 1.4479188299e+000	 2.4257279448e+000	-1.0166051969e+000
 1.4231226902e+000	 2.4403579264e+000	-9.7699614739e-001
 1.3982117000e+000	 2.4547156744e+000	-9.3401181095e-001
 1.3731902515e+000	 2.4688000189e+000	-8.8762075615e-001
 1.3480627476e+000	 2.4826098825e+000	-8.3779097549e-001
 1.3228335997e+000	 2.4961442802e+000	-7.8449001174e-001
 1.2975072254e+000	 2.5094023193e+000	-7.4897401011e-001
 1.5595477972e+000	 2.3854372070e+000	-1.1267397341e+000
 1.5350396975e+000	 2.4012815594e+000	-1.0980958034e+000
 1.5103981643e+000	 2.4168569228e+000	-1.0660534423e+000
 1.4856275609e+000	 2.4321617443e+000	-1.0305921868e+000
 1.4607322709e+000	 2.4471945638e+000	-9.9169051342e-001
 1.4357166963e+000	 2.4619540142e+000	-9.4932594514e-001
 1.4105852549e+000	 2.4764388219e+000	-9.0347516135e-001
 1.3853423776e+000	 2.4906478067e+000	-8.5411411215e-001
 1.3599925064e+000	 2.5045798815e+000	-8.1077058656e-001
 1.3345400917e+000	 2.5182340526e+000	-7.8386234254e-001
 1.3089895902e+000	 2.5316094195e+000	-7.5448931401e-001
 1.5732280410e+000	 2.4063620948e+000	-1.1079305938e+000
 1.5485049580e+000	 2.4223454327e+000	-1.0773032437e+000
 1.5236472710e+000	 2.4380574221e+000	-1.0431420568e+000
 1.4986593816e+000	 2.4534964965e+000	-1.0054338755e+000
 1.4735457119e+000	 2.4686611827e+000	-9.6416446575e-001
 1.4483107024e+000	 2.4835501020e+000	-9.1931861663e-001
 1.4229588097e+000	 2.4981619695e+000	-8.7088024546e-001
 1.3974945037e+000	 2.5124955945e+000	-8.4358506413e-001
 1.3719222652e+000	 2.5265498804e+000	-8.1714663037e-001
 1.3462465838e+000	 2.5403238250e+000	-7.8812812806e-001
 1.3204719550e+000	 2.5538165197e+000	-7.5664013800e-001
 1.5869082848e+000	 2.4272869826e+000	-1.0854286506e+000
 1.5619702185e+000	 2.4434093060e+000	-1.0530669167e+000
 1.5368963777e+000	 2.4592579215e+000	-1.0170411976e+000
 1.5116912023e+000	 2.4748312486e+000	-9.7734548333e-001
 1.4863591528e+000	 2.4901278017e+000	-9.3397266578e-001
 1.4609047085e+000	 2.5051461899e+000	-8.9639980446e-001
 1.4353323646e+000	 2.5198851171e+000	-8.7365370258e-001
 1.4096466298e+000	 2.5343433823e+000	-8.4805223236e-001
 1.3838520240e+000	 2.5485198794e+000	-8.1972857474e-001
 1.3579530758e+000	 2.5624135974e+000	-7.8881135606e-001
 1.3319543199e+000	 2.5760236198e+000	-7.5542440339e-001
 1.6005885287e+000	 2.4482118703e+000	-1.0591984086e+000
 1.5754354790e+000	 2.4644731793e+000	-1.0253465010e+000
 1.5501454844e+000	 2.4804584208e+000	-9.8770568642e-001
 1.5247230230e+000	 2.4961660007e+000	-9.4627694581e-001
 1.4991725938e+000	 2.5115944207e+000	-9.2150586499e-001
 1.4734987146e+000	 2.5267422777e+000	-9.0017550637e-001
 1.4477059195e+000	 2.5416082646e+000	-8.7580260623e-001
 1.4217987559e+000	 2.5561911700e+000	-8.4853831813e-001
 1.3957817829e+000	 2.5704898784e+000	-8.1852937349e-001
 1.3696595678e+000	 2.5845033698e+000	-7.8591780525e-001
 1.3434366847e+000	 2.5982307200e+000	-7.5084068612e-001
 1.6142687725e+000	 2.4691367581e+000	-1.0292030533e+000
 1.5889007395e+000	 2.4855370527e+000	-9.9410054186e-001
 1.5633945911e+000	 2.5016589201e+000	-9.5785630571e-001
 1.5377548437e+000	 2.5175007529e+000	-9.4181565275e-001
 1.5119860348e+000	 2.5330610397e+000	-9.2234502012e-001
 1.4860927207e+000	 2.5483383656e+000	-8.9961742058e-001
 1.4600794743e+000	 2.5633314122e+000	-8.7380194531e-001
 1.4339508820e+000	 2.5780389578e+000	-8.4506344137e-001
 1.4077115417e+000	 2.5924598773e+000	-8.1356220316e-001
 1.3813660599e+000	 2.6065931422e+000	-7.7945367836e-001
 1.3549190495e+000	 2.6204378202e+000	-7.4288818904e-001
 1.6279490163e+000	 2.4900616459e+000	-9.9540450718e-001
 1.6023660000e+000	 2.5066009260e+000	-9.6994326416e-001
 1.5766436978e+000	 2.5228594194e+000	-9.5649157080e-001
 1.5507866644e+000	 2.5388355050e+000	-9.3935051702e-001
 1.5247994757e+000	 2.5545276587e+000	-9.1871070942e-001
 1.4986867268e+000	 2.5699344534e+000	-8.9475908992e-001
 1.4724530292e+000	 2.5850545598e+000	-8.6767858093e-001
 1.4461030082e+000	 2.5998867456e+000	-8.3764774411e-001
 1.4196413005e+000	 2.6144298763e+000	-8.0484045361e-001
 1.3930725519e+000	 2.6286829145e+000	-7.6942558427e-001
 1.3664014143e+000	 2.6426449203e+000	-7.3156671556e-001
 1.6416292602e+000	 2.5109865337e+000	-9.7502666331e-001
 1.6158312605e+000	 2.5276647993e+000	-9.6468743733e-001
 1.5898928045e+000	 2.5440599187e+000	-9.5037223608e-001
 1.5638184851e+000	 2.5601702572e+000	-9.3228907198e-001
 1.5376129167e+000	 2.5759942776e+000	-9.1064259733e-001
 1.5112807329e+000	 2.5915305413e+000	-8.8563371689e-001
 1.4848265841e+000	 2.6067777073e+000	-8.5745921378e-001
 1.4582551343e+000	 2.6217345334e+000	-8.2631138956e-001
 1.4315710593e+000	 2.6363998752e+000	-7.9237771913e-001
 1.4047790439e+000	 2.6507726869e+000	-7.5584052114e-001
 1.3778837792e+000	 2.6648520205e+000	-7.1687664463e-001
 1.2630601309e+000	 2.4427810188e+000	-8.5204389325e-001
 1.2383157968e+000	 2.4554172736e+000	-8.5799720945e-001
 1.2134854263e+000	 2.4677830375e+000	-8.5562065590e-001
 1.1885733238e+000	 2.4798777095e+000	-8.3784734140e-001
 1.1635837903e+000	 2.4917007772e+000	-8.0471767333e-001
 1.1385211215e+000	 2.5032518163e+000	-7.6583384826e-001
 1.1133896056e+000	 2.5145304902e+000	-7.3767188037e-001
 1.0881935211e+000	 2.5255365491e+000	-6.9778393555e-001
 1.0629371346e+000	 2.5362698295e+000	-6.4686854232e-001
 1.0376246991e+000	 2.5467302535e+000	-5.8559468092e-001
 1.0122604513e+000	 2.5569178279e+000	-5.1460151021e-001
 1.2745424957e+000	 2.4649881190e+000	-8.1125948364e-001
 1.2495732131e+000	 2.4777392488e+000	-8.1244256839e-001
 1.2245171120e+000	 2.4902174287e+000	-8.0711274474e-001
 1.1993785358e+000	 2.5024220523e+000	-7.9243722227e-001
 1.1741618247e+000	 2.5143526024e+000	-7.8882486814e-001
 1.1488713135e+000	 2.5260086510e+000	-7.7231613496e-001
 1.1235113293e+000	 2.5373898583e+000	-7.4366240360e-001
 1.0980861894e+000	 2.5484959723e+000	-7.0358526047e-001
 1.0726001995e+000	 2.5593268279e+000	-6.5277608167e-001
 1.0470576509e+000	 2.5698823467e+000	-5.9189570002e-001
 1.0214628190e+000	 2.5801625355e+000	-5.2157415343e-001
 1.2860248606e+000	 2.4871952191e+000	-7.6983578356e-001
 1.2608306294e+000	 2.5000612240e+000	-7.6996290988e-001
 1.2355487977e+000	 2.5126518200e+000	-7.9204057062e-001
 1.2101837479e+000	 2.5249663951e+000	-8.0007987461e-001
 1.1847398592e+000	 2.5370044277e+000	-7.9477810842e-001
 1.1592215055e+000	 2.5487654857e+000	-7.7691235921e-001
 1.1336330529e+000	 2.5602492264e+000	-7.4722933855e-001
 1.1079788578e+000	 2.5714553954e+000	-7.0644489809e-001
 1.0822632644e+000	 2.5823838264e+000	-6.5524363111e-001
 1.0564906027e+000	 2.5930344399e+000	-5.9427855919e-001
 1.0306651868e+000	 2.6034072430e+000	-5.2417090215e-001
 1.2975072254e+000	 2.5094023193e+000	-7.4897401011e-001
 1.2720880458e+000	 2.5223831993e+000	-7.7824661494e-001
 1.2465804834e+000	 2.5350862112e+000	-8.0125870440e-001
 1.2209889599e+000	 2.5475107379e+000	-8.0669501660e-001
 1.1953178937e+000	 2.5596562529e+000	-7.9914465546e-001
 1.1695716975e+000	 2.5715223204e+000	-7.7938158333e-001
 1.1437547766e+000	 2.5831085945e+000	-7.4814827258e-001
 1.1178715262e+000	 2.5944148186e+000	-7.0615523644e-001
 1.0919263292e+000	 2.6054408248e+000	-6.5408064801e-001
 1.0659235545e+000	 2.6161865331e+000	-5.9257004654e-001
 1.0398675545e+000	 2.6266519505e+000	-5.2223612911e-001
 1.3089895902e+000	 2.5316094195e+000	-7.5448931401e-001
 1.2833454621e+000	 2.5447051745e+000	-7.8259720226e-001
 1.2576121691e+000	 2.5575206025e+000	-8.0582649407e-001
 1.2317941719e+000	 2.5700550807e+000	-8.1200861221e-001
 1.2058959281e+000	 2.5823080782e+000	-8.0166587775e-001
 1.1799218895e+000	 2.5942791551e+000	-7.7948086961e-001
 1.1538765003e+000	 2.6059679626e+000	-7.4619224490e-001
 1.1277641945e+000	 2.6173742418e+000	-7.0250556830e-001
 1.1015893941e+000	 2.6284978233e+000	-6.4909294862e-001
 1.0753565063e+000	 2.6393386263e+000	-5.8659276468e-001
 1.0490699223e+000	 2.6498966580e+000	-5.1560947895e-001
 1.3204719550e+000	 2.5538165197e+000	-7.5664013800e-001
 1.2946028784e+000	 2.5670271497e+000	-7.8302529772e-001
 1.2686438548e+000	 2.5799549938e+000	-8.0472132415e-001
 1.2425993840e+000	 2.5925994236e+000	-8.1574576292e-001
 1.2164739626e+000	 2.6049599034e+000	-8.0208175573e-001
 1.1902720815e+000	 2.6170359898e+000	-7.7696536728e-001
 1.1639982240e+000	 2.6288273307e+000	-7.4113185736e-001
 1.1376568629e+000	 2.6403336650e+000	-6.9528222576e-001
 1.1112524589e+000	 2.6515548217e+000	-6.4008286635e-001
 1.0847894581e+000	 2.6624907195e+000	-5.7616531270e-001
 1.0582722900e+000	 2.6731413656e+000	-5.0412607372e-001
 1.3319543199e+000	 2.5760236198e+000	-7.5542440339e-001
 1.3058602948e+000	 2.5893491249e+000	-7.7954170815e-001
 1.2796755405e+000	 2.6023893850e+000	-7.9916195042e-001
 1.2534045960e+000	 2.6151437664e+000	-8.1436683357e-001
 1.2270519970e+000	 2.6276117287e+000	-8.0013094165e-001
 1.2006222736e+000	 2.6397928245e+000	-7.7158839496e-001
 1.1741199477e+000	 2.6516866988e+000	-7.3273537947e-001
 1.1475495313e+000	 2.6632930881e+000	-6.8426870780e-001
 1.1209155238e+000	 2.6746118202e+000	-6.2684940193e-001
 1.0942224100e+000	 2.6856428127e+000	-5.6110245876e-001
 1.0674746577e+000	 2.6963860731e+000	-4.8761670786e-001
 1.3434366847e+000	 2.5982307200e+000	-7.5084068612e-001
 1.3171177111e+000	 2.6116711001e+000	-7.7215741360e-001
 1.2907072262e+000	 2.6248237763e+000	-7.8917178502e-001
 1.2642098080e+000	 2.6376881092e+000	-8.0195097079e-001
 1.2376300315e+000	 2.6502635539e+000	-7.9555081631e-001
 1.2109724656e+000	 2.6625496592e+000	-7.6310151886e-001
 1.1842416714e+000	 2.6745460669e+000	-7.2076884814e-001
 1.1574421997e+000	 2.6862525113e+000	-6.6924580141e-001
 1.1305785886e+000	 2.6976688186e+000	-6.0918836580e-001
 1.1036553618e+000	 2.7087949060e+000	-5.4121530377e-001
 1.0766770255e+000	 2.7196307806e+000	-4.6590803315e-001
 1.3549190495e+000	 2.6204378202e+000	-7.4288818904e-001
 1.3283751274e+000	 2.6339930753e+000	-7.6088355997e-001
 1.3017389119e+000	 2.6472581675e+000	-7.7477394470e-001
 1.2750150201e+000	 2.6602324520e+000	-7.8461231524e-001
 1.2482080659e+000	 2.6729153792e+000	-7.8807754293e-001
 1.2213226576e+000	 2.6853064939e+000	-7.5125462711e-001
 1.1943633951e+000	 2.6974054350e+000	-7.0499616223e-001
 1.1673348680e+000	 2.7092119345e+000	-6.4999169649e-001
 1.1402416535e+000	 2.7207258171e+000	-5.8689251331e-001
 1.1130883136e+000	 2.7319469992e+000	-5.1631143678e-001
 1.0858793932e+000	 2.7428754882e+000	-4.3882273420e-001
 1.3664014143e+000	 2.6426449203e+000	-7.3156671556e-001
 1.3396325438e+000	 2.6563150506e+000	-7.4573145206e-001
 1.3127705976e+000	 2.6696925588e+000	-7.5599126330e-001
 1.2858202321e+000	 2.6827767948e+000	-7.6238525284e-001
 1.2587861004e+000	 2.6955672044e+000	-7.6494856117e-001
 1.2316728496e+000	 2.7080633286e+000	-7.3579600018e-001
 1.2044851188e+000	 2.7202648031e+000	-6.8517917239e-001
 1.1772275364e+000	 2.7321713577e+000	-6.2628209497e-001
 1.1499047184e+000	 2.7437828155e+000	-5.5975167307e-001
 1.1225212654e+000	 2.7550990924e+000	-4.8619508256e-001
 1.0950817609e+000	 2.7661201957e+000	-4.0617969519e-001
 1.3778837792e+000	 2.6648520205e+000	-7.1687664463e-001
 1.3508899601e+000	 2.6786370258e+000	-7.2671254696e-001
 1.3238022833e+000	 2.6921269500e+000	-7.3284630346e-001
 1.2966254442e+000	 2.7053211376e+000	-7.3530347493e-001
 1.2693641349e+000	 2.7182190297e+000	-7.3410555707e-001
 1.2420230416e+000	 2.7308201633e+000	-7.1647237796e-001
 1.2146068424e+000	 2.7431241712e+000	-6.6107776642e-001
 1.1871202048e+000	 2.7551307808e+000	-5.9789031446e-001
 1.1595677832e+000	 2.7668398140e+000	-5.2755286891e-001
 1.1319542172e+000	 2.7782511856e+000	-4.5066724178e-001
 1.1042841287e+000	 2.7893649032e+000	-3.6779415818e-001
 1.0122604513e+000	 2.5569178279e+000	-5.1460151021e-001
 9.8684861017e-001	 2.5668326437e+000	-5.0956606963e-001
 9.6139337463e-001	 2.5764748746e+000	-4.9869511899e-001
 9.3589892178e-001	 2.5858447765e+000	-4.8236102061e-001
 9.1036940492e-001	 2.5949426866e+000	-4.6090563835e-001
 8.8480895173e-001	 2.6037690218e+000	-4.3464061693e-001
 8.5922166244e-001	 2.6123242783e+000	-4.0384772684e-001
 8.3361160807e-001	 2.6206090298e+000	-3.6877927205e-001
 8.0798282872e-001	 2.6286239268e+000	-3.2965855781e-001
 7.8233933189e-001	 2.6363696952e+000	-2.8668041572e-001
 7.5668509084e-001	 2.6438471350e+000	-2.4001178310e-001
 1.0214628190e+000	 2.5801625355e+000	-5.2157415343e-001
 9.9581996117e-001	 2.5901674859e+000	-5.1343416153e-001
 9.7013331440e-001	 2.5998973734e+000	-5.0007615135e-001
 9.4440709380e-001	 2.6093524563e+000	-4.8187560397e-001
 9.1864549042e-001	 2.6185330746e+000	-4.5917609275e-001
 8.9285266947e-001	 2.6274396493e+000	-4.3228958620e-001
 8.6703276845e-001	 2.6360726808e+000	-4.0149681856e-001
 8.4118989541e-001	 2.6444327482e+000	-3.6704772541e-001
 8.1532812716e-001	 2.6525205080e+000	-3.2916194133e-001
 7.8945150763e-001	 2.6603366925e+000	-2.8802935684e-001
 7.6356404620e-001	 2.6678821090e+000	-2.4381073124e-001
 1.0306651868e+000	 2.6034072430e+000	-5.2417090215e-001
 1.0047913122e+000	 2.6135023281e+000	-5.1304520774e-001
 9.7887325417e-001	 2.6233198723e+000	-4.9733257010e-001
 9.5291526581e-001	 2.6328601361e+000	-4.7741159526e-001
 9.2692157592e-001	 2.6421234627e+000	-4.5362754650e-001
 9.0089638721e-001	 2.6511102768e+000	-4.2629267120e-001
 8.7484387447e-001	 2.6598210833e+000	-3.9568659762e-001
 8.4876818275e-001	 2.6682564667e+000	-3.6205679894e-001
 8.2267342560e-001	 2.6764170891e+000	-3.2561912140e-001
 7.9656368337e-001	 2.6843036897e+000	-2.8655837354e-001
 7.7044300157e-001	 2.6919170830e+000	-2.4502897343e-001
 1.0398675545e+000	 2.6266519505e+000	-5.2223612911e-001
 1.0137626632e+000	 2.6368371703e+000	-5.0824665395e-001
 9.8761319394e-001	 2.6467423712e+000	-4.9031532743e-001
 9.6142343782e-001	 2.6563678159e+000	-4.6882388373e-001
 9.3519766141e-001	 2.6657138508e+000	-4.4411925314e-001
 9.0894010495e-001	 2.6747809043e+000	-4.1651391325e-001
 8.8265498049e-001	 2.6835694859e+000	-3.8628631254e-001
 8.5634647009e-001	 2.6920801852e+000	-3.5368136332e-001
 8.3001872403e-001	 2.7003136703e+000	-3.1891100094e-001
 8.0367585911e-001	 2.7082706869e+000	-2.8215480606e-001
 7.7732195694e-001	 2.7159520569e+000	-2.4356068670e-001
 1.0490699223e+000	 2.6498966580e+000	-5.1560947895e-001
 1.0227340142e+000	 2.6601720126e+000	-4.9888119489e-001
 9.9635313370e-001	 2.6701648700e+000	-4.7887059703e-001
 9.6993160984e-001	 2.6798754957e+000	-4.5596254803e-001
 9.4347374691e-001	 2.6893042388e+000	-4.3050561890e-001
 9.1698382269e-001	 2.6984515317e+000	-4.0281246515e-001
 8.9046608651e-001	 2.7073178884e+000	-3.7316027761e-001
 8.6392475744e-001	 2.7159039036e+000	-3.4179130486e-001
 8.3736402247e-001	 2.7242102514e+000	-3.0891344407e-001
 8.1078803485e-001	 2.7322376842e+000	-2.7470089696e-001
 7.8420091230e-001	 2.7399870309e+000	-2.3929488734e-001
 1.0582722900e+000	 2.6731413656e+000	-5.0412607372e-001
 1.0317053652e+000	 2.6835068548e+000	-4.8478698089e-001
 1.0050930735e+000	 2.6935873689e+000	-4.6283998191e-001
 9.7843978185e-001	 2.7033831755e+000	-4.3867306535e-001
 9.5174983241e-001	 2.7128946269e+000	-4.1263641346e-001
 9.2502754043e-001	 2.7221221592e+000	-3.8504280373e-001
 8.9827719253e-001	 2.7310662909e+000	-3.5616808745e-001
 8.7150304478e-001	 2.7397276221e+000	-3.2625174224e-001
 8.4470932091e-001	 2.7481068326e+000	-2.9549749514e-001
 8.1790021059e-001	 2.7562046814e+000	-2.6407401280e-001
 7.9107986767e-001	 2.7640220048e+000	-2.3211565527e-001
 1.0674746577e+000	 2.6963860731e+000	-4.8761670786e-001
 1.0406767162e+000	 2.7068416970e+000	-4.6579781373e-001
 1.0138330132e+000	 2.7170098677e+000	-4.4206071135e-001
 9.8694795386e-001	 2.7268908553e+000	-4.1679650979e-001
 9.6002591790e-001	 2.7364850150e+000	-3.9035696983e-001
 9.3307125817e-001	 2.7457927867e+000	-3.6305493139e-001
 9.0608829855e-001	 2.7548146935e+000	-3.3516482042e-001
 8.7908133212e-001	 2.7635513405e+000	-3.0692323203e-001
 8.5205461935e-001	 2.7720034137e+000	-2.7852958648e-001
 8.2501238633e-001	 2.7801716786e+000	-2.5014685427e-001
 7.9795882304e-001	 2.7880569788e+000	-2.2190234684e-001
 1.0766770255e+000	 2.7196307806e+000	-4.6590803315e-001
 1.0496480672e+000	 2.7301765392e+000	-4.4174333251e-001
 1.0225729530e+000	 2.7404323666e+000	-4.1636582784e-001
 9.9545612588e-001	 2.7503985350e+000	-3.9016974050e-001
 9.6830200340e-001	 2.7600754030e+000	-3.6350837391e-001
 9.4111497591e-001	 2.7694634141e+000	-3.3669456733e-001
 9.1389940457e-001	 2.7785630960e+000	-3.1000123162e-001
 8.8665961946e-001	 2.7873750590e+000	-2.8366196361e-001
 8.5939991779e-001	 2.7958999949e+000	-2.5787173550e-001
 8.3212456207e-001	 2.8041386758e+000	-2.3278765563e-001
 8.0483777841e-001	 2.8120919527e+000	-2.0852979668e-001
 1.0858793932e+000	 2.7428754882e+000	-4.3882273420e-001
 1.0586194182e+000	 2.7535113814e+000	-4.1244919002e-001
 1.0313128928e+000	 2.7638548655e+000	-3.8558436448e-001
 1.0039642979e+000	 2.7739062148e+000	-3.5862558028e-001
 9.7657808889e-001	 2.7836657911e+000	-3.3192764446e-001
 9.4915869365e-001	 2.7931340416e+000	-3.0580332902e-001
 9.2171051058e-001	 2.8023114985e+000	-2.8052393611e-001
 8.9423790680e-001	 2.8111987774e+000	-2.5631994424e-001
 8.6674521623e-001	 2.8197965760e+000	-2.3338173178e-001
 8.3923673781e-001	 2.8281056731e+000	-2.1186037393e-001
 8.1171673377e-001	 2.8361269267e+000	-1.9186850930e-001
 1.0950817609e+000	 2.7661201957e+000	-4.0617969519e-001
 1.0675907692e+000	 2.7768462236e+000	-3.7773722021e-001
 1.0400528325e+000	 2.7872773643e+000	-3.4954151344e-001
 1.0124724699e+000	 2.7974138946e+000	-3.2199298521e-001
 9.8485417439e-001	 2.8072561791e+000	-2.9544790403e-001
 9.5720241139e-001	 2.8168046691e+000	-2.7021890456e-001
 9.2952161660e-001	 2.8260599011e+000	-2.4657558283e-001
 9.0181619415e-001	 2.8350224959e+000	-2.2474517480e-001
 8.7409051467e-001	 2.8436931572e+000	-2.0491331467e-001
 8.4634891355e-001	 2.8520726703e+000	-1.8722486874e-001
 8.1859568914e-001	 2.8601619006e+000	-1.7178484100e-001
 1.1042841287e+000	 2.7893649032e+000	-3.6779415818e-001
 1.0765621202e+000	 2.8001810658e+000	-3.3742559736e-001
 1.0487927723e+000	 2.8106998632e+000	-3.0805878601e-001
 1.0209806419e+000	 2.8209215744e+000	-2.8009720572e-001
 9.9313025989e-001	 2.8308465672e+000	-2.5389854124e-001
 9.6524612913e-001	 2.8404752965e+000	-2.2977521640e-001
 9.3733272262e-001	 2.8498083036e+000	-2.0799501986e-001
 9.0939448149e-001	 2.8588462143e+000	-1.8878181669e-001
 8.8143581311e-001	 2.8675897383e+000	-1.7231634208e-001
 8.5346108929e-001	 2.8760396675e+000	-1.5873707287e-001
 8.2547464451e-001	 2.8841968746e+000	-1.4814117278e-001
 7.5668509084e-001	 2.6438471350e+000	-2.4001178310e-001
 7.3102404304e-001	 2.6510571191e+000	-2.1819499473e-001
 7.0536008863e-001	 2.6580005917e+000	-1.9834544671e-001
 6.7969708895e-001	 2.6646785674e+000	-1.8046341353e-001
 6.5403886512e-001	 2.6710921293e+000	-1.6452042886e-001
 6.2838919664e-001	 2.6772424279e+000	-1.5046024190e-001
 6.0275182011e-001	 2.6831306796e+000	-1.1482585192e-001
 5.7713042797e-001	 2.6887581649e+000	-6.6964932959e-002
 5.5152866722e-001	 2.6941262274e+000	-1.0055407937e-002
 5.2595013834e-001	 2.6992362720e+000	 5.5590566998e-002
 5.0039839415e-001	 2.7040897632e+000	 1.2972406150e-001
 7.6356404620e-001	 2.6678821090e+000	-2.4381073124e-001
 7.3766971615e-001	 2.6751576384e+000	-2.2316400366e-001
 7.1177245307e-001	 2.6821642335e+000	-2.0371574182e-001
 6.8587615339e-001	 2.6889029180e+000	-1.8546594610e-001
 6.5998467298e-001	 2.6953747850e+000	-1.6838582960e-001
 6.3410182569e-001	 2.7015809954e+000	-1.5241878755e-001
 6.0823138211e-001	 2.7075227766e+000	-1.2349076745e-001
 5.8237706822e-001	 2.7132014209e+000	-7.9105908789e-002
 5.5654256419e-001	 2.7186182841e+000	-2.5341465535e-002
 5.3073150323e-001	 2.7237747836e+000	 3.7437569205e-002
 5.0494747046e-001	 2.7286723974e+000	 1.0893140604e-001
 7.7044300157e-001	 2.6919170830e+000	-2.4502897343e-001
 7.4431538927e-001	 2.6992581576e+000	-2.2574238085e-001
 7.1818481751e-001	 2.7063278752e+000	-2.0692249457e-001
 6.9205521784e-001	 2.7131272686e+000	-1.8856864183e-001
 6.6593048084e-001	 2.7196574407e+000	-1.7065128436e-001
 6.3981445475e-001	 2.7259195630e+000	-1.5311300177e-001
 6.1371094411e-001	 2.7319148737e+000	-1.2828460727e-001
 5.8762370847e-001	 2.7376446770e+000	-8.6378277516e-002
 5.6155646116e-001	 2.7431103407e+000	-3.4811956582e-002
 5.3551286813e-001	 2.7483132951e+000	 2.5995118867e-002
 5.0949654677e-001	 2.7532550316e+000	 9.5690973359e-002
 7.7732195694e-001	 2.7159520569e+000	-2.4356068670e-001
 7.5096106238e-001	 2.7233586769e+000	-2.2583317718e-001
 7.2459718195e-001	 2.7304915169e+000	-2.0787736769e-001
 6.9823428228e-001	 2.7373516192e+000	-1.8969151154e-001
 6.7187628870e-001	 2.7439400964e+000	-1.7124488649e-001
 6.4552708381e-001	 2.7502581305e+000	-1.5247879315e-001
 6.1919050611e-001	 2.7563069708e+000	-1.3003544488e-001
 5.9287034872e-001	 2.7620879330e+000	-8.9576300371e-002
 5.6657035814e-001	 2.7676023973e+000	-3.9227238467e-002
 5.4029423302e-001	 2.7728518067e+000	 2.0536826131e-002
 5.1404562308e-001	 2.7778376658e+000	 8.9310377553e-002
 7.8420091230e-001	 2.7399870309e+000	-2.3929488734e-001
 7.5760673550e-001	 2.7474591962e+000	-2.2333415782e-001
 7.3100954638e-001	 2.7546551587e+000	-2.0648663194e-001
 7.0441334672e-001	 2.7615759698e+000	-1.8874908637e-001
 6.7782209656e-001	 2.7682227522e+000	-1.7008918035e-001
 6.5123971286e-001	 2.7745966980e+000	-1.5044647032e-001
 6.2467006810e-001	 2.7806990679e+000	-1.2956572102e-001
 5.9811698897e-001	 2.7865311891e+000	-8.9488591159e-002
 5.7158425511e-001	 2.7920944539e+000	-3.9342024376e-002
 5.4507559791e-001	 2.7973903183e+000	 2.0341924362e-002
 5.1859469938e-001	 2.8024203000e+000	 8.9102817344e-002
 7.9107986767e-001	 2.7640220048e+000	-2.3211565527e-001
 7.6425240861e-001	 2.7715597154e+000	-2.1813803209e-001
 7.3742191082e-001	 2.7788188004e+000	-2.0265140054e-001
 7.1059241116e-001	 2.7858003204e+000	-1.8565065597e-001
 6.8376790442e-001	 2.7925054079e+000	-1.6710140257e-001
 6.5695234192e-001	 2.7989352655e+000	-1.4694098544e-001
 6.3014963010e-001	 2.8050911650e+000	-1.2507956161e-001
 6.0336362922e-001	 2.8109744451e+000	-8.6898361800e-002
 5.7659815208e-001	 2.8165865105e+000	-3.5905628692e-002
 5.4985696280e-001	 2.8219288298e+000	 2.4695025646e-002
 5.2314377569e-001	 2.8270029342e+000	 9.4386833260e-002
 7.9795882304e-001	 2.7880569788e+000	-2.2190234684e-001
 7.7089808172e-001	 2.7956602347e+000	-2.1013267135e-001
 7.4383427526e-001	 2.8029824422e+000	-1.9626785152e-001
 7.1677147560e-001	 2.8100246711e+000	-1.8030049449e-001
 6.8971371228e-001	 2.8167880636e+000	-1.6219371083e-001
 6.6266497097e-001	 2.8232738331e+000	-1.4188216504e-001
 6.3562919210e-001	 2.8294832621e+000	-1.1927316554e-001
 6.0861026947e-001	 2.8354177012e+000	-8.2583655171e-002
 5.8161204905e-001	 2.8410785671e+000	-2.9662199700e-002
 5.5463832770e-001	 2.8464673414e+000	 3.2885888959e-002
 5.2769285200e-001	 2.8515855684e+000	 1.0448607739e-001
 8.0483777841e-001	 2.8120919527e+000	-2.0852979668e-001
 7.7754375484e-001	 2.8197607539e+000	-1.9920131579e-001
 7.5024663970e-001	 2.8271460839e+000	-1.8722743855e-001
 7.2295054004e-001	 2.8342490217e+000	-1.7259807487e-001
 6.9565952014e-001	 2.8410707193e+000	-1.5527340090e-001
 6.6837760003e-001	 2.8476124006e+000	-1.3518492912e-001
 6.4110875410e-001	 2.8538753591e+000	-1.1223661842e-001
 6.1385690972e-001	 2.8598609572e+000	-7.7317566003e-002
 5.8662594603e-001	 2.8655706237e+000	-2.1350940364e-002
 5.5941969259e-001	 2.8710058529e+000	 4.4209200207e-002
 5.3224192831e-001	 2.8761682026e+000	 1.1872909493e-001
 8.1171673377e-001	 2.8361269267e+000	-1.9186850930e-001
 7.8418942795e-001	 2.8438612732e+000	-1.8522277065e-001
 7.5665900413e-001	 2.8513097256e+000	-1.7541709119e-001
 7.2912960448e-001	 2.8584733723e+000	-1.6243827231e-001
 7.0160532800e-001	 2.8653533750e+000	-1.4624311266e-001
 6.7409022909e-001	 2.8719509681e+000	-1.2675949900e-001
 6.4658831609e-001	 2.8782674562e+000	-1.0388753751e-001
 6.1910354998e-001	 2.8843042132e+000	-7.1868450549e-002
 5.9163984300e-001	 2.8900626803e+000	-1.1706317874e-002
 5.6420105748e-001	 2.8955443645e+000	 5.7964363460e-002
 5.3679100462e-001	 2.9007508368e+000	 1.3644911686e-001
 8.1859568914e-001	 2.8601619006e+000	-1.7178484100e-001
 7.9083510107e-001	 2.8679617925e+000	-1.6807159254e-001
 7.6307136857e-001	 2.8754733674e+000	-1.6071940494e-001
 7.3530866892e-001	 2.8826977229e+000	-1.4971155742e-001
 7.0755113586e-001	 2.8896360307e+000	-1.3500102572e-001
 6.7980285814e-001	 2.8962895356e+000	-1.1651159479e-001
 6.5206787809e-001	 2.9026595533e+000	-9.4139012549e-002
 6.2435019023e-001	 2.9087474693e+000	-6.7000125681e-002
 5.9665373997e-001	 2.9145547369e+000	-1.4582626266e-003
 5.6898242237e-001	 2.9200828761e+000	 7.3455302709e-002
 5.4134008093e-001	 2.9253334710e+000	 1.5698386307e-001
 8.2547464451e-001	 2.8841968746e+000	-1.4814117278e-001
 7.9748077418e-001	 2.8920623117e+000	-1.4761826649e-001
 7.6948373301e-001	 2.8996370091e+000	-1.4301282185e-001
 7.4148773336e-001	 2.9069220735e+000	-1.3430417979e-001
 7.1349694372e-001	 2.9139186865e+000	-1.2144104528e-001
 6.8551548720e-001	 2.9206281031e+000	-1.0434262292e-001
 6.5754744009e-001	 2.9270516504e+000	-8.2899794323e-002
 6.2959683048e-001	 2.9331907253e+000	-5.6976333079e-002
 6.0166763694e-001	 2.9390467935e+000	 8.6676427432e-003
 5.7376378727e-001	 2.9446213876e+000	 8.9990273539e-002
 5.4588915724e-001	 2.9499161052e+000	 1.7967535531e-001
 5.0039839415e-001	 2.7040897632e+000	 1.2972406150e-001
 4.7487693873e-001	 2.7086882237e+000	 1.4532771421e-001
 4.4938922647e-001	 2.7130332330e+000	 1.6058973890e-001
 4.2393866111e-001	 2.7171264254e+000	 1.7543160255e-001
 3.9852859482e-001	 2.7209694888e+000	 1.8984744801e-001
 3.7316232739e-001	 2.7245641628e+000	 2.0390380571e-001
 3.4784310545e-001	 2.7279122372e+000	 2.1773913845e-001
 3.2257412170e-001	 2.7310155503e+000	 2.3156322444e-001
 2.9735851428e-001	 2.7338759873e+000	 2.4565638413e-001
 2.7219936608e-001	 2.7364954787e+000	 2.6036855656e-001
 2.4709970424e-001	 2.7388759987e+000	 2.7611823136e-001
 5.0494747046e-001	 2.7286723974e+000	 1.0893140604e-001
 4.7919400181e-001	 2.7333126621e+000	 1.1850337600e-001
 4.5347458308e-001	 2.7376971715e+000	 1.2923032738e-001
 4.2779264894e-001	 2.7418275747e+000	 1.4096149375e-001
 4.0215158205e-001	 2.7457055751e+000	 1.5362033456e-001
 3.7655471219e-001	 2.7493329280e+000	 1.6720432068e-001
 3.5100531550e-001	 2.7527114394e+000	 1.8178454691e-001
 3.2550661372e-001	 2.7558429644e+000	 1.9750517701e-001
 3.0006177350e-001	 2.7587294054e+000	 2.1458272654e-001
 2.7467390578e-001	 2.7613727104e+000	 2.3330518961e-001
 2.4934606519e-001	 2.7637748714e+000	 2.5403101541e-001
 5.0949654677e-001	 2.7532550316e+000	 9.5690973359e-002
 4.8351106489e-001	 2.7579371005e+000	 9.9544267302e-002
 4.5755993968e-001	 2.7623611099e+000	 1.0597055952e-001
 4.3164663677e-001	 2.7665287241e+000	 1.1474617329e-001
 4.0577456927e-001	 2.7704416614e+000	 1.2572329636e-001
 3.7994709699e-001	 2.7741016931e+000	 1.3882983981e-001
 3.5416752555e-001	 2.7775106416e+000	 1.5406911802e-001
 3.2843910574e-001	 2.7806703785e+000	 1.7151935488e-001
 3.0276503272e-001	 2.7835828235e+000	 1.9133302196e-001
 2.7714844547e-001	 2.7862499420e+000	 2.1373601470e-001
 2.5159242613e-001	 2.7886737441e+000	 2.3902667262e-001
 5.1404562308e-001	 2.7778376658e+000	 8.9310377553e-002
 4.8782812797e-001	 2.7825615389e+000	 8.7804603090e-002
 4.6164529629e-001	 2.7870250484e+000	 9.0211842215e-002
 4.3550062460e-001	 2.7912298734e+000	 9.6234794866e-002
 4.0939755650e-001	 2.7951777476e+000	 1.0565375304e-001
 3.8333948178e-001	 2.7988704582e+000	 1.1832653279e-001
 3.5732973560e-001	 2.8023098437e+000	 1.3418822095e-001
 3.3137159775e-001	 2.8054977926e+000	 1.5325074208e-001
 3.0546829194e-001	 2.8084362415e+000	 1.7560225121e-001
 2.7962298516e-001	 2.8111271736e+000	 2.0140635856e-001
 2.5383878708e-001	 2.8135726168e+000	 2.3090119246e-001
 5.1859469938e-001	 2.8024203000e+000	 8.9102817344e-002
 4.9214519105e-001	 2.8071859773e+000	 8.2643685267e-002
 4.6573065289e-001	 2.8116889869e+000	 8.1360133017e-002
 4.3935461243e-001	 2.8159310227e+000	 8.4880488549e-002
 4.1302054373e-001	 2.8199138339e+000	 9.2912489016e-002
 3.8673186658e-001	 2.8236392233e+000	 1.0524328553e-001
 3.6049194565e-001	 2.8271090459e+000	 1.2173925632e-001
 3.3430408977e-001	 2.8303252067e+000	 1.4234563373e-001
 3.0817155116e-001	 2.8332896596e+000	 1.6708595083e-001
 2.8209752485e-001	 2.8360044052e+000	 1.9606131390e-001
 2.5608514803e-001	 2.8384714896e+000	 2.2944950699e-001
 5.2314377569e-001	 2.8270029342e+000	 9.4386833260e-002
 4.9646225412e-001	 2.8318104157e+000	 8.3425681497e-002
 4.6981600950e-001	 2.8363529254e+000	 7.8825742309e-002
 4.4320860026e-001	 2.8406321720e+000	 8.0140187955e-002
 4.1664353095e-001	 2.8446499202e+000	 8.7003507096e-002
 3.9012425137e-001	 2.8484079884e+000	 9.9131582040e-002
 3.6365415570e-001	 2.8519082480e+000	 1.1632156788e-001
 3.3723658179e-001	 2.8551526208e+000	 1.3845157901e-001
 3.1087481039e-001	 2.8581430777e+000	 1.6548018895e-001
 2.8457206455e-001	 2.8608816369e+000	 1.9744574964e-001
 2.5833150898e-001	 2.8633703623e+000	 2.3446553685e-001
 5.2769285200e-001	 2.8515855684e+000	 1.0448607739e-001
 5.0077931720e-001	 2.8564348541e+000	 8.9519415470e-002
 4.7390136610e-001	 2.8610168639e+000	 8.2023145665e-002
 4.4706258809e-001	 2.8653333213e+000	 8.1474466282e-002
 4.2026651818e-001	 2.8693860064e+000	 8.7433889820e-002
 3.9351663617e-001	 2.8731767535e+000	 9.9545392454e-002
 3.6681636576e-001	 2.8767074502e+000	 1.1753635875e-001
 3.4016907380e-001	 2.8799800349e+000	 1.4121732716e-001
 3.1357806961e-001	 2.8829964957e+000	 1.7048154234e-001
 2.8704660424e-001	 2.8857588685e+000	 2.0530432055e-001
 2.6057786993e-001	 2.8882692350e+000	 2.4574223484e-001
 5.3224192831e-001	 2.8761682026e+000	 1.1872909493e-001
 5.0509638028e-001	 2.8810592925e+000	 1.0029816793e-001
 4.7798672271e-001	 2.8856808023e+000	 9.0370805860e-002
 4.5091657592e-001	 2.8900344707e+000	 8.8347380767e-002
 4.2388950541e-001	 2.8941220927e+000	 9.3713667819e-002
 3.9690902097e-001	 2.8979455187e+000	 1.0604106679e-001
 3.6997857581e-001	 2.9015066523e+000	 1.2498661197e-001
 3.4310156582e-001	 2.9048074490e+000	 1.5029277614e-001
 3.1628132883e-001	 2.9078499138e+000	 1.8178707469e-001
 2.8952114393e-001	 2.9106361001e+000	 2.1938147636e-001
 2.6282423087e-001	 2.9131681077e+000	 2.6307162733e-001
 5.3679100462e-001	 2.9007508368e+000	 1.3644911686e-001
 5.0941344336e-001	 2.9056837309e+000	 1.1513948782e-001
 4.8207207931e-001	 2.9103447408e+000	 1.0329100392e-001
 4.5477056375e-001	 2.9147356200e+000	 1.0022632507e-001
 4.2751249264e-001	 2.9188581789e+000	 1.0535569491e-001
 4.0030140576e-001	 2.9227142838e+000	 1.1817723410e-001
 3.7314078586e-001	 2.9263058545e+000	 1.3827701508e-001
 3.4603405784e-001	 2.9296348631e+000	 1.6532892398e-001
 3.1898458805e-001	 2.9327033318e+000	 1.9909431597e-001
 2.9199568362e-001	 2.9355133317e+000	 2.3942147051e-001
 2.6507059182e-001	 2.9380669804e+000	 2.8624485344e-001
 5.4134008093e-001	 2.9253334710e+000	 1.5698386307e-001
 5.1373050644e-001	 2.9303081693e+000	 1.3342501294e-001
 4.8615743592e-001	 2.9350086793e+000	 1.2020967868e-001
 4.5862455157e-001	 2.9394367693e+000	 1.1658188906e-001
 4.3113547986e-001	 2.9435942652e+000	 1.2187552945e-001
 4.0369379056e-001	 2.9474830489e+000	 1.3551470672e-001
 3.7630299591e-001	 2.9511050566e+000	 1.5701388849e-001
 3.4896654985e-001	 2.9544622771e+000	 1.8597782257e-001
 3.2168784727e-001	 2.9575567499e+000	 2.2210124286e-001
 2.9447022332e-001	 2.9603905634e+000	 2.6516836836e-001
 2.6731695277e-001	 2.9629658531e+000	 3.1505220238e-001
 5.4588915724e-001	 2.9499161052e+000	 1.7967535531e-001
 5.1804756952e-001	 2.9549326076e+000	 1.5454029957e-001
 4.9024279252e-001	 2.9596726178e+000	 1.4055627440e-001
 4.6247853940e-001	 2.9641379186e+000	 1.3688772570e-001
 4.3475846709e-001	 2.9683303514e+000	 1.4279132170e-001
 4.0708617535e-001	 2.9722518140e+000	 1.5761638928e-001
 3.7946520596e-001	 2.9759042588e+000	 1.8080511745e-001
 3.5189904187e-001	 2.9792896912e+000	 2.1189253373e-001
 3.2439110650e-001	 2.9824101680e+000	 2.5050626010e-001
 2.9694476301e-001	 2.9852677950e+000	 2.9636605501e-001
 2.6956331372e-001	 2.9878647258e+000	 3.4928314883e-001
 2.4709970424e-001	 2.7388759987e+000	 2.7611823136e-001
 2.2206249953e-001	 2.7410195633e+000	 2.6802958129e-001
 1.9709066597e-001	 2.7429282290e+000	 2.5892455308e-001
 1.7218706031e-001	 2.7446040910e+000	 2.4929831430e-001
 1.4735448172e-001	 2.7460492816e+000	 2.3971391204e-001
 1.2259567143e-001	 2.7472659684e+000	 2.3080058255e-001
 9.7913312455e-002	 2.7482563533e+000	 2.2325195049e-001
 7.3310029335e-002	 2.7490226699e+000	 2.1782412527e-001
 4.8788387970e-002	 2.7495671829e+000	 2.1533370158e-001
 2.4350895461e-002	 2.7498921859e+000	 2.1665567134e-001
 0.0000000000e+000	 2.7500000000e+000	 2.2272125455e-001
 2.4934606519e-001	 2.7637748714e+000	 2.5403101541e-001
 2.2408124953e-001	 2.7659379230e+000	 2.4629119247e-001
 1.9888239929e-001	 2.7678639402e+000	 2.3827364546e-001
 1.7375239722e-001	 2.7695550373e+000	 2.3044015596e-001
 1.4869406792e-001	 2.7710133659e+000	 2.2332210698e-001
 1.2371017754e-001	 2.7722411136e+000	 2.1751879861e-001
 9.8803433477e-002	 2.7732405019e+000	 2.1369564904e-001
 7.3976484146e-002	 2.7740137851e+000	 2.1258228861e-001
 4.9231918770e-002	 2.7745632482e+000	 2.1497055412e-001
 2.4572267237e-002	 2.7748912057e+000	 2.2171239084e-001
 0.0000000000e+000	 2.7750000000e+000	 2.3371766979e-001
 2.5159242613e-001	 2.7886737441e+000	 2.3902667262e-001
 2.2609999953e-001	 2.7908562826e+000	 2.3186867807e-001
 2.0067413262e-001	 2.7927996513e+000	 2.2509018871e-001
 1.7531773413e-001	 2.7945059836e+000	 2.1911949482e-001
 1.5003365411e-001	 2.7959774503e+000	 2.1445629393e-001
 1.2482468364e-001	 2.7972162588e+000	 2.1167001092e-001
 9.9693554498e-002	 2.7982246506e+000	 2.1139799949e-001
 7.4642938958e-002	 2.7990049003e+000	 2.1434363216e-001
 4.9675449569e-002	 2.7995593135e+000	 2.2127428679e-001
 2.4793639014e-002	 2.7998902256e+000	 2.3301923687e-001
 0.0000000000e+000	 2.8000000000e+000	 2.5046745338e-001
 2.5383878708e-001	 2.8135726168e+000	 2.3090119246e-001
 2.2811874952e-001	 2.8157746423e+000	 2.2458970489e-001
 2.0246586595e-001	 2.8177353625e+000	 2.1923378070e-001
 1.7688307104e-001	 2.8194569298e+000	 2.1522809087e-001
 1.5137324031e-001	 2.8209415347e+000	 2.1304060379e-001
 1.2593918974e-001	 2.8221914039e+000	 2.1321090857e-001
 1.0058367552e-001	 2.8232087993e+000	 2.1634841525e-001
 7.5309393769e-002	 2.8239960154e+000	 2.2313043941e-001
 5.0118980368e-002	 2.8245553788e+000	 2.3430017907e-001
 2.5015010790e-002	 2.8248892455e+000	 2.5066459152e-001
 0.0000000000e+000	 2.8250000000e+000	 2.7309217799e-001
 2.5608514803e-001	 2.8384714896e+000	 2.2944950699e-001
 2.3013749952e-001	 2.8406930020e+000	 2.2428070199e-001
 2.0425759927e-001	 2.8426710737e+000	 2.2056256893e-001
 1.7844840795e-001	 2.8444078761e+000	 2.1865600909e-001
 1.5271282651e-001	 2.8459056191e+000	 2.1899719633e-001
 1.2705369585e-001	 2.8471665491e+000	 2.2209590218e-001
 1.0147379654e-001	 2.8481929479e+000	 2.2853369337e-001
 7.5975848581e-002	 2.8489871306e+000	 2.3896200935e-001
 5.0562511167e-002	 2.8495514441e+000	 2.5410012799e-001
 2.5236382567e-002	 2.8498882654e+000	 2.7473302721e-001
 0.0000000000e+000	 2.8500000000e+000	 3.0170915059e-001
 2.5833150898e-001	 2.8633703623e+000	 2.3446553685e-001
 2.3215624951e-001	 2.8656113616e+000	 2.3076691459e-001
 2.0604933260e-001	 2.8676067849e+000	 2.2893331360e-001
 1.8001374486e-001	 2.8693588224e+000	 2.2929169317e-001
 1.5405241270e-001	 2.8708697034e+000	 2.3224634585e-001
 1.2816820195e-001	 2.8721416943e+000	 2.3827722304e-001
 1.0236391756e-001	 2.8731770966e+000	 2.4793812826e-001
 7.6642303392e-002	 2.8739782458e+000	 2.6185478615e-001
 5.1006041966e-002	 2.8745475094e+000	 2.8072279517e-001
 2.5457754343e-002	 2.8748872852e+000	 3.0530547232e-001
 0.0000000000e+000	 2.8750000000e+000	 3.3643159791e-001
 2.6057786993e-001	 2.8882692350e+000	 2.4574223484e-001
 2.3417499951e-001	 2.8905297213e+000	 2.4387245501e-001
 2.0784106593e-001	 2.8925424960e+000	 2.4420144740e-001
 1.8157908178e-001	 2.8943097687e+000	 2.4702203539e-001
 1.5539199890e-001	 2.8958337878e+000	 2.5270652247e-001
 1.2928270805e-001	 2.8971168394e+000	 2.6170501697e-001
 1.0325403858e-001	 2.8981612453e+000	 2.7454361961e-001
 7.7308758203e-002	 2.8989693610e+000	 2.9182248230e-001
 5.1449572765e-002	 2.8995435747e+000	 3.1421374631e-001
 2.5679126120e-002	 2.8998863051e+000	 3.4245936828e-001
 0.0000000000e+000	 2.9000000000e+000	 3.7736884230e-001
 2.6282423087e-001	 2.9131681077e+000	 2.6307162733e-001
 2.3619374951e-001	 2.9154480810e+000	 2.6342035117e-001
 2.0963279925e-001	 2.9174782072e+000	 2.6622113225e-001
 1.8314441869e-001	 2.9192607150e+000	 2.7173244289e-001
 1.5673158510e-001	 2.9207978722e+000	 2.8029446921e-001
 1.3039721416e-001	 2.9220919846e+000	 2.9232743350e-001
 1.0414415961e-001	 2.9231453939e+000	 3.0832977467e-001
 7.7975213015e-002	 2.9239604762e+000	 3.2887619527e-001
 5.1893103565e-002	 2.9245396400e+000	 3.5461558346e-001
 2.5900497897e-002	 2.9248853250e+000	 3.8626881855e-001
 0.0000000000e+000	 2.9250000000e+000	 4.2462646860e-001
 2.6507059182e-001	 2.9380669804e+000	 2.8624485344e-001
 2.3821249950e-001	 2.9403664406e+000	 2.8923259246e-001
 2.1142453258e-001	 2.9424139184e+000	 2.9484531310e-001
 1.8470975560e-001	 2.9442116612e+000	 3.0330690064e-001
 1.5807117129e-001	 2.9457619566e+000	 3.1492527520e-001
 1.3151172026e-001	 2.9470671298e+000	 3.3009071044e-001
 1.0503428063e-001	 2.9481295426e+000	 3.4927400544e-001
 7.8641667826e-002	 2.9489515913e+000	 3.7302451837e-001
 5.2336634364e-002	 2.9495357053e+000	 4.0196807061e-001
 2.6121869673e-002	 2.9498843448e+000	 4.3680473008e-001
 0.0000000000e+000	 2.9500000000e+000	 4.7830648250e-001
 2.6731695277e-001	 2.9629658531e+000	 3.1505220238e-001
 2.4023124950e-001	 2.9652848003e+000	 3.2113017342e-001
 2.1321626591e-001	 2.9673496295e+000	 3.2992576915e-001
 1.8627509251e-001	 2.9691626075e+000	 3.4162803120e-001
 1.5941075749e-001	 2.9707260410e+000	 3.5651244515e-001
 1.3262622636e-001	 2.9720422749e+000	 3.7493925418e-001
 1.0592440165e-001	 2.9731136913e+000	 3.9735162086e-001
 7.9308122638e-002	 2.9739427065e+000	 4.2427364594e-001
 5.2780165163e-002	 2.9745317706e+000	 4.5630825297e-001
 2.6343241450e-002	 2.9748833647e+000	 4.9413494763e-001
 0.0000000000e+000	 2.9750000000e+000	 5.3850746094e-001
 2.6956331372e-001	 2.9878647258e+000	 3.4928314883e-001
 2.4224999949e-001	 2.9902031599e+000	 3.5893313521e-001
 2.1500799923e-001	 2.9922853407e+000	 3.7131316233e-001
 1.8784042942e-001	 2.9941135538e+000	 3.8657715143e-001
 1.6075034369e-001	 2.9956901253e+000	 4.0496796539e-001
 1.3374073246e-001	 2.9970174201e+000	 4.2681571605e-001
 1.0681452267e-001	 2.9980978399e+000	 4.5253591449e-001
 7.9974577449e-002	 2.9989338217e+000	 4.8262747333e-001
 5.3223695962e-002	 2.9995278359e+000	 5.1767057018e-001
 2.6564613226e-002	 2.9998823846e+000	 5.5832438134e-001
 0.0000000000e+000	 3.0000000000e+000	 6.0532469495e-001
 3.0000000000e+000	 0.0000000000e+000	 9.1330327672e-001
 2.9998823846e+000	 2.6564613226e-002	 9.7703028319e-001
 2.9995278359e+000	 5.3223695962e-002	 1.0325355818e+000
 2.9989338217e+000	 7.9974577449e-002	 1.0803732613e+000
 2.9980978399e+000	 1.0681452267e-001	 1.1210392439e+000
 2.9970174201e+000	 1.3374073246e-001	 1.1549687065e+000
 2.9956901253e+000	 1.6075034369e-001	 1.1825335607e+000
 2.9941135538e+000	 1.8784042942e-001	 1.2040399977e+000
 2.9922853407e+000	 2.1500799923e-001	 1.2197261087e+000
 2.9902031599e+000	 2.4224999949e-001	 1.2297595867e+000
 2.9878647258e+000	 2.6956331372e-001	 1.2342355186e+000
 3.0250000000e+000	 0.0000000000e+000	 1.1763848121e+000
 3.0248814045e+000	 2.6785985003e-002	 1.2095384541e+000
 3.0245239012e+000	 5.3667226761e-002	 1.2359123073e+000
 3.0239249369e+000	 8.0641032261e-002	 1.2560831514e+000
 3.0230819886e+000	 1.0770464369e-001	 1.2705672586e+000
 3.0219925653e+000	 1.3485523857e-001	 1.2798177269e+000
 3.0206542097e+000	 1.6208992988e-001	 1.2842218743e+000
 3.0190645001e+000	 1.8940576633e-001	 1.2840987006e+000
 3.0172210519e+000	 2.1679973256e-001	 1.2796964264e+000
 3.0151215196e+000	 2.4426874949e-001	 1.2711901158e+000
 3.0127635985e+000	 2.7180967467e-001	 1.2586793941e+000
 3.0500000000e+000	 0.0000000000e+000	 1.4406666011e+000
 3.0498804243e+000	 2.7007356780e-002	 1.4426936520e+000
 3.0495199665e+000	 5.4110757560e-002	 1.4394275098e+000
 3.0489160521e+000	 8.1307487072e-002	 1.4314682254e+000
 3.0480661373e+000	 1.0859476471e-001	 1.4193529528e+000
 3.0469677104e+000	 1.3596974467e-001	 1.4035531935e+000
 3.0456182941e+000	 1.6342951608e-001	 1.3844721026e+000
 3.0440154464e+000	 1.9097110324e-001	 1.3624418658e+000
 3.0421567631e+000	 2.1859146589e-001	 1.3377211550e+000
 3.0400398793e+000	 2.4628749948e-001	 1.3104926716e+000
 3.0376624713e+000	 2.7405603562e-001	 1.2808607862e+000
 3.0750000000e+000	 0.0000000000e+000	 1.7061055404e+000
 3.0748794442e+000	 2.7228728556e-002	 1.6764588822e+000
 3.0745160318e+000	 5.4554288360e-002	 1.6430508924e+000
 3.0739071672e+000	 8.1973941883e-002	 1.6065054762e+000
 3.0730502859e+000	 1.0948488573e-001	 1.5673812042e+000
 3.0719428556e+000	 1.3708425077e-001	 1.5261684653e+000
 3.0705823785e+000	 1.6476910228e-001	 1.4832866838e+000
 3.0689663926e+000	 1.9253644015e-001	 1.4390816093e+000
 3.0670924742e+000	 2.2038319921e-001	 1.3938226878e+000
 3.0649582389e+000	 2.4830624948e-001	 1.3477005228e+000
 3.0625613440e+000	 2.7630239656e-001	 1.3008244370e+000
 3.1000000000e+000	 0.0000000000e+000	 1.9726599172e+000
 3.0998784641e+000	 2.7450100333e-002	 1.9107984082e+000
 3.0995120971e+000	 5.4997819159e-002	 1.8467532833e+000
 3.0988982824e+000	 8.2640396694e-002	 1.7811728883e+000
 3.0980344346e+000	 1.1037500676e-001	 1.7146377473e+000
 3.0969180008e+000	 1.3819875688e-001	 1.6476576229e+000
 3.0955464628e+000	 1.6610868847e-001	 1.5806686422e+000
 3.0939173389e+000	 1.9410177707e-001	 1.5140304977e+000
 3.0920281854e+000	 2.2217493254e-001	 1.4480237320e+000
 3.0898765986e+000	 2.5032499947e-001	 1.3828471158e+000
 3.0874602167e+000	 2.7854875751e-001	 1.3186151288e+000
 3.1250000000e+000	 0.0000000000e+000	 2.2402893532e+000
 3.1248774839e+000	 2.7671472109e-002	 2.1456777011e+000
 3.1245081624e+000	 5.5441349958e-002	 2.0505065907e+000
 3.1238893976e+000	 8.3306851506e-002	 1.9554493976e+000
 3.1230185833e+000	 1.1126512778e-001	 1.8611091392e+000
 3.1218931460e+000	 1.3931326298e-001	 1.7680154403e+000
 3.1205105472e+000	 1.6744827467e-001	 1.6766215656e+000
 3.1188682852e+000	 1.9566711398e-001	 1.5873015302e+000
 3.1169638966e+000	 2.2396666586e-001	 1.5003472965e+000
 3.1147949583e+000	 2.5234374947e-001	 1.4159660669e+000
 3.1123590894e+000	 2.8079511845e-001	 1.3342776823e+000
 3.1500000000e+000	 0.0000000000e+000	 1.9366248566e+000
 3.1498765038e+000	 2.7892843886e-002	 1.8736050003e+000
 3.1495042277e+000	 5.5884880757e-002	 1.8129516315e+000
 3.1488805128e+000	 8.3973306317e-002	 1.7537099571e+000
 3.1480027319e+000	 1.1215524880e-001	 1.6949914548e+000
 3.1468682911e+000	 1.4042776908e-001	 1.6359769516e+000
 3.1454746316e+000	 1.6878786087e-001	 1.5759196380e+000
 3.1438192315e+000	 1.9723245089e-001	 1.5141480113e+000
 3.1418996077e+000	 2.2575839919e-001	 1.4500687370e+000
 3.1397133179e+000	 2.5436249946e-001	 1.3831694198e+000
 3.1372579621e+000	 2.8304147940e-001	 1.3130212754e+000
 3.1750000000e+000	 0.0000000000e+000	 1.6362804751e+000
 3.1748755237e+000	 2.8114215663e-002	 1.6025249630e+000
 3.1745002930e+000	 5.6328411556e-002	 1.5701400086e+000
 3.1738716280e+000	 8.4639761128e-002	 1.5381437657e+000
 3.1729868806e+000	 1.1304536982e-001	 1.5056227845e+000
 3.1718434363e+000	 1.4154227518e-001	 1.4717351753e+000
 3.1704387160e+000	 1.7012744706e-001	 1.4357137065e+000
 3.1687701778e+000	 1.9879778780e-001	 1.3968688285e+000
 3.1668353189e+000	 2.2755013251e-001	 1.3545916140e+000
 3.1646316776e+000	 2.5638124945e-001	 1.3083566053e+000
 3.1621568348e+000	 2.8528784035e-001	 1.2577245598e+000
 3.2000000000e+000	 0.0000000000e+000	 1.3392195272e+000
 3.1998745436e+000	 2.8335587439e-002	 1.3349062803e+000
 3.1994963583e+000	 5.6771942355e-002	 1.3309261094e+000
 3.1988627432e+000	 8.5306215939e-002	 1.3262697942e+000
 3.1979710292e+000	 1.1393549084e-001	 1.3199986867e+000
 3.1968185815e+000	 1.4265678129e-001	 1.3112479610e+000
 3.1954028003e+000	 1.7146703326e-001	 1.2992297964e+000
 3.1937211241e+000	 2.0036312471e-001	 1.2832364834e+000
 3.1917710301e+000	 2.2934186584e-001	 1.2626434449e+000
 3.1895500373e+000	 2.5839999945e-001	 1.2369121607e+000
 3.1870557075e+000	 2.8753420129e-001	 1.2055929877e+000
 3.2250000000e+000	 0.0000000000e+000	 1.0454064687e+000
 3.2248735634e+000	 2.8556959216e-002	 1.0707120306e+000
 3.2244924236e+000	 5.7215473154e-002	 1.0952711218e+000
 3.2238538583e+000	 8.5972670750e-002	 1.1180468243e+000
 3.2229551779e+000	 1.1482561186e-001	 1.1380750179e+000
 3.2217937266e+000	 1.4377128739e-001	 1.1544677182e+000
 3.2203668847e+000	 1.7280661945e-001	 1.1664163463e+000
 3.2186720703e+000	 2.0192846161e-001	 1.1731949190e+000
 3.2167067413e+000	 2.3113359916e-001	 1.1741631513e+000
 3.2144683969e+000	 2.6041874944e-001	 1.1687694599e+000
 3.2119545803e+000	 2.8978056223e-001	 1.1565538594e+000
 3.2500000000e+000	 0.0000000000e+000	 7.5480684896e-001
 3.2498725833e+000	 2.8778330992e-002	 8.0990628175e-001
 3.2494884889e+000	 5.7659003953e-002	 8.6313711913e-001
 3.2488449735e+000	 8.6639125561e-002	 9.1343441773e-001
 3.2479393266e+000	 1.1571573288e-001	 9.5980830832e-001
 3.2467688718e+000	 1.4488579349e-001	 1.0013474238e+000
 3.2453309691e+000	 1.7414620565e-001	 1.0372222561e+000
 3.2436230166e+000	 2.0349379852e-001	 1.0666884328e+000
 3.2416424524e+000	 2.3292533249e-001	 1.0890899019e+000
 3.2393867566e+000	 2.6243749943e-001	 1.1038620163e+000
 3.2368534530e+000	 2.9202692318e-001	 1.1105345068e+000
 2.9878647258e+000	 2.6956331372e-001	 1.2342355186e+000
 2.9852677950e+000	 2.9694476301e-001	 1.2584914025e+000
 2.9824101680e+000	 3.2439110650e-001	 1.2761391218e+000
 2.9792896912e+000	 3.5189904187e-001	 1.2870085423e+000
 2.9759042588e+000	 3.7946520596e-001	 1.2908494420e+000
 2.9722518140e+000	 4.0708617535e-001	 1.2873299196e+000
 2.9683303514e+000	 4.3475846709e-001	 1.2760349437e+000
 2.9641379186e+000	 4.6247853940e-001	 1.2564650504e+000
 2.9596726178e+000	 4.9024279252e-001	 1.2280351977e+000
 2.9549326076e+000	 5.1804756952e-001	 1.1900737844e+000
 2.9499161052e+000	 5.4588915724e-001	 1.1418218405e+000
 3.0127635985e+000	 2.7180967467e-001	 1.2586793941e+000
 3.0101450266e+000	 2.9941930270e-001	 1.2669888084e+000
 3.0072635860e+000	 3.2709436572e-001	 1.2705793543e+000
 3.0041171053e+000	 3.5483153389e-001	 1.2692826823e+000
 3.0007034609e+000	 3.8262741601e-001	 1.2628470834e+000
 2.9970205791e+000	 4.1047856015e-001	 1.2509358309e+000
 2.9930664377e+000	 4.3838145432e-001	 1.2331256673e+000
 2.9888390679e+000	 4.6633252723e-001	 1.2089054446e+000
 2.9843365562e+000	 4.9432814913e-001	 1.1776749262e+000
 2.9795570460e+000	 5.2236463260e-001	 1.1387437579e+000
 2.9744987394e+000	 5.5043823355e-001	 1.0913306168e+000
 3.0376624713e+000	 2.7405603562e-001	 1.2808607862e+000
 3.0350222582e+000	 3.0189384239e-001	 1.2732390637e+000
 3.0321170041e+000	 3.2979762494e-001	 1.2628306930e+000
 3.0289445194e+000	 3.5776402590e-001	 1.2494690433e+000
 3.0255026631e+000	 3.8578962606e-001	 1.2329007903e+000
 3.0217893442e+000	 4.1387094494e-001	 1.2127841901e+000
 3.0178025240e+000	 4.4200444154e-001	 1.1886875027e+000
 3.0135402172e+000	 4.7018651506e-001	 1.1600875739e+000
 3.0090004947e+000	 4.9841350573e-001	 1.1263685833e+000
 3.0041814844e+000	 5.2668169568e-001	 1.0868209682e+000
 2.9990813737e+000	 5.5498730986e-001	 1.0406405290e+000
 3.0625613440e+000	 2.7630239656e-001	 1.3008244370e+000
 3.0598994898e+000	 3.0436838209e-001	 1.2772964962e+000
 3.0569704222e+000	 3.3250088416e-001	 1.2529577711e+000
 3.0537719335e+000	 3.6069651792e-001	 1.2276432830e+000
 3.0503018652e+000	 3.8895183611e-001	 1.2010979625e+000
 3.0465581093e+000	 4.1726332974e-001	 1.1729748541e+000
 3.0425386102e+000	 4.4562742877e-001	 1.1428334758e+000
 3.0382413666e+000	 4.7404050289e-001	 1.1101383410e+000
 3.0336644332e+000	 5.0249886233e-001	 1.0742576528e+000
 3.0288059228e+000	 5.3099875876e-001	 1.0344621781e+000
 3.0236640079e+000	 5.5953638617e-001	 9.8992431015e-001
 3.0874602167e+000	 2.7854875751e-001	 1.3186151288e+000
 3.0847767215e+000	 3.0684292178e-001	 1.2792154163e+000
 3.0818238402e+000	 3.3520414338e-001	 1.2410251429e+000
 3.0785993476e+000	 3.6362900993e-001	 1.2038809144e+000
 3.0751010674e+000	 3.9211404616e-001	 1.1675257845e+000
 3.0713268744e+000	 4.2065571453e-001	 1.1316073898e+000
 3.0672746965e+000	 4.4925041599e-001	 1.0956762433e+000
 3.0629425159e+000	 4.7789449072e-001	 1.0591841966e+000
 3.0583283717e+000	 5.0658421894e-001	 1.0214830781e+000
 3.0534303612e+000	 5.3531582184e-001	 9.8182351744e-001
 3.0482466421e+000	 5.6408546248e-001	 9.3935396447e-001
 3.1123590894e+000	 2.8079511845e-001	 1.3342776823e+000
 3.1096539531e+000	 3.0931746147e-001	 1.2790501182e+000
 3.1066772583e+000	 3.3790740260e-001	 1.2270972874e+000
 3.1034267617e+000	 3.6656150195e-001	 1.1782573115e+000
 3.0999002695e+000	 3.9527625621e-001	 1.1322712344e+000
 3.0960956396e+000	 4.2404809933e-001	 1.0887810858e+000
 3.0920107827e+000	 4.5287340322e-001	 1.0473281082e+000
 3.0876436652e+000	 4.8174847854e-001	 1.0073511572e+000
 3.0829923102e+000	 5.1066957554e-001	 9.6818528400e-001
 3.0780547996e+000	 5.3963288491e-001	 9.2906050913e-001
 3.0728292763e+000	 5.6863453879e-001	 8.8910079605e-001
 3.1372579621e+000	 2.8304147940e-001	 1.3130212754e+000
 3.1345311847e+000	 3.1179200116e-001	 1.2629901483e+000
 3.1315306764e+000	 3.4061066182e-001	 1.2100388777e+000
 3.1282541758e+000	 3.6949399396e-001	 1.1540049229e+000
 3.1246994717e+000	 3.9843846626e-001	 1.0954210920e+000
 3.1208644047e+000	 4.2744048412e-001	 1.0445949637e+000
 3.1167468690e+000	 4.5649639044e-001	 9.9790103291e-001
 3.1123448145e+000	 4.8560246637e-001	 9.5476482189e-001
 3.1076562486e+000	 5.1475493214e-001	 9.1450419741e-001
 3.1026792380e+000	 5.4394994799e-001	 8.7632809292e-001
 3.0974119105e+000	 5.7318361510e-001	 8.3933543682e-001
 3.1621568348e+000	 2.8528784035e-001	 1.2577245598e+000
 3.1594084163e+000	 3.1426654084e-001	 1.2261141836e+000
 3.1563840944e+000	 3.4331392104e-001	 1.1907292100e+000
 3.1530815899e+000	 3.7242648597e-001	 1.1514105208e+000
 3.1494986739e+000	 4.0160067630e-001	 1.1080940965e+000
 3.1456331698e+000	 4.3083286891e-001	 1.0608130822e+000
 3.1414829553e+000	 4.6011937766e-001	 1.0096996941e+000
 3.1370459638e+000	 4.8945645420e-001	 9.5498695899e-001
 3.1323201871e+000	 5.1884028875e-001	 8.9701027681e-001
 3.1273036764e+000	 5.4826701107e-001	 8.3620879754e-001
 3.1219945447e+000	 5.7773269141e-001	 7.9022787295e-001
 3.1870557075e+000	 2.8753420129e-001	 1.2055929877e+000
 3.1842856480e+000	 3.1674108053e-001	 1.1922456717e+000
 3.1812375125e+000	 3.4601718025e-001	 1.1742224741e+000
 3.1779090040e+000	 3.7535897799e-001	 1.1513678616e+000
 3.1742978760e+000	 4.0476288635e-001	 1.1236241667e+000
 3.1704019349e+000	 4.3422525370e-001	 1.0910337005e+000
 3.1662190415e+000	 4.6374236489e-001	 1.0537407034e+000
 3.1617471132e+000	 4.9331044202e-001	 1.0119931225e+000
 3.1569841256e+000	 5.2292564535e-001	 9.6614420804e-001
 3.1519281148e+000	 5.5258407415e-001	 9.1665391882e-001
 3.1465771789e+000	 5.8228176772e-001	 8.6409012894e-001
 3.2119545803e+000	 2.8978056223e-001	 1.1565538594e+000
 3.2091628796e+000	 3.1921562022e-001	 1.1613032659e+000
 3.2060909306e+000	 3.4872043947e-001	 1.1604282568e+000
 3.2027364181e+000	 3.7829147000e-001	 1.1537770500e+000
 3.1990970782e+000	 4.0792509639e-001	 1.1412985604e+000
 3.1951707000e+000	 4.3761763849e-001	 1.1230445622e+000
 3.1909551278e+000	 4.6736535211e-001	 1.0991716829e+000
 3.1864482625e+000	 4.9716442985e-001	 1.0699432204e+000
 3.1816480641e+000	 5.2701100195e-001	 1.0357307741e+000
 3.1765525532e+000	 5.5690113723e-001	 9.9701567922e-001
 3.1711598131e+000	 5.8683084403e-001	 9.5439023773e-001
 3.2368534530e+000	 2.9202692318e-001	 1.1105345068e+000
 3.2340401112e+000	 3.2169015991e-001	 1.1332056061e+000
 3.2309443486e+000	 3.5142369869e-001	 1.1492560832e+000
 3.2275638322e+000	 3.8122396201e-001	 1.1585380766e+000
 3.2238962803e+000	 4.1108730644e-001	 1.1610073193e+000
 3.2199394651e+000	 4.4101002328e-001	 1.1567253497e+000
 3.2156912140e+000	 4.7098833933e-001	 1.1458615509e+000
 3.2111494118e+000	 5.0101841767e-001	 1.1286950086e+000
 3.2063120026e+000	 5.3109635855e-001	 1.1056161764e+000
 3.2011769916e+000	 5.6121820030e-001	 1.0771283413e+000
 3.1957424473e+000	 5.9137992034e-001	 1.0438488775e+000
 2.9499161052e+000	 5.4588915724e-001	 1.1418218405e+000
 2.9446213876e+000	 5.7376378727e-001	 1.1269007242e+000
 2.9390467935e+000	 6.0166763694e-001	 1.1143606628e+000
 2.9331907253e+000	 6.2959683048e-001	 1.1001320809e+000
 2.9270516504e+000	 6.5754744009e-001	 1.0677055908e+000
 2.9206281031e+000	 6.8551548720e-001	 1.0307827777e+000
 2.9139186865e+000	 7.1349694372e-001	 9.8940793665e-001
 2.9069220735e+000	 7.4148773336e-001	 9.4362976988e-001
 2.8996370091e+000	 7.6948373301e-001	 8.9350123069e-001
 2.8920623117e+000	 7.9748077418e-001	 8.3907935762e-001
 2.8841968746e+000	 8.2547464451e-001	 7.8042509842e-001
 2.9744987394e+000	 5.5043823355e-001	 1.0913306168e+000
 2.9691598992e+000	 5.7854515216e-001	 1.0785981880e+000
 2.9635388501e+000	 6.0668153392e-001	 1.0699698730e+000
 2.9576339813e+000	 6.3484347073e-001	 1.0568775270e+000
 2.9514437475e+000	 6.6302700209e-001	 1.0276043016e+000
 2.9449666706e+000	 6.9122811626e-001	 9.9413098754e-001
 2.9382013422e+000	 7.1944275158e-001	 9.5650991183e-001
 2.9311464241e+000	 7.4766679780e-001	 9.1479765581e-001
 2.9238006509e+000	 7.7589609745e-001	 8.6905488362e-001
 2.9161628310e+000	 8.0412644730e-001	 8.1934616032e-001
 2.9082318485e+000	 8.3235359987e-001	 7.6573975981e-001
 2.9990813737e+000	 5.5498730986e-001	 1.0406405290e+000
 2.9936984107e+000	 5.8332651705e-001	 1.0307418792e+000
 2.9880309068e+000	 6.1169543089e-001	 1.0267108551e+000
 2.9820772374e+000	 6.4009011098e-001	 1.0142867411e+000
 2.9758358445e+000	 6.6850656409e-001	 9.8815071283e-001
 2.9693052382e+000	 6.9694074532e-001	 9.5810669514e-001
 2.9624839979e+000	 7.2538855945e-001	 9.2421510916e-001
 2.9553707747e+000	 7.5384586224e-001	 8.8654048041e-001
 2.9479642926e+000	 7.8230846189e-001	 8.4515125147e-001
 2.9402633502e+000	 8.1077212041e-001	 8.0011958399e-001
 2.9322668225e+000	 8.3923255524e-001	 7.5152115042e-001
 3.0236640079e+000	 5.5953638617e-001	 9.8992431015e-001
 3.0182369223e+000	 5.8810788194e-001	 9.8351603562e-001
 3.0125229634e+000	 6.1670932786e-001	 9.8478000147e-001
 3.0065204934e+000	 6.4533675123e-001	 9.7232063798e-001
 3.0002279416e+000	 6.7398612608e-001	 9.4930159320e-001
 2.9936438057e+000	 7.0265337437e-001	 9.2266264926e-001
 2.9867666536e+000	 7.3133436731e-001	 8.9247238721e-001
 2.9795951253e+000	 7.6002492669e-001	 8.5880334525e-001
 2.9721279343e+000	 7.8872082633e-001	 8.2173181537e-001
 2.9643638695e+000	 8.1741779353e-001	 7.8133762924e-001
 2.9563017964e+000	 8.4611151061e-001	 7.3770393362e-001
 3.0482466421e+000	 5.6408546248e-001	 9.3935396447e-001
 3.0427754338e+000	 5.9288924684e-001	 9.3710423099e-001
 3.0370150200e+000	 6.2172322484e-001	 9.4437310172e-001
 3.0309637495e+000	 6.5058339149e-001	 9.3093958812e-001
 3.0246200387e+000	 6.7946568808e-001	 9.1101322134e-001
 3.0179823732e+000	 7.0836600343e-001	 8.8775115931e-001
 3.0110493093e+000	 7.3728017517e-001	 8.6123021220e-001
 3.0038194759e+000	 7.6620399113e-001	 8.3153100271e-001
 2.9962915761e+000	 7.9513319077e-001	 7.9873774661e-001
 2.9884643887e+000	 8.2406346665e-001	 7.6293802233e-001
 2.9803367704e+000	 8.5299046598e-001	 7.2422252994e-001
 3.0728292763e+000	 5.6863453879e-001	 8.8910079605e-001
 3.0673139454e+000	 5.9767061173e-001	 8.9168940160e-001
 3.0615070766e+000	 6.2673712181e-001	 9.0382899716e-001
 3.0554070055e+000	 6.5583003174e-001	 8.9010343925e-001
 3.0490121358e+000	 6.8494525008e-001	 8.7324140542e-001
 3.0423209407e+000	 7.1407863249e-001	 8.5332411293e-001
 3.0353319650e+000	 7.4322598304e-001	 8.3043667364e-001
 3.0280438265e+000	 7.7238305558e-001	 8.0466786993e-001
 3.0204552178e+000	 8.0154555521e-001	 7.7610991903e-001
 3.0125649080e+000	 8.3070913976e-001	 7.4485822613e-001
 3.0043717443e+000	 8.5986942135e-001	 7.1101112682e-001
 3.0974119105e+000	 5.7318361510e-001	 8.3933543682e-001
 3.0918524570e+000	 6.0245197662e-001	 8.4745387154e-001
 3.0859991332e+000	 6.3175101878e-001	 8.6073338056e-001
 3.0798502615e+000	 6.6107667200e-001	 8.4977153717e-001
 3.0734042329e+000	 6.9042481209e-001	 8.3594150183e-001
 3.0666595083e+000	 7.1979126155e-001	 8.1933299270e-001
 3.0596146208e+000	 7.4917179090e-001	 8.0003949928e-001
 3.0522681771e+000	 7.7856212002e-001	 7.7815804213e-001
 3.0446188595e+000	 8.0795791965e-001	 7.5378892083e-001
 3.0366654273e+000	 8.3735481288e-001	 7.2703545057e-001
 3.0284067183e+000	 8.6674837673e-001	 6.9800368785e-001
 3.1219945447e+000	 5.7773269141e-001	 7.9022787295e-001
 3.1163909685e+000	 6.0723334152e-001	 8.0457937678e-001
 3.1104911898e+000	 6.3676491576e-001	 8.1813353428e-001
 3.1042935176e+000	 6.6632331225e-001	 8.0990274553e-001
 3.0977963300e+000	 6.9590437409e-001	 7.9906843293e-001
 3.0909980758e+000	 7.2550389062e-001	 7.8572889212e-001
 3.0838972765e+000	 7.5511759877e-001	 7.6998606940e-001
 3.0764925277e+000	 7.8474118447e-001	 7.5194530526e-001
 3.0687825013e+000	 8.1437028410e-001	 7.3171506579e-001
 3.0607659465e+000	 8.4400048600e-001	 7.0940666259e-001
 3.0524416922e+000	 8.7362733210e-001	 6.8513396158e-001
 3.1465771789e+000	 5.8228176772e-001	 8.6409012894e-001
 3.1409294801e+000	 6.1201470641e-001	 8.5577274359e-001
 3.1349832464e+000	 6.4177881273e-001	 8.3442162966e-001
 3.1287367736e+000	 6.7156995251e-001	 7.9244193226e-001
 3.1221884270e+000	 7.0138393609e-001	 7.6257670405e-001
 3.1153366433e+000	 7.3121651968e-001	 7.5246253076e-001
 3.1081799322e+000	 7.6106340663e-001	 7.4022343033e-001
 3.1007168783e+000	 7.9092024892e-001	 7.2597314812e-001
 3.0929461430e+000	 8.2078264854e-001	 7.0982840404e-001
 3.0848664658e+000	 8.5064615913e-001	 6.9190859564e-001
 3.0764766662e+000	 8.8050628747e-001	 6.7233548992e-001
 3.1711598131e+000	 5.8683084403e-001	 9.5439023773e-001
 3.1654679917e+000	 6.1679607131e-001	 9.5632335400e-001
 3.1594753030e+000	 6.4679270971e-001	 9.3383487071e-001
 3.1531800297e+000	 6.7681659276e-001	 8.9547333638e-001
 3.1465805241e+000	 7.0686349809e-001	 8.5272808972e-001
 3.1396752108e+000	 7.3692914874e-001	 8.0575625069e-001
 3.1324625879e+000	 7.6700921450e-001	 7.5473004791e-001
 3.1249412290e+000	 7.9709931337e-001	 7.0018477383e-001
 3.1171097848e+000	 8.2719501299e-001	 6.8806873223e-001
 3.1089669851e+000	 8.5729183225e-001	 6.7447775874e-001
 3.1005116401e+000	 8.8738524285e-001	 6.5954161616e-001
 3.1957424473e+000	 5.9137992034e-001	 1.0438488775e+000
 3.1900065032e+000	 6.2157743620e-001	 1.0555706919e+000
 3.1839673596e+000	 6.5180660668e-001	 1.0305517087e+000
 3.1776232857e+000	 6.8206323302e-001	 9.9591757584e-001
 3.1709726212e+000	 7.1234306010e-001	 9.5701215889e-001
 3.1640137784e+000	 7.4264177780e-001	 9.1399700938e-001
 3.1567452436e+000	 7.7295502237e-001	 8.6704898201e-001
 3.1491655796e+000	 8.0327837781e-001	 8.1636041606e-001
 3.1412734265e+000	 8.3360737744e-001	 7.6213929126e-001
 3.1330675043e+000	 8.6393750537e-001	 7.0460935699e-001
 3.1245466141e+000	 8.9426419823e-001	 6.4668549259e-001
 2.8841968746e+000	 8.2547464451e-001	 7.8042509842e-001
 2.8760396675e+000	 8.5346108929e-001	 7.3387561515e-001
 2.8675897383e+000	 8.8143581311e-001	 6.8706637755e-001
 2.8588462143e+000	 9.0939448149e-001	 6.4001343505e-001
 2.8498083036e+000	 9.3733272262e-001	 5.9273170206e-001
 2.8404752965e+000	 9.6524612913e-001	 5.4523472849e-001
 2.8308465672e+000	 9.9313025989e-001	 4.9753446821e-001
 2.8209215744e+000	 1.0209806419e+000	 4.4964104600e-001
 2.8106998632e+000	 1.0487927723e+000	 4.0156252367e-001
 2.8001810658e+000	 1.0765621202e+000	 3.5330466621e-001
 2.7893649032e+000	 1.1042841287e+000	 3.0487070856e-001
 2.9082318485e+000	 8.3235359987e-001	 7.6573975981e-001
 2.9000066647e+000	 8.6057326503e-001	 7.2208658151e-001
 2.8914863195e+000	 8.8878111155e-001	 6.7780595920e-001
 2.8826699328e+000	 9.1697276883e-001	 6.3292373809e-001
 2.8735567061e+000	 9.4514382864e-001	 5.8746504127e-001
 2.8641459240e+000	 9.7328984687e-001	 5.4145403117e-001
 2.8544369552e+000	 1.0014063454e+000	 4.9491366828e-001
 2.8444292542e+000	 1.0294888139e+000	 4.4786546763e-001
 2.8341223620e+000	 1.0575327121e+000	 4.0032925394e-001
 2.8235159081e+000	 1.0855334712e+000	 3.5232291599e-001
 2.8126096107e+000	 1.1134864964e+000	 3.0386216112e-001
 2.9322668225e+000	 8.3923255524e-001	 7.5152115042e-001
 2.9239736620e+000	 8.6768544077e-001	 7.1095494445e-001
 2.9153829006e+000	 8.9612640999e-001	 6.6940221886e-001
 2.9064936512e+000	 9.2455105618e-001	 6.2689867577e-001
 2.8973051086e+000	 9.5295493466e-001	 5.8347970226e-001
 2.8878165515e+000	 9.8133356461e-001	 5.3918012265e-001
 2.8780273433e+000	 1.0096824309e+000	 4.9403394708e-001
 2.8679369340e+000	 1.0379969859e+000	 4.4807411750e-001
 2.8575448609e+000	 1.0662726518e+000	 4.0133225144e-001
 2.8468507503e+000	 1.0945048222e+000	 3.5383838451e-001
 2.8358543183e+000	 1.1226888642e+000	 3.0562071234e-001
 2.9563017964e+000	 8.4611151061e-001	 7.3770393362e-001
 2.9479406592e+000	 8.7479761651e-001	 7.0040646235e-001
 2.9392794818e+000	 9.0347170843e-001	 6.6177186061e-001
 2.9303173697e+000	 9.3212934352e-001	 6.2184575206e-001
 2.9210535112e+000	 9.6076604068e-001	 5.8067384683e-001
 2.9114871789e+000	 9.8937728235e-001	 5.3830168420e-001
 2.9016177314e+000	 1.0179585164e+000	 4.9477437102e-001
 2.8914446137e+000	 1.0465051580e+000	 4.5013631677e-001
 2.8809673597e+000	 1.0750125916e+000	 4.0443096584e-001
 2.8701855925e+000	 1.1034761732e+000	 3.5770052793e-001
 2.8590990258e+000	 1.1318912319e+000	 3.0998570721e-001
 2.9803367704e+000	 8.5299046598e-001	 7.2422252994e-001
 2.9719076564e+000	 8.8190979226e-001	 6.9036686271e-001
 2.9631760629e+000	 9.1081700687e-001	 6.5483177517e-001
 2.9541410881e+000	 9.3970763087e-001	 6.1767288072e-001
 2.9448019137e+000	 9.6857714670e-001	 5.7894627518e-001
 2.9351578064e+000	 9.9742100009e-001	 5.3870826967e-001
 2.9252081194e+000	 1.0262346019e+000	 4.9701511858e-001
 2.9149522935e+000	 1.0550133300e+000	 4.5392274350e-001
 2.9043898586e+000	 1.0837525314e+000	 4.0948645382e-001
 2.8935204347e+000	 1.1124475242e+000	 3.6376066471e-001
 2.8823437333e+000	 1.1410935996e+000	 3.1679861338e-001
 3.0043717443e+000	 8.5986942135e-001	 7.1101112682e-001
 2.9958746536e+000	 8.8902196800e-001	 6.8076184333e-001
 2.9870726441e+000	 9.1816230531e-001	 6.4849903242e-001
 2.9779648066e+000	 9.4728591821e-001	 6.1428836889e-001
 2.9685503162e+000	 9.7638825273e-001	 5.7819640044e-001
 2.9588284339e+000	 1.0054647178e+000	 5.4029027057e-001
 2.9487985075e+000	 1.0345106874e+000	 5.0063743582e-001
 2.9384599733e+000	 1.0635215020e+000	 4.5930537839e-001
 2.9278123575e+000	 1.0924924711e+000	 4.1636131477e-001
 2.9168552769e+000	 1.1214188752e+000	 3.7187190110e-001
 2.9055884408e+000	 1.1502959674e+000	 3.2590293625e-001
 3.0284067183e+000	 8.6674837673e-001	 6.9800368785e-001
 3.0198416509e+000	 8.9613414375e-001	 6.7151707355e-001
 3.0109692252e+000	 9.2550760376e-001	 6.4269087435e-001
 3.0017885250e+000	 9.5486420556e-001	 6.1160090148e-001
 2.9922987187e+000	 9.8419935875e-001	 5.7832422430e-001
 2.9824990614e+000	 1.0135084356e+000	 5.4293888279e-001
 2.9723888955e+000	 1.0427867729e+000	 5.0552359402e-001
 2.9619676531e+000	 1.0720296740e+000	 4.6615745311e-001
 2.9512348563e+000	 1.1012324109e+000	 4.2491962962e-001
 2.9401901191e+000	 1.1303902262e+000	 3.8188906018e-001
 2.9288331484e+000	 1.1594983351e+000	 3.3714413811e-001
 3.0524416922e+000	 8.7362733210e-001	 6.8513396158e-001
 3.0438086481e+000	 9.0324631949e-001	 6.6255819533e-001
 3.0348658064e+000	 9.3285290220e-001	 6.3732470822e-001
 3.0256122435e+000	 9.6244249291e-001	 6.0951952633e-001
 3.0160471213e+000	 9.9201046477e-001	 5.7923031384e-001
 3.0061696888e+000	 1.0215521533e+000	 5.4654607499e-001
 2.9959792836e+000	 1.0510628584e+000	 5.1155684935e-001
 2.9854753329e+000	 1.0805378460e+000	 4.7435340099e-001
 2.9746573552e+000	 1.1099723507e+000	 4.3502690247e-001
 2.9635249613e+000	 1.1393615772e+000	 3.9366861431e-001
 2.9520778559e+000	 1.1687007029e+000	 3.5036956109e-001
 3.0764766662e+000	 8.8050628747e-001	 6.7233548992e-001
 3.0677756453e+000	 9.1035849524e-001	 6.5381082433e-001
 3.0587623875e+000	 9.4019820065e-001	 6.3231810012e-001
 3.0494359619e+000	 9.7002078026e-001	 6.0795363998e-001
 3.0397955238e+000	 9.9982157080e-001	 5.8081577948e-001
 3.0298403163e+000	 1.0295958711e+000	 5.5100455836e-001
 3.0195696717e+000	 1.0593389439e+000	 5.1862140431e-001
 3.0089830127e+000	 1.0890460181e+000	 4.8376881015e-001
 2.9980798540e+000	 1.1187122905e+000	 4.4655000501e-001
 2.9868598036e+000	 1.1483329282e+000	 4.0706862069e-001
 2.9753225634e+000	 1.1779030706e+000	 3.6542835372e-001
 3.1005116401e+000	 8.8738524285e-001	 6.5954161616e-001
 3.0917426426e+000	 9.1747067099e-001	 6.4520055094e-001
 3.0826589687e+000	 9.4754349910e-001	 6.2758876886e-001
 3.0732596804e+000	 9.7759906761e-001	 6.0681297419e-001
 3.0635439263e+000	 1.0076326768e+000	 5.8298225389e-001
 3.0535109438e+000	 1.0376395888e+000	 5.5620775788e-001
 3.0431600597e+000	 1.0676150294e+000	 5.2660237117e-001
 3.0324906925e+000	 1.0975541901e+000	 4.9428037866e-001
 3.0215023529e+000	 1.1274522302e+000	 4.5935712352e-001
 3.0101946458e+000	 1.1573042792e+000	 4.2194865990e-001
 2.9985672709e+000	 1.1871054383e+000	 3.8217140097e-001
 3.1245466141e+000	 8.9426419823e-001	 6.4668549259e-001
 3.1157096398e+000	 9.2458284674e-001	 6.3665294125e-001
 3.1065555498e+000	 9.5488879754e-001	 6.2305458003e-001
 3.0970833988e+000	 9.8517735496e-001	 6.0600758303e-001
 3.0872923289e+000	 1.0154437829e+000	 5.8563187190e-001
 3.0771815712e+000	 1.0456833066e+000	 5.6204978486e-001
 3.0667504478e+000	 1.0758911149e+000	 5.3538573686e-001
 3.0559983723e+000	 1.1060623621e+000	 5.0576587193e-001
 3.0449248518e+000	 1.1361921700e+000	 4.7331770829e-001
 3.0335294880e+000	 1.1662756302e+000	 4.3816977734e-001
 3.0218119785e+000	 1.1963078061e+000	 4.0045125736e-001
 2.7893649032e+000	 1.1042841287e+000	 3.0487070856e-001
 2.7782511856e+000	 1.1319542172e+000	 2.6579842383e-001
 2.7668398140e+000	 1.1595677832e+000	 2.2880504591e-001
 2.7551307808e+000	 1.1871202048e+000	 1.9385997800e-001
 2.7431241712e+000	 1.2146068424e+000	 1.6092666655e-001
 2.7308201633e+000	 1.2420230416e+000	 1.2996237676e-001
 2.7182190297e+000	 1.2693641349e+000	 8.8948144251e-002
 2.7053211376e+000	 1.2966254442e+000	 4.5222066015e-002
 2.6921269500e+000	 1.3238022833e+000	 3.7327323998e-003
 2.6786370258e+000	 1.3508899601e+000	-3.5555117996e-002
 2.6648520205e+000	 1.3778837792e+000	-7.2679990160e-002
 2.8126096107e+000	 1.1134864964e+000	 3.0386216112e-001
 2.8014032788e+000	 1.1413871690e+000	 2.6361043942e-001
 2.7898968124e+000	 1.1692308481e+000	 2.2555933155e-001
 2.7780902040e+000	 1.1970128732e+000	 1.8968453499e-001
 2.7659835393e+000	 1.2247285661e+000	 1.5595563878e-001
 2.7535769980e+000	 1.2523732336e+000	 1.2279384088e-001
 2.7408708549e+000	 1.2799421693e+000	 7.5487127693e-002
 2.7278654804e+000	 1.3074306562e+000	 3.0559580984e-002
 2.7145613413e+000	 1.3348339690e+000	-1.2017718354e-002
 2.7009590010e+000	 1.3621473764e+000	-5.2277012234e-002
 2.6870591207e+000	 1.3893661440e+000	-9.0253856911e-002
 2.8358543183e+000	 1.1226888642e+000	 3.0562071234e-001
 2.8245553720e+000	 1.1508201208e+000	 2.6422470552e-001
 2.8129538109e+000	 1.1788939129e+000	 2.2515325329e-001
 2.8010496272e+000	 1.2069055415e+000	 1.8838841430e-001
 2.7888429074e+000	 1.2348502898e+000	 1.5390598386e-001
 2.7763338327e+000	 1.2627234256e+000	 1.1312819466e-001
 2.7635226802e+000	 1.2905202038e+000	 6.4620588781e-002
 2.7504098233e+000	 1.3182358682e+000	 1.8602306980e-002
 2.7369957325e+000	 1.3458656546e+000	-2.4952542983e-002
 2.7232809762e+000	 1.3734047928e+000	-6.6073243853e-002
 2.7092662209e+000	 1.4008485088e+000	-1.0479246384e-001
 2.8590990258e+000	 1.1318912319e+000	 3.0998570721e-001
 2.8477074652e+000	 1.1602530726e+000	 2.6747628574e-001
 2.8360108093e+000	 1.1885569778e+000	 2.2741764823e-001
 2.8240090504e+000	 1.2167982099e+000	 1.8979828410e-001
 2.8117022754e+000	 1.2449720135e+000	 1.5460026146e-001
 2.7990906674e+000	 1.2730736177e+000	 1.0587015256e-001
 2.7861745054e+000	 1.3010982382e+000	 5.6270509722e-002
 2.7729541661e+000	 1.3290410803e+000	 9.2701082058e-003
 2.7594301238e+000	 1.3568973403e+000	-3.5153976261e-002
 2.7456029514e+000	 1.3846622091e+000	-7.7028126579e-002
 2.7314733210e+000	 1.4123308736e+000	-1.1638218259e-001
 2.8823437333e+000	 1.1410935996e+000	 3.1679861338e-001
 2.8708595585e+000	 1.1696860244e+000	 2.7320244006e-001
 2.8590678078e+000	 1.1982200427e+000	 2.3218562309e-001
 2.8469684735e+000	 1.2266908783e+000	 1.9374315513e-001
 2.8345616435e+000	 1.2550937372e+000	 1.5425663795e-001
 2.8218475021e+000	 1.2834238097e+000	 1.0094631991e-001
 2.8088263307e+000	 1.3116762727e+000	 5.0361431364e-002
 2.7954985089e+000	 1.3398462923e+000	 2.4854785172e-003
 2.7818645150e+000	 1.3679290260e+000	-4.2701552869e-002
 2.7679249266e+000	 1.3959196254e+000	-8.5223204204e-002
 2.7536804212e+000	 1.4238132385e+000	-1.2510654568e-001
 2.9055884408e+000	 1.1502959674e+000	 3.2590293625e-001
 2.8940116517e+000	 1.1791189762e+000	 2.8124253691e-001
 2.8821248062e+000	 1.2078831075e+000	 2.3929246345e-001
 2.8699278967e+000	 1.2365835466e+000	 2.0005428700e-001
 2.8574210116e+000	 1.2652154609e+000	 1.5258302773e-001
 2.8446043368e+000	 1.2937740017e+000	 9.8285689649e-002
 2.8314781559e+000	 1.3222543071e+000	 4.6820350851e-002
 2.8180428517e+000	 1.3506515043e+000	-1.8265637648e-003
 2.8042989063e+000	 1.3789607117e+000	-4.7672215396e-002
 2.7902469018e+000	 1.4071770418e+000	-9.0737361380e-002
 2.7758875214e+000	 1.4352956033e+000	-1.3104636006e-001
 2.9288331484e+000	 1.1594983351e+000	 3.3714413811e-001
 2.9171637449e+000	 1.1885519280e+000	 2.9143796952e-001
 2.9051818047e+000	 1.2175461724e+000	 2.4857554727e-001
 2.8928873199e+000	 1.2464762150e+000	 2.0856509891e-001
 2.8802803797e+000	 1.2753371846e+000	 1.5300090631e-001
 2.8673611715e+000	 1.3041241937e+000	 9.7819547595e-002
 2.8541299812e+000	 1.3328323416e+000	 4.5576624152e-002
 2.8405871945e+000	 1.3614567164e+000	-3.7385760306e-003
 2.8267332975e+000	 1.3899923974e+000	-5.0140417200e-002
 2.8125688771e+000	 1.4184344581e+000	-9.3646929146e-002
 2.7980946215e+000	 1.4467779681e+000	-1.3427981526e-001
 2.9520778559e+000	 1.1687007029e+000	 3.5036956109e-001
 2.9403158381e+000	 1.1979848799e+000	 3.0363207621e-001
 2.9282388031e+000	 1.2272092372e+000	 2.5987426255e-001
 2.9158467430e+000	 1.2563688834e+000	 2.1445886438e-001
 2.9031397478e+000	 1.2854589082e+000	 1.5544564371e-001
 2.8901180061e+000	 1.3144743857e+000	 9.9481382154e-002
 2.8767818064e+000	 1.3434103761e+000	 4.6561873191e-002
 2.8631315373e+000	 1.3722619284e+000	-3.3207868262e-003
 2.8491676888e+000	 1.4010240831e+000	-5.0178220412e-002
 2.8348908523e+000	 1.4296918744e+000	-9.4025785458e-002
 2.8203017217e+000	 1.4582603330e+000	-1.3488258645e-001
 2.9753225634e+000	 1.1779030706e+000	 3.6542835372e-001
 2.9634679313e+000	 1.2074178317e+000	 3.1767006440e-001
 2.9512958016e+000	 1.2368723021e+000	 2.7302992876e-001
 2.9388061662e+000	 1.2662615518e+000	 2.1965488627e-001
 2.9259991159e+000	 1.2955806319e+000	 1.5985466523e-001
 2.9128748408e+000	 1.3248245777e+000	 1.0320679830e-001
 2.8994336316e+000	 1.3539884105e+000	 4.9709897338e-002
 2.8856758801e+000	 1.3830671404e+000	-6.4118682440e-004
 2.8716020800e+000	 1.4120557688e+000	-4.7855389341e-002
 2.8572128275e+000	 1.4409492908e+000	-9.1945451019e-002
 2.8425088219e+000	 1.4697426978e+000	-1.3292793263e-001
 2.9985672709e+000	 1.1871054383e+000	 3.8217140097e-001
 2.9866200245e+000	 1.2168507835e+000	 3.3339893819e-001
 2.9743528000e+000	 1.2465353670e+000	 2.8788572201e-001
 2.9617655894e+000	 1.2761542201e+000	 2.2665701997e-001
 2.9488584840e+000	 1.3057023556e+000	 1.6616737174e-001
 2.9356316755e+000	 1.3351747697e+000	 1.0893343552e-001
 2.9220854569e+000	 1.3645664450e+000	 5.4956589004e-002
 2.9082202229e+000	 1.3938723525e+000	 4.2343844367e-003
 2.8940364712e+000	 1.4230874545e+000	-4.3239479536e-002
 2.8795348027e+000	 1.4522067071e+000	-8.7475180638e-002
 2.8647159220e+000	 1.4812250626e+000	-1.2848679033e-001
 3.0218119785e+000	 1.1963078061e+000	 4.0045125736e-001
 3.0097721177e+000	 1.2262837353e+000	 3.5066742921e-001
 2.9974097985e+000	 1.2561984318e+000	 2.9984260397e-001
 2.9847250126e+000	 1.2860468885e+000	 2.3540828379e-001
 2.9717178521e+000	 1.3158240793e+000	 1.7432506374e-001
 2.9583885102e+000	 1.3455249618e+000	 1.1660088958e-001
 2.9447372821e+000	 1.3751444794e+000	 6.2239853150e-002
 2.9307645658e+000	 1.4046775645e+000	 1.1242155817e-002
 2.9164708625e+000	 1.4341191402e+000	-3.6395922741e-002
 2.9018567779e+000	 1.4634641235e+000	-8.0682050387e-002
 2.8869230222e+000	 1.4927074274e+000	-1.2162786288e-001
 2.6648520205e+000	 1.3778837792e+000	-7.2679990160e-002
 2.6507726869e+000	 1.4047790439e+000	-1.0770623430e-001
 2.6363998752e+000	 1.4315710593e+000	-1.4564109583e-001
 2.6217345334e+000	 1.4582551343e+000	-1.8648884816e-001
 2.6067777073e+000	 1.4848265841e+000	-2.3025199224e-001
 2.5915305413e+000	 1.5112807329e+000	-2.7693122345e-001
 2.5759942776e+000	 1.5376129167e+000	-3.2652540005e-001
 2.5601702572e+000	 1.5638184851e+000	-3.7903151325e-001
 2.5440599187e+000	 1.5898928045e+000	-4.3444465891e-001
 2.5276647993e+000	 1.6158312605e+000	-4.9275801105e-001
 2.5109865337e+000	 1.6416292602e+000	-5.5396279719e-001
 2.6870591207e+000	 1.3893661440e+000	-9.0253856911e-002
 2.6728624593e+000	 1.4164855360e+000	-1.2445987789e-001
 2.6583698742e+000	 1.4435008182e+000	-1.6108071717e-001
 2.6435823211e+000	 1.4704072604e+000	-2.0013768016e-001
 2.6285008549e+000	 1.4972001389e+000	-2.4165087234e-001
 2.6131266291e+000	 1.5238747391e+000	-2.8563915272e-001
 2.5974608966e+000	 1.5504263577e+000	-3.3212008806e-001
 2.5815050093e+000	 1.5768503058e+000	-3.8110990772e-001
 2.5652604181e+000	 1.6031419112e+000	-4.3262345940e-001
 2.5487286726e+000	 1.6292965210e+000	-4.8667416577e-001
 2.5319114214e+000	 1.6553095040e+000	-5.4327398223e-001
 2.7092662209e+000	 1.4008485088e+000	-1.0479246384e-001
 2.6949522317e+000	 1.4281920280e+000	-1.3863444832e-001
 2.6803398731e+000	 1.4554305770e+000	-1.7440499036e-001
 2.6654301089e+000	 1.4825593865e+000	-2.1214225317e-001
 2.6502240024e+000	 1.5095736938e+000	-2.5188376679e-001
 2.6347227169e+000	 1.5364687452e+000	-2.9366636830e-001
 2.6189275156e+000	 1.5632397986e+000	-3.3752614182e-001
 2.6028397614e+000	 1.5898821265e+000	-3.8349835832e-001
 2.5864609174e+000	 1.6163910179e+000	-4.3161741554e-001
 2.5697925460e+000	 1.6427617815e+000	-4.8191677785e-001
 2.5528363092e+000	 1.6689897478e+000	-5.3442891651e-001
 2.7314733210e+000	 1.4123308736e+000	-1.1638218259e-001
 2.7170420041e+000	 1.4398985200e+000	-1.5030456575e-001
 2.7023098721e+000	 1.4673603358e+000	-1.8567659092e-001
 2.6872778967e+000	 1.4947115126e+000	-2.2255310966e-001
 2.6719471500e+000	 1.5219472487e+000	-2.6098890156e-001
 2.6563188048e+000	 1.5490627513e+000	-3.0103860124e-001
 2.6403941346e+000	 1.5760532396e+000	-3.4275662427e-001
 2.6241745136e+000	 1.6029139472e+000	-3.8619709212e-001
 2.6076614167e+000	 1.6296401246e+000	-4.3141375620e-001
 2.5908564193e+000	 1.6562270420e+000	-4.7845992127e-001
 2.5737611970e+000	 1.6826699917e+000	-5.2738836826e-001
 2.7536804212e+000	 1.4238132385e+000	-1.2510654568e-001
 2.7391317765e+000	 1.4516050121e+000	-1.5954238743e-001
 2.7242798711e+000	 1.4792900947e+000	-1.9495611385e-001
 2.7091256845e+000	 1.5068636388e+000	-2.3141910006e-001
 2.6936702975e+000	 1.5343208035e+000	-2.6900320492e-001
 2.6779148926e+000	 1.5616567574e+000	-3.0778068500e-001
 2.6618607536e+000	 1.5888666806e+000	-3.4782410648e-001
 2.6455092657e+000	 1.6159457679e+000	-3.8920625533e-001
 2.6288619160e+000	 1.6428892313e+000	-4.3200004569e-001
 2.6119202926e+000	 1.6696923025e+000	-4.7627842681e-001
 2.5946860848e+000	 1.6963502355e+000	-5.2211428864e-001
 2.7758875214e+000	 1.4352956033e+000	-1.3104636006e-001
 2.7612215489e+000	 1.4633115041e+000	-1.6641770621e-001
 2.7462498700e+000	 1.4912198535e+000	-2.0230215692e-001
 2.7309734722e+000	 1.5190157649e+000	-2.3878745048e-001
 2.7153934451e+000	 1.5466943584e+000	-2.7596235942e-001
 2.6995109805e+000	 1.5742507635e+000	-3.1391659140e-001
 2.6833273725e+000	 1.6016801216e+000	-3.5274068729e-001
 2.6668440179e+000	 1.6289775887e+000	-3.9252591658e-001
 2.6500624153e+000	 1.6561383380e+000	-4.3336417033e-001
 2.6329841659e+000	 1.6831575630e+000	-4.7534785171e-001
 2.6156109726e+000	 1.7100304793e+000	-5.1856976447e-001
 2.7980946215e+000	 1.4467779681e+000	-1.3427981526e-001
 2.7833113213e+000	 1.4750179961e+000	-1.7099804439e-001
 2.7682198690e+000	 1.5031496123e+000	-2.0777139985e-001
 2.7528212600e+000	 1.5311678910e+000	-2.4470382714e-001
 2.7371165927e+000	 1.5590679133e+000	-2.8190085129e-001
 2.7211070683e+000	 1.5868447696e+000	-3.1946946480e-001
 2.7047939915e+000	 1.6144935625e+000	-3.5751801203e-001
 2.6881787700e+000	 1.6420094094e+000	-3.9615606996e-001
 2.6712629147e+000	 1.6693874448e+000	-4.3549432571e-001
 2.6540480393e+000	 1.6966228235e+000	-4.7564445091e-001
 2.6365358603e+000	 1.7237107232e+000	-5.1671897314e-001
 2.8203017217e+000	 1.4582603330e+000	-1.3488258645e-001
 2.8054010937e+000	 1.4867244882e+000	-1.7334874306e-001
 2.7901898679e+000	 1.5150793711e+000	-2.1141867989e-001
 2.7746690478e+000	 1.5433200171e+000	-2.4921239782e-001
 2.7588397402e+000	 1.5714414681e+000	-2.8685201753e-001
 2.7427031562e+000	 1.5994387757e+000	-3.2446165465e-001
 2.7262606105e+000	 1.6273070035e+000	-3.6216729042e-001
 2.7095135222e+000	 1.6550412301e+000	-4.0009663794e-001
 2.6924634140e+000	 1.6826365515e+000	-4.3837900445e-001
 2.6751119126e+000	 1.7100880840e+000	-4.7714514951e-001
 2.6574607481e+000	 1.7373909670e+000	-5.1652713965e-001
 2.8425088219e+000	 1.4697426978e+000	-1.3292793263e-001
 2.8274908661e+000	 1.4984309802e+000	-1.7353304738e-001
 2.8121598669e+000	 1.5270091300e+000	-2.1329706376e-001
 2.7965168356e+000	 1.5554721432e+000	-2.5235589033e-001
 2.7805628878e+000	 1.5838150230e+000	-2.9084809084e-001
 2.7642992440e+000	 1.6120327818e+000	-3.2891474659e-001
 2.7477272295e+000	 1.6401204445e+000	-3.6669931356e-001
 2.7308482743e+000	 1.6680730508e+000	-4.0434747423e-001
 2.7136639133e+000	 1.6958856582e+000	-4.4200698465e-001
 2.6961757859e+000	 1.7235533445e+000	-4.7982751667e-001
 2.6783856359e+000	 1.7510712108e+000	-5.1796049575e-001
 2.8647159220e+000	 1.4812250626e+000	-1.2848679033e-001
 2.8495806385e+000	 1.5101374722e+000	-1.7161218773e-001
 2.8341298659e+000	 1.5389388888e+000	-2.1345791626e-001
 2.8183646234e+000	 1.5676242694e+000	-2.5417564839e-001
 2.8022860354e+000	 1.5961885779e+000	-2.9392024238e-001
 2.7858953319e+000	 1.6246267879e+000	-3.3284959201e-001
 2.7691938485e+000	 1.6529338855e+000	-3.7112447016e-001
 2.7521830265e+000	 1.6811048715e+000	-4.0890836638e-001
 2.7348644126e+000	 1.7091347649e+000	-4.4636731881e-001
 2.7172396593e+000	 1.7370186050e+000	-4.8366974055e-001
 2.6993105237e+000	 1.7647514547e+000	-5.2098624084e-001
 2.8869230222e+000	 1.4927074274e+000	-1.2162786288e-001
 2.8716704108e+000	 1.5218439643e+000	-1.6764545728e-001
 2.8560998648e+000	 1.5508686476e+000	-2.1195096577e-001
 2.8402124111e+000	 1.5797763955e+000	-2.5471168481e-001
 2.8240091829e+000	 1.6085621327e+000	-2.9609862262e-001
 2.8074914197e+000	 1.6372207940e+000	-3.3628633631e-001
 2.7906604674e+000	 1.6657473264e+000	-3.7545276201e-001
 2.7735177786e+000	 1.6941366922e+000	-4.1377903836e-001
 2.7560649120e+000	 1.7223838716e+000	-4.5144932327e-001
 2.7383035326e+000	 1.7504838655e+000	-4.8865060461e-001
 2.7202354115e+000	 1.7784316985e+000	-5.2557250482e-001
 2.5109865337e+000	 1.6416292602e+000	-5.5396279719e-001
 2.4940268541e+000	 1.6672822350e+000	-6.0971092362e-001
 2.4767875899e+000	 1.6927856434e+000	-6.3153376930e-001
 2.4592706672e+000	 1.7181349730e+000	-6.5393008440e-001
 2.4414781082e+000	 1.7433257434e+000	-6.7673568345e-001
 2.4234120303e+000	 1.7683535086e+000	-6.9978384274e-001
 2.4050746461e+000	 1.7932138597e+000	-7.2290554132e-001
 2.3864682618e+000	 1.8179024274e+000	-7.4592970766e-001
 2.3675952769e+000	 1.8424148840e+000	-7.6868347141e-001
 2.3484581830e+000	 1.8667469467e+000	-7.9099241985e-001
 2.3290595627e+000	 1.8908943792e+000	-8.3255084798e-001
 2.5319114214e+000	 1.6553095040e+000	-5.4327398223e-001
 2.5148104112e+000	 1.6811762537e+000	-6.1121594104e-001
 2.4974274865e+000	 1.7068921905e+000	-6.7211725296e-001
 2.4797645894e+000	 1.7324527644e+000	-6.8739294362e-001
 2.4618237591e+000	 1.7578534579e+000	-7.0288983300e-001
 2.4436071306e+000	 1.7830897878e+000	-7.1844115950e-001
 2.4251169348e+000	 1.8081573086e+000	-7.3387804076e-001
 2.4063554973e+000	 1.8330516143e+000	-7.4902972392e-001
 2.3873252375e+000	 1.8577683414e+000	-7.6372384080e-001
 2.3680286678e+000	 1.8823031712e+000	-7.8684021148e-001
 2.3484683924e+000	 1.9066518324e+000	-8.3027829668e-001
 2.5528363092e+000	 1.6689897478e+000	-5.3442891651e-001
 2.5355939683e+000	 1.6950702723e+000	-5.9583547567e-001
 2.5180673831e+000	 1.7209987375e+000	-6.5794516599e-001
 2.5002585117e+000	 1.7467705559e+000	-7.2068938311e-001
 2.4821694100e+000	 1.7723811724e+000	-7.2972950700e-001
 2.4638022308e+000	 1.7978260671e+000	-7.3785111887e-001
 2.4451592235e+000	 1.8231007574e+000	-7.4567430388e-001
 2.4262427328e+000	 1.8482008012e+000	-7.5302855429e-001
 2.4070551982e+000	 1.8731217988e+000	-7.5974192758e-001
 2.3875991527e+000	 1.8978593958e+000	-7.9377159110e-001
 2.3678772221e+000	 1.9224092855e+000	-8.2884461261e-001
 2.5737611970e+000	 1.6826699917e+000	-5.2738836826e-001
 2.5563775254e+000	 1.7089642909e+000	-5.8228181831e-001
 2.5387072796e+000	 1.7351052845e+000	-6.3766643213e-001
 2.5207524339e+000	 1.7610883473e+000	-6.9347628496e-001
 2.5025150609e+000	 1.7869088869e+000	-7.4964538740e-001
 2.4839973311e+000	 1.8125623463e+000	-7.5798081140e-001
 2.4652015122e+000	 1.8380442062e+000	-7.5826026325e-001
 2.4461299684e+000	 1.8633499881e+000	-7.5789088373e-001
 2.4267851588e+000	 1.8884752561e+000	-7.7321464365e-001
 2.4071696375e+000	 1.9134156203e+000	-8.0146282205e-001
 2.3872860518e+000	 1.9381667387e+000	-8.2823468504e-001
 2.5946860848e+000	 1.6963502355e+000	-5.2211428864e-001
 2.5771610825e+000	 1.7228583095e+000	-5.7051569029e-001
 2.5593471762e+000	 1.7492118315e+000	-6.1919969965e-001
 2.5412463561e+000	 1.7754061388e+000	-6.6810307918e-001
 2.5228607118e+000	 1.8014366015e+000	-7.1716274931e-001
 2.5041924313e+000	 1.8272986255e+000	-7.6631583716e-001
 2.4852438010e+000	 1.8529876551e+000	-7.7160330544e-001
 2.4660172039e+000	 1.8784991749e+000	-7.6786699197e-001
 2.4465151195e+000	 1.9038287135e+000	-7.8969192621e-001
 2.4267401224e+000	 1.9289718449e+000	-8.0990234149e-001
 2.4066948815e+000	 1.9539241918e+000	-8.2843509556e-001
 2.6156109726e+000	 1.7100304793e+000	-5.1856976447e-001
 2.5979446396e+000	 1.7367523282e+000	-5.6049898495e-001
 2.5799870728e+000	 1.7633183786e+000	-6.0250558301e-001
 2.5617402783e+000	 1.7897239302e+000	-6.4452901640e-001
 2.5432063627e+000	 1.8159643160e+000	-6.8650912138e-001
 2.5243875316e+000	 1.8420349048e+000	-7.2838615988e-001
 2.5052860897e+000	 1.8679311039e+000	-7.7010086615e-001
 2.4859044394e+000	 1.8936483618e+000	-7.9280144348e-001
 2.4662450801e+000	 1.9191821709e+000	-8.0684952018e-001
 2.4463106072e+000	 1.9445280695e+000	-8.1908015002e-001
 2.4261037112e+000	 1.9696816450e+000	-8.2943405047e-001
 2.6365358603e+000	 1.7237107232e+000	-5.1671897314e-001
 2.6187281968e+000	 1.7506463468e+000	-5.5219472111e-001
 2.6006269694e+000	 1.7774249256e+000	-5.8754585976e-001
 2.5822342006e+000	 1.8040417216e+000	-6.2271455065e-001
 2.5635520136e+000	 1.8304920305e+000	-6.5764355235e-001
 2.5445826318e+000	 1.8567711840e+000	-6.9227626603e-001
 2.5253283784e+000	 1.8828745527e+000	-7.3618594218e-001
 2.5057916749e+000	 1.9087975487e+000	-8.0147358467e-001
 2.4859750407e+000	 1.9345356282e+000	-8.2468056328e-001
 2.4658810921e+000	 1.9600842940e+000	-8.2898774958e-001
 2.4455125409e+000	 1.9854390982e+000	-8.3122131625e-001
 2.6574607481e+000	 1.7373909670e+000	-5.1652713965e-001
 2.6395117539e+000	 1.7645403654e+000	-5.4556699873e-001
 2.6212668660e+000	 1.7915314726e+000	-5.7428342476e-001
 2.6027281228e+000	 1.8183595131e+000	-6.0262129201e-001
 2.5838976645e+000	 1.8450197450e+000	-6.3052628830e-001
 2.5647777321e+000	 1.8715074632e+000	-6.5794495903e-001
 2.5453706671e+000	 1.8978180015e+000	-7.1265403860e-001
 2.5256789104e+000	 1.9239467356e+000	-7.7043714528e-001
 2.5057050014e+000	 1.9498890856e+000	-8.2675734059e-001
 2.4854515770e+000	 1.9756405186e+000	-8.3961808441e-001
 2.4649213705e+000	 2.0011965513e+000	-8.3378815817e-001
 2.6783856359e+000	 1.7510712108e+000	-5.1796049575e-001
 2.6602953110e+000	 1.7784343840e+000	-5.4058095672e-001
 2.6419067626e+000	 1.8056380196e+000	-5.6268224652e-001
 2.6232220450e+000	 1.8326773045e+000	-5.8421196142e-001
 2.6042433154e+000	 1.8595474596e+000	-6.0511872593e-001
 2.5849728324e+000	 1.8862437425e+000	-6.3908700866e-001
 2.5654129558e+000	 1.9127614504e+000	-6.9083404488e-001
 2.5455661459e+000	 1.9390959225e+000	-7.4119716256e-001
 2.5254349620e+000	 1.9652425429e+000	-7.8991324617e-001
 2.5050220618e+000	 1.9911967431e+000	-8.3671969915e-001
 2.4843302002e+000	 2.0169540045e+000	-8.3712728170e-001
 2.6993105237e+000	 1.7647514547e+000	-5.2098624084e-001
 2.6810788681e+000	 1.7923284027e+000	-5.3720273266e-001
 2.6625466591e+000	 1.8197445667e+000	-5.5270732561e-001
 2.6437159673e+000	 1.8469950960e+000	-5.6745034769e-001
 2.6245889663e+000	 1.8740751741e+000	-5.8138336791e-001
 2.6051679326e+000	 1.9009800217e+000	-6.2614003705e-001
 2.5854552446e+000	 1.9277048992e+000	-6.7072957392e-001
 2.5654533815e+000	 1.9542451094e+000	-7.1375696502e-001
 2.5451649227e+000	 1.9805960003e+000	-7.5495569125e-001
 2.5245925467e+000	 2.0067529677e+000	-7.9405994764e-001
 2.5037390299e+000	 2.0327114576e+000	-8.3080517154e-001
 2.7202354115e+000	 1.7784316985e+000	-5.2557250482e-001
 2.7018624252e+000	 1.8062224213e+000	-5.3539942438e-001
 2.6831865557e+000	 1.8338511137e+000	-5.4432465494e-001
 2.6642098895e+000	 1.8613128874e+000	-5.5230126635e-001
 2.6449346172e+000	 1.8886028886e+000	-5.7585102947e-001
 2.6253630329e+000	 1.9157163009e+000	-6.1483188717e-001
 2.6054975333e+000	 1.9426483480e+000	-6.5234538233e-001
 2.5853406170e+000	 1.9693942963e+000	-6.8812106839e-001
 2.5648948833e+000	 1.9959494577e+000	-7.2188886864e-001
 2.5441630315e+000	 2.0223091922e+000	-7.5337961392e-001
 2.5231478596e+000	 2.0484689108e+000	-7.8232558181e-001
 2.3290595627e+000	 1.8908943792e+000	-8.3255084798e-001
 2.3094020889e+000	 1.9148529948e+000	-8.7930605128e-001
 2.2894885232e+000	 1.9386186582e+000	-9.2084986001e-001
 2.2693217148e+000	 1.9621872884e+000	-9.5732163855e-001
 2.2489045992e+000	 1.9855548604e+000	-9.8886663015e-001
 2.2282401967e+000	 2.0087174082e+000	-1.0156358020e+000
 2.2073316110e+000	 2.0316710262e+000	-1.0377856796e+000
 2.1861820279e+000	 2.0544118722e+000	-1.0554781700e+000
 2.1647947132e+000	 2.0769361689e+000	-1.0688803760e+000
 2.1431730113e+000	 2.0992402062e+000	-1.0781643990e+000
 2.1213203436e+000	 2.1213203435e+000	-1.0835071331e+000
 2.3484683924e+000	 1.9066518324e+000	-8.3027829668e-001
 2.3286471064e+000	 1.9308101031e+000	-8.7423295015e-001
 2.3085675943e+000	 1.9547738137e+000	-9.1370454226e-001
 2.2882327291e+000	 1.9785388491e+000	-9.4882207734e-001
 2.2676454708e+000	 2.0021011509e+000	-9.7971980207e-001
 2.2468088650e+000	 2.0254567199e+000	-1.0065370605e+000
 2.2257260411e+000	 2.0486016181e+000	-1.0294181392e+000
 2.2044002115e+000	 2.0715319712e+000	-1.0485121022e+000
 2.1828346691e+000	 2.0942439703e+000	-1.0639726171e+000
 2.1610327864e+000	 2.1167338746e+000	-1.0759577712e+000
 2.1389980131e+000	 2.1389980131e+000	-1.0846298797e+000
 2.3678772221e+000	 1.9224092855e+000	-8.2884461261e-001
 2.3478921238e+000	 1.9467672113e+000	-8.6964670240e-001
 2.3276466653e+000	 1.9709289692e+000	-9.0668116570e-001
 2.3071437434e+000	 1.9948904098e+000	-9.4006681348e-001
 2.2863863425e+000	 2.0186474414e+000	-9.6992707220e-001
 2.2653775333e+000	 2.0421960316e+000	-9.9638984873e-001
 2.2441204712e+000	 2.0655322100e+000	-1.0195873859e+000
 2.2226183951e+000	 2.0886520701e+000	-1.0396561093e+000
 2.2008746251e+000	 2.1115517717e+000	-1.0567364649e+000
 2.1788925615e+000	 2.1342275430e+000	-1.0709727483e+000
 2.1566756826e+000	 2.1566756826e+000	-1.0825129265e+000
 2.3872860518e+000	 1.9381667387e+000	-8.2823468504e-001
 2.3671371412e+000	 1.9627243196e+000	-8.6554042481e-001
 2.3467257363e+000	 1.9870841247e+000	-8.9978134530e-001
 2.3260547577e+000	 2.0112419706e+000	-9.3106622714e-001
 2.3051272142e+000	 2.0351937319e+000	-9.5950784914e-001
 2.2839462016e+000	 2.0589353434e+000	-9.8522286287e-001
 2.2625149013e+000	 2.0824628019e+000	-1.0083316587e+000
 2.2408365786e+000	 2.1057721690e+000	-1.0289582238e+000
 2.2189145810e+000	 2.1288595731e+000	-1.0472299915e+000
 2.1967523366e+000	 2.1517212114e+000	-1.0632776838e+000
 2.1743533521e+000	 2.1743533521e+000	-1.0772351455e+000
 2.4066948815e+000	 1.9539241918e+000	-8.2843509556e-001
 2.3863821586e+000	 1.9786814279e+000	-8.6190866236e-001
 2.3658048074e+000	 2.0032392801e+000	-8.9300785063e-001
 2.3449657720e+000	 2.0275935313e+000	-9.2183157023e-001
 2.3238680858e+000	 2.0517400224e+000	-9.4848212117e-001
 2.3025148699e+000	 2.0756746551e+000	-9.7306507777e-001
 2.2809093314e+000	 2.0993933938e+000	-9.9568916510e-001
 2.2590547622e+000	 2.1228922680e+000	-1.0164661278e+000
 2.2369545370e+000	 2.1461673745e+000	-1.0355105916e+000
 2.2146121117e+000	 2.1692148798e+000	-1.0529399178e+000
 2.1920310217e+000	 2.1920310217e+000	-1.0688740510e+000
 2.4261037112e+000	 1.9696816450e+000	-8.2943405047e-001
 2.4056271760e+000	 1.9946385362e+000	-8.5874733106e-001
 2.3848838784e+000	 2.0193944356e+000	-8.8636455967e-001
 2.3638767863e+000	 2.0439450920e+000	-9.1237493150e-001
 2.3426089575e+000	 2.0682863129e+000	-9.3687043304e-001
 2.3210835382e+000	 2.0924139668e+000	-9.5994573573e-001
 2.2993037615e+000	 2.1163239857e+000	-9.8169808252e-001
 2.2772729458e+000	 2.1400123669e+000	-1.0022271676e+000
 2.2549944929e+000	 2.1634751759e+000	-1.0216350097e+000
 2.2324718868e+000	 2.1867085482e+000	-1.0400258184e+000
 2.2097086912e+000	 2.2097086912e+000	-1.0575058551e+000
 2.4455125409e+000	 1.9854390982e+000	-8.3122131625e-001
 2.4248721934e+000	 2.0105956445e+000	-8.5605366357e-001
 2.4039629494e+000	 2.0355495911e+000	-8.7985641484e-001
 2.3827878006e+000	 2.0602966528e+000	-9.0270920336e-001
 2.3613498291e+000	 2.0848326034e+000	-9.2469386396e-001
 2.3396522065e+000	 2.1091532786e+000	-9.4589433592e-001
 2.3176981916e+000	 2.1332545775e+000	-9.6639655958e-001
 2.2954911293e+000	 2.1571324658e+000	-9.8628836685e-001
 2.2730344489e+000	 2.1807829773e+000	-1.0056593657e+000
 2.2503316619e+000	 2.2042022166e+000	-1.0246008191e+000
 2.2273863607e+000	 2.2273863607e+000	-1.0432055182e+000
 2.4649213705e+000	 2.0011965513e+000	-8.3378815817e-001
 2.4441172108e+000	 2.0265527528e+000	-8.5382615738e-001
 2.4230420204e+000	 2.0517047466e+000	-8.7348938106e-001
 2.4016988149e+000	 2.0766482135e+000	-8.9284805022e-001
 2.3800907008e+000	 2.1013788939e+000	-9.1197400651e-001
 2.3582208748e+000	 2.1258925903e+000	-9.3094062427e-001
 2.3360926217e+000	 2.1501851694e+000	-9.4982271713e-001
 2.3137093129e+000	 2.1742525648e+000	-9.6869643901e-001
 2.2910744048e+000	 2.1980907787e+000	-9.8763917995e-001
 2.2681914370e+000	 2.2216958849e+000	-1.0067294568e+000
 2.2450640303e+000	 2.2450640303e+000	-1.0260467993e+000
 2.4843302002e+000	 2.0169540045e+000	-8.3712728170e-001
 2.4633622282e+000	 2.0425098611e+000	-8.5206452535e-001
 2.4421210915e+000	 2.0678599021e+000	-8.6727040582e-001
 2.4206098292e+000	 2.0929997742e+000	-8.8280587833e-001
 2.3988315725e+000	 2.1179251844e+000	-8.9873294657e-001
 2.3767895431e+000	 2.1426319020e+000	-9.1511458384e-001
 2.3544870518e+000	 2.1671157613e+000	-9.3201464938e-001
 2.3319274965e+000	 2.1913726637e+000	-9.4949779981e-001
 2.3091143607e+000	 2.2153985802e+000	-9.6762939608e-001
 2.2860512121e+000	 2.2391895533e+000	-9.8647540593e-001
 2.2627416998e+000	 2.2627416998e+000	-1.0061023022e+000
 2.5037390299e+000	 2.0327114576e+000	-8.3080517154e-001
 2.4826072456e+000	 2.0584669694e+000	-8.5076964868e-001
 2.4612001625e+000	 2.0840150576e+000	-8.6120738113e-001
 2.4395208435e+000	 2.1093513350e+000	-8.7259780704e-001
 2.4175724441e+000	 2.1344714749e+000	-8.8499324424e-001
 2.3953582114e+000	 2.1593712138e+000	-8.9844642560e-001
 2.3728814819e+000	 2.1840463532e+000	-9.1301042488e-001
 2.3501456800e+000	 2.2084927626e+000	-9.2873857859e-001
 2.3271543167e+000	 2.2327063816e+000	-9.4568440380e-001
 2.3039109872e+000	 2.2566832217e+000	-9.6390151219e-001
 2.2804193693e+000	 2.2804193693e+000	-9.8344352052e-001
 2.5231478596e+000	 2.0484689108e+000	-7.8232558181e-001
 2.5018522630e+000	 2.0744240777e+000	-8.4487751747e-001
 2.4802792335e+000	 2.1001702130e+000	-8.5530910716e-001
 2.4584318577e+000	 2.1257028957e+000	-8.6223964138e-001
 2.4363133158e+000	 2.1510177654e+000	-8.7077791561e-001
 2.4139268797e+000	 2.1761105255e+000	-8.8096657967e-001
 2.3912759120e+000	 2.2009769451e+000	-8.9284808756e-001
 2.3683638636e+000	 2.2256128616e+000	-9.0646462940e-001
 2.3451942726e+000	 2.2500141830e+000	-9.2185806002e-001
 2.3217707623e+000	 2.2741768901e+000	-9.3906982452e-001
 2.2980970388e+000	 2.2980970388e+000	-9.5814088064e-001
 2.1213203436e+000	 2.1213203435e+000	-1.0835071331e+000
 2.0992402062e+000	 2.1431730113e+000	-1.0782075569e+000
 2.0769361689e+000	 2.1647947132e+000	-1.0745373995e+000
 2.0544118722e+000	 2.1861820279e+000	-1.0725480138e+000
 2.0316710262e+000	 2.2073316110e+000	-1.0722895804e+000
 2.0087174082e+000	 2.2282401967e+000	-1.0738110174e+000
 1.9855548604e+000	 2.2489045992e+000	-1.0771598906e+000
 1.9621872884e+000	 2.2693217148e+000	-1.0823823231e+000
 1.9386186582e+000	 2.2894885232e+000	-1.0895229048e+000
 1.9148529948e+000	 2.3094020889e+000	-1.0986246018e+000
 1.8908943792e+000	 2.3290595627e+000	-1.1097286668e+000
 2.1389980131e+000	 2.1389980131e+000	-1.0846298797e+000
 2.1167338746e+000	 2.1610327864e+000	-1.0796085224e+000
 2.0942439703e+000	 2.1828346691e+000	-1.0754651439e+000
 2.0715319712e+000	 2.2044002115e+000	-1.0722709785e+000
 2.0486016181e+000	 2.2257260411e+000	-1.0700968167e+000
 2.0254567199e+000	 2.2468088650e+000	-1.0690128920e+000
 2.0021011509e+000	 2.2676454708e+000	-1.0690887665e+000
 1.9785388491e+000	 2.2882327291e+000	-1.0703932148e+000
 1.9547738137e+000	 2.3085675943e+000	-1.0729941069e+000
 1.9308101031e+000	 2.3286471064e+000	-1.0769582912e+000
 1.9066518324e+000	 2.3484683924e+000	-1.0823514759e+000
 2.1566756826e+000	 2.1566756826e+000	-1.0825129265e+000
 2.1342275430e+000	 2.1788925615e+000	-1.0781910250e+000
 2.1115517717e+000	 2.2008746251e+000	-1.0740070976e+000
 2.0886520701e+000	 2.2226183951e+000	-1.0700520682e+000
 2.0655322100e+000	 2.2441204712e+000	-1.0664171398e+000
 2.0421960316e+000	 2.2653775333e+000	-1.0631936577e+000
 2.0186474414e+000	 2.2863863425e+000	-1.0604729707e+000
 1.9948904098e+000	 2.3071437434e+000	-1.0583462898e+000
 1.9709289692e+000	 2.3276466653e+000	-1.0569045451e+000
 1.9467672113e+000	 2.3478921238e+000	-1.0562382413e+000
 1.9224092855e+000	 2.3678772221e+000	-1.0564373117e+000
 2.1743533521e+000	 2.1743533521e+000	-1.0772351455e+000
 2.1517212114e+000	 2.1967523366e+000	-1.0740228915e+000
 2.1288595731e+000	 2.2189145810e+000	-1.0702197266e+000
 2.1057721690e+000	 2.2408365786e+000	-1.0659360784e+000
 2.0824628019e+000	 2.2625149013e+000	-1.0612833704e+000
 2.0589353434e+000	 2.2839462016e+000	-1.0563738622e+000
 2.0351937319e+000	 2.3051272142e+000	-1.0513204864e+000
 2.0112419706e+000	 2.3260547577e+000	-1.0462366819e+000
 1.9870841247e+000	 2.3467257363e+000	-1.0412362251e+000
 1.9627243196e+000	 2.3671371412e+000	-1.0364330582e+000
 1.9381667387e+000	 2.3872860518e+000	-1.0319411158e+000
 2.1920310217e+000	 2.1920310217e+000	-1.0688740510e+000
 2.1692148798e+000	 2.2146121117e+000	-1.0671709425e+000
 2.1461673745e+000	 2.2369545370e+000	-1.0641588514e+000
 2.1228922680e+000	 2.2590547622e+000	-1.0599675286e+000
 2.0993933938e+000	 2.2809093314e+000	-1.0547284323e+000
 2.0756746551e+000	 2.3025148699e+000	-1.0485745447e+000
 2.0517400224e+000	 2.3238680858e+000	-1.0416401852e+000
 2.0275935313e+000	 2.3449657720e+000	-1.0340608185e+000
 2.0032392801e+000	 2.3658048074e+000	-1.0259728600e+000
 1.9786814279e+000	 2.3863821586e+000	-1.0175134774e+000
 1.9539241918e+000	 2.4066948815e+000	-1.0088203898e+000
 2.2097086912e+000	 2.2097086912e+000	-1.0575058551e+000
 2.1867085482e+000	 2.2324718868e+000	-1.0577010328e+000
 2.1634751759e+000	 2.2549944929e+000	-1.0558796726e+000
 2.1400123669e+000	 2.2772729458e+000	-1.0521906736e+000
 2.1163239857e+000	 2.2993037615e+000	-1.0467853483e+000
 2.0924139668e+000	 2.3210835382e+000	-1.0398172157e+000
 2.0682863129e+000	 2.3426089575e+000	-1.0314417911e+000
 2.0439450920e+000	 2.3638767863e+000	-1.0218163688e+000
 2.0193944356e+000	 2.3848838784e+000	-1.0110998023e+000
 1.9946385362e+000	 2.4056271760e+000	-9.9945227907e-001
 1.9696816450e+000	 2.4261037112e+000	-9.8703509244e-001
 2.2273863607e+000	 2.2273863607e+000	-1.0432055182e+000
 2.2042022166e+000	 2.2503316619e+000	-1.0456780894e+000
 2.1807829773e+000	 2.2730344489e+000	-1.0454367952e+000
 2.1571324658e+000	 2.2954911293e+000	-1.0426495138e+000
 2.1332545775e+000	 2.3176981916e+000	-1.0374872364e+000
 2.1091532786e+000	 2.3396522065e+000	-1.0301238390e+000
 2.0848326034e+000	 2.3613498291e+000	-1.0207358470e+000
 2.0602966528e+000	 2.3827878006e+000	-1.0095021947e+000
 2.0355495911e+000	 2.4039629494e+000	-9.9660397865e-001
 2.0105956445e+000	 2.4248721934e+000	-9.8222420664e-001
 1.9854390982e+000	 2.4455125409e+000	-9.6654754249e-001
 2.2450640303e+000	 2.2450640303e+000	-1.0260467993e+000
 2.2216958849e+000	 2.2681914370e+000	-1.0311661481e+000
 2.1980907787e+000	 2.2910744048e+000	-1.0328842528e+000
 2.1742525648e+000	 2.3137093129e+000	-1.0313878052e+000
 2.1501851694e+000	 2.3360926217e+000	-1.0268673060e+000
 2.1258925903e+000	 2.3582208748e+000	-1.0195168129e+000
 2.1013788939e+000	 2.3800907008e+000	-1.0095336824e+000
 2.0766482135e+000	 2.4016988149e+000	-9.9711830377e-001
 2.0517047466e+000	 2.4230420204e+000	-9.8247382787e-001
 2.0265527528e+000	 2.4441172108e+000	-9.6580588961e-001
 2.0011965513e+000	 2.4649213705e+000	-9.4732232562e-001
 2.2627416998e+000	 2.2627416998e+000	-1.0061023022e+000
 2.2391895533e+000	 2.2860512121e+000	-1.0142283888e+000
 2.2153985802e+000	 2.3091143607e+000	-1.0182755292e+000
 2.1913726637e+000	 2.3319274965e+000	-1.0184490693e+000
 2.1671157613e+000	 2.3544870518e+000	-1.0149588543e+000
 2.1426319020e+000	 2.3767895431e+000	-1.0080189544e+000
 2.1179251844e+000	 2.3988315725e+000	-9.9784738245e-001
 2.0929997742e+000	 2.4206098292e+000	-9.8466580435e-001
 2.0678599021e+000	 2.4421210915e+000	-9.6869924198e-001
 2.0425098611e+000	 2.4633622282e+000	-9.5017576986e-001
 2.0169540045e+000	 2.4843302002e+000	-9.2932620590e-001
 2.2804193693e+000	 2.2804193693e+000	-9.8344352052e-001
 2.2566832217e+000	 2.3039109872e+000	-9.9492716800e-001
 2.2327063816e+000	 2.3271543167e+000	-1.0016635799e+000
 2.2084927626e+000	 2.3501456800e+000	-1.0038766016e+000
 2.1840463532e+000	 2.3728814819e+000	-1.0017952630e+000
 2.1593712138e+000	 2.3953582114e+000	-9.9565348185e-001
 2.1344714749e+000	 2.4175724441e+000	-9.8568975890e-001
 2.1093513350e+000	 2.4395208435e+000	-9.7214686311e-001
 2.0840150576e+000	 2.4612001625e+000	-9.5527150982e-001
 2.0584669694e+000	 2.4826072456e+000	-9.3531403140e-001
 2.0327114576e+000	 2.5037390299e+000	-9.1867157952e-001
 2.2980970388e+000	 2.2980970388e+000	-9.5814088064e-001
 2.2741768901e+000	 2.3217707623e+000	-9.7332405079e-001
 2.2500141830e+000	 2.3451942726e+000	-9.8310085289e-001
 2.2256128616e+000	 2.3683638636e+000	-9.8771348098e-001
 2.2009769451e+000	 2.3912759120e+000	-9.8740999463e-001
 2.1761105255e+000	 2.4139268797e+000	-9.8244400023e-001
 2.1510177654e+000	 2.4363133158e+000	-9.7307432209e-001
 2.1257028957e+000	 2.4584318577e+000	-9.5956466424e-001
 2.1001702130e+000	 2.4802792335e+000	-9.4218326330e-001
 2.0744240777e+000	 2.5018522630e+000	-9.2429208266e-001
 2.0484689108e+000	 2.5231478596e+000	-9.3514282125e-001
 1.8908943792e+000	 2.3290595627e+000	-1.1097286668e+000
 1.8667469467e+000	 2.3484581830e+000	-1.1598338413e+000
 1.8424148840e+000	 2.3675952769e+000	-1.1421943145e+000
 1.8179024274e+000	 2.3864682618e+000	-1.1235603035e+000
 1.7932138597e+000	 2.4050746461e+000	-1.1038479850e+000
 1.7683535086e+000	 2.4234120303e+000	-1.0829696333e+000
 1.7433257434e+000	 2.4414781082e+000	-1.0608337701e+000
 1.7181349730e+000	 2.4592706672e+000	-1.0373453234e+000
 1.6927856434e+000	 2.4767875899e+000	-1.0124057972e+000
 1.6672822350e+000	 2.4940268541e+000	-9.8591344986e-001
 1.6416292602e+000	 2.5109865337e+000	-9.7502666331e-001
 1.9066518324e+000	 2.3484683924e+000	-1.0823514759e+000
 1.8823031712e+000	 2.3680286678e+000	-1.1590867249e+000
 1.8577683414e+000	 2.3873252375e+000	-1.1643208012e+000
 1.8330516143e+000	 2.4063554973e+000	-1.1381656215e+000
 1.8081573086e+000	 2.4251169348e+000	-1.1111607608e+000
 1.7830897878e+000	 2.4436071306e+000	-1.0832033609e+000
 1.7578534579e+000	 2.4618237591e+000	-1.0541865834e+000
 1.7324527644e+000	 2.4797645894e+000	-1.0239997884e+000
 1.7068921905e+000	 2.4974274865e+000	-9.9252872336e-001
 1.6811762537e+000	 2.5148104112e+000	-9.8244431738e-001
 1.6553095040e+000	 2.5319114214e+000	-9.7456719478e-001
 1.9224092855e+000	 2.3678772221e+000	-1.0564373117e+000
 1.8978593958e+000	 2.3875991527e+000	-1.1245180311e+000
 1.8731217988e+000	 2.4070551982e+000	-1.1861160100e+000
 1.8482008012e+000	 2.4262427328e+000	-1.1520800820e+000
 1.8231007574e+000	 2.4451592235e+000	-1.1174243672e+000
 1.7978260671e+000	 2.4638022308e+000	-1.0820310383e+000
 1.7723811724e+000	 2.4821694100e+000	-1.0457780573e+000
 1.7467705559e+000	 2.5002585117e+000	-1.0089324950e+000
 1.7209987375e+000	 2.5180673831e+000	-9.9758907366e-001
 1.6950702723e+000	 2.5355939683e+000	-9.8456731287e-001
 1.6689897478e+000	 2.5528363092e+000	-9.6993663748e-001
 1.9381667387e+000	 2.3872860518e+000	-1.0319411158e+000
 1.9134156203e+000	 2.4071696375e+000	-1.0909736347e+000
 1.8884752561e+000	 2.4267851588e+000	-1.1515870948e+000
 1.8633499881e+000	 2.4461299684e+000	-1.1651740298e+000
 1.8380442062e+000	 2.4652015122e+000	-1.1225187128e+000
 1.8125623463e+000	 2.4839973311e+000	-1.0793422188e+000
 1.7869088869e+000	 2.5025150609e+000	-1.0393206582e+000
 1.7610883473e+000	 2.5207524339e+000	-1.0221200672e+000
 1.7351052845e+000	 2.5387072796e+000	-1.0033197871e+000
 1.7089642909e+000	 2.5563775254e+000	-9.8298521409e-001
 1.6826699917e+000	 2.5737611970e+000	-9.6117811869e-001
 1.9539241918e+000	 2.4066948815e+000	-1.0088203898e+000
 1.9289718449e+000	 2.4267401224e+000	-1.0584194734e+000
 1.9038287135e+000	 2.4465151195e+000	-1.1098060723e+000
 1.8784991749e+000	 2.4660172039e+000	-1.1628861913e+000
 1.8529876551e+000	 2.4852438010e+000	-1.1263250858e+000
 1.8272986255e+000	 2.5041924313e+000	-1.0814110099e+000
 1.8014366015e+000	 2.5228607118e+000	-1.0576952010e+000
 1.7754061388e+000	 2.5412463561e+000	-1.0324697347e+000
 1.7492118315e+000	 2.5593471762e+000	-1.0057962652e+000
 1.7228583095e+000	 2.5771610825e+000	-9.7773298419e-001
 1.6963502355e+000	 2.5946860848e+000	-9.4833433982e-001
 1.9696816450e+000	 2.4261037112e+000	-9.8703509244e-001
 1.9445280695e+000	 2.4463106072e+000	-1.0268236610e+000
 1.9191821709e+000	 2.4662450801e+000	-1.0686039681e+000
 1.8936483618e+000	 2.4859044394e+000	-1.1122703922e+000
 1.8679311039e+000	 2.5052860897e+000	-1.1368681681e+000
 1.8420349048e+000	 2.5243875316e+000	-1.1059691784e+000
 1.8159643160e+000	 2.5432063627e+000	-1.0736608897e+000
 1.7897239302e+000	 2.5617402783e+000	-1.0400015032e+000
 1.7633183786e+000	 2.5799870728e+000	-1.0050459231e+000
 1.7367523282e+000	 2.5979446396e+000	-9.6884546801e-001
 1.7100304793e+000	 2.6156109726e+000	-9.3144759343e-001
 1.9854390982e+000	 2.4455125409e+000	-9.6654754249e-001
 1.9600842940e+000	 2.4658810921e+000	-9.9615640127e-001
 1.9345356282e+000	 2.4859750407e+000	-1.0279589021e+000
 1.9087975487e+000	 2.5057916749e+000	-1.0709069302e+000
 1.8828745527e+000	 2.5253283784e+000	-1.1366672097e+000
 1.8567711840e+000	 2.5445826318e+000	-1.1285335819e+000
 1.8304920305e+000	 2.5635520136e+000	-1.0872310635e+000
 1.8040417216e+000	 2.5822342006e+000	-1.0447358212e+000
 1.7774249256e+000	 2.6006269694e+000	-1.0010963405e+000
 1.7506463468e+000	 2.6187281968e+000	-9.5635739674e-001
 1.7237107232e+000	 2.6365358603e+000	-9.1055977950e-001
 2.0011965513e+000	 2.4649213705e+000	-9.4732232562e-001
 1.9756405186e+000	 2.4854515770e+000	-9.6638990575e-001
 1.9498890856e+000	 2.5057050014e+000	-9.9693188857e-001
 1.9239467356e+000	 2.5256789104e+000	-1.0518350667e+000
 1.8978180015e+000	 2.5453706671e+000	-1.1073342373e+000
 1.8715074632e+000	 2.5647777321e+000	-1.1491114320e+000
 1.8450197450e+000	 2.5838976645e+000	-1.0984197533e+000
 1.8183595131e+000	 2.6027281228e+000	-1.0466935627e+000
 1.7915314726e+000	 2.6212668660e+000	-9.9397525592e-001
 1.7645403654e+000	 2.6395117539e+000	-9.4030339241e-001
 1.7373909670e+000	 2.6574607481e+000	-8.8571242084e-001
 2.0169540045e+000	 2.4843302002e+000	-9.2932620590e-001
 1.9911967431e+000	 2.5050220618e+000	-9.4562203375e-001
 1.9652425429e+000	 2.5254349620e+000	-9.8885895641e-001
 1.9390959225e+000	 2.5455661459e+000	-1.0330775528e+000
 1.9127614504e+000	 2.5654129558e+000	-1.0779576695e+000
 1.8862437425e+000	 2.5849728324e+000	-1.1231869812e+000
 1.8595474596e+000	 2.6042433154e+000	-1.1072416547e+000
 1.8326773045e+000	 2.6232220450e+000	-1.0458960101e+000
 1.8056380196e+000	 2.6419067626e+000	-9.8371055976e-001
 1.7784343840e+000	 2.6602953110e+000	-9.2071797214e-001
 1.7510712108e+000	 2.6783856359e+000	-8.5694667784e-001
 2.0327114576e+000	 2.5037390299e+000	-9.1867157952e-001
 2.0067529677e+000	 2.5245925467e+000	-9.4940471931e-001
 1.9805960003e+000	 2.5451649227e+000	-9.8153780467e-001
 1.9542451094e+000	 2.5654533815e+000	-1.0147274645e+000
 1.9277048992e+000	 2.5854552446e+000	-1.0486380396e+000
 1.9009800217e+000	 2.6051679326e+000	-1.0829419602e+000
 1.8740751741e+000	 2.6245889663e+000	-1.1137121018e+000
 1.8469950960e+000	 2.6437159673e+000	-1.0423648389e+000
 1.8197445667e+000	 2.6625466591e+000	-9.7033028882e-001
 1.7923284027e+000	 2.6810788681e+000	-8.9763555225e-001
 1.7647514547e+000	 2.6993105237e+000	-8.2430336252e-001
 2.0484689108e+000	 2.5231478596e+000	-9.3514282125e-001
 2.0223091922e+000	 2.5441630315e+000	-9.5435709816e-001
 1.9959494577e+000	 2.5648948833e+000	-9.7505555968e-001
 1.9693942963e+000	 2.5853406170e+000	-9.9687919689e-001
 1.9426483480e+000	 2.6054975333e+000	-1.0194769654e+000
 1.9157163009e+000	 2.6253630329e+000	-1.0425061810e+000
 1.8886028886e+000	 2.6449346172e+000	-1.0656328871e+000
 1.8613128874e+000	 2.6642098895e+000	-1.0361221024e+000
 1.8338511137e+000	 2.6831865557e+000	-9.5386262053e-001
 1.8062224213e+000	 2.7018624252e+000	-8.7109045205e-001
 1.7784316985e+000	 2.7202354115e+000	-7.8782295194e-001
 1.6416292602e+000	 2.5109865337e+000	-9.7502666331e-001
 1.6158312605e+000	 2.5276647993e+000	-9.6468743733e-001
 1.5898928045e+000	 2.5440599187e+000	-9.5037223608e-001
 1.5638184851e+000	 2.5601702572e+000	-9.3228907198e-001
 1.5376129167e+000	 2.5759942776e+000	-9.1064259733e-001
 1.5112807329e+000	 2.5915305413e+000	-8.8563371689e-001
 1.4848265841e+000	 2.6067777073e+000	-8.5745921378e-001
 1.4582551343e+000	 2.6217345334e+000	-8.2631138956e-001
 1.4315710593e+000	 2.6363998752e+000	-7.9237771913e-001
 1.4047790439e+000	 2.6507726869e+000	-7.5584052114e-001
 1.3778837792e+000	 2.6648520205e+000	-7.1687664463e-001
 1.6553095040e+000	 2.5319114214e+000	-9.7456719478e-001
 1.6292965210e+000	 2.5487286726e+000	-9.6186713454e-001
 1.6031419112e+000	 2.5652604181e+000	-9.4554967151e-001
 1.5768503058e+000	 2.5815050093e+000	-9.2584807636e-001
 1.5504263577e+000	 2.5974608966e+000	-9.0299169115e-001
 1.5238747391e+000	 2.6131266291e+000	-8.7720551492e-001
 1.4972001389e+000	 2.6285008549e+000	-8.4870980398e-001
 1.4704072604e+000	 2.6435823211e+000	-8.1771968728e-001
 1.4435008182e+000	 2.6583698742e+000	-7.8444479803e-001
 1.4164855360e+000	 2.6728624593e+000	-7.4908892190e-001
 1.3893661440e+000	 2.6870591207e+000	-7.1184966276e-001
 1.6689897478e+000	 2.5528363092e+000	-9.6993663748e-001
 1.6427617815e+000	 2.5697925460e+000	-9.5534482256e-001
 1.6163910179e+000	 2.5864609174e+000	-9.3749075905e-001
 1.5898821265e+000	 2.6028397614e+000	-9.1663289832e-001
 1.5632397986e+000	 2.6189275156e+000	-8.9302519612e-001
 1.5364687452e+000	 2.6347227169e+000	-8.6691667137e-001
 1.5095736938e+000	 2.6502240024e+000	-8.3855098054e-001
 1.4825593865e+000	 2.6654301089e+000	-8.0816600846e-001
 1.4554305770e+000	 2.6803398731e+000	-7.7599347646e-001
 1.4281920280e+000	 2.6949522317e+000	-7.4225856839e-001
 1.4008485088e+000	 2.7092662209e+000	-7.0717957541e-001
 1.6826699917e+000	 2.5737611970e+000	-9.6117811869e-001
 1.6562270420e+000	 2.5908564193e+000	-9.4514976075e-001
 1.6296401246e+000	 2.6076614167e+000	-9.2621102101e-001
 1.6029139472e+000	 2.6241745136e+000	-9.0464546102e-001
 1.5760532396e+000	 2.6403941346e+000	-8.8073158125e-001
 1.5490627513e+000	 2.6563188048e+000	-8.5474235283e-001
 1.5219472487e+000	 2.6719471500e+000	-8.2694476613e-001
 1.4947115126e+000	 2.6872778967e+000	-7.9759939685e-001
 1.4673603358e+000	 2.7023098721e+000	-7.6695999066e-001
 1.4398985200e+000	 2.7170420041e+000	-7.3527306697e-001
 1.4123308736e+000	 2.7314733210e+000	-7.0277754270e-001
 1.6963502355e+000	 2.5946860848e+000	-9.4833433982e-001
 1.6696923025e+000	 2.6119202926e+000	-9.3131118689e-001
 1.6428892313e+000	 2.6288619160e+000	-9.1172635836e-001
 1.6159457679e+000	 2.6455092657e+000	-8.8988846244e-001
 1.5888666806e+000	 2.6618607536e+000	-8.6610048207e-001
 1.5616567574e+000	 2.6779148926e+000	-8.4065927968e-001
 1.5343208035e+000	 2.6936702975e+000	-8.1385511974e-001
 1.5068636388e+000	 2.7091256845e+000	-7.8597121022e-001
 1.4792900947e+000	 2.7242798711e+000	-7.5728326355e-001
 1.4516050121e+000	 2.7391317765e+000	-7.2805907817e-001
 1.4238132385e+000	 2.7536804212e+000	-6.9855814119e-001
 1.7100304793e+000	 2.6156109726e+000	-9.3144759343e-001
 1.6831575630e+000	 2.6329841659e+000	-9.1385831806e-001
 1.6561383380e+000	 2.6500624153e+000	-8.9405303567e-001
 1.6289775887e+000	 2.6668440179e+000	-8.7236534438e-001
 1.6016801216e+000	 2.6833273725e+000	-8.4912265403e-001
 1.5742507635e+000	 2.6995109805e+000	-8.2464566389e-001
 1.5466943584e+000	 2.7153934451e+000	-7.9924785919e-001
 1.5190157649e+000	 2.7309734722e+000	-7.7323502772e-001
 1.4912198535e+000	 2.7462498700e+000	-7.4690479725e-001
 1.4633115041e+000	 2.7612215489e+000	-7.2054619461e-001
 1.4352956033e+000	 2.7758875214e+000	-6.9443922723e-001
 1.7237107232e+000	 2.6365358603e+000	-9.1055977950e-001
 1.6966228235e+000	 2.6540480393e+000	-8.9282035141e-001
 1.6693874448e+000	 2.6712629147e+000	-8.7320766661e-001
 1.6420094094e+000	 2.6881787700e+000	-8.5208026290e-001
 1.6144935625e+000	 2.7047939915e+000	-8.2978992799e-001
 1.5868447696e+000	 2.7211070683e+000	-8.0668114987e-001
 1.5590679133e+000	 2.7371165927e+000	-7.8309058738e-001
 1.5311678910e+000	 2.7528212600e+000	-7.5934656183e-001
 1.5031496123e+000	 2.7682198690e+000	-7.3576857075e-001
 1.4750179961e+000	 2.7833113213e+000	-7.1266682453e-001
 1.4467779681e+000	 2.7980946215e+000	-6.9034180676e-001
 1.7373909670e+000	 2.6574607481e+000	-8.8571242084e-001
 1.7100880840e+000	 2.6751119126e+000	-8.6822646503e-001
 1.6826365515e+000	 2.6924634140e+000	-8.4920720024e-001
 1.6550412301e+000	 2.7095135222e+000	-8.2903806028e-001
 1.6273070035e+000	 2.7262606105e+000	-8.0809516793e-001
 1.5994387757e+000	 2.7427031562e+000	-7.8674675807e-001
 1.5714414681e+000	 2.7588397402e+000	-7.6535262203e-001
 1.5433200171e+000	 2.7746690478e+000	-7.4426357428e-001
 1.5150793711e+000	 2.7901898679e+000	-7.2382094238e-001
 1.4867244882e+000	 2.8054010937e+000	-7.0435608107e-001
 1.4582603330e+000	 2.8203017217e+000	-6.8618991139e-001
 1.7510712108e+000	 2.6783856359e+000	-8.5694667784e-001
 1.7235533445e+000	 2.6961757859e+000	-8.4010581862e-001
 1.6958856582e+000	 2.7136639133e+000	-8.2206890790e-001
 1.6680730508e+000	 2.7308482743e+000	-8.0324423812e-001
 1.6401204445e+000	 2.7477272295e+000	-7.8403223058e-001
 1.6120327818e+000	 2.7642992440e+000	-7.6482483120e-001
 1.5838150230e+000	 2.7805628878e+000	-7.4600492867e-001
 1.5554721432e+000	 2.7965168356e+000	-7.2794579605e-001
 1.5270091300e+000	 2.8121598669e+000	-7.1101055685e-001
 1.4984309802e+000	 2.8274908661e+000	-6.9555167649e-001
 1.4697426978e+000	 2.8425088219e+000	-6.8191048013e-001
 1.7647514547e+000	 2.6993105237e+000	-8.2430336252e-001
 1.7370186050e+000	 2.7172396593e+000	-8.0848755422e-001
 1.7091347649e+000	 2.7348644126e+000	-7.9181037073e-001
 1.6811048715e+000	 2.7521830265e+000	-7.7470493187e-001
 1.6529338855e+000	 2.7691938485e+000	-7.5759592692e-001
 1.6246267879e+000	 2.7858953319e+000	-7.4089898300e-001
 1.5961885779e+000	 2.8022860354e+000	-7.2502005680e-001
 1.5676242694e+000	 2.8183646234e+000	-7.1035485106e-001
 1.5389388888e+000	 2.8341298659e+000	-6.9728825668e-001
 1.5101374722e+000	 2.8495806385e+000	-6.8619382151e-001
 1.4812250626e+000	 2.8647159220e+000	-6.7743324675e-001
 1.7784316985e+000	 2.7202354115e+000	-7.8782295194e-001
 1.7504838655e+000	 2.7383035326e+000	-7.7340079692e-001
 1.7223838716e+000	 2.7560649120e+000	-7.5844946774e-001
 1.6941366922e+000	 2.7735177786e+000	-7.4342688637e-001
 1.6657473264e+000	 2.7906604674e+000	-7.2878198552e-001
 1.6372207940e+000	 2.8074914197e+000	-7.1495404936e-001
 1.6085621327e+000	 2.8240091829e+000	-7.0237207894e-001
 1.5797763955e+000	 2.8402124111e+000	-6.9145418330e-001
 1.5508686476e+000	 2.8560998648e+000	-6.8260699762e-001
 1.5218439643e+000	 2.8716704108e+000	-6.7622512919e-001
 1.4927074274e+000	 2.8869230222e+000	-6.7269063228e-001
 1.3778837792e+000	 2.6648520205e+000	-7.1687664463e-001
 1.3508899601e+000	 2.6786370258e+000	-7.2671254696e-001
 1.3238022833e+000	 2.6921269500e+000	-7.3284630346e-001
 1.2966254442e+000	 2.7053211376e+000	-7.3530347493e-001
 1.2693641349e+000	 2.7182190297e+000	-7.3410555707e-001
 1.2420230416e+000	 2.7308201633e+000	-7.1647237796e-001
 1.2146068424e+000	 2.7431241712e+000	-6.6107776642e-001
 1.1871202048e+000	 2.7551307808e+000	-5.9789031446e-001
 1.1595677832e+000	 2.7668398140e+000	-5.2755286891e-001
 1.1319542172e+000	 2.7782511856e+000	-4.5066724178e-001
 1.1042841287e+000	 2.7893649032e+000	-3.6779415818e-001
 1.3893661440e+000	 2.6870591207e+000	-7.1184966276e-001
 1.3621473764e+000	 2.7009590010e+000	-7.1993154270e-001
 1.3348339690e+000	 2.7145613413e+000	-7.2458169883e-001
 1.3074306562e+000	 2.7278654804e+000	-7.2583031788e-001
 1.2799421693e+000	 2.7408708549e+000	-7.2370318767e-001
 1.2523732336e+000	 2.7535769980e+000	-7.1822157298e-001
 1.2247285661e+000	 2.7659835393e+000	-6.6518165913e-001
 1.1970128732e+000	 2.7780902040e+000	-6.0103377546e-001
 1.1692308481e+000	 2.7898968124e+000	-5.3040978743e-001
 1.1413871690e+000	 2.8014032788e+000	-4.5392268463e-001
 1.1134864964e+000	 2.8126096107e+000	-3.7214273689e-001
 1.4008485088e+000	 2.7092662209e+000	-7.0717957541e-001
 1.3734047928e+000	 2.7232809762e+000	-7.1353145784e-001
 1.3458656546e+000	 2.7369957325e+000	-7.1672369876e-001
 1.3182358682e+000	 2.7504098233e+000	-7.1679120345e-001
 1.2905202038e+000	 2.7635226802e+000	-7.1376414064e-001
 1.2627234256e+000	 2.7763338327e+000	-7.0766781329e-001
 1.2348502898e+000	 2.7888429074e+000	-6.7122491044e-001
 1.2069055415e+000	 2.8010496272e+000	-6.0623576933e-001
 1.1788939129e+000	 2.8129538109e+000	-5.3546452601e-001
 1.1508201208e+000	 2.8245553720e+000	-4.5953541389e-001
 1.1226888642e+000	 2.8358543183e+000	-3.7902828122e-001
 1.4123308736e+000	 2.7314733210e+000	-7.0277754270e-001
 1.3846622091e+000	 2.7456029514e+000	-7.0742113635e-001
 1.3568973403e+000	 2.7594301238e+000	-7.0917888512e-001
 1.3290410803e+000	 2.7729541661e+000	-7.0809050716e-001
 1.3010982382e+000	 2.7861745054e+000	-7.0419064260e-001
 1.2730736177e+000	 2.7990906674e+000	-6.9750871901e-001
 1.2449720135e+000	 2.8117022754e+000	-6.7879834254e-001
 1.2167982099e+000	 2.8240090504e+000	-6.1308740256e-001
 1.1885569778e+000	 2.8360108093e+000	-5.4230881358e-001
 1.1602530726e+000	 2.8477074652e+000	-4.6709811880e-001
 1.1318912319e+000	 2.8590990258e+000	-3.8804477804e-001
 1.4238132385e+000	 2.7536804212e+000	-6.9855814119e-001
 1.3959196254e+000	 2.7679249266e+000	-7.0151287472e-001
 1.3679290260e+000	 2.7818645150e+000	-7.0185732740e-001
 1.3398462923e+000	 2.7954985089e+000	-6.9963612624e-001
 1.3116762727e+000	 2.8088263307e+000	-6.9488847486e-001
 1.2834238097e+000	 2.8218475021e+000	-6.8764801348e-001
 1.2550937372e+000	 2.8345616435e+000	-6.7794269567e-001
 1.2266908783e+000	 2.8469684735e+000	-6.2118342895e-001
 1.1982200427e+000	 2.8590678078e+000	-5.5053805506e-001
 1.1696860244e+000	 2.8708595585e+000	-4.7620719221e-001
 1.1410935996e+000	 2.8823437333e+000	-3.9878994435e-001
 1.4352956033e+000	 2.7758875214e+000	-6.9443922723e-001
 1.4071770418e+000	 2.7902469018e+000	-6.9572228394e-001
 1.3789607117e+000	 2.8042989063e+000	-6.9467244324e-001
 1.3506515043e+000	 2.8180428517e+000	-6.9133933875e-001
 1.3222543071e+000	 2.8314781559e+000	-6.8576683125e-001
 1.2937740017e+000	 2.8446043368e+000	-6.7799286320e-001
 1.2652154609e+000	 2.8574210116e+000	-6.6804933063e-001
 1.2365835466e+000	 2.8699278967e+000	-6.3012210368e-001
 1.2078831075e+000	 2.8821248062e+000	-5.5975118433e-001
 1.1791189762e+000	 2.8940116517e+000	-4.8646258245e-001
 1.1502959674e+000	 2.9055884408e+000	-4.1086507808e-001
 1.4467779681e+000	 2.7980946215e+000	-6.9034180676e-001
 1.4184344581e+000	 2.8125688771e+000	-6.8996815789e-001
 1.3899923974e+000	 2.8267332975e+000	-6.8754086557e-001
 1.3614567164e+000	 2.8405871945e+000	-6.8311466940e-001
 1.3328323416e+000	 2.8541299812e+000	-6.7673818267e-001
 1.3041241937e+000	 2.8673611715e+000	-6.6845374121e-001
 1.2753371846e+000	 2.8802803797e+000	-6.5829727033e-001
 1.2464762150e+000	 2.8928873199e+000	-6.3950504444e-001
 1.2175461724e+000	 2.9051818047e+000	-5.6955052422e-001
 1.1885519280e+000	 2.9171637449e+000	-4.9746765225e-001
 1.1594983351e+000	 2.9288331484e+000	-4.2387491599e-001
 1.4582603330e+000	 2.8203017217e+000	-6.8618991139e-001
 1.4296918744e+000	 2.8348908523e+000	-6.8417234808e-001
 1.4010240831e+000	 2.8491676888e+000	-6.8038231600e-001
 1.3722619284e+000	 2.8631315373e+000	-6.7487976177e-001
 1.3434103761e+000	 2.8767818064e+000	-6.6771814811e-001
 1.3144743857e+000	 2.8901180061e+000	-6.5894429691e-001
 1.2854589082e+000	 2.9031397478e+000	-6.4859825107e-001
 1.2563688834e+000	 2.9158467430e+000	-6.3671315521e-001
 1.2272092372e+000	 2.9282388031e+000	-5.7954165304e-001
 1.1979848799e+000	 2.9403158381e+000	-5.0882904426e-001
 1.1687007029e+000	 2.9520778559e+000	-4.3742749830e-001
 1.4697426978e+000	 2.8425088219e+000	-6.8191048013e-001
 1.4409492908e+000	 2.8572128275e+000	-6.7825964418e-001
 1.4120557688e+000	 2.8716020800e+000	-6.7311948419e-001
 1.3830671404e+000	 2.8856758801e+000	-6.6655525645e-001
 1.3539884105e+000	 2.8994336316e+000	-6.5862537167e-001
 1.3248245777e+000	 2.9128748408e+000	-6.4938123199e-001
 1.2955806319e+000	 2.9259991159e+000	-6.3886708767e-001
 1.2662615518e+000	 2.9388061662e+000	-6.2711991334e-001
 1.2368723021e+000	 2.9512958016e+000	-5.8933327745e-001
 1.2074178317e+000	 2.9634679313e+000	-5.2015655300e-001
 1.1779030706e+000	 2.9753225634e+000	-4.5113403961e-001
 1.4812250626e+000	 2.8647159220e+000	-6.7743324675e-001
 1.4522067071e+000	 2.8795348027e+000	-6.7215766019e-001
 1.4230874545e+000	 2.8940364712e+000	-6.6567791278e-001
 1.3938723525e+000	 2.9082202229e+000	-6.5806467489e-001
 1.3645664450e+000	 2.9220854569e+000	-6.4938140528e-001
 1.3351747697e+000	 2.9356316755e+000	-6.3968418209e-001
 1.3057023556e+000	 2.9488584840e+000	-6.2902155421e-001
 1.2761542201e+000	 2.9617655894e+000	-6.1743441287e-001
 1.2465353670e+000	 2.9743528000e+000	-5.9853711119e-001
 1.2168507835e+000	 2.9866200245e+000	-5.3106300266e-001
 1.1871054383e+000	 2.9985672709e+000	-4.6460880589e-001
 1.4927074274e+000	 2.8869230222e+000	-6.7269063228e-001
 1.4634641235e+000	 2.9018567779e+000	-6.6579672573e-001
 1.4341191402e+000	 2.9164708625e+000	-6.5798588770e-001
 1.4046775645e+000	 2.9307645658e+000	-6.4933430859e-001
 1.3751444794e+000	 2.9447372821e+000	-6.3991059689e-001
 1.3455249618e+000	 2.9583885102e+000	-6.2977560402e-001
 1.3158240793e+000	 2.9717178521e+000	-6.1898227016e-001
 1.2860468885e+000	 2.9847250126e+000	-6.0757549120e-001
 1.2561984318e+000	 2.9974097985e+000	-5.9559200694e-001
 1.2262837353e+000	 3.0097721177e+000	-5.4116413056e-001
 1.1963078061e+000	 3.0218119785e+000	-4.7746899712e-001
 1.1042841287e+000	 2.7893649032e+000	-3.6779415818e-001
 1.0765621202e+000	 2.8001810658e+000	-3.3742559736e-001
 1.0487927723e+000	 2.8106998632e+000	-3.0805878601e-001
 1.0209806419e+000	 2.8209215744e+000	-2.8009720572e-001
 9.9313025989e-001	 2.8308465672e+000	-2.5389854124e-001
 9.6524612913e-001	 2.8404752965e+000	-2.2977521640e-001
 9.3733272262e-001	 2.8498083036e+000	-2.0799501986e-001
 9.0939448149e-001	 2.8588462143e+000	-1.8878181669e-001
 8.8143581311e-001	 2.8675897383e+000	-1.7231634208e-001
 8.5346108929e-001	 2.8760396675e+000	-1.5873707287e-001
 8.2547464451e-001	 2.8841968746e+000	-1.4814117278e-001
 1.1134864964e+000	 2.8126096107e+000	-3.7214273689e-001
 1.0855334712e+000	 2.8235159081e+000	-3.4323150080e-001
 1.0575327121e+000	 2.8341223620e+000	-3.1518104147e-001
 1.0294888139e+000	 2.8444292542e+000	-2.8837305339e-001
 1.0014063454e+000	 2.8544369552e+000	-2.6314297194e-001
 9.7328984687e-001	 2.8641459240e+000	-2.3978054384e-001
 9.4514382864e-001	 2.8735567061e+000	-2.1853048824e-001
 9.1697276883e-001	 2.8826699328e+000	-1.9959324473e-001
 8.8878111155e-001	 2.8914863195e+000	-1.8312580415e-001
 8.6057326503e-001	 2.9000066647e+000	-1.6924261794e-001
 8.3235359987e-001	 2.9082318485e+000	-1.5801658181e-001
 1.1226888642e+000	 2.8358543183e+000	-3.7902828122e-001
 1.0945048222e+000	 2.8468507503e+000	-3.5086091903e-001
 1.0662726518e+000	 2.8575448609e+000	-3.2344922963e-001
 1.0379969859e+000	 2.8679369340e+000	-2.9715335994e-001
 1.0096824309e+000	 2.8780273433e+000	-2.7228669225e-001
 9.8133356461e-001	 2.8878165515e+000	-2.4911644952e-001
 9.5295493466e-001	 2.8973051086e+000	-2.2786439259e-001
 9.2455105618e-001	 2.9064936512e+000	-2.0870760509e-001
 8.9612640999e-001	 2.9153829006e+000	-1.9177936208e-001
 8.6768544077e-001	 2.9239736620e+000	-1.7717007801e-001
 8.3923255524e-001	 2.9322668225e+000	-1.6492832951e-001
 1.1318912319e+000	 2.8590990258e+000	-3.8804477804e-001
 1.1034761732e+000	 2.8701855925e+000	-3.5993174962e-001
 1.0750125916e+000	 2.8809673597e+000	-3.3250511128e-001
 1.0465051580e+000	 2.8914446137e+000	-3.0610369299e-001
 1.0179585164e+000	 2.9016177314e+000	-2.8101901110e-001
 9.8937728235e-001	 2.9114871789e+000	-2.5749590925e-001
 9.6076604068e-001	 2.9210535112e+000	-2.3573329201e-001
 9.3212934352e-001	 2.9303173697e+000	-2.1588494755e-001
 9.0347170843e-001	 2.9392794818e+000	-1.9806045469e-001
 8.7479761651e-001	 2.9479406592e+000	-1.8232617019e-001
 8.4611151061e-001	 2.9563017964e+000	-1.6870629158e-001
 1.1410935996e+000	 2.8823437333e+000	-3.9878994435e-001
 1.1124475242e+000	 2.8935204347e+000	-3.7006492707e-001
 1.0837525314e+000	 2.9043898586e+000	-3.4199280223e-001
 1.0550133300e+000	 2.9149522935e+000	-3.1489130463e-001
 1.0262346019e+000	 2.9252081194e+000	-2.8903026315e-001
 9.9742100009e-001	 2.9351578064e+000	-2.6463227760e-001
 9.6857714670e-001	 2.9448019137e+000	-2.4187348960e-001
 9.3970763087e-001	 2.9541410881e+000	-2.2088444342e-001
 9.1081700687e-001	 2.9631760629e+000	-2.0175103231e-001
 8.8190979226e-001	 2.9719076564e+000	-1.8451552581e-001
 8.5299046598e-001	 2.9803367704e+000	-1.6917767341e-001
 1.1502959674e+000	 2.9055884408e+000	-4.1086507808e-001
 1.1214188752e+000	 2.9168552769e+000	-3.8088430138e-001
 1.0924924711e+000	 2.9278123575e+000	-3.5155867907e-001
 1.0635215020e+000	 2.9384599733e+000	-3.2318506408e-001
 1.0345106874e+000	 2.9487985075e+000	-2.9601176770e-001
 1.0054647178e+000	 2.9588284339e+000	-2.7023927282e-001
 9.7638825273e-001	 2.9685503162e+000	-2.4602104270e-001
 9.4728591821e-001	 2.9779648066e+000	-2.2346442065e-001
 9.1816230531e-001	 2.9870726441e+000	-2.0263161631e-001
 8.8902196800e-001	 2.9958746536e+000	-1.8354077378e-001
 8.5986942135e-001	 3.0043717443e+000	-1.6616711687e-001
 1.1594983351e+000	 2.9288331484e+000	-4.2387491599e-001
 1.1303902262e+000	 2.9401901191e+000	-3.9201652230e-001
 1.1012324109e+000	 2.9512348563e+000	-3.6085128945e-001
 1.0720296740e+000	 2.9619676531e+000	-3.3065539353e-001
 1.0427867729e+000	 2.9723888955e+000	-3.0165578966e-001
 1.0135084356e+000	 2.9824990614e+000	-2.7403096236e-001
 9.8419935875e-001	 2.9922987187e+000	-2.4791177265e-001
 9.5486420556e-001	 3.0017885250e+000	-2.2338239733e-001
 9.2550760376e-001	 3.0109692252e+000	-2.0048135585e-001
 8.9613414375e-001	 3.0198416509e+000	-1.7920262011e-001
 8.6674837673e-001	 3.0284067183e+000	-1.5949680209e-001
 1.1687007029e+000	 2.9520778559e+000	-4.3742749830e-001
 1.1393615772e+000	 2.9635249613e+000	-4.0309092914e-001
 1.1099723507e+000	 2.9746573552e+000	-3.6952126664e-001
 1.0805378460e+000	 2.9854753329e+000	-3.3697420693e-001
 1.0510628584e+000	 2.9959792836e+000	-3.0565550230e-001
 1.0215521533e+000	 3.0061696888e+000	-2.7572174914e-001
 9.9201046477e-001	 3.0160471213e+000	-2.4728127410e-001
 9.6244249291e-001	 3.0256122435e+000	-2.2039511355e-001
 9.3285290220e-001	 3.0348658064e+000	-1.9507808188e-001
 9.0324631949e-001	 3.0438086481e+000	-1.7129992361e-001
 8.7362733210e-001	 3.0524416922e+000	-1.4898654433e-001
 1.1779030706e+000	 2.9753225634e+000	-4.5113403961e-001
 1.1483329282e+000	 2.9868598036e+000	-4.1373944569e-001
 1.1187122905e+000	 2.9980798540e+000	-3.7722124805e-001
 1.0890460181e+000	 3.0089830127e+000	-3.4181485182e-001
 1.0593389439e+000	 3.0195696717e+000	-3.0770495177e-001
 1.0295958711e+000	 3.0298403163e+000	-2.7502635844e-001
 9.9982157080e-001	 3.0397955238e+000	-2.4386492381e-001
 9.7002078026e-001	 3.0494359619e+000	-2.1425856180e-001
 9.4019820065e-001	 3.0587623875e+000	-1.8619835861e-001
 9.1035849524e-001	 3.0677756453e+000	-1.5962976800e-001
 8.8050628747e-001	 3.0764766662e+000	-1.3445388636e-001
 1.1871054383e+000	 2.9985672709e+000	-4.6460880589e-001
 1.1573042792e+000	 3.0101946458e+000	-4.2359648007e-001
 1.1274522302e+000	 3.0215023529e+000	-3.8360579752e-001
 1.0975541901e+000	 3.0324906925e+000	-3.4485205367e-001
 1.0676150294e+000	 3.0431600597e+000	-3.0749902330e-001
 1.0376395888e+000	 3.0535109438e+000	-2.7165982540e-001
 1.0076326768e+000	 3.0635439263e+000	-2.3739788915e-001
 9.7759906761e-001	 3.0732596804e+000	-2.0472801595e-001
 9.4754349910e-001	 3.0826589687e+000	-1.7361753264e-001
 9.1747067099e-001	 3.0917426426e+000	-1.4398753076e-001
 8.8738524285e-001	 3.1005116401e+000	-1.1571418659e-001
 1.1963078061e+000	 3.0218119785e+000	-4.7746899712e-001
 1.1662756302e+000	 3.0335294880e+000	-4.3229882916e-001
 1.1361921700e+000	 3.0449248518e+000	-3.8833133127e-001
 1.1060623621e+000	 3.0559983723e+000	-3.4576186294e-001
 1.0758911149e+000	 3.0667504478e+000	-3.0473340885e-001
 1.0456833066e+000	 3.0771815712e+000	-2.6533748313e-001
 1.0154437829e+000	 3.0872923289e+000	-2.2761513614e-001
 9.8517735496e-001	 3.0970833988e+000	-1.9155805888e-001
 9.5488879754e-001	 3.1065555498e+000	-1.5710977978e-001
 9.2458284674e-001	 3.1157096398e+000	-1.2416694874e-001
 8.9426419823e-001	 3.1245466141e+000	-9.2580703006e-002
 8.2547464451e-001	 2.8841968746e+000	-1.4814117278e-001
 7.9748077418e-001	 2.8920623117e+000	-1.4761826649e-001
 7.6948373301e-001	 2.8996370091e+000	-1.4301282185e-001
 7.4148773336e-001	 2.9069220735e+000	-1.3430417979e-001
 7.1349694372e-001	 2.9139186865e+000	-1.2144104528e-001
 6.8551548720e-001	 2.9206281031e+000	-1.0434262292e-001
 6.5754744009e-001	 2.9270516504e+000	-8.2899794323e-002
 6.2959683048e-001	 2.9331907253e+000	-5.6976333079e-002
 6.0166763694e-001	 2.9390467935e+000	 8.6676427432e-003
 5.7376378727e-001	 2.9446213876e+000	 8.9990273539e-002
 5.4588915724e-001	 2.9499161052e+000	 1.7967535531e-001
 8.3235359987e-001	 2.9082318485e+000	-1.5801658181e-001
 8.0412644730e-001	 2.9161628310e+000	-1.5523230567e-001
 7.7589609745e-001	 2.9238006509e+000	-1.4893654422e-001
 7.4766679780e-001	 2.9311464241e+000	-1.3908025077e-001
 7.1944275158e-001	 2.9382013422e+000	-1.2558290246e-001
 6.9122811626e-001	 2.9449666706e+000	-1.0833369271e-001
 6.6302700209e-001	 2.9514437475e+000	-8.7192766046e-002
 6.3484347073e-001	 2.9576339813e+000	-6.1992490815e-002
 6.0668153392e-001	 2.9635388501e+000	 4.2446533034e-004
 5.7854515216e-001	 2.9691598992e+000	 8.7935874277e-002
 5.5043823355e-001	 2.9744987394e+000	 1.8272799743e-001
 8.3923255524e-001	 2.9322668225e+000	-1.6492832951e-001
 8.1077212041e-001	 2.9402633502e+000	-1.5966846964e-001
 7.8230846189e-001	 2.9479642926e+000	-1.5148877905e-001
 7.5384586224e-001	 2.9553707747e+000	-1.4031172984e-001
 7.2538855945e-001	 2.9624839979e+000	-1.2602745032e-001
 6.9694074532e-001	 2.9693052382e+000	-1.0849497514e-001
 6.6850656409e-001	 2.9758358445e+000	-8.7543538352e-002
 6.4009011098e-001	 2.9820772374e+000	-6.2973904781e-002
 6.1169543089e-001	 2.9880309068e+000	-5.9699375103e-003
 5.8332651705e-001	 2.9936984107e+000	 8.9559019350e-002
 5.5498730986e-001	 2.9990813737e+000	 1.9124512225e-001
 8.4611151061e-001	 2.9563017964e+000	-1.6870629158e-001
 8.1741779353e-001	 2.9643638695e+000	-1.6077637500e-001
 7.8872082633e-001	 2.9721279343e+000	-1.5053913116e-001
 7.6002492669e-001	 2.9795951253e+000	-1.3788844676e-001
 7.3133436731e-001	 2.9867666536e+000	-1.2268496950e-001
 7.0265337437e-001	 2.9936438057e+000	-1.0475741677e-001
 6.7398612608e-001	 3.0002279416e+000	-8.3903927732e-002
 6.4533675123e-001	 3.0065204934e+000	-5.9893454266e-002
 6.1670932786e-001	 3.0125229634e+000	-1.1312313043e-002
 5.8810788194e-001	 3.0182369223e+000	 9.4082243923e-002
 5.5953638617e-001	 3.0236640079e+000	 2.0446814962e-001
 8.5299046598e-001	 2.9803367704e+000	-1.6917767341e-001
 8.2406346665e-001	 2.9884643887e+000	-1.5840250260e-001
 7.9513319077e-001	 2.9962915761e+000	-1.4595360495e-001
 7.6620399113e-001	 3.0038194759e+000	-1.3169616708e-001
 7.3728017517e-001	 3.0110493093e+000	-1.1546121376e-001
 7.0836600343e-001	 3.0179823732e+000	-9.7046975882e-002
 6.7946568808e-001	 3.0246200387e+000	-7.6220302472e-002
 6.5058339149e-001	 3.0309637495e+000	-5.2718112091e-002
 6.2172322484e-001	 3.0370150200e+000	-1.6393045642e-002
 5.9288924684e-001	 3.0427754338e+000	 1.0073490047e-001
 5.6408546248e-001	 3.0482466421e+000	 2.2164576895e-001
 8.5986942135e-001	 3.0043717443e+000	-1.6616711687e-001
 8.3070913976e-001	 3.0125649080e+000	-1.5239032300e-001
 8.0154555521e-001	 3.0204552178e+000	-1.3759474837e-001
 7.7238305558e-001	 3.0280438265e+000	-1.2161675469e-001
 7.4322598304e-001	 3.0353319650e+000	-1.0425759103e-001
 7.1407863249e-001	 3.0423209407e+000	-8.5284821996e-002
 6.8494525008e-001	 3.0490121358e+000	-6.4433800585e-002
 6.5583003174e-001	 3.0554070055e+000	-4.1409180872e-002
 6.2673712181e-001	 3.0615070766e+000	-1.5886465583e-002
 5.9767061173e-001	 3.0673139454e+000	 1.0875288609e-001
 5.6863453879e-001	 3.0728292763e+000	 2.4203364839e-001
 8.6674837673e-001	 3.0284067183e+000	-1.5949680209e-001
 8.3735481288e-001	 3.0366654273e+000	-1.4258041592e-001
 8.0795791965e-001	 3.0446188595e+000	-1.2532179018e-001
 7.7856212002e-001	 3.0522681771e+000	-1.0752832670e-001
 7.4917179090e-001	 3.0596146208e+000	-8.8971335876e-002
 7.1979126155e-001	 3.0666595083e+000	-6.9387525912e-002
 6.9042481209e-001	 3.0734042329e+000	-4.8480537355e-002
 6.6107667200e-001	 3.0798502615e+000	-2.5922518026e-002
 6.3175101878e-001	 3.0859991332e+000	-1.3557331976e-003
 6.0245197662e-001	 3.0918524570e+000	 1.1737838277e-001
 5.7318361510e-001	 3.0974119105e+000	 2.6489415793e-001
 8.7362733210e-001	 3.0524416922e+000	-1.4898654433e-001
 8.4400048600e-001	 3.0607659465e+000	-1.2881058405e-001
 8.1437028410e-001	 3.0687825013e+000	-1.0899077054e-001
 7.8474118447e-001	 3.0764925277e+000	-8.9305400885e-002
 7.5511759877e-001	 3.0838972765e+000	-6.9495673809e-002
 7.2550389062e-001	 3.0909980758e+000	-4.9267240758e-002
 6.9590437409e-001	 3.0977963300e+000	-2.8291803091e-002
 6.6632331225e-001	 3.1042935176e+000	-6.2087501478e-003
 6.3676491576e-001	 3.1104911898e+000	 1.7373167004e-002
 6.0723334152e-001	 3.1163909685e+000	 1.2585960999e-001
 5.7773269141e-001	 3.1219945447e+000	 2.8949610552e-001
 8.8050628747e-001	 3.0764766662e+000	-1.3445388636e-001
 8.5064615913e-001	 3.0848664658e+000	-1.1091596152e-001
 8.2078264854e-001	 3.0929461430e+000	-8.8454665592e-002
 7.9092024892e-001	 3.1007168783e+000	-6.6819036343e-002
 7.6106340663e-001	 3.1081799322e+000	-4.5719977889e-002
 7.3121651968e-001	 3.1153366433e+000	-2.4831874555e-002
 7.0138393609e-001	 3.1221884270e+000	-3.7942515927e-003
 6.7156995251e-001	 3.1287367736e+000	-2.9518307810e-004
 6.4177881273e-001	 3.1349832464e+000	-6.2778006935e-003
 6.1201470641e-001	 3.1409294801e+000	 6.1790672904e-002
 5.8228176772e-001	 3.1465771789e+000	 2.2258047308e-001
 8.8738524285e-001	 3.1005116401e+000	-1.1571418659e-001
 8.5729183225e-001	 3.1089669851e+000	-8.8729117363e-002
 8.2719501299e-001	 3.1171097848e+000	-6.3563506237e-002
 7.9709931337e-001	 3.1249412290e+000	-3.9936967513e-002
 7.6700921450e-001	 3.1324625879e+000	-5.5136904561e-002
 7.3692914874e-001	 3.1396752108e+000	-6.7661472010e-002
 7.0686349809e-001	 3.1465805241e+000	-7.6726929937e-002
 6.7681659276e-001	 3.1531800297e+000	-8.1857730757e-002
 6.4679270971e-001	 3.1594753030e+000	-8.2581502933e-002
 6.1679607131e-001	 3.1654679917e+000	-2.9851258549e-002
 5.8683084403e-001	 3.1711598131e+000	 1.5530732451e-001
 8.9426419823e-001	 3.1245466141e+000	-9.2580703006e-002
 8.6393750537e-001	 3.1330675043e+000	-1.0432724612e-001
 8.3360737744e-001	 3.1412734265e+000	-1.1720546257e-001
 8.0327837781e-001	 3.1491655796e+000	-1.2828586982e-001
 7.7295502237e-001	 3.1567452436e+000	-1.3707266814e-001
 7.4264177780e-001	 3.1640137784e+000	-1.4307458583e-001
 7.1234306010e-001	 3.1709726212e+000	-1.4580442704e-001
 6.8206323302e-001	 3.1776232857e+000	-1.4477863661e-001
 6.5180660668e-001	 3.1839673596e+000	-1.3951688354e-001
 6.2157743620e-001	 3.1900065032e+000	-1.0737471277e-001
 5.9137992034e-001	 3.1957424473e+000	 1.0165557727e-001
 5.4588915724e-001	 2.9499161052e+000	 1.7967535531e-001
 5.1804756952e-001	 2.9549326076e+000	 1.5454029957e-001
 4.9024279252e-001	 2.9596726178e+000	 1.4055627440e-001
 4.6247853940e-001	 2.9641379186e+000	 1.3688772570e-001
 4.3475846709e-001	 2.9683303514e+000	 1.4279132170e-001
 4.0708617535e-001	 2.9722518140e+000	 1.5761638928e-001
 3.7946520596e-001	 2.9759042588e+000	 1.8080511745e-001
 3.5189904187e-001	 2.9792896912e+000	 2.1189253373e-001
 3.2439110650e-001	 2.9824101680e+000	 2.5050626010e-001
 2.9694476301e-001	 2.9852677950e+000	 2.9636605501e-001
 2.6956331372e-001	 2.9878647258e+000	 3.4928314883e-001
 5.5043823355e-001	 2.9744987394e+000	 1.8272799743e-001
 5.2236463260e-001	 2.9795570460e+000	 1.5329238444e-001
 4.9432814913e-001	 2.9843365562e+000	 1.3474465341e-001
 4.6633252723e-001	 2.9888390679e+000	 1.2617564477e-001
 4.3838145432e-001	 2.9930664377e+000	 1.2677165430e-001
 4.1047856015e-001	 2.9970205791e+000	 1.3581491775e-001
 3.8262741601e-001	 3.0007034609e+000	 1.5268385485e-001
 3.5483153389e-001	 3.0041171053e+000	 1.7685307864e-001
 3.2709436572e-001	 3.0072635860e+000	 2.0789317673e-001
 2.9941930270e-001	 3.0101450266e+000	 2.4547027139e-001
 2.7180967467e-001	 3.0127635985e+000	 2.8934536592e-001
 5.5498730986e-001	 2.9990813737e+000	 1.9124512225e-001
 5.2668169568e-001	 3.0041814844e+000	 1.5817025685e-001
 4.9841350573e-001	 3.0090004947e+000	 1.3566352416e-001
 4.7018651506e-001	 3.0135402172e+000	 1.2274101846e-001
 4.4200444154e-001	 3.0178025240e+000	 1.1851760810e-001
 4.1387094494e-001	 3.0217893442e+000	 1.2220746870e-001
 3.8578962606e-001	 3.0255026631e+000	 1.3312436760e-001
 3.5776402590e-001	 3.0289445194e+000	 1.5068170595e-001
 3.2979762494e-001	 3.0321170041e+000	 1.7439232498e-001
 3.0189384239e-001	 3.0350222582e+000	 2.0386808375e-001
 2.7405603562e-001	 3.0376624713e+000	 2.3881921584e-001
 5.5953638617e-001	 3.0236640079e+000	 2.0446814962e-001
 5.3099875876e-001	 3.0288059228e+000	 1.6846019579e-001
 5.0249886233e-001	 3.0336644332e+000	 1.4264386615e-001
 4.7404050289e-001	 3.0382413666e+000	 1.2595933963e-001
 4.4562742877e-001	 3.0425386102e+000	 1.1744897463e-001
 4.1726332974e-001	 3.0465581093e+000	 1.1625789079e-001
 3.8895183611e-001	 3.0503018652e+000	 1.2163429395e-001
 3.6069651792e-001	 3.0537719335e+000	 1.3292955080e-001
 3.3250088416e-001	 3.0569704222e+000	 1.4959801997e-001
 3.0436838209e-001	 3.0598994898e+000	 1.7119664685e-001
 2.7630239656e-001	 3.0625613440e+000	 1.9738433010e-001
 5.6408546248e-001	 3.0482466421e+000	 2.2164576895e-001
 5.3531582184e-001	 3.0534303612e+000	 1.8345534845e-001
 5.0658421894e-001	 3.0583283717e+000	 1.5502311441e-001
 4.7789449072e-001	 3.0629425159e+000	 1.3521213309e-001
 4.4925041599e-001	 3.0672746965e+000	 1.2299114297e-001
 4.2065571453e-001	 3.0713268744e+000	 1.1743518534e-001
 3.9211404616e-001	 3.0751010674e+000	 1.1772596976e-001
 3.6362900993e-001	 3.0785993476e+000	 1.2315198109e-001
 3.3520414338e-001	 3.0818238402e+000	 1.3310833504e-001
 3.0684292178e-001	 3.0847767215e+000	 1.4709638978e-001
 2.7854875751e-001	 3.0874602167e+000	 1.6472312158e-001
 5.6863453879e-001	 3.0728292763e+000	 2.4203364839e-001
 5.3963288491e-001	 3.0780547996e+000	 2.0245545545e-001
 5.1066957554e-001	 3.0829923102e+000	 1.7214490129e-001
 4.8174847854e-001	 3.0876436652e+000	 1.4988671420e-001
 4.5287340322e-001	 3.0920107827e+000	 1.3457487576e-001
 4.2404809933e-001	 3.0960956396e+000	 1.2521330025e-001
 3.9527625621e-001	 3.0999002695e+000	 1.2091624070e-001
 3.6656150195e-001	 3.1034267617e+000	 1.2090842813e-001
 3.3790740260e-001	 3.1066772583e+000	 1.2452495137e-001
 3.0931746147e-001	 3.1096539531e+000	 1.3121088493e-001
 2.8079511845e-001	 3.1123590894e+000	 1.4052067325e-001
 5.7318361510e-001	 3.0974119105e+000	 2.6489415793e-001
 5.4394994799e-001	 3.1026792380e+000	 2.2476658924e-001
 5.1475493214e-001	 3.1076562486e+000	 1.9335881052e-001
 4.8560246637e-001	 3.1123448145e+000	 1.6937595921e-001
 4.5649639044e-001	 3.1167468690e+000	 1.5163609607e-001
 4.2744048412e-001	 3.1208644047e+000	 1.3907093371e-001
 3.9843846626e-001	 3.1246994717e+000	 1.3072628318e-001
 3.6949399396e-001	 3.1282541758e+000	 1.2335571196e-001
 3.4061066182e-001	 3.1315306764e+000	 1.2420524963e-001
 3.1179200116e-001	 3.1345311847e+000	 1.3311549548e-001
 2.8304147940e-001	 3.1372579621e+000	 1.4947952887e-001
 5.7773269141e-001	 3.1219945447e+000	 2.8949610552e-001
 5.4826701107e-001	 3.1273036764e+000	 2.3999477485e-001
 5.1884028875e-001	 3.1323201871e+000	 1.9005416428e-001
 4.8945645420e-001	 3.1370459638e+000	 1.5260986395e-001
 4.6011937766e-001	 3.1414829553e+000	 1.2697529058e-001
 4.3083286891e-001	 3.1456331698e+000	 1.1248247509e-001
 4.0160067630e-001	 3.1494986739e+000	 1.0848017928e-001
 3.7242648597e-001	 3.1530815899e+000	 1.1433206394e-001
 3.4331392104e-001	 3.1563840944e+000	 1.2941491226e-001
 3.1426654084e-001	 3.1594084163e+000	 1.5311691212e-001
 2.8528784035e-001	 3.1621568348e+000	 1.8483600052e-001
 5.8228176772e-001	 3.1465771789e+000	 2.2258047308e-001
 5.5258407415e-001	 3.1519281148e+000	 1.6855267491e-001
 5.2292564535e-001	 3.1569841256e+000	 1.2821711707e-001
 4.9331044202e-001	 3.1617471132e+000	 1.0087538414e-001
 4.6374236489e-001	 3.1662190415e+000	 8.5849442243e-002
 4.3422525370e-001	 3.1704019349e+000	 8.2479651105e-002
 4.0476288635e-001	 3.1742978760e+000	 9.0122825554e-002
 3.7535897799e-001	 3.1779090040e+000	 1.0815035066e-001
 3.4601718025e-001	 3.1812375125e+000	 1.3594635460e-001
 3.1674108053e-001	 3.1842856480e+000	 1.7290594280e-001
 2.8753420129e-001	 3.1870557075e+000	 2.1843349669e-001
 5.8683084403e-001	 3.1711598131e+000	 1.5530732451e-001
 5.5690113723e-001	 3.1765525532e+000	 1.0900405058e-001
 5.2701100195e-001	 3.1816480641e+000	 7.6856519866e-002
 4.9716442985e-001	 3.1864482625e+000	 5.8176692496e-002
 4.6736535211e-001	 3.1909551278e+000	 5.2296743856e-002
 4.3761763849e-001	 3.1951707000e+000	 5.8567017084e-002
 4.0792509639e-001	 3.1990970782e+000	 7.6354027139e-002
 3.7829147000e-001	 3.2027364181e+000	 1.0503852092e-001
 3.4872043947e-001	 3.2060909306e+000	 1.4401359751e-001
 3.1921562022e-001	 3.2091628796e+000	 1.9268289219e-001
 2.8978056223e-001	 3.2119545803e+000	 2.5045882770e-001
 5.9137992034e-001	 3.1957424473e+000	 1.0165557727e-001
 5.6121820030e-001	 3.2011769916e+000	 6.1669675925e-002
 5.3109635855e-001	 3.2063120026e+000	 3.6277847654e-002
 5.0101841767e-001	 3.2111494118e+000	 2.4804102834e-002
 4.7098833933e-001	 3.2156912140e+000	 2.6592497652e-002
 4.4101002328e-001	 3.2199394651e+000	 4.1005024670e-002
 4.1108730644e-001	 3.2238962803e+000	 6.7419557319e-002
 3.8122396201e-001	 3.2275638322e+000	 1.0522785285e-001
 3.5142369869e-001	 3.2309443486e+000	 1.5383361790e-001
 3.2169015991e-001	 3.2340401112e+000	 2.1265064046e-001
 2.9202692318e-001	 3.2368534530e+000	 2.8110099159e-001
 2.6956331372e-001	 2.9878647258e+000	 3.4928314883e-001
 2.4224999949e-001	 2.9902031599e+000	 3.5893313521e-001
 2.1500799923e-001	 2.9922853407e+000	 3.7131316233e-001
 1.8784042942e-001	 2.9941135538e+000	 3.8657715143e-001
 1.6075034369e-001	 2.9956901253e+000	 4.0496796539e-001
 1.3374073246e-001	 2.9970174201e+000	 4.2681571605e-001
 1.0681452267e-001	 2.9980978399e+000	 4.5253591449e-001
 7.9974577449e-002	 2.9989338217e+000	 4.8262747333e-001
 5.3223695962e-002	 2.9995278359e+000	 5.1767057018e-001
 2.6564613226e-002	 2.9998823846e+000	 5.5832438134e-001
 0.0000000000e+000	 3.0000000000e+000	 6.0532469495e-001
 2.7180967467e-001	 3.0127635985e+000	 2.8934536592e-001
 2.4426874949e-001	 3.0151215196e+000	 2.8972964739e-001
 2.1679973256e-001	 3.0172210519e+000	 2.9210847418e-001
 1.8940576633e-001	 3.0190645001e+000	 2.9658345953e-001
 1.6208992988e-001	 3.0206542097e+000	 3.0334871733e-001
 1.3485523857e-001	 3.0219925653e+000	 3.1268915495e-001
 1.0770464369e-001	 3.0230819886e+000	 3.2497860291e-001
 8.0641032261e-002	 3.0239249369e+000	 3.4067779053e-001
 5.3667226761e-002	 3.0245239012e+000	 3.6033217707e-001
 2.6785985003e-002	 3.0248814045e+000	 3.8456964765e-001
 0.0000000000e+000	 3.0250000000e+000	 4.1409808342e-001
 2.7405603562e-001	 3.0376624713e+000	 2.3881921584e-001
 2.4628749948e-001	 3.0400398793e+000	 2.2962145720e-001
 2.1859146589e-001	 3.0421567631e+000	 2.2161786527e-001
 1.9097110324e-001	 3.0440154464e+000	 2.1485760244e-001
 1.6342951608e-001	 3.0456182941e+000	 2.0948596951e-001
 1.3596974467e-001	 3.0469677104e+000	 2.0574268282e-001
 1.0859476471e-001	 3.0480661373e+000	 2.0395998191e-001
 8.1307487072e-002	 3.0489160521e+000	 2.0456057709e-001
 5.4110757560e-002	 3.0495199665e+000	 2.0805544677e-001
 2.7007356780e-002	 3.0498804243e+000	 2.1504149391e-001
 0.0000000000e+000	 3.0500000000e+000	 2.2619907168e-001
 2.7630239656e-001	 3.0625613440e+000	 1.9738433010e-001
 2.4830624948e-001	 3.0649582389e+000	 1.7833932700e-001
 2.2038319921e-001	 3.0670924742e+000	 1.5962284104e-001
 1.9253644015e-001	 3.0689663926e+000	 1.4123141731e-001
 1.6476910228e-001	 3.0705823785e+000	 1.2326145676e-001
 1.3708425077e-001	 3.0719428556e+000	 1.0590747639e-001
 1.0948488573e-001	 3.0730502859e+000	 8.9460193514e-002
 8.1973941883e-002	 3.0739071672e+000	 7.4304443886e-002
 5.4554288360e-002	 3.0745160318e+000	 6.0916943566e-002
 2.7228728556e-002	 3.0748794442e+000	 4.9863904450e-002
 0.0000000000e+000	 3.0750000000e+000	 4.1798513511e-002
 2.7854875751e-001	 3.0874602167e+000	 1.6472312158e-001
 2.5032499947e-001	 3.0898765986e+000	 1.3561600722e-001
 2.2217493254e-001	 3.0920281854e+000	 1.0590609265e-001
 1.9410177707e-001	 3.0939173389e+000	 7.5537115998e-002
 1.6610868847e-001	 3.0955464628e+000	 4.4556469337e-002
 1.3819875688e-001	 3.0969180008e+000	 1.3113440659e-002
 1.1037500676e-001	 3.0980344346e+000	-1.8542726559e-002
 8.2640396694e-002	 3.0988982824e+000	-5.0064946188e-002
 5.4997819159e-002	 3.0995120971e+000	-8.1010564512e-002
 2.7450100333e-002	 3.0998784641e+000	-1.1084378731e-001
 0.0000000000e+000	 3.1000000000e+000	-1.3893824868e-001
 2.8079511845e-001	 3.1123590894e+000	 1.4052067325e-001
 2.5234374947e-001	 3.1147949583e+000	 1.0118615684e-001
 2.2396666586e-001	 3.1169638966e+000	 6.0251449540e-002
 1.9566711398e-001	 3.1188682852e+000	 1.7607270060e-002
 1.6744827467e-001	 3.1205105472e+000	-2.6748129316e-002
 1.3931326298e-001	 3.1218931460e+000	-7.2710740211e-002
 1.1126512778e-001	 3.1230185833e+000	-1.2007276464e-001
 8.3306851506e-002	 3.1238893976e+000	-1.6852476027e-001
 5.5441349958e-002	 3.1245081624e+000	-2.1765795389e-001
 2.7671472109e-002	 3.1248774839e+000	-2.6696671283e-001
 0.0000000000e+000	 3.1250000000e+000	-3.1585116347e-001
 2.8304147940e-001	 3.1372579621e+000	 1.4947952887e-001
 2.5436249946e-001	 3.1397133179e+000	 1.2058497233e-001
 2.2575839919e-001	 3.1418996077e+000	 9.4408025276e-002
 1.9723245089e-001	 3.1438192315e+000	 7.0365936235e-002
 1.6878786087e-001	 3.1454746316e+000	 4.7883413297e-002
 1.4042776908e-001	 3.1468682911e+000	 2.6391275438e-002
 1.1215524880e-001	 3.1480027319e+000	 5.3251740395e-003
 8.3973306317e-002	 3.1488805128e+000	-1.5875614248e-002
 5.5884880757e-002	 3.1495042277e+000	-3.7769322462e-002
 2.7892843886e-002	 3.1498765038e+000	-6.0912755533e-002
 0.0000000000e+000	 3.1500000000e+000	-8.5862279431e-002
 2.8528784035e-001	 3.1621568348e+000	 1.8483600052e-001
 2.5638124945e-001	 3.1646316776e+000	 1.7035297275e-001
 2.2755013251e-001	 3.1668353189e+000	 1.5926898511e-001
 1.9879778780e-001	 3.1687701778e+000	 1.5099308254e-001
 1.7012744706e-001	 3.1704387160e+000	 1.4494132368e-001
 1.4154227518e-001	 3.1718434363e+000	 1.4053540777e-001
 1.1304536982e-001	 3.1729868806e+000	 1.3720137411e-001
 8.4639761128e-002	 3.1738716280e+000	 1.3436837496e-001
 5.6328411556e-002	 3.1745002930e+000	 1.3146752289e-001
 2.8114215663e-002	 3.1748755237e+000	 1.2793081307e-001
 0.0000000000e+000	 3.1750000000e+000	 1.2319012075e-001
 2.8753420129e-001	 3.1870557075e+000	 2.1843349669e-001
 2.5839999945e-001	 3.1895500373e+000	 2.1648405220e-001
 2.2934186584e-001	 3.1917710301e+000	 2.1860515233e-001
 2.0036312471e-001	 3.1937211241e+000	 2.2419930007e-001
 1.7146703326e-001	 3.1954028003e+000	 2.3267554236e-001
 1.4265678129e-001	 3.1968185815e+000	 2.4344807121e-001
 1.1393549084e-001	 3.1979710292e+000	 2.5593489950e-001
 8.5306215939e-002	 3.1988627432e+000	 2.6955661255e-001
 5.6771942355e-002	 3.1994963583e+000	 2.8373519651e-001
 2.8335587439e-002	 3.1998745436e+000	 2.9789294382e-001
 0.0000000000e+000	 3.2000000000e+000	 3.1145143626e-001
 2.8978056223e-001	 3.2119545803e+000	 2.5045882770e-001
 2.6041874944e-001	 3.2144683969e+000	 2.5915921166e-001
 2.3113359916e-001	 3.2167067413e+000	 2.7259197409e-001
 2.0192846161e-001	 3.2186720703e+000	 2.9015474365e-001
 1.7280661945e-001	 3.2203668847e+000	 3.1125119929e-001
 1.4377128739e-001	 3.2217937266e+000	 3.3528964386e-001
 1.1482561186e-001	 3.2229551779e+000	 3.6168165478e-001
 8.5972670750e-002	 3.2238538583e+000	 3.8984081298e-001
 5.7215473154e-002	 3.2244924236e+000	 4.1918151087e-001
 2.8556959216e-002	 3.2248735634e+000	 4.4911783986e-001
 0.0000000000e+000	 3.2250000000e+000	 4.7906255777e-001
 2.9202692318e-001	 3.2368534530e+000	 2.8110099159e-001
 2.6243749943e-001	 3.2393867566e+000	 2.9856101589e-001
 2.3292533249e-001	 3.2416424524e+000	 3.2140583014e-001
 2.0349379852e-001	 3.2436230166e+000	 3.4902986284e-001
 1.7414620565e-001	 3.2453309691e+000	 3.8083307476e-001
 1.4488579349e-001	 3.2467688718e+000	 4.1621950355e-001
 1.1571573288e-001	 3.2479393266e+000	 4.5459588781e-001
 8.6639125561e-002	 3.2488449735e+000	 4.9537037193e-001
 5.7659003953e-002	 3.2494884889e+000	 5.3795129239e-001
 2.8778330992e-002	 3.2498725833e+000	 5.8174604608e-001
 0.0000000000e+000	 3.2500000000e+000	 6.2616004088e-001
 3.2500000000e+000	 0.0000000000e+000	 7.5480684896e-001
 3.2498725833e+000	 2.8778330992e-002	 8.0990628175e-001
 3.2494884889e+000	 5.7659003953e-002	 8.6313711913e-001
 3.2488449735e+000	 8.6639125561e-002	 9.1343441773e-001
 3.2479393266e+000	 1.1571573288e-001	 9.5980830832e-001
 3.2467688718e+000	 1.4488579349e-001	 1.0013474238e+000
 3.2453309691e+000	 1.7414620565e-001	 1.0372222561e+000
 3.2436230166e+000	 2.0349379852e-001	 1.0666884328e+000
 3.2416424524e+000	 2.3292533249e-001	 1.0890899019e+000
 3.2393867566e+000	 2.6243749943e-001	 1.1038620163e+000
 3.2368534530e+000	 2.9202692318e-001	 1.1105345068e+000
 3.2750000000e+000	 0.0000000000e+000	 7.9813681702e-001
 3.2748716032e+000	 2.8999702769e-002	 8.4328788349e-001
 3.2744845542e+000	 5.8102534752e-002	 8.8696021074e-001
 3.2738360887e+000	 8.7305580372e-002	 9.2811073169e-001
 3.2729234752e+000	 1.1660585390e-001	 9.6577339742e-001
 3.2717440170e+000	 1.4600029959e-001	 9.9906264164e-001
 3.2702950535e+000	 1.7548579184e-001	 1.0271767712e+000
 3.2685739629e+000	 2.0505913543e-001	 1.0494012726e+000
 3.2665781636e+000	 2.3471706581e-001	 1.0651120242e+000
 3.2643051163e+000	 2.6445624942e-001	 1.0737784036e+000
 3.2617523257e+000	 2.9427328412e-001	 1.0749662805e+000
 3.3000000000e+000	 0.0000000000e+000	 8.3952682350e-001
 3.2998706230e+000	 2.9221074545e-002	 8.7581079713e-001
 3.2994806195e+000	 5.8546065551e-002	 9.1093881318e-001
 3.2988272039e+000	 8.7972035183e-002	 9.4388875703e-001
 3.2979076239e+000	 1.1749597492e-001	 9.7371753100e-001
 3.2967191621e+000	 1.4711480569e-001	 9.9956455750e-001
 3.2952591379e+000	 1.7682537804e-001	 1.0206552050e+000
 3.2935249092e+000	 2.0662447234e-001	 1.0363041270e+000
 3.2915138748e+000	 2.3650879913e-001	 1.0459185028e+000
 3.2892234759e+000	 2.6647499942e-001	 1.0490011708e+000
 3.2866511984e+000	 2.9651964507e-001	 1.0451536423e+000
 3.3250000000e+000	 0.0000000000e+000	 8.7906021415e-001
 3.3248696429e+000	 2.9442446322e-002	 9.0753608330e-001
 3.3244766848e+000	 5.8989596350e-002	 9.3511171649e-001
 3.3238183191e+000	 8.8638489994e-002	 9.6078503765e-001
 3.3228917726e+000	 1.1838609594e-001	 9.8363504177e-001
 3.3216943073e+000	 1.4822931180e-001	 1.0028253386e+000
 3.3202232222e+000	 1.7816496423e-001	 1.0176076162e+000
 3.3184758555e+000	 2.0818980925e-001	 1.0273250146e+000
 3.3164495860e+000	 2.3830053246e-001	 1.0314153973e+000
 3.3141418356e+000	 2.6849374941e-001	 1.0294145114e+000
 3.3115500711e+000	 2.9876600601e-001	 1.0209590255e+000
 3.3500000000e+000	 0.0000000000e+000	 9.1681784676e-001
 3.3498686628e+000	 2.9663818098e-002	 9.3852283784e-001
 3.3494727501e+000	 5.9433127149e-002	 9.5951625270e-001
 3.3488094342e+000	 8.9304944806e-002	 9.7881514968e-001
 3.3478759212e+000	 1.1927621697e-001	 9.9551976779e-001
 3.3466694525e+000	 1.4934381790e-001	 1.0088171132e+000
 3.3451873066e+000	 1.7950455043e-001	 1.0179844627e+000
 3.3434268017e+000	 2.0975514616e-001	 1.0223927735e+000
 3.3413852971e+000	 2.4009226578e-001	 1.0215099877e+000
 3.3390601953e+000	 2.7051249940e-001	 1.0149042221e+000
 3.3364489438e+000	 3.0101236695e-001	 1.0022468306e+000
 3.3750000000e+000	 0.0000000000e+000	 9.5287818335e-001
 3.3748676827e+000	 2.9885189875e-002	 9.6882826452e-001
 3.3744688154e+000	 5.9876657948e-002	 9.8418834987e-001
 3.3738005494e+000	 8.9971399617e-002	 9.9799373728e-001
 3.3728600699e+000	 1.2016633799e-001	 1.0093650708e+000
 3.3716445976e+000	 1.5045832400e-001	 1.0175119724e+000
 3.3701513910e+000	 1.8084413662e-001	 1.0217365869e+000
 3.3683777480e+000	 2.1132048307e-001	 1.0214370303e+000
 3.3663210083e+000	 2.4188399911e-001	 1.0161107298e+000
 3.3639785549e+000	 2.7253124940e-001	 1.0053576438e+000
 3.3613478166e+000	 3.0325872790e-001	 9.8888335202e-001
 3.4000000000e+000	 0.0000000000e+000	 9.8731737824e-001
 3.3998667025e+000	 3.0106561652e-002	 9.9850774461e-001
 3.3994648807e+000	 6.0320188747e-002	 1.0091625837e+000
 3.3987916646e+000	 9.0637854428e-002	 1.0183345469e+000
 3.3978442186e+000	 1.2105645901e-001	 1.0251638538e+000
 3.3966197428e+000	 1.5157283010e-001	 1.0288819710e+000
 3.3951154754e+000	 1.8218372282e-001	 1.0288152012e+000
 3.3933286943e+000	 2.1288581998e-001	 1.0243881716e+000
 3.3912567195e+000	 2.4367573243e-001	 1.0151272114e+000
 3.3888969146e+000	 2.7454999939e-001	 1.0006636045e+000
 3.3862466893e+000	 3.0550508885e-001	 9.8073670888e-001
 3.4250000000e+000	 0.0000000000e+000	 1.0202093623e+000
 3.4248657224e+000	 3.0327933428e-002	 1.0276149034e+000
 3.4244609460e+000	 6.0763719546e-002	 1.0344722269e+000
 3.4237827798e+000	 9.1304309239e-002	 1.0398504601e+000
 3.4228283672e+000	 1.2194658003e-001	 1.0429085777e+000
 3.4215948880e+000	 1.5268733621e-001	 1.0428991294e+000
 3.4200795598e+000	 1.8352330902e-001	 1.0391718750e+000
 3.4182796406e+000	 2.1445115689e-001	 1.0311773162e+000
 3.4161924307e+000	 2.4546746576e-001	 1.0184701114e+000
 3.4138152743e+000	 2.7656874939e-001	 1.0007123654e+000
 3.4111455620e+000	 3.0775144979e-001	 9.7767677813e-001
 3.4500000000e+000	 0.0000000000e+000	 1.0516259233e+000
 3.4498647423e+000	 3.0549305205e-002	 1.0562016740e+000
 3.4494570113e+000	 6.1207250346e-002	 1.0601492963e+000
 3.4487738950e+000	 9.1970764051e-002	 1.0625535248e+000
 3.4478125159e+000	 1.2283670105e-001	 1.0625912773e+000
 3.4465700331e+000	 1.5380184231e-001	 1.0595354341e+000
 3.4450436441e+000	 1.8486289521e-001	 1.0527585217e+000
 3.4432305869e+000	 2.1601649380e-001	 1.0417362881e+000
 3.4411281418e+000	 2.4725919909e-001	 1.0260511601e+000
 3.4387336339e+000	 2.7858749938e-001	 1.0053955685e+000
 3.4360444347e+000	 3.0999781074e-001	 9.7957513096e-001
 3.4750000000e+000	 0.0000000000e+000	 1.0816367835e+000
 3.4748637621e+000	 3.0770676981e-002	 1.0843183577e+000
 3.4744530766e+000	 6.1650781145e-002	 1.0862245982e+000
 3.4737650101e+000	 9.2637218862e-002	 1.0864549853e+000
 3.4727966646e+000	 1.2372682207e-001	 1.0842035767e+000
 3.4715451783e+000	 1.5491634841e-001	 1.0787628398e+000
 3.4700077285e+000	 1.8620248141e-001	 1.0695273858e+000
 3.4681815332e+000	 2.1758183071e-001	 1.0559975919e+000
 3.4660638530e+000	 2.4905093241e-001	 1.0377831012e+000
 3.4636519936e+000	 2.8060624938e-001	 1.0146061874e+000
 3.4609433074e+000	 3.1224417169e-001	 9.8630497185e-001
 3.5000000000e+000	 0.0000000000e+000	 1.1103096727e+000
 3.4998627820e+000	 3.0992048758e-002	 1.1120136829e+000
 3.4994491419e+000	 6.2094311944e-002	 1.1127277714e+000
 3.4987561253e+000	 9.3303673673e-002	 1.1115653111e+000
 3.4977808132e+000	 1.2461694309e-001	 1.1077367041e+000
 3.4965203235e+000	 1.5603085452e-001	 1.1005532699e+000
 3.4949718129e+000	 1.8754206761e-001	 1.0894310317e+000
 3.4931324794e+000	 2.1914716763e-001	 1.0738943878e+000
 3.4909995642e+000	 2.5084266574e-001	 1.0535796559e+000
 3.4885703533e+000	 2.8262499937e-001	 1.0282384793e+000
 3.4858421801e+000	 3.1449053264e-001	 9.9774108024e-001
 3.2368534530e+000	 2.9202692318e-001	 1.1105345068e+000
 3.2340401112e+000	 3.2169015991e-001	 1.1332056061e+000
 3.2309443486e+000	 3.5142369869e-001	 1.1492560832e+000
 3.2275638322e+000	 3.8122396201e-001	 1.1585380766e+000
 3.2238962803e+000	 4.1108730644e-001	 1.1610073193e+000
 3.2199394651e+000	 4.4101002328e-001	 1.1567253497e+000
 3.2156912140e+000	 4.7098833933e-001	 1.1458615509e+000
 3.2111494118e+000	 5.0101841767e-001	 1.1286950086e+000
 3.2063120026e+000	 5.3109635855e-001	 1.1056161764e+000
 3.2011769916e+000	 5.6121820030e-001	 1.0771283413e+000
 3.1957424473e+000	 5.9137992034e-001	 1.0438488775e+000
 3.2617523257e+000	 2.9427328412e-001	 1.0749662805e+000
 3.2589173428e+000	 3.2416469960e-001	 1.0930403186e+000
 3.2557977667e+000	 3.5412695790e-001	 1.1053796028e+000
 3.2523912463e+000	 3.8415645402e-001	 1.1118749881e+000
 3.2486954825e+000	 4.1424951648e-001	 1.1125228316e+000
 3.2447082303e+000	 4.4440240807e-001	 1.1074271999e+000
 3.2404273003e+000	 4.7461132655e-001	 1.0968019007e+000
 3.2358505611e+000	 5.0487240550e-001	 1.0809723266e+000
 3.2309759410e+000	 5.3518171515e-001	 1.0603771035e+000
 3.2258014300e+000	 5.6553526338e-001	 1.0355695317e+000
 3.2203250815e+000	 5.9592899665e-001	 1.0072188127e+000
 3.2866511984e+000	 2.9651964507e-001	 1.0451536423e+000
 3.2837945745e+000	 3.2663923928e-001	 1.0588426328e+000
 3.2806511848e+000	 3.5683021712e-001	 1.0676057617e+000
 3.2772186604e+000	 3.8708894603e-001	 1.0713723478e+000
 3.2734946847e+000	 4.1741172653e-001	 1.0701791960e+000
 3.2694769954e+000	 4.4779479286e-001	 1.0641728032e+000
 3.2651633866e+000	 4.7823431377e-001	 1.0536113819e+000
 3.2605517105e+000	 5.0872639332e-001	 1.0388666937e+000
 3.2556398795e+000	 5.3926707176e-001	 1.0204256795e+000
 3.2504258684e+000	 5.6985232646e-001	 9.9889187959e-001
 3.2449077157e+000	 6.0047807296e-001	 9.7498663300e-001
 3.3115500711e+000	 2.9876600601e-001	 1.0209590255e+000
 3.3086718061e+000	 3.2911377897e-001	 1.0304570398e+000
 3.3055046028e+000	 3.5953347634e-001	 1.0357613175e+000
 3.3020460744e+000	 3.9002143804e-001	 1.0368394025e+000
 3.2982938868e+000	 4.2057393658e-001	 1.0337683853e+000
 3.2942457605e+000	 4.5118717765e-001	 1.0267371082e+000
 3.2898994728e+000	 4.8185730100e-001	 1.0160481845e+000
 3.2852528598e+000	 5.1258038115e-001	 1.0021198203e+000
 3.2803038180e+000	 5.4335242836e-001	 9.8548743025e-001
 3.2750503068e+000	 5.7416938954e-001	 9.6680503658e-001
 3.2694903500e+000	 6.0502714927e-001	 9.4684644171e-001
 3.3364489438e+000	 3.0101236695e-001	 1.0022468306e+000
 3.3335490377e+000	 3.3158831866e-001	 1.0077302310e+000
 3.3303580209e+000	 3.6223673555e-001	 1.0096754403e+000
 3.3268734885e+000	 3.9295393006e-001	 1.0080880009e+000
 3.3230930890e+000	 4.2373614662e-001	 1.0030851402e+000
 3.3190145256e+000	 4.5457956245e-001	 9.9489797570e-001
 3.3146355591e+000	 4.8548028822e-001	 9.8387353048e-001
 3.3099540091e+000	 5.1643436897e-001	 9.7047654623e-001
 3.3049677565e+000	 5.4743778496e-001	 9.5529108455e-001
 3.2996747452e+000	 5.7848645261e-001	 9.3902190629e-001
 3.2940729842e+000	 6.0957622558e-001	 9.2249561915e-001
 3.3613478166e+000	 3.0325872790e-001	 9.8888335202e-001
 3.3584262693e+000	 3.3406285835e-001	 9.9051101748e-001
 3.3552114390e+000	 3.6493999477e-001	 9.8917962291e-001
 3.3517009026e+000	 3.9588642207e-001	 9.8493249695e-001
 3.3478922911e+000	 4.2689835667e-001	 9.7792686757e-001
 3.3437832907e+000	 4.5797194724e-001	 9.6843607065e-001
 3.3393716454e+000	 4.8910327544e-001	 9.5685156244e-001
 3.3346551584e+000	 5.2028835680e-001	 9.4368472512e-001
 3.3296316950e+000	 5.5152314156e-001	 9.2956845508e-001
 3.3242991836e+000	 5.8280351569e-001	 9.1525852380e-001
 3.3186556184e+000	 6.1412530188e-001	 9.0163470119e-001
 3.3862466893e+000	 3.0550508885e-001	 9.8073670888e-001
 3.3833035010e+000	 3.3653739804e-001	 9.7865025121e-001
 3.3800648570e+000	 3.6764325399e-001	 9.7410759618e-001
 3.3765283167e+000	 3.9881891408e-001	 9.6718965779e-001
 3.3726914933e+000	 4.3006056672e-001	 9.5809354193e-001
 3.3685520559e+000	 4.6136433203e-001	 9.4713475907e-001
 3.3641077316e+000	 4.9272626267e-001	 9.3474923560e-001
 3.3593563078e+000	 5.2414234463e-001	 9.2149511319e-001
 3.3542956335e+000	 5.5560849817e-001	 9.0805432529e-001
 3.3489236220e+000	 5.8712057877e-001	 8.9523394056e-001
 3.3432382526e+000	 6.1867437819e-001	 8.8396726323e-001
 3.4111455620e+000	 3.0775144979e-001	 9.7767677813e-001
 3.4081807326e+000	 3.3901193773e-001	 9.7200075121e-001
 3.4049182751e+000	 3.7034651321e-001	 9.6429524674e-001
 3.4013557308e+000	 4.0175140610e-001	 9.5467857579e-001
 3.3974906954e+000	 4.3322277677e-001	 9.4338761191e-001
 3.3933208210e+000	 4.6475671683e-001	 9.3078000945e-001
 3.3888438179e+000	 4.9634924989e-001	 9.1733621538e-001
 3.3840574571e+000	 5.2799633246e-001	 9.0366126356e-001
 3.3789595719e+000	 5.5969385477e-001	 8.9048634087e-001
 3.3735480604e+000	 5.9143764185e-001	 8.7867011432e-001
 3.3678208868e+000	 6.2322345450e-001	 8.6919980930e-001
 3.4360444347e+000	 3.0999781074e-001	 9.7957513096e-001
 3.4330579642e+000	 3.4148647742e-001	 9.7041723199e-001
 3.4297716932e+000	 3.7304977243e-001	 9.5958053915e-001
 3.4261831449e+000	 4.0468389811e-001	 9.4722058422e-001
 3.4222898976e+000	 4.3638498682e-001	 9.3361391057e-001
 3.4180895861e+000	 4.6814910162e-001	 9.1916029855e-001
 3.4135799042e+000	 4.9997223712e-001	 9.0438477917e-001
 3.4087586064e+000	 5.3185032028e-001	 8.8993942484e-001
 3.4036235104e+000	 5.6377921137e-001	 8.7660490610e-001
 3.3981724988e+000	 5.9575470493e-001	 8.6529180377e-001
 3.3924035210e+000	 6.2777253081e-001	 8.5173212851e-001
 3.4609433074e+000	 3.1224417169e-001	 9.8630497185e-001
 3.4579351959e+000	 3.4396101711e-001	 9.7375623544e-001
 3.4546251112e+000	 3.7575303165e-001	 9.5980344107e-001
 3.4510105590e+000	 4.0761639013e-001	 9.4463917668e-001
 3.4470890998e+000	 4.3954719687e-001	 9.2857956968e-001
 3.4428583512e+000	 4.7154148642e-001	 9.1206652107e-001
 3.4383159904e+000	 5.0359522435e-001	 8.9566972238e-001
 3.4334597557e+000	 5.3570430811e-001	 8.8008844415e-001
 3.4282874489e+000	 5.6786456798e-001	 8.6615308462e-001
 3.4227969372e+000	 6.0007176801e-001	 8.5482646784e-001
 3.4169861552e+000	 6.3232160712e-001	 8.3312596544e-001
 3.4858421801e+000	 3.1449053264e-001	 9.9774108024e-001
 3.4828124275e+000	 3.4643555681e-001	 9.8187606555e-001
 3.4794785293e+000	 3.7845629087e-001	 9.6480585177e-001
 3.4758379731e+000	 4.1054888215e-001	 9.4675992990e-001
 3.4718883019e+000	 4.4270940692e-001	 9.2809393757e-001
 3.4676271163e+000	 4.7493387121e-001	 9.0929190337e-001
 3.4630520767e+000	 5.0721821157e-001	 8.9096826852e-001
 3.4581609051e+000	 5.3955829594e-001	 8.7386967439e-001
 3.4529513874e+000	 5.7194992458e-001	 8.5887650440e-001
 3.4474213756e+000	 6.0438883109e-001	 8.4700416926e-001
 3.4415687894e+000	 6.3687068343e-001	 8.1667718814e-001
 3.1957424473e+000	 5.9137992034e-001	 1.0438488775e+000
 3.1900065032e+000	 6.2157743620e-001	 1.0555706919e+000
 3.1839673596e+000	 6.5180660668e-001	 1.0305517087e+000
 3.1776232857e+000	 6.8206323302e-001	 9.9591757584e-001
 3.1709726212e+000	 7.1234306010e-001	 9.5701215889e-001
 3.1640137784e+000	 7.4264177780e-001	 9.1399700938e-001
 3.1567452436e+000	 7.7295502237e-001	 8.6704898201e-001
 3.1491655796e+000	 8.0327837781e-001	 8.1636041606e-001
 3.1412734265e+000	 8.3360737744e-001	 7.6213929126e-001
 3.1330675043e+000	 8.6393750537e-001	 7.0460935699e-001
 3.1245466141e+000	 8.9426419823e-001	 6.4668549259e-001
 3.2203250815e+000	 5.9592899665e-001	 1.0072188127e+000
 3.2145450148e+000	 6.2635880109e-001	 1.0232475969e+000
 3.2084594163e+000	 6.5682050366e-001	 9.9438938666e-001
 3.2020665418e+000	 6.8730987327e-001	 9.6160313739e-001
 3.1953647183e+000	 7.1782262210e-001	 9.2502789205e-001
 3.1883523459e+000	 7.4835440687e-001	 8.8481748824e-001
 3.1810278994e+000	 7.7890083024e-001	 8.4114076797e-001
 3.1733899302e+000	 8.0945744226e-001	 7.9418176337e-001
 3.1654370683e+000	 8.4001974188e-001	 7.4413985723e-001
 3.1571680236e+000	 8.7058317850e-001	 6.9122991700e-001
 3.1485815881e+000	 9.0114315360e-001	 6.3568240124e-001
 3.2449077157e+000	 6.0047807296e-001	 9.7498663300e-001
 3.2390835264e+000	 6.3114016599e-001	 9.8818729084e-001
 3.2329514729e+000	 6.6183440064e-001	 9.6038921085e-001
 3.2265097978e+000	 6.9255651353e-001	 9.2913859099e-001
 3.2197568154e+000	 7.2330218410e-001	 8.9456709140e-001
 3.2126909134e+000	 7.5406703593e-001	 8.5682087675e-001
 3.2053105551e+000	 7.8484663811e-001	 8.1606083042e-001
 3.1976142808e+000	 8.1563650671e-001	 7.7246274486e-001
 3.1896007100e+000	 8.4643210633e-001	 7.2621748688e-001
 3.1812685429e+000	 8.7722885162e-001	 6.7753113664e-001
 3.1726165620e+000	 9.0802210898e-001	 6.2662509940e-001
 3.2694903500e+000	 6.0502714927e-001	 9.4684644171e-001
 3.2636220379e+000	 6.3592153088e-001	 9.5551166146e-001
 3.2574435295e+000	 6.6684829761e-001	 9.2848429140e-001
 3.2509530539e+000	 6.9780315378e-001	 8.9846584090e-001
 3.2441489125e+000	 7.2878174611e-001	 8.6558061309e-001
 3.2370294809e+000	 7.5977966499e-001	 8.2996713835e-001
 3.2295932108e+000	 7.9079244597e-001	 7.9177839315e-001
 3.2218386314e+000	 8.2181557116e-001	 7.5118199522e-001
 3.2137643518e+000	 8.5284447077e-001	 7.0836037377e-001
 3.2053690621e+000	 8.8387452474e-001	 6.6351091377e-001
 3.1966515360e+000	 9.1490106435e-001	 6.1684607295e-001
 3.2940729842e+000	 6.0957622558e-001	 9.2249561915e-001
 3.2881605495e+000	 6.4070289577e-001	 9.2514823084e-001
 3.2819355861e+000	 6.7186219458e-001	 8.9861054758e-001
 3.2753963099e+000	 7.0304979404e-001	 8.6952935693e-001
 3.2685410096e+000	 7.3426130811e-001	 8.3802162864e-001
 3.2613680485e+000	 7.6549229405e-001	 8.0421829526e-001
 3.2538758665e+000	 7.9673825384e-001	 7.6826447572e-001
 3.2460629820e+000	 8.2799463561e-001	 7.3031967554e-001
 3.2379279935e+000	 8.5925683522e-001	 6.9055796232e-001
 3.2294695814e+000	 8.9052019786e-001	 6.4916811526e-001
 3.2206865099e+000	 9.2178001972e-001	 6.0635374776e-001
 3.3186556184e+000	 6.1412530188e-001	 9.0163470119e-001
 3.3126990611e+000	 6.4548426067e-001	 8.9702745468e-001
 3.3064276427e+000	 6.7687609156e-001	 8.7070660390e-001
 3.2998395660e+000	 7.0829643429e-001	 8.4227607943e-001
 3.2929331067e+000	 7.3974087011e-001	 8.1184553923e-001
 3.2857066160e+000	 7.7120492311e-001	 7.7953835223e-001
 3.2781585222e+000	 8.0268406170e-001	 7.4549182692e-001
 3.2702873326e+000	 8.3417370005e-001	 7.0985741685e-001
 3.2620916352e+000	 8.6566919966e-001	 6.7280090145e-001
 3.2535701007e+000	 8.9716587098e-001	 6.3450254115e-001
 3.2447214839e+000	 9.2865897510e-001	 5.9515720561e-001
 3.3432382526e+000	 6.1867437819e-001	 8.8396726323e-001
 3.3372375726e+000	 6.5026562556e-001	 8.7108261437e-001
 3.3309196993e+000	 6.8188998853e-001	 8.4471369059e-001
 3.3242828220e+000	 7.1354307455e-001	 8.1665532847e-001
 3.3173252037e+000	 7.4522043211e-001	 7.8700989369e-001
 3.3100451835e+000	 7.7691755217e-001	 7.5589322362e-001
 3.3024411780e+000	 8.0862986957e-001	 7.2343486123e-001
 3.2945116833e+000	 8.4035276450e-001	 6.8977826599e-001
 3.2862552770e+000	 8.7208156410e-001	 6.5508100029e-001
 3.2776706199e+000	 9.0381154410e-001	 6.1951489032e-001
 3.2687564578e+000	 9.3553793047e-001	 5.8326616008e-001
 3.3678208868e+000	 6.2322345450e-001	 8.6919980930e-001
 3.3617760842e+000	 6.5504699045e-001	 8.4724971388e-001
 3.3554117559e+000	 6.8690388551e-001	 8.2057554852e-001
 3.3487260780e+000	 7.1878971480e-001	 7.9261871698e-001
 3.3417173008e+000	 7.5069999411e-001	 7.6347431013e-001
 3.3343837511e+000	 7.8263018123e-001	 7.3325066376e-001
 3.3267238337e+000	 8.1457567743e-001	 7.0206959803e-001
 3.3187360339e+000	 8.4653182894e-001	 6.7006663401e-001
 3.3104189187e+000	 8.7849392854e-001	 6.3739118587e-001
 3.3017711392e+000	 9.1045721722e-001	 6.0420672770e-001
 3.2927914318e+000	 9.4241688584e-001	 5.7069093347e-001
 3.3924035210e+000	 6.2777253081e-001	 8.5173212851e-001
 3.3863145957e+000	 6.5982835535e-001	 8.2546738111e-001
 3.3799038126e+000	 6.9191778248e-001	 7.9823833824e-001
 3.3731693341e+000	 7.2403635505e-001	 7.7012006767e-001
 3.3661093979e+000	 7.5617955611e-001	 7.4120040095e-001
 3.3587223186e+000	 7.8834281029e-001	 7.1158020022e-001
 3.3510064894e+000	 8.2052148530e-001	 6.8137360343e-001
 3.3429603845e+000	 8.5271089338e-001	 6.5070824670e-001
 3.3345825605e+000	 8.8490629298e-001	 6.1972546258e-001
 3.3258716585e+000	 9.1710289033e-001	 5.8858045286e-001
 3.3168264057e+000	 9.4929584121e-001	 5.5744243475e-001
 3.4169861552e+000	 6.3232160712e-001	 8.3312596544e-001
 3.4108531073e+000	 6.6460972024e-001	 8.0567677348e-001
 3.4043958692e+000	 6.9693167945e-001	 7.7765055294e-001
 3.3976125901e+000	 7.2928299530e-001	 7.4911533357e-001
 3.3905014950e+000	 7.6165911811e-001	 7.2015170114e-001
 3.3830608861e+000	 7.9405543935e-001	 6.9085307007e-001
 3.3752891451e+000	 8.2646729316e-001	 6.6132593462e-001
 3.3671847351e+000	 8.5888995783e-001	 6.3169009733e-001
 3.3587462022e+000	 8.9131865742e-001	 6.0207887344e-001
 3.3499721777e+000	 9.2374856345e-001	 5.7263927002e-001
 3.3408613797e+000	 9.5617479658e-001	 5.4353213850e-001
 3.4415687894e+000	 6.3687068343e-001	 8.1667718814e-001
 3.4353916189e+000	 6.6939108513e-001	 7.8782148764e-001
 3.4288879258e+000	 7.0194557643e-001	 7.5876293512e-001
 3.4220558462e+000	 7.3452963556e-001	 7.2956252189e-001
 3.4148935921e+000	 7.6713868010e-001	 7.0029359958e-001
 3.4073994536e+000	 7.9976806841e-001	 6.7104215883e-001
 3.3995718009e+000	 8.3241310102e-001	 6.4190708668e-001
 3.3914090857e+000	 8.6506902227e-001	 6.1300040135e-001
 3.3829098440e+000	 8.9773102186e-001	 5.8444746299e-001
 3.3740726970e+000	 9.3039423656e-001	 5.5638715933e-001
 3.3648963537e+000	 9.6305375194e-001	 5.2897206463e-001
 3.1245466141e+000	 8.9426419823e-001	 6.4668549259e-001
 3.1157096398e+000	 9.2458284674e-001	 6.3665294125e-001
 3.1065555498e+000	 9.5488879754e-001	 6.2305458003e-001
 3.0970833988e+000	 9.8517735496e-001	 6.0600758303e-001
 3.0872923289e+000	 1.0154437829e+000	 5.8563187190e-001
 3.0771815712e+000	 1.0456833066e+000	 5.6204978486e-001
 3.0667504478e+000	 1.0758911149e+000	 5.3538573686e-001
 3.0559983723e+000	 1.1060623621e+000	 5.0576587193e-001
 3.0449248518e+000	 1.1361921700e+000	 4.7331770829e-001
 3.0335294880e+000	 1.1662756302e+000	 4.3816977734e-001
 3.0218119785e+000	 1.1963078061e+000	 4.0045125736e-001
 3.1485815881e+000	 9.0114315360e-001	 6.3568240124e-001
 3.1396766370e+000	 9.3169502249e-001	 5.7895959791e-001
 3.1304521310e+000	 9.6223409599e-001	 5.1757307433e-001
 3.1209071173e+000	 9.9275564231e-001	 4.7574214713e-001
 3.1110407314e+000	 1.0232548889e+000	 4.6339377719e-001
 3.1008521987e+000	 1.0537270243e+000	 4.4868000227e-001
 3.0903408358e+000	 1.0841672004e+000	 4.3171756211e-001
 3.0795060520e+000	 1.1145705341e+000	 4.1262399226e-001
 3.0683473506e+000	 1.1449321098e+000	 3.9151725730e-001
 3.0568643302e+000	 1.1752469812e+000	 3.6851537884e-001
 3.0450566860e+000	 1.2055101738e+000	 3.4373605932e-001
 3.1726165620e+000	 9.0802210898e-001	 6.2662509940e-001
 3.1636436342e+000	 9.3880719824e-001	 5.7497900840e-001
 3.1543487122e+000	 9.6957939444e-001	 5.1933639588e-001
 3.1447308357e+000	 1.0003339297e+000	 4.5994727137e-001
 3.1347891339e+000	 1.0310659949e+000	 3.9707895860e-001
 3.1245228262e+000	 1.0617707421e+000	 3.3378224488e-001
 3.1139312239e+000	 1.0924432859e+000	 3.2597260844e-001
 3.1030137318e+000	 1.1230787061e+000	 3.1684660654e-001
 3.0917698495e+000	 1.1536720496e+000	 3.0651291865e-001
 3.0801991724e+000	 1.1842183322e+000	 2.9507933188e-001
 3.0683013935e+000	 1.2147125416e+000	 2.8265235461e-001
 3.1966515360e+000	 9.1490106435e-001	 6.1684607295e-001
 3.1876106315e+000	 9.4591937399e-001	 5.6990516152e-001
 3.1782452933e+000	 9.7692469289e-001	 5.1961767839e-001
 3.1685545542e+000	 1.0079122170e+000	 4.6622728711e-001
 3.1585375365e+000	 1.0388771009e+000	 4.0999455062e-001
 3.1481934537e+000	 1.0698144598e+000	 3.5119693624e-001
 3.1375216120e+000	 1.1007193714e+000	 2.9012878613e-001
 3.1265214116e+000	 1.1315868782e+000	 2.2710125208e-001
 3.1151923483e+000	 1.1624119893e+000	 2.1827013185e-001
 3.1035340146e+000	 1.1931896832e+000	 2.1783612664e-001
 3.0915461010e+000	 1.2239149093e+000	 2.1718399393e-001
 3.2206865099e+000	 9.2178001972e-001	 6.0635374776e-001
 3.2115776287e+000	 9.5303154973e-001	 5.6375523087e-001
 3.2021418745e+000	 9.8426999133e-001	 5.1844306197e-001
 3.1923782726e+000	 1.0154905044e+000	 4.7065465911e-001
 3.1822859390e+000	 1.0466882070e+000	 4.2064394098e-001
 3.1718640811e+000	 1.0778581776e+000	 3.6868133182e-001
 3.1611120000e+000	 1.1089954569e+000	 3.1505373206e-001
 3.1500290914e+000	 1.1400950502e+000	 2.6006445352e-001
 3.1386148472e+000	 1.1711519291e+000	 2.0403311857e-001
 3.1268688568e+000	 1.2021610342e+000	 1.4729552242e-001
 3.1147908086e+000	 1.2331172771e+000	 1.4731247864e-001
 3.2447214839e+000	 9.2865897510e-001	 5.9515720561e-001
 3.2355446259e+000	 9.6014372548e-001	 5.5654679091e-001
 3.2260384556e+000	 9.9161528978e-001	 5.1583882413e-001
 3.2162019911e+000	 1.0230687917e+000	 4.7326457658e-001
 3.2060343415e+000	 1.0544993130e+000	 4.2907143725e-001
 3.1955347086e+000	 1.0859018953e+000	 3.8352291796e-001
 3.1847023881e+000	 1.1172715424e+000	 3.3689862420e-001
 3.1735367712e+000	 1.1486032222e+000	 2.8949419087e-001
 3.1620373461e+000	 1.1798918689e+000	 2.4162118197e-001
 3.1502036991e+000	 1.2111323852e+000	 1.9360695379e-001
 3.1380355161e+000	 1.2423196448e+000	 1.4579448058e-001
 3.2687564578e+000	 9.3553793047e-001	 5.8326616008e-001
 3.2595116232e+000	 9.6725590122e-001	 5.4829780220e-001
 3.2499350368e+000	 9.9896058822e-001	 5.1183137482e-001
 3.2400257095e+000	 1.0306470791e+000	 4.7409209941e-001
 3.2297827441e+000	 1.0623104190e+000	 4.3532094805e-001
 3.2192053361e+000	 1.0939456130e+000	 3.9577464880e-001
 3.2082927761e+000	 1.1255476279e+000	 3.5572565695e-001
 3.1970444510e+000	 1.1571113942e+000	 3.1546209127e-001
 3.1854598449e+000	 1.1886318086e+000	 2.7528763448e-001
 3.1735385413e+000	 1.2201037362e+000	 2.3552139722e-001
 3.1612802236e+000	 1.2515220125e+000	 1.9560320559e-001
 3.2927914318e+000	 9.4241688584e-001	 5.7069093347e-001
 3.2834786204e+000	 9.7436807697e-001	 5.3902659730e-001
 3.2738316179e+000	 1.0063058867e+000	 5.0644725149e-001
 3.2638494280e+000	 1.0382253664e+000	 4.7317216290e-001
 3.2535311466e+000	 1.0701215250e+000	 4.3943599763e-001
 3.2428759635e+000	 1.1019893308e+000	 4.0548882676e-001
 3.2318831642e+000	 1.1338237134e+000	 3.7159609807e-001
 3.2205521308e+000	 1.1656195662e+000	 3.3803857295e-001
 3.2088823438e+000	 1.1973717484e+000	 3.0511222768e-001
 3.1968733835e+000	 1.2290750872e+000	 2.7312811822e-001
 3.1845249311e+000	 1.2607243803e+000	 2.3638118507e-001
 3.3168264057e+000	 9.4929584121e-001	 5.5744243475e-001
 3.3074456176e+000	 9.8148025271e-001	 5.2875186733e-001
 3.2977281991e+000	 1.0136511851e+000	 4.9971311455e-001
 3.2876731465e+000	 1.0458036537e+000	 4.7053958227e-001
 3.2772795491e+000	 1.0779326310e+000	 4.4145973981e-001
 3.2665465910e+000	 1.1100330485e+000	 4.1271712614e-001
 3.2554735523e+000	 1.1420997989e+000	 3.8457032231e-001
 3.2440598105e+000	 1.1741277382e+000	 3.5729288906e-001
 3.2323048426e+000	 1.2061116882e+000	 3.3117326888e-001
 3.2202082257e+000	 1.2380464382e+000	 3.0651465184e-001
 3.2077696387e+000	 1.2699267480e+000	 2.7292185381e-001
 3.3408613797e+000	 9.5617479658e-001	 5.4353213850e-001
 3.3314126149e+000	 9.8859242845e-001	 5.1749264902e-001
 3.3216247802e+000	 1.0209964835e+000	 4.9165574291e-001
 3.3114968649e+000	 1.0533819411e+000	 4.6622905699e-001
 3.3010279516e+000	 1.0857437371e+000	 4.4143497125e-001
 3.2902172185e+000	 1.1180767663e+000	 4.1751061570e-001
 3.2790639403e+000	 1.1503758844e+000	 3.9470784353e-001
 3.2675674903e+000	 1.1826359103e+000	 3.7329316953e-001
 3.2557273415e+000	 1.2148516279e+000	 3.5354767309e-001
 3.2435430679e+000	 1.2470177892e+000	 3.3576686491e-001
 3.2310143462e+000	 1.2791291158e+000	 3.0530308529e-001
 3.3648963537e+000	 9.6305375194e-001	 5.2897206463e-001
 3.3553796121e+000	 9.9570460419e-001	 5.0526831240e-001
 3.3455213614e+000	 1.0283417820e+000	 4.8230202977e-001
 3.3353205834e+000	 1.0609602284e+000	 4.6027517489e-001
 3.3247763542e+000	 1.0935548431e+000	 4.3940414425e-001
 3.3138878460e+000	 1.1261204840e+000	 4.1991978030e-001
 3.3026543284e+000	 1.1586519699e+000	 4.0206734541e-001
 3.2910751701e+000	 1.1911440823e+000	 3.8610646124e-001
 3.2791498404e+000	 1.2235915677e+000	 3.7231101270e-001
 3.2668779101e+000	 1.2559891402e+000	 3.5801537670e-001
 3.2542590537e+000	 1.2883314835e+000	 3.3360087191e-001
 3.0218119785e+000	 1.1963078061e+000	 4.0045125736e-001
 3.0097721177e+000	 1.2262837353e+000	 3.5066742921e-001
 2.9974097985e+000	 1.2561984318e+000	 2.9984260397e-001
 2.9847250126e+000	 1.2860468885e+000	 2.3540828379e-001
 2.9717178521e+000	 1.3158240793e+000	 1.7432506374e-001
 2.9583885102e+000	 1.3455249618e+000	 1.1660088958e-001
 2.9447372821e+000	 1.3751444794e+000	 6.2239853150e-002
 2.9307645658e+000	 1.4046775645e+000	 1.1242155817e-002
 2.9164708625e+000	 1.4341191402e+000	-3.6395922741e-002
 2.9018567779e+000	 1.4634641235e+000	-8.0682050387e-002
 2.8869230222e+000	 1.4927074274e+000	-1.2162786288e-001
 3.0450566860e+000	 1.2055101738e+000	 3.4373605932e-001
 3.0329242109e+000	 1.2357166871e+000	 3.0414463321e-001
 3.0204667969e+000	 1.2658614967e+000	 2.5606144691e-001
 3.0076844357e+000	 1.2959395569e+000	 2.0053092341e-001
 2.9945772202e+000	 1.3259458030e+000	 1.4760019093e-001
 2.9811453449e+000	 1.3558751538e+000	 9.7279988527e-002
 2.9673891074e+000	 1.3857225139e+000	 4.9577915769e-002
 2.9533089086e+000	 1.4154827765e+000	 4.4984010639e-003
 2.9389052537e+000	 1.4451508259e+000	-3.7957325645e-002
 2.9241787531e+000	 1.4747215398e+000	-7.7791255668e-002
 2.9091301224e+000	 1.5041897923e+000	-1.1500861977e-001
 3.0683013935e+000	 1.2147125416e+000	 2.8265235461e-001
 3.0560763041e+000	 1.2451496389e+000	 2.5336829085e-001
 3.0435237954e+000	 1.2755245616e+000	 2.0846471267e-001
 3.0306438589e+000	 1.3058322253e+000	 1.6207507145e-001
 3.0174365883e+000	 1.3360675267e+000	 1.1754643782e-001
 3.0039021796e+000	 1.3662253458e+000	 7.4892293722e-002
 2.9900409326e+000	 1.3963005484e+000	 3.4123687725e-002
 2.9758532514e+000	 1.4262879886e+000	-4.7507918518e-003
 2.9613396450e+000	 1.4561825116e+000	-4.1725040322e-002
 2.9465007283e+000	 1.4859789561e+000	-7.6795456377e-002
 2.9313372226e+000	 1.5156721571e+000	-1.0996095814e-001
 3.0915461010e+000	 1.2239149093e+000	 2.1718399393e-001
 3.0792283974e+000	 1.2545825907e+000	 1.9525618823e-001
 3.0665807938e+000	 1.2851876264e+000	 1.5712308919e-001
 3.0536032821e+000	 1.3157248936e+000	 1.2010658436e-001
 3.0402959564e+000	 1.3461892504e+000	 8.4224559415e-002
 3.0266590143e+000	 1.3765755378e+000	 4.9493189477e-002
 3.0126927579e+000	 1.4068785828e+000	 1.5926914283e-002
 2.9983975942e+000	 1.4370932006e+000	-1.6461583975e-002
 2.9837740362e+000	 1.4672141973e+000	-4.7661400134e-002
 2.9688227035e+000	 1.4972363725e+000	-7.7663422772e-002
 2.9535443227e+000	 1.5271545219e+000	-1.0646034811e-001
 3.1147908086e+000	 1.2331172771e+000	 1.4731247864e-001
 3.1023804906e+000	 1.2640155425e+000	 1.2992108346e-001
 3.0896377923e+000	 1.2948506913e+000	 1.0210518365e-001
 3.0765627052e+000	 1.3256175620e+000	 7.4689384387e-002
 3.0631553244e+000	 1.3563109741e+000	 4.7693531123e-002
 3.0494158490e+000	 1.3869257298e+000	 2.1136443208e-002
 3.0353445831e+000	 1.4174566173e+000	-4.9641054155e-003
 3.0209419370e+000	 1.4478984127e+000	-3.0591403681e-002
 3.0062084275e+000	 1.4782458830e+000	-5.5729818996e-002
 2.9911446788e+000	 1.5084937888e+000	-8.0364810943e-002
 2.9757514229e+000	 1.5386368868e+000	-1.0448294302e-001
 3.1380355161e+000	 1.2423196448e+000	 1.4579448058e-001
 3.1255325838e+000	 1.2734484944e+000	 6.3711990765e-002
 3.1126947907e+000	 1.3045137561e+000	 4.3477599577e-002
 3.0995221284e+000	 1.3355102304e+000	 2.5885531178e-002
 3.0860146925e+000	 1.3664326978e+000	 8.0106146580e-003
 3.0721726837e+000	 1.3972759218e+000	-1.0125734676e-002
 3.0579964084e+000	 1.4280346517e+000	-2.8502464794e-002
 3.0434862798e+000	 1.4587036247e+000	-4.7098899735e-002
 3.0286428187e+000	 1.4892775687e+000	-6.5894751354e-002
 3.0134666540e+000	 1.5197512051e+000	-8.4870130008e-002
 2.9979585231e+000	 1.5501192516e+000	-1.0400555417e-001
 3.1612802236e+000	 1.2515220125e+000	 1.9560320559e-001
 3.1486846770e+000	 1.2828814462e+000	 1.1866451610e-001
 3.1357517892e+000	 1.3141768210e+000	 4.0094452394e-002
 3.1224815516e+000	 1.3454028988e+000	-2.6244709741e-002
 3.1088740606e+000	 1.3765544214e+000	-3.4768578960e-002
 3.0949295184e+000	 1.4076261138e+000	-4.4242633536e-002
 3.0806482336e+000	 1.4386126862e+000	-5.4642598644e-002
 3.0660306226e+000	 1.4695088367e+000	-6.5943896429e-002
 3.0510772100e+000	 1.5003092544e+000	-7.8121653928e-002
 3.0357886292e+000	 1.5310086215e+000	-9.1150710752e-002
 3.0201656232e+000	 1.5616016164e+000	-1.0500562656e-001
 3.1845249311e+000	 1.2607243803e+000	 2.3638118507e-001
 3.1718367702e+000	 1.2923143980e+000	 1.6945737427e-001
 3.1588087876e+000	 1.3238398859e+000	 1.0013898627e-001
 3.1454409748e+000	 1.3552955671e+000	 2.8672874005e-002
 3.1317334287e+000	 1.3866761451e+000	-4.4683879918e-002
 3.1176863531e+000	 1.4179763059e+000	-8.1164987763e-002
 3.1033000588e+000	 1.4491907206e+000	-8.3340234166e-002
 3.0885749654e+000	 1.4803140488e+000	-8.7087350676e-002
 3.0735116012e+000	 1.5113409401e+000	-9.2376949137e-002
 3.0581106044e+000	 1.5422660378e+000	-9.9178675636e-002
 3.0423727234e+000	 1.5730839812e+000	-1.0746121582e-001
 3.2077696387e+000	 1.2699267480e+000	 2.7292185381e-001
 3.1949888634e+000	 1.3017473498e+000	 2.1616629431e-001
 3.1818657860e+000	 1.3335029507e+000	 1.5626144666e-001
 3.1684003979e+000	 1.3651882355e+000	 9.3460318713e-002
 3.1545927968e+000	 1.3967978688e+000	 2.8027061313e-002
 3.1404431878e+000	 1.4283264979e+000	-3.9763253932e-002
 3.1259518841e+000	 1.4597687551e+000	-1.0962488278e-001
 3.1111193082e+000	 1.4911192608e+000	-1.1049131097e-001
 3.0959459925e+000	 1.5223726258e+000	-1.0862799011e-001
 3.0804325796e+000	 1.5535234541e+000	-1.0892691012e-001
 3.0645798236e+000	 1.5845663461e+000	-1.1135096607e-001
 3.2310143462e+000	 1.2791291158e+000	 3.0530308529e-001
 3.2181409566e+000	 1.3111803016e+000	 2.5886516261e-001
 3.2049227845e+000	 1.3431660156e+000	 2.0853147399e-001
 3.1913598211e+000	 1.3750809039e+000	 1.5456122433e-001
 3.1774521649e+000	 1.4069195925e+000	 9.7225672560e-002
 3.1632000224e+000	 1.4386766899e+000	 3.6807911148e-002
 3.1486037093e+000	 1.4703467896e+000	-2.6397381564e-002
 3.1336636511e+000	 1.5019244728e+000	-9.2084216367e-002
 3.1183803837e+000	 1.5334043115e+000	-1.2684302719e-001
 3.1027545548e+000	 1.5647808705e+000	-1.2036903519e-001
 3.0867869237e+000	 1.5960487109e+000	-1.1665408874e-001
 3.2542590537e+000	 1.2883314835e+000	 3.3360087191e-001
 3.2412930498e+000	 1.3206132534e+000	 2.9762608872e-001
 3.2279797829e+000	 1.3528290804e+000	 2.5701704266e-001
 3.2143192443e+000	 1.3849735723e+000	 2.1203917862e-001
 3.2003115330e+000	 1.4170413162e+000	 1.6297090442e-001
 3.1859568571e+000	 1.4490268819e+000	 1.1010337212e-001
 3.1712555346e+000	 1.4809248240e+000	 5.3740230551e-002
 3.1562079939e+000	 1.5127296849e+000	-5.8026506997e-003
 3.1408147750e+000	 1.5444359972e+000	-6.8197485942e-002
 3.1250765300e+000	 1.5760382868e+000	-1.3310490649e-001
 3.1089940239e+000	 1.6075310757e+000	-1.2335034232e-001
 2.8869230222e+000	 1.4927074274e+000	-1.2162786288e-001
 2.8716704108e+000	 1.5218439643e+000	-1.6764545728e-001
 2.8560998648e+000	 1.5508686476e+000	-2.1195096577e-001
 2.8402124111e+000	 1.5797763955e+000	-2.5471168481e-001
 2.8240091829e+000	 1.6085621327e+000	-2.9609862262e-001
 2.8074914197e+000	 1.6372207940e+000	-3.3628633631e-001
 2.7906604674e+000	 1.6657473264e+000	-3.7545276201e-001
 2.7735177786e+000	 1.6941366922e+000	-4.1377903836e-001
 2.7560649120e+000	 1.7223838716e+000	-4.5144932327e-001
 2.7383035326e+000	 1.7504838655e+000	-4.8865060461e-001
 2.7202354115e+000	 1.7784316985e+000	-5.2557250482e-001
 2.9091301224e+000	 1.5041897923e+000	-1.1500861977e-001
 2.8937601832e+000	 1.5335504563e+000	-1.6114080085e-001
 2.8780698638e+000	 1.5627984065e+000	-2.0585749483e-001
 2.8620601989e+000	 1.5919285216e+000	-2.4930542416e-001
 2.8457323305e+000	 1.6209356876e+000	-2.9163458498e-001
 2.8290875075e+000	 1.6498148002e+000	-3.3299810183e-001
 2.8121270864e+000	 1.6785607674e+000	-3.7355207599e-001
 2.7948525307e+000	 1.7071685129e+000	-4.1345542778e-001
 2.7772654113e+000	 1.7356329783e+000	-4.5286973311e-001
 2.7593674059e+000	 1.7639491260e+000	-4.9195905435e-001
 2.7411602993e+000	 1.7921119423e+000	-5.3088976584e-001
 2.9313372226e+000	 1.5156721571e+000	-1.0996095814e-001
 2.9158499556e+000	 1.5452569483e+000	-1.5560345665e-001
 2.9000398628e+000	 1.5747281653e+000	-2.0012104246e-001
 2.8839079867e+000	 1.6040806477e+000	-2.4364013052e-001
 2.8674554780e+000	 1.6333092425e+000	-2.8628997710e-001
 2.8506835954e+000	 1.6624088063e+000	-3.2820255168e-001
 2.8335937054e+000	 1.6913742084e+000	-3.6951240331e-001
 2.8161872829e+000	 1.7202003336e+000	-4.1035652169e-001
 2.7984659106e+000	 1.7488820850e+000	-4.5087419304e-001
 2.7804312793e+000	 1.7774143865e+000	-4.9120685103e-001
 2.7620851870e+000	 1.8057921862e+000	-5.3149792300e-001
 2.9535443227e+000	 1.5271545219e+000	-1.0646034811e-001
 2.9379397280e+000	 1.5569634404e+000	-1.5102192035e-001
 2.9220098617e+000	 1.5866579241e+000	-1.9474325679e-001
 2.9057557745e+000	 1.6162327739e+000	-2.3773072602e-001
 2.8891786256e+000	 1.6456827974e+000	-2.8009311095e-001
 2.8722796832e+000	 1.6750028124e+000	-3.2194149778e-001
 2.8550603244e+000	 1.7041876494e+000	-3.6338916023e-001
 2.8375220350e+000	 1.7332321543e+000	-4.0455143905e-001
 2.8196664100e+000	 1.7621311917e+000	-4.4554561707e-001
 2.8014951526e+000	 1.7908796470e+000	-4.8649078998e-001
 2.7830100748e+000	 1.8194724300e+000	-5.2750773301e-001
 2.9757514229e+000	 1.5386368868e+000	-1.0448294302e-001
 2.9600295004e+000	 1.5686699324e+000	-1.4738497935e-001
 2.9439798607e+000	 1.5985876830e+000	-1.8972568246e-001
 2.9276035623e+000	 1.6283849000e+000	-2.3159163033e-001
 2.9109017732e+000	 1.6580563522e+000	-2.7307139360e-001
 2.8938757711e+000	 1.6875968185e+000	-3.1425544149e-001
 2.8765269434e+000	 1.7170010903e+000	-3.5523604355e-001
 2.8588567872e+000	 1.7462639751e+000	-3.9610716753e-001
 2.8408669093e+000	 1.7753802984e+000	-4.3696437335e-001
 2.8225590259e+000	 1.8043449075e+000	-4.7790470352e-001
 2.8039349626e+000	 1.8331526738e+000	-5.1902656998e-001
 2.9979585231e+000	 1.5501192516e+000	-1.0400555417e-001
 2.9821192728e+000	 1.5803764244e+000	-1.4468170203e-001
 2.9659498596e+000	 1.6105174418e+000	-1.8506976441e-001
 2.9494513500e+000	 1.6405370261e+000	-2.2523677926e-001
 2.9326249207e+000	 1.6704299071e+000	-2.6525136079e-001
 2.9154718589e+000	 1.7001908246e+000	-3.0518362208e-001
 2.8979935624e+000	 1.7298145313e+000	-3.4510509427e-001
 2.8801915393e+000	 1.7592957958e+000	-3.8508864245e-001
 2.8620674086e+000	 1.7886294051e+000	-4.2520837847e-001
 2.8436228993e+000	 1.8178101680e+000	-4.6553957065e-001
 2.8248598504e+000	 1.8468329177e+000	-5.0615855070e-001
 3.0201656232e+000	 1.5616016164e+000	-1.0500562656e-001
 3.0042090452e+000	 1.5920829165e+000	-1.4290142740e-001
 2.9879198586e+000	 1.6224472006e+000	-1.8077685158e-001
 2.9712991378e+000	 1.6526891522e+000	-2.1867964259e-001
 2.9543480683e+000	 1.6828034620e+000	-2.5665870892e-001
 2.9370679468e+000	 1.7127848307e+000	-2.9476406318e-001
 2.9194601813e+000	 1.7426279723e+000	-3.3304675847e-001
 2.9015262915e+000	 1.7723276165e+000	-3.7155882224e-001
 2.8832679079e+000	 1.8018785118e+000	-4.1035318755e-001
 2.8646867726e+000	 1.8312754286e+000	-4.4948362201e-001
 2.8457847382e+000	 1.8605131615e+000	-4.8900465441e-001
 3.0423727234e+000	 1.5730839812e+000	-1.0746121582e-001
 3.0262988176e+000	 1.6037894085e+000	-1.4203375523e-001
 3.0098898576e+000	 1.6343769594e+000	-1.7684820038e-001
 2.9931469256e+000	 1.6648412783e+000	-2.1193324104e-001
 2.9760712159e+000	 1.6951770168e+000	-2.4731832570e-001
 2.9586640346e+000	 1.7253788368e+000	-2.8303361709e-001
 2.9409268003e+000	 1.7554414133e+000	-3.1910994555e-001
 2.9228610436e+000	 1.7853594372e+000	-3.5557876058e-001
 2.9044684072e+000	 1.8151276185e+000	-3.9247208046e-001
 2.8857506459e+000	 1.8447406891e+000	-4.2982244011e-001
 2.8667096260e+000	 1.8741934053e+000	-4.6766283730e-001
 3.0645798236e+000	 1.5845663461e+000	-1.1135096607e-001
 3.0483885900e+000	 1.6154959005e+000	-1.4206853659e-001
 3.0318598565e+000	 1.6463067183e+000	-1.7328497808e-001
 3.0149947134e+000	 1.6769934045e+000	-2.0501016255e-001
 2.9977943634e+000	 1.7075505717e+000	-2.3725431944e-001
 2.9802601225e+000	 1.7379728429e+000	-2.7002800726e-001
 2.9623934193e+000	 1.7682548542e+000	-3.0334208387e-001
 2.9441957958e+000	 1.7983912579e+000	-3.3720767544e-001
 2.9256689066e+000	 1.8283767252e+000	-3.7163614426e-001
 2.9068145192e+000	 1.8582059496e+000	-4.0663905536e-001
 2.8876345137e+000	 1.8878736492e+000	-4.5730024719e-001
 3.0867869237e+000	 1.5960487109e+000	-1.1665408874e-001
 3.0704783624e+000	 1.6272023926e+000	-1.4299586483e-001
 3.0538298555e+000	 1.6582364771e+000	-1.7008826598e-001
 3.0368425011e+000	 1.6891455306e+000	-1.9792257786e-001
 3.0195175110e+000	 1.7199241266e+000	-2.2649004710e-001
 3.0018562103e+000	 1.7505668490e+000	-2.5578186891e-001
 2.9838600383e+000	 1.7810682952e+000	-2.8578917404e-001
 2.9655305479e+000	 1.8114230786e+000	-3.1650301505e-001
 2.9468694059e+000	 1.8416258319e+000	-3.4791435204e-001
 2.9278783926e+000	 1.8716712101e+000	-3.8001403780e-001
 2.9085594015e+000	 1.9015538930e+000	-4.4392317945e-001
 3.1089940239e+000	 1.6075310757e+000	-1.2335034232e-001
 3.0925681348e+000	 1.6389088846e+000	-1.4480606691e-001
 3.0757998544e+000	 1.6701662359e+000	-1.6725906251e-001
 3.0586902889e+000	 1.7012976567e+000	-1.9068225540e-001
 3.0412406585e+000	 1.7322976814e+000	-2.1504814111e-001
 3.0234522981e+000	 1.7631608551e+000	-2.4032878785e-001
 3.0053266573e+000	 1.7938817362e+000	-2.6649583992e-001
 2.9868653000e+000	 1.8244548993e+000	-2.9352052118e-001
 2.9680699052e+000	 1.8548749386e+000	-3.2137363845e-001
 2.9489422659e+000	 1.8851364706e+000	-3.6166763817e-001
 2.9294842893e+000	 1.9152341368e+000	-4.2671378386e-001
 2.7202354115e+000	 1.7784316985e+000	-5.2557250482e-001
 2.7018624252e+000	 1.8062224213e+000	-5.3539942438e-001
 2.6831865557e+000	 1.8338511137e+000	-5.4432465494e-001
 2.6642098895e+000	 1.8613128874e+000	-5.5230126635e-001
 2.6449346172e+000	 1.8886028886e+000	-5.7585102947e-001
 2.6253630329e+000	 1.9157163009e+000	-6.1483188717e-001
 2.6054975333e+000	 1.9426483480e+000	-6.5234538233e-001
 2.5853406170e+000	 1.9693942963e+000	-6.8812106839e-001
 2.5648948833e+000	 1.9959494577e+000	-7.2188886864e-001
 2.5441630315e+000	 2.0223091922e+000	-7.5337961392e-001
 2.5231478596e+000	 2.0484689108e+000	-7.8232558181e-001
 2.7411602993e+000	 1.7921119423e+000	-5.3088976584e-001
 2.7226459824e+000	 1.8201164399e+000	-5.3733859207e-001
 2.7038264523e+000	 1.8479576607e+000	-5.4253507277e-001
 2.6847038117e+000	 1.8756306788e+000	-5.4722980598e-001
 2.6652802681e+000	 1.9031306032e+000	-5.8334452184e-001
 2.6455581331e+000	 1.9304525802e+000	-6.1802377835e-001
 2.6255398220e+000	 1.9575917969e+000	-6.5102386341e-001
 2.6052278525e+000	 1.9845434832e+000	-6.8210123520e-001
 2.5846248440e+000	 2.0113029150e+000	-7.1101303642e-001
 2.5637335164e+000	 2.0378654168e+000	-7.3751761066e-001
 2.5425566893e+000	 2.0642263640e+000	-7.6137501972e-001
 2.7620851870e+000	 1.8057921862e+000	-5.3149792300e-001
 2.7434295395e+000	 1.8340104585e+000	-5.3531568633e-001
 2.7244663489e+000	 1.8620642078e+000	-5.3753534543e-001
 2.7051977340e+000	 1.8899484703e+000	-5.5628490371e-001
 2.6856259190e+000	 1.9176583177e+000	-5.8915225017e-001
 2.6657532334e+000	 1.9451888594e+000	-6.2034953207e-001
 2.6455821107e+000	 1.9725352457e+000	-6.4965910296e-001
 2.6251150880e+000	 1.9996926701e+000	-6.7686381827e-001
 2.6043548046e+000	 2.0266563724e+000	-7.0174752928e-001
 2.5833040013e+000	 2.0534216413e+000	-7.2409557876e-001
 2.5619655190e+000	 2.0799838171e+000	-7.4369529700e-001
 2.7830100748e+000	 1.8194724300e+000	-5.2750773301e-001
 2.7642130966e+000	 1.8479044772e+000	-5.2942394429e-001
 2.7451062455e+000	 1.8761707548e+000	-5.3080862956e-001
 2.7256916562e+000	 1.9042662617e+000	-5.6293643016e-001
 2.7059715699e+000	 1.9321860322e+000	-5.9335567301e-001
 2.6859483336e+000	 1.9599251387e+000	-6.2187392264e-001
 2.6656243995e+000	 1.9874786945e+000	-6.4829910139e-001
 2.6450023235e+000	 2.0148418570e+000	-6.7243996131e-001
 2.6240847652e+000	 2.0420098298e+000	-6.9410655843e-001
 2.6028744861e+000	 2.0689778659e+000	-7.1311072820e-001
 2.5813743487e+000	 2.0957412703e+000	-7.2926656076e-001
 2.8039349626e+000	 1.8331526738e+000	-5.1902656998e-001
 2.7849966537e+000	 1.8617984958e+000	-5.1975374069e-001
 2.7657461421e+000	 1.8902773018e+000	-5.3656563329e-001
 2.7461855784e+000	 1.9185840532e+000	-5.6728061956e-001
 2.7263172208e+000	 1.9467137467e+000	-5.9603496644e-001
 2.7061434339e+000	 1.9746614179e+000	-6.2266097418e-001
 2.6856666882e+000	 2.0024221433e+000	-6.4699164363e-001
 2.6648895590e+000	 2.0299910439e+000	-6.6886112948e-001
 2.6438147259e+000	 2.0573632871e+000	-6.8810519540e-001
 2.6224449710e+000	 2.0845340904e+000	-7.0456166978e-001
 2.6007831784e+000	 2.1114987234e+000	-7.1807090083e-001
 2.8248598504e+000	 1.8468329177e+000	-5.0615855070e-001
 2.8057802108e+000	 1.8756925144e+000	-5.0721554165e-001
 2.7863860387e+000	 1.9043838488e+000	-5.3934610101e-001
 2.7666795006e+000	 1.9329018446e+000	-5.6941196111e-001
 2.7466628717e+000	 1.9612414613e+000	-5.9726907154e-001
 2.7263385341e+000	 1.9893976971e+000	-6.2277398844e-001
 2.7057089769e+000	 2.0173655922e+000	-6.4578430719e-001
 2.6847767946e+000	 2.0451402308e+000	-6.6615909754e-001
 2.6635446865e+000	 2.0727167445e+000	-6.8375934018e-001
 2.6420154558e+000	 2.1000903150e+000	-6.9844836323e-001
 2.6201920081e+000	 2.1272561766e+000	-7.1009227783e-001
 2.8457847382e+000	 1.8605131615e+000	-4.8900465441e-001
 2.8265637680e+000	 1.8895865330e+000	-5.0675997974e-001
 2.8070259352e+000	 1.9184903959e+000	-5.3925780312e-001
 2.7871734229e+000	 1.9472196360e+000	-5.6942326315e-001
 2.7670085226e+000	 1.9757691758e+000	-5.9713573982e-001
 2.7465336344e+000	 2.0041339764e+000	-6.2227557133e-001
 2.7257512656e+000	 2.0323090410e+000	-6.4472446972e-001
 2.7046640301e+000	 2.0602894177e+000	-6.6436593843e-001
 2.6832746472e+000	 2.0880702019e+000	-6.8108569072e-001
 2.6615859407e+000	 2.1156465395e+000	-6.9477206762e-001
 2.6396008378e+000	 2.1430136297e+000	-7.0531645438e-001
 2.8667096260e+000	 1.8741934053e+000	-4.6766283730e-001
 2.8473473251e+000	 1.9034805517e+000	-5.0281134565e-001
 2.8276658318e+000	 1.9325969429e+000	-5.3640641980e-001
 2.8076673451e+000	 1.9615374275e+000	-5.6740571450e-001
 2.7873541735e+000	 1.9902968903e+000	-5.9571157659e-001
 2.7667287347e+000	 2.0188702556e+000	-6.2122765832e-001
 2.7457935543e+000	 2.0472524898e+000	-6.4385931636e-001
 2.7245512656e+000	 2.0754386045e+000	-6.6351401240e-001
 2.7030046078e+000	 2.1034236592e+000	-6.8010171388e-001
 2.6811564256e+000	 2.1312027641e+000	-6.9353529396e-001
 2.6590096675e+000	 2.1587710829e+000	-7.0373092933e-001
 2.8876345137e+000	 1.8878736492e+000	-4.5730024719e-001
 2.8681308822e+000	 1.9173745703e+000	-4.9548724753e-001
 2.8483057284e+000	 1.9467034899e+000	-5.3089561667e-001
 2.8281612673e+000	 1.9758552189e+000	-5.6344894313e-001
 2.8076998244e+000	 2.0048246048e+000	-5.9307208254e-001
 2.7869238349e+000	 2.0336065348e+000	-6.1969153872e-001
 2.7658358430e+000	 2.0621959387e+000	-6.4323584668e-001
 2.7444385011e+000	 2.0905877914e+000	-6.6363595659e-001
 2.7227345685e+000	 2.1187771166e+000	-6.8082561751e-001
 2.7007269104e+000	 2.1467589886e+000	-6.9474175979e-001
 2.6784184972e+000	 2.1745285361e+000	-7.0532487487e-001
 2.9085594015e+000	 1.9015538930e+000	-4.4392317945e-001
 2.8889144393e+000	 1.9312685889e+000	-4.8490291673e-001
 2.8689456250e+000	 1.9608100369e+000	-5.2282711732e-001
 2.8486551895e+000	 1.9901730104e+000	-5.5764107233e-001
 2.8280454753e+000	 2.0193523194e+000	-5.8929169344e-001
 2.8071189352e+000	 2.0483428141e+000	-6.1772787897e-001
 2.7858781318e+000	 2.0771393875e+000	-6.4290088137e-001
 2.7643257366e+000	 2.1057369783e+000	-6.6476467509e-001
 2.7424645291e+000	 2.1341305740e+000	-6.8327632382e-001
 2.7202973953e+000	 2.1623152132e+000	-6.9839634584e-001
 2.6978273268e+000	 2.1902859892e+000	-7.1008907631e-001
 2.9294842893e+000	 1.9152341368e+000	-4.2671378386e-001
 2.9096979964e+000	 1.9451626075e+000	-4.7117129270e-001
 2.8895855216e+000	 1.9749165840e+000	-5.1230077264e-001
 2.8691491118e+000	 2.0044908018e+000	-5.5006877442e-001
 2.8483911262e+000	 2.0338800339e+000	-5.8444381817e-001
 2.8273140354e+000	 2.0630790933e+000	-6.1539674483e-001
 2.8059204205e+000	 2.0920828363e+000	-6.4290106860e-001
 2.7842129721e+000	 2.1208861652e+000	-6.6693332939e-001
 2.7621944897e+000	 2.1494840313e+000	-6.8747344389e-001
 2.7398678801e+000	 2.1778714378e+000	-7.0450505446e-001
 2.7172361565e+000	 2.2060434424e+000	-7.1801587448e-001
 2.5231478596e+000	 2.0484689108e+000	-7.8232558181e-001
 2.5018522630e+000	 2.0744240777e+000	-8.4487751747e-001
 2.4802792335e+000	 2.1001702130e+000	-8.5530910716e-001
 2.4584318577e+000	 2.1257028957e+000	-8.6223964138e-001
 2.4363133158e+000	 2.1510177654e+000	-8.7077791561e-001
 2.4139268797e+000	 2.1761105255e+000	-8.8096657967e-001
 2.3912759120e+000	 2.2009769451e+000	-8.9284808756e-001
 2.3683638636e+000	 2.2256128616e+000	-9.0646462940e-001
 2.3451942726e+000	 2.2500141830e+000	-9.2185806002e-001
 2.3217707623e+000	 2.2741768901e+000	-9.3906982452e-001
 2.2980970388e+000	 2.2980970388e+000	-9.5814088064e-001
 2.5425566893e+000	 2.0642263640e+000	-7.6137501972e-001
 2.5210972804e+000	 2.0903811859e+000	-8.2007758471e-001
 2.4993583046e+000	 2.1163253685e+000	-8.7826687912e-001
 2.4773428720e+000	 2.1420544564e+000	-8.8091643064e-001
 2.4550541875e+000	 2.1675640559e+000	-8.8502329256e-001
 2.4324955480e+000	 2.1928498373e+000	-8.9062747885e-001
 2.4096703421e+000	 2.2179075370e+000	-8.9776901955e-001
 2.3865820472e+000	 2.2427329605e+000	-9.0648789576e-001
 2.3632342286e+000	 2.2673219844e+000	-9.1682397078e-001
 2.3396305373e+000	 2.2916705585e+000	-9.2881691783e-001
 2.3157747084e+000	 2.3157747084e+000	-9.4250614432e-001
 2.5619655190e+000	 2.0799838171e+000	-7.4369529700e-001
 2.5403422979e+000	 2.1063382942e+000	-7.9846246251e-001
 2.5184373756e+000	 2.1324805240e+000	-8.5427895326e-001
 2.4962538863e+000	 2.1584060172e+000	-9.0116282732e-001
 2.4737950591e+000	 2.1841103464e+000	-9.0071517957e-001
 2.4510642163e+000	 2.2095891490e+000	-9.0161320798e-001
 2.4280647722e+000	 2.2348381289e+000	-9.0389459177e-001
 2.4048002307e+000	 2.2598530594e+000	-9.0759717643e-001
 2.3812741845e+000	 2.2846297858e+000	-9.1275890744e-001
 2.3574903124e+000	 2.3091642269e+000	-9.1941776012e-001
 2.3334523779e+000	 2.3334523779e+000	-9.2761166557e-001
 2.5813743487e+000	 2.0957412703e+000	-7.2926656076e-001
 2.5595873153e+000	 2.1222954025e+000	-7.8001587841e-001
 2.5375164466e+000	 2.1486356795e+000	-8.3166169981e-001
 2.5151649006e+000	 2.1747575779e+000	-8.8398412927e-001
 2.4925359308e+000	 2.2006566370e+000	-9.1783557044e-001
 2.4696328847e+000	 2.2263284607e+000	-9.1390800074e-001
 2.4464592022e+000	 2.2517687207e+000	-9.1121119920e-001
 2.4230184143e+000	 2.2769731584e+000	-9.0978094818e-001
 2.3993141405e+000	 2.3019375872e+000	-9.0965334815e-001
 2.3753500875e+000	 2.3266578953e+000	-9.1086474955e-001
 2.3511300474e+000	 2.3511300474e+000	-9.1345168049e-001
 2.6007831784e+000	 2.1114987234e+000	-7.1807090083e-001
 2.5788323327e+000	 2.1382525108e+000	-7.6472342792e-001
 2.5565955176e+000	 2.1647908350e+000	-8.1212071265e-001
 2.5340759149e+000	 2.1911091386e+000	-8.6003235225e-001
 2.5112768024e+000	 2.2172029275e+000	-9.0822819601e-001
 2.4882015530e+000	 2.2430677725e+000	-9.2749767588e-001
 2.4648536323e+000	 2.2686993126e+000	-9.1970675543e-001
 2.4412365979e+000	 2.2940932573e+000	-9.1302914168e-001
 2.4173540964e+000	 2.3192453886e+000	-9.0749916198e-001
 2.3932098626e+000	 2.3441515636e+000	-9.0315161417e-001
 2.3688077170e+000	 2.3688077170e+000	-9.0002169580e-001
 2.6201920081e+000	 2.1272561766e+000	-7.1009227783e-001
 2.5980773501e+000	 2.1542096191e+000	-7.5257250532e-001
 2.5756745887e+000	 2.1809459905e+000	-7.9564675242e-001
 2.5529869292e+000	 2.2074606994e+000	-8.3907402493e-001
 2.5300176741e+000	 2.2337492180e+000	-8.8261376637e-001
 2.5067702213e+000	 2.2598070842e+000	-9.2602638609e-001
 2.4832480624e+000	 2.2856299045e+000	-9.2937063638e-001
 2.4594547814e+000	 2.3112133562e+000	-9.1733308761e-001
 2.4353940524e+000	 2.3365531900e+000	-9.0628955747e-001
 2.4110696377e+000	 2.3616452320e+000	-8.9627336258e-001
 2.3864853865e+000	 2.3864853865e+000	-8.8731844172e-001
 2.6396008378e+000	 2.1430136297e+000	-7.0531645438e-001
 2.6173223675e+000	 2.1701667274e+000	-7.4355223751e-001
 2.5947536597e+000	 2.1971011459e+000	-7.8223224448e-001
 2.5718979435e+000	 2.2238122601e+000	-8.2110480269e-001
 2.5487585458e+000	 2.2502955085e+000	-8.5991886319e-001
 2.5253388896e+000	 2.2765463959e+000	-8.9842454701e-001
 2.5016424925e+000	 2.3025604964e+000	-9.3637368844e-001
 2.4776729650e+000	 2.3283334552e+000	-9.2268546519e-001
 2.4534340083e+000	 2.3538609914e+000	-9.0601903329e-001
 2.4289294128e+000	 2.3791389004e+000	-8.9022623692e-001
 2.4041630560e+000	 2.4041630560e+000	-8.7533982706e-001
 2.6590096675e+000	 2.1587710829e+000	-7.0373092933e-001
 2.6365673849e+000	 2.1861238357e+000	-7.3765342081e-001
 2.6138327307e+000	 2.2132563014e+000	-7.7187121820e-001
 2.5908089578e+000	 2.2401638209e+000	-8.0612188097e-001
 2.5674994174e+000	 2.2668417990e+000	-8.4014377847e-001
 2.5439075579e+000	 2.2932857077e+000	-8.7367665462e-001
 2.5200369226e+000	 2.3194910883e+000	-9.0646218946e-001
 2.4958911486e+000	 2.3454535541e+000	-9.2908025300e-001
 2.4714739642e+000	 2.3711687928e+000	-9.0668333126e-001
 2.4467891879e+000	 2.3966325688e+000	-8.8500766781e-001
 2.4218407256e+000	 2.4218407256e+000	-8.6408489617e-001
 2.6784184972e+000	 2.1745285361e+000	-7.0532487487e-001
 2.6558124023e+000	 2.2020809440e+000	-7.3486846048e-001
 2.6329118018e+000	 2.2294114569e+000	-7.6455924881e-001
 2.6097199721e+000	 2.2565153816e+000	-7.9412393945e-001
 2.5862402891e+000	 2.2833880895e+000	-8.2329022825e-001
 2.5624762262e+000	 2.3100250194e+000	-8.5178739087e-001
 2.5384313527e+000	 2.3364216802e+000	-8.7934686251e-001
 2.5141093321e+000	 2.3625736530e+000	-9.0570281271e-001
 2.4895139202e+000	 2.3884765942e+000	-9.0827939121e-001
 2.4646489630e+000	 2.4141262372e+000	-8.8061623130e-001
 2.4395183951e+000	 2.4395183951e+000	-8.5355378780e-001
 2.6978273268e+000	 2.1902859892e+000	-7.1008907631e-001
 2.6750574197e+000	 2.2180380522e+000	-7.3519131279e-001
 2.6519908728e+000	 2.2455666124e+000	-7.6029340184e-001
 2.6286309864e+000	 2.2728669423e+000	-7.8511108861e-001
 2.6049811607e+000	 2.2999343800e+000	-8.0936130138e-001
 2.5810448945e+000	 2.3267643311e+000	-8.3276275383e-001
 2.5568257828e+000	 2.3533522720e+000	-8.5503654352e-001
 2.5323275157e+000	 2.3796937520e+000	-8.7590674478e-001
 2.5075538761e+000	 2.4057843956e+000	-8.9510099471e-001
 2.4825087381e+000	 2.4316199056e+000	-8.7705160767e-001
 2.4571960646e+000	 2.4571960646e+000	-8.4374769572e-001
 2.7172361565e+000	 2.2060434424e+000	-7.1801587448e-001
 2.6943024371e+000	 2.2339951605e+000	-7.3861742968e-001
 2.6710699438e+000	 2.2617217679e+000	-7.5907217984e-001
 2.6475420007e+000	 2.2892185031e+000	-7.7908481873e-001
 2.6237220324e+000	 2.3164806705e+000	-7.9836141044e-001
 2.5996135628e+000	 2.3435036429e+000	-8.1661001074e-001
 2.5752202129e+000	 2.3702828639e+000	-8.3354128431e-001
 2.5505456993e+000	 2.3968138509e+000	-8.4886911607e-001
 2.5255938321e+000	 2.4230921970e+000	-8.6231121523e-001
 2.5003685132e+000	 2.4491135740e+000	-8.7358971047e-001
 2.4748737342e+000	 2.4748737342e+000	-8.3466883109e-001
 2.2980970388e+000	 2.2980970388e+000	-9.5814088064e-001
 2.2741768901e+000	 2.3217707623e+000	-9.7332405079e-001
 2.2500141830e+000	 2.3451942726e+000	-9.8310085289e-001
 2.2256128616e+000	 2.3683638636e+000	-9.8771348098e-001
 2.2009769451e+000	 2.3912759120e+000	-9.8740999463e-001
 2.1761105255e+000	 2.4139268797e+000	-9.8244400023e-001
 2.1510177654e+000	 2.4363133158e+000	-9.7307432209e-001
 2.1257028957e+000	 2.4584318577e+000	-9.5956466424e-001
 2.1001702130e+000	 2.4802792335e+000	-9.4218326330e-001
 2.0744240777e+000	 2.5018522630e+000	-9.2429208266e-001
 2.0484689108e+000	 2.5231478596e+000	-9.3514282125e-001
 2.3157747084e+000	 2.3157747084e+000	-9.4250614432e-001
 2.2916705585e+000	 2.3396305373e+000	-9.5671941863e-001
 2.2673219844e+000	 2.3632342286e+000	-9.6578497187e-001
 2.2427329605e+000	 2.3865820472e+000	-9.6992384476e-001
 2.2179075370e+000	 2.4096703421e+000	-9.6936281755e-001
 2.1928498373e+000	 2.4324955480e+000	-9.6433411311e-001
 2.1675640559e+000	 2.4550541875e+000	-9.5507508995e-001
 2.1420544564e+000	 2.4773428720e+000	-9.4182792578e-001
 2.1163253685e+000	 2.4993583046e+000	-9.2483929224e-001
 2.0903811859e+000	 2.5210972804e+000	-9.3978947380e-001
 2.0642263640e+000	 2.5425566893e+000	-9.5141630013e-001
 2.3334523779e+000	 2.3334523779e+000	-9.2761166557e-001
 2.3091642269e+000	 2.3574903124e+000	-9.4025941216e-001
 2.2846297858e+000	 2.3812741845e+000	-9.4801352518e-001
 2.2598530594e+000	 2.4048002307e+000	-9.5107420419e-001
 2.2348381289e+000	 2.4280647722e+000	-9.4964726595e-001
 2.2095891490e+000	 2.4510642163e+000	-9.4394386908e-001
 2.1841103464e+000	 2.4737950591e+000	-9.3418022860e-001
 2.1584060172e+000	 2.4962538863e+000	-9.2057732100e-001
 2.1324805240e+000	 2.5184373756e+000	-9.3480795810e-001
 2.1063382942e+000	 2.5403422979e+000	-9.5103648719e-001
 2.0799838171e+000	 2.5619655190e+000	-9.6283513237e-001
 2.3511300474e+000	 2.3511300474e+000	-9.1345168049e-001
 2.3266578953e+000	 2.3753500875e+000	-9.2395093982e-001
 2.3019375872e+000	 2.3993141405e+000	-9.2980615651e-001
 2.2769731584e+000	 2.4230184143e+000	-9.3119699511e-001
 2.2517687207e+000	 2.4464592022e+000	-9.2830861874e-001
 2.2263284607e+000	 2.4696328847e+000	-9.2133143497e-001
 2.2006566370e+000	 2.4925359308e+000	-9.1046083160e-001
 2.1747575779e+000	 2.5151649006e+000	-9.2214444158e-001
 2.1486356795e+000	 2.5375164466e+000	-9.4240777437e-001
 2.1222954025e+000	 2.5595873153e+000	-9.5824426177e-001
 2.0957412703e+000	 2.5813743487e+000	-9.6962398174e-001
 2.3688077170e+000	 2.3688077170e+000	-9.0002169580e-001
 2.3441515636e+000	 2.3932098626e+000	-9.0780179741e-001
 2.3192453886e+000	 2.4173540964e+000	-9.1118301121e-001
 2.2940932573e+000	 2.4412365979e+000	-9.1032476707e-001
 2.2686993126e+000	 2.4648536323e+000	-9.0539187847e-001
 2.2430677725e+000	 2.4882015530e+000	-8.9655430928e-001
 2.2172029275e+000	 2.5112768024e+000	-9.0377345962e-001
 2.1911091386e+000	 2.5340759149e+000	-9.2744267495e-001
 2.1647908350e+000	 2.5565955176e+000	-9.4674865527e-001
 2.1382525108e+000	 2.5788323327e+000	-9.6162168515e-001
 2.1114987234e+000	 2.6007831784e+000	-9.7200486208e-001
 2.3864853865e+000	 2.3864853865e+000	-8.8731844172e-001
 2.3616452320e+000	 2.4110696377e+000	-8.9182063522e-001
 2.3365531900e+000	 2.4353940524e+000	-8.9216471769e-001
 2.3112133562e+000	 2.4594547814e+000	-8.8849017904e-001
 2.2856299045e+000	 2.4832480624e+000	-8.8094178148e-001
 2.2598070842e+000	 2.5067702213e+000	-8.8169885419e-001
 2.2337492180e+000	 2.5300176741e+000	-9.0808293031e-001
 2.2074606994e+000	 2.5529869292e+000	-9.3022807307e-001
 2.1809459905e+000	 2.5756745887e+000	-9.4802452925e-001
 2.1542096191e+000	 2.5980773501e+000	-9.6137547698e-001
 2.1272561766e+000	 2.6201920081e+000	-9.7019723546e-001
 2.4041630560e+000	 2.4041630560e+000	-8.7533982706e-001
 2.3791389004e+000	 2.4289294128e+000	-8.7601692660e-001
 2.3538609914e+000	 2.4534340083e+000	-8.7277236965e-001
 2.3283334552e+000	 2.4776729650e+000	-8.6572599544e-001
 2.3025604964e+000	 2.5016424925e+000	-8.5795464784e-001
 2.2765463959e+000	 2.5253388896e+000	-8.8630044191e-001
 2.2502955085e+000	 2.5487585458e+000	-9.1059233230e-001
 2.2238122601e+000	 2.5718979435e+000	-9.3068037951e-001
 2.1971011459e+000	 2.5947536597e+000	-9.4642760535e-001
 2.1701667274e+000	 2.6173223675e+000	-9.5771026860e-001
 2.1430136297e+000	 2.6396008378e+000	-9.6441810596e-001
 2.4218407256e+000	 2.4218407256e+000	-8.6408489617e-001
 2.3966325688e+000	 2.4467891879e+000	-8.6040093794e-001
 2.3711687928e+000	 2.4714739642e+000	-8.5302750912e-001
 2.3454535541e+000	 2.4958911486e+000	-8.4206508225e-001
 2.3194910883e+000	 2.5200369226e+000	-8.6409814044e-001
 2.2932857077e+000	 2.5439075579e+000	-8.8978223455e-001
 2.2668417990e+000	 2.5674994174e+000	-9.1146795794e-001
 2.2401638209e+000	 2.5908089578e+000	-9.2897803550e-001
 2.2132563014e+000	 2.6138327307e+000	-9.4214843592e-001
 2.1861238357e+000	 2.6365673849e+000	-9.5082867935e-001
 2.1587710829e+000	 2.6590096675e+000	-9.5488210943e-001
 2.4395183951e+000	 2.4395183951e+000	-8.5355378780e-001
 2.4141262372e+000	 2.4646489630e+000	-8.4498369993e-001
 2.3884765942e+000	 2.4895139202e+000	-8.3295211024e-001
 2.3625736530e+000	 2.5141093321e+000	-8.4351079101e-001
 2.3364216802e+000	 2.5384313527e+000	-8.6977043259e-001
 2.3100250194e+000	 2.5624762262e+000	-8.9229776856e-001
 2.2833880895e+000	 2.5862402891e+000	-9.1087518480e-001
 2.2565153816e+000	 2.6097199721e+000	-9.2529822712e-001
 2.2294114569e+000	 2.6329118018e+000	-9.3537597665e-001
 2.2020809440e+000	 2.6558124023e+000	-9.4093138939e-001
 2.1745285361e+000	 2.6784184972e+000	-9.4180159925e-001
 2.4571960646e+000	 2.4571960646e+000	-8.4374769572e-001
 2.4316199056e+000	 2.4825087381e+000	-8.2977698008e-001
 2.4057843956e+000	 2.5075538761e+000	-8.2660573286e-001
 2.3796937520e+000	 2.5323275157e+000	-8.5256223464e-001
 2.3533522720e+000	 2.5568257828e+000	-8.7511296380e-001
 2.3267643311e+000	 2.5810448945e+000	-8.9400002541e-001
 2.2999343800e+000	 2.6049811607e+000	-9.0897850861e-001
 2.2728669423e+000	 2.6286309864e+000	-9.1981693048e-001
 2.2455666124e+000	 2.6519908728e+000	-9.2629764400e-001
 2.2180380522e+000	 2.6750574197e+000	-9.2821720948e-001
 2.1902859892e+000	 2.6978273268e+000	-9.2538672846e-001
 2.4748737342e+000	 2.4748737342e+000	-8.3466883109e-001
 2.4491135740e+000	 2.5003685132e+000	-8.1548355198e-001
 2.4230921970e+000	 2.5255938321e+000	-8.4019634466e-001
 2.3968138509e+000	 2.5505456993e+000	-8.6189014989e-001
 2.3702828639e+000	 2.5752202129e+000	-8.8026695227e-001
 2.3435036429e+000	 2.5996135628e+000	-8.9504145139e-001
 2.3164806705e+000	 2.6237220324e+000	-9.0594157474e-001
 2.2892185031e+000	 2.6475420007e+000	-9.1270895490e-001
 2.2617217679e+000	 2.6710699438e+000	-9.1509937019e-001
 2.2339951605e+000	 2.6943024371e+000	-9.1288314776e-001
 2.2060434424e+000	 2.7172361565e+000	-9.0584552831e-001
 2.0484689108e+000	 2.5231478596e+000	-9.3514282125e-001
 2.0223091922e+000	 2.5441630315e+000	-9.5435709816e-001
 1.9959494577e+000	 2.5648948833e+000	-9.7505555968e-001
 1.9693942963e+000	 2.5853406170e+000	-9.9687919689e-001
 1.9426483480e+000	 2.6054975333e+000	-1.0194769654e+000
 1.9157163009e+000	 2.6253630329e+000	-1.0425061810e+000
 1.8886028886e+000	 2.6449346172e+000	-1.0656328871e+000
 1.8613128874e+000	 2.6642098895e+000	-1.0361221024e+000
 1.8338511137e+000	 2.6831865557e+000	-9.5386262053e-001
 1.8062224213e+000	 2.7018624252e+000	-8.7109045205e-001
 1.7784316985e+000	 2.7202354115e+000	-7.8782295194e-001
 2.0642263640e+000	 2.5425566893e+000	-9.5141630013e-001
 2.0378654168e+000	 2.5637335164e+000	-9.6195116185e-001
 2.0113029150e+000	 2.5846248440e+000	-9.7381200073e-001
 1.9845434832e+000	 2.6052278525e+000	-9.8669138413e-001
 1.9575917969e+000	 2.6255398220e+000	-1.0002899780e+000
 1.9304525802e+000	 2.6455581331e+000	-1.0143168889e+000
 1.9031306032e+000	 2.6652802681e+000	-1.0284899777e+000
 1.8756306788e+000	 2.6847038117e+000	-1.0425361456e+000
 1.8479576607e+000	 2.7038264523e+000	-9.5496036310e-001
 1.8201164399e+000	 2.7226459824e+000	-8.6487701859e-001
 1.7921119423e+000	 2.7411602993e+000	-7.7473470702e-001
 2.0799838171e+000	 2.5619655190e+000	-9.6283513237e-001
 2.0534216413e+000	 2.5833040013e+000	-9.6596651019e-001
 2.0266563724e+000	 2.6043548046e+000	-9.7026072075e-001
 1.9996926701e+000	 2.6251150880e+000	-9.7546124896e-001
 1.9725352457e+000	 2.6455821107e+000	-9.8131982284e-001
 1.9451888594e+000	 2.6657532334e+000	-9.8759670229e-001
 1.9176583177e+000	 2.6856259190e+000	-9.9406093970e-001
 1.8899484703e+000	 2.7051977340e+000	-1.0004906125e+000
 1.8620642078e+000	 2.7244663489e+000	-9.5921911776e-001
 1.8340104585e+000	 2.7434295395e+000	-8.6303838240e-001
 1.8057921862e+000	 2.7620851870e+000	-7.6723147388e-001
 2.0957412703e+000	 2.5813743487e+000	-9.6962398174e-001
 2.0689778659e+000	 2.6028744861e+000	-9.6659873484e-001
 2.0420098298e+000	 2.6240847652e+000	-9.6456816278e-001
 2.0148418570e+000	 2.6450023235e+000	-9.6332602294e-001
 1.9874786945e+000	 2.6656243995e+000	-9.6267447077e-001
 1.9599251387e+000	 2.6859483336e+000	-9.6242429598e-001
 1.9321860322e+000	 2.7059715699e+000	-9.6239513036e-001
 1.9042662617e+000	 2.7256916562e+000	-9.6241562732e-001
 1.8761707548e+000	 2.7451062455e+000	-9.6232361290e-001
 1.8479044772e+000	 2.7642130966e+000	-8.6543335030e-001
 1.8194724300e+000	 2.7830100748e+000	-7.6514207486e-001
 2.1114987234e+000	 2.6007831784e+000	-9.7200486208e-001
 2.0845340904e+000	 2.6224449710e+000	-9.6404164815e-001
 2.0573632871e+000	 2.6438147259e+000	-9.5689986109e-001
 2.0299910439e+000	 2.6648895590e+000	-9.5042289893e-001
 2.0024221433e+000	 2.6856666882e+000	-9.4446272322e-001
 1.9746614179e+000	 2.7061434339e+000	-9.3888004316e-001
 1.9467137467e+000	 2.7263172208e+000	-9.3354447117e-001
 1.9185840532e+000	 2.7461855784e+000	-9.2833464998e-001
 1.8902773018e+000	 2.7657461421e+000	-9.2313835104e-001
 1.8617984958e+000	 2.7849966537e+000	-8.7192587713e-001
 1.8331526738e+000	 2.8039349626e+000	-7.6830133535e-001
 2.1272561766e+000	 2.6201920081e+000	-9.7019723546e-001
 2.1000903150e+000	 2.6420154558e+000	-9.5848734906e-001
 2.0727167445e+000	 2.6635446865e+000	-9.4742047486e-001
 2.0451402308e+000	 2.6847767946e+000	-9.3688903252e-001
 2.0173655922e+000	 2.7057089769e+000	-9.2679418124e-001
 1.9893976971e+000	 2.7263385341e+000	-9.1704595232e-001
 1.9612414613e+000	 2.7466628717e+000	-9.0756335299e-001
 1.9329018446e+000	 2.7666795006e+000	-8.9827444145e-001
 1.9043838488e+000	 2.7863860387e+000	-8.8911637330e-001
 1.8756925144e+000	 2.8057802108e+000	-8.8003541958e-001
 1.8468329177e+000	 2.8248598504e+000	-7.7654986149e-001
 2.1430136297e+000	 2.6396008378e+000	-9.6441810596e-001
 2.1156465395e+000	 2.6615859407e+000	-9.5012628612e-001
 2.0880702019e+000	 2.6832746472e+000	-9.3629382034e-001
 2.0602894177e+000	 2.7046640301e+000	-9.2286154339e-001
 2.0323090410e+000	 2.7257512656e+000	-9.0977921615e-001
 2.0041339764e+000	 2.7465336344e+000	-8.9700560717e-001
 1.9757691758e+000	 2.7670085226e+000	-8.8450854518e-001
 1.9472196360e+000	 2.7871734229e+000	-8.7226494263e-001
 1.9184903959e+000	 2.8070259352e+000	-8.6026079050e-001
 1.8895865330e+000	 2.8265637680e+000	-8.4849112465e-001
 1.8605131615e+000	 2.8457847382e+000	-7.8973382764e-001
 2.1587710829e+000	 2.6590096675e+000	-9.5488210943e-001
 2.1312027641e+000	 2.6811564256e+000	-9.3914731770e-001
 2.1034236592e+000	 2.7030046078e+000	-9.2368290161e-001
 2.0754386045e+000	 2.7245512656e+000	-9.0847751661e-001
 2.0472524898e+000	 2.7457935543e+000	-8.9352894143e-001
 2.0188702556e+000	 2.7667287347e+000	-8.7884410915e-001
 1.9902968903e+000	 2.7873541735e+000	-8.6443910888e-001
 1.9615374275e+000	 2.8076673451e+000	-8.5033915827e-001
 1.9325969429e+000	 2.8276658318e+000	-8.3657854709e-001
 1.9034805517e+000	 2.8473473251e+000	-8.2320055237e-001
 1.8741934053e+000	 2.8667096260e+000	-8.0770477316e-001
 2.1745285361e+000	 2.6784184972e+000	-9.4180159925e-001
 2.1467589886e+000	 2.7007269104e+000	-9.2573776959e-001
 2.1187771166e+000	 2.7227345685e+000	-9.0974994002e-001
 2.0905877914e+000	 2.7444385011e+000	-8.9387400392e-001
 2.0621959387e+000	 2.7658358430e+000	-8.7815518582e-001
 2.0336065348e+000	 2.7869238349e+000	-8.6264802241e-001
 2.0048246048e+000	 2.8076998244e+000	-8.4741631390e-001
 1.9758552189e+000	 2.8281612673e+000	-8.3253304591e-001
 1.9467034899e+000	 2.8483057284e+000	-8.1808028227e-001
 1.9173745703e+000	 2.8681308822e+000	-8.0414902933e-001
 1.8878736492e+000	 2.8876345137e+000	-7.9083907217e-001
 2.1902859892e+000	 2.6978273268e+000	-9.2538672846e-001
 2.1623152132e+000	 2.7202973953e+000	-9.1008349018e-001
 2.1341305740e+000	 2.7424645291e+000	-8.9465640234e-001
 2.1057369783e+000	 2.7643257366e+000	-8.7918802493e-001
 2.0771393875e+000	 2.7858781318e+000	-8.6377046760e-001
 2.0483428141e+000	 2.8071189352e+000	-8.4850532123e-001
 2.0193523194e+000	 2.8280454753e+000	-8.3350355932e-001
 1.9901730104e+000	 2.8486551895e+000	-8.1888540971e-001
 1.9608100369e+000	 2.8689456250e+000	-8.0478019710e-001
 1.9312685889e+000	 2.8889144393e+000	-7.9132615677e-001
 1.9015538930e+000	 2.9085594015e+000	-7.7867022042e-001
 2.2060434424e+000	 2.7172361565e+000	-9.0584552831e-001
 2.1778714378e+000	 2.7398678801e+000	-8.9236890317e-001
 2.1494840313e+000	 2.7621944897e+000	-8.7856302771e-001
 2.1208861652e+000	 2.7842129721e+000	-8.6455656823e-001
 2.0920828363e+000	 2.8059204205e+000	-8.5048796997e-001
 2.0630790933e+000	 2.8273140354e+000	-8.3650533964e-001
 2.0338800339e+000	 2.8483911262e+000	-8.2276629740e-001
 2.0044908018e+000	 2.8691491118e+000	-8.0943779877e-001
 1.9749165840e+000	 2.8895855216e+000	-7.9669592723e-001
 1.9451626075e+000	 2.9096979964e+000	-7.8472565783e-001
 1.9152341368e+000	 2.9294842893e+000	-7.7372059295e-001
 1.7784316985e+000	 2.7202354115e+000	-7.8782295194e-001
 1.7504838655e+000	 2.7383035326e+000	-7.7340079692e-001
 1.7223838716e+000	 2.7560649120e+000	-7.5844946774e-001
 1.6941366922e+000	 2.7735177786e+000	-7.4342688637e-001
 1.6657473264e+000	 2.7906604674e+000	-7.2878198552e-001
 1.6372207940e+000	 2.8074914197e+000	-7.1495404936e-001
 1.6085621327e+000	 2.8240091829e+000	-7.0237207894e-001
 1.5797763955e+000	 2.8402124111e+000	-6.9145418330e-001
 1.5508686476e+000	 2.8560998648e+000	-6.8260699762e-001
 1.5218439643e+000	 2.8716704108e+000	-6.7622512919e-001
 1.4927074274e+000	 2.8869230222e+000	-6.7269063228e-001
 1.7921119423e+000	 2.7411602993e+000	-7.7473470702e-001
 1.7639491260e+000	 2.7593674059e+000	-7.6391138357e-001
 1.7356329783e+000	 2.7772654113e+000	-7.5246799784e-001
 1.7071685129e+000	 2.7948525307e+000	-7.4082672749e-001
 1.6785607674e+000	 2.8121270864e+000	-7.2940113438e-001
 1.6498148002e+000	 2.8290875075e+000	-7.1859553276e-001
 1.6209356876e+000	 2.8457323305e+000	-7.0880438149e-001
 1.5919285216e+000	 2.8620601989e+000	-7.0041170132e-001
 1.5627984065e+000	 2.8780698638e+000	-6.9379051835e-001
 1.5335504563e+000	 2.8937601832e+000	-6.8930233473e-001
 1.5041897923e+000	 2.9091301224e+000	-6.8729662735e-001
 1.8057921862e+000	 2.7620851870e+000	-7.6723147388e-001
 1.7774143865e+000	 2.7804312793e+000	-7.5885711078e-001
 1.7488820850e+000	 2.7984659106e+000	-7.4977914848e-001
 1.7202003336e+000	 2.8161872829e+000	-7.4038467569e-001
 1.6913742084e+000	 2.8335937054e+000	-7.3105252906e-001
 1.6624088063e+000	 2.8506835954e+000	-7.2215268823e-001
 1.6333092425e+000	 2.8674554780e+000	-7.1404569422e-001
 1.6040806477e+000	 2.8839079867e+000	-7.0708209229e-001
 1.5747281653e+000	 2.9000398628e+000	-7.0160190021e-001
 1.5452569483e+000	 2.9158499556e+000	-6.9793410310e-001
 1.5156721571e+000	 2.9313372226e+000	-6.9639617545e-001
 1.8194724300e+000	 2.7830100748e+000	-7.6514207486e-001
 1.7908796470e+000	 2.8014951526e+000	-7.5809009186e-001
 1.7621311917e+000	 2.8196664100e+000	-7.5025820400e-001
 1.7332321543e+000	 2.8375220350e+000	-7.4199905699e-001
 1.7041876494e+000	 2.8550603244e+000	-7.3365739857e-001
 1.6750028124e+000	 2.8722796832e+000	-7.2556949988e-001
 1.6456827974e+000	 2.8891786256e+000	-7.1806259938e-001
 1.6162327739e+000	 2.9057557745e+000	-7.1145437074e-001
 1.5866579241e+000	 2.9220098617e+000	-7.0605241539e-001
 1.5569634404e+000	 2.9379397280e+000	-7.0215378090e-001
 1.5271545219e+000	 2.9535443227e+000	-7.0004450590e-001
 1.8331526738e+000	 2.8039349626e+000	-7.6830133535e-001
 1.8043449075e+000	 2.8225590259e+000	-7.6146770810e-001
 1.7753802984e+000	 2.8408669093e+000	-7.5378498544e-001
 1.7462639751e+000	 2.8588567872e+000	-7.4557200688e-001
 1.7170010903e+000	 2.8765269434e+000	-7.3714005860e-001
 1.6875968185e+000	 2.8938757711e+000	-7.2879232044e-001
 1.6580563522e+000	 2.9109017732e+000	-7.2082333489e-001
 1.6283849000e+000	 2.9276035623e+000	-7.1351849933e-001
 1.5985876830e+000	 2.9439798607e+000	-7.0715358235e-001
 1.5686699324e+000	 2.9600295004e+000	-7.0199426517e-001
 1.5386368868e+000	 2.9757514229e+000	-6.9829570895e-001
 1.8468329177e+000	 2.8248598504e+000	-7.7654986149e-001
 1.8178101680e+000	 2.8436228993e+000	-7.6885241365e-001
 1.7886294051e+000	 2.8620674086e+000	-7.6024368243e-001
 1.7592957958e+000	 2.8801915393e+000	-7.5100932917e-001
 1.7298145313e+000	 2.8979935624e+000	-7.4142779715e-001
 1.7001908246e+000	 2.9154718589e+000	-7.3176978357e-001
 1.6704299071e+000	 2.9326249207e+000	-7.2229773307e-001
 1.6405370261e+000	 2.9494513500e+000	-7.1326535375e-001
 1.6105174418e+000	 2.9659498596e+000	-7.0491715673e-001
 1.5803764244e+000	 2.9821192728e+000	-6.9748802006e-001
 1.5501192516e+000	 2.9979585231e+000	-6.9120277793e-001
 1.8605131615e+000	 2.8457847382e+000	-7.8973382764e-001
 1.8312754286e+000	 2.8646867726e+000	-7.8011154901e-001
 1.8018785118e+000	 2.8832679079e+000	-7.6952269262e-001
 1.7723276165e+000	 2.9015262915e+000	-7.5822036117e-001
 1.7426279723e+000	 2.9194601813e+000	-7.4645076528e-001
 1.7127848307e+000	 2.9370679468e+000	-7.3445271996e-001
 1.6828034620e+000	 2.9543480683e+000	-7.2245716198e-001
 1.6526891522e+000	 2.9712991378e+000	-7.1068668917e-001
 1.6224472006e+000	 2.9879198586e+000	-6.9935512264e-001
 1.5920829165e+000	 3.0042090452e+000	-6.8866709274e-001
 1.5616016164e+000	 3.0201656232e+000	-6.7881764959e-001
 1.8741934053e+000	 2.8667096260e+000	-8.0770477316e-001
 1.8447406891e+000	 2.8857506459e+000	-7.9511716272e-001
 1.8151276185e+000	 2.9044684072e+000	-7.8151446810e-001
 1.7853594372e+000	 2.9228610436e+000	-7.6711784467e-001
 1.7554414133e+000	 2.9409268003e+000	-7.5214187261e-001
 1.7253788368e+000	 2.9586640346e+000	-7.3679407717e-001
 1.6951770168e+000	 2.9760712159e+000	-7.2127446939e-001
 1.6648412783e+000	 2.9931469256e+000	-7.0577510810e-001
 1.6343769594e+000	 3.0098898576e+000	-6.9047968430e-001
 1.6037894085e+000	 3.0262988176e+000	-6.7556312860e-001
 1.5730839812e+000	 3.0423727234e+000	-6.6119124266e-001
 1.8878736492e+000	 2.8876345137e+000	-7.9083907217e-001
 1.8582059496e+000	 2.9068145192e+000	-8.1374584076e-001
 1.8283767252e+000	 2.9256689066e+000	-7.9611536849e-001
 1.7983912579e+000	 2.9441957958e+000	-7.7761780266e-001
 1.7682548542e+000	 2.9623934193e+000	-7.5843668739e-001
 1.7379728429e+000	 2.9802601225e+000	-7.3874884293e-001
 1.7075505717e+000	 2.9977943634e+000	-7.1872392916e-001
 1.6769934045e+000	 3.0149947134e+000	-6.9852402973e-001
 1.6463067183e+000	 3.0318598565e+000	-6.7830325807e-001
 1.6154959005e+000	 3.0483885900e+000	-6.5820738584e-001
 1.5845663461e+000	 3.0645798236e+000	-6.3837349473e-001
 1.9015538930e+000	 2.9085594015e+000	-7.7867022042e-001
 1.8716712101e+000	 2.9278783926e+000	-8.3587854336e-001
 1.8416258319e+000	 2.9468694059e+000	-8.1322552040e-001
 1.8114230786e+000	 2.9655305479e+000	-7.8963942126e-001
 1.7810682952e+000	 2.9838600383e+000	-7.6527334084e-001
 1.7505668490e+000	 3.0018562103e+000	-7.4027397176e-001
 1.7199241266e+000	 3.0195175110e+000	-7.1478118996e-001
 1.6891455306e+000	 3.0368425011e+000	-6.8892766054e-001
 1.6582364771e+000	 3.0538298555e+000	-6.6283846483e-001
 1.6272023926e+000	 3.0704783624e+000	-6.3663074935e-001
 1.5960487109e+000	 3.0867869237e+000	-6.1041339756e-001
 1.9152341368e+000	 2.9294842893e+000	-7.7372059295e-001
 1.8851364706e+000	 2.9489422659e+000	-8.3302824326e-001
 1.8548749386e+000	 2.9680699052e+000	-8.3274868287e-001
 1.8244548993e+000	 2.9868653000e+000	-8.0310493675e-001
 1.7938817362e+000	 3.0053266573e+000	-7.7259243565e-001
 1.7631608551e+000	 3.0234522981e+000	-7.4132831471e-001
 1.7322976814e+000	 3.0412406585e+000	-7.0942322614e-001
 1.7012976567e+000	 3.0586902889e+000	-6.7698096617e-001
 1.6701662359e+000	 3.0757998544e+000	-6.4409812266e-001
 1.6389088846e+000	 3.0925681348e+000	-6.1086374411e-001
 1.6075310757e+000	 3.1089940239e+000	-5.7735903083e-001
 1.4927074274e+000	 2.8869230222e+000	-6.7269063228e-001
 1.4634641235e+000	 2.9018567779e+000	-6.6579672573e-001
 1.4341191402e+000	 2.9164708625e+000	-6.5798588770e-001
 1.4046775645e+000	 2.9307645658e+000	-6.4933430859e-001
 1.3751444794e+000	 2.9447372821e+000	-6.3991059689e-001
 1.3455249618e+000	 2.9583885102e+000	-6.2977560402e-001
 1.3158240793e+000	 2.9717178521e+000	-6.1898227016e-001
 1.2860468885e+000	 2.9847250126e+000	-6.0757549120e-001
 1.2561984318e+000	 2.9974097985e+000	-5.9559200694e-001
 1.2262837353e+000	 3.0097721177e+000	-5.4116413056e-001
 1.1963078061e+000	 3.0218119785e+000	-4.7746899712e-001
 1.5041897923e+000	 2.9091301224e+000	-6.8729662735e-001
 1.4747215398e+000	 2.9241787531e+000	-6.7464261187e-001
 1.4451508259e+000	 2.9389052537e+000	-6.6107736373e-001
 1.4154827765e+000	 2.9533089086e+000	-6.4666740561e-001
 1.3857225139e+000	 2.9673891074e+000	-6.3147169308e-001
 1.3558751538e+000	 2.9811453449e+000	-6.1554144491e-001
 1.3259458030e+000	 2.9945772202e+000	-5.9891999432e-001
 1.2959395569e+000	 3.0076844357e+000	-5.8164266147e-001
 1.2658614967e+000	 3.0204667969e+000	-5.6373664731e-001
 1.2357166871e+000	 3.0329242109e+000	-5.2099657649e-001
 1.2055101738e+000	 3.0450566860e+000	-4.5303726344e-001
 1.5156721571e+000	 2.9313372226e+000	-6.9639617545e-001
 1.4859789561e+000	 2.9465007283e+000	-6.7754954369e-001
 1.4561825116e+000	 2.9613396450e+000	-6.5780347376e-001
 1.4262879886e+000	 2.9758532514e+000	-6.3721510897e-001
 1.3963005484e+000	 2.9900409326e+000	-6.1583403207e-001
 1.3662253458e+000	 3.0039021796e+000	-5.9370210056e-001
 1.3360675267e+000	 3.0174365883e+000	-5.7085330327e-001
 1.3058322253e+000	 3.0306438589e+000	-5.4731363818e-001
 1.2755245616e+000	 3.0435237954e+000	-5.2310101162e-001
 1.2451496389e+000	 3.0560763041e+000	-4.9039263795e-001
 1.2147125416e+000	 3.0683013935e+000	-4.1796957399e-001
 1.5271545219e+000	 2.9535443227e+000	-7.0004450590e-001
 1.4972363725e+000	 2.9688227035e+000	-6.7458054639e-001
 1.4672141973e+000	 2.9837740362e+000	-6.4823499547e-001
 1.4370932006e+000	 2.9983975942e+000	-6.2105590309e-001
 1.4068785828e+000	 3.0126927579e+000	-5.9308375674e-001
 1.3765755378e+000	 3.0266590143e+000	-5.6435132175e-001
 1.3461892504e+000	 3.0402959564e+000	-5.3488350280e-001
 1.3157248936e+000	 3.0536032821e+000	-5.0469722690e-001
 1.2851876264e+000	 3.0665807938e+000	-4.7380134779e-001
 1.2545825907e+000	 3.0792283974e+000	-4.4219657183e-001
 1.2239149093e+000	 3.0915461010e+000	-3.7210024453e-001
 1.5386368868e+000	 2.9757514229e+000	-6.9829570895e-001
 1.5084937888e+000	 2.9911446788e+000	-6.6579723767e-001
 1.4782458830e+000	 3.0062084275e+000	-6.3244103261e-001
 1.4478984127e+000	 3.0209419370e+000	-5.9826633395e-001
 1.4174566173e+000	 3.0353445831e+000	-5.6330480934e-001
 1.3869257298e+000	 3.0494158490e+000	-5.2758039869e-001
 1.3563109741e+000	 3.0631553244e+000	-4.9110918058e-001
 1.3256175620e+000	 3.0765627052e+000	-4.5389926007e-001
 1.2948506913e+000	 3.0896377923e+000	-4.1595067814e-001
 1.2640155425e+000	 3.1023804906e+000	-3.7725534273e-001
 1.2331172771e+000	 3.1147908086e+000	-3.1525986856e-001
 1.5501192516e+000	 2.9979585231e+000	-6.9120277793e-001
 1.5197512051e+000	 3.0134666540e+000	-6.5125987983e-001
 1.4892775687e+000	 3.0286428187e+000	-6.1048907687e-001
 1.4587036247e+000	 3.0434862798e+000	-5.6892108096e-001
 1.4280346517e+000	 3.0579964084e+000	-5.2657901300e-001
 1.3972759218e+000	 3.0721726837e+000	-4.8347825220e-001
 1.3664326978e+000	 3.0860146925e+000	-4.3962630690e-001
 1.3355102304e+000	 3.0995221284e+000	-3.9502270714e-001
 1.3045137561e+000	 3.1126947907e+000	-3.4965891893e-001
 1.2734484944e+000	 3.1255325838e+000	-3.0646719157e-001
 1.2423196448e+000	 3.1380355161e+000	-3.1963198955e-001
 1.5616016164e+000	 3.0201656232e+000	-6.7881764959e-001
 1.5310086215e+000	 3.0357886292e+000	-6.3102742961e-001
 1.5003092544e+000	 3.0510772100e+000	-5.8244506727e-001
 1.4695088367e+000	 3.0660306226e+000	-5.3309302553e-001
 1.4386126862e+000	 3.0806482336e+000	-4.8298614969e-001
 1.4076261138e+000	 3.0949295184e+000	-4.3213152079e-001
 1.3765544214e+000	 3.1088740606e+000	-3.8052833084e-001
 1.3454028988e+000	 3.1224815516e+000	-3.2816777980e-001
 1.3141768210e+000	 3.1357517892e+000	-3.3442125784e-001
 1.2828814462e+000	 3.1486846770e+000	-3.5236287415e-001
 1.2515220125e+000	 3.1612802236e+000	-3.6788430973e-001
 1.5730839812e+000	 3.0423727234e+000	-6.6119124266e-001
 1.5422660378e+000	 3.0581106044e+000	-6.0515758583e-001
 1.5113409401e+000	 3.0735116012e+000	-5.4837344673e-001
 1.4803140488e+000	 3.0885749654e+000	-4.9085331673e-001
 1.4491907206e+000	 3.1033000588e+000	-4.3260403462e-001
 1.4179763059e+000	 3.1176863531e+000	-3.7362464395e-001
 1.3866761451e+000	 3.1317334287e+000	-3.5083062218e-001
 1.3552955671e+000	 3.1454409748e+000	-3.6608610570e-001
 1.3238398859e+000	 3.1588087876e+000	-3.7924043307e-001
 1.2923143980e+000	 3.1718367702e+000	-3.9001679904e-001
 1.2607243803e+000	 3.1845249311e+000	-3.9814894472e-001
 1.5845663461e+000	 3.0645798236e+000	-6.3837349473e-001
 1.5535234541e+000	 3.0804325796e+000	-5.7370683496e-001
 1.5223726258e+000	 3.0959459925e+000	-5.0833721633e-001
 1.4911192608e+000	 3.1111193082e+000	-4.4227143403e-001
 1.4597687551e+000	 3.1259518841e+000	-3.8067837014e-001
 1.4283264979e+000	 3.1404431878e+000	-3.9248817748e-001
 1.3967978688e+000	 3.1545927968e+000	-4.0259492028e-001
 1.3651882355e+000	 3.1684003979e+000	-4.1069035478e-001
 1.3335029507e+000	 3.1818657860e+000	-4.1647780485e-001
 1.3017473498e+000	 3.1949888634e+000	-4.1967192529e-001
 1.2699267480e+000	 3.2077696387e+000	-4.1999844631e-001
 1.5960487109e+000	 3.0867869237e+000	-6.1041339756e-001
 1.5647808705e+000	 3.1027545548e+000	-5.3673049477e-001
 1.5334043115e+000	 3.1183803837e+000	-4.6239798714e-001
 1.5019244728e+000	 3.1336636511e+000	-4.3429826071e-001
 1.4703467896e+000	 3.1486037093e+000	-4.4048397253e-001
 1.4386766899e+000	 3.1632000224e+000	-4.4510768734e-001
 1.4069195925e+000	 3.1774521649e+000	-4.4783950991e-001
 1.3750809039e+000	 3.1913598211e+000	-4.4836187893e-001
 1.3431660156e+000	 3.2049227845e+000	-4.4636934480e-001
 1.3111803016e+000	 3.2181409566e+000	-4.4156832624e-001
 1.2791291158e+000	 3.2310143462e+000	-4.3367684747e-001
 1.6075310757e+000	 3.1089940239e+000	-5.7735903083e-001
 1.5760382868e+000	 3.1250765300e+000	-4.9469131322e-001
 1.5444359972e+000	 3.1408147750e+000	-4.9587679159e-001
 1.5127296849e+000	 3.1562079939e+000	-4.9603856447e-001
 1.4809248240e+000	 3.1712555346e+000	-4.9481080497e-001
 1.4490268819e+000	 3.1859568571e+000	-4.9184095735e-001
 1.4170413162e+000	 3.2003115330e+000	-4.8678955700e-001
 1.3849735723e+000	 3.2143192443e+000	-4.7933002545e-001
 1.3528290804e+000	 3.2279797829e+000	-4.6914844187e-001
 1.3206132534e+000	 3.2412930498e+000	-4.5594329266e-001
 1.2883314835e+000	 3.2542590537e+000	-4.3942520079e-001
 1.1963078061e+000	 3.0218119785e+000	-4.7746899712e-001
 1.1662756302e+000	 3.0335294880e+000	-4.3229882916e-001
 1.1361921700e+000	 3.0449248518e+000	-3.8833133127e-001
 1.1060623621e+000	 3.0559983723e+000	-3.4576186294e-001
 1.0758911149e+000	 3.0667504478e+000	-3.0473340885e-001
 1.0456833066e+000	 3.0771815712e+000	-2.6533748313e-001
 1.0154437829e+000	 3.0872923289e+000	-2.2761513614e-001
 9.8517735496e-001	 3.0970833988e+000	-1.9155805888e-001
 9.5488879754e-001	 3.1065555498e+000	-1.5710977978e-001
 9.2458284674e-001	 3.1157096398e+000	-1.2416694874e-001
 8.9426419823e-001	 3.1245466141e+000	-9.2580703006e-002
 1.2055101738e+000	 3.0450566860e+000	-4.5303726344e-001
 1.1752469812e+000	 3.0568643302e+000	-3.9703161234e-001
 1.1449321098e+000	 3.0683473506e+000	-3.4290435365e-001
 1.1145705341e+000	 3.0795060520e+000	-2.9089362278e-001
 1.0841672004e+000	 3.0903408358e+000	-2.4118297005e-001
 1.0537270243e+000	 3.1008521987e+000	-1.9390226211e-001
 1.0232548889e+000	 3.1110407314e+000	-1.4912869002e-001
 9.9275564231e-001	 3.1209071173e+000	-1.0688787877e-001
 9.6223409599e-001	 3.1304521310e+000	-9.6642217337e-002
 9.3169502249e-001	 3.1396766370e+000	-1.0768910894e-001
 9.0114315360e-001	 3.1485815881e+000	-1.1708465815e-001
 1.2147125416e+000	 3.0683013935e+000	-4.1796957399e-001
 1.1842183322e+000	 3.0801991724e+000	-3.5230151796e-001
 1.1536720496e+000	 3.0917698495e+000	-2.8921170593e-001
 1.1230787061e+000	 3.1030137318e+000	-2.2898054056e-001
 1.0924432859e+000	 3.1139312239e+000	-1.7183159923e-001
 1.0617707421e+000	 3.1245228262e+000	-1.1793253365e-001
 1.0310659949e+000	 3.1347891339e+000	-1.2086141576e-001
 1.0003339297e+000	 3.1447308357e+000	-1.2633469309e-001
 9.6957939444e-001	 3.1543487122e+000	-1.3130124428e-001
 9.3880719824e-001	 3.1636436342e+000	-1.3535665155e-001
 9.0802210898e-001	 3.1726165620e+000	-1.3810338085e-001
 1.2239149093e+000	 3.0915461010e+000	-3.7210024453e-001
 1.1931896832e+000	 3.1035340146e+000	-2.9792314975e-001
 1.1624119893e+000	 3.1151923483e+000	-2.2704859118e-001
 1.1315868782e+000	 3.1265214116e+000	-1.6824854949e-001
 1.1007193714e+000	 3.1375216120e+000	-1.6541598315e-001
 1.0698144598e+000	 3.1481934537e+000	-1.6344215763e-001
 1.0388771009e+000	 3.1585375365e+000	-1.6194552812e-001
 1.0079122170e+000	 3.1685545542e+000	-1.6055308970e-001
 9.7692469289e-001	 3.1782452933e+000	-1.5889961265e-001
 9.4591937399e-001	 3.1876106315e+000	-1.5662688382e-001
 9.1490106435e-001	 3.1966515360e+000	-1.5338295661e-001
 1.2331172771e+000	 3.1147908086e+000	-3.1525986856e-001
 1.2021610342e+000	 3.1268688568e+000	-2.4409636210e-001
 1.1711519291e+000	 3.1386148472e+000	-2.3165296957e-001
 1.1400950502e+000	 3.1500290914e+000	-2.2086170063e-001
 1.1089954569e+000	 3.1611120000e+000	-2.1137005546e-001
 1.0778581776e+000	 3.1718640811e+000	-2.0283532726e-001
 1.0466882070e+000	 3.1822859390e+000	-1.9492376518e-001
 1.0154905044e+000	 3.1923782726e+000	-1.8730973895e-001
 9.8426999133e-001	 3.2021418745e+000	-1.7967490818e-001
 9.5303154973e-001	 3.2115776287e+000	-1.7170739952e-001
 9.2178001972e-001	 3.2206865099e+000	-1.6310099427e-001
 1.2423196448e+000	 3.1380355161e+000	-3.1963198955e-001
 1.2111323852e+000	 3.1502036991e+000	-2.9916015657e-001
 1.1798918689e+000	 3.1620373461e+000	-2.8065029517e-001
 1.1486032222e+000	 3.1735367712e+000	-2.6378802367e-001
 1.1172715424e+000	 3.1847023881e+000	-2.4826938613e-001
 1.0859018953e+000	 3.1955347086e+000	-2.3379994548e-001
 1.0544993130e+000	 3.2060343415e+000	-2.2009387661e-001
 1.0230687917e+000	 3.2162019911e+000	-2.0687306274e-001
 9.9161528978e-001	 3.2260384556e+000	-1.9386619807e-001
 9.6014372548e-001	 3.2355446259e+000	-1.8080790002e-001
 9.2865897510e-001	 3.2447214839e+000	-1.6743783385e-001
 1.2515220125e+000	 3.1612802236e+000	-3.6788430973e-001
 1.2201037362e+000	 3.1735385413e+000	-3.4369535637e-001
 1.1886318086e+000	 3.1854598449e+000	-3.1973492955e-001
 1.1571113942e+000	 3.1970444510e+000	-2.9741131475e-001
 1.1255476279e+000	 3.2082927761e+000	-2.7646923163e-001
 1.0939456130e+000	 3.2192053361e+000	-2.5666265287e-001
 1.0623104190e+000	 3.2297827441e+000	-2.3775382681e-001
 1.0306470791e+000	 3.2400257095e+000	-2.1951230479e-001
 9.9896058822e-001	 3.2499350368e+000	-2.0171397652e-001
 9.6725590122e-001	 3.2595116232e+000	-1.8414011675e-001
 9.3553793047e-001	 3.2687564578e+000	-1.6657644620e-001
 1.2607243803e+000	 3.1845249311e+000	-3.9814894472e-001
 1.2290750872e+000	 3.1968733835e+000	-3.7813980838e-001
 1.1973717484e+000	 3.2088823438e+000	-3.4931697047e-001
 1.1656195662e+000	 3.2205521308e+000	-3.2211381377e-001
 1.1338237134e+000	 3.2318831642e+000	-2.9632388101e-001
 1.1019893308e+000	 3.2428759635e+000	-2.7174971040e-001
 1.0701215250e+000	 3.2535311466e+000	-2.4820178705e-001
 1.0382253664e+000	 3.2638494280e+000	-2.2549750060e-001
 1.0063058867e+000	 3.2738316179e+000	-2.0346011264e-001
 9.7436807697e-001	 3.2834786204e+000	-1.8191773713e-001
 9.4241688584e-001	 3.2927914318e+000	-1.6070233692e-001
 1.2699267480e+000	 3.2077696387e+000	-4.1999844631e-001
 1.2380464382e+000	 3.2202082257e+000	-4.0292872253e-001
 1.2061116882e+000	 3.2323048426e+000	-3.6980444756e-001
 1.1741277382e+000	 3.2440598105e+000	-3.3827626077e-001
 1.1420997989e+000	 3.2554735523e+000	-3.0818669100e-001
 1.1100330485e+000	 3.2665465910e+000	-2.7938701322e-001
 1.0779326310e+000	 3.2772795491e+000	-2.5173612800e-001
 1.0458036537e+000	 3.2876731465e+000	-2.2509944881e-001
 1.0136511851e+000	 3.2977281991e+000	-1.9934780068e-001
 9.8148025271e-001	 3.3074456176e+000	-1.7435633372e-001
 9.4929584121e-001	 3.3168264057e+000	-1.5000345459e-001
 1.2791291158e+000	 3.2310143462e+000	-4.3367684747e-001
 1.2470177892e+000	 3.2435430679e+000	-4.1849476663e-001
 1.2148516279e+000	 3.2557273415e+000	-3.8160339668e-001
 1.1826359103e+000	 3.2675674903e+000	-3.4627794987e-001
 1.1503758844e+000	 3.2790639403e+000	-3.1241011951e-001
 1.1180767663e+000	 3.2902172185e+000	-2.7990010377e-001
 1.0857437371e+000	 3.3010279516e+000	-2.4865541255e-001
 1.0533819411e+000	 3.3114968649e+000	-2.1858968371e-001
 1.0209964835e+000	 3.3216247802e+000	-1.8962151231e-001
 9.8859242845e-001	 3.3314126149e+000	-1.6167329639e-001
 9.5617479658e-001	 3.3408613797e+000	-1.3467010282e-001
 1.2883314835e+000	 3.2542590537e+000	-4.3942520079e-001
 1.2559891402e+000	 3.2668779101e+000	-4.2150007720e-001
 1.2235915677e+000	 3.2791498404e+000	-3.8511793113e-001
 1.1911440823e+000	 3.2910751701e+000	-3.4649678096e-001
 1.1586519699e+000	 3.3026543284e+000	-3.0934575777e-001
 1.1261204840e+000	 3.3138878460e+000	-2.7361418440e-001
 1.0935548431e+000	 3.3247763542e+000	-2.3925838891e-001
 1.0609602284e+000	 3.3353205834e+000	-2.0624044899e-001
 1.0283417820e+000	 3.3455213614e+000	-1.7452695101e-001
 9.9570460419e-001	 3.3553796121e+000	-1.4408776744e-001
 9.6305375194e-001	 3.3648963537e+000	-1.1489485620e-001
 8.9426419823e-001	 3.1245466141e+000	-9.2580703006e-002
 8.6393750537e-001	 3.1330675043e+000	-1.0432724612e-001
 8.3360737744e-001	 3.1412734265e+000	-1.1720546257e-001
 8.0327837781e-001	 3.1491655796e+000	-1.2828586982e-001
 7.7295502237e-001	 3.1567452436e+000	-1.3707266814e-001
 7.4264177780e-001	 3.1640137784e+000	-1.4307458583e-001
 7.1234306010e-001	 3.1709726212e+000	-1.4580442704e-001
 6.8206323302e-001	 3.1776232857e+000	-1.4477863661e-001
 6.5180660668e-001	 3.1839673596e+000	-1.3951688354e-001
 6.2157743620e-001	 3.1900065032e+000	-1.0737471277e-001
 5.9137992034e-001	 3.1957424473e+000	 1.0165557727e-001
 9.0114315360e-001	 3.1485815881e+000	-1.1708465815e-001
 8.7058317850e-001	 3.1571680236e+000	-1.2371437797e-001
 8.4001974188e-001	 3.1654370683e+000	-1.2926006713e-001
 8.0945744226e-001	 3.1733899302e+000	-1.3326893068e-001
 7.7890083024e-001	 3.1810278994e+000	-1.3529243586e-001
 7.4835440687e-001	 3.1883523459e+000	-1.3488578753e-001
 7.1782262210e-001	 3.1953647183e+000	-1.3160742149e-001
 6.8730987327e-001	 3.2020665418e+000	-1.2501851716e-001
 6.5682050366e-001	 3.2084594163e+000	-1.1468253133e-001
 6.2635880109e-001	 3.2145450148e+000	-1.0016475410e-001
 5.9592899665e-001	 3.2203250815e+000	 1.2030543796e-001
 9.0802210898e-001	 3.1726165620e+000	-1.3810338085e-001
 8.7722885162e-001	 3.1812685429e+000	-1.3795419257e-001
 8.4643210633e-001	 3.1896007100e+000	-1.3693220497e-001
 8.1563650671e-001	 3.1976142808e+000	-1.3463268332e-001
 7.8484663811e-001	 3.2053105551e+000	-1.3065442358e-001
 7.5406703593e-001	 3.2126909134e+000	-1.2459917058e-001
 7.2330218410e-001	 3.2197568154e+000	-1.1607105622e-001
 6.9255651353e-001	 3.2265097978e+000	-1.0467605965e-001
 6.6183440064e-001	 3.2329514729e+000	-9.0021490737e-002
 6.3114016599e-001	 3.2390835264e+000	-7.1715498405e-002
 6.0047807296e-001	 3.2449077157e+000	 1.3147839491e-001
 9.1490106435e-001	 3.1966515360e+000	-1.5338295661e-001
 8.8387452474e-001	 3.2053690621e+000	-1.4718898584e-001
 8.5284447077e-001	 3.2137643518e+000	-1.4033166433e-001
 8.2181557116e-001	 3.2218386314e+000	-1.3245439429e-001
 7.9079244597e-001	 3.2295932108e+000	-1.2320337906e-001
 7.5977966499e-001	 3.2370294809e+000	-1.1222698343e-001
 7.2878174611e-001	 3.2441489125e+000	-9.9175116364e-002
 6.9780315378e-001	 3.2509530539e+000	-8.3698638053e-002
 6.6684829761e-001	 3.2574435295e+000	-6.5448792773e-002
 6.3592153088e-001	 3.2636220379e+000	-4.4076669069e-002
 6.0502714927e-001	 3.2694903500e+000	 1.3601796705e-001
 9.2178001972e-001	 3.2206865099e+000	-1.6310099427e-001
 8.9052019786e-001	 3.2294695814e+000	-1.5156459058e-001
 8.5925683522e-001	 3.2379279935e+000	-1.3957247004e-001
 8.2799463561e-001	 3.2460629820e+000	-1.2681626526e-001
 7.9673825384e-001	 3.2538758665e+000	-1.1298968215e-001
 7.6549229405e-001	 3.2613680485e+000	-9.7787801880e-002
 7.3426130811e-001	 3.2685410096e+000	-8.0906407559e-002
 7.0304979404e-001	 3.2753963099e+000	-6.2041337722e-002
 6.7186219458e-001	 3.2819355861e+000	-4.0887868070e-002
 6.4070289577e-001	 3.2881605495e+000	-1.7140123058e-002
 6.0957622558e-001	 3.2940729842e+000	 1.3475790606e-001
 9.2865897510e-001	 3.2447214839e+000	-1.6743783385e-001
 8.9716587098e-001	 3.2535701007e+000	-1.5123024548e-001
 8.6566919966e-001	 3.2620916352e+000	-1.3477272660e-001
 8.3417370005e-001	 3.2702873326e+000	-1.1780525019e-001
 8.0268406170e-001	 3.2781585222e+000	-1.0006913623e-001
 7.7120492311e-001	 3.2857066160e+000	-8.1306294727e-002
 7.3974087011e-001	 3.2929331067e+000	-6.1258495958e-002
 7.0829643429e-001	 3.2998395660e+000	-3.9666669777e-002
 6.7687609156e-001	 3.3064276427e+000	-1.6270235787e-002
 6.4548426067e-001	 3.3126990611e+000	 9.1935341443e-003
 6.1412530188e-001	 3.3186556184e+000	 1.2852255813e-001
 9.3553793047e-001	 3.2687564578e+000	-1.6657644620e-001
 9.0381154410e-001	 3.2776706199e+000	-1.4633846987e-001
 8.7208156410e-001	 3.2862552770e+000	-1.2605446820e-001
 8.4035276450e-001	 3.2945116833e+000	-1.0551288065e-001
 8.0862986957e-001	 3.3024411780e+000	-8.4502768763e-002
 7.7691755217e-001	 3.3100451835e+000	-6.2812999755e-002
 7.4522043211e-001	 3.3173252037e+000	-4.0231459668e-002
 7.1354307455e-001	 3.3242828220e+000	-1.6544298098e-002
 6.8188998853e-001	 3.3309196993e+000	 8.4647937654e-003
 6.5026562556e-001	 3.3372375726e+000	 3.5015270170e-002
 6.1867437819e-001	 3.3432382526e+000	 1.1812720972e-001
 9.4241688584e-001	 3.2927914318e+000	-1.6070233692e-001
 9.1045721722e-001	 3.3017711392e+000	-1.3704494403e-001
 8.7849392854e-001	 3.3104189187e+000	-1.1354351530e-001
 8.4653182894e-001	 3.3187360339e+000	-9.0035098730e-002
 8.1457567743e-001	 3.3267238337e+000	-6.6356640698e-002
 7.8263018123e-001	 3.3343837511e+000	-4.2344109538e-002
 7.5069999411e-001	 3.3417173008e+000	-1.7831651092e-002
 7.1878971480e-001	 3.3487260780e+000	 7.3492217200e-003
 6.8690388551e-001	 3.3554117559e+000	 3.3370403472e-002
 6.5504699045e-001	 3.3617760842e+000	 6.0407933316e-002
 6.2322345450e-001	 3.3678208868e+000	 1.0437841822e-001
 9.4929584121e-001	 3.3168264057e+000	-1.5000345459e-001
 9.1710289033e-001	 3.3258716585e+000	-1.2350839465e-001
 8.8490629298e-001	 3.3345825605e+000	-9.7369337445e-002
 8.5271089338e-001	 3.3429603845e+000	-7.1472097245e-002
 8.2052148530e-001	 3.3510064894e+000	-4.5701664050e-002
 7.8834281029e-001	 3.3587223186e+000	-1.9941266566e-002
 7.5617955611e-001	 3.3661093979e+000	 5.9285304047e-003
 7.2403635505e-001	 3.3731693341e+000	 3.2030692074e-002
 6.9191778248e-001	 3.3799038126e+000	 5.8492541401e-002
 6.5982835535e-001	 3.3863145957e+000	 8.5446546728e-002
 6.2777253081e-001	 3.3924035210e+000	 1.1303106778e-001
 9.5617479658e-001	 3.3408613797e+000	-1.3467010282e-001
 9.2374856345e-001	 3.3499721777e+000	-1.0589048523e-001
 8.9131865742e-001	 3.3587462022e+000	-7.7664921989e-002
 8.5888995783e-001	 3.3671847351e+000	-4.9928166831e-002
 8.2646729316e-001	 3.3752891451e+000	-2.2613427421e-002
 7.9405543935e-001	 3.3830608861e+000	 4.3486328080e-003
 7.6165911811e-001	 3.3905014950e+000	 3.1030856006e-002
 7.2928299530e-001	 3.3976125901e+000	 5.7510512267e-002
 6.9693167945e-001	 3.4043958692e+000	 8.3870181047e-002
 6.6460972024e-001	 3.4108531073e+000	 1.1019858987e-001
 6.3232160712e-001	 3.4169861552e+000	 1.3659140876e-001
 9.6305375194e-001	 3.3648963537e+000	-1.1489485620e-001
 9.3039423656e-001	 3.3740726970e+000	-8.4355711200e-002
 8.9773102186e-001	 3.3829098440e+000	-5.4566648485e-002
 8.6506902227e-001	 3.3914090857e+000	-2.5511549598e-002
 8.3241310102e-001	 3.3995718009e+000	 2.8279710245e-003
 7.9976806841e-001	 3.4073994536e+000	 3.0473625995e-002
 7.6713868010e-001	 3.4148935921e+000	 5.7451475645e-002
 7.3452963556e-001	 3.4220558462e+000	 8.3792907196e-002
 7.0194557643e-001	 3.4288879258e+000	 1.0953557042e-001
 6.6939108513e-001	 3.4353916189e+000	 1.3472426796e-001
 6.3687068343e-001	 3.4415687894e+000	 1.5941179866e-001
 5.9137992034e-001	 3.1957424473e+000	 1.0165557727e-001
 5.6121820030e-001	 3.2011769916e+000	 6.1669675925e-002
 5.3109635855e-001	 3.2063120026e+000	 3.6277847654e-002
 5.0101841767e-001	 3.2111494118e+000	 2.4804102834e-002
 4.7098833933e-001	 3.2156912140e+000	 2.6592497652e-002
 4.4101002328e-001	 3.2199394651e+000	 4.1005024670e-002
 4.1108730644e-001	 3.2238962803e+000	 6.7419557319e-002
 3.8122396201e-001	 3.2275638322e+000	 1.0522785285e-001
 3.5142369869e-001	 3.2309443486e+000	 1.5383361790e-001
 3.2169015991e-001	 3.2340401112e+000	 2.1265064046e-001
 2.9202692318e-001	 3.2368534530e+000	 2.8110099159e-001
 5.9592899665e-001	 3.2203250815e+000	 1.2030543796e-001
 5.6553526338e-001	 3.2258014300e+000	 8.3423323503e-002
 5.3518171515e-001	 3.2309759410e+000	 5.9689383885e-002
 5.0487240550e-001	 3.2358505611e+000	 4.8532633298e-002
 4.7461132655e-001	 3.2404273003e+000	 4.9401759782e-002
 4.4440240807e-001	 3.2447082303e+000	 6.1762869372e-002
 4.1424951648e-001	 3.2486954825e+000	 8.5097288747e-002
 3.8415645402e-001	 3.2523912463e+000	 1.1889943110e-001
 3.5412695790e-001	 3.2557977667e+000	 1.6267472949e-001
 3.2416469960e-001	 3.2589173428e+000	 2.1593764165e-001
 2.9427328412e-001	 3.2617523257e+000	 2.7820972966e-001
 6.0047807296e-001	 3.2449077157e+000	 1.3147839491e-001
 5.6985232646e-001	 3.2504258684e+000	 9.8361526625e-002
 5.3926707176e-001	 3.2556398795e+000	 7.6940400156e-002
 5.0872639332e-001	 3.2605517105e+000	 6.6749700548e-002
 4.7823431377e-001	 3.2651633866e+000	 6.7343415578e-002
 4.4779479286e-001	 3.2694769954e+000	 7.8292431923e-002
 4.1741172653e-001	 3.2734946847e+000	 9.9182194471e-002
 3.8708894603e-001	 3.2772186604e+000	 1.2961043364e-001
 3.5683021712e-001	 3.2806511848e+000	 1.6918496515e-001
 3.2663923928e-001	 3.2837945745e+000	 2.1752156627e-001
 2.9651964507e-001	 3.2866511984e+000	 2.7424193220e-001
 6.0502714927e-001	 3.2694903500e+000	 1.3601796705e-001
 5.7416938954e-001	 3.2750503068e+000	 1.0726412548e-001
 5.4335242836e-001	 3.2803038180e+000	 8.8746744095e-002
 5.1258038115e-001	 3.2852528598e+000	 8.0106881526e-002
 4.8185730100e-001	 3.2898994728e+000	 8.1004528586e-002
 4.5118717765e-001	 3.2942457605e+000	 9.1116054854e-002
 4.2057393658e-001	 3.2982938868e+000	 1.1013172313e-001
 3.9002143804e-001	 3.3020460744e+000	 1.3775327672e-001
 3.5953347634e-001	 3.3055046028e+000	 1.7369160419e-001
 3.2911377897e-001	 3.3086718061e+000	 2.1766448570e-001
 2.9876600601e-001	 3.3115500711e+000	 2.6939442473e-001
 6.0957622558e-001	 3.2940729842e+000	 1.3475790606e-001
 5.7848645261e-001	 3.2996747452e+000	 1.1090233656e-001
 5.4743778496e-001	 3.3049677565e+000	 9.5816787965e-002
 5.1643436897e-001	 3.3099540091e+000	 8.9249430439e-002
 4.8548028822e-001	 3.3146355591e+000	 9.0966996011e-002
 4.5457956245e-001	 3.3190145256e+000	 1.0075207402e-001
 4.2373614662e-001	 3.3230930890e+000	 1.1840047912e-001
 3.9295393006e-001	 3.3268734885e+000	 1.4371869704e-001
 3.6223673555e-001	 3.3303580209e+000	 1.7652141288e-001
 3.3158831866e-001	 3.3335490377e+000	 2.1662912609e-001
 3.0101236695e-001	 3.3364489438e+000	 2.6386585623e-001
 6.1412530188e-001	 3.3186556184e+000	 1.2852255813e-001
 5.8280351569e-001	 3.3242991836e+000	 1.1003907204e-001
 5.5152314156e-001	 3.3296316950e+000	 9.8851705536e-002
 5.2028835680e-001	 3.3346551584e+000	 9.4816512925e-002
 4.8910327544e-001	 3.3393716454e+000	 9.7807740061e-002
 4.5797194724e-001	 3.3437832907e+000	 1.0771496699e-001
 4.2689835667e-001	 3.3478922911e+000	 1.2444032793e-001
 3.9588642207e-001	 3.3517009026e+000	 1.4789581401e-001
 3.6493999477e-001	 3.3552114390e+000	 1.7800066351e-001
 3.3406285835e-001	 3.3584262693e+000	 2.1467884417e-001
 3.0325872790e-001	 3.3613478166e+000	 2.5785663158e-001
 6.1867437819e-001	 3.3432382526e+000	 1.1812720972e-001
 5.8712057877e-001	 3.3489236220e+000	 1.0542924509e-001
 5.5560849817e-001	 3.3542956335e+000	 9.8545736728e-002
 5.2414234463e-001	 3.3593563078e+000	 9.7441429910e-002
 4.9272626267e-001	 3.3641077316e+000	 1.0209889085e-001
 4.6136433203e-001	 3.3685520559e+000	 1.1251549490e-001
 4.3006056672e-001	 3.3726914933e+000	 1.2870049687e-001
 3.9881891408e-001	 3.3765283167e+000	 1.5067218916e-001
 3.6764325399e-001	 3.3800648570e+000	 1.7845515247e-001
 3.3653739804e-001	 3.3833035010e+000	 2.1207760402e-001
 3.0550508885e-001	 3.3862466893e+000	 2.5156884706e-001
 6.2322345450e-001	 3.3678208868e+000	 1.0437841822e-001
 5.9143764185e-001	 3.3735480604e+000	 9.7820061810e-002
 5.5969385477e-001	 3.3789595719e+000	 9.5586440675e-002
 5.2799633246e-001	 3.3840574571e+000	 9.7751831635e-002
 4.9634924989e-001	 3.3888438179e+000	 1.0440796130e-001
 4.6475671683e-001	 3.3933208210e+000	 1.1566083809e-001
 4.3322277677e-001	 3.3974906954e+000	 1.3162767132e-001
 4.0175140610e-001	 3.4013557308e+000	 1.5243388301e-001
 3.7034651321e-001	 3.4049182751e+000	 1.7821021771e-001
 3.3901193773e-001	 3.4081807326e+000	 2.0908995494e-001
 3.0775144979e-001	 3.4111455620e+000	 2.4520622857e-001
 6.2777253081e-001	 3.3924035210e+000	 1.1303106778e-001
 5.9575470493e-001	 3.3981724988e+000	 8.7951300478e-002
 5.6377921137e-001	 3.4036235104e+000	 9.0654937783e-002
 5.3185032028e-001	 3.4087586064e+000	 9.6369922403e-002
 4.9997223712e-001	 3.4135799042e+000	 1.0529801441e-001
 4.6814910162e-001	 3.4180895861e+000	 1.1765472585e-001
 4.3638498682e-001	 3.4222898976e+000	 1.3366608681e-001
 4.0468389811e-001	 3.4261831449e+000	 1.5356550947e-001
 3.7304977243e-001	 3.4297716932e+000	 1.7759075526e-001
 3.4148647742e-001	 3.4330579642e+000	 2.0598101020e-001
 3.0999781074e-001	 3.4360444347e+000	 2.3897407261e-001
 6.3232160712e-001	 3.4169861552e+000	 1.3659140876e-001
 6.0007176801e-001	 3.4227969372e+000	 7.6555578729e-002
 5.6786456798e-001	 3.4282874489e+000	 8.4426141337e-002
 5.3570430811e-001	 3.4334597557e+000	 9.3912656468e-002
 5.0359522435e-001	 3.4383159904e+000	 1.0532782337e-001
 4.7154148642e-001	 3.4428583512e+000	 1.1899756054e-001
 4.3954719687e-001	 3.4470890998e+000	 1.3525761722e-001
 4.0761639013e-001	 3.4510105590e+000	 1.5445028787e-001
 3.7575303165e-001	 3.4546251112e+000	 1.7692123520e-001
 3.4396101711e-001	 3.4579351959e+000	 2.0301642681e-001
 3.1224417169e-001	 3.4609433074e+000	 2.3307918979e-001
 6.3687068343e-001	 3.4415687894e+000	 1.5941179866e-001
 6.0438883109e-001	 3.4474213756e+000	 6.4358609295e-002
 5.7194992458e-001	 3.4529513874e+000	 7.7568979185e-002
 5.3955829594e-001	 3.4581609051e+000	 9.0991925540e-002
 5.0721821157e-001	 3.4630520767e+000	 1.0505202469e-001
 4.7493387121e-001	 3.4676271163e+000	 1.2018653642e-001
 4.4270940692e-001	 3.4718883019e+000	 1.3684185905e-001
 4.1054888215e-001	 3.4758379731e+000	 1.5547009276e-001
 3.7845629087e-001	 3.4794785293e+000	 1.7652571683e-001
 3.4643555681e-001	 3.4828124275e+000	 2.0046238605e-001
 3.1449053264e-001	 3.4858421801e+000	 2.2772985071e-001
 2.9202692318e-001	 3.2368534530e+000	 2.8110099159e-001
 2.6243749943e-001	 3.2393867566e+000	 2.9856101589e-001
 2.3292533249e-001	 3.2416424524e+000	 3.2140583014e-001
 2.0349379852e-001	 3.2436230166e+000	 3.4902986284e-001
 1.7414620565e-001	 3.2453309691e+000	 3.8083307476e-001
 1.4488579349e-001	 3.2467688718e+000	 4.1621950355e-001
 1.1571573288e-001	 3.2479393266e+000	 4.5459588781e-001
 8.6639125561e-002	 3.2488449735e+000	 4.9537037193e-001
 5.7659003953e-002	 3.2494884889e+000	 5.3795129239e-001
 2.8778330992e-002	 3.2498725833e+000	 5.8174604608e-001
 0.0000000000e+000	 3.2500000000e+000	 6.2616004088e-001
 2.9427328412e-001	 3.2617523257e+000	 2.7820972966e-001
 2.6445624942e-001	 3.2643051163e+000	 2.8668598158e-001
 2.3471706581e-001	 3.2665781636e+000	 3.0016096052e-001
 2.0505913543e-001	 3.2685739629e+000	 3.1814708319e-001
 1.7548579184e-001	 3.2702950535e+000	 3.4016019821e-001
 1.4600029959e-001	 3.2717440170e+000	 3.6571802552e-001
 1.1660585390e-001	 3.2729234752e+000	 3.9433868168e-001
 8.7305580372e-002	 3.2738360887e+000	 4.2553929213e-001
 5.8102534752e-002	 3.2744845542e+000	 4.5883469122e-001
 2.8999702769e-002	 3.2748716032e+000	 4.9373621060e-001
 0.0000000000e+000	 3.2750000000e+000	 5.2975055590e-001
 2.9651964507e-001	 3.2866511984e+000	 2.7424193220e-001
 2.6647499942e-001	 3.2892234759e+000	 2.7507858137e-001
 2.3650879913e-001	 3.2915138748e+000	 2.8052506387e-001
 2.0662447234e-001	 3.2935249092e+000	 2.9021214702e-001
 1.7682537804e-001	 3.2952591379e+000	 3.0377192291e-001
 1.4711480569e-001	 3.2967191621e+000	 3.2083614174e-001
 1.1749597492e-001	 3.2979076239e+000	 3.4103463737e-001
 8.7972035183e-002	 3.2988272039e+000	 3.6399384622e-001
 5.8546065551e-002	 3.2994806195e+000	 3.8933542030e-001
 2.9221074545e-002	 3.2998706230e+000	 4.1667493478e-001
 0.0000000000e+000	 3.3000000000e+000	 4.4562069031e-001
 2.9876600601e-001	 3.3115500711e+000	 2.6939442473e-001
 2.6849374941e-001	 3.3141418356e+000	 2.6385418841e-001
 2.3830053246e-001	 3.3164495860e+000	 2.6253215155e-001
 2.0818980925e-001	 3.3184758555e+000	 2.6517783170e-001
 1.7816496423e-001	 3.3202232222e+000	 2.7153995659e-001
 1.4822931180e-001	 3.3216943073e+000	 2.8136469046e-001
 1.1838609594e-001	 3.3228917726e+000	 2.9439395898e-001
 8.8638489994e-002	 3.3238183191e+000	 3.1036387390e-001
 5.8989596350e-002	 3.3244766848e+000	 3.2900325829e-001
 2.9442446322e-002	 3.3248696429e+000	 3.5003227258e-001
 0.0000000000e+000	 3.3250000000e+000	 3.7316114175e-001
 3.0101236695e-001	 3.3364489438e+000	 2.6386585623e-001
 2.7051249940e-001	 3.3390601953e+000	 2.5313165193e-001
 2.4009226578e-001	 3.3413852971e+000	 2.4622136166e-001
 2.0975514616e-001	 3.3434268017e+000	 2.4300368938e-001
 1.7950455043e-001	 3.3451873066e+000	 2.4334442659e-001
 1.4934381790e-001	 3.3466694525e+000	 2.4710457056e-001
 1.1927621697e-001	 3.3478759212e+000	 2.5413854783e-001
 8.9304944806e-002	 3.3488094342e+000	 2.6429254368e-001
 5.9433127149e-002	 3.3494727501e+000	 2.7740293872e-001
 2.9663818098e-002	 3.3498686628e+000	 2.9329485273e-001
 0.0000000000e+000	 3.3500000000e+000	 3.1178079597e-001
 3.0325872790e-001	 3.3613478166e+000	 2.5785663158e-001
 2.7253124940e-001	 3.3639785549e+000	 2.4303316854e-001
 2.4188399911e-001	 3.3663210083e+000	 2.3163676921e-001
 2.1132048307e-001	 3.3683777480e+000	 2.2365579614e-001
 1.8084413662e-001	 3.3701513910e+000	 2.1907356802e-001
 1.5045832400e-001	 3.3716445976e+000	 2.1786636891e-001
 1.2016633799e-001	 3.3728600699e+000	 2.2000156921e-001
 8.9971399617e-002	 3.3738005494e+000	 2.2543585919e-001
 5.9876657948e-002	 3.3744688154e+000	 2.3411359608e-001
 2.9885189875e-002	 3.3748676827e+000	 2.4596526494e-001
 0.0000000000e+000	 3.3750000000e+000	 2.6090605326e-001
 3.0550508885e-001	 3.3862466893e+000	 2.5156884706e-001
 2.7454999939e-001	 3.3888969146e+000	 2.3368415915e-001
 2.4367573243e-001	 3.3912567195e+000	 2.1882720457e-001
 2.1288581998e-001	 3.3933286943e+000	 2.0710651206e-001
 1.8218372282e-001	 3.3951154754e+000	 1.9862342571e-001
 1.5157283010e-001	 3.3966197428e+000	 1.9347000420e-001
 1.2105645901e-001	 3.3978442186e+000	 1.9172703824e-001
 9.0637854428e-002	 3.3987916646e+000	 1.9346218732e-001
 6.0320188747e-002	 3.3994648807e+000	 1.9872823640e-001
 3.0106561652e-002	 3.3998667025e+000	 2.0756147299e-001
 0.0000000000e+000	 3.4000000000e+000	 2.1998018445e-001
 3.0775144979e-001	 3.4111455620e+000	 2.4520622857e-001
 2.7656874939e-001	 3.4138152743e+000	 2.2521315128e-001
 2.4546746576e-001	 3.4161924307e+000	 2.0784607994e-001
 2.1445115689e-001	 3.4182796406e+000	 1.9333425193e-001
 1.8352330902e-001	 3.4200795598e+000	 1.8189756917e-001
 1.5268733621e-001	 3.4215948880e+000	 1.7374438636e-001
 1.2194658003e-001	 3.4228283672e+000	 1.6906942393e-001
 9.1304309239e-002	 3.4237827798e+000	 1.6805180702e-001
 6.0763719546e-002	 3.4244609460e+000	 1.7085323096e-001
 3.0327933428e-002	 3.4248657224e+000	 1.7761625375e-001
 0.0000000000e+000	 3.4250000000e+000	 1.8846271526e-001
 3.0999781074e-001	 3.4360444347e+000	 2.3897407261e-001
 2.7858749938e-001	 3.4387336339e+000	 2.1775166653e-001
 2.4725919909e-001	 3.4411281418e+000	 1.9875122335e-001
 2.1601649380e-001	 3.4432305869e+000	 1.8232326584e-001
 1.8486289521e-001	 3.4450436441e+000	 1.6880681994e-001
 1.5380184231e-001	 3.4465700331e+000	 1.5852709080e-001
 1.2283670105e-001	 3.4478125159e+000	 1.5179327040e-001
 9.1970764051e-002	 3.4487738950e+000	 1.4889647769e-001
 6.1207250346e-002	 3.4494570113e+000	 1.5010783206e-001
 3.0549305205e-002	 3.4498647423e+000	 1.5567666036e-001
 0.0000000000e+000	 3.4500000000e+000	 1.6582883731e-001
 3.1224417169e-001	 3.4609433074e+000	 2.3307918979e-001
 2.8060624938e-001	 3.4636519936e+000	 2.1143411285e-001
 2.4905093241e-001	 3.4660638530e+000	 1.9160471978e-001
 2.1758183071e-001	 3.4681815332e+000	 1.7406342932e-001
 1.8620248141e-001	 3.4700077285e+000	 1.5926899074e-001
 1.5491634841e-001	 3.4715451783e+000	 1.4766404672e-001
 1.2372682207e-001	 3.4727966646e+000	 1.3967283446e-001
 9.2637218862e-002	 3.4737650101e+000	 1.3569902621e-001
 6.1650781145e-002	 3.4744530766e+000	 1.3612370967e-001
 3.0770676981e-002	 3.4748637621e+000	 1.4130350880e-001
 0.0000000000e+000	 3.4750000000e+000	 1.5156884463e-001
 3.1449053264e-001	 3.4858421801e+000	 2.2772985071e-001
 2.8262499937e-001	 3.4885703533e+000	 2.0639768148e-001
 2.5084266574e-001	 3.4909995642e+000	 1.8647275917e-001
 2.1914716763e-001	 3.4931324794e+000	 1.6855004239e-001
 1.8754206761e-001	 3.4949718129e+000	 1.5320863579e-001
 1.5603085452e-001	 3.4965203235e+000	 1.4100923870e-001
 1.2461694309e-001	 3.4977808132e+000	 1.3249173875e-001
 9.3303673673e-002	 3.4987561253e+000	 1.2817295167e-001
 6.2094311944e-002	 3.4994491419e+000	 1.2854450792e-001
 3.0992048758e-002	 3.4998627820e+000	 1.3407088628e-001
 0.0000000000e+000	 3.5000000000e+000	 1.4518759429e-001
 3.5000000000e+000	 0.0000000000e+000	 1.1103096727e+000
 3.4998627820e+000	 3.0992048758e-002	 1.1120136829e+000
 3.4994491419e+000	 6.2094311944e-002	 1.1127277714e+000
 3.4987561253e+000	 9.3303673673e-002	 1.1115653111e+000
 3.4977808132e+000	 1.2461694309e-001	 1.1077367041e+000
 3.4965203235e+000	 1.5603085452e-001	 1.1005532699e+000
 3.4949718129e+000	 1.8754206761e-001	 1.0894310317e+000
 3.4931324794e+000	 2.1914716763e-001	 1.0738943878e+000
 3.4909995642e+000	 2.5084266574e-001	 1.0535796559e+000
 3.4885703533e+000	 2.8262499937e-001	 1.0282384793e+000
 3.4858421801e+000	 3.1449053264e-001	 9.9774108024e-001
 3.5250000000e+000	 0.0000000000e+000	 1.0795875006e+000
 3.5248618019e+000	 3.1213420535e-002	 1.0799097206e+000
 3.5244452072e+000	 6.2537842743e-002	 1.0795820353e+000
 3.5237472405e+000	 9.3970128485e-002	 1.0777311507e+000
 3.5227649619e+000	 1.2550706412e-001	 1.0735828050e+000
 3.5214954686e+000	 1.5714536062e-001	 1.0664657032e+000
 3.5199358973e+000	 1.8888165380e-001	 1.0558153456e+000
 3.5180834257e+000	 2.2071250454e-001	 1.0411777391e+000
 3.5159352753e+000	 2.5263439907e-001	 1.0222129779e+000
 3.5134887129e+000	 2.8464374937e-001	 9.9869868099e-001
 3.5107410529e+000	 3.1673689358e-001	 9.7053327482e-001
 3.5500000000e+000	 0.0000000000e+000	 1.0495286218e+000
 3.5498608218e+000	 3.1434792311e-002	 1.0491640506e+000
 3.5494412725e+000	 6.2981373542e-002	 1.0484128297e+000
 3.5487383557e+000	 9.4636583296e-002	 1.0464141324e+000
 3.5477491106e+000	 1.2639718514e-001	 1.0424082311e+000
 3.5464706138e+000	 1.5825986672e-001	 1.0357404797e+000
 3.5448999816e+000	 1.9022124000e-001	 1.0258651876e+000
 3.5430343720e+000	 2.2227784145e-001	 1.0123493724e+000
 3.5408709865e+000	 2.5442613239e-001	 9.9487637866e-001
 3.5384070726e+000	 2.8666249936e-001	 9.7324935031e-001
 3.5356399256e+000	 3.1898325453e-001	 9.4739454296e-001
 3.5750000000e+000	 0.0000000000e+000	 1.0201559398e+000
 3.5748598416e+000	 3.1656164088e-002	 1.0197856217e+000
 3.5744373378e+000	 6.3424904341e-002	 1.0192152168e+000
 3.5737294709e+000	 9.5303038108e-002	 1.0175955075e+000
 3.5727332592e+000	 1.2728730616e-001	 1.0141805061e+000
 3.5714457590e+000	 1.5937437283e-001	 1.0083314871e+000
 3.5698640660e+000	 1.9156082620e-001	 9.9952090927e-001
 3.5679853183e+000	 2.2384317836e-001	 9.8733621150e-001
 3.5658066977e+000	 2.5621786572e-001	 9.7148347250e-001
 3.5633254323e+000	 2.8868124936e-001	 9.5179091914e-001
 3.5605387983e+000	 3.2122961548e-001	 9.2821227136e-001
 3.6000000000e+000	 0.0000000000e+000	 9.9149172215e-001
 3.5998588615e+000	 3.1877535864e-002	 9.9178300209e-001
 3.5994334031e+000	 6.3868435141e-002	 9.9198411691e-001
 3.5987205860e+000	 9.5969492919e-002	 9.9125660725e-001
 3.5977174079e+000	 1.2817742718e-001	 9.8886743812e-001
 3.5964209041e+000	 1.6048887893e-001	 9.8419308471e-001
 3.5948281504e+000	 1.9290041239e-001	 9.7672350310e-001
 3.5929362646e+000	 2.2540851527e-001	 9.6606597307e-001
 3.5907424089e+000	 2.5800959905e-001	 9.5194879969e-001
 3.5882437919e+000	 2.9069999936e-001	 9.3422486035e-001
 3.5854376710e+000	 3.2347597643e-001	 9.1287498397e-001
 3.6250000000e+000	 0.0000000000e+000	 9.6355762190e-001
 3.6248578814e+000	 3.2098907641e-002	 9.6516439215e-001
 3.6244294683e+000	 6.4311965940e-002	 9.6671431324e-001
 3.6237117012e+000	 9.6635947731e-002	 9.6737883979e-001
 3.6227015566e+000	 1.2906754820e-001	 9.6643711013e-001
 3.6213960493e+000	 1.6160338503e-001	 9.6328008712e-001
 3.6197922348e+000	 1.9423999859e-001	 9.5741458071e-001
 3.6178872109e+000	 2.2697385218e-001	 9.4846713906e-001
 3.6156781200e+000	 2.5980133237e-001	 9.3618779465e-001
 3.6131621516e+000	 2.9271874935e-001	 9.2045365190e-001
 3.6103365437e+000	 3.2572233738e-001	 9.0127230278e-001
 3.6500000000e+000	 0.0000000000e+000	 9.3637469898e-001
 3.6498569012e+000	 3.2320279418e-002	 9.3993763715e-001
 3.6494255336e+000	 6.4755496739e-002	 9.4340045637e-001
 3.6487028164e+000	 9.7302402542e-002	 9.4594368767e-001
 3.6476857052e+000	 1.2995766922e-001	 9.4685787010e-001
 3.6463711945e+000	 1.6271789114e-001	 9.4554774877e-001
 3.6447563192e+000	 1.9557958479e-001	 9.4153635154e-001
 3.6428381571e+000	 2.2853918909e-001	 9.3446893059e-001
 3.6406138312e+000	 2.6159306570e-001	 9.2411675527e-001
 3.6380805113e+000	 2.9473749935e-001	 9.1038074242e-001
 3.6352354164e+000	 3.2796869832e-001	 8.9329491023e-001
 3.6750000000e+000	 0.0000000000e+000	 9.0996344024e-001
 3.6748559211e+000	 3.2541651194e-002	 9.1611023940e-001
 3.6744215989e+000	 6.5199027538e-002	 9.2203706895e-001
 3.6736939316e+000	 9.7968857353e-002	 9.2693270528e-001
 3.6726698539e+000	 1.3084779024e-001	 9.3009832223e-001
 3.6713463396e+000	 1.6383239724e-001	 9.3095174888e-001
 3.6697204035e+000	 1.9691917098e-001	 9.2903160248e-001
 3.6677891034e+000	 2.3010452601e-001	 9.2400128275e-001
 3.6655495424e+000	 2.6338479903e-001	 9.1565281361e-001
 3.6629988709e+000	 2.9675624934e-001	 9.0391051819e-001
 3.6601342892e+000	 3.3021505927e-001	 8.8883451310e-001
 3.7000000000e+000	 0.0000000000e+000	 8.8434377884e-001
 3.6998549410e+000	 3.2763022971e-002	 8.9368936971e-001
 3.6994176642e+000	 6.5642558337e-002	 9.0261854999e-001
 3.6986850468e+000	 9.8635312165e-002	 9.1032751640e-001
 3.6976540026e+000	 1.3173791127e-001	 9.1612731824e-001
 3.6963214848e+000	 1.6494690334e-001	 9.1944817711e-001
 3.6946844879e+000	 1.9825875718e-001	 9.1984367841e-001
 3.6927400497e+000	 2.3166986292e-001	 9.1699482054e-001
 3.6904852536e+000	 2.6517653235e-001	 9.1071390765e-001
 3.6879172306e+000	 2.9877499934e-001	 9.0094827146e-001
 3.6850331619e+000	 3.3246142022e-001	 8.8778380795e-001
 3.7250000000e+000	 0.0000000000e+000	 8.5953511279e-001
 3.7248539609e+000	 3.2984394747e-002	 8.7268187863e-001
 3.7244137295e+000	 6.6086089136e-002	 8.8513917900e-001
 3.7236761619e+000	 9.9301766976e-002	 8.9610981191e-001
 3.7226381512e+000	 1.3262803229e-001	 9.0491394906e-001
 3.7212966300e+000	 1.6606140945e-001	 9.1099351981e-001
 3.7196485723e+000	 1.9959834338e-001	 9.1391646348e-001
 3.7176909960e+000	 2.3323519983e-001	 9.1338083570e-001
 3.7154209647e+000	 2.6696826568e-001	 9.0921875429e-001
 3.7128355903e+000	 3.0079374934e-001	 9.0140017008e-001
 3.7099320346e+000	 3.3470778117e-001	 8.9003644788e-001
 3.7500000000e+000	 0.0000000000e+000	 8.3555632285e-001
 3.7498529807e+000	 3.3205766524e-002	 8.5309430705e-001
 3.7494097948e+000	 6.6529619936e-002	 8.6959311995e-001
 3.7486672771e+000	 9.9968221788e-002	 8.8426134752e-001
 3.7476222999e+000	 1.3351815331e-001	 8.9642753687e-001
 3.7462717751e+000	 1.6717591555e-001	 9.0554464678e-001
 3.7446126567e+000	 2.0093792957e-001	 9.1119436310e-001
 3.7426419423e+000	 2.3480053674e-001	 9.1309126443e-001
 3.7403566759e+000	 2.6875999901e-001	 9.1108682338e-001
 3.7377539499e+000	 3.0281249933e-001	 9.0517322826e-001
 3.7348309073e+000	 3.3695414212e-001	 8.9548701064e-001
 3.4858421801e+000	 3.1449053264e-001	 9.9774108024e-001
 3.4828124275e+000	 3.4643555681e-001	 9.8187606555e-001
 3.4794785293e+000	 3.7845629087e-001	 9.6480585177e-001
 3.4758379731e+000	 4.1054888215e-001	 9.4675992990e-001
 3.4718883019e+000	 4.4270940692e-001	 9.2809393757e-001
 3.4676271163e+000	 4.7493387121e-001	 9.0929190337e-001
 3.4630520767e+000	 5.0721821157e-001	 8.9096826852e-001
 3.4581609051e+000	 5.3955829594e-001	 8.7386967439e-001
 3.4529513874e+000	 5.7194992458e-001	 8.5887650440e-001
 3.4474213756e+000	 6.0438883109e-001	 8.4700416926e-001
 3.4415687894e+000	 6.3687068343e-001	 8.1667718814e-001
 3.5107410529e+000	 3.1673689358e-001	 9.7053327482e-001
 3.5076896591e+000	 3.4891009650e-001	 9.5606167604e-001
 3.5043319474e+000	 3.8115955010e-001	 9.4044346600e-001
 3.5006653872e+000	 4.1348137416e-001	 9.2394210126e-001
 3.4966875041e+000	 4.4587161697e-001	 9.0694988573e-001
 3.4923958815e+000	 4.7832625601e-001	 8.8999022949e-001
 3.4877881630e+000	 5.1084119880e-001	 8.7371967944e-001
 3.4828620544e+000	 5.4341228377e-001	 8.5892971010e-001
 3.4776153259e+000	 5.7603528119e-001	 8.4654826281e-001
 3.4720458140e+000	 6.0870589417e-001	 8.3764102216e-001
 3.4661514237e+000	 6.4141975974e-001	 8.0238071699e-001
 3.5356399256e+000	 3.1898325453e-001	 9.4739454296e-001
 3.5325668907e+000	 3.5138463619e-001	 9.3431618610e-001
 3.5291853654e+000	 3.8386280932e-001	 9.2007497546e-001
 3.5254928013e+000	 4.1641386618e-001	 9.0496822829e-001
 3.5214867062e+000	 4.4903382702e-001	 8.8942488979e-001
 3.5171646466e+000	 4.8171864080e-001	 8.7400780797e-001
 3.5125242492e+000	 5.1446418603e-001	 8.5941577471e-001
 3.5075632037e+000	 5.4726627160e-001	 8.4648532107e-001
 3.5022792644e+000	 5.8012063779e-001	 8.3619225505e-001
 3.4966702524e+000	 6.1302295724e-001	 8.2965293026e-001
 3.4907340579e+000	 6.4596883605e-001	 7.8935392429e-001
 3.5605387983e+000	 3.2122961548e-001	 9.2821227136e-001
 3.5574441224e+000	 3.5385917588e-001	 9.1651191750e-001
 3.5540387835e+000	 3.8656606854e-001	 9.0355763832e-001
 3.5503202154e+000	 4.1934635820e-001	 8.8968051712e-001
 3.5462859084e+000	 4.5219603707e-001	 8.7534612615e-001
 3.5419334117e+000	 4.8511102560e-001	 8.6115681892e-001
 3.5372603355e+000	 5.1808717325e-001	 8.4785378312e-001
 3.5322643530e+000	 5.5112025943e-001	 8.3631884175e-001
 3.5269432028e+000	 5.8420599440e-001	 8.2757599059e-001
 3.5212946908e+000	 6.1734002033e-001	 8.2279266023e-001
 3.5153166921e+000	 6.5051791236e-001	 7.7755682951e-001
 3.5854376710e+000	 3.2347597643e-001	 9.1287498397e-001
 3.5823213540e+000	 3.5633371558e-001	 9.0252246685e-001
 3.5788922016e+000	 3.8926932776e-001	 8.9075011037e-001
 3.5751476295e+000	 4.2227885021e-001	 8.7792267938e-001
 3.5710851106e+000	 4.5535824712e-001	 8.6454236941e-001
 3.5667021768e+000	 4.8850341040e-001	 8.5125111804e-001
 3.5619964217e+000	 5.2171016048e-001	 8.3883267094e-001
 3.5569655023e+000	 5.5497424726e-001	 8.2821439027e-001
 3.5516071413e+000	 5.8829135100e-001	 8.2046879298e-001
 3.5459191292e+000	 6.2165708341e-001	 8.1681480722e-001
 3.5398993263e+000	 6.5506698867e-001	 7.6695127878e-001
 3.6103365437e+000	 3.2572233738e-001	 9.0127230278e-001
 3.6071985856e+000	 3.5880825527e-001	 8.9222266162e-001
 3.6037456196e+000	 3.9197258699e-001	 8.8151239686e-001
 3.5999750436e+000	 4.2521134223e-001	 8.6953988028e-001
 3.5958843127e+000	 4.5852045717e-001	 8.5684393731e-001
 3.5914709419e+000	 4.9189579519e-001	 8.4410617884e-001
 3.5867325080e+000	 5.2533314771e-001	 8.3215308201e-001
 3.5816666517e+000	 5.5882823509e-001	 8.2195780698e-001
 3.5762710798e+000	 5.9237670761e-001	 8.1464173729e-001
 3.5705435676e+000	 6.2597414649e-001	 8.0980903325e-001
 3.5644819605e+000	 6.5961606499e-001	 7.5750088197e-001
 3.6352354164e+000	 3.2796869832e-001	 8.9329491023e-001
 3.6320758172e+000	 3.6128279496e-001	 8.8548851799e-001
 3.6285990377e+000	 3.9467584621e-001	 8.7570580626e-001
 3.6248024577e+000	 4.2814383425e-001	 8.6437868885e-001
 3.6206835149e+000	 4.6168266723e-001	 8.5208263779e-001
 3.6162397070e+000	 4.9528817999e-001	 8.3953903726e-001
 3.6114685943e+000	 5.2895613494e-001	 8.2761728032e-001
 3.6063678010e+000	 5.6268222292e-001	 8.1733659543e-001
 3.6009350183e+000	 5.9646206422e-001	 8.0986759013e-001
 3.5951680060e+000	 6.3029120957e-001	 7.9791290272e-001
 3.5890645947e+000	 6.6416514130e-001	 7.4917095225e-001
 3.6601342892e+000	 3.3021505927e-001	 8.8883451310e-001
 3.6569530489e+000	 3.6375733466e-001	 8.8219720043e-001
 3.6534524558e+000	 3.9737910543e-001	 8.7319290596e-001
 3.6496298718e+000	 4.3107632627e-001	 8.6228703016e-001
 3.6454827170e+000	 4.6484487728e-001	 8.5009171841e-001
 3.6410084722e+000	 4.9868056479e-001	 8.3736823853e-001
 3.6362046805e+000	 5.3257912217e-001	 8.2502909485e-001
 3.6310689503e+000	 5.6653621075e-001	 8.1413986583e-001
 3.6255989568e+000	 6.0054742082e-001	 8.0592075215e-001
 3.6197924444e+000	 6.3460827265e-001	 7.8703186753e-001
 3.6136472289e+000	 6.6871421761e-001	 7.4192844817e-001
 3.6850331619e+000	 3.3246142022e-001	 8.8778380795e-001
 3.6818302805e+000	 3.6623187435e-001	 8.8222698289e-001
 3.6783058738e+000	 4.0008236465e-001	 8.7383747971e-001
 3.6744572859e+000	 4.3400881828e-001	 8.6311413951e-001
 3.6702819192e+000	 4.6800708733e-001	 8.5070581763e-001
 3.6657772373e+000	 5.0207294958e-001	 8.3741378615e-001
 3.6609407668e+000	 5.3620210939e-001	 8.2419386676e-001
 3.6557700996e+000	 5.7039019858e-001	 8.1215828076e-001
 3.6502628952e+000	 6.0463277743e-001	 8.0257720277e-001
 3.6444168828e+000	 6.3892533573e-001	 7.7713361431e-001
 3.6382298631e+000	 6.7326329392e-001	 7.3574191808e-001
 3.7099320346e+000	 3.3470778117e-001	 8.9003644788e-001
 3.7067075121e+000	 3.6870641404e-001	 8.8545721160e-001
 3.7031592919e+000	 4.0278562387e-001	 8.7750448681e-001
 3.6992847000e+000	 4.3694131030e-001	 8.6671051850e-001
 3.6950811213e+000	 4.7116929738e-001	 8.5376091819e-001
 3.6905460024e+000	 5.0546533438e-001	 8.3949709296e-001
 3.6856768530e+000	 5.3982509662e-001	 8.2491839857e-001
 3.6804712489e+000	 5.7424418641e-001	 8.1118400306e-001
 3.6749268337e+000	 6.0871813404e-001	 7.9961444724e-001
 3.6690413212e+000	 6.4324239882e-001	 7.6818736765e-001
 3.6628124973e+000	 6.7781237024e-001	 7.3058144676e-001
 3.7348309073e+000	 3.3695414212e-001	 8.9548701064e-001
 3.7315847437e+000	 3.7118095373e-001	 8.9176826928e-001
 3.7280127100e+000	 4.0548888310e-001	 8.8406002294e-001
 3.7241121140e+000	 4.3987380232e-001	 8.7292789278e-001
 3.7198803235e+000	 4.7433150743e-001	 8.5909430226e-001
 3.7153147675e+000	 5.0885771918e-001	 8.4344093420e-001
 3.7104129393e+000	 5.4344808385e-001	 8.2701090553e-001
 3.7051723983e+000	 5.7809817425e-001	 8.1101064584e-001
 3.6995907722e+000	 6.1280349065e-001	 7.9681146580e-001
 3.6936657595e+000	 6.4755946190e-001	 7.6016383877e-001
 3.6873951316e+000	 6.8236144655e-001	 7.2641860422e-001
 3.4415687894e+000	 6.3687068343e-001	 8.1667718814e-001
 3.4353916189e+000	 6.6939108513e-001	 7.8782148764e-001
 3.4288879258e+000	 7.0194557643e-001	 7.5876293512e-001
 3.4220558462e+000	 7.3452963556e-001	 7.2956252189e-001
 3.4148935921e+000	 7.6713868010e-001	 7.0029359958e-001
 3.4073994536e+000	 7.9976806841e-001	 6.7104215883e-001
 3.3995718009e+000	 8.3241310102e-001	 6.4190708668e-001
 3.3914090857e+000	 8.6506902227e-001	 6.1300040135e-001
 3.3829098440e+000	 8.9773102186e-001	 5.8444746299e-001
 3.3740726970e+000	 9.3039423656e-001	 5.5638715933e-001
 3.3648963537e+000	 9.6305375194e-001	 5.2897206463e-001
 3.4661514237e+000	 6.4141975974e-001	 8.0238071699e-001
 3.4599301304e+000	 6.7417245002e-001	 7.7560902242e-001
 3.4533799824e+000	 7.0695947340e-001	 7.4833158121e-001
 3.4464991022e+000	 7.3977627581e-001	 7.2060384474e-001
 3.4392856892e+000	 7.7261824210e-001	 6.9249406327e-001
 3.4317380212e+000	 8.0548069746e-001	 6.6408358055e-001
 3.4238544566e+000	 8.3835890888e-001	 6.3546710672e-001
 3.4156334363e+000	 8.7124808671e-001	 6.0675296794e-001
 3.4070734857e+000	 9.0414338630e-001	 5.7806333159e-001
 3.3981732162e+000	 9.3703990968e-001	 5.4953440561e-001
 3.3889313276e+000	 9.6993270731e-001	 5.2131661062e-001
 3.4907340579e+000	 6.4596883605e-001	 7.8935392429e-001
 3.4844686420e+000	 6.7895381492e-001	 7.6464706033e-001
 3.4778720390e+000	 7.1197337037e-001	 7.3912863482e-001
 3.4709423583e+000	 7.4502291606e-001	 7.1284855774e-001
 3.4636777863e+000	 7.7809780410e-001	 6.8586998267e-001
 3.4560765887e+000	 8.1119332652e-001	 6.5826961750e-001
 3.4481371123e+000	 8.4430471674e-001	 6.3013801290e-001
 3.4398577869e+000	 8.7742715115e-001	 6.0157982706e-001
 3.4312371274e+000	 9.1055575074e-001	 5.7271406537e-001
 3.4222737355e+000	 9.4368558279e-001	 5.4367429364e-001
 3.4129663016e+000	 9.7681166268e-001	 5.1460882337e-001
 3.5153166921e+000	 6.5051791236e-001	 7.7755682951e-001
 3.5090071536e+000	 6.8373517981e-001	 7.5489815766e-001
 3.5023640956e+000	 7.1698726735e-001	 7.3111908644e-001
 3.4953856143e+000	 7.5026955631e-001	 7.0626398114e-001
 3.4880698834e+000	 7.8357736610e-001	 6.8039090160e-001
 3.4804151562e+000	 8.1690595558e-001	 6.5357192920e-001
 3.4724197680e+000	 8.5025052460e-001	 6.2589347102e-001
 3.4640821375e+000	 8.8360621559e-001	 5.9745653984e-001
 3.4554007692e+000	 9.1696811518e-001	 5.6837700842e-001
 3.4463742548e+000	 9.5033125591e-001	 5.3878583668e-001
 3.4370012755e+000	 9.8369061805e-001	 5.0882927034e-001
 3.5398993263e+000	 6.5506698867e-001	 7.6695127878e-001
 3.5335456651e+000	 6.8851654471e-001	 7.4632664773e-001
 3.5268561522e+000	 7.2200116432e-001	 7.2426965514e-001
 3.5198288704e+000	 7.5551619657e-001	 7.0081911656e-001
 3.5124619805e+000	 7.8905692810e-001	 6.7602799936e-001
 3.5047537237e+000	 8.2261858464e-001	 6.4996376607e-001
 3.4967024237e+000	 8.5619633247e-001	 6.2270869454e-001
 3.4883064882e+000	 8.8978528004e-001	 5.9436017321e-001
 3.4795644109e+000	 9.2338047962e-001	 5.6503097013e-001
 3.4704747740e+000	 9.5697692902e-001	 5.3484947433e-001
 3.4610362495e+000	 9.9056957342e-001	 5.0395990779e-001
 3.5644819605e+000	 6.5961606499e-001	 7.5750088197e-001
 3.5580841767e+000	 6.9329790960e-001	 7.3889857961e-001
 3.5513482089e+000	 7.2701506130e-001	 7.1854872899e-001
 3.5442721264e+000	 7.6076283682e-001	 6.9648458907e-001
 3.5368540775e+000	 7.9453649010e-001	 6.7275403433e-001
 3.5290922913e+000	 8.2833121370e-001	 6.4741991460e-001
 3.5209850795e+000	 8.6214214033e-001	 6.2056039125e-001
 3.5125308388e+000	 8.9596434448e-001	 5.9226924797e-001
 3.5037280527e+000	 9.2979284406e-001	 5.6265617474e-001
 3.4945752933e+000	 9.6362260214e-001	 5.3184702331e-001
 3.4850712234e+000	 9.9744852879e-001	 4.9998403280e-001
 3.5890645947e+000	 6.6416514130e-001	 7.4917095225e-001
 3.5826226883e+000	 6.9807927450e-001	 7.3258165939e-001
 3.5758402655e+000	 7.3202895827e-001	 7.1392630785e-001
 3.5687153825e+000	 7.6600947708e-001	 6.9323259155e-001
 3.5612461746e+000	 8.0001605210e-001	 6.7054328996e-001
 3.5534308588e+000	 8.3404384276e-001	 6.4591664472e-001
 3.5452677352e+000	 8.6808794820e-001	 6.1942671202e-001
 3.5367551894e+000	 9.0214340892e-001	 5.9116368902e-001
 3.5278916944e+000	 9.3620520850e-001	 5.6123421283e-001
 3.5186758126e+000	 9.7026827526e-001	 5.2976163032e-001
 3.5091061974e+000	 1.0043274842e+000	 4.9688623743e-001
 3.6136472289e+000	 6.6871421761e-001	 7.4192844817e-001
 3.6071611998e+000	 7.0286063939e-001	 7.2734519377e-001
 3.6003323221e+000	 7.3704285525e-001	 7.1037394862e-001
 3.5931586385e+000	 7.7125611733e-001	 6.9103683137e-001
 3.5856382717e+000	 8.0549561411e-001	 6.6937152279e-001
 3.5777694263e+000	 8.3975647182e-001	 6.4543165933e-001
 3.5695503909e+000	 8.7403375606e-001	 6.1928720179e-001
 3.5609795400e+000	 9.0832247337e-001	 5.9102477761e-001
 3.5520553362e+000	 9.4261757294e-001	 5.6074799488e-001
 3.5427763318e+000	 9.7691394838e-001	 5.2857772681e-001
 3.5331411713e+000	 1.0112064395e+000	 4.9465236463e-001
 3.6382298631e+000	 6.7326329392e-001	 7.3574191808e-001
 3.6316997114e+000	 7.0764200429e-001	 7.2316003603e-001
 3.6248243787e+000	 7.4205675223e-001	 7.0786471258e-001
 3.6176018945e+000	 7.7650275759e-001	 6.8987247923e-001
 3.6100303688e+000	 8.1097517611e-001	 6.6921591278e-001
 3.6021079939e+000	 8.4546910088e-001	 6.4594404593e-001
 3.5938330466e+000	 8.7997956393e-001	 6.2012275246e-001
 3.5852038906e+000	 9.1450153782e-001	 5.9183510546e-001
 3.5762189779e+000	 9.4902993738e-001	 5.6118170668e-001
 3.5668768511e+000	 9.8355962149e-001	 5.2828098553e-001
 3.5571761453e+000	 1.0180853949e+000	 4.9326946598e-001
 3.6628124973e+000	 6.7781237024e-001	 7.3058144676e-001
 3.6562382230e+000	 7.1242336919e-001	 7.1999853409e-001
 3.6493164353e+000	 7.4707064920e-001	 7.0637311491e-001
 3.6420451506e+000	 7.8174939785e-001	 6.8971612006e-001
 3.6344224659e+000	 8.1645473811e-001	 6.7005501550e-001
 3.6264465614e+000	 8.5118172995e-001	 6.4743423012e-001
 3.6181157023e+000	 8.8592537179e-001	 6.2191555763e-001
 3.6094282412e+000	 9.2068060226e-001	 5.9357853084e-001
 3.6003826196e+000	 9.5544230183e-001	 5.6252076649e-001
 3.5909773704e+000	 9.9020529461e-001	 5.2885827895e-001
 3.5812111192e+000	 1.0249643503e+000	 4.9272576117e-001
 3.6873951316e+000	 6.8236144655e-001	 7.2641860422e-001
 3.6807767345e+000	 7.1720473409e-001	 7.1783448075e-001
 3.6738084919e+000	 7.5208454618e-001	 7.0587507628e-001
 3.6664884066e+000	 7.8699603810e-001	 6.9054570587e-001
 3.6588145630e+000	 8.2193430012e-001	 6.7186871626e-001
 3.6507851289e+000	 8.5689435901e-001	 6.4988393101e-001
 3.6423983581e+000	 8.9187117966e-001	 6.2464906929e-001
 3.6336525918e+000	 9.2685966671e-001	 5.9624013636e-001
 3.6245462614e+000	 9.6185466627e-001	 5.6475178402e-001
 3.6150778896e+000	 9.9685096773e-001	 5.3029763920e-001
 3.6052460932e+000	 1.0318433056e+000	 4.9301059902e-001
 3.3648963537e+000	 9.6305375194e-001	 5.2897206463e-001
 3.3553796121e+000	 9.9570460419e-001	 5.0526831240e-001
 3.3455213614e+000	 1.0283417820e+000	 4.8230202977e-001
 3.3353205834e+000	 1.0609602284e+000	 4.6027517489e-001
 3.3247763542e+000	 1.0935548431e+000	 4.3940414425e-001
 3.3138878460e+000	 1.1261204840e+000	 4.1991978030e-001
 3.3026543284e+000	 1.1586519699e+000	 4.0206734541e-001
 3.2910751701e+000	 1.1911440823e+000	 3.8610646124e-001
 3.2791498404e+000	 1.2235915677e+000	 3.7231101270e-001
 3.2668779101e+000	 1.2559891402e+000	 3.5801537670e-001
 3.2542590537e+000	 1.2883314835e+000	 3.3360087191e-001
 3.3889313276e+000	 9.6993270731e-001	 5.2131661062e-001
 3.3793466093e+000	 1.0028167799e+000	 4.9686032092e-001
 3.3694179425e+000	 1.0356870804e+000	 4.7301460625e-001
 3.3591443018e+000	 1.0685385158e+000	 4.4998573758e-001
 3.3485247567e+000	 1.1013659491e+000	 4.2799487312e-001
 3.3375584734e+000	 1.1341642017e+000	 4.0727806837e-001
 3.3262447164e+000	 1.1669280554e+000	 3.8808625161e-001
 3.3145828499e+000	 1.1996522543e+000	 3.7068516388e-001
 3.3025723392e+000	 1.2323315075e+000	 3.5535526263e-001
 3.2902127523e+000	 1.2649604912e+000	 3.3533439164e-001
 3.2775037612e+000	 1.2975338512e+000	 3.0990109927e-001
 3.4129663016e+000	 9.7681166268e-001	 5.1460882337e-001
 3.4033136065e+000	 1.0099289557e+000	 4.8943587133e-001
 3.3933145237e+000	 1.0430323789e+000	 4.6474123904e-001
 3.3829680203e+000	 1.0761168031e+000	 4.4073552077e-001
 3.3722731592e+000	 1.1091770551e+000	 4.1764465526e-001
 3.3612291009e+000	 1.1422079195e+000	 3.9570993827e-001
 3.3498351045e+000	 1.1752041409e+000	 3.7518799967e-001
 3.3380905297e+000	 1.2081604263e+000	 3.5635074412e-001
 3.3259948381e+000	 1.2410714472e+000	 3.3948525453e-001
 3.3135475946e+000	 1.2739318422e+000	 3.1410234260e-001
 3.3007484688e+000	 1.3067362190e+000	 2.8765565533e-001
 3.4370012755e+000	 9.8369061805e-001	 5.0882927034e-001
 3.4272806038e+000	 1.0170411314e+000	 4.8297521635e-001
 3.4172111048e+000	 1.0503776773e+000	 4.5746180589e-001
 3.4067917387e+000	 1.0836950905e+000	 4.3250396720e-001
 3.3960215617e+000	 1.1169881611e+000	 4.0833243861e-001
 3.3848997284e+000	 1.1502516372e+000	 3.8519378365e-001
 3.3734254925e+000	 1.1834802264e+000	 3.6335036986e-001
 3.3615982095e+000	 1.2166685983e+000	 3.4308031027e-001
 3.3494173369e+000	 1.2498113870e+000	 3.2467736668e-001
 3.3368824368e+000	 1.2829031932e+000	 2.9427759671e-001
 3.3239931763e+000	 1.3159385867e+000	 2.6682217684e-001
 3.4610362495e+000	 9.9056957342e-001	 5.0395990779e-001
 3.4512476010e+000	 1.0241533072e+000	 4.7746001007e-001
 3.4411076860e+000	 1.0577229757e+000	 4.5115759844e-001
 3.4306154572e+000	 1.0912733778e+000	 4.2527194599e-001
 3.4197699643e+000	 1.1247992672e+000	 4.0003860988e-001
 3.4085703558e+000	 1.1582953550e+000	 3.7570944926e-001
 3.3970158806e+000	 1.1917563119e+000	 3.5255260580e-001
 3.3851058893e+000	 1.2251767703e+000	 3.3085244608e-001
 3.3728398358e+000	 1.2585513268e+000	 3.0730099871e-001
 3.3602172790e+000	 1.2918745442e+000	 2.7582002037e-001
 3.3472378838e+000	 1.3251409544e+000	 2.4735981162e-001
 3.4850712234e+000	 9.9744852879e-001	 4.9998403280e-001
 3.4752145982e+000	 1.0312654829e+000	 4.7287325961e-001
 3.4650042671e+000	 1.0650682742e+000	 4.4581127352e-001
 3.4544391756e+000	 1.0988516651e+000	 4.1902170345e-001
 3.4435183668e+000	 1.1326103732e+000	 3.9274494494e-001
 3.4322409833e+000	 1.1663390727e+000	 3.6723818086e-001
 3.4206062687e+000	 1.2000323974e+000	 3.4277536387e-001
 3.4086135690e+000	 1.2336849423e+000	 3.1964715975e-001
 3.3962623346e+000	 1.2672912665e+000	 2.9116429061e-001
 3.3835521212e+000	 1.3008458952e+000	 2.5869092756e-001
 3.3704825914e+000	 1.3343433222e+000	 2.2922916642e-001
 3.5091061974e+000	 1.0043274842e+000	 4.9688623743e-001
 3.4991815955e+000	 1.0383776586e+000	 4.6919927881e-001
 3.4889008483e+000	 1.0724135726e+000	 4.4140680635e-001
 3.4782628941e+000	 1.1064299525e+000	 4.1373681594e-001
 3.4672667693e+000	 1.1404214792e+000	 3.8643456123e-001
 3.4559116108e+000	 1.1743827904e+000	 3.5976257728e-001
 3.4441966567e+000	 1.2083084829e+000	 3.3400066494e-001
 3.4321212488e+000	 1.2421931143e+000	 3.0944583527e-001
 3.4196848335e+000	 1.2760312063e+000	 2.7631361004e-001
 3.4068869634e+000	 1.3098172462e+000	 2.4285303028e-001
 3.3937272989e+000	 1.3435456899e+000	 2.1239225703e-001
 3.5331411713e+000	 1.0112064395e+000	 4.9465236463e-001
 3.5231485927e+000	 1.0454898344e+000	 4.6642364378e-001
 3.5127974294e+000	 1.0797588711e+000	 4.3792944571e-001
 3.5020866125e+000	 1.1140082398e+000	 4.0940214460e-001
 3.4910151719e+000	 1.1482325852e+000	 3.8109187218e-001
 3.4795822382e+000	 1.1824265082e+000	 3.5326654438e-001
 3.4677870448e+000	 1.2165845684e+000	 3.2621184787e-001
 3.4556289286e+000	 1.2507012864e+000	 2.9995843312e-001
 3.4431073324e+000	 1.2847711461e+000	 2.6271367753e-001
 3.4302218056e+000	 1.3187885972e+000	 2.2827039099e-001
 3.4169720064e+000	 1.3527480577e+000	 1.9681246025e-001
 3.5571761453e+000	 1.0180853949e+000	 4.9326946598e-001
 3.5471155899e+000	 1.0526020101e+000	 4.6453315023e-001
 3.5366940106e+000	 1.0871041695e+000	 4.3536567093e-001
 3.5259103310e+000	 1.1215865272e+000	 4.0600379197e-001
 3.5147635744e+000	 1.1560436912e+000	 3.7670254335e-001
 3.5032528657e+000	 1.1904702259e+000	 3.4773525089e-001
 3.4913774329e+000	 1.2248606539e+000	 3.1939352504e-001
 3.4791366084e+000	 1.2592094584e+000	 2.8853210754e-001
 3.4665298312e+000	 1.2935110859e+000	 2.5033050807e-001
 3.4535566479e+000	 1.3277599482e+000	 2.1490837699e-001
 3.4402167139e+000	 1.3619504254e+000	 1.8245446801e-001
 3.5812111192e+000	 1.0249643503e+000	 4.9272576117e-001
 3.5710825871e+000	 1.0597141859e+000	 4.6351577258e-001
 3.5605905918e+000	 1.0944494679e+000	 4.3370315056e-001
 3.5497340494e+000	 1.1291648145e+000	 4.0352906031e-001
 3.5385119769e+000	 1.1638547973e+000	 3.7325345046e-001
 3.5269234932e+000	 1.1985139437e+000	 3.4315508606e-001
 3.5149678209e+000	 1.2331367394e+000	 3.1353153960e-001
 3.5026442882e+000	 1.2677176304e+000	 2.7828383447e-001
 3.4899523301e+000	 1.3022510256e+000	 2.3913136772e-001
 3.4768914901e+000	 1.3367312992e+000	 2.0273361661e-001
 3.4634614215e+000	 1.3711527931e+000	 1.6928424318e-001
 3.6052460932e+000	 1.0318433056e+000	 4.9301059902e-001
 3.5950495844e+000	 1.0668263616e+000	 4.6336062464e-001
 3.5844871729e+000	 1.1017947664e+000	 4.3293070277e-001
 3.5735577679e+000	 1.1367431019e+000	 4.0196641163e-001
 3.5622603795e+000	 1.1716659033e+000	 3.7073263907e-001
 3.5505941207e+000	 1.2065576614e+000	 3.3951361892e-001
 3.5385582090e+000	 1.2414128249e+000	 3.0861292443e-001
 3.5261519680e+000	 1.2762258024e+000	 2.6918268896e-001
 3.5133748290e+000	 1.3109909654e+000	 2.2908473188e-001
 3.5002263323e+000	 1.3457026502e+000	 1.9171395722e-001
 3.4867061290e+000	 1.3803551609e+000	 1.5726897719e-001
 3.2542590537e+000	 1.2883314835e+000	 3.3360087191e-001
 3.2412930498e+000	 1.3206132534e+000	 2.9762608872e-001
 3.2279797829e+000	 1.3528290804e+000	 2.5701704266e-001
 3.2143192443e+000	 1.3849735723e+000	 2.1203917862e-001
 3.2003115330e+000	 1.4170413162e+000	 1.6297090442e-001
 3.1859568571e+000	 1.4490268819e+000	 1.1010337212e-001
 3.1712555346e+000	 1.4809248240e+000	 5.3740230551e-002
 3.1562079939e+000	 1.5127296849e+000	-5.8026506997e-003
 3.1408147750e+000	 1.5444359972e+000	-6.8197485942e-002
 3.1250765300e+000	 1.5760382868e+000	-1.3310490649e-001
 3.1089940239e+000	 1.6075310757e+000	-1.2335034232e-001
 3.2775037612e+000	 1.2975338512e+000	 3.0990109927e-001
 3.2644451431e+000	 1.3300462052e+000	 2.7623009960e-001
 3.2510367814e+000	 1.3624921453e+000	 2.3855331812e-001
 3.2372786675e+000	 1.3948662406e+000	 1.9712319575e-001
 3.2231709011e+000	 1.4271630399e+000	 1.5220458755e-001
 3.2087136918e+000	 1.4593770739e+000	 1.0407454880e-001
 3.1939073598e+000	 1.4915028585e+000	 5.3022092965e-002
 3.1787523367e+000	 1.5235348969e+000	-6.5207829899e-004
 3.1632491662e+000	 1.5554676828e+000	-5.6635873288e-002
 3.1473985053e+000	 1.5872957031e+000	-1.1460613620e-001
 3.1312011241e+000	 1.6190134405e+000	-1.7422900080e-001
 3.3007484688e+000	 1.3067362190e+000	 2.8765565533e-001
 3.2875972363e+000	 1.3394791570e+000	 2.5577640302e-001
 3.2740937798e+000	 1.3721552102e+000	 2.2050768569e-001
 3.2602380906e+000	 1.4047589090e+000	 1.8208917129e-001
 3.2460302692e+000	 1.4372847636e+000	 1.4077240503e-001
 3.2314705265e+000	 1.4697272659e+000	 9.6820600258e-002
 3.2165591851e+000	 1.5020808929e+000	 5.0508401754e-002
 3.2012966795e+000	 1.5343401089e+000	 2.1216214758e-003
 3.1856835575e+000	 1.5664993685e+000	-4.8043053121e-002
 3.1697204805e+000	 1.5985531195e+000	-9.9678378110e-002
 3.1534082243e+000	 1.6304958054e+000	-1.5246689924e-001
 3.3239931763e+000	 1.3159385867e+000	 2.6682217684e-001
 3.3107493295e+000	 1.3489121088e+000	 2.3623268201e-001
 3.2971507783e+000	 1.3818182750e+000	 2.0285805305e-001
 3.2831975138e+000	 1.4146515774e+000	 1.6692541270e-001
 3.2688896373e+000	 1.4474064873e+000	 1.2867323610e-001
 3.2542273612e+000	 1.4800774579e+000	 8.8351146194e-002
 3.2392110103e+000	 1.5126589274e+000	 4.6219682207e-002
 3.2238410223e+000	 1.5451453210e+000	 2.5500411146e-003
 3.2081179487e+000	 1.5775310542e+000	-4.2376207832e-002
 3.1920424557e+000	 1.6098105358e+000	-8.8267435363e-002
 3.1756153244e+000	 1.6419781702e+000	-1.3482229103e-001
 3.3472378838e+000	 1.3251409544e+000	 2.4735981162e-001
 3.3339014227e+000	 1.3583450606e+000	 2.1756784227e-001
 3.3202077768e+000	 1.3914813399e+000	 1.8558325623e-001
 3.3061569370e+000	 1.4245442458e+000	 1.5162085591e-001
 3.2917490054e+000	 1.4575282109e+000	 1.1590628294e-001
 3.2769841959e+000	 1.4904276499e+000	 7.8675818151e-002
 3.2618628356e+000	 1.5232369618e+000	 4.0176155056e-002
 3.2463853651e+000	 1.5559505330e+000	 6.6414687475e-004
 3.2305523400e+000	 1.5885627399e+000	-3.9593472870e-002
 3.2143644309e+000	 1.6210679521e+000	-8.0320396023e-002
 3.1978224246e+000	 1.6534605350e+000	-1.2123107153e-001
 3.3704825914e+000	 1.3343433222e+000	 2.2922916642e-001
 3.3570535159e+000	 1.3677780124e+000	 1.9975196992e-001
 3.3432647752e+000	 1.4011444047e+000	 1.6866302765e-001
 3.3291163602e+000	 1.4344369141e+000	 1.3616504359e-001
 3.3146083735e+000	 1.4676499346e+000	 1.0247105946e-001
 3.2997410306e+000	 1.5007778420e+000	 6.7804259133e-002
 3.2845146608e+000	 1.5338149963e+000	 3.2397746986e-002
 3.2689297079e+000	 1.5667557450e+000	-3.5056996256e-003
 3.2529867312e+000	 1.5995944256e+000	-3.9653903878e-002
 3.2366864061e+000	 1.6323253685e+000	-7.5785588741e-002
 3.2200295248e+000	 1.6649428998e+000	-1.1163070181e-001
 3.3937272989e+000	 1.3435456899e+000	 2.1239225703e-001
 3.3802056091e+000	 1.3772109643e+000	 1.8275629116e-001
 3.3663217737e+000	 1.4108074696e+000	 1.5207796541e-001
 3.3520757833e+000	 1.4443295825e+000	 1.2054810442e-001
 3.3374677416e+000	 1.4777716583e+000	 8.8367380685e-002
 3.3224978653e+000	 1.5111280340e+000	 5.5746123204e-002
 3.3071664861e+000	 1.5443930308e+000	 2.2904100698e-002
 3.2914740508e+000	 1.5775609571e+000	-9.9297206999e-003
 3.2754211225e+000	 1.6106261113e+000	-4.2517445176e-002
 3.2590083813e+000	 1.6435827848e+000	-7.4612540275e-002
 3.2422366249e+000	 1.6764252647e+000	-1.0596015502e-001
 3.4169720064e+000	 1.3527480577e+000	 1.9681246025e-001
 3.4033577023e+000	 1.3866439161e+000	 1.6655313341e-001
 3.3893787721e+000	 1.4204705345e+000	 1.3580950381e-001
 3.3750352065e+000	 1.4542222509e+000	 1.0476073314e-001
 3.3603271097e+000	 1.4878933820e+000	 7.3595352461e-002
 3.3452547000e+000	 1.5214782260e+000	 4.2511075115e-002
 3.3298183113e+000	 1.5549710652e+000	 1.1714584572e-002
 3.3140183936e+000	 1.5883661691e+000	-1.8578702732e-002
 3.2978555137e+000	 1.6216577970e+000	-4.8144899537e-002
 3.2813303565e+000	 1.6548402011e+000	-7.6751934738e-002
 3.2644437251e+000	 1.6879076295e+000	-1.0415986499e-001
 3.4402167139e+000	 1.3619504254e+000	 1.8245446801e-001
 3.4265097956e+000	 1.3960768679e+000	 1.5111588818e-001
 3.4124357706e+000	 1.4301335993e+000	 1.1983988516e-001
 3.3979946297e+000	 1.4641149192e+000	 8.8794171413e-002
 3.3831864778e+000	 1.4980151057e+000	 5.8155361668e-002
 3.3680115347e+000	 1.5318284180e+000	 2.8108789941e-002
 3.3524701366e+000	 1.5655490997e+000	-1.1516980640e-003
 3.3365627364e+000	 1.5991713811e+000	-2.9423977120e-002
 3.3202899050e+000	 1.6326894827e+000	-5.6497899186e-002
 3.3036523318e+000	 1.6660976175e+000	-8.2155574499e-002
 3.2866508253e+000	 1.6993899943e+000	-1.0617167686e-001
 3.4634614215e+000	 1.3711527931e+000	 1.6928424318e-001
 3.4496618888e+000	 1.4055098197e+000	 1.3641897530e-001
 3.4354927690e+000	 1.4397966642e+000	 1.0415213262e-001
 3.4209540529e+000	 1.4740075876e+000	 7.2640189497e-002
 3.4060458459e+000	 1.5081368294e+000	 4.2048066775e-002
 3.3907683694e+000	 1.5421786100e+000	 1.2548952734e-002
 3.3751219618e+000	 1.5761271341e+000	-1.5675900043e-002
 3.3591070792e+000	 1.6099765932e+000	-4.2437401987e-002
 3.3427242962e+000	 1.6437211684e+000	-6.7538877963e-002
 3.3259743070e+000	 1.6773550338e+000	-9.0776342657e-002
 3.3088579254e+000	 1.7108723591e+000	-1.1193879972e-001
 3.4867061290e+000	 1.3803551609e+000	 1.5726897719e-001
 3.4728139820e+000	 1.4149427715e+000	 1.2243780870e-001
 3.4585497675e+000	 1.4494597290e+000	 8.8730024175e-002
 3.4439134760e+000	 1.4839002560e+000	 5.6291068609e-002
 3.4289052139e+000	 1.5182585531e+000	 2.5274388787e-002
 3.4135252041e+000	 1.5525288020e+000	-4.1587418068e-003
 3.3977737871e+000	 1.5867051686e+000	-3.1839421819e-002
 3.3816514220e+000	 1.6207818052e+000	-5.7591344623e-002
 3.3651586875e+000	 1.6547528541e+000	-8.1231044605e-002
 3.3482962822e+000	 1.6886124501e+000	-1.0256816701e-001
 3.3310650256e+000	 1.7223547240e+000	-1.2140576116e-001
 3.1089940239e+000	 1.6075310757e+000	-1.2335034232e-001
 3.0925681348e+000	 1.6389088846e+000	-1.4480606691e-001
 3.0757998544e+000	 1.6701662359e+000	-1.6725906251e-001
 3.0586902889e+000	 1.7012976567e+000	-1.9068225540e-001
 3.0412406585e+000	 1.7322976814e+000	-2.1504814111e-001
 3.0234522981e+000	 1.7631608551e+000	-2.4032878785e-001
 3.0053266573e+000	 1.7938817362e+000	-2.6649583992e-001
 2.9868653000e+000	 1.8244548993e+000	-2.9352052118e-001
 2.9680699052e+000	 1.8548749386e+000	-3.2137363845e-001
 2.9489422659e+000	 1.8851364706e+000	-3.6166763817e-001
 2.9294842893e+000	 1.9152341368e+000	-4.2671378386e-001
 3.1312011241e+000	 1.6190134405e+000	-1.7422900080e-001
 3.1146579071e+000	 1.6506153766e+000	-2.1581610781e-001
 3.0977698534e+000	 1.6820959948e+000	-2.2855817647e-001
 3.0805380767e+000	 1.7134497828e+000	-2.4207044594e-001
 3.0629638061e+000	 1.7446712363e+000	-2.5632475595e-001
 3.0450483860e+000	 1.7757548612e+000	-2.7129270594e-001
 3.0267932762e+000	 1.8066951771e+000	-2.8694566112e-001
 3.0082000522e+000	 1.8374867200e+000	-3.0325475822e-001
 2.9892704045e+000	 1.8681240453e+000	-3.2019091110e-001
 2.9700061392e+000	 1.8986017311e+000	-3.6487834377e-001
 2.9504091771e+000	 1.9289143807e+000	-4.1934665775e-001
 3.1534082243e+000	 1.6304958054e+000	-1.5246689924e-001
 3.1367476795e+000	 1.6623218687e+000	-2.3532605979e-001
 3.1197398523e+000	 1.6940257536e+000	-2.9303181430e-001
 3.1023858645e+000	 1.7256019089e+000	-2.9656224313e-001
 3.0846869536e+000	 1.7570447912e+000	-3.0063640272e-001
 3.0666444738e+000	 1.7883488673e+000	-3.0522547563e-001
 3.0482598952e+000	 1.8195086181e+000	-3.1030059871e-001
 3.0295348043e+000	 1.8505185407e+000	-3.1583287118e-001
 3.0104709038e+000	 1.8813731520e+000	-3.2893886566e-001
 2.9910700125e+000	 1.9120669916e+000	-3.7090308858e-001
 2.9713340648e+000	 1.9425946245e+000	-4.1480673792e-001
 3.1756153244e+000	 1.6419781702e+000	-1.3482229103e-001
 3.1588374519e+000	 1.6740283607e+000	-2.1052733548e-001
 3.1417098513e+000	 1.7059555124e+000	-2.8487550302e-001
 3.1242336522e+000	 1.7377540350e+000	-3.5410044640e-001
 3.1064101012e+000	 1.7694183460e+000	-3.4792670823e-001
 3.0882405617e+000	 1.8009428734e+000	-3.4207149381e-001
 3.0697265142e+000	 1.8323220591e+000	-3.3650576187e-001
 3.0508695565e+000	 1.8635503614e+000	-3.3120062328e-001
 3.0316714032e+000	 1.8946222587e+000	-3.4817109875e-001
 3.0121338859e+000	 1.9255322521e+000	-3.7972391271e-001
 2.9922589526e+000	 1.9562748683e+000	-4.1307780329e-001
 3.1978224246e+000	 1.6534605350e+000	-1.2123107153e-001
 3.1809272243e+000	 1.6857348527e+000	-1.8976957238e-001
 3.1636798503e+000	 1.7178852712e+000	-2.5679048959e-001
 3.1460814400e+000	 1.7499061612e+000	-3.2190745167e-001
 3.1281332488e+000	 1.7817919009e+000	-3.8472696083e-001
 3.1098366495e+000	 1.8135368796e+000	-3.8177664372e-001
 3.0911931332e+000	 1.8451355001e+000	-3.6550772382e-001
 3.0722043086e+000	 1.8765821821e+000	-3.5102708131e-001
 3.0528719025e+000	 1.9078713654e+000	-3.7016941920e-001
 3.0331977592e+000	 1.9389975126e+000	-3.9132426293e-001
 3.0131838404e+000	 1.9699551122e+000	-4.1414502354e-001
 3.2200295248e+000	 1.6649428998e+000	-1.1163070181e-001
 3.2030169967e+000	 1.6974413448e+000	-1.7299187451e-001
 3.1856498492e+000	 1.7298150301e+000	-2.3267866858e-001
 3.1679292278e+000	 1.7620582873e+000	-2.9029584073e-001
 3.1498563963e+000	 1.7941654558e+000	-3.4544097770e-001
 3.1314327373e+000	 1.8261308857e+000	-3.9770504849e-001
 3.1126597521e+000	 1.8579489410e+000	-3.9725447133e-001
 3.0935390607e+000	 1.8896140028e+000	-3.8603378926e-001
 3.0740724018e+000	 1.9211204721e+000	-3.9491686856e-001
 3.0542616325e+000	 1.9524627731e+000	-4.0568894412e-001
 3.0341087282e+000	 1.9836353560e+000	-4.1799491120e-001
 3.2422366249e+000	 1.6764252647e+000	-1.0596015502e-001
 3.2251067691e+000	 1.7091478368e+000	-1.6013482989e-001
 3.2076198482e+000	 1.7417447889e+000	-2.1248221711e-001
 3.1897770156e+000	 1.7742104134e+000	-2.6259812748e-001
 3.1715795439e+000	 1.8065390106e+000	-3.1007115322e-001
 3.1530288252e+000	 1.8387248918e+000	-3.5448323392e-001
 3.1341263711e+000	 1.8707623820e+000	-3.9541024651e-001
 3.1148738129e+000	 1.9026458236e+000	-4.2376025515e-001
 3.0952729011e+000	 1.9343695788e+000	-4.2239781635e-001
 3.0753255058e+000	 1.9659280336e+000	-4.2280407278e-001
 3.0550336159e+000	 1.9973155998e+000	-4.2461527565e-001
 3.2644437251e+000	 1.6879076295e+000	-1.0415986499e-001
 3.2471965415e+000	 1.7208543288e+000	-1.5114046010e-001
 3.2295898471e+000	 1.7536745477e+000	-1.9614472006e-001
 3.2116248033e+000	 1.7863625395e+000	-2.3875943423e-001
 3.1933026914e+000	 1.8189125655e+000	-2.7856411967e-001
 3.1746249130e+000	 1.8513188979e+000	-3.1513160106e-001
 3.1555929901e+000	 1.8835758230e+000	-3.5704201417e-001
 3.1362085650e+000	 1.9156776443e+000	-4.2142348577e-001
 3.1164734004e+000	 1.9476186855e+000	-4.5259791483e-001
 3.0963893791e+000	 1.9793932941e+000	-4.4265703243e-001
 3.0759585037e+000	 2.0109958437e+000	-4.3399517897e-001
 3.2866508253e+000	 1.6993899943e+000	-1.0617167686e-001
 3.2692863139e+000	 1.7325608209e+000	-1.4595217183e-001
 3.2515598461e+000	 1.7656043065e+000	-1.8361112254e-001
 3.2334725911e+000	 1.7985146656e+000	-2.1872621991e-001
 3.2150258390e+000	 1.8312861203e+000	-2.5086782378e-001
 3.1962210009e+000	 1.8639129040e+000	-2.7959955686e-001
 3.1770596091e+000	 1.8963892639e+000	-3.2697891468e-001
 3.1575433171e+000	 1.9287094650e+000	-3.8402834747e-001
 3.1376738998e+000	 1.9608677923e+000	-4.3914305849e-001
 3.1174532525e+000	 1.9928585546e+000	-4.6523643077e-001
 3.0968833915e+000	 2.0246760875e+000	-4.4612489368e-001
 3.3088579254e+000	 1.7108723591e+000	-1.1193879972e-001
 3.2913760863e+000	 1.7442673129e+000	-1.4451471039e-001
 3.2735298451e+000	 1.7775340654e+000	-1.7482768425e-001
 3.2553203789e+000	 1.8106667917e+000	-2.0244623529e-001
 3.2367489865e+000	 1.8436596752e+000	-2.2693148261e-001
 3.2178170887e+000	 1.8765069101e+000	-2.4935380530e-001
 3.1985262280e+000	 1.9092027049e+000	-3.0070046434e-001
 3.1788780693e+000	 1.9417412857e+000	-3.5042574906e-001
 3.1588743991e+000	 1.9741168990e+000	-3.9807301843e-001
 3.1385171258e+000	 2.0063238151e+000	-4.4317840651e-001
 3.1178082793e+000	 2.0383563313e+000	-4.6099586207e-001
 3.3310650256e+000	 1.7223547240e+000	-1.2140576116e-001
 3.3134658586e+000	 1.7559738049e+000	-1.4677411508e-001
 3.2954998440e+000	 1.7894638242e+000	-1.6974193559e-001
 3.2771681667e+000	 1.8228189179e+000	-1.8986847985e-001
 3.2584721341e+000	 1.8560332301e+000	-2.0670554122e-001
 3.2394131765e+000	 1.8891009162e+000	-2.3397248866e-001
 3.2199928470e+000	 1.9220161459e+000	-2.7813458199e-001
 3.2002128214e+000	 1.9547731064e+000	-3.2054461682e-001
 3.1800748984e+000	 1.9873660057e+000	-3.6073761259e-001
 3.1595809991e+000	 2.0197890756e+000	-3.9824129902e-001
 3.1387331671e+000	 2.0520365752e+000	-4.3257674090e-001
 2.9294842893e+000	 1.9152341368e+000	-4.2671378386e-001
 2.9096979964e+000	 1.9451626075e+000	-4.7117129270e-001
 2.8895855216e+000	 1.9749165840e+000	-5.1230077264e-001
 2.8691491118e+000	 2.0044908018e+000	-5.5006877442e-001
 2.8483911262e+000	 2.0338800339e+000	-5.8444381817e-001
 2.8273140354e+000	 2.0630790933e+000	-6.1539674483e-001
 2.8059204205e+000	 2.0920828363e+000	-6.4290106860e-001
 2.7842129721e+000	 2.1208861652e+000	-6.6693332939e-001
 2.7621944897e+000	 2.1494840313e+000	-6.8747344389e-001
 2.7398678801e+000	 2.1778714378e+000	-7.0450505446e-001
 2.7172361565e+000	 2.2060434424e+000	-7.1801587448e-001
 2.9504091771e+000	 1.9289143807e+000	-4.1934665775e-001
 2.9304815535e+000	 1.9590566262e+000	-4.6029954613e-001
 2.9102254181e+000	 1.9890231310e+000	-4.9896559076e-001
 2.8896430340e+000	 2.0188085932e+000	-5.3528939571e-001
 2.8687367771e+000	 2.0484077484e+000	-5.6921645061e-001
 2.8475091357e+000	 2.0778153725e+000	-6.0069350692e-001
 2.8259627092e+000	 2.1070262851e+000	-6.2966895668e-001
 2.8041002076e+000	 2.1360353521e+000	-6.5609321281e-001
 2.7819244504e+000	 2.1648374887e+000	-6.7991908974e-001
 2.7594383650e+000	 2.1934276623e+000	-7.0110218308e-001
 2.7366449862e+000	 2.2218008955e+000	-7.1960124733e-001
 2.9713340648e+000	 1.9425946245e+000	-4.1480673792e-001
 2.9512651106e+000	 1.9729506448e+000	-4.5187667778e-001
 2.9308653147e+000	 2.0031296780e+000	-4.8768672575e-001
 2.9101369562e+000	 2.0331263847e+000	-5.2215955435e-001
 2.8890824280e+000	 2.0629354629e+000	-5.5521764683e-001
 2.8677042359e+000	 2.0925516518e+000	-5.8678369827e-001
 2.8460049979e+000	 2.1219697340e+000	-6.1678102087e-001
 2.8239874432e+000	 2.1511845390e+000	-6.4513395228e-001
 2.8016544110e+000	 2.1801909460e+000	-6.7176826571e-001
 2.7790088499e+000	 2.2089838869e+000	-6.9661158073e-001
 2.7560538159e+000	 2.2375583487e+000	-7.1959377327e-001
 2.9922589526e+000	 1.9562748683e+000	-4.1307780329e-001
 2.9720486678e+000	 1.9868446634e+000	-4.4589642445e-001
 2.9515052113e+000	 2.0172362251e+000	-4.7846817224e-001
 2.9306308784e+000	 2.0474441761e+000	-5.1069379786e-001
 2.9094280789e+000	 2.0774631775e+000	-5.4247279711e-001
 2.8878993362e+000	 2.1072879310e+000	-5.7370383649e-001
 2.8660472866e+000	 2.1369131828e+000	-6.0428518517e-001
 2.8438746787e+000	 2.1663337259e+000	-6.3411515143e-001
 2.8213843716e+000	 2.1955444034e+000	-6.6309252249e-001
 2.7985793347e+000	 2.2245401114e+000	-6.9111700637e-001
 2.7754626456e+000	 2.2533158019e+000	-7.1808967447e-001
 3.0131838404e+000	 1.9699551122e+000	-4.1414502354e-001
 2.9928322249e+000	 2.0007386820e+000	-4.4235366955e-001
 2.9721451079e+000	 2.0313427721e+000	-4.7131481889e-001
 2.9511248007e+000	 2.0617619676e+000	-5.0090730687e-001
 2.9297737298e+000	 2.0919908920e+000	-5.3100765574e-001
 2.9080944364e+000	 2.1220242103e+000	-5.6149052603e-001
 2.8860895753e+000	 2.1518566316e+000	-5.9222917521e-001
 2.8637619142e+000	 2.1814829128e+000	-6.2309592252e-001
 2.8411143323e+000	 2.2108978608e+000	-6.5396261855e-001
 2.8181498196e+000	 2.2400963360e+000	-6.8470111836e-001
 2.7948714753e+000	 2.2690732550e+000	-7.1518375661e-001
 3.0341087282e+000	 1.9836353560e+000	-4.1799491120e-001
 3.0136157820e+000	 2.0146327007e+000	-4.4124440353e-001
 2.9927850045e+000	 2.0454493191e+000	-4.6623241753e-001
 2.9716187229e+000	 2.0760797590e+000	-4.9281587329e-001
 2.9501193807e+000	 2.1065186065e+000	-5.2084832852e-001
 2.9282895367e+000	 2.1367604895e+000	-5.5018045517e-001
 2.9061318640e+000	 2.1668000805e+000	-5.8066052512e-001
 2.8836491497e+000	 2.1966320997e+000	-6.1213490334e-001
 2.8608442929e+000	 2.2262513181e+000	-6.4444854751e-001
 2.8377203044e+000	 2.2556525605e+000	-6.7744551238e-001
 2.8142803050e+000	 2.2848307082e+000	-7.1096945772e-001
 3.0550336159e+000	 1.9973155998e+000	-4.2461527565e-001
 3.0343993391e+000	 2.0285267193e+000	-4.4256568601e-001
 3.0134249010e+000	 2.0595558661e+000	-4.6322755362e-001
 2.9921126451e+000	 2.0903975504e+000	-4.8643587940e-001
 2.9704650316e+000	 2.1210463210e+000	-5.1202126063e-001
 2.9484846369e+000	 2.1514967687e+000	-5.3981039316e-001
 2.9261741528e+000	 2.1817435293e+000	-5.6962658406e-001
 2.9035363852e+000	 2.2117812866e+000	-6.0129027350e-001
 2.8805742536e+000	 2.2416047755e+000	-6.3461956431e-001
 2.8572907893e+000	 2.2712087851e+000	-6.6943075790e-001
 2.8336891347e+000	 2.3005881613e+000	-7.0553889505e-001
 3.0759585037e+000	 2.0109958437e+000	-4.3399517897e-001
 3.0551828962e+000	 2.0424207379e+000	-4.4631560939e-001
 3.0340647976e+000	 2.0736624132e+000	-4.6230761790e-001
 3.0126065673e+000	 2.1047153419e+000	-4.8178427773e-001
 2.9908106825e+000	 2.1355740356e+000	-5.0455322518e-001
 2.9686797371e+000	 2.1662330480e+000	-5.3041718744e-001
 2.9462164415e+000	 2.1966869781e+000	-5.5917452255e-001
 2.9234236207e+000	 2.2269304735e+000	-5.9061976995e-001
 2.9003042142e+000	 2.2569582329e+000	-6.2454421031e-001
 2.8768612741e+000	 2.2867650096e+000	-6.6073643302e-001
 2.8530979643e+000	 2.3163456145e+000	-6.9898290994e-001
 3.0968833915e+000	 2.0246760875e+000	-4.4612489368e-001
 3.0759664533e+000	 2.0563147565e+000	-4.5249326396e-001
 3.0547046942e+000	 2.0877689602e+000	-4.6348077916e-001
 3.0331004896e+000	 2.1190331333e+000	-4.7887857184e-001
 3.0111563334e+000	 2.1501017501e+000	-4.9847131207e-001
 2.9888748374e+000	 2.1809693272e+000	-5.2203776104e-001
 2.9662587302e+000	 2.2116304270e+000	-5.4935133846e-001
 2.9433108562e+000	 2.2420796604e+000	-5.8018070200e-001
 2.9200341748e+000	 2.2723116903e+000	-6.1429033745e-001
 2.8964317590e+000	 2.3023212342e+000	-6.5144115798e-001
 2.8725067940e+000	 2.3321030677e+000	-6.9139111096e-001
 3.1178082793e+000	 2.0383563313e+000	-4.6099586207e-001
 3.0967500104e+000	 2.0702087752e+000	-4.6109870441e-001
 3.0753445908e+000	 2.1018755072e+000	-4.6675595814e-001
 3.0535944118e+000	 2.1333509248e+000	-4.7773679780e-001
 3.0315019843e+000	 2.1646294646e+000	-4.9380291738e-001
 3.0090699376e+000	 2.1957056065e+000	-5.1470911001e-001
 2.9863010189e+000	 2.2265738758e+000	-5.4020386285e-001
 2.9631980917e+000	 2.2572288473e+000	-5.7002996564e-001
 2.9397641355e+000	 2.2876651476e+000	-6.0392513134e-001
 2.9160022438e+000	 2.3178774588e+000	-6.4162262731e-001
 2.8919156237e+000	 2.3478605208e+000	-6.8285191529e-001
 3.1387331671e+000	 2.0520365752e+000	-4.3257674090e-001
 3.1175335675e+000	 2.0841027938e+000	-4.7213291769e-001
 3.0959844873e+000	 2.1159820543e+000	-4.7214280249e-001
 3.0740883340e+000	 2.1476687162e+000	-4.7837750645e-001
 3.0518476352e+000	 2.1791571792e+000	-4.9057573319e-001
 3.0292650379e+000	 2.2104418857e+000	-5.0846830099e-001
 3.0063433076e+000	 2.2415173246e+000	-5.3177876548e-001
 2.9830853273e+000	 2.2723780342e+000	-5.6022405730e-001
 2.9594940961e+000	 2.3030186050e+000	-5.9351513350e-001
 2.9355727287e+000	 2.3334336833e+000	-6.3135764069e-001
 2.9113244534e+000	 2.3636179740e+000	-6.7345258841e-001
 2.7172361565e+000	 2.2060434424e+000	-7.1801587448e-001
 2.6943024371e+000	 2.2339951605e+000	-7.3861742968e-001
 2.6710699438e+000	 2.2617217679e+000	-7.5907217984e-001
 2.6475420007e+000	 2.2892185031e+000	-7.7908481873e-001
 2.6237220324e+000	 2.3164806705e+000	-7.9836141044e-001
 2.5996135628e+000	 2.3435036429e+000	-8.1661001074e-001
 2.5752202129e+000	 2.3702828639e+000	-8.3354128431e-001
 2.5505456993e+000	 2.3968138509e+000	-8.4886911607e-001
 2.5255938321e+000	 2.4230921970e+000	-8.6231121523e-001
 2.5003685132e+000	 2.4491135740e+000	-8.7358971047e-001
 2.4748737342e+000	 2.4748737342e+000	-8.3466883109e-001
 2.7366449862e+000	 2.2218008955e+000	-7.1960124733e-001
 2.7135474545e+000	 2.2499522688e+000	-7.3896156997e-001
 2.6901490148e+000	 2.2778769234e+000	-7.5726037123e-001
 2.6664530150e+000	 2.3055700638e+000	-7.7420637657e-001
 2.6424629041e+000	 2.3330269610e+000	-7.8951059834e-001
 2.6181822311e+000	 2.3602429546e+000	-8.0288696110e-001
 2.5936146430e+000	 2.3872134558e+000	-8.1405292155e-001
 2.5687638828e+000	 2.4139339499e+000	-8.2273008122e-001
 2.5436337880e+000	 2.4403999984e+000	-8.2864479059e-001
 2.5182282883e+000	 2.4666072423e+000	-8.3152874292e-001
 2.4925514037e+000	 2.4925514037e+000	-8.1735956889e-001
 2.7560538159e+000	 2.2375583487e+000	-7.1959377327e-001
 2.7327924719e+000	 2.2659093771e+000	-7.3801368949e-001
 2.7092280859e+000	 2.2940320788e+000	-7.5446802471e-001
 2.6853640292e+000	 2.3219216245e+000	-7.6866927277e-001
 2.6612037757e+000	 2.3495732515e+000	-7.8033312473e-001
 2.6367508994e+000	 2.3769822663e+000	-7.8917909856e-001
 2.6120090731e+000	 2.4041440477e+000	-7.9493116198e-001
 2.5869820664e+000	 2.4310540488e+000	-7.9731834703e-001
 2.5616737440e+000	 2.4577077999e+000	-7.9607535447e-001
 2.5360880634e+000	 2.4841009107e+000	-7.9094314674e-001
 2.5102290732e+000	 2.5102290732e+000	-8.0127310363e-001
 2.7754626456e+000	 2.2533158019e+000	-7.1808967447e-001
 2.7520374893e+000	 2.2818664854e+000	-7.3586552545e-001
 2.7283071569e+000	 2.3101872343e+000	-7.5078212409e-001
 2.7042750435e+000	 2.3382731853e+000	-7.6255547034e-001
 2.6799446474e+000	 2.3661195420e+000	-7.7090566563e-001
 2.6553195677e+000	 2.3937215781e+000	-7.7555754725e-001
 2.6304035032e+000	 2.4210746396e+000	-7.7624131461e-001
 2.6052002500e+000	 2.4481741477e+000	-7.7269314579e-001
 2.5797136999e+000	 2.4750156013e+000	-7.6465580284e-001
 2.5539478385e+000	 2.5015945791e+000	-7.5494245455e-001
 2.5279067427e+000	 2.5279067427e+000	-7.8841963890e-001
 2.7948714753e+000	 2.2690732550e+000	-7.1518375661e-001
 2.7712825068e+000	 2.2978235937e+000	-7.3260755301e-001
 2.7473862279e+000	 2.3263423898e+000	-7.4628855258e-001
 2.7231860578e+000	 2.3546247460e+000	-7.5594600002e-001
 2.6986855190e+000	 2.3826658325e+000	-7.6130413993e-001
 2.6738882360e+000	 2.4104608898e+000	-7.6209285617e-001
 2.6487979333e+000	 2.4380052315e+000	-7.5804830187e-001
 2.6234184335e+000	 2.4652942467e+000	-7.4891351847e-001
 2.5977536559e+000	 2.4923234027e+000	-7.3443904204e-001
 2.5718076136e+000	 2.5190882475e+000	-7.5152358702e-001
 2.5455844123e+000	 2.5455844123e+000	-7.7843153393e-001
 2.8142803050e+000	 2.2848307082e+000	-7.1096945772e-001
 2.7905275242e+000	 2.3137807020e+000	-7.2832902883e-001
 2.7664652989e+000	 2.3424975453e+000	-7.4107213075e-001
 2.7420970721e+000	 2.3709763067e+000	-7.4892099246e-001
 2.7174263907e+000	 2.3992121230e+000	-7.5160373555e-001
 2.6924569043e+000	 2.4272002015e+000	-7.4885501895e-001
 2.6671923634e+000	 2.4549358234e+000	-7.4041667300e-001
 2.6416366171e+000	 2.4824143456e+000	-7.2603832125e-001
 2.6157936118e+000	 2.5096312041e+000	-7.2414385183e-001
 2.5896673887e+000	 2.5365819159e+000	-7.5049332256e-001
 2.5632620818e+000	 2.5632620818e+000	-7.7122050543e-001
 2.8336891347e+000	 2.3005881613e+000	-7.0553889505e-001
 2.8097725416e+000	 2.3297378103e+000	-7.2311803278e-001
 2.7855443700e+000	 2.3586527008e+000	-7.3521665289e-001
 2.7610080864e+000	 2.3873278675e+000	-7.4155970899e-001
 2.7361672624e+000	 2.4157584135e+000	-7.4187893447e-001
 2.7110255726e+000	 2.4439395133e+000	-7.3591349295e-001
 2.6855867935e+000	 2.4718664152e+000	-7.2341061675e-001
 2.6598548007e+000	 2.4995344445e+000	-7.0412623190e-001
 2.6338335677e+000	 2.5269390055e+000	-7.3050889831e-001
 2.6075271638e+000	 2.5540755843e+000	-7.5176990238e-001
 2.5809397513e+000	 2.5809397513e+000	-7.6669867372e-001
 2.8530979643e+000	 2.3163456145e+000	-6.9898290994e-001
 2.8290175590e+000	 2.3456949186e+000	-7.1706150798e-001
 2.8046234410e+000	 2.3748078563e+000	-7.2880492197e-001
 2.7799191007e+000	 2.4036794282e+000	-7.3394057123e-001
 2.7549081340e+000	 2.4323047040e+000	-7.3220353673e-001
 2.7295942409e+000	 2.4606788250e+000	-7.2333721744e-001
 2.7039812235e+000	 2.4887970071e+000	-7.0709397373e-001
 2.6780729842e+000	 2.5166545435e+000	-7.1547597042e-001
 2.6518735237e+000	 2.5442468069e+000	-7.3873474151e-001
 2.6253869389e+000	 2.5715692527e+000	-7.5527176442e-001
 2.5986174209e+000	 2.5986174209e+000	-7.6477854900e-001
 2.8725067940e+000	 2.3321030677e+000	-6.9139111096e-001
 2.8482625764e+000	 2.3616520268e+000	-7.1024529919e-001
 2.8237025120e+000	 2.3909630117e+000	-7.2191878307e-001
 2.7988301150e+000	 2.4200309889e+000	-7.2614118946e-001
 2.7736490057e+000	 2.4488509945e+000	-7.2265068344e-001
 2.7481629093e+000	 2.4774181367e+000	-7.1119463112e-001
 2.7223756536e+000	 2.5057275990e+000	-7.0246165057e-001
 2.6962911678e+000	 2.5337746424e+000	-7.2915911751e-001
 2.6699134796e+000	 2.5615546083e+000	-7.4874559392e-001
 2.6432467140e+000	 2.5890629210e+000	-7.6091753672e-001
 2.6162950904e+000	 2.6162950904e+000	-7.6537301816e-001
 2.8919156237e+000	 2.3478605208e+000	-6.8285191529e-001
 2.8675075938e+000	 2.3776091351e+000	-7.0275418968e-001
 2.8427815831e+000	 2.4071181672e+000	-7.1463915557e-001
 2.8177411293e+000	 2.4363825497e+000	-7.1823838980e-001
 2.7923898773e+000	 2.4653972850e+000	-7.1329287896e-001
 2.7667315776e+000	 2.4941574485e+000	-6.9955368895e-001
 2.7407700837e+000	 2.5226581909e+000	-7.2015662569e-001
 2.7145093514e+000	 2.5508947413e+000	-7.4420994039e-001
 2.6879534356e+000	 2.5788624097e+000	-7.6046567674e-001
 2.6611064891e+000	 2.6065565894e+000	-7.6862603108e-001
 2.6339727599e+000	 2.6339727599e+000	-7.6839533216e-001
 2.9113244534e+000	 2.3636179740e+000	-6.7345258841e-001
 2.8867526112e+000	 2.3935662434e+000	-6.9467193661e-001
 2.8618606541e+000	 2.4232733227e+000	-7.0704606400e-001
 2.8366521436e+000	 2.4527341104e+000	-7.1030824041e-001
 2.8111307490e+000	 2.4819435755e+000	-7.0420201206e-001
 2.7853002459e+000	 2.5108967602e+000	-7.0891291715e-001
 2.7591645138e+000	 2.5395887828e+000	-7.3882421924e-001
 2.7327275349e+000	 2.5680148403e+000	-7.6055776104e-001
 2.7059933915e+000	 2.5961702111e+000	-7.7381921955e-001
 2.6789662642e+000	 2.6240502578e+000	-7.7831623687e-001
 2.6516504295e+000	 2.6516504295e+000	-7.7375909390e-001
 2.4748737342e+000	 2.4748737342e+000	-8.3466883109e-001
 2.4491135740e+000	 2.5003685132e+000	-8.1548355198e-001
 2.4230921970e+000	 2.5255938321e+000	-8.4019634466e-001
 2.3968138509e+000	 2.5505456993e+000	-8.6189014989e-001
 2.3702828639e+000	 2.5752202129e+000	-8.8026695227e-001
 2.3435036429e+000	 2.5996135628e+000	-8.9504145139e-001
 2.3164806705e+000	 2.6237220324e+000	-9.0594157474e-001
 2.2892185031e+000	 2.6475420007e+000	-9.1270895490e-001
 2.2617217679e+000	 2.6710699438e+000	-9.1509937019e-001
 2.2339951605e+000	 2.6943024371e+000	-9.1288314776e-001
 2.2060434424e+000	 2.7172361565e+000	-9.0584552831e-001
 2.4925514037e+000	 2.4925514037e+000	-8.1735956889e-001
 2.4666072423e+000	 2.5182282883e+000	-8.2293789955e-001
 2.4403999984e+000	 2.5436337880e+000	-8.4060650658e-001
 2.4139339499e+000	 2.5687638828e+000	-8.5602000751e-001
 2.3872134558e+000	 2.5936146430e+000	-8.6888642611e-001
 2.3602429546e+000	 2.6181822311e+000	-8.7892603799e-001
 2.3330269610e+000	 2.6424629041e+000	-8.8587188329e-001
 2.3055700638e+000	 2.6664530150e+000	-8.8947024401e-001
 2.2778769234e+000	 2.6901490148e+000	-8.8948108501e-001
 2.2499522688e+000	 2.7135474545e+000	-8.8567845756e-001
 2.2218008955e+000	 2.7366449862e+000	-8.7785086490e-001
 2.5102290732e+000	 2.5102290732e+000	-8.0127310363e-001
 2.4841009107e+000	 2.5360880634e+000	-8.3177300768e-001
 2.4577077999e+000	 2.5616737440e+000	-8.4271052285e-001
 2.4310540488e+000	 2.5869820664e+000	-8.5214014636e-001
 2.4041440477e+000	 2.6120090731e+000	-8.5977569607e-001
 2.3769822663e+000	 2.6367508994e+000	-8.6534279421e-001
 2.3495732515e+000	 2.6612037757e+000	-8.6857938033e-001
 2.3219216245e+000	 2.6853640292e+000	-8.6923618889e-001
 2.2940320788e+000	 2.7092280859e+000	-8.6707719085e-001
 2.2659093771e+000	 2.7327924719e+000	-8.6187999798e-001
 2.2375583487e+000	 2.7560538159e+000	-8.5343622923e-001
 2.5279067427e+000	 2.5279067427e+000	-7.8841963890e-001
 2.5015945791e+000	 2.5539478385e+000	-8.3942388657e-001
 2.4750156013e+000	 2.5797136999e+000	-8.4661308408e-001
 2.4481741477e+000	 2.6052002500e+000	-8.5035029236e-001
 2.4210746396e+000	 2.6304035032e+000	-8.5302970060e-001
 2.3937215781e+000	 2.6553195677e+000	-8.5438204983e-001
 2.3661195420e+000	 2.6799446474e+000	-8.5414996709e-001
 2.3382731853e+000	 2.7042750435e+000	-8.5208844367e-001
 2.3101872343e+000	 2.7283071569e+000	-8.4796527744e-001
 2.2818664854e+000	 2.7520374893e+000	-8.4156147811e-001
 2.2533158019e+000	 2.7754626456e+000	-8.3267163464e-001
 2.5455844123e+000	 2.5455844123e+000	-7.7843153393e-001
 2.5190882475e+000	 2.5718076136e+000	-8.2283965790e-001
 2.4923234027e+000	 2.5977536559e+000	-8.5241964935e-001
 2.4652942467e+000	 2.6234184335e+000	-8.5075109737e-001
 2.4380052315e+000	 2.6487979333e+000	-8.4874445469e-001
 2.4104608898e+000	 2.6738882360e+000	-8.4613535466e-001
 2.3826658325e+000	 2.6986855190e+000	-8.4267090124e-001
 2.3546247460e+000	 2.7231860578e+000	-8.3811014818e-001
 2.3263423898e+000	 2.7473862279e+000	-8.3222454221e-001
 2.2978235937e+000	 2.7712825068e+000	-8.2479832953e-001
 2.2690732550e+000	 2.7948714753e+000	-8.1562892440e-001
 2.5632620818e+000	 2.5632620818e+000	-7.7122050543e-001
 2.5365819159e+000	 2.5896673887e+000	-8.0935337007e-001
 2.5096312041e+000	 2.6157936118e+000	-8.4548516193e-001
 2.4824143456e+000	 2.6416366171e+000	-8.5344410733e-001
 2.4549358234e+000	 2.6671923634e+000	-8.4701701275e-001
 2.4272002015e+000	 2.6924569043e+000	-8.4069543648e-001
 2.3992121230e+000	 2.7174263907e+000	-8.3423075014e-001
 2.3709763067e+000	 2.7420970721e+000	-8.2738587670e-001
 2.3424975453e+000	 2.7664652989e+000	-8.1993573488e-001
 2.3137807020e+000	 2.7905275242e+000	-8.1166764691e-001
 2.2848307082e+000	 2.8142803050e+000	-8.0238170864e-001
 2.5809397513e+000	 2.5809397513e+000	-7.6669867372e-001
 2.5540755843e+000	 2.6075271638e+000	-7.9887249133e-001
 2.5269390055e+000	 2.6338335677e+000	-8.2981721667e-001
 2.4995344445e+000	 2.6598548007e+000	-8.5853173162e-001
 2.4718664152e+000	 2.6855867935e+000	-8.4794543296e-001
 2.4439395133e+000	 2.7110255726e+000	-8.3815616068e-001
 2.4157584135e+000	 2.7361672624e+000	-8.2891934596e-001
 2.3873278675e+000	 2.7610080864e+000	-8.2000158886e-001
 2.3586527008e+000	 2.7855443700e+000	-8.1118110428e-001
 2.3297378103e+000	 2.8097725416e+000	-8.0224813107e-001
 2.3005881613e+000	 2.8336891347e+000	-7.9300530380e-001
 2.5986174209e+000	 2.5986174209e+000	-7.6477854900e-001
 2.5715692527e+000	 2.6253869389e+000	-7.9130503402e-001
 2.5442468069e+000	 2.6518735237e+000	-8.1736573753e-001
 2.5166545435e+000	 2.6780729842e+000	-8.4263207383e-001
 2.4887970071e+000	 2.7039812235e+000	-8.5162874322e-001
 2.4606788250e+000	 2.7295942409e+000	-8.3861249162e-001
 2.4323047040e+000	 2.7549081340e+000	-8.2682774264e-001
 2.4036794282e+000	 2.7799191007e+000	-8.1604458250e-001
 2.3748078563e+000	 2.8046234410e+000	-8.0604434737e-001
 2.3456949186e+000	 2.8290175590e+000	-7.9662003430e-001
 2.3163456145e+000	 2.8530979643e+000	-7.8757667462e-001
 2.6162950904e+000	 2.6162950904e+000	-7.6537301816e-001
 2.5890629210e+000	 2.6432467140e+000	-7.8655953620e-001
 2.5615546083e+000	 2.6699134796e+000	-8.0803516534e-001
 2.5337746424e+000	 2.6962911678e+000	-8.2947424717e-001
 2.5057275990e+000	 2.7223756536e+000	-8.5054724660e-001
 2.4774181367e+000	 2.7481629093e+000	-8.4216045544e-001
 2.4488509945e+000	 2.7736490057e+000	-8.2804817469e-001
 2.4200309889e+000	 2.7988301150e+000	-8.1560344845e-001
 2.3909630117e+000	 2.8237025120e+000	-8.0461056034e-001
 2.3616520268e+000	 2.8482625764e+000	-7.9486510801e-001
 2.3321030677e+000	 2.8725067940e+000	-7.8617437845e-001
 2.6339727599e+000	 2.6339727599e+000	-7.6839533216e-001
 2.6065565894e+000	 2.6611064891e+000	-7.8454504402e-001
 2.5788624097e+000	 2.6879534356e+000	-8.0173058724e-001
 2.5508947413e+000	 2.7145093514e+000	-8.1962894435e-001
 2.5226581909e+000	 2.7407700837e+000	-8.3791234845e-001
 2.4941574485e+000	 2.7667315776e+000	-8.4889710445e-001
 2.4653972850e+000	 2.7923898773e+000	-8.3267401749e-001
 2.4363825497e+000	 2.8177411293e+000	-8.1876802717e-001
 2.4071181672e+000	 2.8427815831e+000	-8.0696619162e-001
 2.3776091351e+000	 2.8675075938e+000	-7.9706655238e-001
 2.3478605208e+000	 2.8919156237e+000	-7.8887851181e-001
 2.6516504295e+000	 2.6516504295e+000	-7.7375909390e-001
 2.6240502578e+000	 2.6789662642e+000	-7.8517109478e-001
 2.5961702111e+000	 2.7059933915e+000	-7.9835771523e-001
 2.5680148403e+000	 2.7327275349e+000	-8.1299829313e-001
 2.5395887828e+000	 2.7591645138e+000	-8.2876654725e-001
 2.5108967602e+000	 2.7853002459e+000	-8.4533134018e-001
 2.4819435755e+000	 2.8111307490e+000	-8.4079974930e-001
 2.4527341104e+000	 2.8366521436e+000	-8.2562936708e-001
 2.4232733227e+000	 2.8618606541e+000	-8.1319899681e-001
 2.3935662434e+000	 2.8867526112e+000	-8.0330896807e-001
 2.3636179740e+000	 2.9113244534e+000	-7.9577065906e-001
 2.2060434424e+000	 2.7172361565e+000	-9.0584552831e-001
 2.1778714378e+000	 2.7398678801e+000	-8.9236890317e-001
 2.1494840313e+000	 2.7621944897e+000	-8.7856302771e-001
 2.1208861652e+000	 2.7842129721e+000	-8.6455656823e-001
 2.0920828363e+000	 2.8059204205e+000	-8.5048796997e-001
 2.0630790933e+000	 2.8273140354e+000	-8.3650533964e-001
 2.0338800339e+000	 2.8483911262e+000	-8.2276629740e-001
 2.0044908018e+000	 2.8691491118e+000	-8.0943779877e-001
 1.9749165840e+000	 2.8895855216e+000	-7.9669592723e-001
 1.9451626075e+000	 2.9096979964e+000	-7.8472565783e-001
 1.9152341368e+000	 2.9294842893e+000	-7.7372059295e-001
 2.2218008955e+000	 2.7366449862e+000	-8.7785086490e-001
 2.1934276623e+000	 2.7594383650e+000	-8.7015795395e-001
 2.1648374887e+000	 2.7819244504e+000	-8.6139357349e-001
 2.1360353521e+000	 2.8041002076e+000	-8.5165475962e-001
 2.1070262851e+000	 2.8259627092e+000	-8.4104947555e-001
 2.0778153725e+000	 2.8475091357e+000	-8.2969652245e-001
 2.0484077484e+000	 2.8687367771e+000	-8.1772541780e-001
 2.0188085932e+000	 2.8896430340e+000	-8.0527624148e-001
 1.9890231310e+000	 2.9102254181e+000	-7.9249945027e-001
 1.9590566262e+000	 2.9304815535e+000	-7.7955566135e-001
 1.9289143807e+000	 2.9504091771e+000	-7.6661540553e-001
 2.2375583487e+000	 2.7560538159e+000	-8.5343622923e-001
 2.2089838869e+000	 2.7790088499e+000	-8.5082788486e-001
 2.1801909460e+000	 2.8016544110e+000	-8.4640960424e-001
 2.1511845390e+000	 2.8239874432e+000	-8.4024705639e-001
 2.1219697340e+000	 2.8460049979e+000	-8.3241798748e-001
 2.0925516518e+000	 2.8677042359e+000	-8.2301215986e-001
 2.0629354629e+000	 2.8890824280e+000	-8.1213125649e-001
 2.0331263847e+000	 2.9101369562e+000	-7.9988875095e-001
 2.0031296780e+000	 2.9308653147e+000	-7.8640974370e-001
 1.9729506448e+000	 2.9512651106e+000	-7.7183076507e-001
 1.9425946245e+000	 2.9713340648e+000	-7.5629954590e-001
 2.2533158019e+000	 2.7754626456e+000	-8.3267163464e-001
 2.2245401114e+000	 2.7985793347e+000	-8.3446313162e-001
 2.1955444034e+000	 2.8213843716e+000	-8.3370970242e-001
 2.1663337259e+000	 2.8438746787e+000	-8.3044590542e-001
 2.1369131828e+000	 2.8660472866e+000	-8.2471952829e-001
 2.1072879310e+000	 2.8878993362e+000	-8.1659155500e-001
 2.0774631775e+000	 2.9094280789e+000	-8.0613609615e-001
 2.0474441761e+000	 2.9306308784e+000	-7.9344028263e-001
 2.0172362251e+000	 2.9515052113e+000	-7.7860412344e-001
 1.9868446634e+000	 2.9720486678e+000	-7.6174032795e-001
 1.9562748683e+000	 2.9922589526e+000	-7.4297409355e-001
 2.2690732550e+000	 2.7948714753e+000	-8.1562892440e-001
 2.2400963360e+000	 2.8181498196e+000	-8.2114956184e-001
 2.2108978608e+000	 2.8411143323e+000	-8.2339348986e-001
 2.1814829128e+000	 2.8637619142e+000	-8.2236440607e-001
 2.1518566316e+000	 2.8860895753e+000	-8.1808039183e-001
 2.1220242103e+000	 2.9080944364e+000	-8.1057390716e-001
 2.0919908920e+000	 2.9297737298e+000	-7.9989174661e-001
 2.0617619676e+000	 2.9511248007e+000	-7.8609495644e-001
 2.0313427721e+000	 2.9721451079e+000	-7.6925871370e-001
 2.0007386820e+000	 2.9928322249e+000	-7.4947216756e-001
 1.9699551122e+000	 3.0131838404e+000	-7.2683824378e-001
 2.2848307082e+000	 2.8142803050e+000	-8.0238170864e-001
 2.2556525605e+000	 2.8377203044e+000	-8.1097442569e-001
 2.2262513181e+000	 2.8608442929e+000	-8.1556159191e-001
 2.1966320997e+000	 2.8836491497e+000	-8.1611628760e-001
 2.1668000805e+000	 2.9061318640e+000	-8.1262713393e-001
 2.1367604895e+000	 2.9282895367e+000	-8.0509831541e-001
 2.1065186065e+000	 2.9501193807e+000	-7.9354956121e-001
 2.0760797590e+000	 2.9716187229e+000	-7.7801608560e-001
 2.0454493191e+000	 2.9927850045e+000	-7.5854848802e-001
 2.0146327007e+000	 3.0136157820e+000	-7.3521261328e-001
 1.9836353560e+000	 3.0341087282e+000	-7.0808937261e-001
 2.3005881613e+000	 2.8336891347e+000	-7.9300530380e-001
 2.2712087851e+000	 2.8572907893e+000	-8.0402630857e-001
 2.2416047755e+000	 2.8805742536e+000	-8.1031560309e-001
 2.2117812866e+000	 2.9035363852e+000	-8.1181588767e-001
 2.1817435293e+000	 2.9261741528e+000	-8.0848656340e-001
 2.1514967687e+000	 2.9484846369e+000	-8.0030378200e-001
 2.1210463210e+000	 2.9704650316e+000	-7.8726045242e-001
 2.0903975504e+000	 2.9921126451e+000	-7.6936620426e-001
 2.0595558661e+000	 3.0134249010e+000	-7.4664730868e-001
 2.0285267193e+000	 3.0343993391e+000	-7.1914655721e-001
 1.9973155998e+000	 3.0550336159e+000	-6.8692309908e-001
 2.3163456145e+000	 2.8530979643e+000	-7.8757667462e-001
 2.2867650096e+000	 2.8768612741e+000	-8.0039508563e-001
 2.2569582329e+000	 2.9003042142e+000	-8.0775805411e-001
 2.2269304735e+000	 2.9234236207e+000	-8.0957813162e-001
 2.1966869781e+000	 2.9462164415e+000	-8.0578573344e-001
 2.1662330480e+000	 2.9686797371e+000	-7.9632921567e-001
 2.1355740356e+000	 2.9908106825e+000	-7.8117490680e-001
 2.1047153419e+000	 3.0126065673e+000	-7.6030709399e-001
 2.0736624132e+000	 3.0340647976e+000	-7.3372796455e-001
 2.0424207379e+000	 3.0551828962e+000	-7.0145750310e-001
 2.0109958437e+000	 3.0759585037e+000	-6.6353334505e-001
 2.3321030677e+000	 2.8725067940e+000	-7.8617437845e-001
 2.3023212342e+000	 2.8964317590e+000	-8.0017187824e-001
 2.2723116903e+000	 2.9200341748e+000	-8.0799238025e-001
 2.2420796604e+000	 2.9433108562e+000	-8.0951851259e-001
 2.2116304270e+000	 2.9662587302e+000	-8.0465193340e-001
 2.1809693272e+000	 2.9888748374e+000	-7.9331343482e-001
 2.1501017501e+000	 3.0111563334e+000	-7.7544299945e-001
 2.1190331333e+000	 3.0331004896e+000	-7.5099980922e-001
 2.0877689602e+000	 3.0547046942e+000	-7.1996220728e-001
 2.0563147565e+000	 3.0759664533e+000	-6.8232761323e-001
 2.0246760875e+000	 3.0968833915e+000	-6.3811239253e-001
 2.3478605208e+000	 2.8919156237e+000	-7.8887851181e-001
 2.3178774588e+000	 2.9160022438e+000	-8.0344901219e-001
 2.2876651476e+000	 2.9397641355e+000	-8.1112289097e-001
 2.2572288473e+000	 2.9631980917e+000	-8.1175307251e-001
 2.2265738758e+000	 2.9863010189e+000	-8.0521268082e-001
 2.1957056065e+000	 3.0090699376e+000	-7.9139517051e-001
 2.1646294646e+000	 3.0315019843e+000	-7.7021440775e-001
 2.1333509248e+000	 3.0535944118e+000	-7.4160470164e-001
 2.1018755072e+000	 3.0753445908e+000	-7.0552078617e-001
 2.0702087752e+000	 3.0967500104e+000	-6.6193775345e-001
 2.0383563313e+000	 3.1178082793e+000	-6.1085093867e-001
 2.3636179740e+000	 2.9113244534e+000	-7.9577065906e-001
 2.3334336833e+000	 2.9355727287e+000	-8.1031997748e-001
 2.3030186050e+000	 2.9594940961e+000	-8.1725474086e-001
 2.2723780342e+000	 2.9830853273e+000	-8.1639838377e-001
 2.2415173246e+000	 3.0063433076e+000	-8.0759571387e-001
 2.2104418857e+000	 3.0292650379e+000	-7.9071306940e-001
 2.1791571792e+000	 3.0518476352e+000	-7.6563842468e-001
 2.1476687162e+000	 3.0740883340e+000	-7.3228144359e-001
 2.1159820543e+000	 3.0959844873e+000	-6.9057348153e-001
 2.0841027938e+000	 3.1175335675e+000	-6.4046753634e-001
 2.0520365752e+000	 3.1387331671e+000	-6.4665375273e-001
 1.9152341368e+000	 2.9294842893e+000	-7.7372059295e-001
 1.8851364706e+000	 2.9489422659e+000	-8.3302824326e-001
 1.8548749386e+000	 2.9680699052e+000	-8.3274868287e-001
 1.8244548993e+000	 2.9868653000e+000	-8.0310493675e-001
 1.7938817362e+000	 3.0053266573e+000	-7.7259243565e-001
 1.7631608551e+000	 3.0234522981e+000	-7.4132831471e-001
 1.7322976814e+000	 3.0412406585e+000	-7.0942322614e-001
 1.7012976567e+000	 3.0586902889e+000	-6.7698096617e-001
 1.6701662359e+000	 3.0757998544e+000	-6.4409812266e-001
 1.6389088846e+000	 3.0925681348e+000	-6.1086374411e-001
 1.6075310757e+000	 3.1089940239e+000	-5.7735903083e-001
 1.9289143807e+000	 2.9504091771e+000	-7.6661540553e-001
 1.8986017311e+000	 2.9700061392e+000	-8.1342763898e-001
 1.8681240453e+000	 2.9892704045e+000	-8.3733598654e-001
 1.8374867200e+000	 3.0082000522e+000	-7.9676520960e-001
 1.8066951771e+000	 3.0267932762e+000	-7.5531385836e-001
 1.7757548612e+000	 3.0450483860e+000	-7.1310402359e-001
 1.7446712363e+000	 3.0629638061e+000	-6.7025121962e-001
 1.7134497828e+000	 3.0805380767e+000	-6.2686400076e-001
 1.6820959948e+000	 3.0977698534e+000	-5.8304359884e-001
 1.6506153766e+000	 3.1146579071e+000	-5.3888358247e-001
 1.6190134405e+000	 3.1312011241e+000	-5.2741073473e-001
 1.9425946245e+000	 2.9713340648e+000	-7.5629954590e-001
 1.9120669916e+000	 2.9910700125e+000	-7.9043345580e-001
 1.8813731520e+000	 3.0104709038e+000	-8.1936578921e-001
 1.8505185407e+000	 3.0295348043e+000	-7.8362764882e-001
 1.8195086181e+000	 3.0482598952e+000	-7.3106730510e-001
 1.7883488673e+000	 3.0666444738e+000	-6.7774576734e-001
 1.7570447912e+000	 3.0846869536e+000	-6.2378362088e-001
 1.7256019089e+000	 3.1023858645e+000	-5.6929438140e-001
 1.6940257536e+000	 3.1197398523e+000	-5.1438412213e-001
 1.6623218687e+000	 3.1367476795e+000	-5.2122647717e-001
 1.6304958054e+000	 3.1534082243e+000	-5.5559490056e-001
 1.9562748683e+000	 2.9922589526e+000	-7.4297409355e-001
 1.9255322521e+000	 3.0121338859e+000	-7.6424837580e-001
 1.8946222587e+000	 3.0316714032e+000	-7.8002507590e-001
 1.8635503614e+000	 3.0508695565e+000	-7.6379283390e-001
 1.8323220591e+000	 3.0697265142e+000	-6.9995424020e-001
 1.8009428734e+000	 3.0882405617e+000	-6.3535586856e-001
 1.7694183460e+000	 3.1064101012e+000	-5.7012358492e-001
 1.7377540350e+000	 3.1242336522e+000	-5.0437607041e-001
 1.7059555124e+000	 3.1417098513e+000	-5.2601598498e-001
 1.6740283607e+000	 3.1588374519e+000	-5.5188891703e-001
 1.6419781702e+000	 3.1756153244e+000	-5.7766920849e-001
 1.9699551122e+000	 3.0131838404e+000	-7.2683824378e-001
 1.9389975126e+000	 3.0331977592e+000	-7.3507313285e-001
 1.9078713654e+000	 3.0528719025e+000	-7.3751026475e-001
 1.8765821821e+000	 3.0722043086e+000	-7.3392667814e-001
 1.8451355001e+000	 3.0911931332e+000	-6.6207399378e-001
 1.8135368796e+000	 3.1098366495e+000	-5.8603445570e-001
 1.7817919009e+000	 3.1281332488e+000	-5.2547162479e-001
 1.7499061612e+000	 3.1460814400e+000	-5.4228126131e-001
 1.7178852712e+000	 3.1636798503e+000	-5.5953391184e-001
 1.6857348527e+000	 3.1809272243e+000	-5.7685537478e-001
 1.6534605350e+000	 3.1978224246e+000	-5.9388651179e-001
 1.9836353560e+000	 3.0341087282e+000	-7.0808937261e-001
 1.9524627731e+000	 3.0542616325e+000	-7.0310657976e-001
 1.9211204721e+000	 3.0740724018e+000	-6.9202157356e-001
 1.8896140028e+000	 3.0935390607e+000	-6.7460882336e-001
 1.8579489410e+000	 3.1126597521e+000	-6.1752383531e-001
 1.8261308857e+000	 3.1314327373e+000	-5.6266082568e-001
 1.7941654558e+000	 3.1498563963e+000	-5.7052330995e-001
 1.7620582873e+000	 3.1679292278e+000	-5.7902178645e-001
 1.7298150301e+000	 3.1856498492e+000	-5.8776481431e-001
 1.6974413448e+000	 3.2030169967e+000	-5.9637667859e-001
 1.6649428998e+000	 3.2200295248e+000	-6.0449727214e-001
 1.9973155998e+000	 3.0550336159e+000	-6.8692309908e-001
 1.9659280336e+000	 3.0753255058e+000	-6.6854575269e-001
 1.9343695788e+000	 3.0952729011e+000	-6.4375734473e-001
 1.9026458236e+000	 3.1148738129e+000	-6.1232986534e-001
 1.8707623820e+000	 3.1341263711e+000	-6.1248739714e-001
 1.8387248918e+000	 3.1530288252e+000	-6.1124239244e-001
 1.8065390106e+000	 3.1715795439e+000	-6.1084284155e-001
 1.7742104134e+000	 3.1897770156e+000	-6.1087901264e-001
 1.7417447889e+000	 3.2076198482e+000	-6.1095755279e-001
 1.7091478368e+000	 3.2251067691e+000	-6.1070139757e-001
 1.6764252647e+000	 3.2422366249e+000	-6.0974964157e-001
 2.0109958437e+000	 3.0759585037e+000	-6.6353334505e-001
 1.9793932941e+000	 3.0963893791e+000	-6.3158593296e-001
 1.9476186855e+000	 3.1164734004e+000	-5.9291410905e-001
 1.9156776443e+000	 3.1362085650e+000	-6.0323064166e-001
 1.8835758230e+000	 3.1555929901e+000	-6.5055937555e-001
 1.8513188979e+000	 3.1746249130e+000	-6.5548606606e-001
 1.8189125655e+000	 3.1933026914e+000	-6.4667725103e-001
 1.7863625395e+000	 3.2116248033e+000	-6.3809988321e-001
 1.7536745477e+000	 3.2295898471e+000	-6.2935885541e-001
 1.7208543288e+000	 3.2471965415e+000	-6.2007591859e-001
 1.6879076295e+000	 3.2644437251e+000	-6.0988954100e-001
 2.0246760875e+000	 3.0968833915e+000	-6.3811239253e-001
 1.9928585546e+000	 3.1174532525e+000	-5.9242070633e-001
 1.9608677923e+000	 3.1376738998e+000	-6.0197810827e-001
 1.9287094650e+000	 3.1575433171e+000	-6.4345741295e-001
 1.8963892639e+000	 3.1770596091e+000	-6.8021129882e-001
 1.8639129040e+000	 3.1962210009e+000	-6.9563692822e-001
 1.8312861203e+000	 3.2150258390e+000	-6.7827160901e-001
 1.7985146656e+000	 3.2334725911e+000	-6.6092933052e-001
 1.7656043065e+000	 3.2515598461e+000	-6.4321339001e-001
 1.7325608209e+000	 3.2692863139e+000	-6.2474452003e-001
 1.6993899943e+000	 3.2866508253e+000	-6.0516073561e-001
 2.0383563313e+000	 3.1178082793e+000	-6.1085093867e-001
 2.0063238151e+000	 3.1385171258e+000	-6.1642120150e-001
 1.9741168990e+000	 3.1588743991e+000	-6.5184555008e-001
 1.9417412857e+000	 3.1788780693e+000	-6.8288089987e-001
 1.9092027049e+000	 3.1985262280e+000	-7.0905823810e-001
 1.8765069101e+000	 3.2178170887e+000	-7.2991450468e-001
 1.8436596752e+000	 3.2367489865e+000	-7.0586909117e-001
 1.8106667917e+000	 3.2553203789e+000	-6.7961034340e-001
 1.7775340654e+000	 3.2735298451e+000	-6.5276383335e-001
 1.7442673129e+000	 3.2913760863e+000	-6.2494944251e-001
 1.7108723591e+000	 3.3088579254e+000	-5.9580490720e-001
 2.0520365752e+000	 3.1387331671e+000	-6.4665375273e-001
 2.0197890756e+000	 3.1595809991e+000	-6.7576720016e-001
 1.9873660057e+000	 3.1800748984e+000	-7.0086219239e-001
 1.9547731064e+000	 3.2002128214e+000	-7.2145191788e-001
 1.9220161459e+000	 3.2199928470e+000	-7.3705467303e-001
 1.8891009162e+000	 3.2394131765e+000	-7.4719479196e-001
 1.8560332301e+000	 3.2584721341e+000	-7.2971104135e-001
 1.8228189179e+000	 3.2771681667e+000	-6.9438403191e-001
 1.7894638242e+000	 3.2954998440e+000	-6.5825093741e-001
 1.7559738049e+000	 3.3134658586e+000	-6.2093095684e-001
 1.7223547240e+000	 3.3310650256e+000	-5.8206172362e-001
 1.6075310757e+000	 3.1089940239e+000	-5.7735903083e-001
 1.5760382868e+000	 3.1250765300e+000	-4.9469131322e-001
 1.5444359972e+000	 3.1408147750e+000	-4.9587679159e-001
 1.5127296849e+000	 3.1562079939e+000	-4.9603856447e-001
 1.4809248240e+000	 3.1712555346e+000	-4.9481080497e-001
 1.4490268819e+000	 3.1859568571e+000	-4.9184095735e-001
 1.4170413162e+000	 3.2003115330e+000	-4.8678955700e-001
 1.3849735723e+000	 3.2143192443e+000	-4.7933002545e-001
 1.3528290804e+000	 3.2279797829e+000	-4.6914844187e-001
 1.3206132534e+000	 3.2412930498e+000	-4.5594329266e-001
 1.2883314835e+000	 3.2542590537e+000	-4.3942520079e-001
 1.6190134405e+000	 3.1312011241e+000	-5.2741073473e-001
 1.5872957031e+000	 3.1473985053e+000	-5.1998878317e-001
 1.5554676828e+000	 3.1632491662e+000	-5.1258157058e-001
 1.5235348969e+000	 3.1787523367e+000	-5.0485003737e-001
 1.4915028585e+000	 3.1939073598e+000	-4.9646780271e-001
 1.4593770739e+000	 3.2087136918e+000	-4.8712097027e-001
 1.4271630399e+000	 3.2231709011e+000	-4.7650790872e-001
 1.3948662406e+000	 3.2372786675e+000	-4.6433900845e-001
 1.3624921453e+000	 3.2510367814e+000	-4.5033641622e-001
 1.3300462052e+000	 3.2644451431e+000	-4.3423374939e-001
 1.2975338512e+000	 3.2775037612e+000	-4.1577579129e-001
 1.6304958054e+000	 3.1534082243e+000	-5.5559490056e-001
 1.5985531195e+000	 3.1697204805e+000	-5.3980989933e-001
 1.5664993685e+000	 3.1856835575e+000	-5.2468286184e-001
 1.5343401089e+000	 3.2012966795e+000	-5.0991469068e-001
 1.5020808929e+000	 3.2165591851e+000	-4.9521823815e-001
 1.4697272659e+000	 3.2314705265e+000	-4.8031807114e-001
 1.4372847636e+000	 3.2460302692e+000	-4.6495021180e-001
 1.4047589090e+000	 3.2602380906e+000	-4.4886185590e-001
 1.3721552102e+000	 3.2740937798e+000	-4.3181107043e-001
 1.3394791570e+000	 3.2875972363e+000	-4.1356647219e-001
 1.3067362190e+000	 3.3007484688e+000	-3.9390688899e-001
 1.6419781702e+000	 3.1756153244e+000	-5.7766920849e-001
 1.6098105358e+000	 3.1920424557e+000	-5.5438753462e-001
 1.5775310542e+000	 3.2081179487e+000	-5.3239123653e-001
 1.5451453210e+000	 3.2238410223e+000	-5.1142095949e-001
 1.5126589274e+000	 3.2392110103e+000	-4.9122858614e-001
 1.4800774579e+000	 3.2542273612e+000	-4.7157696018e-001
 1.4474064873e+000	 3.2688896373e+000	-4.5223958718e-001
 1.4146515774e+000	 3.2831975138e+000	-4.3300031436e-001
 1.3818182750e+000	 3.2971507783e+000	-4.1365299092e-001
 1.3489121088e+000	 3.3107493295e+000	-3.9400111075e-001
 1.3159385867e+000	 3.3239931763e+000	-3.7385743931e-001
 1.6534605350e+000	 3.1978224246e+000	-5.9388651179e-001
 1.6210679521e+000	 3.2143644309e+000	-5.6395264495e-001
 1.5885627399e+000	 3.2305523400e+000	-5.3591590212e-001
 1.5559505330e+000	 3.2463853651e+000	-5.0955646177e-001
 1.5232369618e+000	 3.2618628356e+000	-4.8466504382e-001
 1.4904276499e+000	 3.2769841959e+000	-4.6104259205e-001
 1.4575282109e+000	 3.2917490054e+000	-4.3849993494e-001
 1.4245442458e+000	 3.3061569370e+000	-4.1685742655e-001
 1.3914813399e+000	 3.3202077768e+000	-3.9594456943e-001
 1.3583450606e+000	 3.3339014227e+000	-3.7559962123e-001
 1.3251409544e+000	 3.3472378838e+000	-3.5566918697e-001
 1.6649428998e+000	 3.2200295248e+000	-6.0449727214e-001
 1.6323253685e+000	 3.2366864061e+000	-5.6873433530e-001
 1.5995944256e+000	 3.2529867312e+000	-5.3546474946e-001
 1.5667557450e+000	 3.2689297079e+000	-5.0450802649e-001
 1.5338149963e+000	 3.2845146608e+000	-4.7569354016e-001
 1.5007778420e+000	 3.2997410306e+000	-4.4886016712e-001
 1.4676499346e+000	 3.3146083735e+000	-4.2385590747e-001
 1.4344369141e+000	 3.3291163602e+000	-4.0053748668e-001
 1.4011444047e+000	 3.3432647752e+000	-3.7876994078e-001
 1.3677780124e+000	 3.3570535159e+000	-3.5842618667e-001
 1.3343433222e+000	 3.3704825914e+000	-3.3938657948e-001
 1.6764252647e+000	 3.2422366249e+000	-6.0974964157e-001
 1.6435827848e+000	 3.2590083813e+000	-5.6895992315e-001
 1.6106261113e+000	 3.2754211225e+000	-5.3124439784e-001
 1.5775609571e+000	 3.2914740508e+000	-4.9646172067e-001
 1.5443930308e+000	 3.3071664861e+000	-4.6447974521e-001
 1.5111280340e+000	 3.3224978653e+000	-4.3517512300e-001
 1.4777716583e+000	 3.3374677416e+000	-4.0843288366e-001
 1.4443295825e+000	 3.3520757833e+000	-3.8414599756e-001
 1.4108074696e+000	 3.3663217737e+000	-3.6221492318e-001
 1.3772109643e+000	 3.3802056091e+000	-3.4254714077e-001
 1.3435456899e+000	 3.3937272989e+000	-3.2505667458e-001
 1.6879076295e+000	 3.2644437251e+000	-6.0988954100e-001
 1.6548402011e+000	 3.2813303565e+000	-5.6485499926e-001
 1.6216577970e+000	 3.2978555137e+000	-5.2346023826e-001
 1.5883661691e+000	 3.3140183936e+000	-4.8560287528e-001
 1.5549710652e+000	 3.3298183113e+000	-4.5118907886e-001
 1.5214782260e+000	 3.3452547000e+000	-4.2013312653e-001
 1.4878933820e+000	 3.3603271097e+000	-3.9235694421e-001
 1.4542222509e+000	 3.3750352065e+000	-3.6778962954e-001
 1.4204705345e+000	 3.3893787721e+000	-3.4636696097e-001
 1.3866439161e+000	 3.4033577023e+000	-3.2803089472e-001
 1.3527480577e+000	 3.4169720064e+000	-3.1272905147e-001
 1.6993899943e+000	 3.2866508253e+000	-6.0516073561e-001
 1.6660976175e+000	 3.3036523318e+000	-5.5664348600e-001
 1.6326894827e+000	 3.3202899050e+000	-5.1231647492e-001
 1.5991713811e+000	 3.3365627364e+000	-4.7211611010e-001
 1.5655490997e+000	 3.3524701366e+000	-4.3598671930e-001
 1.5318284180e+000	 3.3680115347e+000	-4.0388006598e-001
 1.4980151057e+000	 3.3831864778e+000	-3.7575484795e-001
 1.4641149192e+000	 3.3979946297e+000	-3.5157618102e-001
 1.4301335993e+000	 3.4124357706e+000	-3.3131506968e-001
 1.3960768679e+000	 3.4265097956e+000	-3.1494786699e-001
 1.3619504254e+000	 3.4402167139e+000	-3.0245572560e-001
 1.7108723591e+000	 3.3088579254e+000	-5.9580490720e-001
 1.6773550338e+000	 3.3259743070e+000	-5.4454769335e-001
 1.6437211684e+000	 3.3427242962e+000	-4.9801616503e-001
 1.6099765932e+000	 3.3591070792e+000	-4.5618535764e-001
 1.5761271341e+000	 3.3751219618e+000	-4.1903761115e-001
 1.5421786100e+000	 3.3907683694e+000	-3.8656204365e-001
 1.5081368294e+000	 3.4060458459e+000	-3.5875400902e-001
 1.4740075876e+000	 3.4209540529e+000	-3.3561454060e-001
 1.4397966642e+000	 3.4354927690e+000	-3.1714978328e-001
 1.4055098197e+000	 3.4496618888e+000	-3.0337041604e-001
 1.3711527931e+000	 3.4634614215e+000	-2.9429106691e-001
 1.7223547240e+000	 3.3310650256e+000	-5.8206172362e-001
 1.6886124501e+000	 3.3482962822e+000	-5.2878837261e-001
 1.6547528541e+000	 3.3651586875e+000	-4.8076125708e-001
 1.6207818052e+000	 3.3816514220e+000	-4.3799388598e-001
 1.5867051686e+000	 3.3977737871e+000	-4.0050647319e-001
 1.5525288020e+000	 3.4135252041e+000	-3.6832536874e-001
 1.5182585531e+000	 3.4289052139e+000	-3.4148247508e-001
 1.4839002560e+000	 3.4439134760e+000	-3.2001465077e-001
 1.4494597290e+000	 3.4585497675e+000	-3.0396310363e-001
 1.4149427715e+000	 3.4728139820e+000	-2.9337277557e-001
 1.3803551609e+000	 3.4867061290e+000	-2.8829172140e-001
 1.2883314835e+000	 3.2542590537e+000	-4.3942520079e-001
 1.2559891402e+000	 3.2668779101e+000	-4.2150007720e-001
 1.2235915677e+000	 3.2791498404e+000	-3.8511793113e-001
 1.1911440823e+000	 3.2910751701e+000	-3.4649678096e-001
 1.1586519699e+000	 3.3026543284e+000	-3.0934575777e-001
 1.1261204840e+000	 3.3138878460e+000	-2.7361418440e-001
 1.0935548431e+000	 3.3247763542e+000	-2.3925838891e-001
 1.0609602284e+000	 3.3353205834e+000	-2.0624044899e-001
 1.0283417820e+000	 3.3455213614e+000	-1.7452695101e-001
 9.9570460419e-001	 3.3553796121e+000	-1.4408776744e-001
 9.6305375194e-001	 3.3648963537e+000	-1.1489485620e-001
 1.2975338512e+000	 3.2775037612e+000	-4.1577579129e-001
 1.2649604912e+000	 3.2902127523e+000	-4.0032138176e-001
 1.2323315075e+000	 3.3025723392e+000	-3.7207322909e-001
 1.1996522543e+000	 3.3145828499e+000	-3.3673891778e-001
 1.1669280554e+000	 3.3262447164e+000	-3.0257090815e-001
 1.1341642017e+000	 3.3375584734e+000	-2.6954027974e-001
 1.1013659491e+000	 3.3485247567e+000	-2.3762553524e-001
 1.0685385158e+000	 3.3591443018e+000	-2.0681128796e-001
 1.0356870804e+000	 3.3694179425e+000	-1.7708696450e-001
 1.0028167799e+000	 3.3793466093e+000	-1.4844552634e-001
 9.6993270731e-001	 3.3889313276e+000	-1.2088221410e-001
 1.3067362190e+000	 3.3007484688e+000	-3.9390688899e-001
 1.2739318422e+000	 3.3135475946e+000	-3.8088416202e-001
 1.2410714472e+000	 3.3259948381e+000	-3.5935959537e-001
 1.2081604263e+000	 3.3380905297e+000	-3.2706078900e-001
 1.1752041409e+000	 3.3498351045e+000	-2.9562489328e-001
 1.1422079195e+000	 3.3612291009e+000	-2.6504523584e-001
 1.1091770551e+000	 3.3722731592e+000	-2.3532298546e-001
 1.0761168031e+000	 3.3829680203e+000	-2.0646578172e-001
 1.0430323789e+000	 3.3933145237e+000	-1.7848638039e-001
 1.0099289557e+000	 3.4033136065e+000	-1.5140131839e-001
 9.7681166268e-001	 3.4129663016e+000	-1.2522960205e-001
 1.3159385867e+000	 3.3239931763e+000	-3.7385743931e-001
 1.2829031932e+000	 3.3368824368e+000	-3.6322284071e-001
 1.2498113870e+000	 3.3494173369e+000	-3.4721186936e-001
 1.2166685983e+000	 3.3615982095e+000	-3.1768722286e-001
 1.1834802264e+000	 3.3734254925e+000	-2.8872228377e-001
 1.1502516372e+000	 3.3848997284e+000	-2.6033312811e-001
 1.1169881611e+000	 3.3960215617e+000	-2.3254409114e-001
 1.0836950905e+000	 3.4067917387e+000	-2.0538633844e-001
 1.0503776773e+000	 3.4172111048e+000	-1.7889645307e-001
 1.0170411314e+000	 3.4272806038e+000	-1.5311504295e-001
 9.8369061805e-001	 3.4370012755e+000	-1.2808537242e-001
 1.3251409544e+000	 3.3472378838e+000	-3.5566918697e-001
 1.2918745442e+000	 3.3602172790e+000	-3.4737468154e-001
 1.2585513268e+000	 3.3728398358e+000	-3.3341322321e-001
 1.2251767703e+000	 3.3851058893e+000	-3.0884598282e-001
 1.1917563119e+000	 3.3970158806e+000	-2.8208063785e-001
 1.1582953550e+000	 3.4085703558e+000	-2.5561107538e-001
 1.1247992672e+000	 3.4197699643e+000	-2.2948530658e-001
 1.0912733778e+000	 3.4306154572e+000	-2.0375853173e-001
 1.0577229757e+000	 3.4411076860e+000	-1.7849166832e-001
 1.0241533072e+000	 3.4512476010e+000	-1.5374990007e-001
 9.9056957342e-001	 3.4610362495e+000	-1.2960125077e-001
 1.3343433222e+000	 3.3704825914e+000	-3.3938657948e-001
 1.3008458952e+000	 3.3835521212e+000	-3.3337969132e-001
 1.2672912665e+000	 3.3962623346e+000	-3.2135428390e-001
 1.2336849423e+000	 3.4086135690e+000	-3.0076766628e-001
 1.2000323974e+000	 3.4206062687e+000	-2.7592039828e-001
 1.1663390727e+000	 3.4322409833e+000	-2.5108913500e-001
 1.1326103732e+000	 3.4435183668e+000	-2.2634608182e-001
 1.0988516651e+000	 3.4544391756e+000	-2.0177099142e-001
 1.0650682742e+000	 3.4650042671e+000	-1.7744963194e-001
 1.0312654829e+000	 3.4752145982e+000	-1.5347227669e-001
 9.9744852879e-001	 3.4850712234e+000	-1.2993221952e-001
 1.3435456899e+000	 3.3937272989e+000	-3.2505667458e-001
 1.3098172462e+000	 3.4068869634e+000	-3.2128052591e-001
 1.2760312063e+000	 3.4196848335e+000	-3.1113691976e-001
 1.2421931143e+000	 3.4321212488e+000	-2.9368560758e-001
 1.2083084829e+000	 3.4441966567e+000	-2.7046479357e-001
 1.1743827904e+000	 3.4559116108e+000	-2.4698020218e-001
 1.1404214792e+000	 3.4672667693e+000	-2.2332876007e-001
 1.1064299525e+000	 3.4782628941e+000	-1.9961529895e-001
 1.0724135726e+000	 3.4889008483e+000	-1.7595096283e-001
 1.0383776586e+000	 3.4991815955e+000	-1.5245163748e-001
 1.0043274842e+000	 3.5091061974e+000	-1.2923640645e-001
 1.3527480577e+000	 3.4169720064e+000	-3.1272905147e-001
 1.3187885972e+000	 3.4302218056e+000	-3.1112240020e-001
 1.2847711461e+000	 3.4431073324e+000	-3.0280180655e-001
 1.2507012864e+000	 3.4556289286e+000	-2.8777115316e-001
 1.2165845684e+000	 3.4677870448e+000	-2.6593974327e-001
 1.1824265082e+000	 3.4795822382e+000	-2.4349991344e-001
 1.1482325852e+000	 3.4910151719e+000	-2.2063847926e-001
 1.1140082398e+000	 3.5020866125e+000	-1.9748588698e-001
 1.0797588711e+000	 3.5127974294e+000	-1.7417919057e-001
 1.0454898344e+000	 3.5231485927e+000	-1.5086042015e-001
 1.0112064395e+000	 3.5331411713e+000	-1.2767497766e-001
 1.3619504254e+000	 3.4402167139e+000	-3.0245572560e-001
 1.3277599482e+000	 3.4535566479e+000	-3.0295300162e-001
 1.2935110859e+000	 3.4665298312e+000	-2.9639213200e-001
 1.2592094584e+000	 3.4791366084e+000	-2.8278800048e-001
 1.2248606539e+000	 3.4913774329e+000	-2.6257376702e-001
 1.1904702259e+000	 3.5032528657e+000	-2.4086655405e-001
 1.1560436912e+000	 3.5147635744e+000	-2.1848307769e-001
 1.1215865272e+000	 3.5259103310e+000	-1.9557994301e-001
 1.0871041695e+000	 3.5366940106e+000	-1.7232065705e-001
 1.0526020101e+000	 3.5471155899e+000	-1.4887393504e-001
 1.0180853949e+000	 3.5571761453e+000	-1.2541203499e-001
 1.3711527931e+000	 3.4634614215e+000	-2.9429106691e-001
 1.3367312992e+000	 3.4768914901e+000	-2.9682240716e-001
 1.3022510256e+000	 3.4899523301e+000	-2.9195351155e-001
 1.2677176304e+000	 3.5026442882e+000	-2.7971041999e-001
 1.2331367394e+000	 3.5149678209e+000	-2.6059789732e-001
 1.1985139437e+000	 3.5269234932e+000	-2.3930096913e-001
 1.1638547973e+000	 3.5385119769e+000	-2.1707300333e-001
 1.1291648145e+000	 3.5497340494e+000	-1.9409731701e-001
 1.0944494679e+000	 3.5605905918e+000	-1.7056442210e-001
 1.0597141859e+000	 3.5710825871e+000	-1.4667026868e-001
 1.0249643503e+000	 3.5812111192e+000	-1.2261451744e-001
 1.3803551609e+000	 3.4867061290e+000	-2.8829172140e-001
 1.3457026502e+000	 3.5002263323e+000	-2.9278300376e-001
 1.3109909654e+000	 3.5133748290e+000	-2.8953390736e-001
 1.2762258024e+000	 3.5261519680e+000	-2.7858178739e-001
 1.2414128249e+000	 3.5385582090e+000	-2.6024559574e-001
 1.2065576614e+000	 3.5505941207e+000	-2.3902647827e-001
 1.1716659033e+000	 3.5622603795e+000	-2.1662122691e-001
 1.1367431019e+000	 3.5735577679e+000	-1.9324043261e-001
 1.1017947664e+000	 3.5844871729e+000	-1.6910217290e-001
 1.0668263616e+000	 3.5950495844e+000	-1.4443019128e-001
 1.0318433056e+000	 3.6052460932e+000	-1.1945210663e-001
 9.6305375194e-001	 3.3648963537e+000	-1.1489485620e-001
 9.3039423656e-001	 3.3740726970e+000	-8.4355711200e-002
 8.9773102186e-001	 3.3829098440e+000	-5.4566648485e-002
 8.6506902227e-001	 3.3914090857e+000	-2.5511549598e-002
 8.3241310102e-001	 3.3995718009e+000	 2.8279710245e-003
 7.9976806841e-001	 3.4073994536e+000	 3.0473625995e-002
 7.6713868010e-001	 3.4148935921e+000	 5.7451475645e-002
 7.3452963556e-001	 3.4220558462e+000	 8.3792907196e-002
 7.0194557643e-001	 3.4288879258e+000	 1.0953557042e-001
 6.6939108513e-001	 3.4353916189e+000	 1.3472426796e-001
 6.3687068343e-001	 3.4415687894e+000	 1.5941179866e-001
 9.6993270731e-001	 3.3889313276e+000	-1.2088221410e-001
 9.3703990968e-001	 3.3981732162e+000	-9.1937284153e-002
 9.0414338630e-001	 3.4070734857e+000	-6.3368128970e-002
 8.7124808671e-001	 3.4156334363e+000	-3.5186060350e-002
 8.3835890888e-001	 3.4238544566e+000	-7.4002714165e-003
 8.0548069746e-001	 3.4317380212e+000	 1.9983280068e-002
 7.7261824210e-001	 3.4392856892e+000	 4.6962947854e-002
 7.3977627581e-001	 3.4464991022e+000	 7.3542430506e-002
 7.0695947340e-001	 3.4533799824e+000	 9.9731759728e-002
 6.7417245002e-001	 3.4599301304e+000	 1.2554824183e-001
 6.4141975974e-001	 3.4661514237e+000	 1.5101735063e-001
 9.7681166268e-001	 3.4129663016e+000	-1.2522960205e-001
 9.4368558279e-001	 3.4222737355e+000	-9.7687864716e-002
 9.1055575074e-001	 3.4312371274e+000	-7.0155373080e-002
 8.7742715115e-001	 3.4398577869e+000	-4.2671290665e-002
 8.4430471674e-001	 3.4481371123e+000	-1.5272802799e-002
 8.1119332652e-001	 3.4560765887e+000	 1.2006057480e-002
 7.7809780410e-001	 3.4636777863e+000	 3.9135541692e-002
 7.4502291606e-001	 3.4709423583e+000	 6.6091273938e-002
 7.1197337037e-001	 3.4778720390e+000	 9.2855292486e-002
 6.7895381492e-001	 3.4844686420e+000	 1.1941704293e-001
 6.4596883605e-001	 3.4907340579e+000	 1.4577432115e-001
 9.8369061805e-001	 3.4370012755e+000	-1.2808537242e-001
 9.5033125591e-001	 3.4463742548e+000	-1.0174317061e-001
 9.1696811518e-001	 3.4554007692e+000	-7.5051217871e-002
 8.8360621559e-001	 3.4640821375e+000	-4.8076961208e-002
 8.5025052460e-001	 3.4724197680e+000	-2.0886001972e-002
 8.1690595558e-001	 3.4804151562e+000	 6.4591363014e-003
 7.8357736610e-001	 3.4880698834e+000	 3.3900196918e-002
 7.5026955631e-001	 3.4953856143e+000	 6.1384333398e-002
 7.1698726735e-001	 3.5023640956e+000	 8.8865204899e-002
 6.8373517981e-001	 3.5090071536e+000	 1.1630402163e-001
 6.5051791236e-001	 3.5153166921e+000	 1.4367053840e-001
 9.9056957342e-001	 3.4610362495e+000	-1.2960125077e-001
 9.5697692902e-001	 3.4704747740e+000	-1.0424239352e-001
 9.2338047962e-001	 3.4795644109e+000	-7.8182080308e-002
 8.8978528004e-001	 3.4883064882e+000	-5.1516483518e-002
 8.5619633247e-001	 3.4967024237e+000	-2.4340054574e-002
 8.2261858464e-001	 3.5047537237e+000	 3.2557670301e-003
 7.8905692810e-001	 3.5124619805e+000	 3.1183800170e-002
 7.5551619657e-001	 3.5198288704e+000	 5.9362321435e-002
 7.2200116432e-001	 3.5268561522e+000	 8.7716214985e-002
 6.8851654471e-001	 3.5335456651e+000	 1.1617807080e-001
 6.5506698867e-001	 3.5398993263e+000	 1.4468922934e-001
 9.9744852879e-001	 3.4850712234e+000	-1.2993221952e-001
 9.6362260214e-001	 3.4945752933e+000	-1.0532807937e-001
 9.2979284406e-001	 3.5037280527e+000	-7.9677833823e-002
 8.9596434448e-001	 3.5125308388e+000	-5.3106832736e-002
 8.6214214033e-001	 3.5209850795e+000	-2.5738821767e-002
 8.2833121370e-001	 3.5290922913e+000	 2.3054080287e-003
 7.9453649010e-001	 3.5368540775e+000	 3.0909324726e-002
 7.6076283682e-001	 3.5442721264e+000	 5.9961911491e-002
 7.2701506130e-001	 3.5513482089e+000	 8.9358871484e-002
 6.9329790960e-001	 3.5580841767e+000	 1.1900377951e-001
 6.5961606499e-001	 3.5644819605e+000	 1.4880917839e-001
 1.0043274842e+000	 3.5091061974e+000	-1.2923640645e-001
 9.7026827526e-001	 3.5186758126e+000	-1.0514601337e-001
 9.3620520850e-001	 3.5278916944e+000	-7.9671689943e-002
 9.0214340892e-001	 3.5367551894e+000	-5.2968425564e-002
 8.6808794820e-001	 3.5452677352e+000	-2.5189714357e-002
 8.3404384276e-001	 3.5534308588e+000	 3.5138553907e-003
 8.0001605210e-001	 3.5612461746e+000	 3.2995964522e-002
 7.6600947708e-001	 3.5687153825e+000	 6.3115876230e-002
 7.3202895827e-001	 3.5758402655e+000	 9.3739696643e-002
 6.9807927450e-001	 3.5826226883e+000	 1.2474158046e-001
 6.6416514130e-001	 3.5890645947e+000	 1.5600487956e-001
 1.0112064395e+000	 3.5331411713e+000	-1.2767497766e-001
 9.7691394838e-001	 3.5427763318e+000	-1.0384510988e-001
 9.4261757294e-001	 3.5520553362e+000	-7.8300084745e-002
 9.0832247337e-001	 3.5609795400e+000	-5.1225003207e-002
 8.7403375606e-001	 3.5695503909e+000	-2.2803572063e-002
 8.3975647182e-001	 3.5777694263e+000	 6.7833675078e-003
 8.0549561411e-001	 3.5856382717e+000	 3.7359262699e-002
 7.7125611733e-001	 3.5931586385e+000	 6.8753220217e-002
 7.3704285525e-001	 3.6003323221e+000	 1.0080132317e-001
 7.0286063939e-001	 3.6071611998e+000	 1.3334789129e-001
 6.6871421761e-001	 3.6136472289e+000	 1.6624668238e-001
 1.0180853949e+000	 3.5571761453e+000	-1.2541203499e-001
 9.8355962149e-001	 3.5668768511e+000	-1.0157730671e-001
 9.4902993738e-001	 3.5762189779e+000	-7.5702569924e-002
 9.1450153782e-001	 3.5852038906e+000	-4.8003519056e-002
 8.7997956393e-001	 3.5938330466e+000	-1.8694547674e-002
 8.4546910088e-001	 3.6021079939e+000	 1.2012784587e-002
 8.1097517611e-001	 3.6100303688e+000	 4.3911234947e-002
 7.7650275759e-001	 3.6176018945e+000	 7.6799307216e-002
 7.4205675223e-001	 3.6248243787e+000	 1.1048262563e-001
 7.0764200429e-001	 3.6316997114e+000	 1.4477525028e-001
 6.7326329392e-001	 3.6382298631e+000	 1.7950093194e-001
 1.0249643503e+000	 3.5812111192e+000	-1.2261451744e-001
 9.9020529461e-001	 3.5909773704e+000	-9.8497463625e-002
 9.5544230183e-001	 3.6003826196e+000	-7.2021708240e-002
 9.2068060226e-001	 3.6094282412e+000	-4.3434030897e-002
 8.8592537179e-001	 3.6181157023e+000	-1.2979995871e-002
 8.5118172995e-001	 3.6264465614e+000	 1.9097643354e-002
 8.1645473811e-001	 3.6344224659e+000	 5.2560487871e-002
 7.8174939785e-001	 3.6420451506e+000	 8.7175982369e-002
 7.4707064920e-001	 3.6493164353e+000	 1.2271884657e-001
 7.1242336919e-001	 3.6562382230e+000	 1.5897244649e-001
 6.7781237024e-001	 3.6628124973e+000	 1.9573010325e-001
 1.0318433056e+000	 3.6052460932e+000	-1.1945210663e-001
 9.9685096773e-001	 3.6150778896e+000	-9.4763264967e-002
 9.6185466627e-001	 3.6245462614e+000	-6.7402973145e-002
 9.2685966671e-001	 3.6336525918e+000	-3.7649597435e-002
 8.9187117966e-001	 3.6423983581e+000	-5.7803664973e-003
 8.5689435901e-001	 3.6507851289e+000	 2.7930287172e-002
 8.2193430012e-001	 3.6588145630e+000	 6.3212332628e-002
 7.8699603810e-001	 3.6664884066e+000	 9.9801689478e-002
 7.5208454618e-001	 3.6738084919e+000	 1.3744171758e-001
 7.1720473409e-001	 3.6807767345e+000	 1.7588464476e-001
 6.8236144655e-001	 3.6873951316e+000	 2.1489293023e-001
 6.3687068343e-001	 3.4415687894e+000	 1.5941179866e-001
 6.0438883109e-001	 3.4474213756e+000	 6.4358609295e-002
 5.7194992458e-001	 3.4529513874e+000	 7.7568979185e-002
 5.3955829594e-001	 3.4581609051e+000	 9.0991925540e-002
 5.0721821157e-001	 3.4630520767e+000	 1.0505202469e-001
 4.7493387121e-001	 3.4676271163e+000	 1.2018653642e-001
 4.4270940692e-001	 3.4718883019e+000	 1.3684185905e-001
 4.1054888215e-001	 3.4758379731e+000	 1.5547009276e-001
 3.7845629087e-001	 3.4794785293e+000	 1.7652571683e-001
 3.4643555681e-001	 3.4828124275e+000	 2.0046238605e-001
 3.1449053264e-001	 3.4858421801e+000	 2.2772985071e-001
 6.4141975974e-001	 3.4661514237e+000	 1.5101735063e-001
 6.0870589417e-001	 3.4720458140e+000	 2.4463341152e-002
 5.7603528119e-001	 3.4776153259e+000	 4.6108496115e-002
 5.4341228377e-001	 3.4828620544e+000	 6.6582385995e-002
 5.1084119880e-001	 3.4877881630e+000	 8.6411712799e-002
 4.7832625601e-001	 3.4923958815e+000	 1.0613551539e-001
 4.4587161697e-001	 3.4966875041e+000	 1.2630147226e-001
 4.1348137416e-001	 3.5006653872e+000	 1.4746231748e-001
 3.8115955010e-001	 3.5043319474e+000	 1.7017237564e-001
 3.4891009650e-001	 3.5076896591e+000	 1.9498422115e-001
 3.1673689358e-001	 3.5107410529e+000	 2.2244546652e-001
 6.4596883605e-001	 3.4907340579e+000	 1.4577432115e-001
 6.1302295724e-001	 3.4966702524e+000	-1.1333958312e-002
 5.8012063779e-001	 3.5022792644e+000	 1.8538680737e-002
 5.4726627160e-001	 3.5075632037e+000	 4.5848631616e-002
 5.1446418603e-001	 3.5125242492e+000	 7.1225824421e-002
 4.8171864080e-001	 3.5171646466e+000	 9.5312173840e-002
 4.4903382702e-001	 3.5214867062e+000	 1.1875772779e-001
 4.1641386618e-001	 3.5254928013e+000	 1.4221693423e-001
 3.8386280932e-001	 3.5291853654e+000	 1.6634503207e-001
 3.5138463619e-001	 3.5325668907e+000	 1.9179457177e-001
 3.1898325453e-001	 3.5356399256e+000	 2.1921207035e-001
 6.5051791236e-001	 3.5153166921e+000	 1.4367053840e-001
 6.1734002033e-001	 3.5212946908e+000	-4.2399608345e-002
 5.8420599440e-001	 3.5269432028e+000	-4.5553544289e-003
 5.5112025943e-001	 3.5322643530e+000	 2.9326946289e-002
 5.1808717325e-001	 3.5372603355e+000	 5.9981583367e-002
 4.8511102560e-001	 3.5419334117e+000	 8.8154472784e-002
 4.5219603707e-001	 3.5462859084e+000	 1.1459914961e-001
 4.1934635820e-001	 3.5503202154e+000	 1.4007288384e-001
 3.8656606854e-001	 3.5540387835e+000	 1.6533292564e-001
 3.5385917588e-001	 3.5574441224e+000	 1.9113288549e-001
 3.2122961548e-001	 3.5605387983e+000	 2.1821925435e-001
 6.5506698867e-001	 3.5398993263e+000	 1.4468922934e-001
 6.2165708341e-001	 3.5459191292e+000	-6.8103893048e-002
 5.8829135100e-001	 3.5516071413e+000	-2.2591821571e-002
 5.5497424726e-001	 3.5569655023e+000	 1.7550932829e-002
 5.2171016048e-001	 3.5619964217e+000	 5.3164179204e-002
 4.8850341040e-001	 3.5667021768e+000	 8.5098988733e-002
 4.5535824712e-001	 3.5710851106e+000	 1.1421352953e-001
 4.2227885021e-001	 3.5751476295e+000	 1.4136902972e-001
 3.8926932776e-001	 3.5788922016e+000	 1.6742587518e-001
 3.5633371558e-001	 3.5823213540e+000	 1.9323984768e-001
 3.2347597643e-001	 3.5854376710e+000	 2.1965850846e-001
 6.5961606499e-001	 3.5644819605e+000	 1.4880917839e-001
 6.2597414649e-001	 3.5705435676e+000	-7.9578611079e-002
 5.9237670761e-001	 3.5762710798e+000	-3.4992142942e-002
 5.5882823509e-001	 3.5816666517e+000	 1.1051605425e-002
 5.2533314771e-001	 3.5867325080e+000	 5.1256837404e-002
 4.9189579519e-001	 3.5914709419e+000	 8.6580961434e-002
 4.5852045717e-001	 3.5958843127e+000	 1.1798795247e-001
 4.2521134223e-001	 3.5999750436e+000	 1.4644416045e-001
 3.9197258699e-001	 3.6037456196e+000	 1.7291425880e-001
 3.5880825527e-001	 3.6071985856e+000	 1.9835733877e-001
 3.2572233738e-001	 3.6103365437e+000	 2.2372315492e-001
 6.6416514130e-001	 3.5890645947e+000	 1.5600487956e-001
 6.3029120957e-001	 3.5951680060e+000	-5.7576891135e-002
 5.9646206422e-001	 3.6009350183e+000	-4.1180840923e-002
 5.6268222292e-001	 3.6063678010e+000	 1.0357478293e-002
 5.2895613494e-001	 3.6114685943e+000	 5.4740886606e-002
 4.9528817999e-001	 3.6162397070e+000	 9.3034339650e-002
 4.6168266723e-001	 3.6206835149e+000	 1.2630882064e-001
 4.2814383425e-001	 3.6248024577e+000	 1.5563699239e-001
 3.9467584621e-001	 3.6285990377e+000	 1.8208899473e-001
 3.6128279496e-001	 3.6320758172e+000	 2.0672839335e-001
 3.2796869832e-001	 3.6352354164e+000	 2.3060828553e-001
 6.6871421761e-001	 3.6136472289e+000	 1.6624668238e-001
 6.3460827265e-001	 3.6197924444e+000	-3.1149618548e-002
 6.0054742082e-001	 3.6255989568e+000	-4.0585432582e-002
 5.6653621075e-001	 3.6310689503e+000	 1.5994650712e-002
 5.3257912217e-001	 3.6362046805e+000	 6.4095823133e-002
 4.9868056479e-001	 3.6410084722e+000	 1.0489182507e-001
 4.6484487728e-001	 3.6454827170e+000	 1.3956187680e-001
 4.3107632627e-001	 3.6496298718e+000	 1.6928617214e-001
 3.9737910543e-001	 3.6534524558e+000	 1.9524152299e-001
 3.6375733466e-001	 3.6569530489e+000	 2.1859716093e-001
 3.3021505927e-001	 3.6601342892e+000	 2.4051070147e-001
 6.7326329392e-001	 3.6382298631e+000	 1.7950093194e-001
 6.3892533573e-001	 3.6444168828e+000	-3.4108304978e-004
 6.0463277743e-001	 3.6502628952e+000	-3.2636328497e-002
 5.7039019858e-001	 3.6557700996e+000	 2.8486888606e-002
 5.3620210939e-001	 3.6609407668e+000	 7.9799372898e-002
 5.0207294958e-001	 3.6657772373e+000	 1.2258491445e-001
 4.6800708733e-001	 3.6702819192e+000	 1.5813222650e-001
 4.3400881828e-001	 3.6744572859e+000	 1.8773027887e-001
 4.0008236465e-001	 3.6783058738e+000	 2.1266378773e-001
 3.6623187435e-001	 3.6818302805e+000	 2.3420886824e-001
 3.3246142022e-001	 3.6850331619e+000	 2.5362885557e-001
 6.7781237024e-001	 3.6628124973e+000	 1.9573010325e-001
 6.4324239882e-001	 3.6690413212e+000	 3.4801090789e-002
 6.0871813404e-001	 3.6749268337e+000	-1.6766735660e-002
 5.7424418641e-001	 3.6804712489e+000	 4.8355702846e-002
 5.3982509662e-001	 3.6856768530e+000	 1.0232755081e-001
 5.0546533438e-001	 3.6905460024e+000	 1.4654394001e-001
 4.7116929738e-001	 3.6950811213e+000	 1.8240435947e-001
 4.3694131030e-001	 3.6992847000e+000	 2.1130782658e-001
 4.0278562387e-001	 3.7031592919e+000	 2.3464822033e-001
 3.6870641404e-001	 3.7067075121e+000	 2.5380978310e-001
 3.3470778117e-001	 3.7099320346e+000	 2.7016279684e-001
 6.8236144655e-001	 3.6873951316e+000	 2.1489293023e-001
 6.4755946190e-001	 3.6936657595e+000	 7.4226054721e-002
 6.1280349065e-001	 3.6995907722e+000	 7.5874357348e-003
 5.7809817425e-001	 3.7051723983e+000	 7.6120424420e-002
 5.4344808385e-001	 3.7104129393e+000	 1.3215471781e-001
 5.0885771918e-001	 3.7153147675e+000	 1.7719810833e-001
 4.7433150743e-001	 3.7198803235e+000	 2.1276217018e-001
 4.3987380232e-001	 3.7241121140e+000	 2.4035726631e-001
 4.0548888310e-001	 3.7280127100e+000	 2.6148772314e-001
 3.7118095373e-001	 3.7315847437e+000	 2.7764717973e-001
 3.3695414212e-001	 3.7348309073e+000	 2.9031411729e-001
 3.1449053264e-001	 3.4858421801e+000	 2.2772985071e-001
 2.8262499937e-001	 3.4885703533e+000	 2.0639768148e-001
 2.5084266574e-001	 3.4909995642e+000	 1.8647275917e-001
 2.1914716763e-001	 3.4931324794e+000	 1.6855004239e-001
 1.8754206761e-001	 3.4949718129e+000	 1.5320863579e-001
 1.5603085452e-001	 3.4965203235e+000	 1.4100923870e-001
 1.2461694309e-001	 3.4977808132e+000	 1.3249173875e-001
 9.3303673673e-002	 3.4987561253e+000	 1.2817295167e-001
 6.2094311944e-002	 3.4994491419e+000	 1.2854450792e-001
 3.0992048758e-002	 3.4998627820e+000	 1.3407088628e-001
 0.0000000000e+000	 3.5000000000e+000	 1.4518759429e-001
 3.1673689358e-001	 3.5107410529e+000	 2.2244546652e-001
 2.8464374937e-001	 3.5134887129e+000	 2.0466133811e-001
 2.5263439907e-001	 3.5159352753e+000	 1.8816007630e-001
 2.2071250454e-001	 3.5180834257e+000	 1.7361436222e-001
 1.8888165380e-001	 3.5199358973e+000	 1.6167952406e-001
 1.5714536062e-001	 3.5214954686e+000	 1.5299089625e-001
 1.2550706412e-001	 3.5227649619e+000	 1.4816132901e-001
 9.3970128485e-002	 3.5237472405e+000	 1.4777884952e-001
 6.2537842743e-002	 3.5244452072e+000	 1.5240447524e-001
 3.1213420535e-002	 3.5248618019e+000	 1.6257017958e-001
 0.0000000000e+000	 3.5250000000e+000	 1.7877700974e-001
 3.1898325453e-001	 3.5356399256e+000	 2.1921207035e-001
 2.8666249936e-001	 3.5384070726e+000	 2.0437676354e-001
 2.5442613239e-001	 3.5408709865e+000	 1.9069777013e-001
 2.2227784145e-001	 3.5430343720e+000	 1.7892666918e-001
 1.9022124000e-001	 3.5448999816e+000	 1.6979616734e-001
 1.5825986672e-001	 3.5464706138e+000	 1.6401736730e-001
 1.2639718514e-001	 3.5477491106e+000	 1.6227719202e-001
 9.4636583296e-002	 3.5487383557e+000	 1.6523596602e-001
 6.2981373542e-002	 3.5494412725e+000	 1.7352515430e-001
 3.1434792311e-002	 3.5498608218e+000	 1.8774525910e-001
 0.0000000000e+000	 3.5500000000e+000	 2.0846387413e-001
 3.2122961548e-001	 3.5605387983e+000	 2.1821925435e-001
 2.8868124936e-001	 3.5633254323e+000	 2.0569126638e-001
 2.5621786572e-001	 3.5658066977e+000	 1.9419094287e-001
 2.2384317836e-001	 3.5679853183e+000	 1.8454995829e-001
 1.9156082620e-001	 3.5698640660e+000	 1.7757957447e-001
 1.5937437283e-001	 3.5714457590e+000	 1.7406781678e-001
 1.2728730616e-001	 3.5727332592e+000	 1.7477681188e-001
 9.5303038108e-002	 3.5737294709e+000	 1.8044028791e-001
 6.3424904341e-002	 3.5744373378e+000	 1.9176123790e-001
 3.1656164088e-002	 3.5748598416e+000	 2.0940974650e-001
 0.0000000000e+000	 3.5750000000e+000	 2.3402097975e-001
 3.2347597643e-001	 3.5854376710e+000	 2.1965850846e-001
 2.9069999936e-001	 3.5882437919e+000	 2.0875450288e-001
 2.5800959905e-001	 3.5907424089e+000	 1.9874749270e-001
 2.2540851527e-001	 3.5929362646e+000	 1.9055046734e-001
 1.9290041239e-001	 3.5948281504e+000	 1.8505444197e-001
 1.6048887893e-001	 3.5964209041e+000	 1.8312554027e-001
 1.2817742718e-001	 3.5977174079e+000	 1.8560224424e-001
 9.5969492919e-002	 3.5987205860e+000	 1.9329281217e-001
 6.3868435141e-002	 3.5994334031e+000	 2.0697286533e-001
 3.1877535864e-002	 3.5998588615e+000	 2.2738314369e-001
 0.0000000000e+000	 3.6000000000e+000	 2.5522743020e-001
 3.2572233738e-001	 3.6103365437e+000	 2.2372315492e-001
 2.9271874935e-001	 3.6131621516e+000	 2.1371839593e-001
 2.5980133237e-001	 3.6156781200e+000	 2.0447801740e-001
 2.2697385218e-001	 3.6178872109e+000	 1.9699756500e-001
 1.9423999859e-001	 3.6197922348e+000	 1.9224902687e-001
 1.6160338503e-001	 3.6213960493e+000	 1.9117782158e-001
 1.2906754820e-001	 3.6227015566e+000	 1.9469995869e-001
 9.6635947731e-002	 3.6237117012e+000	 2.0369937321e-001
 6.4311965940e-002	 3.6244294683e+000	 2.1902543454e-001
 3.2098907641e-002	 3.6248578814e+000	 2.4149063004e-001
 0.0000000000e+000	 3.6250000000e+000	 2.7186842279e-001
 3.2796869832e-001	 3.6352354164e+000	 2.3060828553e-001
 2.9473749935e-001	 3.6380805113e+000	 2.2073705748e-001
 2.6159306570e-001	 3.6406138312e+000	 2.1149572188e-001
 2.2853918909e-001	 3.6428381571e+000	 2.0396364362e-001
 1.9557958479e-001	 3.6447563192e+000	 1.9919502477e-001
 1.6271789114e-001	 3.6463711945e+000	 1.9821579618e-001
 1.2995766922e-001	 3.6476857052e+000	 2.0202068756e-001
 9.7302402542e-002	 3.6487028164e+000	 2.1157047723e-001
 6.4755496739e-002	 3.6494255336e+000	 2.2778942208e-001
 3.2320279418e-002	 3.6498569012e+000	 2.5156286794e-001
 0.0000000000e+000	 3.6500000000e+000	 2.8373503984e-001
 3.3021505927e-001	 3.6601342892e+000	 2.4051070147e-001
 2.9675624934e-001	 3.6629988709e+000	 2.2996671404e-001
 2.6338479903e-001	 3.6655495424e+000	 2.1991632947e-001
 2.3010452601e-001	 3.6677891034e+000	 2.1152401642e-001
 1.9691917098e-001	 3.6697204035e+000	 2.0592745289e-001
 1.6383239724e-001	 3.6713463396e+000	 2.0423432015e-001
 1.3084779024e-001	 3.6726698539e+000	 2.0751928096e-001
 9.7968857353e-002	 3.6736939316e+000	 2.1682114332e-001
 6.5199027538e-002	 3.6744215989e+000	 2.3314021036e-001
 3.2541651194e-002	 3.6748559211e+000	 2.5743581634e-001
 0.0000000000e+000	 3.6750000000e+000	 2.9062404849e-001
 3.3246142022e-001	 3.6850331619e+000	 2.5362885557e-001
 2.9877499934e-001	 3.6879172306e+000	 2.4156563527e-001
 2.6517653235e-001	 3.6904852536e+000	 2.2985799690e-001
 2.3166986292e-001	 3.6927400497e+000	 2.1975681877e-001
 1.9825875718e-001	 3.6946844879e+000	 2.1248453786e-001
 1.6494690334e-001	 3.6963214848e+000	 2.0923184454e-001
 1.3173791127e-001	 3.6976540026e+000	 2.1115456765e-001
 9.8635312165e-002	 3.6986850468e+000	 2.1937075098e-001
 6.5642558337e-002	 3.6994176642e+000	 2.3495792186e-001
 3.2763022971e-002	 3.6998549410e+000	 2.5895055176e-001
 0.0000000000e+000	 3.7000000000e+000	 2.9233770867e-001
 3.3470778117e-001	 3.7099320346e+000	 2.7016279684e-001
 3.0079374934e-001	 3.7128355903e+000	 2.5569406542e-001
 2.6696826568e-001	 3.7154209647e+000	 2.4144123257e-001
 2.3323519983e-001	 3.7176909960e+000	 2.2874291349e-001
 1.9959834338e-001	 3.7196485723e+000	 2.1890760798e-001
 1.6606140945e-001	 3.7212966300e+000	 2.1321029467e-001
 1.3262803229e-001	 3.7226381512e+000	 2.1288922153e-001
 9.9301766976e-002	 3.7236761619e+000	 2.1914289380e-001
 6.6086089136e-002	 3.7244137295e+000	 2.3312726012e-001
 3.2984394747e-002	 3.7248539609e+000	 2.5595309663e-001
 0.0000000000e+000	 3.7250000000e+000	 2.8868358877e-001
 3.3695414212e-001	 3.7348309073e+000	 2.9031411729e-001
 3.0281249933e-001	 3.7377539499e+000	 2.7251415748e-001
 2.6875999901e-001	 3.7403566759e+000	 2.5478881825e-001
 2.3480053674e-001	 3.7426419423e+000	 2.3856579997e-001
 2.0093792957e-001	 3.7446126567e+000	 2.2524098990e-001
 1.6717591555e-001	 3.7462717751e+000	 2.1617495439e-001
 1.3351815331e-001	 3.7476222999e+000	 2.1268963347e-001
 9.9968221788e-002	 3.7486672771e+000	 2.1606523899e-001
 6.6529619936e-002	 3.7494097948e+000	 2.2753735702e-001
 3.3205766524e-002	 3.7498529807e+000	 2.4829425434e-001
 0.0000000000e+000	 3.7500000000e+000	 2.7947438867e-001
 3.7500000000e+000	 0.0000000000e+000	 8.3555632285e-001
 3.7498529807e+000	 3.3205766524e-002	 8.5309430705e-001
 3.7494097948e+000	 6.6529619936e-002	 8.6959311995e-001
 3.7486672771e+000	 9.9968221788e-002	 8.8426134752e-001
 3.7476222999e+000	 1.3351815331e-001	 8.9642753687e-001
 3.7462717751e+000	 1.6717591555e-001	 9.0554464678e-001
 3.7446126567e+000	 2.0093792957e-001	 9.1119436310e-001
 3.7426419423e+000	 2.3480053674e-001	 9.1309126443e-001
 3.7403566759e+000	 2.6875999901e-001	 9.1108682338e-001
 3.7377539499e+000	 3.0281249933e-001	 9.0517322826e-001
 3.7348309073e+000	 3.3695414212e-001	 8.9548701064e-001
 3.7750000000e+000	 0.0000000000e+000	 8.3286646142e-001
 3.7748520006e+000	 3.3427138301e-002	 8.4710330087e-001
 3.7744058601e+000	 6.6973150735e-002	 8.5432001560e-001
 3.7736583923e+000	 1.0063467660e-001	 8.5547653959e-001
 3.7726064486e+000	 1.3440827433e-001	 8.5147883570e-001
 3.7712469203e+000	 1.6829042165e-001	 8.4317633867e-001
 3.7695767410e+000	 2.0227751577e-001	 8.3135945667e-001
 3.7675928885e+000	 2.3636587365e-001	 8.1675713869e-001
 3.7652923871e+000	 2.7055173233e-001	 8.0003451542e-001
 3.7626723096e+000	 3.0483124933e-001	 7.8179062136e-001
 3.7597297800e+000	 3.3920050307e-001	 7.6255620569e-001
 3.8000000000e+000	 0.0000000000e+000	 8.3031087391e-001
 3.7998510205e+000	 3.3648510077e-002	 8.4454971341e-001
 3.7994019254e+000	 6.7416681534e-002	 8.5200136975e-001
 3.7986495075e+000	 1.0130113141e-001	 8.5362132100e-001
 3.7975905972e+000	 1.3529839535e-001	 8.5030949154e-001
 3.7962220655e+000	 1.6940492775e-001	 8.4290765809e-001
 3.7945408254e+000	 2.0361710197e-001	 8.3219691624e-001
 3.7925438348e+000	 2.3793121056e-001	 8.1889521512e-001
 3.7902280982e+000	 2.7234346566e-001	 8.0365496805e-001
 3.7875906693e+000	 3.0684999932e-001	 7.8706074686e-001
 3.7846286527e+000	 3.4144686401e-001	 7.6962706784e-001
 3.8250000000e+000	 0.0000000000e+000	 8.2781534233e-001
 3.8248500403e+000	 3.3869881854e-002	 8.4165065434e-001
 3.8243979907e+000	 6.7860212333e-002	 8.4896235275e-001
 3.8236406227e+000	 1.0196758622e-001	 8.5070176132e-001
 3.8225747459e+000	 1.3618851637e-001	 8.4776303628e-001
 3.8211972106e+000	 1.7051943386e-001	 8.4098053426e-001
 3.8195049098e+000	 2.0495668816e-001	 8.3112624293e-001
 3.8174947811e+000	 2.3949654747e-001	 8.1890728205e-001
 3.8151638094e+000	 2.7413519899e-001	 8.0496348287e-001
 3.8125090289e+000	 3.0886874932e-001	 7.8986505399e-001
 3.8095275254e+000	 3.4369322496e-001	 7.7411034138e-001
 3.8500000000e+000	 0.0000000000e+000	 8.2530757648e-001
 3.8498490602e+000	 3.4091253630e-002	 8.3834375671e-001
 3.8493940560e+000	 6.8303743132e-002	 8.4515067366e-001
 3.8486317379e+000	 1.0263404103e-001	 8.4667579513e-001
 3.8475588946e+000	 1.3707863739e-001	 8.4380777593e-001
 3.8461723558e+000	 1.7163393996e-001	 8.3737378675e-001
 3.8444689942e+000	 2.0629627436e-001	 8.2813690793e-001
 3.8424457274e+000	 2.4106188438e-001	 8.1679359595e-001
 3.8400995206e+000	 2.7592693231e-001	 8.0397123073e-001
 3.8374273886e+000	 3.1088749931e-001	 7.9022575207e-001
 3.8344263981e+000	 3.4593958591e-001	 7.7603939305e-001
 3.8750000000e+000	 0.0000000000e+000	 8.2271715168e-001
 3.8748480801e+000	 3.4312625407e-002	 8.3456836960e-001
 3.8743901213e+000	 6.8747273931e-002	 8.4051561114e-001
 3.8736228530e+000	 1.0330049584e-001	 8.4150278329e-001
 3.8725430432e+000	 1.3796875842e-001	 8.3841330274e-001
 3.8711475010e+000	 1.7274844606e-001	 8.3206738467e-001
 3.8694330785e+000	 2.0763586056e-001	 8.2321939868e-001
 3.8673966737e+000	 2.4262722129e-001	 8.1255529978e-001
 3.8650352318e+000	 2.7771866564e-001	 8.0069014275e-001
 3.8623457483e+000	 3.1290624931e-001	 7.8816568823e-001
 3.8593252709e+000	 3.4818594685e-001	 7.7544810871e-001
 3.9000000000e+000	 0.0000000000e+000	 8.1997544902e-001
 3.8998471000e+000	 3.4533997183e-002	 8.3026550314e-001
 3.8993861866e+000	 6.9190804730e-002	 8.3500796312e-001
 3.8986139682e+000	 1.0396695066e-001	 8.3514346725e-001
 3.8975271919e+000	 1.3885887944e-001	 8.3155045400e-001
 3.8961226461e+000	 1.7386295217e-001	 8.2504240983e-001
 3.8943971629e+000	 2.0897544675e-001	 8.1636518629e-001
 3.8923476199e+000	 2.4419255820e-001	 8.0619439457e-001
 3.8899709429e+000	 2.7951039896e-001	 7.9513288600e-001
 3.8872641079e+000	 3.1492499930e-001	 7.8370832697e-001
 3.8842241436e+000	 3.5043230780e-001	 7.7237087664e-001
 3.9250000000e+000	 0.0000000000e+000	 8.1701559785e-001
 3.9248461198e+000	 3.4755368960e-002	 8.2537777556e-001
 3.9243822519e+000	 6.9634335529e-002	 8.2857999844e-001
 3.9236050834e+000	 1.0463340547e-001	 8.2755992507e-001
 3.9225113406e+000	 1.3974900046e-001	 8.2319127237e-001
 3.9210977913e+000	 1.7497745827e-001	 8.1628102132e-001
 3.9193612473e+000	 2.1031503295e-001	 8.0756669426e-001
 3.9172985662e+000	 2.4575789511e-001	 7.9771371210e-001
 3.9149066541e+000	 2.8130213229e-001	 7.8731284006e-001
 3.9121824676e+000	 3.1694374929e-001	 7.7687773050e-001
 3.9091230163e+000	 3.5267866874e-001	 7.6684257156e-001
 3.9500000000e+000	 0.0000000000e+000	 8.1377242042e-001
 3.9498451397e+000	 3.4976740737e-002	 8.1984936238e-001
 3.9493783172e+000	 7.0077866328e-002	 8.2118541027e-001
 3.9485961986e+000	 1.0529986028e-001	 8.1871552914e-001
 3.9474954892e+000	 1.4063912148e-001	 8.1330896776e-001
 3.9460729365e+000	 1.7609196437e-001	 8.0576642139e-001
 3.9443253317e+000	 2.1165461914e-001	 7.9681726829e-001
 3.9422495125e+000	 2.4732323202e-001	 7.8711688861e-001
 3.9398423653e+000	 2.8309386561e-001	 7.7724407445e-001
 3.9371008273e+000	 3.1896249929e-001	 7.6769853981e-001
 3.9340218890e+000	 3.5492502969e-001	 7.5889853927e-001
 3.9750000000e+000	 0.0000000000e+000	 8.1018237871e-001
 3.9748441596e+000	 3.5198112513e-002	 8.1362594736e-001
 3.9743743825e+000	 7.0521397127e-002	 8.1277927136e-001
 3.9735873138e+000	 1.0596631509e-001	 8.0857490545e-001
 3.9724796379e+000	 1.4152924250e-001	 8.0187788059e-001
 3.9710480817e+000	 1.7720647047e-001	 7.9348282267e-001
 3.9692894161e+000	 2.1299420534e-001	 7.8411114731e-001
 3.9672004588e+000	 2.4888856893e-001	 7.7440833947e-001
 3.9647780764e+000	 2.8488559894e-001	 7.6494132694e-001
 3.9620191869e+000	 3.2098124928e-001	 7.5619595648e-001
 3.9589207617e+000	 3.5717139063e-001	 7.4857458177e-001
 4.0000000000e+000	 0.0000000000e+000	 8.0618352313e-001
 3.9998431794e+000	 3.5419484290e-002	 8.0665467542e-001
 3.9993704478e+000	 7.0964927926e-002	 8.0331799089e-001
 3.9985784289e+000	 1.0663276990e-001	 7.9710389444e-001
 3.9974637866e+000	 1.4241936352e-001	 7.8887344648e-001
 3.9960232268e+000	 1.7832097657e-001	 7.7941541658e-001
 3.9942535004e+000	 2.1433379153e-001	 7.6944343556e-001
 3.9921514051e+000	 2.5045390584e-001	 7.5959323490e-001
 3.9897137876e+000	 2.8667733226e-001	 7.5041998269e-001
 3.9869375466e+000	 3.2299999927e-001	 7.4239572518e-001
 3.9838196344e+000	 3.5941775158e-001	 7.3590694306e-001
 3.7348309073e+000	 3.3695414212e-001	 8.9548701064e-001
 3.7315847437e+000	 3.7118095373e-001	 8.9176826928e-001
 3.7280127100e+000	 4.0548888310e-001	 8.8406002294e-001
 3.7241121140e+000	 4.3987380232e-001	 8.7292789278e-001
 3.7198803235e+000	 4.7433150743e-001	 8.5909430226e-001
 3.7153147675e+000	 5.0885771918e-001	 8.4344093420e-001
 3.7104129393e+000	 5.4344808385e-001	 8.2701090553e-001
 3.7051723983e+000	 5.7809817425e-001	 8.1101064584e-001
 3.6995907722e+000	 6.1280349065e-001	 7.9681146580e-001
 3.6936657595e+000	 6.4755946190e-001	 7.6016383877e-001
 3.6873951316e+000	 6.8236144655e-001	 7.2641860422e-001
 3.7597297800e+000	 3.3920050307e-001	 7.6255620569e-001
 3.7564619753e+000	 3.7365549343e-001	 7.5166597209e-001
 3.7528661280e+000	 4.0819214232e-001	 7.3921829518e-001
 3.7489395281e+000	 4.4280629434e-001	 7.3199029507e-001
 3.7446795256e+000	 4.7749371748e-001	 7.3893225961e-001
 3.7400835326e+000	 5.1225010397e-001	 7.4069136830e-001
 3.7351490256e+000	 5.4707107108e-001	 7.3831517831e-001
 3.7298735476e+000	 5.8195216208e-001	 7.3301990726e-001
 3.7242547107e+000	 6.1688884725e-001	 7.2619208381e-001
 3.7182901979e+000	 6.5187652498e-001	 6.9300553233e-001
 3.7119777658e+000	 6.8691052287e-001	 6.6796180439e-001
 3.7846286527e+000	 3.4144686401e-001	 7.6962706784e-001
 3.7813392070e+000	 3.7613003312e-001	 7.6011040219e-001
 3.7777195461e+000	 4.1089540154e-001	 7.4867696933e-001
 3.7737669422e+000	 4.4573878635e-001	 7.3558824168e-001
 3.7694787278e+000	 4.8065592754e-001	 7.2102873631e-001
 3.7648522977e+000	 5.1564248877e-001	 7.0510442163e-001
 3.7598851118e+000	 5.5069405831e-001	 6.8784126225e-001
 3.7545746969e+000	 5.8580614991e-001	 6.6918390914e-001
 3.7489186492e+000	 6.2097420386e-001	 6.5253223832e-001
 3.7429146363e+000	 6.5619358806e-001	 6.2384185236e-001
 3.7365604000e+000	 6.9145959918e-001	 6.0750340504e-001
 3.8095275254e+000	 3.4369322496e-001	 7.7411034138e-001
 3.8062164386e+000	 3.7860457281e-001	 7.6589845812e-001
 3.8025729642e+000	 4.1359866076e-001	 7.5544883034e-001
 3.7985943563e+000	 4.4867127837e-001	 7.4299774581e-001
 3.7942779299e+000	 4.8381813759e-001	 7.2870299957e-001
 3.7896210628e+000	 5.1903487357e-001	 7.1264230155e-001
 3.7846211981e+000	 5.5431704553e-001	 6.9481182570e-001
 3.7792758462e+000	 5.8966013774e-001	 6.7512490807e-001
 3.7735825876e+000	 6.2505956047e-001	 6.5335618212e-001
 3.7675390747e+000	 6.6051065114e-001	 6.0648814290e-001
 3.7611430342e+000	 6.9600867549e-001	 5.7677236245e-001
 3.8344263981e+000	 3.4593958591e-001	 7.7603939305e-001
 3.8310936702e+000	 3.8107911250e-001	 7.6907437137e-001
 3.8274263822e+000	 4.1630191998e-001	 7.5958896091e-001
 3.8234217704e+000	 4.5160377038e-001	 7.4779425593e-001
 3.8190771321e+000	 4.8698034763e-001	 7.3382127799e-001
 3.8143898280e+000	 5.2242725836e-001	 7.1771938373e-001
 3.8093572843e+000	 5.5794003276e-001	 6.9945481772e-001
 3.8039769955e+000	 5.9351412557e-001	 6.7890941793e-001
 3.7982465261e+000	 6.2914491707e-001	 6.5269482085e-001
 3.7921635131e+000	 6.6482771422e-001	 6.0989728663e-001
 3.7857256684e+000	 7.0055775180e-001	 5.8308406556e-001
 3.8593252709e+000	 3.4818594685e-001	 7.7544810871e-001
 3.8559709018e+000	 3.8355365219e-001	 7.6968278815e-001
 3.8522798003e+000	 4.1900517920e-001	 7.6115276111e-001
 3.8482491845e+000	 4.5453626240e-001	 7.5004391256e-001
 3.8438763342e+000	 4.9014255768e-001	 7.3646043195e-001
 3.8391585931e+000	 5.2581964315e-001	 7.2042322046e-001
 3.8340933706e+000	 5.6156301998e-001	 7.0186844697e-001
 3.8286781449e+000	 5.9736811339e-001	 6.8064626029e-001
 3.8229104646e+000	 6.3323027367e-001	 6.5135706676e-001
 3.8167879515e+000	 6.6914477730e-001	 6.1251540794e-001
 3.8103083026e+000	 7.0510682811e-001	 5.8850560435e-001
 3.8842241436e+000	 3.5043230780e-001	 7.7237087664e-001
 3.8808481335e+000	 3.8602819188e-001	 7.6776875604e-001
 3.8771332183e+000	 4.2170843842e-001	 7.6019593817e-001
 3.8730765986e+000	 4.5746875441e-001	 7.4981307613e-001
 3.8686755364e+000	 4.9330476773e-001	 7.3669746156e-001
 3.8639273582e+000	 5.2921202794e-001	 7.2084143072e-001
 3.8588294569e+000	 5.6518600721e-001	 7.0215092293e-001
 3.8533792942e+000	 6.0122210122e-001	 6.8044419909e-001
 3.8475744031e+000	 6.3731563028e-001	 6.4934789260e-001
 3.8414123899e+000	 6.7346184038e-001	 6.1434923806e-001
 3.8348909368e+000	 7.0965590442e-001	 5.9304518547e-001
 3.9091230163e+000	 3.5267866874e-001	 7.6684257156e-001
 3.9057253651e+000	 3.8850273157e-001	 7.6337771126e-001
 3.9019866364e+000	 4.2441169764e-001	 7.5677449676e-001
 3.8979040127e+000	 4.6040124642e-001	 7.4716832001e-001
 3.8934747386e+000	 4.9646697778e-001	 7.3460950219e-001
 3.8886961233e+000	 5.3260441274e-001	 7.1906169798e-001
 3.8835655431e+000	 5.6880899443e-001	 7.0040045588e-001
 3.8780804435e+000	 6.0507608904e-001	 6.7841194241e-001
 3.8722383416e+000	 6.4140098688e-001	 6.4667216586e-001
 3.8660368283e+000	 6.7777890346e-001	 6.1540536082e-001
 3.8594735710e+000	 7.1420498073e-001	 5.9671083337e-001
 3.9340218890e+000	 3.5492502969e-001	 7.5889853927e-001
 3.9306025967e+000	 3.9097727126e-001	 7.5655546632e-001
 3.9268400545e+000	 4.2711495685e-001	 7.5094472953e-001
 3.9227314268e+000	 4.6333373843e-001	 7.4217642374e-001
 3.9182739407e+000	 4.9962918782e-001	 7.3027382017e-001
 3.9134648884e+000	 5.3599679753e-001	 7.1517176819e-001
 3.9083016294e+000	 5.7243198165e-001	 6.9671525686e-001
 3.9027815928e+000	 6.0893007687e-001	 6.7465814427e-001
 3.8969022800e+000	 6.4548634348e-001	 6.4333465208e-001
 3.8906612667e+000	 6.8209596653e-001	 6.1569021733e-001
 3.8840562052e+000	 7.1875405704e-001	 5.9951039607e-001
 3.9589207617e+000	 3.5717139063e-001	 7.4857458177e-001
 3.9554798283e+000	 3.9345181095e-001	 7.4734819825e-001
 3.9516934725e+000	 4.2981821607e-001	 7.4276320808e-001
 3.9475588409e+000	 4.6626623045e-001	 7.3490436658e-001
 3.9430731429e+000	 5.0279139787e-001	 7.2376780874e-001
 3.9382336535e+000	 5.3938918232e-001	 7.0925944784e-001
 3.9330377156e+000	 5.7605496887e-001	 6.9119353764e-001
 3.9274827422e+000	 6.1278406469e-001	 6.6929140635e-001
 3.9215662185e+000	 6.4957170008e-001	 6.3934001810e-001
 3.9152857051e+000	 6.8641302961e-001	 6.1521011040e-001
 3.9086388394e+000	 7.2330313334e-001	 6.0145155073e-001
 3.9838196344e+000	 3.5941775158e-001	 7.3590694306e-001
 3.9803570600e+000	 3.9592635063e-001	 7.3580243713e-001
 3.9765468906e+000	 4.3252147529e-001	 7.3228677422e-001
 3.9723862550e+000	 4.6919872246e-001	 7.2541932122e-001
 3.9678723450e+000	 5.0595360791e-001	 7.1516898398e-001
 3.9630024187e+000	 5.4278156711e-001	 7.0141260200e-001
 3.9577738019e+000	 5.7967795609e-001	 6.8393351073e-001
 3.9521838915e+000	 6.1663805252e-001	 6.6242027958e-001
 3.9462301570e+000	 6.5365705668e-001	 6.3469283512e-001
 3.9399101435e+000	 6.9073009268e-001	 6.1397120894e-001
 3.9332214737e+000	 7.2785220965e-001	 6.0254180895e-001
 3.6873951316e+000	 6.8236144655e-001	 7.2641860422e-001
 3.6807767345e+000	 7.1720473409e-001	 7.1783448075e-001
 3.6738084919e+000	 7.5208454618e-001	 7.0587507628e-001
 3.6664884066e+000	 7.8699603810e-001	 6.9054570587e-001
 3.6588145630e+000	 8.2193430012e-001	 6.7186871626e-001
 3.6507851289e+000	 8.5689435901e-001	 6.4988393101e-001
 3.6423983581e+000	 8.9187117966e-001	 6.2464906929e-001
 3.6336525918e+000	 9.2685966671e-001	 5.9624013636e-001
 3.6245462614e+000	 9.6185466627e-001	 5.6475178402e-001
 3.6150778896e+000	 9.9685096773e-001	 5.3029763920e-001
 3.6052460932e+000	 1.0318433056e+000	 4.9301059902e-001
 3.7119777658e+000	 6.8691052287e-001	 6.6796180439e-001
 3.7053152461e+000	 7.2198609898e-001	 6.6477944919e-001
 3.6983005485e+000	 7.5709844316e-001	 6.5790533913e-001
 3.6909316627e+000	 7.9224267836e-001	 6.4734635152e-001
 3.6832066601e+000	 8.2741386212e-001	 6.3312698945e-001
 3.6751236964e+000	 8.6260698807e-001	 6.1528983873e-001
 3.6666810138e+000	 8.9781698753e-001	 5.9389599758e-001
 3.6578769425e+000	 9.3303873116e-001	 5.6902547723e-001
 3.6487099031e+000	 9.6826703071e-001	 5.4077757156e-001
 3.6391784089e+000	 1.0034966409e+000	 5.0927119397e-001
 3.6292810672e+000	 1.0387222610e+000	 4.7464517973e-001
 3.7365604000e+000	 6.9145959918e-001	 6.0750340504e-001
 3.7298537576e+000	 7.2676746388e-001	 6.0990910362e-001
 3.7227926051e+000	 7.6211234014e-001	 6.0830262971e-001
 3.7153749187e+000	 7.9748931862e-001	 6.0269232788e-001
 3.7075987571e+000	 8.3289342413e-001	 5.9310476851e-001
 3.6994622640e+000	 8.6831961714e-001	 5.7958521669e-001
 3.6909636695e+000	 9.0376279540e-001	 5.6219807309e-001
 3.6821012931e+000	 9.3921779561e-001	 5.4102728483e-001
 3.6728735449e+000	 9.7467939516e-001	 5.1617672457e-001
 3.6632789282e+000	 1.0101423140e+000	 4.8777053584e-001
 3.6533160411e+000	 1.0456012164e+000	 4.5595344285e-001
 3.7611430342e+000	 6.9600867549e-001	 5.7677236245e-001
 3.7543922692e+000	 7.3154882878e-001	 5.6480869661e-001
 3.7472846618e+000	 7.6712623712e-001	 5.5709744846e-001
 3.7398181748e+000	 8.0273595887e-001	 5.5661249115e-001
 3.7319908542e+000	 8.3837298613e-001	 5.5182917422e-001
 3.7238008315e+000	 8.7403224620e-001	 5.4279535925e-001
 3.7152463252e+000	 9.0970860326e-001	 5.2957867295e-001
 3.7063256437e+000	 9.4539686005e-001	 5.1226692858e-001
 3.6970371866e+000	 9.8109175960e-001	 4.9096851469e-001
 3.6873794474e+000	 1.0167879871e+000	 4.6581274907e-001
 3.6773510151e+000	 1.0524801718e+000	 4.3695019629e-001
 3.7857256684e+000	 7.0055775180e-001	 5.8308406556e-001
 3.7789307808e+000	 7.3633019367e-001	 5.7149470716e-001
 3.7717767184e+000	 7.7214013409e-001	 5.5748460118e-001
 3.7642614308e+000	 8.0798259913e-001	 5.4110804182e-001
 3.7563829513e+000	 8.4385254813e-001	 5.2241853593e-001
 3.7481393990e+000	 8.7974487526e-001	 5.0494565526e-001
 3.7395289810e+000	 9.1565441113e-001	 4.9606133024e-001
 3.7305499943e+000	 9.5157592450e-001	 4.8276599610e-001
 3.7212008284e+000	 9.8750412404e-001	 4.6517249471e-001
 3.7114799667e+000	 1.0234336602e+000	 4.4341526278e-001
 3.7013859890e+000	 1.0593591271e+000	 4.1765065716e-001
 3.8103083026e+000	 7.0510682811e-001	 5.8850560435e-001
 3.8034692923e+000	 7.4111155856e-001	 5.7736914972e-001
 3.7962687750e+000	 7.7715403107e-001	 5.6372403787e-001
 3.7887046868e+000	 8.1322923938e-001	 5.4762886464e-001
 3.7807750484e+000	 8.4933211013e-001	 5.2914154690e-001
 3.7724779665e+000	 8.8545750432e-001	 5.0831924676e-001
 3.7638116367e+000	 9.2160021899e-001	 4.8521829757e-001
 3.7547743449e+000	 9.5775498894e-001	 4.5989413176e-001
 3.7453644701e+000	 9.9391648849e-001	 4.3880848955e-001
 3.7355804860e+000	 1.0300793333e+000	 4.2059583981e-001
 3.7254209630e+000	 1.0662380825e+000	 3.9807043860e-001
 3.8348909368e+000	 7.0965590442e-001	 5.9304518547e-001
 3.8280078039e+000	 7.4589292346e-001	 5.8243830313e-001
 3.8207608316e+000	 7.8216792804e-001	 5.6923686886e-001
 3.8131479429e+000	 8.1847587964e-001	 5.5350375398e-001
 3.8051671455e+000	 8.5481167213e-001	 5.3530125718e-001
 3.7968165341e+000	 8.9117013338e-001	 5.1469102661e-001
 3.7880942924e+000	 9.2754602686e-001	 4.9173398353e-001
 3.7789986955e+000	 9.6393405339e-001	 4.6649024787e-001
 3.7695281119e+000	 1.0003288529e+000	 4.3901906568e-001
 3.7596810052e+000	 1.0367250065e+000	 4.0937873889e-001
 3.7494559369e+000	 1.0731170379e+000	 3.7822553707e-001
 3.8594735710e+000	 7.1420498073e-001	 5.9671083337e-001
 3.8525463155e+000	 7.5067428835e-001	 5.8670831609e-001
 3.8452528882e+000	 7.8718182501e-001	 5.7402734353e-001
 3.8375911989e+000	 8.2372251989e-001	 5.5873503683e-001
 3.8295592426e+000	 8.6029123413e-001	 5.4089804887e-001
 3.8211551016e+000	 8.9688276244e-001	 5.2058248414e-001
 3.8123769481e+000	 9.3349183472e-001	 4.9785382019e-001
 3.8032230461e+000	 9.7011311783e-001	 4.7277683068e-001
 3.7936917536e+000	 1.0067412174e+000	 4.4541551036e-001
 3.7837815245e+000	 1.0433706796e+000	 4.1583300215e-001
 3.7734909109e+000	 1.0799959932e+000	 3.8409152641e-001
 3.8840562052e+000	 7.1875405704e-001	 5.9951039607e-001
 3.8770848270e+000	 7.5545565324e-001	 5.9018521132e-001
 3.8697449448e+000	 7.9219572198e-001	 5.7809963643e-001
 3.8620344550e+000	 8.2896916014e-001	 5.6332501726e-001
 3.8539513397e+000	 8.6577079613e-001	 5.4593233373e-001
 3.8454936691e+000	 9.0259539150e-001	 5.2599211759e-001
 3.8366596038e+000	 9.3943764258e-001	 5.0357437150e-001
 3.8274473967e+000	 9.7629218228e-001	 4.7874848974e-001
 3.8178553953e+000	 1.0131535818e+000	 4.5158318064e-001
 3.8078820438e+000	 1.0500163527e+000	 4.2214639094e-001
 3.7975258849e+000	 1.0868749486e+000	 3.9050523235e-001
 3.9086388394e+000	 7.2330313334e-001	 6.0145155073e-001
 3.9016233386e+000	 7.6023701813e-001	 5.9287488948e-001
 3.8942370014e+000	 7.9720961895e-001	 5.8145784963e-001
 3.8864777110e+000	 8.3421580039e-001	 5.6727597711e-001
 3.8783434368e+000	 8.7125035813e-001	 5.5040455228e-001
 3.8698322366e+000	 9.0830802055e-001	 5.3091850552e-001
 3.8609422596e+000	 9.4538345045e-001	 5.0889233406e-001
 3.8516717474e+000	 9.8247124672e-001	 4.8440002020e-001
 3.8420190371e+000	 1.0195659463e+000	 4.5751495127e-001
 3.8319825630e+000	 1.0566620258e+000	 4.2830984132e-001
 3.8215608588e+000	 1.0937539040e+000	 3.9685665484e-001
 3.9332214737e+000	 7.2785220965e-001	 6.0254180895e-001
 3.9261618501e+000	 7.6501838302e-001	 5.9478313300e-001
 3.9187290581e+000	 8.0222351592e-001	 5.8410601498e-001
 3.9109209671e+000	 8.3946244064e-001	 5.7059017670e-001
 3.9027355338e+000	 8.7672992013e-001	 5.5431517287e-001
 3.8941708042e+000	 9.1402064961e-001	 5.3536030439e-001
 3.8852249153e+000	 9.5132925831e-001	 5.1380453299e-001
 3.8758960980e+000	 9.8865031116e-001	 4.8972639699e-001
 3.8661826788e+000	 1.0259783107e+000	 4.6320392870e-001
 3.8560830823e+000	 1.0633076989e+000	 4.3431457348e-001
 3.8455958328e+000	 1.1006328594e+000	 4.0313511067e-001
 3.6052460932e+000	 1.0318433056e+000	 4.9301059902e-001
 3.5950495844e+000	 1.0668263616e+000	 4.6336062464e-001
 3.5844871729e+000	 1.1017947664e+000	 4.3293070277e-001
 3.5735577679e+000	 1.1367431019e+000	 4.0196641163e-001
 3.5622603795e+000	 1.1716659033e+000	 3.7073263907e-001
 3.5505941207e+000	 1.2065576614e+000	 3.3951361892e-001
 3.5385582090e+000	 1.2414128249e+000	 3.0861292443e-001
 3.5261519680e+000	 1.2762258024e+000	 2.6918268896e-001
 3.5133748290e+000	 1.3109909654e+000	 2.2908473188e-001
 3.5002263323e+000	 1.3457026502e+000	 1.9171395722e-001
 3.4867061290e+000	 1.3803551609e+000	 1.5726897719e-001
 3.6292810672e+000	 1.0387222610e+000	 4.7464517973e-001
 3.6190165816e+000	 1.0739385374e+000	 4.4831124319e-001
 3.6083837541e+000	 1.1091400648e+000	 4.2091376092e-001
 3.5973814863e+000	 1.1443213892e+000	 3.9269908191e-001
 3.5860087820e+000	 1.1794770093e+000	 3.6393343961e-001
 3.5742647481e+000	 1.2146013792e+000	 3.3490299584e-001
 3.5621485970e+000	 1.2496889104e+000	 3.0591384075e-001
 3.5496596478e+000	 1.2847339744e+000	 2.6555321305e-001
 3.5367973278e+000	 1.3197309052e+000	 2.2745925403e-001
 3.5235611745e+000	 1.3546740012e+000	 1.9193715269e-001
 3.5099508365e+000	 1.3895575286e+000	 1.5918722264e-001
 3.6533160411e+000	 1.0456012164e+000	 4.5595344285e-001
 3.6429835788e+000	 1.0810507131e+000	 4.3291341656e-001
 3.6322803352e+000	 1.1164853633e+000	 4.0852137708e-001
 3.6212052048e+000	 1.1518996766e+000	 3.8302448795e-001
 3.6097571845e+000	 1.1872881153e+000	 3.5669038071e-001
 3.5979353756e+000	 1.2226450969e+000	 3.2980720645e-001
 3.5857389851e+000	 1.2579649959e+000	 2.9986628433e-001
 3.5731673276e+000	 1.2932421464e+000	 2.6151216722e-001
 3.5602198267e+000	 1.3284708449e+000	 2.2537936868e-001
 3.5468960167e+000	 1.3636453522e+000	 1.9166157702e-001
 3.5331955441e+000	 1.3987598963e+000	 1.6056087895e-001
 3.6773510151e+000	 1.0524801718e+000	 4.3695019629e-001
 3.6669505761e+000	 1.0881628888e+000	 4.1718283219e-001
 3.6561769164e+000	 1.1238306617e+000	 3.9577003594e-001
 3.6450289232e+000	 1.1594779639e+000	 3.7295982887e-001
 3.6335055871e+000	 1.1950992213e+000	 3.4902129271e-001
 3.6216060031e+000	 1.2306888146e+000	 3.2424462873e-001
 3.6093293732e+000	 1.2662410814e+000	 2.9333691007e-001
 3.5966750074e+000	 1.3017503184e+000	 2.5706141059e-001
 3.5836423255e+000	 1.3372107847e+000	 2.2284728512e-001
 3.5702308590e+000	 1.3726167032e+000	 1.9088973525e-001
 3.5564402516e+000	 1.4079622641e+000	 1.6139269257e-001
 3.7013859890e+000	 1.0593591271e+000	 4.1765065716e-001
 3.6909175733e+000	 1.0952750646e+000	 4.0113556753e-001
 3.6800734975e+000	 1.1311759602e+000	 3.8267659346e-001
 3.6688526417e+000	 1.1670562512e+000	 3.6252265689e-001
 3.6572539896e+000	 1.2029103274e+000	 3.4094434136e-001
 3.6452766306e+000	 1.2387325324e+000	 3.1823395893e-001
 3.6329197612e+000	 1.2745171669e+000	 2.8644042122e-001
 3.6201826871e+000	 1.3102584905e+000	 2.5220308801e-001
 3.6070648244e+000	 1.3459507245e+000	 2.1986548291e-001
 3.5935657012e+000	 1.3815880542e+000	 1.8962438795e-001
 3.5796849591e+000	 1.4171646318e+000	 1.6168565121e-001
 3.7254209630e+000	 1.0662380825e+000	 3.9807043860e-001
 3.7148845705e+000	 1.1023872403e+000	 3.8478807742e-001
 3.7039700787e+000	 1.1385212586e+000	 3.6925826490e-001
 3.6926763602e+000	 1.1746345386e+000	 3.5173086590e-001
 3.6810023921e+000	 1.2107214334e+000	 3.3247801700e-001
 3.6689472580e+000	 1.2467762501e+000	 3.1179420135e-001
 3.6565101493e+000	 1.2827932524e+000	 2.7917886627e-001
 3.6436903669e+000	 1.3187666625e+000	 2.4693962087e-001
 3.6304873233e+000	 1.3546906642e+000	 2.1643670324e-001
 3.6169005434e+000	 1.3905594052e+000	 1.8786854292e-001
 3.6029296666e+000	 1.4263669996e+000	 1.6144297607e-001
 3.7494559369e+000	 1.0731170379e+000	 3.7822553707e-001
 3.7388515678e+000	 1.1094994161e+000	 3.6815718201e-001
 3.7278666598e+000	 1.1458665570e+000	 3.5553261329e-001
 3.7165000786e+000	 1.1822128259e+000	 3.4060268051e-001
 3.7047507947e+000	 1.2185325394e+000	 3.2364112417e-001
 3.6926178855e+000	 1.2548199679e+000	 3.0321632087e-001
 3.6801005373e+000	 1.2910693379e+000	 2.7155457634e-001
 3.6671980467e+000	 1.3272748345e+000	 2.4127369820e-001
 3.6539098221e+000	 1.3634306040e+000	 2.1256394051e-001
 3.6402353856e+000	 1.3995307562e+000	 1.8562544729e-001
 3.6261743742e+000	 1.4355693673e+000	 1.6066811431e-001
 3.7734909109e+000	 1.0799959932e+000	 3.8409152641e-001
 3.7628185650e+000	 1.1166115918e+000	 3.6375205211e-001
 3.7517632410e+000	 1.1532118555e+000	 3.4302294666e-001
 3.7403237971e+000	 1.1897911133e+000	 3.2915664556e-001
 3.7284991972e+000	 1.2263436454e+000	 3.1445277158e-001
 3.7162885130e+000	 1.2628636856e+000	 2.9314441123e-001
 3.7036909254e+000	 1.2993454234e+000	 2.6357015621e-001
 3.6907057265e+000	 1.3357830065e+000	 2.3520826816e-001
 3.6773323210e+000	 1.3721705438e+000	 2.0825043427e-001
 3.6635702278e+000	 1.4085021072e+000	 1.8289857988e-001
 3.6494190817e+000	 1.4447717350e+000	 1.5936473193e-001
 3.7975258849e+000	 1.0868749486e+000	 3.9050523235e-001
 3.7867855622e+000	 1.1237237676e+000	 3.7006789606e-001
 3.7756598221e+000	 1.1605571539e+000	 3.4919308715e-001
 3.7641475155e+000	 1.1973694006e+000	 3.2794311001e-001
 3.7522475997e+000	 1.2341547515e+000	 3.0637765454e-001
 3.7399591404e+000	 1.2709074034e+000	 2.8275231636e-001
 3.7272813135e+000	 1.3076215089e+000	 2.5522847562e-001
 3.7142134063e+000	 1.3442911785e+000	 2.2874652984e-001
 3.7007548198e+000	 1.3809104835e+000	 2.0349966144e-001
 3.6869050700e+000	 1.4174734582e+000	 1.7969164389e-001
 3.6726637892e+000	 1.4539741028e+000	 1.5753670676e-001
 3.8215608588e+000	 1.0937539040e+000	 3.9685665484e-001
 3.8107525595e+000	 1.1308359433e+000	 3.7626634156e-001
 3.7995564033e+000	 1.1679024524e+000	 3.5519209223e-001
 3.7879712340e+000	 1.2049476880e+000	 3.3369467447e-001
 3.7759960022e+000	 1.2419658575e+000	 3.1183222606e-001
 3.7636297679e+000	 1.2789511211e+000	 2.7953921407e-001
 3.7508717015e+000	 1.3158975944e+000	 2.4693039651e-001
 3.7377210861e+000	 1.3527993506e+000	 2.2189192539e-001
 3.7241773187e+000	 1.3896504233e+000	 1.9831532889e-001
 3.7102399122e+000	 1.4264448092e+000	 1.7600855983e-001
 3.6959084967e+000	 1.4631764705e+000	 1.5518812187e-001
 3.8455958328e+000	 1.1006328594e+000	 4.0313511067e-001
 3.8347195567e+000	 1.1379481191e+000	 3.8233749336e-001
 3.8234529844e+000	 1.1752477508e+000	 3.6101084305e-001
 3.8117949524e+000	 1.2125259753e+000	 3.3921440723e-001
 3.7997444048e+000	 1.2497769635e+000	 3.1700478714e-001
 3.7873003954e+000	 1.2869948389e+000	 2.8153061820e-001
 3.7744620896e+000	 1.3241736799e+000	 2.4862252465e-001
 3.7612287659e+000	 1.3613075226e+000	 2.1868983613e-001
 3.7475998176e+000	 1.3983903631e+000	 1.9270136624e-001
 3.7335747544e+000	 1.4354161602e+000	 1.7185345873e-001
 3.7191532043e+000	 1.4723788383e+000	 1.5232325913e-001
 3.4867061290e+000	 1.3803551609e+000	 1.5726897719e-001
 3.4728139820e+000	 1.4149427715e+000	 1.2243780870e-001
 3.4585497675e+000	 1.4494597290e+000	 8.8730024175e-002
 3.4439134760e+000	 1.4839002560e+000	 5.6291068609e-002
 3.4289052139e+000	 1.5182585531e+000	 2.5274388787e-002
 3.4135252041e+000	 1.5525288020e+000	-4.1587418068e-003
 3.3977737871e+000	 1.5867051686e+000	-3.1839421819e-002
 3.3816514220e+000	 1.6207818052e+000	-5.7591344623e-002
 3.3651586875e+000	 1.6547528541e+000	-8.1231044605e-002
 3.3482962822e+000	 1.6886124501e+000	-1.0256816701e-001
 3.3310650256e+000	 1.7223547240e+000	-1.2140576116e-001
 3.5099508365e+000	 1.3895575286e+000	 1.5918722264e-001
 3.4959660752e+000	 1.4243757233e+000	 1.2451144255e-001
 3.4816067659e+000	 1.4591227939e+000	 9.0731747777e-002
 3.4668728992e+000	 1.4937929244e+000	 5.8004095565e-002
 3.4517645820e+000	 1.5283802767e+000	 2.6492935330e-002
 3.4362820388e+000	 1.5628789940e+000	-3.6289738682e-003
 3.4204256123e+000	 1.5972832030e+000	-3.2180770528e-002
 3.4041957648e+000	 1.6315870172e+000	-5.8973722639e-002
 3.3875930787e+000	 1.6657845398e+000	-8.3811484262e-002
 3.3706182574e+000	 1.6998698665e+000	-1.0649037664e-001
 3.3532721258e+000	 1.7338370888e+000	-1.2679969358e-001
 3.5331955441e+000	 1.3987598963e+000	 1.6056087895e-001
 3.5191181684e+000	 1.4338086751e+000	 1.2617857749e-001
 3.5046637644e+000	 1.4687858588e+000	 9.2465161200e-002
 3.4898323224e+000	 1.5036855927e+000	 5.9587108016e-002
 3.4746239501e+000	 1.5385020004e+000	 2.7719881080e-002
 3.4590388735e+000	 1.5732291861e+000	-2.9522611760e-003
 3.4430774376e+000	 1.6078612375e+000	-3.2236480642e-002
 3.4267401076e+000	 1.6423922293e+000	-5.9931600824e-002
 3.4100274700e+000	 1.6768162255e+000	-8.5828373766e-002
 3.3929402326e+000	 1.7111272828e+000	-1.0970977245e-001
 3.3754792260e+000	 1.7453194536e+000	-1.3135130844e-001
 3.5564402516e+000	 1.4079622641e+000	 1.6139269257e-001
 3.5422702616e+000	 1.4432416269e+000	 1.2743851383e-001
 3.5277207628e+000	 1.4784489236e+000	 9.3926036875e-002
 3.5127917456e+000	 1.5135782611e+000	 6.1032270286e-002
 3.4974833182e+000	 1.5486237241e+000	 2.8943703710e-002
 3.4817957082e+000	 1.5835793781e+000	-2.1438895125e-003
 3.4657292628e+000	 1.6184392720e+000	-3.2025676378e-002
 3.4492844505e+000	 1.6531974413e+000	-6.0488014913e-002
 3.4324618612e+000	 1.6878479112e+000	-8.7308731469e-002
 3.4152622078e+000	 1.7223846991e+000	-1.1225742446e-001
 3.3976863261e+000	 1.7568018184e+000	-1.3509579433e-001
 3.5796849591e+000	 1.4171646318e+000	 1.6168565121e-001
 3.5654223549e+000	 1.4526745787e+000	 1.2829087392e-001
 3.5507777613e+000	 1.4881119885e+000	 9.5110551314e-002
 3.5357511687e+000	 1.5234709295e+000	 6.2332234156e-002
 3.5203426863e+000	 1.5587454478e+000	 3.0153452995e-002
 3.5045525429e+000	 1.5939295701e+000	-1.2184866720e-003
 3.4883810881e+000	 1.6290173064e+000	-3.1566736874e-002
 3.4718287933e+000	 1.6640026533e+000	-6.0665167295e-002
 3.4548962525e+000	 1.6988795969e+000	-8.8278652972e-002
 3.4375841830e+000	 1.7336421155e+000	-1.1416338943e-001
 3.4198934263e+000	 1.7682841833e+000	-1.3806723499e-001
 3.6029296666e+000	 1.4263669996e+000	 1.6144297607e-001
 3.5885744481e+000	 1.4621075305e+000	 1.2873559171e-001
 3.5738347597e+000	 1.4977750533e+000	 9.6015272073e-002
 3.5587105919e+000	 1.5333635979e+000	 6.3480123136e-002
 3.5432020544e+000	 1.5688671715e+000	 3.1338732356e-002
 3.5273093776e+000	 1.6042797621e+000	-1.9004368621e-004
 3.5110329133e+000	 1.6395953409e+000	-3.0877320224e-002
 3.4943731361e+000	 1.6748078654e+000	-6.0484453895e-002
 3.4773306437e+000	 1.7099112826e+000	-8.8763340891e-002
 3.4599061583e+000	 1.7448995318e+000	-1.1545674353e-001
 3.4421005265e+000	 1.7797665481e+000	-1.4029864500e-001
 3.6261743742e+000	 1.4355693673e+000	 1.6066811431e-001
 3.6117265413e+000	 1.4715404823e+000	 1.2877290280e-001
 3.5968917582e+000	 1.5074381182e+000	 9.6637145218e-002
 3.5816700151e+000	 1.5432562662e+000	 6.4469517351e-002
 3.5660614225e+000	 1.5789888952e+000	 3.2489681118e-002
 3.5500662123e+000	 1.6146299541e+000	 9.2806476676e-004
 3.5336847386e+000	 1.6501733753e+000	-2.9974386584e-002
 3.5169174789e+000	 1.6856130774e+000	-5.9966490020e-002
 3.4997650350e+000	 1.7209429682e+000	-8.8787133481e-002
 3.4822281335e+000	 1.7561569481e+000	-1.1616561381e-001
 3.4643076266e+000	 1.7912489129e+000	-1.4182200398e-001
 3.6494190817e+000	 1.4447717350e+000	 1.5936473193e-001
 3.6348786345e+000	 1.4809734342e+000	 1.2840333478e-001
 3.6199487566e+000	 1.5171011831e+000	 9.6973483274e-002
 3.6046294383e+000	 1.5531489346e+000	 6.5294438992e-002
 3.5889207906e+000	 1.5891106189e+000	 3.3596957442e-002
 3.5728230470e+000	 1.6249801461e+000	 2.1230607334e-003
 3.5563365638e+000	 1.6607514098e+000	-2.8874220403e-002
 3.5394618217e+000	 1.6964182894e+000	-5.9131135223e-002
 3.5221994262e+000	 1.7319746539e+000	-8.8373532156e-002
 3.5045501087e+000	 1.7674143645e+000	-1.1631720839e-001
 3.4865147268e+000	 1.8027312778e+000	-1.4266828960e-001
 3.6726637892e+000	 1.4539741028e+000	 1.5753670676e-001
 3.6580307277e+000	 1.4904063860e+000	 1.2762769804e-001
 3.6430057551e+000	 1.5267642479e+000	 9.7021953624e-002
 3.6275888614e+000	 1.5630416030e+000	 6.5949338332e-002
 3.6117801587e+000	 1.5992323426e+000	 3.4651721903e-002
 3.5955798816e+000	 1.6353303381e+000	 3.3827441010e-003
 3.5789883890e+000	 1.6713294442e+000	-2.7592451804e-002
 3.5620061645e+000	 1.7072235015e+000	-5.7997517218e-002
 3.5446338175e+000	 1.7430063396e+000	-8.7545227981e-002
 3.5268720839e+000	 1.7786717808e+000	-1.1593784554e-001
 3.5087218270e+000	 1.8142136426e+000	-1.4286750929e-001
 3.6959084967e+000	 1.4631764705e+000	 1.5518812187e-001
 3.6811828209e+000	 1.4998393378e+000	 1.2644707687e-001
 3.6660627535e+000	 1.5364273128e+000	 9.6780567353e-002
 3.6505482846e+000	 1.5729342714e+000	 6.6429080265e-002
 3.6346395268e+000	 1.6093540662e+000	 3.5645621694e-002
 3.6183367163e+000	 1.6456805302e+000	 4.6954744264e-003
 3.6016402143e+000	 1.6819074787e+000	-2.6144077164e-002
 3.5845505073e+000	 1.7180287135e+000	-5.6584054892e-002
 3.5670682087e+000	 1.7540380253e+000	-8.6324127149e-002
 3.5491940591e+000	 1.7899291972e+000	-1.1505298171e-001
 3.5309289271e+000	 1.8256960074e+000	-1.4244873071e-001
 3.7191532043e+000	 1.4723788383e+000	 1.5232325913e-001
 3.7043349141e+000	 1.5092722896e+000	 1.2486282088e-001
 3.6891197520e+000	 1.5460903777e+000	 9.6247668507e-002
 3.6735077078e+000	 1.5828269397e+000	 6.6728931343e-002
 3.6574988949e+000	 1.6194757899e+000	 3.6570775420e-002
 3.6410935510e+000	 1.6560307222e+000	 6.0501534468e-003
 3.6242920395e+000	 1.6924855132e+000	-2.4543478913e-002
 3.6070948501e+000	 1.7288339256e+000	-5.4908480459e-002
 3.5895026000e+000	 1.7650697110e+000	-8.4731375506e-002
 3.5715160343e+000	 1.8011866135e+000	-1.1368723839e-001
 3.5531360273e+000	 1.8371783722e+000	-1.4144011115e-001
 3.3310650256e+000	 1.7223547240e+000	-1.2140576116e-001
 3.3134658586e+000	 1.7559738049e+000	-1.4677411508e-001
 3.2954998440e+000	 1.7894638242e+000	-1.6974193559e-001
 3.2771681667e+000	 1.8228189179e+000	-1.8986847985e-001
 3.2584721341e+000	 1.8560332301e+000	-2.0670554122e-001
 3.2394131765e+000	 1.8891009162e+000	-2.3397248866e-001
 3.2199928470e+000	 1.9220161459e+000	-2.7813458199e-001
 3.2002128214e+000	 1.9547731064e+000	-3.2054461682e-001
 3.1800748984e+000	 1.9873660057e+000	-3.6073761259e-001
 3.1595809991e+000	 2.0197890756e+000	-3.9824129902e-001
 3.1387331671e+000	 2.0520365752e+000	-4.3257674090e-001
 3.3532721258e+000	 1.7338370888e+000	-1.2679969358e-001
 3.3355556310e+000	 1.7676802970e+000	-1.4895547660e-001
 3.3174698430e+000	 1.8013935830e+000	-1.6834962158e-001
 3.2990159544e+000	 1.8349710440e+000	-1.8455342341e-001
 3.2801952817e+000	 1.8684067849e+000	-1.9713099554e-001
 3.2610092644e+000	 1.9016949223e+000	-2.3243360216e-001
 3.2414594660e+000	 1.9348295869e+000	-2.7249396335e-001
 3.2215475736e+000	 1.9678049271e+000	-3.1055886305e-001
 3.2012753977e+000	 2.0006151124e+000	-3.4617786086e-001
 3.1806448724e+000	 2.0332543361e+000	-3.7889340668e-001
 3.1596580548e+000	 2.0657168190e+000	-4.0824145538e-001
 3.3754792260e+000	 1.7453194536e+000	-1.3135130844e-001
 3.3576454034e+000	 1.7793867890e+000	-1.5077973745e-001
 3.3394398419e+000	 1.8133233418e+000	-1.6709217734e-001
 3.3208637422e+000	 1.8471231701e+000	-1.7987166364e-001
 3.3019184292e+000	 1.8807803398e+000	-1.9421176686e-001
 3.2826053522e+000	 1.9142889284e+000	-2.3247896280e-001
 3.2629260850e+000	 1.9476430278e+000	-2.6894218370e-001
 3.2428823257e+000	 1.9808367478e+000	-3.0317274392e-001
 3.2224758970e+000	 2.0138642191e+000	-3.3473444105e-001
 3.2017087458e+000	 2.0467195966e+000	-3.6318413506e-001
 3.1805829426e+000	 2.0793970629e+000	-3.8807235306e-001
 3.3976863261e+000	 1.7568018184e+000	-1.3509579433e-001
 3.3797351758e+000	 1.7910932810e+000	-1.5227401480e-001
 3.3614098409e+000	 1.8252531007e+000	-1.6598857271e-001
 3.3427115300e+000	 1.8592752962e+000	-1.7583395001e-001
 3.3236415768e+000	 1.8931538947e+000	-1.9866703325e-001
 3.3042014401e+000	 1.9268829345e+000	-2.3407770020e-001
 3.2843927040e+000	 1.9604564688e+000	-2.6743958066e-001
 3.2642170778e+000	 1.9938685685e+000	-2.9833775456e-001
 3.2436763964e+000	 2.0271133258e+000	-3.2634995874e-001
 3.2227726191e+000	 2.0601848571e+000	-3.5104715655e-001
 3.2015078304e+000	 2.0930773067e+000	-3.7199413298e-001
 3.4198934263e+000	 1.7682841833e+000	-1.3806723499e-001
 3.4018249482e+000	 1.8027997731e+000	-1.5346454667e-001
 3.3833798398e+000	 1.8371828595e+000	-1.6505712670e-001
 3.3645593178e+000	 1.8714274223e+000	-1.7245061192e-001
 3.3453647243e+000	 1.9055274495e+000	-2.0416400121e-001
 3.3257975279e+000	 1.9394769406e+000	-2.3719899265e-001
 3.3058593229e+000	 1.9732699098e+000	-2.6794677831e-001
 3.2855518300e+000	 2.0069003892e+000	-2.9600591643e-001
 3.2648768957e+000	 2.0403624325e+000	-3.2096778766e-001
 3.2438364924e+000	 2.0736501176e+000	-3.4241715541e-001
 3.2224327182e+000	 2.1067575505e+000	-3.5993275160e-001
 3.4421005265e+000	 1.7797665481e+000	-1.4029864500e-001
 3.4239147206e+000	 1.8145062651e+000	-1.5437672032e-001
 3.4053498388e+000	 1.8491126183e+000	-1.6431552850e-001
 3.3864071056e+000	 1.8835795485e+000	-1.7740969574e-001
 3.3670878719e+000	 1.9179010044e+000	-2.1068017082e-001
 3.3473936158e+000	 1.9520709467e+000	-2.4181206564e-001
 3.3273259419e+000	 1.9860833507e+000	-2.7042467798e-001
 3.3068865821e+000	 2.0199322099e+000	-2.9612976031e-001
 3.2860773950e+000	 2.0536115392e+000	-3.1853204492e-001
 3.2649003657e+000	 2.0871153781e+000	-3.3722979516e-001
 3.2433576059e+000	 2.1204377944e+000	-3.5181538220e-001
 3.4643076266e+000	 1.7912489129e+000	-1.4182200398e-001
 3.4460044930e+000	 1.8262127571e+000	-1.5503509950e-001
 3.4273198378e+000	 1.8610423772e+000	-1.6378085764e-001
 3.4082548933e+000	 1.8957316746e+000	-1.8612242696e-001
 3.3888110195e+000	 1.9302745593e+000	-2.1819286716e-001
 3.3689897036e+000	 1.9646649528e+000	-2.4788619027e-001
 3.3487925609e+000	 1.9988967917e+000	-2.7483444930e-001
 3.3282213343e+000	 2.0329640306e+000	-2.9866230999e-001
 3.3072778943e+000	 2.0668606459e+000	-3.1898756715e-001
 3.2859642391e+000	 2.1005806386e+000	-3.3542168718e-001
 3.2642824937e+000	 2.1341180382e+000	-3.4757037595e-001
 3.4865147268e+000	 1.8027312778e+000	-1.4266828960e-001
 3.4680942654e+000	 1.8379192492e+000	-1.5546345070e-001
 3.4492898367e+000	 1.8729721360e+000	-1.6346960341e-001
 3.4301026811e+000	 1.9078838007e+000	-1.9535867537e-001
 3.4105341670e+000	 1.9426481142e+000	-2.2667924592e-001
 3.3905857914e+000	 1.9772589590e+000	-2.5539068185e-001
 3.3702591799e+000	 2.0117102327e+000	-2.8113752172e-001
 3.3495560864e+000	 2.0459958514e+000	-3.0355706656e-001
 3.3284783936e+000	 2.0801097526e+000	-3.2227988765e-001
 3.3070281124e+000	 2.1140458991e+000	-3.3693036053e-001
 3.2852073815e+000	 2.1477982820e+000	-3.4712722431e-001
 3.5087218270e+000	 1.8142136426e+000	-1.4286750929e-001
 3.4901840378e+000	 1.8496257412e+000	-1.5568476831e-001
 3.4712598357e+000	 1.8849018948e+000	-1.7159073518e-001
 3.4519504689e+000	 1.9200359268e+000	-2.0510301972e-001
 3.4322573146e+000	 1.9550216690e+000	-2.3611629873e-001
 3.4121818793e+000	 1.9898529651e+000	-2.6429489845e-001
 3.3917257989e+000	 2.0245236737e+000	-2.8929557623e-001
 3.3708908386e+000	 2.0590276721e+000	-3.1076799330e-001
 3.3496788930e+000	 2.0933588593e+000	-3.2835521427e-001
 3.3280919857e+000	 2.1275111596e+000	-3.4169423288e-001
 3.3061322693e+000	 2.1614785259e+000	-3.5041652304e-001
 3.5309289271e+000	 1.8256960074e+000	-1.4244873071e-001
 3.5122738102e+000	 1.8613322332e+000	-1.5572129901e-001
 3.4932298346e+000	 1.8968316537e+000	-1.8146856933e-001
 3.4737982567e+000	 1.9321880529e+000	-2.1533968151e-001
 3.4539804622e+000	 1.9673952239e+000	-2.4648085832e-001
 3.4337779671e+000	 2.0024469712e+000	-2.7456823961e-001
 3.4131924178e+000	 2.0373371146e+000	-2.9927053751e-001
 3.3922255907e+000	 2.0720594928e+000	-3.2024950117e-001
 3.3708793923e+000	 2.1066079660e+000	-3.3716040826e-001
 3.3491558591e+000	 2.1409764201e+000	-3.4965258263e-001
 3.3270571571e+000	 2.1751587697e+000	-3.5736993739e-001
 3.5531360273e+000	 1.8371783722e+000	-1.4144011115e-001
 3.5343635826e+000	 1.8730387253e+000	-1.5559456504e-001
 3.5151998336e+000	 1.9087614125e+000	-1.9140124227e-001
 3.4956460444e+000	 1.9443401791e+000	-2.2605253612e-001
 3.4757036097e+000	 1.9797687788e+000	-2.5774960350e-001
 3.4553740550e+000	 2.0150409773e+000	-2.8618014500e-001
 3.4346590368e+000	 2.0501505556e+000	-3.1102456626e-001
 3.4135603429e+000	 2.0850913135e+000	-3.3195643480e-001
 3.3920798916e+000	 2.1198570727e+000	-3.4864296379e-001
 3.3702197324e+000	 2.1544416806e+000	-3.6074552194e-001
 3.3479820449e+000	 2.1888390135e+000	-3.6792016874e-001
 3.1387331671e+000	 2.0520365752e+000	-4.3257674090e-001
 3.1175335675e+000	 2.0841027938e+000	-4.7213291769e-001
 3.0959844873e+000	 2.1159820543e+000	-4.7214280249e-001
 3.0740883340e+000	 2.1476687162e+000	-4.7837750645e-001
 3.0518476352e+000	 2.1791571792e+000	-4.9057573319e-001
 3.0292650379e+000	 2.2104418857e+000	-5.0846830099e-001
 3.0063433076e+000	 2.2415173246e+000	-5.3177876548e-001
 2.9830853273e+000	 2.2723780342e+000	-5.6022405730e-001
 2.9594940961e+000	 2.3030186050e+000	-5.9351513350e-001
 2.9355727287e+000	 2.3334336833e+000	-6.3135764069e-001
 2.9113244534e+000	 2.3636179740e+000	-6.7345258841e-001
 3.1596580548e+000	 2.0657168190e+000	-4.0824145538e-001
 3.1383171247e+000	 2.0979968124e+000	-4.6953198872e-001
 3.1166243839e+000	 2.1300886013e+000	-5.0698048968e-001
 3.0945822562e+000	 2.1619865077e+000	-5.0772587949e-001
 3.0721932861e+000	 2.1936848937e+000	-5.1412990072e-001
 3.0494601381e+000	 2.2251781649e+000	-5.2590265808e-001
 3.0263855963e+000	 2.2564607735e+000	-5.4274719212e-001
 3.0029725628e+000	 2.2875272211e+000	-5.6436014830e-001
 2.9792240568e+000	 2.3183720624e+000	-5.9043245942e-001
 2.9551432136e+000	 2.3489899079e+000	-6.2065003986e-001
 2.9307332831e+000	 2.3793754271e+000	-6.5469448965e-001
 3.1805829426e+000	 2.0793970629e+000	-3.8807235306e-001
 3.1591006818e+000	 2.1118908310e+000	-4.4680350273e-001
 3.1372642805e+000	 2.1441951483e+000	-5.0717258090e-001
 3.1150761784e+000	 2.1763042991e+000	-5.3970569847e-001
 3.0925389370e+000	 2.2082126082e+000	-5.4011805132e-001
 3.0696552384e+000	 2.2399144442e+000	-5.4557751039e-001
 3.0464278850e+000	 2.2714042223e+000	-5.5576656377e-001
 3.0228597983e+000	 2.3026764080e+000	-5.7036153176e-001
 2.9989540174e+000	 2.3337255197e+000	-5.8903328060e-001
 2.9747136984e+000	 2.3645461324e+000	-6.1144794789e-001
 2.9501421128e+000	 2.3951328803e+000	-6.3726767760e-001
 3.2015078304e+000	 2.0930773067e+000	-3.7199413298e-001
 3.1798842389e+000	 2.1257848497e+000	-4.2795672978e-001
 3.1579041771e+000	 2.1583016954e+000	-4.8526895754e-001
 3.1355701007e+000	 2.1906220906e+000	-5.4353606879e-001
 3.1128845879e+000	 2.2227403228e+000	-5.6855034415e-001
 3.0898503386e+000	 2.2546507234e+000	-5.6750897922e-001
 3.0664701738e+000	 2.2863476711e+000	-5.7085886839e-001
 3.0427470338e+000	 2.3178255949e+000	-5.7825596286e-001
 3.0186839780e+000	 2.3490789771e+000	-5.8935101613e-001
 2.9942841833e+000	 2.3801023570e+000	-6.0379034064e-001
 2.9695509425e+000	 2.4108903335e+000	-6.2121657393e-001
 3.2224327182e+000	 2.1067575505e+000	-3.5993275160e-001
 3.2006677960e+000	 2.1396788683e+000	-4.1292313637e-001
 3.1785440737e+000	 2.1724082424e+000	-4.6698021974e-001
 3.1560640229e+000	 2.2049398820e+000	-5.2168880719e-001
 3.1332302388e+000	 2.2372680373e+000	-5.7662477891e-001
 3.1100454389e+000	 2.2693870027e+000	-5.9171379683e-001
 3.0865124625e+000	 2.3012911200e+000	-5.8804658210e-001
 3.0626342693e+000	 2.3329747818e+000	-5.8807156453e-001
 3.0384139387e+000	 2.3644324345e+000	-5.9141933480e-001
 3.0138546681e+000	 2.3956585816e+000	-5.9771632803e-001
 2.9889597722e+000	 2.4266477866e+000	-6.0658562126e-001
 3.2433576059e+000	 2.1204377944e+000	-3.5181538220e-001
 3.2214513531e+000	 2.1535728869e+000	-4.0163527668e-001
 3.1991839703e+000	 2.1865147894e+000	-4.5224425688e-001
 3.1765579451e+000	 2.2192576734e+000	-5.0320668968e-001
 3.1535758897e+000	 2.2517957518e+000	-5.5407803752e-001
 3.1302405392e+000	 2.2841232819e+000	-6.0440552835e-001
 3.1065547512e+000	 2.3162345688e+000	-6.0735265349e-001
 3.0825215048e+000	 2.3481239687e+000	-5.9983681558e-001
 3.0581438993e+000	 2.3797858918e+000	-5.9527214701e-001
 3.0334251530e+000	 2.4112148061e+000	-5.9326514973e-001
 3.0083686019e+000	 2.4424052398e+000	-5.9341928251e-001
 3.2642824937e+000	 2.1341180382e+000	-3.4757037595e-001
 3.2422349102e+000	 2.1674669055e+000	-3.9402675782e-001
 3.2198238668e+000	 2.2006213364e+000	-4.4099988807e-001
 3.1970518674e+000	 2.2335754649e+000	-4.8803370027e-001
 3.1739215406e+000	 2.2663234664e+000	-5.3466323874e-001
 3.1504356394e+000	 2.2988595611e+000	-5.8041535563e-001
 3.1265970399e+000	 2.3311780176e+000	-6.2480943414e-001
 3.1024087403e+000	 2.3632731556e+000	-6.1358053928e-001
 3.0778738600e+000	 2.3951393492e+000	-6.0094359706e-001
 3.0529956378e+000	 2.4267710307e+000	-5.9047617100e-001
 3.0277774315e+000	 2.4581626929e+000	-5.8176204022e-001
 3.2852073815e+000	 2.1477982820e+000	-3.4712722431e-001
 3.2630184674e+000	 2.1813609242e+000	-3.9003220623e-001
 3.2404637634e+000	 2.2147278835e+000	-4.3318683263e-001
 3.2175457896e+000	 2.2478932563e+000	-4.7611460584e-001
 3.1942671915e+000	 2.2808511809e+000	-5.1833014854e-001
 3.1706307397e+000	 2.3135958404e+000	-5.5933992801e-001
 3.1466393286e+000	 2.3461214665e+000	-5.9864300680e-001
 3.1222959759e+000	 2.3784223425e+000	-6.2933189241e-001
 3.0976038206e+000	 2.4104928066e+000	-6.0846805567e-001
 3.0725661227e+000	 2.4423272552e+000	-5.8938887865e-001
 3.0471862612e+000	 2.4739201461e+000	-5.7165839595e-001
 3.3061322693e+000	 2.1614785259e+000	-3.5041652304e-001
 3.2838020245e+000	 2.1952549428e+000	-3.8958723542e-001
 3.2611036600e+000	 2.2288344305e+000	-4.2874568153e-001
 3.2380397118e+000	 2.2622110478e+000	-4.6739493135e-001
 3.2146128424e+000	 2.2953788954e+000	-5.0502917927e-001
 3.1908258399e+000	 2.3283321196e+000	-5.4113449546e-001
 3.1666816174e+000	 2.3610649153e+000	-5.7518960416e-001
 3.1421832114e+000	 2.3935715294e+000	-6.0666668735e-001
 3.1173337812e+000	 2.4258462639e+000	-6.1788011282e-001
 3.0921366076e+000	 2.4578834798e+000	-5.9004287727e-001
 3.0665950909e+000	 2.4896775993e+000	-5.6315286966e-001
 3.3270571571e+000	 2.1751587697e+000	-3.5736993739e-001
 3.3045855816e+000	 2.2091489614e+000	-3.9262841499e-001
 3.2817435566e+000	 2.2429409775e+000	-4.2761787001e-001
 3.2585336340e+000	 2.2765288392e+000	-4.6182093599e-001
 3.2349584933e+000	 2.3099066099e+000	-4.9471136926e-001
 3.2110209402e+000	 2.3430683989e+000	-5.2575482761e-001
 3.1867239061e+000	 2.3760083641e+000	-5.5440967621e-001
 3.1620704469e+000	 2.4087207162e+000	-5.8012781917e-001
 3.1370637419e+000	 2.4411997213e+000	-6.0235555528e-001
 3.1117070924e+000	 2.4734397043e+000	-5.9247788545e-001
 3.0860039206e+000	 2.5054350524e+000	-5.6420121924e-001
 3.3479820449e+000	 2.1888390135e+000	-3.6792016874e-001
 3.3253691387e+000	 2.2230429801e+000	-3.9909324069e-001
 3.3023834532e+000	 2.2570475246e+000	-4.2974565122e-001
 3.2790275563e+000	 2.2908466307e+000	-4.5933959026e-001
 3.2553041442e+000	 2.3244343245e+000	-4.8732836334e-001
 3.2312160404e+000	 2.3578046781e+000	-5.1315719755e-001
 3.2067661948e+000	 2.3909518130e+000	-5.3626407521e-001
 3.1819576824e+000	 2.4238699031e+000	-5.5608059342e-001
 3.1567937025e+000	 2.4565531787e+000	-5.7203284807e-001
 3.1312775773e+000	 2.4889959289e+000	-5.8354234039e-001
 3.1054127503e+000	 2.5211925056e+000	-5.8119678523e-001
 2.9113244534e+000	 2.3636179740e+000	-6.7345258841e-001
 2.8867526112e+000	 2.3935662434e+000	-6.9467193661e-001
 2.8618606541e+000	 2.4232733227e+000	-7.0704606400e-001
 2.8366521436e+000	 2.4527341104e+000	-7.1030824041e-001
 2.8111307490e+000	 2.4819435755e+000	-7.0420201206e-001
 2.7853002459e+000	 2.5108967602e+000	-7.0891291715e-001
 2.7591645138e+000	 2.5395887828e+000	-7.3882421924e-001
 2.7327275349e+000	 2.5680148403e+000	-7.6055776104e-001
 2.7059933915e+000	 2.5961702111e+000	-7.7381921955e-001
 2.6789662642e+000	 2.6240502578e+000	-7.7831623687e-001
 2.6516504295e+000	 2.6516504295e+000	-7.7375909390e-001
 2.9307332831e+000	 2.3793754271e+000	-6.5469448965e-001
 2.9059976286e+000	 2.4095233517e+000	-6.6902963206e-001
 2.8809397251e+000	 2.4394284782e+000	-6.7525225955e-001
 2.8555631579e+000	 2.4690856712e+000	-6.7309380716e-001
 2.8298716207e+000	 2.4984898660e+000	-6.6229536041e-001
 2.8038689142e+000	 2.5276360719e+000	-6.9438215410e-001
 2.7775589439e+000	 2.5565193747e+000	-7.2220676330e-001
 2.7509457185e+000	 2.5851349392e+000	-7.4270732228e-001
 2.7240333475e+000	 2.6134780125e+000	-7.5558349340e-001
 2.6968260392e+000	 2.6415439262e+000	-7.6053593766e-001
 2.6693280990e+000	 2.6693280990e+000	-7.5726700233e-001
 2.9501421128e+000	 2.3951328803e+000	-6.3726767760e-001
 2.9252426460e+000	 2.4254804600e+000	-6.4486809231e-001
 2.9000187961e+000	 2.4555836337e+000	-6.4507686135e-001
 2.8744741721e+000	 2.4854372319e+000	-6.3762336558e-001
 2.8486124923e+000	 2.5150361565e+000	-6.4964404901e-001
 2.8224375825e+000	 2.5443753837e+000	-6.8164416311e-001
 2.7959533740e+000	 2.5734499666e+000	-7.0747210978e-001
 2.7691639021e+000	 2.6022550381e+000	-7.2682201190e-001
 2.7420733034e+000	 2.6307858139e+000	-7.3938733813e-001
 2.7146858143e+000	 2.6590375946e+000	-7.4486159124e-001
 2.6870057685e+000	 2.6870057685e+000	-7.4293900990e-001
 2.9695509425e+000	 2.4108903335e+000	-6.2121657393e-001
 2.9444876634e+000	 2.4414375683e+000	-6.2223079595e-001
 2.9190978672e+000	 2.4717387892e+000	-6.1656259058e-001
 2.8933851864e+000	 2.5017887926e+000	-6.0709413395e-001
 2.8673533640e+000	 2.5315824470e+000	-6.4136273147e-001
 2.8410062508e+000	 2.5611146954e+000	-6.7061207352e-001
 2.8143478041e+000	 2.5903805584e+000	-6.9453319939e-001
 2.7873820856e+000	 2.6193751371e+000	-7.1281483417e-001
 2.7601132593e+000	 2.6480936153e+000	-7.2514407305e-001
 2.7325455894e+000	 2.6765312630e+000	-7.3120708245e-001
 2.7046834380e+000	 2.7046834380e+000	-7.3068981631e-001
 2.9889597722e+000	 2.4266477866e+000	-6.0658562126e-001
 2.9637326808e+000	 2.4573946766e+000	-6.0116129497e-001
 2.9381769382e+000	 2.4878939447e+000	-5.8975228895e-001
 2.9122962007e+000	 2.5181403534e+000	-6.0383096584e-001
 2.8860942356e+000	 2.5481287375e+000	-6.3460397237e-001
 2.8595749191e+000	 2.5778540071e+000	-6.6119924476e-001
 2.8327422342e+000	 2.6073111503e+000	-6.8330322870e-001
 2.8056002692e+000	 2.6364952360e+000	-7.0059906969e-001
 2.7781532153e+000	 2.6654014167e+000	-7.1276730881e-001
 2.7504053645e+000	 2.6940249314e+000	-7.1948659706e-001
 2.7223611076e+000	 2.7223611076e+000	-7.2043442638e-001
 3.0083686019e+000	 2.4424052398e+000	-5.9341928251e-001
 2.9829776982e+000	 2.4733517849e+000	-5.8170321237e-001
 2.9572560092e+000	 2.5040491002e+000	-5.7149161140e-001
 2.9312072150e+000	 2.5344919141e+000	-6.0190139818e-001
 2.9048351073e+000	 2.5646750280e+000	-6.2928173396e-001
 2.8781435874e+000	 2.5945933189e+000	-6.5331925894e-001
 2.8511366643e+000	 2.6242417422e+000	-6.7369564199e-001
 2.8238184528e+000	 2.6536153349e+000	-6.9008826650e-001
 2.7961931712e+000	 2.6827092181e+000	-7.0217093804e-001
 2.7682651396e+000	 2.7115185997e+000	-7.0961461213e-001
 2.7400387771e+000	 2.7400387771e+000	-7.1208814026e-001
 3.0277774315e+000	 2.4581626929e+000	-5.8176204022e-001
 3.0022227156e+000	 2.4893088932e+000	-5.6390023991e-001
 2.9763350802e+000	 2.5202042556e+000	-5.7493324906e-001
 2.9501182293e+000	 2.5508434748e+000	-6.0122016817e-001
 2.9235759790e+000	 2.5812213185e+000	-6.2531016482e-001
 2.8967122557e+000	 2.6113326306e+000	-6.4688591374e-001
 2.8695310944e+000	 2.6411723341e+000	-6.6562412323e-001
 2.8420366363e+000	 2.6707354339e+000	-6.8119623146e-001
 2.8142331272e+000	 2.7000170196e+000	-6.9326912626e-001
 2.7861249147e+000	 2.7290122681e+000	-7.0150588660e-001
 2.7577164466e+000	 2.7577164466e+000	-7.0556654393e-001
 3.0471862612e+000	 2.4739201461e+000	-5.7165839595e-001
 3.0214677330e+000	 2.5052660015e+000	-5.5610211552e-001
 2.9954141513e+000	 2.5363594111e+000	-5.7943038967e-001
 2.9690292436e+000	 2.5671950356e+000	-6.0170216028e-001
 2.9423168506e+000	 2.5977676090e+000	-6.2260359392e-001
 2.9152809240e+000	 2.6280719423e+000	-6.4181321549e-001
 2.8879255245e+000	 2.6581029260e+000	-6.5900258847e-001
 2.8602548199e+000	 2.6878555328e+000	-6.7383702204e-001
 2.8322730831e+000	 2.7173248210e+000	-6.8597630322e-001
 2.8039846898e+000	 2.7465059365e+000	-6.9507545238e-001
 2.7753941161e+000	 2.7753941161e+000	-7.0078550015e-001
 3.0665950909e+000	 2.4896775993e+000	-5.6315286966e-001
 3.0407127505e+000	 2.5212231098e+000	-5.6630292054e-001
 3.0144932223e+000	 2.5525145666e+000	-5.8489881225e-001
 2.9879402579e+000	 2.5835465963e+000	-6.0326240162e-001
 2.9610577223e+000	 2.6143138995e+000	-6.2107652497e-001
 2.9338495923e+000	 2.6448112541e+000	-6.3801537261e-001
 2.9063199545e+000	 2.6750335179e+000	-6.5374517853e-001
 2.8784730034e+000	 2.7049756317e+000	-6.6792493840e-001
 2.8503130390e+000	 2.7346326224e+000	-6.8020715455e-001
 2.8218444649e+000	 2.7639996049e+000	-6.9023860567e-001
 2.7930717857e+000	 2.7930717857e+000	-6.9766113965e-001
 3.0860039206e+000	 2.5054350524e+000	-5.6420121924e-001
 3.0599577679e+000	 2.5371802180e+000	-5.7727933212e-001
 3.0335722933e+000	 2.5686697221e+000	-5.9125439831e-001
 3.0068512722e+000	 2.5998981570e+000	-6.0581605741e-001
 2.9797985939e+000	 2.6308601900e+000	-6.2064363084e-001
 2.9524182606e+000	 2.6615505658e+000	-6.3540678927e-001
 2.9247143846e+000	 2.6919641097e+000	-6.4976625187e-001
 2.8966911870e+000	 2.7220957307e+000	-6.6337451573e-001
 2.8683529950e+000	 2.7519404238e+000	-6.7587661368e-001
 2.8397042400e+000	 2.7814932733e+000	-6.8691089867e-001
 2.8107494552e+000	 2.8107494552e+000	-6.9610985270e-001
 3.1054127503e+000	 2.5211925056e+000	-5.8119678523e-001
 3.0792027853e+000	 2.5531373263e+000	-5.8894823269e-001
 3.0526513643e+000	 2.5848248776e+000	-5.9841312872e-001
 3.0257622864e+000	 2.6162497178e+000	-6.0927842671e-001
 2.9985394656e+000	 2.6474064805e+000	-6.2121974835e-001
 2.9709869289e+000	 2.6782898775e+000	-6.3390205919e-001
 2.9431088147e+000	 2.7088947016e+000	-6.4698037784e-001
 2.9149093706e+000	 2.7392158296e+000	-6.6010051690e-001
 2.8863929509e+000	 2.7692482252e+000	-6.7289985412e-001
 2.8575640151e+000	 2.7989869417e+000	-6.8500813156e-001
 2.8284271247e+000	 2.8284271247e+000	-6.9604828106e-001
 2.6516504295e+000	 2.6516504295e+000	-7.7375909390e-001
 2.6240502578e+000	 2.6789662642e+000	-7.8517109478e-001
 2.5961702111e+000	 2.7059933915e+000	-7.9835771523e-001
 2.5680148403e+000	 2.7327275349e+000	-8.1299829313e-001
 2.5395887828e+000	 2.7591645138e+000	-8.2876654725e-001
 2.5108967602e+000	 2.7853002459e+000	-8.4533134018e-001
 2.4819435755e+000	 2.8111307490e+000	-8.4079974930e-001
 2.4527341104e+000	 2.8366521436e+000	-8.2562936708e-001
 2.4232733227e+000	 2.8618606541e+000	-8.1319899681e-001
 2.3935662434e+000	 2.8867526112e+000	-8.0330896807e-001
 2.3636179740e+000	 2.9113244534e+000	-7.9577065906e-001
 2.6693280990e+000	 2.6693280990e+000	-7.5726700233e-001
 2.6415439262e+000	 2.6968260392e+000	-7.6959038634e-001
 2.6134780125e+000	 2.7240333475e+000	-7.8323890159e-001
 2.5851349392e+000	 2.7509457185e+000	-7.9787411726e-001
 2.5565193747e+000	 2.7775589439e+000	-8.1315228183e-001
 2.5276360719e+000	 2.8038689142e+000	-8.2872511264e-001
 2.4984898660e+000	 2.8298716207e+000	-8.4244536297e-001
 2.4690856712e+000	 2.8555631579e+000	-8.2420057277e-001
 2.4394284782e+000	 2.8809397251e+000	-8.0803353681e-001
 2.4095233517e+000	 2.9059976286e+000	-7.9373411770e-001
 2.3793754271e+000	 2.9307332831e+000	-7.8110418376e-001
 2.6870057685e+000	 2.6870057685e+000	-7.4293900990e-001
 2.6590375946e+000	 2.7146858143e+000	-7.5605301284e-001
 2.6307858139e+000	 2.7420733034e+000	-7.7005067997e-001
 2.6022550381e+000	 2.7691639021e+000	-7.8457571524e-001
 2.5734499666e+000	 2.7959533740e+000	-7.9926679279e-001
 2.5443753837e+000	 2.8224375825e+000	-8.1375837352e-001
 2.5150361565e+000	 2.8486124923e+000	-8.2768153537e-001
 2.4854372319e+000	 2.8744741721e+000	-8.2409511370e-001
 2.4555836337e+000	 2.9000187961e+000	-8.0406539543e-001
 2.4254804600e+000	 2.9252426460e+000	-7.8523079621e-001
 2.3951328803e+000	 2.9501421128e+000	-7.6738365004e-001
 2.7046834380e+000	 2.7046834380e+000	-7.3068981631e-001
 2.6765312630e+000	 2.7325455894e+000	-7.4447808000e-001
 2.6480936153e+000	 2.7601132593e+000	-7.5871648316e-001
 2.6193751371e+000	 2.7873820856e+000	-7.7303076491e-001
 2.5903805584e+000	 2.8143478041e+000	-7.8704191800e-001
 2.5611146954e+000	 2.8410062508e+000	-8.0036703267e-001
 2.5315824470e+000	 2.8673533640e+000	-8.1262015384e-001
 2.5017887926e+000	 2.8933851864e+000	-8.2341314952e-001
 2.4717387892e+000	 2.9190978672e+000	-8.0144205798e-001
 2.4414375683e+000	 2.9444876634e+000	-7.7794915557e-001
 2.4108903335e+000	 2.9695509425e+000	-7.5476167106e-001
 2.7223611076e+000	 2.7223611076e+000	-7.2043442638e-001
 2.6940249314e+000	 2.7504053645e+000	-7.3478491064e-001
 2.6654014167e+000	 2.7781532153e+000	-7.4915987605e-001
 2.6364952360e+000	 2.8056002692e+000	-7.6316699425e-001
 2.6073111503e+000	 2.8327422342e+000	-7.7640946664e-001
 2.5778540071e+000	 2.8595749191e+000	-7.8848689560e-001
 2.5481287375e+000	 2.8860942356e+000	-7.9899616900e-001
 2.5181403534e+000	 2.9122962007e+000	-8.0753235544e-001
 2.4878939447e+000	 2.9381769382e+000	-8.0031069762e-001
 2.4573946766e+000	 2.9637326808e+000	-7.7203897283e-001
 2.4266477866e+000	 2.9889597722e+000	-7.4339042567e-001
 2.7400387771e+000	 2.7400387771e+000	-7.1208814026e-001
 2.7115185997e+000	 2.7682651396e+000	-7.2689303767e-001
 2.6827092181e+000	 2.7961931712e+000	-7.4130455132e-001
 2.6536153349e+000	 2.8238184528e+000	-7.5491217979e-001
 2.6242417422e+000	 2.8511366643e+000	-7.6730122012e-001
 2.5945933189e+000	 2.8781435874e+000	-7.7805366682e-001
 2.5646750280e+000	 2.9048351073e+000	-7.8674912377e-001
 2.5344919141e+000	 2.9312072150e+000	-7.9296572671e-001
 2.5040491002e+000	 2.9572560092e+000	-7.9628107387e-001
 2.4733517849e+000	 2.9829776982e+000	-7.6764966226e-001
 2.4424052398e+000	 3.0083686019e+000	-7.3342167235e-001
 2.7577164466e+000	 2.7577164466e+000	-7.0556654393e-001
 2.7290122681e+000	 2.7861249147e+000	-7.2072219737e-001
 2.7000170196e+000	 2.8142331272e+000	-7.3507432540e-001
 2.6707354339e+000	 2.8420366363e+000	-7.4819414499e-001
 2.6411723341e+000	 2.8695310944e+000	-7.5964893298e-001
 2.6113326306e+000	 2.8967122557e+000	-7.6900295307e-001
 2.5812213185e+000	 2.9235759790e+000	-7.7581839543e-001
 2.5508434748e+000	 2.9501182293e+000	-7.7965632662e-001
 2.5202042556e+000	 2.9763350802e+000	-7.8007764743e-001
 2.4893088932e+000	 3.0022227156e+000	-7.6493028695e-001
 2.4581626929e+000	 3.0277774315e+000	-7.2500676276e-001
 2.7753941161e+000	 2.7753941161e+000	-7.0078550015e-001
 2.7465059365e+000	 2.8039846898e+000	-7.1619232292e-001
 2.7173248210e+000	 2.8322730831e+000	-7.3039313449e-001
 2.6878555328e+000	 2.8602548199e+000	-7.4294075878e-001
 2.6581029260e+000	 2.8879255245e+000	-7.5338433373e-001
 2.6280719423e+000	 2.9152809240e+000	-7.6127026644e-001
 2.5977676090e+000	 2.9423168506e+000	-7.6614320083e-001
 2.5671950356e+000	 2.9690292436e+000	-7.6754699528e-001
 2.5363594111e+000	 2.9954141513e+000	-7.6502570785e-001
 2.5052660015e+000	 3.0214677330e+000	-7.5812458637e-001
 2.4739201461e+000	 3.0471862612e+000	-7.1829665465e-001
 2.7930717857e+000	 2.7930717857e+000	-6.9766113965e-001
 2.7639996049e+000	 2.8218444649e+000	-7.1322353812e-001
 2.7346326224e+000	 2.8503130390e+000	-7.2718503078e-001
 2.7049756317e+000	 2.8784730034e+000	-7.3907993415e-001
 2.6750335179e+000	 2.9063199545e+000	-7.4843912570e-001
 2.6448112541e+000	 2.9338495923e+000	-7.5479102738e-001
 2.6143138995e+000	 2.9610577223e+000	-7.5766260154e-001
 2.5835465963e+000	 2.9879402579e+000	-7.5658035662e-001
 2.5525145666e+000	 3.0144932223e+000	-7.5107136003e-001
 2.5212231098e+000	 3.0407127505e+000	-7.4066425556e-001
 2.4896775993e+000	 3.0665950909e+000	-7.1344192435e-001
 2.8107494552e+000	 2.8107494552e+000	-6.9610985270e-001
 2.7814932733e+000	 2.8397042400e+000	-7.1173615147e-001
 2.7519404238e+000	 2.8683529950e+000	-7.2537417879e-001
 2.7220957307e+000	 2.8966911870e+000	-7.3653962671e-001
 2.6919641097e+000	 2.9247143846e+000	-7.4474498782e-001
 2.6615505658e+000	 2.9524182606e+000	-7.4950056755e-001
 2.6308601900e+000	 2.9797985939e+000	-7.5031550868e-001
 2.5998981570e+000	 3.0068512722e+000	-7.4669882524e-001
 2.5686697221e+000	 3.0335722933e+000	-7.3816044338e-001
 2.5371802180e+000	 3.0599577679e+000	-7.2421224644e-001
 2.5054350524e+000	 3.0860039206e+000	-7.0436912152e-001
 2.8284271247e+000	 2.8284271247e+000	-6.9604828106e-001
 2.7989869417e+000	 2.8575640151e+000	-7.1165065034e-001
 2.7692482252e+000	 2.8863929509e+000	-7.2488485191e-001
 2.7392158296e+000	 2.9149093706e+000	-7.3524783339e-001
 2.7088947016e+000	 2.9431088147e+000	-7.4223357534e-001
 2.6782898775e+000	 2.9709869289e+000	-7.4533413263e-001
 2.6474064805e+000	 2.9985394656e+000	-7.4404068766e-001
 2.6162497178e+000	 3.0257622864e+000	-7.3784461292e-001
 2.5848248776e+000	 3.0526513643e+000	-7.2623854010e-001
 2.5531373263e+000	 3.0792027853e+000	-7.0871743305e-001
 2.5211925056e+000	 3.1054127503e+000	-6.8477966188e-001
 2.3636179740e+000	 2.9113244534e+000	-7.9577065906e-001
 2.3334336833e+000	 2.9355727287e+000	-8.1031997748e-001
 2.3030186050e+000	 2.9594940961e+000	-8.1725474086e-001
 2.2723780342e+000	 2.9830853273e+000	-8.1639838377e-001
 2.2415173246e+000	 3.0063433076e+000	-8.0759571387e-001
 2.2104418857e+000	 3.0292650379e+000	-7.9071306940e-001
 2.1791571792e+000	 3.0518476352e+000	-7.6563842468e-001
 2.1476687162e+000	 3.0740883340e+000	-7.3228144359e-001
 2.1159820543e+000	 3.0959844873e+000	-6.9057348153e-001
 2.0841027938e+000	 3.1175335675e+000	-6.4046753634e-001
 2.0520365752e+000	 3.1387331671e+000	-6.4665375273e-001
 2.3793754271e+000	 2.9307332831e+000	-7.8110418376e-001
 2.3489899079e+000	 2.9551432136e+000	-7.8908607493e-001
 2.3183720624e+000	 2.9792240568e+000	-7.8933161693e-001
 2.2875272211e+000	 3.0029725628e+000	-7.8164896030e-001
 2.2564607735e+000	 3.0263855963e+000	-7.6586814324e-001
 2.2251781649e+000	 3.0494601381e+000	-7.4184126472e-001
 2.1936848937e+000	 3.0721932861e+000	-7.0944260437e-001
 2.1619865077e+000	 3.0945822562e+000	-6.6856868912e-001
 2.1300886013e+000	 3.1166243839e+000	-6.1913830699e-001
 2.0979968124e+000	 3.1383171247e+000	-6.2216856778e-001
 2.0657168190e+000	 3.1596580548e+000	-6.5816069515e-001
 2.3951328803e+000	 2.9501421128e+000	-7.6738365004e-001
 2.3645461324e+000	 2.9747136984e+000	-7.6852785045e-001
 2.3337255197e+000	 2.9989540174e+000	-7.6180654837e-001
 2.3026764080e+000	 3.0228597983e+000	-7.4701268921e-001
 2.2714042223e+000	 3.0464278850e+000	-7.2396163062e-001
 2.2399144442e+000	 3.0696552384e+000	-6.9249133119e-001
 2.2082126082e+000	 3.0925389370e+000	-6.5246248460e-001
 2.1763042991e+000	 3.1150761784e+000	-6.0375859926e-001
 2.1441951483e+000	 3.1372642805e+000	-6.0078777966e-001
 2.1118908310e+000	 3.1591006818e+000	-6.3647496355e-001
 2.0793970629e+000	 3.1805829426e+000	-6.6790820663e-001
 2.4108903335e+000	 2.9695509425e+000	-7.5476167106e-001
 2.3801023570e+000	 2.9942841833e+000	-7.4880301198e-001
 2.3490789771e+000	 3.0186839780e+000	-7.3484227745e-001
 2.3178255949e+000	 3.0427470338e+000	-7.1265728392e-001
 2.2863476711e+000	 3.0664701738e+000	-6.8204879478e-001
 2.2546507234e+000	 3.0898503386e+000	-6.4284072453e-001
 2.2227403228e+000	 3.1128845879e+000	-5.9488028713e-001
 2.1906220906e+000	 3.1355701007e+000	-5.8333684011e-001
 2.1583016954e+000	 3.1579041771e+000	-6.1821117412e-001
 2.1257848497e+000	 3.1798842389e+000	-6.4914131935e-001
 2.0930773067e+000	 3.2015078304e+000	-6.7584755000e-001
 2.4266477866e+000	 2.9889597722e+000	-7.4339042567e-001
 2.3956585816e+000	 3.0138546681e+000	-7.3006870320e-001
 2.3644324345e+000	 3.0384139387e+000	-7.0860085182e-001
 2.3329747818e+000	 3.0626342693e+000	-6.7874963247e-001
 2.3012911200e+000	 3.0865124625e+000	-6.4030129792e-001
 2.2693870027e+000	 3.1100454389e+000	-5.9306581239e-001
 2.2372680373e+000	 3.1332302388e+000	-5.7071448343e-001
 2.2049398820e+000	 3.1560640229e+000	-6.0420310080e-001
 2.1724082424e+000	 3.1785440737e+000	-6.3410204594e-001
 2.1396788683e+000	 3.2006677960e+000	-6.6011052274e-001
 2.1067575505e+000	 3.2224327182e+000	-6.8192824043e-001
 2.4424052398e+000	 3.0083686019e+000	-7.3342167235e-001
 2.4112148061e+000	 3.0334251530e+000	-7.1248152179e-001
 2.3797858918e+000	 3.0581438993e+000	-6.8324364695e-001
 2.3481239687e+000	 3.0825215048e+000	-6.4545582408e-001
 2.3162345688e+000	 3.1065547512e+000	-5.9888987650e-001
 2.2841232819e+000	 3.1302405392e+000	-5.6389326800e-001
 2.2517957518e+000	 3.1535758897e+000	-5.9535884750e-001
 2.2192576734e+000	 3.1765579451e+000	-6.2363314434e-001
 2.1865147894e+000	 3.1991839703e+000	-6.4839526773e-001
 2.1535728869e+000	 3.2214513531e+000	-6.6932389778e-001
 2.1204377944e+000	 3.2433576059e+000	-6.8609810189e-001
 2.4581626929e+000	 3.0277774315e+000	-7.2500676276e-001
 2.4267710307e+000	 3.0529956378e+000	-6.9619753687e-001
 2.3951393492e+000	 3.0778738600e+000	-6.5893138761e-001
 2.3632731556e+000	 3.1024087403e+000	-6.1294117480e-001
 2.3311780176e+000	 3.1265970399e+000	-5.6391991001e-001
 2.2988595611e+000	 3.1504356394e+000	-5.9266135099e-001
 2.2663234664e+000	 3.1739215406e+000	-6.1865274293e-001
 2.2335754649e+000	 3.1970518674e+000	-6.4155417838e-001
 2.2006213364e+000	 3.2198238668e+000	-6.6102432236e-001
 2.1674669055e+000	 3.2422349102e+000	-6.7672125512e-001
 2.1341180382e+000	 3.2642824937e+000	-6.8830332128e-001
 2.4739201461e+000	 3.0471862612e+000	-7.1829665465e-001
 2.4423272552e+000	 3.0725661227e+000	-6.8137230591e-001
 2.4104928066e+000	 3.0976038206e+000	-6.3582416866e-001
 2.3784223425e+000	 3.1222959759e+000	-5.8137025208e-001
 2.3461214665e+000	 3.1466393286e+000	-5.9716867381e-001
 2.3135958404e+000	 3.1706307397e+000	-6.2015480458e-001
 2.2808511809e+000	 3.1942671915e+000	-6.4051605255e-001
 2.2478932563e+000	 3.2175457896e+000	-6.5789218479e-001
 2.2147278835e+000	 3.2404637634e+000	-6.7192134725e-001
 2.1813609242e+000	 3.2630184674e+000	-6.8224094023e-001
 2.1477982820e+000	 3.2852073815e+000	-6.8848850060e-001
 2.4896775993e+000	 3.0665950909e+000	-7.1344192435e-001
 2.4578834798e+000	 3.0921366076e+000	-6.6816089082e-001
 2.4258462639e+000	 3.1173337812e+000	-6.1408147494e-001
 2.3935715294e+000	 3.1421832114e+000	-6.1001408412e-001
 2.3610649153e+000	 3.1666816174e+000	-6.2920937867e-001
 2.3283321196e+000	 3.1908258399e+000	-6.4628651749e-001
 2.2953788954e+000	 3.2146128424e+000	-6.6086758801e-001
 2.2622110478e+000	 3.2380397118e+000	-6.7257195847e-001
 2.2288344305e+000	 3.2611036600e+000	-6.8101717694e-001
 2.1952549428e+000	 3.2838020245e+000	-6.8581987976e-001
 2.1614785259e+000	 3.3061322693e+000	-6.8659670709e-001
 2.5054350524e+000	 3.0860039206e+000	-7.0436912152e-001
 2.4734397043e+000	 3.1117070924e+000	-6.5671787364e-001
 2.4411997213e+000	 3.1370637419e+000	-6.3240591965e-001
 2.4087207162e+000	 3.1620704469e+000	-6.4696263818e-001
 2.3760083641e+000	 3.1867239061e+000	-6.5994824085e-001
 2.3430683989e+000	 3.2110209402e+000	-6.7096845295e-001
 2.3099066099e+000	 3.2349584933e+000	-6.7962512346e-001
 2.2765288392e+000	 3.2585336340e+000	-6.8551714466e-001
 2.2429409775e+000	 3.2817435566e+000	-6.8824138404e-001
 2.2091489614e+000	 3.3045855816e+000	-6.8739362615e-001
 2.1751587697e+000	 3.3270571571e+000	-6.8256952152e-001
 2.5211925056e+000	 3.1054127503e+000	-6.8477966188e-001
 2.4889959289e+000	 3.1312775773e+000	-6.6562723396e-001
 2.4565531787e+000	 3.1567937025e+000	-6.7463669903e-001
 2.4238699031e+000	 3.1819576824e+000	-6.8266092478e-001
 2.3909518130e+000	 3.2067661948e+000	-6.8929068837e-001
 2.3578046781e+000	 3.2312160404e+000	-6.9411167764e-001
 2.3244343245e+000	 3.2553041442e+000	-6.9670542800e-001
 2.2908466307e+000	 3.2790275563e+000	-6.9665027485e-001
 2.2570475246e+000	 3.3023834532e+000	-6.9352231870e-001
 2.2230429801e+000	 3.3253691387e+000	-6.8689640054e-001
 2.1888390135e+000	 3.3479820449e+000	-6.7634708462e-001
 2.0520365752e+000	 3.1387331671e+000	-6.4665375273e-001
 2.0197890756e+000	 3.1595809991e+000	-6.7576720016e-001
 1.9873660057e+000	 3.1800748984e+000	-7.0086219239e-001
 1.9547731064e+000	 3.2002128214e+000	-7.2145191788e-001
 1.9220161459e+000	 3.2199928470e+000	-7.3705467303e-001
 1.8891009162e+000	 3.2394131765e+000	-7.4719479196e-001
 1.8560332301e+000	 3.2584721341e+000	-7.2971104135e-001
 1.8228189179e+000	 3.2771681667e+000	-6.9438403191e-001
 1.7894638242e+000	 3.2954998440e+000	-6.5825093741e-001
 1.7559738049e+000	 3.3134658586e+000	-6.2093095684e-001
 1.7223547240e+000	 3.3310650256e+000	-5.8206172362e-001
 2.0657168190e+000	 3.1596580548e+000	-6.5816069515e-001
 2.0332543361e+000	 3.1806448724e+000	-6.7790748121e-001
 2.0006151124e+000	 3.2012753977e+000	-6.9425891828e-001
 1.9678049271e+000	 3.2215475736e+000	-7.0675365758e-001
 1.9348295869e+000	 3.2414594660e+000	-7.1493453569e-001
 1.9016949223e+000	 3.2610092644e+000	-7.1834949603e-001
 1.8684067849e+000	 3.2801952817e+000	-7.0965216278e-001
 1.8349710440e+000	 3.2990159544e+000	-6.7086130144e-001
 1.8013935830e+000	 3.3174698430e+000	-6.3197926565e-001
 1.7676802970e+000	 3.3355556310e+000	-5.9265678779e-001
 1.7338370888e+000	 3.3532721258e+000	-5.5256247474e-001
 2.0793970629e+000	 3.1805829426e+000	-6.6790820663e-001
 2.0467195966e+000	 3.2017087458e+000	-6.7915637244e-001
 2.0138642191e+000	 3.2224758970e+000	-6.8762588273e-001
 1.9808367478e+000	 3.2428823257e+000	-6.9288031985e-001
 1.9476430278e+000	 3.2629260850e+000	-6.9448653373e-001
 1.9142889284e+000	 3.2826053522e+000	-6.9201555576e-001
 1.8807803398e+000	 3.3019184292e+000	-6.8504350431e-001
 1.8471231701e+000	 3.3208637422e+000	-6.4897067066e-001
 1.8133233418e+000	 3.3394398419e+000	-6.0797294656e-001
 1.7793867890e+000	 3.3576454034e+000	-5.6726413098e-001
 1.7453194536e+000	 3.3754792260e+000	-5.2654367904e-001
 2.0930773067e+000	 3.2015078304e+000	-6.7584755000e-001
 2.0601848571e+000	 3.2227726191e+000	-6.7945154893e-001
 2.0271133258e+000	 3.2436763964e+000	-6.8088739534e-001
 1.9938685685e+000	 3.2642170778e+000	-6.7974307558e-001
 1.9604564688e+000	 3.2843927040e+000	-6.7560893053e-001
 1.9268829345e+000	 3.3042014401e+000	-6.6807856241e-001
 1.8931538947e+000	 3.3236415768e+000	-6.5674973465e-001
 1.8592752962e+000	 3.3427115300e+000	-6.2884871046e-001
 1.8252531007e+000	 3.3614098409e+000	-5.8635257132e-001
 1.7910932810e+000	 3.3797351758e+000	-5.4485772832e-001
 1.7568018184e+000	 3.3976863261e+000	-5.0409436694e-001
 2.1067575505e+000	 3.2224327182e+000	-6.8192824043e-001
 2.0736501176e+000	 3.2438364924e+000	-6.7872933590e-001
 2.0403624325e+000	 3.2648768957e+000	-6.7396680897e-001
 2.0069003892e+000	 3.2855518300e+000	-6.6725252729e-001
 1.9732699098e+000	 3.3058593229e+000	-6.5819980451e-001
 1.9394769406e+000	 3.3257975279e+000	-6.4642430063e-001
 1.9055274495e+000	 3.3453647243e+000	-6.3154491669e-001
 1.8714274223e+000	 3.3645593178e+000	-6.1063292586e-001
 1.8371828595e+000	 3.3833798398e+000	-5.6724002740e-001
 1.8027997731e+000	 3.4018249482e+000	-5.2554397448e-001
 1.7682841833e+000	 3.4198934263e+000	-4.8530557221e-001
 2.1204377944e+000	 3.2433576059e+000	-6.8609810189e-001
 2.0871153781e+000	 3.2649003657e+000	-6.7692475221e-001
 2.0536115392e+000	 3.2860773950e+000	-6.6678655054e-001
 2.0199322099e+000	 3.3068865821e+000	-6.5531872740e-001
 1.9860833507e+000	 3.3273259419e+000	-6.4215705511e-001
 1.9520709467e+000	 3.3473936158e+000	-6.2693874221e-001
 1.9179010044e+000	 3.3670878719e+000	-6.0930332366e-001
 1.8835795485e+000	 3.3864071056e+000	-5.8889354443e-001
 1.8491126183e+000	 3.4053498388e+000	-5.5075845677e-001
 1.8145062651e+000	 3.4239147206e+000	-5.0943086352e-001
 1.7797665481e+000	 3.4421005265e+000	-4.7027026731e-001
 2.1341180382e+000	 3.2642824937e+000	-6.8830332128e-001
 2.1005806386e+000	 3.2859642391e+000	-6.7397155222e-001
 2.0668606459e+000	 3.3072778943e+000	-6.5926815077e-001
 2.0329640306e+000	 3.3282213343e+000	-6.4385119594e-001
 1.9988967917e+000	 3.3487925609e+000	-6.2737840850e-001
 1.9646649528e+000	 3.3689897036e+000	-6.0950804006e-001
 1.9302745593e+000	 3.3888110195e+000	-5.8989975941e-001
 1.8957316746e+000	 3.4082548933e+000	-5.6821553340e-001
 1.8610423772e+000	 3.4273198378e+000	-5.3703221565e-001
 1.8262127571e+000	 3.4460044930e+000	-4.9662793767e-001
 1.7912489129e+000	 3.4643076266e+000	-4.5908330129e-001
 2.1477982820e+000	 3.2852073815e+000	-6.8848850060e-001
 2.1140458991e+000	 3.3070281124e+000	-6.6980226610e-001
 2.0801097526e+000	 3.3284783936e+000	-6.5133227269e-001
 2.0459958514e+000	 3.3495560864e+000	-6.3275893743e-001
 2.0117102327e+000	 3.3702591799e+000	-6.1376142309e-001
 1.9772589590e+000	 3.3905857914e+000	-5.9401852251e-001
 1.9426481142e+000	 3.4105341670e+000	-5.7320954155e-001
 1.9078838007e+000	 3.4301026811e+000	-5.5101517793e-001
 1.8729721360e+000	 3.4492898367e+000	-5.2618683587e-001
 1.8379192492e+000	 3.4680942654e+000	-4.8724623802e-001
 1.8027312778e+000	 3.4865147268e+000	-4.5184134001e-001
 2.1614785259e+000	 3.3061322693e+000	-6.8659670709e-001
 2.1275111596e+000	 3.3280919857e+000	-6.6434823855e-001
 2.0933588593e+000	 3.3496788930e+000	-6.4289873911e-001
 2.0590276721e+000	 3.3708908386e+000	-6.2195045725e-001
 2.0245236737e+000	 3.3917257989e+000	-6.0120349489e-001
 1.9898529651e+000	 3.4121818793e+000	-5.8035668769e-001
 1.9550216690e+000	 3.4322573146e+000	-5.5910848512e-001
 1.9200359268e+000	 3.4519504689e+000	-5.3715782790e-001
 1.8849018948e+000	 3.4712598357e+000	-5.1420502039e-001
 1.8496257412e+000	 3.4901840378e+000	-4.8139825708e-001
 1.8142136426e+000	 3.5087218270e+000	-4.4864280865e-001
 2.1751587697e+000	 3.3270571571e+000	-6.8256952152e-001
 2.1409764201e+000	 3.3491558591e+000	-6.5753966606e-001
 2.1066079660e+000	 3.3708793923e+000	-6.3388655904e-001
 2.0720594928e+000	 3.3922255907e+000	-6.1133377730e-001
 2.0373371146e+000	 3.4131924178e+000	-5.8960186258e-001
 2.0024469712e+000	 3.4337779671e+000	-5.6840919822e-001
 1.9673952239e+000	 3.4539804622e+000	-5.4747288703e-001
 1.9321880529e+000	 3.4737982567e+000	-5.2650962780e-001
 1.8968316537e+000	 3.4932298346e+000	-5.0523658808e-001
 1.8613322332e+000	 3.5122738102e+000	-4.7919789314e-001
 1.8256960074e+000	 3.5309289271e+000	-4.4958783636e-001
 2.1888390135e+000	 3.3479820449e+000	-6.7634708462e-001
 2.1544416806e+000	 3.3702197324e+000	-6.4930563284e-001
 2.1198570727e+000	 3.3920798916e+000	-6.2421395311e-001
 2.0850913135e+000	 3.4135603429e+000	-6.0081645112e-001
 2.0501505556e+000	 3.4346590368e+000	-5.7885361241e-001
 2.0150409773e+000	 3.4553740550e+000	-5.5806287606e-001
 1.9797687788e+000	 3.4757036097e+000	-5.3817951093e-001
 1.9443401791e+000	 3.4956460444e+000	-5.1893749184e-001
 1.9087614125e+000	 3.5151998336e+000	-5.0007037324e-001
 1.8730387253e+000	 3.5343635826e+000	-4.8076040632e-001
 1.8371783722e+000	 3.5531360273e+000	-4.5477820307e-001
 1.7223547240e+000	 3.3310650256e+000	-5.8206172362e-001
 1.6886124501e+000	 3.3482962822e+000	-5.2878837261e-001
 1.6547528541e+000	 3.3651586875e+000	-4.8076125708e-001
 1.6207818052e+000	 3.3816514220e+000	-4.3799388598e-001
 1.5867051686e+000	 3.3977737871e+000	-4.0050647319e-001
 1.5525288020e+000	 3.4135252041e+000	-3.6832536874e-001
 1.5182585531e+000	 3.4289052139e+000	-3.4148247508e-001
 1.4839002560e+000	 3.4439134760e+000	-3.2001465077e-001
 1.4494597290e+000	 3.4585497675e+000	-3.0396310363e-001
 1.4149427715e+000	 3.4728139820e+000	-2.9337277557e-001
 1.3803551609e+000	 3.4867061290e+000	-2.8829172140e-001
 1.7338370888e+000	 3.3532721258e+000	-5.5256247474e-001
 1.6998698665e+000	 3.3706182574e+000	-5.0563207111e-001
 1.6657845398e+000	 3.3875930787e+000	-4.6340888458e-001
 1.6315870172e+000	 3.4041957648e+000	-4.2589206745e-001
 1.5972832030e+000	 3.4204256123e+000	-3.9308848319e-001
 1.5628789940e+000	 3.4362820388e+000	-3.6501212955e-001
 1.5283802767e+000	 3.4517645820e+000	-3.4168354534e-001
 1.4937929244e+000	 3.4668728992e+000	-3.2312920305e-001
 1.4591227939e+000	 3.4816067659e+000	-3.0938088962e-001
 1.4243757233e+000	 3.4959660752e+000	-3.0047507764e-001
 1.3895575286e+000	 3.5099508365e+000	-2.9645228915e-001
 1.7453194536e+000	 3.3754792260e+000	-5.2654367904e-001
 1.7111272828e+000	 3.3929402326e+000	-4.8540348811e-001
 1.6768162255e+000	 3.4100274700e+000	-4.4843367414e-001
 1.6423922293e+000	 3.4267401076e+000	-4.1561937632e-001
 1.6078612375e+000	 3.4430774376e+000	-3.8695445226e-001
 1.5732291861e+000	 3.4590388735e+000	-3.6244089262e-001
 1.5385020004e+000	 3.4746239501e+000	-3.4208821781e-001
 1.5036855927e+000	 3.4898323224e+000	-3.2591285913e-001
 1.4687858588e+000	 3.5046637644e+000	-3.1393752673e-001
 1.4338086751e+000	 3.5191181684e+000	-3.0619056661e-001
 1.3987598963e+000	 3.5331955441e+000	-3.0270530906e-001
 1.7568018184e+000	 3.3976863261e+000	-5.0409436694e-001
 1.7223846991e+000	 3.4152622078e+000	-4.6819832967e-001
 1.6878479112e+000	 3.4324618612e+000	-4.3593777540e-001
 1.6531974413e+000	 3.4492844505e+000	-4.0728417256e-001
 1.6184392720e+000	 3.4657292628e+000	-3.8221871650e-001
 1.5835793781e+000	 3.4817957082e+000	-3.6073173517e-001
 1.5486237241e+000	 3.4974833182e+000	-3.4282207522e-001
 1.5135782611e+000	 3.5127917456e+000	-3.2849647125e-001
 1.4784489236e+000	 3.5277207628e+000	-3.1776890044e-001
 1.4432416269e+000	 3.5422702616e+000	-3.1065992488e-001
 1.4079622641e+000	 3.5564402516e+000	-3.0719602422e-001
 1.7682841833e+000	 3.4198934263e+000	-4.8530557221e-001
 1.7336421155e+000	 3.4375841830e+000	-4.5411407213e-001
 1.6988795969e+000	 3.4548962525e+000	-4.2602487906e-001
 1.6640026533e+000	 3.4718287933e+000	-4.0099613194e-001
 1.6290173064e+000	 3.4883810881e+000	-3.7899670660e-001
 1.5939295701e+000	 3.5045525429e+000	-3.6000561191e-001
 1.5587454478e+000	 3.5203426863e+000	-3.4401136492e-001
 1.5234709295e+000	 3.5357511687e+000	-3.3101134767e-001
 1.4881119885e+000	 3.5507777613e+000	-3.2101114798e-001
 1.4526745787e+000	 3.5654223549e+000	-3.1402388676e-001
 1.4171646318e+000	 3.5796849591e+000	-3.1006953429e-001
 1.7797665481e+000	 3.4421005265e+000	-4.7027026731e-001
 1.7448995318e+000	 3.4599061583e+000	-4.4324990495e-001
 1.7099112826e+000	 3.4773306437e+000	-4.1880016713e-001
 1.6748078654e+000	 3.4943731361e+000	-3.9686620356e-001
 1.6395953409e+000	 3.5110329133e+000	-3.7740491248e-001
 1.6042797621e+000	 3.5273093776e+000	-3.6038432673e-001
 1.5688671715e+000	 3.5432020544e+000	-3.4578297744e-001
 1.5333635979e+000	 3.5587105919e+000	-3.3358923792e-001
 1.4977750533e+000	 3.5738347597e+000	-3.2380065022e-001
 1.4621075305e+000	 3.5885744481e+000	-3.1642323682e-001
 1.4263669996e+000	 3.6029296666e+000	-3.1147080011e-001
 1.7912489129e+000	 3.4643076266e+000	-4.5908330129e-001
 1.7561569481e+000	 3.4822281335e+000	-4.3570667585e-001
 1.7209429682e+000	 3.4997650350e+000	-4.1437026512e-001
 1.6856130774e+000	 3.5169174789e+000	-3.9500656904e-001
 1.6501733753e+000	 3.5336847386e+000	-3.7756084940e-001
 1.6146299541e+000	 3.5500662123e+000	-3.6199050550e-001
 1.5789888952e+000	 3.5660614225e+000	-3.4826442586e-001
 1.5432562662e+000	 3.5816700151e+000	-3.3636231873e-001
 1.5074381182e+000	 3.5968917582e+000	-3.2627402387e-001
 1.4715404823e+000	 3.6117265413e+000	-3.1799880825e-001
 1.4355693673e+000	 3.6261743742e+000	-3.1154464818e-001
 1.8027312778e+000	 3.4865147268e+000	-4.5184134001e-001
 1.7674143645e+000	 3.5045501087e+000	-4.3158683793e-001
 1.7319746539e+000	 3.5221994262e+000	-4.1284319611e-001
 1.6964182894e+000	 3.5394618217e+000	-3.9553060326e-001
 1.6607514098e+000	 3.5563365638e+000	-3.7958302527e-001
 1.6249801461e+000	 3.5728230470e+000	-3.6494756988e-001
 1.5891106189e+000	 3.5889207906e+000	-3.5158382601e-001
 1.5531489346e+000	 3.6046294383e+000	-3.3946318037e-001
 1.5171011831e+000	 3.6199487566e+000	-3.2856811397e-001
 1.4809734342e+000	 3.6348786345e+000	-3.1889148134e-001
 1.4447717350e+000	 3.6494190817e+000	-3.1043577491e-001
 1.8142136426e+000	 3.5087218270e+000	-4.4864280865e-001
 1.7786717808e+000	 3.5268720839e+000	-4.3099439893e-001
 1.7430063396e+000	 3.5446338175e+000	-4.1432833651e-001
 1.7072235015e+000	 3.5620061645e+000	-3.9855283664e-001
 1.6713294442e+000	 3.5789883890e+000	-3.8359090925e-001
 1.6353303381e+000	 3.5955798816e+000	-3.6937971213e-001
 1.5992323426e+000	 3.6117801587e+000	-3.5586987738e-001
 1.5630416030e+000	 3.6275888614e+000	-3.4302481357e-001
 1.5267642479e+000	 3.6430057551e+000	-3.3081998664e-001
 1.4904063860e+000	 3.6580307277e+000	-3.1924218200e-001
 1.4539741028e+000	 3.6726637892e+000	-3.0828875075e-001
 1.8256960074e+000	 3.5309289271e+000	-4.4958783636e-001
 1.7899291972e+000	 3.5491940591e+000	-4.3403487234e-001
 1.7540380253e+000	 3.5670682087e+000	-4.1893637348e-001
 1.7180287135e+000	 3.5845505073e+000	-4.0418891873e-001
 1.6819074787e+000	 3.6016402143e+000	-3.8970490150e-001
 1.6456805302e+000	 3.6183367163e+000	-3.7541187089e-001
 1.6093540662e+000	 3.6346395268e+000	-3.6125184474e-001
 1.5729342714e+000	 3.6505482846e+000	-3.4718059695e-001
 1.5364273128e+000	 3.6660627535e+000	-3.3316692214e-001
 1.4998393378e+000	 3.6811828209e+000	-3.1919188027e-001
 1.4631764705e+000	 3.6959084967e+000	-3.0524802415e-001
 1.8371783722e+000	 3.5531360273e+000	-4.5477820307e-001
 1.8011866135e+000	 3.5715160343e+000	-4.4081523029e-001
 1.7650697110e+000	 3.5895026000e+000	-4.2677926398e-001
 1.7288339256e+000	 3.6070948501e+000	-4.1255558331e-001
 1.6924855132e+000	 3.6242920395e+000	-3.9804630413e-001
 1.6560307222e+000	 3.6410935510e+000	-3.8316970785e-001
 1.6194757899e+000	 3.6574988949e+000	-3.6785954054e-001
 1.5828269397e+000	 3.6735077078e+000	-3.5206428489e-001
 1.5460903777e+000	 3.6891197520e+000	-3.3574640820e-001
 1.5092722896e+000	 3.7043349141e+000	-3.1888158901e-001
 1.4723788383e+000	 3.7191532043e+000	-3.0145792536e-001
 1.3803551609e+000	 3.4867061290e+000	-2.8829172140e-001
 1.3457026502e+000	 3.5002263323e+000	-2.9278300376e-001
 1.3109909654e+000	 3.5133748290e+000	-2.8953390736e-001
 1.2762258024e+000	 3.5261519680e+000	-2.7858178739e-001
 1.2414128249e+000	 3.5385582090e+000	-2.6024559574e-001
 1.2065576614e+000	 3.5505941207e+000	-2.3902647827e-001
 1.1716659033e+000	 3.5622603795e+000	-2.1662122691e-001
 1.1367431019e+000	 3.5735577679e+000	-1.9324043261e-001
 1.1017947664e+000	 3.5844871729e+000	-1.6910217290e-001
 1.0668263616e+000	 3.5950495844e+000	-1.4443019128e-001
 1.0318433056e+000	 3.6052460932e+000	-1.1945210663e-001
 1.3895575286e+000	 3.5099508365e+000	-2.9645228915e-001
 1.3546740012e+000	 3.5235611745e+000	-2.9944453119e-001
 1.3197309052e+000	 3.5367973278e+000	-2.9505888535e-001
 1.2847339744e+000	 3.5496596478e+000	-2.8333593493e-001
 1.2496889104e+000	 3.5621485970e+000	-2.6433742109e-001
 1.2146013792e+000	 3.5742647481e+000	-2.4222456635e-001
 1.1794770093e+000	 3.5860087820e+000	-2.1933449076e-001
 1.1443213892e+000	 3.5973814863e+000	-1.9589523047e-001
 1.1091400648e+000	 3.6083837541e+000	-1.7214210717e-001
 1.0739385374e+000	 3.6190165816e+000	-1.4831586148e-001
 1.0387222610e+000	 3.6292810672e+000	-1.2466081756e-001
 1.3987598963e+000	 3.5331955441e+000	-3.0270530906e-001
 1.3636453522e+000	 3.5468960167e+000	-3.0403168732e-001
 1.3284708449e+000	 3.5602198267e+000	-2.9833448319e-001
 1.2932421464e+000	 3.5731673276e+000	-2.8565777938e-001
 1.2579649959e+000	 3.5857389851e+000	-2.6605828644e-001
 1.2226450969e+000	 3.5979353756e+000	-2.4245637203e-001
 1.1872881153e+000	 3.6097571845e+000	-2.1859587871e-001
 1.1518996766e+000	 3.6212052048e+000	-1.9460316925e-001
 1.1164853633e+000	 3.6322803352e+000	-1.7073151474e-001
 1.0810507131e+000	 3.6429835788e+000	-1.4723936018e-001
 1.0456012164e+000	 3.6533160411e+000	-1.2438844317e-001
 1.4079622641e+000	 3.5564402516e+000	-3.0719602422e-001
 1.3726167032e+000	 3.5702308590e+000	-3.0668720388e-001
 1.3372107847e+000	 3.5836423255e+000	-2.9950095615e-001
 1.3017503184e+000	 3.5966750074e+000	-2.8568513623e-001
 1.2662410814e+000	 3.6093293732e+000	-2.6530013137e-001
 1.2306888146e+000	 3.6216060031e+000	-2.4004453441e-001
 1.1950992213e+000	 3.6335055871e+000	-2.1472040916e-001
 1.1594779639e+000	 3.6450289232e+000	-1.8967163739e-001
 1.1238306617e+000	 3.6561769164e+000	-1.6517015102e-001
 1.0881628888e+000	 3.6669505761e+000	-1.4149281285e-001
 1.0524801718e+000	 3.6773510151e+000	-1.1891948818e-001
 1.4171646318e+000	 3.5796849591e+000	-3.1006953429e-001
 1.3815880542e+000	 3.5935657012e+000	-3.0755365589e-001
 1.3459507245e+000	 3.6070648244e+000	-2.9869838709e-001
 1.3102584905e+000	 3.6201826871e+000	-2.8355563052e-001
 1.2745171669e+000	 3.6329197612e+000	-2.6218973047e-001
 1.2387325324e+000	 3.6452766306e+000	-2.3531145886e-001
 1.2029103274e+000	 3.6572539896e+000	-2.0802284164e-001
 1.1670562512e+000	 3.6688526417e+000	-1.8140773697e-001
 1.1311759602e+000	 3.6800734975e+000	-1.5575745530e-001
 1.0952750646e+000	 3.6909175733e+000	-1.3136799684e-001
 1.0593591271e+000	 3.7013859890e+000	-1.0853807502e-001
 1.4263669996e+000	 3.6029296666e+000	-3.1147080011e-001
 1.3905594052e+000	 3.6169005434e+000	-3.0677346675e-001
 1.3546906642e+000	 3.6304873233e+000	-2.9606669207e-001
 1.3187666625e+000	 3.6436903669e+000	-2.7940670295e-001
 1.2827932524e+000	 3.6565101493e+000	-2.5686208294e-001
 1.2467762501e+000	 3.6689472580e+000	-2.2857932450e-001
 1.2107214334e+000	 3.6810023921e+000	-1.9881768508e-001
 1.1746345386e+000	 3.6926763602e+000	-1.7011829294e-001
 1.1385212586e+000	 3.7039700787e+000	-1.4279256098e-001
 1.1023872403e+000	 3.7148845705e+000	-1.1715635268e-001
 1.0662380825e+000	 3.7254209630e+000	-9.3527956204e-002
 1.4355693673e+000	 3.6261743742e+000	-3.1154464818e-001
 1.3995307562e+000	 3.6402353856e+000	-3.0448891308e-001
 1.3634306040e+000	 3.6539098221e+000	-2.9174562569e-001
 1.3272748345e+000	 3.6671980467e+000	-2.7337561582e-001
 1.2910693379e+000	 3.6801005373e+000	-2.4945199036e-001
 1.2548199679e+000	 3.6926178855e+000	-2.2005925486e-001
 1.2185325394e+000	 3.7047507947e+000	-1.8741920589e-001
 1.1822128259e+000	 3.7165000786e+000	-1.5610986198e-001
 1.1458665570e+000	 3.7278666598e+000	-1.2657430534e-001
 1.1094994161e+000	 3.7388515678e+000	-9.9148994821e-002
 1.0731170379e+000	 3.7494559369e+000	-7.4172526133e-002
 1.4447717350e+000	 3.6494190817e+000	-3.1043577491e-001
 1.4085021072e+000	 3.6635702278e+000	-3.0084212937e-001
 1.3721705438e+000	 3.6773323210e+000	-2.8587478620e-001
 1.3357830065e+000	 3.6907057265e+000	-2.6559945868e-001
 1.2993454234e+000	 3.7036909254e+000	-2.4009406305e-001
 1.2628636856e+000	 3.7162885130e+000	-2.0944782324e-001
 1.2263436454e+000	 3.7284991972e+000	-1.7414143568e-001
 1.1897911133e+000	 3.7403237971e+000	-1.3968874106e-001
 1.1532118555e+000	 3.7517632410e+000	-1.0941201069e-001
 1.1166115918e+000	 3.7628185650e+000	-9.1488384487e-002
 1.0799959932e+000	 3.7734909109e+000	-7.4173565271e-002
 1.4539741028e+000	 3.6726637892e+000	-3.0828875075e-001
 1.4174734582e+000	 3.6869050700e+000	-2.9597511255e-001
 1.3809104835e+000	 3.7007548198e+000	-2.7859362049e-001
 1.3442911785e+000	 3.7142134063e+000	-2.5621515384e-001
 1.3076215089e+000	 3.7272813135e+000	-2.2892272606e-001
 1.2709074034e+000	 3.7399591404e+000	-1.9681057225e-001
 1.2341547515e+000	 3.7522475997e+000	-1.6210079297e-001
 1.1973694006e+000	 3.7641475155e+000	-1.3884379284e-001
 1.1605571539e+000	 3.7756598221e+000	-1.1712952910e-001
 1.1237237676e+000	 3.7867855622e+000	-9.6547175030e-002
 1.0868749486e+000	 3.7975258849e+000	-7.6716633126e-002
 1.4631764705e+000	 3.6959084967e+000	-3.0524802415e-001
 1.4264448092e+000	 3.7102399122e+000	-2.9002972624e-001
 1.3896504233e+000	 3.7241773187e+000	-2.7004142880e-001
 1.3527993506e+000	 3.7377210861e+000	-2.4535946158e-001
 1.3158975944e+000	 3.7508717015e+000	-2.1714176261e-001
 1.2789511211e+000	 3.7636297679e+000	-1.9951969750e-001
 1.2419658575e+000	 3.7759960022e+000	-1.7692347562e-001
 1.2049476880e+000	 3.7879712340e+000	-1.5083945694e-001
 1.1679024524e+000	 3.7995564033e+000	-1.2648014145e-001
 1.1308359433e+000	 3.8107525595e+000	-1.0341053800e-001
 1.0937539040e+000	 3.8215608588e+000	-8.1226929814e-002
 1.4723788383e+000	 3.7191532043e+000	-3.0145792536e-001
 1.4354161602e+000	 3.7335747544e+000	-2.8314770494e-001
 1.3983903631e+000	 3.7475998176e+000	-2.6035736937e-001
 1.3613075226e+000	 3.7612287659e+000	-2.4674998888e-001
 1.3241736799e+000	 3.7744620896e+000	-2.3250271063e-001
 1.2869948389e+000	 3.7873003954e+000	-2.1462894794e-001
 1.2497769635e+000	 3.7997444048e+000	-1.9288546608e-001
 1.2125259753e+000	 3.8117949524e+000	-1.6416839849e-001
 1.1752477508e+000	 3.8234529844e+000	-1.3734996669e-001
 1.1379481191e+000	 3.8347195567e+000	-1.1197062884e-001
 1.1006328594e+000	 3.8455958328e+000	-8.7602676969e-002
 1.0318433056e+000	 3.6052460932e+000	-1.1945210663e-001
 9.9685096773e-001	 3.6150778896e+000	-9.4763264967e-002
 9.6185466627e-001	 3.6245462614e+000	-6.7402973145e-002
 9.2685966671e-001	 3.6336525918e+000	-3.7649597435e-002
 8.9187117966e-001	 3.6423983581e+000	-5.7803664973e-003
 8.5689435901e-001	 3.6507851289e+000	 2.7930287172e-002
 8.2193430012e-001	 3.6588145630e+000	 6.3212332628e-002
 7.8699603810e-001	 3.6664884066e+000	 9.9801689478e-002
 7.5208454618e-001	 3.6738084919e+000	 1.3744171758e-001
 7.1720473409e-001	 3.6807767345e+000	 1.7588464476e-001
 6.8236144655e-001	 3.6873951316e+000	 2.1489293023e-001
 1.0387222610e+000	 3.6292810672e+000	-1.2466081756e-001
 1.0034966409e+000	 3.6391784089e+000	-1.0255114910e-001
 9.6826703071e-001	 3.6487099031e+000	-7.8527118946e-002
 9.3303873116e-001	 3.6578769425e+000	-5.2884072990e-002
 8.9781698753e-001	 3.6666810138e+000	-2.5915527195e-002
 8.6260698807e-001	 3.6751236964e+000	 2.0885257981e-003
 8.2741386212e-001	 3.6832066601e+000	 3.0843255001e-002
 7.9224267836e-001	 3.6909316627e+000	 6.0070571069e-002
 7.5709844316e-001	 3.6983005485e+000	 8.9500645002e-002
 7.2198609898e-001	 3.7053152461e+000	 1.1887336287e-001
 6.8691052287e-001	 3.7119777658e+000	 1.4793971411e-001
 1.0456012164e+000	 3.6533160411e+000	-1.2438844317e-001
 1.0101423140e+000	 3.6632789282e+000	-1.0441294487e-001
 9.7467939516e-001	 3.6728735449e+000	-8.3270848798e-002
 9.3921779561e-001	 3.6821012931e+000	-6.1275178527e-002
 9.0376279540e-001	 3.6909636695e+000	-3.8736434144e-002
 8.6831961714e-001	 3.6994622640e+000	-1.5960863003e-002
 8.3289342413e-001	 3.7075987571e+000	 6.7512125416e-003
 7.9748931862e-001	 3.7153749187e+000	 2.9107007096e-002
 7.6211234014e-001	 3.7227926051e+000	 5.0822820875e-002
 7.2676746388e-001	 3.7298537576e+000	 7.1625522316e-002
 6.9145959918e-001	 3.7365604000e+000	 9.1253962204e-002
 1.0524801718e+000	 3.6773510151e+000	-1.1891948818e-001
 1.0167879871e+000	 3.6873794474e+000	-1.0062397366e-001
 9.8109175960e-001	 3.6970371866e+000	-8.1900390100e-002
 9.4539686005e-001	 3.7063256437e+000	-6.3080142866e-002
 9.0970860326e-001	 3.7152463252e+000	-4.4491418946e-002
 8.7403224620e-001	 3.7238008315e+000	-2.6457420814e-002
 8.3837298613e-001	 3.7319908542e+000	-9.2946592101e-003
 8.0273595887e-001	 3.7398181748e+000	 6.6886917528e-003
 7.6712623712e-001	 3.7472846618e+000	 2.1194374140e-002
 7.3154882878e-001	 3.7543922692e+000	 4.2525908117e-002
 6.9600867549e-001	 3.7611430342e+000	 7.0869869823e-002
 1.0593591271e+000	 3.7013859890e+000	-1.0853807502e-001
 1.0234336602e+000	 3.7114799667e+000	-9.1459179187e-002
 9.8750412404e-001	 3.7212008284e+000	-7.4681593274e-002
 9.5157592450e-001	 3.7305499943e+000	-5.8555814650e-002
 9.1565441113e-001	 3.7395289810e+000	-4.3428425974e-002
 8.7974487526e-001	 3.7481393990e+000	-2.9640291106e-002
 8.4385254813e-001	 3.7563829513e+000	-1.3096502955e-002
 8.0798259913e-001	 3.7642614308e+000	 6.8404756747e-003
 7.7214013409e-001	 3.7717767184e+000	 2.9382469429e-002
 7.3633019367e-001	 3.7789307808e+000	 5.4480819810e-002
 7.0055775180e-001	 3.7857256684e+000	 8.2054641376e-002
 1.0662380825e+000	 3.7254209630e+000	-9.3527956204e-002
 1.0300793333e+000	 3.7355804860e+000	-7.7193139696e-002
 9.9391648849e-001	 3.7453644701e+000	-6.1879943925e-002
 9.5775498894e-001	 3.7547743449e+000	-4.9141347678e-002
 9.2160021899e-001	 3.7638116367e+000	-3.6269363919e-002
 8.8545750432e-001	 3.7724779665e+000	-2.1145032792e-002
 8.4933211013e-001	 3.7807750484e+000	-3.7020391494e-003
 8.1322923938e-001	 3.7887046868e+000	 1.6093142783e-002
 7.7715403107e-001	 3.7962687750e+000	 3.8241186408e-002
 7.4111155856e-001	 3.8034692923e+000	 6.2709927949e-002
 7.0510682811e-001	 3.8103083026e+000	 8.9434458207e-002
 1.0731170379e+000	 3.7494559369e+000	-7.4172526133e-002
 1.0367250065e+000	 3.7596810052e+000	-6.5326553835e-002
 1.0003288529e+000	 3.7695281119e+000	-5.5443467704e-002
 9.6393405339e-001	 3.7789986955e+000	-4.3866965125e-002
 9.2754602686e-001	 3.7880942924e+000	-3.0446595021e-002
 8.9117013338e-001	 3.7968165341e+000	-1.5064754371e-002
 8.5481167213e-001	 3.8051671455e+000	 2.3630624086e-003
 8.1847587964e-001	 3.8131479429e+000	 2.1888096706e-002
 7.8216792804e-001	 3.8207608316e+000	 4.3528240353e-002
 7.4589292346e-001	 3.8280078039e+000	 6.7268030214e-002
 7.0965590442e-001	 3.8348909368e+000	 9.3058721097e-002
 1.0799959932e+000	 3.7734909109e+000	-7.4173565271e-002
 1.0433706796e+000	 3.7837815245e+000	-6.4480583264e-002
 1.0067412174e+000	 3.7936917536e+000	-5.3612495013e-002
 9.7011311783e-001	 3.8032230461e+000	-4.1366553757e-002
 9.3349183472e-001	 3.8123769481e+000	-2.7572942374e-002
 8.9688276244e-001	 3.8211551016e+000	-1.2095134250e-002
 8.6029123413e-001	 3.8295592426e+000	 5.1698312774e-003
 8.2372251989e-001	 3.8375911989e+000	 2.4291157883e-002
 7.8718182501e-001	 3.8452528882e+000	 4.5304184415e-002
 7.5067428835e-001	 3.8525463155e+000	 6.8210358792e-002
 7.1420498073e-001	 3.8594735710e+000	 9.2977292024e-002
 1.0868749486e+000	 3.7975258849e+000	-7.6716633126e-002
 1.0500163527e+000	 3.8078820438e+000	-6.5922260002e-002
 1.0131535818e+000	 3.8178553953e+000	-5.4275504818e-002
 9.7629218228e-001	 3.8274473967e+000	-4.1553517821e-002
 9.3943764258e-001	 3.8366596038e+000	-2.7566810971e-002
 9.0259539150e-001	 3.8454936691e+000	-1.2159646875e-002
 8.6577079613e-001	 3.8539513397e+000	 4.7896595101e-003
 8.2896916014e-001	 3.8620344550e+000	 2.3368525422e-002
 7.9219572198e-001	 3.8697449448e+000	 4.3629969843e-002
 7.5545565324e-001	 3.8770848270e+000	 6.5592566626e-002
 7.1875405704e-001	 3.8840562052e+000	 8.9240479562e-002
 1.0937539040e+000	 3.8215608588e+000	-8.1226929814e-002
 1.0566620258e+000	 3.8319825630e+000	-6.9554890654e-002
 1.0195659463e+000	 3.8420190371e+000	-5.7340653410e-002
 9.8247124672e-001	 3.8516717474e+000	-4.4340938197e-002
 9.4538345045e-001	 3.8609422596e+000	-3.0346276433e-002
 9.0830802055e-001	 3.8698322366e+000	-1.5181428072e-002
 8.7125035813e-001	 3.8783434368e+000	 1.2942902557e-003
 8.3421580039e-001	 3.8864777110e+000	 1.9186765190e-002
 7.9720961895e-001	 3.8942370014e+000	 3.8566933467e-002
 7.6023701813e-001	 3.9016233386e+000	 5.9470714184e-002
 7.2330313334e-001	 3.9086388394e+000	 8.1899024841e-002
 1.1006328594e+000	 3.8455958328e+000	-8.7602676969e-002
 1.0633076989e+000	 3.8560830823e+000	-7.5281470629e-002
 1.0259783107e+000	 3.8661826788e+000	-6.2715786453e-002
 9.8865031116e-001	 3.8758960980e+000	-4.9641582503e-002
 9.5132925831e-001	 3.8852249153e+000	-3.5829095309e-002
 9.1402064961e-001	 3.8941708042e+000	-2.1083285625e-002
 8.7672992013e-001	 3.9027355338e+000	-5.2441932129e-003
 8.3946244064e-001	 3.9109209671e+000	 1.1812798352e-002
 8.0222351592e-001	 3.9187290581e+000	 3.0176785653e-002
 7.6501838302e-001	 3.9261618501e+000	 4.9901256724e-002
 7.2785220965e-001	 3.9332214737e+000	 7.1004088030e-002
 6.8236144655e-001	 3.6873951316e+000	 2.1489293023e-001
 6.4755946190e-001	 3.6936657595e+000	 7.4226054721e-002
 6.1280349065e-001	 3.6995907722e+000	 7.5874357348e-003
 5.7809817425e-001	 3.7051723983e+000	 7.6120424420e-002
 5.4344808385e-001	 3.7104129393e+000	 1.3215471781e-001
 5.0885771918e-001	 3.7153147675e+000	 1.7719810833e-001
 4.7433150743e-001	 3.7198803235e+000	 2.1276217018e-001
 4.3987380232e-001	 3.7241121140e+000	 2.4035726631e-001
 4.0548888310e-001	 3.7280127100e+000	 2.6148772314e-001
 3.7118095373e-001	 3.7315847437e+000	 2.7764717973e-001
 3.3695414212e-001	 3.7348309073e+000	 2.9031411729e-001
 6.8691052287e-001	 3.7119777658e+000	 1.4793971411e-001
 6.5187652498e-001	 3.7182901979e+000	 1.5227641448e-002
 6.1688884725e-001	 3.7242547107e+000	-7.4949954210e-002
 5.8195216208e-001	 3.7298735476e+000	-1.6630508467e-002
 5.4707107108e-001	 3.7351490256e+000	 2.8061223335e-002
 5.1225010397e-001	 3.7400835326e+000	 6.0681405612e-002
 4.7749371748e-001	 3.7446795256e+000	 8.2790509684e-002
 4.4280629434e-001	 3.7489395281e+000	 9.5948193873e-002
 4.0819214232e-001	 3.7528661280e+000	 1.2128890172e-001
 3.7365549343e-001	 3.7564619753e+000	 1.4942270773e-001
 3.3920050307e-001	 3.7597297800e+000	 1.7482972222e-001
 6.9145959918e-001	 3.7365604000e+000	 9.1253962204e-002
 6.5619358806e-001	 3.7429146363e+000	-3.3823557402e-002
 6.2097420386e-001	 3.7489186492e+000	-1.4375684845e-001
 5.8580614991e-001	 3.7545746969e+000	-7.9562970651e-002
 5.5069405831e-001	 3.7598851118e+000	-2.2093210482e-002
 5.1564248877e-001	 3.7648522977e+000	 2.6294805135e-002
 4.8065592754e-001	 3.7694787278e+000	 6.6989047691e-002
 4.4573878635e-001	 3.7737669422e+000	 1.0130111185e-001
 4.1089540154e-001	 3.7777195461e+000	 1.3046890705e-001
 3.7613003312e-001	 3.7813392070e+000	 1.5565937734e-001
 3.4144686401e-001	 3.7846286527e+000	 1.7797124108e-001
 6.9600867549e-001	 3.7611430342e+000	 7.0869869823e-002
 6.6051065114e-001	 3.7675390747e+000	-2.4347868147e-002
 6.2505956047e-001	 3.7735825876e+000	-1.2183672348e-001
 5.8966013774e-001	 3.7792758462e+000	-5.7195177080e-002
 5.5431704553e-001	 3.7846211981e+000	-2.6930262076e-003
 5.1903487357e-001	 3.7896210628e+000	 4.2811013462e-002
 4.8381813759e-001	 3.7942779299e+000	 8.0662976024e-002
 4.4867127837e-001	 3.7985943563e+000	 1.1213215509e-001
 4.1359866076e-001	 3.8025729642e+000	 1.3841388999e-001
 3.7860457281e-001	 3.8062164386e+000	 1.6063237832e-001
 3.4369322496e-001	 3.8095275254e+000	 1.7984350641e-001
 7.0055775180e-001	 3.7857256684e+000	 8.2054641376e-002
 6.6482771422e-001	 3.7921635131e+000	 2.1924728613e-003
 6.2914491707e-001	 3.7982465261e+000	-8.0034504258e-002
 5.9351412557e-001	 3.8039769955e+000	-3.5787621353e-002
 5.5794003276e-001	 3.8093572843e+000	 1.5620517155e-002
 5.2242725836e-001	 3.8143898280e+000	 5.8140877310e-002
 4.8698034763e-001	 3.8190771321e+000	 9.3076860351e-002
 4.5160377038e-001	 3.8234217704e+000	 1.2165474407e-001
 4.1630191998e-001	 3.8274263822e+000	 1.4502656524e-001
 3.8107911250e-001	 3.8310936702e+000	 1.6427302654e-001
 3.4593958591e-001	 3.8344263981e+000	 1.8040641943e-001
 7.0510682811e-001	 3.8103083026e+000	 8.9434458207e-002
 6.6914477730e-001	 3.8167879515e+000	 2.4083701369e-002
 6.3323027367e-001	 3.8229104646e+000	-4.3710236490e-002
 5.9736811339e-001	 3.8286781449e+000	-1.5580936788e-002
 5.6156301998e-001	 3.8340933706e+000	 3.2634878002e-002
 5.2581964315e-001	 3.8391585931e+000	 7.2100009803e-002
 4.9014255768e-001	 3.8438763342e+000	 1.0407451641e-001
 4.5453626240e-001	 3.8482491845e+000	 1.2974093001e-001
 4.1900517920e-001	 3.8522798003e+000	 1.5020723744e-001
 3.8355365219e-001	 3.8559709018e+000	 1.6650988322e-001
 3.4818594685e-001	 3.8593252709e+000	 1.7961678638e-001
 7.0965590442e-001	 3.8348909368e+000	 9.3058721097e-002
 6.7346184038e-001	 3.8414123899e+000	 4.1384773479e-002
 6.3731563028e-001	 3.8475744031e+000	-1.2795455657e-002
 6.0122210122e-001	 3.8533792942e+000	 3.1836384963e-003
 5.6518600721e-001	 3.8588294569e+000	 4.8136556643e-002
 5.2921202794e-001	 3.8639273582e+000	 8.4502716425e-002
 4.9330476773e-001	 3.8686755364e+000	 1.1349810660e-001
 4.5746875441e-001	 3.8730765986e+000	 1.3626076900e-001
 4.2170843842e-001	 3.8771332183e+000	 1.5385387839e-001
 3.8602819188e-001	 3.8808481335e+000	 1.6726884315e-001
 3.5043230780e-001	 3.8842241436e+000	 1.7742841779e-001
 7.1420498073e-001	 3.8594735710e+000	 9.2977292024e-002
 6.7777890346e-001	 3.8660368283e+000	 5.4154754251e-002
 6.4140098688e-001	 3.8722383416e+000	 1.2778062770e-002
 6.0507608904e-001	 3.8780804435e+000	 2.0264280840e-002
 5.6880899443e-001	 3.8835655431e+000	 6.1911125809e-002
 5.3260441274e-001	 3.8886961233e+000	 9.5162036669e-002
 4.9646697778e-001	 3.8934747386e+000	 1.2118819263e-001
 4.6040124642e-001	 3.8979040127e+000	 1.4108238560e-001
 4.2441169764e-001	 3.9019866364e+000	 1.5586220138e-001
 3.8850273157e-001	 3.9057253651e+000	 1.6647321964e-001
 3.5267866874e-001	 3.9091230163e+000	 1.7379222379e-001
 7.1875405704e-001	 3.8840562052e+000	 8.9240479562e-002
 6.8209596653e-001	 3.8906612667e+000	 6.2452814252e-002
 6.4548634348e-001	 3.8969022800e+000	 3.3078310921e-002
 6.0893007687e-001	 3.9027815928e+000	 3.5418599577e-002
 5.7243198165e-001	 3.9083016294e+000	 7.3743260012e-002
 5.3599679753e-001	 3.9134648884e+000	 1.0388978410e-001
 4.9962918782e-001	 3.9182739407e+000	 1.2698378615e-001
 4.6333373843e-001	 3.9227314268e+000	 1.4407203390e-001
 4.2711495685e-001	 3.9268400545e+000	 1.5612573261e-001
 3.9097727126e-001	 3.9306025967e+000	 1.6404382620e-001
 3.5492502969e-001	 3.9340218890e+000	 1.6865630599e-001
 7.2330313334e-001	 3.9086388394e+000	 8.1899024841e-002
 6.8641302961e-001	 3.9152857051e+000	 6.6338226242e-002
 6.4957170008e-001	 3.9215662185e+000	 4.8173055838e-002
 6.1278406469e-001	 3.9274827422e+000	 4.8403654858e-002
 5.7605496887e-001	 3.9330377156e+000	 8.3416763788e-002
 5.3938918232e-001	 3.9382336535e+000	 1.1049658489e-001
 5.0279139787e-001	 3.9430731429e+000	 1.3072239754e-001
 4.6626623045e-001	 3.9475588409e+000	 1.4509415636e-001
 4.2981821607e-001	 3.9516934725e+000	 1.5453588003e-001
 3.9345181095e-001	 3.9554798283e+000	 1.5989905517e-001
 3.5717139063e-001	 3.9589207617e+000	 1.6196604576e-001
 7.2785220965e-001	 3.9332214737e+000	 7.1004088030e-002
 6.9073009268e-001	 3.9399101435e+000	 6.5870361978e-002
 6.5365705668e-001	 3.9462301570e+000	 5.8129846507e-002
 6.1663805252e-001	 3.9521838915e+000	 5.8975974820e-002
 5.7967795609e-001	 3.9577738019e+000	 9.0714598883e-002
 5.4278156711e-001	 3.9630024187e+000	 1.1479191495e-001
 5.0595360791e-001	 3.9678723450e+000	 1.3224008279e-001
 4.6919872246e-001	 3.9723862550e+000	 1.4401144044e-001
 4.3252147529e-001	 3.9765468906e+000	 1.5098199947e-001
 3.9592635063e-001	 3.9803570600e+000	 1.5395495334e-001
 3.5941775158e-001	 3.9838196344e+000	 1.5366418919e-001
 3.3695414212e-001	 3.7348309073e+000	 2.9031411729e-001
 3.0281249933e-001	 3.7377539499e+000	 2.7251415748e-001
 2.6875999901e-001	 3.7403566759e+000	 2.5478881825e-001
 2.3480053674e-001	 3.7426419423e+000	 2.3856579997e-001
 2.0093792957e-001	 3.7446126567e+000	 2.2524098990e-001
 1.6717591555e-001	 3.7462717751e+000	 2.1617495439e-001
 1.3351815331e-001	 3.7476222999e+000	 2.1268963347e-001
 9.9968221788e-002	 3.7486672771e+000	 2.1606523899e-001
 6.6529619936e-002	 3.7494097948e+000	 2.2753735702e-001
 3.3205766524e-002	 3.7498529807e+000	 2.4829425434e-001
 0.0000000000e+000	 3.7500000000e+000	 2.7947438867e-001
 3.3920050307e-001	 3.7597297800e+000	 1.7482972222e-001
 3.0483124933e-001	 3.7626723096e+000	 1.7112118078e-001
 2.7055173233e-001	 3.7652923871e+000	 1.6776919104e-001
 2.3636587365e-001	 3.7675928885e+000	 1.6575709234e-001
 2.0227751577e-001	 3.7695767410e+000	 1.6600955657e-001
 1.6829042165e-001	 3.7712469203e+000	 1.6939523345e-001
 1.3440827433e-001	 3.7726064486e+000	 1.7672937678e-001
 1.0063467660e-001	 3.7736583923e+000	 1.8877644578e-001
 6.6973150735e-002	 3.7744058601e+000	 2.0625267590e-001
 3.3427138301e-002	 3.7748520006e+000	 2.2982861401e-001
 0.0000000000e+000	 3.7750000000e+000	 2.6013161297e-001
 3.4144686401e-001	 3.7846286527e+000	 1.7797124108e-001
 3.0684999932e-001	 3.7875906693e+000	 1.7233633946e-001
 2.7234346566e-001	 3.7902280982e+000	 1.6713953653e-001
 2.3793121056e-001	 3.7925438348e+000	 1.6333365201e-001
 2.0361710197e-001	 3.7945408254e+000	 1.6181259708e-001
 1.6940492775e-001	 3.7962220655e+000	 1.6341409820e-001
 1.3529839535e-001	 3.7975905972e+000	 1.6892239980e-001
 1.0130113141e-001	 3.7986495075e+000	 1.7907093973e-001
 6.7416681534e-002	 3.7994019254e+000	 1.9454499194e-001
 3.3648510077e-002	 3.7998510205e+000	 2.1598427106e-001
 0.0000000000e+000	 3.8000000000e+000	 2.4398549391e-001
 3.4369322496e-001	 3.8095275254e+000	 1.7984350641e-001
 3.0886874932e-001	 3.8125090289e+000	 1.7268458051e-001
 2.7413519899e-001	 3.8151638094e+000	 1.6606139470e-001
 2.3949654747e-001	 3.8174947811e+000	 1.6089537370e-001
 2.0495668816e-001	 3.8195049098e+000	 1.5804878866e-001
 1.7051943386e-001	 3.8211972106e+000	 1.5832756097e-001
 1.3618851637e-001	 3.8225747459e+000	 1.6248404277e-001
 1.0196758622e-001	 3.8236406227e+000	 1.7121976796e-001
 6.7860212333e-002	 3.8243979907e+000	 1.8518816799e-001
 3.3869881854e-002	 3.8248500403e+000	 2.0499724714e-001
 0.0000000000e+000	 3.8250000000e+000	 2.3121221224e-001
 3.4593958591e-001	 3.8344263981e+000	 1.8040641943e-001
 3.1088749931e-001	 3.8374273886e+000	 1.7214684788e-001
 2.7592693231e-001	 3.8400995206e+000	 1.6453681320e-001
 2.4106188438e-001	 3.8424457274e+000	 1.5846545727e-001
 2.0629627436e-001	 3.8444689942e+000	 1.5476251955e-001
 1.7163393996e-001	 3.8461723558e+000	 1.5420122236e-001
 1.3707863739e-001	 3.8475588946e+000	 1.5750113059e-001
 1.0263404103e-001	 3.8486317379e+000	 1.6533097962e-001
 6.8303743132e-002	 3.8493940560e+000	 1.7831146561e-001
 3.4091253630e-002	 3.8498490602e+000	 1.9701799279e-001
 0.0000000000e+000	 3.8500000000e+000	 2.2198337258e-001
 3.4818594685e-001	 3.8593252709e+000	 1.7961678638e-001
 3.1290624931e-001	 3.8623457483e+000	 1.7070084864e-001
 2.7771866564e-001	 3.8650352318e+000	 1.6256446268e-001
 2.4262722129e-001	 3.8673966737e+000	 1.5606358731e-001
 2.0763586056e-001	 3.8694330785e+000	 1.5199452638e-001
 1.7274844606e-001	 3.8711475010e+000	 1.5109689692e-001
 1.3796875842e-001	 3.8725430432e+000	 1.5405656957e-001
 1.0330049584e-001	 3.8736228530e+000	 1.6150857472e-001
 6.8747273931e-002	 3.8743901213e+000	 1.7403996873e-001
 3.4312625407e-002	 3.8748480801e+000	 1.9219265445e-001
 0.0000000000e+000	 3.8750000000e+000	 2.1646615102e-001
 3.5043230780e-001	 3.8842241436e+000	 1.7742841779e-001
 3.1492499930e-001	 3.8872641079e+000	 1.6832115674e-001
 2.7951039896e-001	 3.8899709429e+000	 1.6013974503e-001
 2.4419255820e-001	 3.8923476199e+000	 1.5370604584e-001
 2.0897544675e-001	 3.8943971629e+000	 1.4978201117e-001
 1.7386295217e-001	 3.8961226461e+000	 1.4907273446e-001
 1.3885887944e-001	 3.8975271919e+000	 1.5222947302e-001
 1.0396695066e-001	 3.8986139682e+000	 1.5985263397e-001
 6.9190804730e-002	 3.8993861866e+000	 1.7249471758e-001
 3.4533997183e-002	 3.8998471000e+000	 1.9066321243e-001
 0.0000000000e+000	 3.9000000000e+000	 2.1482343712e-001
 3.5267866874e-001	 3.9091230163e+000	 1.7379222379e-001
 3.1694374929e-001	 3.9121824676e+000	 1.6497931275e-001
 2.8130213229e-001	 3.9149066541e+000	 1.5725489750e-001
 2.4575789511e-001	 3.9172985662e+000	 1.5140582063e-001
 2.1031503295e-001	 3.9193612473e+000	 1.4815875392e-001
 1.7497745827e-001	 3.9210977913e+000	 1.4818333674e-001
 1.3974900046e-001	 3.9225113406e+000	 1.5209528207e-001
 1.0463340547e-001	 3.9236050834e+000	 1.6045944356e-001
 6.9634335529e-002	 3.9243822519e+000	 1.7379283743e-001
 3.4755368960e-002	 3.9248461198e+000	 1.9256761354e-001
 0.0000000000e+000	 3.9250000000e+000	 2.1721397036e-001
 3.5492502969e-001	 3.9340218890e+000	 1.6865630599e-001
 3.1896249929e-001	 3.9371008273e+000	 1.6064391992e-001
 2.8309386561e-001	 3.9398423653e+000	 1.5389909281e-001
 2.4732323202e-001	 3.9422495125e+000	 1.4917270951e-001
 2.1165461914e-001	 3.9443253317e+000	 1.4715522091e-001
 1.7609196437e-001	 3.9460729365e+000	 1.4847986979e-001
 1.4063912148e-001	 3.9474954892e+000	 1.5372588185e-001
 1.0529986028e-001	 3.9485961986e+000	 1.6342161526e-001
 7.0077866328e-002	 3.9493783172e+000	 1.7804766252e-001
 3.4976740737e-002	 3.9498451397e+000	 1.9803989882e-001
 0.0000000000e+000	 3.9500000000e+000	 2.2379247151e-001
 3.5717139063e-001	 3.9589207617e+000	 1.6196604576e-001
 3.2098124928e-001	 3.9620191869e+000	 1.5528073647e-001
 2.8488559894e-001	 3.9647780764e+000	 1.5005853555e-001
 2.4888856893e-001	 3.9672004588e+000	 1.4701342061e-001
 2.1299420534e-001	 3.9692894161e+000	 1.4679866888e-001
 1.7720647047e-001	 3.9710480817e+000	 1.5001017196e-001
 1.4152924250e-001	 3.9724796379e+000	 1.5718971335e-001
 1.0596631509e-001	 3.9735873138e+000	 1.6882820194e-001
 7.0521397127e-002	 3.9743743825e+000	 1.8536885523e-001
 3.5198112513e-002	 3.9748441596e+000	 2.0721032629e-001
 0.0000000000e+000	 3.9750000000e+000	 2.3470976899e-001
 3.5941775158e-001	 3.9838196344e+000	 1.5366418919e-001
 3.2299999927e-001	 3.9869375466e+000	 1.4885276455e-001
 2.8667733226e-001	 3.9897137876e+000	 1.4571655492e-001
 2.5045390584e-001	 3.9921514051e+000	 1.4493166896e-001
 2.1433379153e-001	 3.9942535004e+000	 1.4711324533e-001
 1.7832097657e-001	 3.9960232268e+000	 1.5281885785e-001
 1.4241936352e-001	 3.9974637866e+000	 1.6255188099e-001
 1.0663276990e-001	 3.9985784289e+000	 1.7676480881e-001
 7.0964927926e-002	 3.9993704478e+000	 1.9586252087e-001
 3.5419484290e-002	 3.9998431794e+000	 2.2020548917e-001
 0.0000000000e+000	 4.0000000000e+000	 2.5011292051e-001
 4.0000000000e+000	 0.0000000000e+000	 8.0618352313e-001
 3.9998431794e+000	 3.5419484290e-002	 8.0665467542e-001
 3.9993704478e+000	 7.0964927926e-002	 8.0331799089e-001
 3.9985784289e+000	 1.0663276990e-001	 7.9710389444e-001
 3.9974637866e+000	 1.4241936352e-001	 7.8887344648e-001
 3.9960232268e+000	 1.7832097657e-001	 7.7941541658e-001
 3.9942535004e+000	 2.1433379153e-001	 7.6944343556e-001
 3.9921514051e+000	 2.5045390584e-001	 7.5959323490e-001
 3.9897137876e+000	 2.8667733226e-001	 7.5041998269e-001
 3.9869375466e+000	 3.2299999927e-001	 7.4239572518e-001
 3.9838196344e+000	 3.5941775158e-001	 7.3590694306e-001
 4.0250000000e+000	 0.0000000000e+000	 7.7377224872e-001
 4.0248421993e+000	 3.5640856066e-002	 7.7802359038e-001
 4.0243665131e+000	 7.1408458726e-002	 7.7819440805e-001
 4.0235695441e+000	 1.0729922471e-001	 7.7520088742e-001
 4.0224479352e+000	 1.4330948454e-001	 7.6988839793e-001
 4.0209983720e+000	 1.7943548268e-001	 7.6302854161e-001
 4.0192175848e+000	 2.1567337773e-001	 7.5531628281e-001
 4.0171023514e+000	 2.5201924275e-001	 7.4736716778e-001
 4.0146494988e+000	 2.8846906558e-001	 7.3971464352e-001
 4.0118559063e+000	 3.2501874926e-001	 7.3280748510e-001
 4.0087185072e+000	 3.6166411252e-001	 7.2700734071e-001
 4.0500000000e+000	 0.0000000000e+000	 7.4166199557e-001
 4.0498412192e+000	 3.5862227843e-002	 7.4928651413e-001
 4.0493625784e+000	 7.1851989525e-002	 7.5259978813e-001
 4.0485606593e+000	 1.0796567952e-001	 7.5250417524e-001
 4.0474320839e+000	 1.4419960556e-001	 7.4982972821e-001
 4.0459735172e+000	 1.8054998878e-001	 7.4533121778e-001
 4.0441816692e+000	 2.1701296393e-001	 7.3968523878e-001
 4.0420532976e+000	 2.5358457966e-001	 7.3348740887e-001
 4.0395852100e+000	 2.9026079891e-001	 7.2724966914e-001
 4.0367742659e+000	 3.2703749926e-001	 7.2139769614e-001
 4.0336173799e+000	 3.6391047346e-001	 7.1626843474e-001
 4.0750000000e+000	 0.0000000000e+000	 7.0978003001e-001
 4.0748402391e+000	 3.6083599620e-002	 7.2038102768e-001
 4.0743586437e+000	 7.2295520325e-002	 7.2648202249e-001
 4.0735517745e+000	 1.0863213434e-001	 7.2897195018e-001
 4.0724162326e+000	 1.4508972659e-001	 7.2866591583e-001
 4.0709486623e+000	 1.8166449488e-001	 7.2630218957e-001
 4.0691457536e+000	 2.1835255012e-001	 7.2253928803e-001
 4.0670042439e+000	 2.5514991657e-001	 7.1795315096e-001
 4.0645209211e+000	 2.9205253223e-001	 7.1303442258e-001
 4.0616926256e+000	 3.2905624925e-001	 7.0818584729e-001
 4.0585162526e+000	 3.6615683441e-001	 7.0371978924e-001
 4.1000000000e+000	 0.0000000000e+000	 6.7805539233e-001
 4.0998392589e+000	 3.6304971397e-002	 6.9124633521e-001
 4.0993547090e+000	 7.2739051125e-002	 6.9979048154e-001
 4.0985428897e+000	 1.0929858915e-001	 7.0456374631e-001
 4.0974003812e+000	 1.4597984761e-001	 7.0636665076e-001
 4.0959238075e+000	 1.8277900099e-001	 7.0592128978e-001
 4.0941098380e+000	 2.1969213632e-001	 7.0386838747e-001
 4.0919551902e+000	 2.5671525349e-001	 7.0076445060e-001
 4.0894566323e+000	 2.9384426556e-001	 6.9707902956e-001
 4.0866109853e+000	 3.3107499925e-001	 6.9319209671e-001
 4.0834151253e+000	 3.6840319536e-001	 6.8939155166e-001
 4.1250000000e+000	 0.0000000000e+000	 6.4641884309e-001
 4.1248382788e+000	 3.6526343175e-002	 6.6182321482e-001
 4.1243507743e+000	 7.3182581926e-002	 6.7247596985e-001
 4.1235340048e+000	 1.0996504396e-001	 6.7924039873e-001
 4.1223845299e+000	 1.4686996863e-001	 6.8290279769e-001
 4.1208989527e+000	 1.8389350709e-001	 6.8416940648e-001
 4.1190739223e+000	 2.2103172252e-001	 6.8366343690e-001
 4.1169061365e+000	 2.5828059040e-001	 6.8192220195e-001
 4.1143923435e+000	 2.9563599889e-001	 6.7939435537e-001
 4.1115293449e+000	 3.3309374924e-001	 6.7643725143e-001
 4.1083139980e+000	 3.7064955631e-001	 6.7331443511e-001
 4.1500000000e+000	 0.0000000000e+000	 6.1480281124e-001
 4.1498372987e+000	 3.6747714952e-002	 6.3205397115e-001
 4.1493468396e+000	 7.3626112727e-002	 6.4449068299e-001
 4.1485251200e+000	 1.1063149878e-001	 6.5296400447e-001
 4.1473686786e+000	 1.4776008966e-001	 6.5824636072e-001
 4.1458740978e+000	 1.8500801320e-001	 6.6102845131e-001
 4.1440380067e+000	 2.2237130872e-001	 6.6191625062e-001
 4.1418570828e+000	 2.5984592731e-001	 6.6142811157e-001
 4.1393280547e+000	 2.9742773222e-001	 6.5999198256e-001
 4.1364477046e+000	 3.3511249924e-001	 6.5794274784e-001
 4.1332128707e+000	 3.7289591725e-001	 6.5551970135e-001
 4.1750000000e+000	 0.0000000000e+000	 5.8314134422e-001
 4.1748363185e+000	 3.6969086730e-002	 6.0188238970e-001
 4.1743429049e+000	 7.4069643528e-002	 6.1578816585e-001
 4.1735162352e+000	 1.1129795359e-001	 6.2569788464e-001
 4.1723528272e+000	 1.4865021068e-001	 6.3237044917e-001
 4.1708492430e+000	 1.8612251931e-001	 6.3648132876e-001
 4.1690020911e+000	 2.2371089492e-001	 6.3861953004e-001
 4.1668080290e+000	 2.6141126423e-001	 6.3928467404e-001
 4.1642637658e+000	 2.9921946555e-001	 6.3888418952e-001
 4.1613660643e+000	 3.3713124924e-001	 6.3773063280e-001
 4.1581117435e+000	 3.7514227820e-001	 6.3603914429e-001
 4.2000000000e+000	 0.0000000000e+000	 5.5137005976e-001
 4.1998353384e+000	 3.7190458508e-002	 5.7125369269e-001
 4.1993389702e+000	 7.4513174330e-002	 5.8632327253e-001
 4.1985073504e+000	 1.1196440840e-001	 5.9740654806e-001
 4.1973369759e+000	 1.4954033171e-001	 6.0524924473e-001
 4.1958243882e+000	 1.8723702541e-001	 6.1051190668e-001
 4.1939661755e+000	 2.2505048112e-001	 6.1376683729e-001
 4.1917589753e+000	 2.6297660114e-001	 6.1549514856e-001
 4.1891994770e+000	 3.0101119888e-001	 6.1608392973e-001
 4.1862844239e+000	 3.3914999924e-001	 6.1582354549e-001
 4.1830106162e+000	 3.7738863915e-001	 6.1490507427e-001
 4.2250000000e+000	 0.0000000000e+000	 5.1942609944e-001
 4.2248343583e+000	 3.7411830286e-002	 5.4011449662e-001
 4.2243350355e+000	 7.4956705132e-002	 5.5605212758e-001
 4.2234984656e+000	 1.1263086322e-001	 5.6805565606e-001
 4.2223211246e+000	 1.5043045273e-001	 5.7685796971e-001
 4.2207995333e+000	 1.8835153152e-001	 5.8310498773e-001
 4.2189302598e+000	 2.2639006732e-001	 5.8735256973e-001
 4.2167099216e+000	 2.6454193806e-001	 5.9006353630e-001
 4.2141351882e+000	 3.0280293221e-001	 5.9160481179e-001
 4.2112027836e+000	 3.4116874924e-001	 5.9224469991e-001
 4.2079094889e+000	 3.7963500011e-001	 5.9215030266e-001
 4.2500000000e+000	 0.0000000000e+000	 4.8724808383e-001
 4.2498333782e+000	 3.7633202065e-002	 5.0841277124e-001
 4.2493311008e+000	 7.5400235934e-002	 5.2493208861e-001
 4.2484895807e+000	 1.1329731804e-001	 5.3761198862e-001
 4.2473052732e+000	 1.5132057376e-001	 5.4717285646e-001
 4.2457746785e+000	 1.8946603763e-001	 5.5424628192e-001
 4.2438943442e+000	 2.2772965353e-001	 5.5937193541e-001
 4.2416608679e+000	 2.6610727498e-001	 5.6299455858e-001
 4.2390708994e+000	 3.0459466554e-001	 5.6546108018e-001
 4.2361211433e+000	 3.4318749924e-001	 5.6701786793e-001
 4.2328083616e+000	 3.8188136106e-001	 5.6780812721e-001
 3.9838196344e+000	 3.5941775158e-001	 7.3590694306e-001
 3.9803570600e+000	 3.9592635063e-001	 7.3580243713e-001
 3.9765468906e+000	 4.3252147529e-001	 7.3228677422e-001
 3.9723862550e+000	 4.6919872246e-001	 7.2541932122e-001
 3.9678723450e+000	 5.0595360791e-001	 7.1516898398e-001
 3.9630024187e+000	 5.4278156711e-001	 7.0141260200e-001
 3.9577738019e+000	 5.7967795609e-001	 6.8393351073e-001
 3.9521838915e+000	 6.1663805252e-001	 6.6242027958e-001
 3.9462301570e+000	 6.5365705668e-001	 6.3469283512e-001
 3.9399101435e+000	 6.9073009268e-001	 6.1397120894e-001
 3.9332214737e+000	 7.2785220965e-001	 6.0254180895e-001
 4.0087185072e+000	 3.6166411252e-001	 7.2700734071e-001
 4.0052342916e+000	 3.9840089032e-001	 7.2712300991e-001
 4.0014003087e+000	 4.3522473450e-001	 7.2375293827e-001
 3.9972136691e+000	 4.7213121447e-001	 7.1692787833e-001
 3.9926715472e+000	 5.0911581796e-001	 7.0658622875e-001
 3.9877711838e+000	 5.4617395190e-001	 6.9257242757e-001
 3.9825098882e+000	 5.8330094331e-001	 6.7463551691e-001
 3.9768850408e+000	 6.2049204034e-001	 6.5242788763e-001
 3.9708940955e+000	 6.5774241328e-001	 6.2626516071e-001
 3.9645345819e+000	 6.9504715575e-001	 6.0735738006e-001
 3.9578041079e+000	 7.3240128595e-001	 5.9659073080e-001
 4.0336173799e+000	 3.6391047346e-001	 7.1626843474e-001
 4.0301115232e+000	 4.0087543001e-001	 7.1656369287e-001
 4.0262537268e+000	 4.3792799372e-001	 7.1333763609e-001
 4.0220410832e+000	 4.7506370648e-001	 7.0659237262e-001
 4.0174707494e+000	 5.1227802800e-001	 6.9623571960e-001
 4.0125399489e+000	 5.4956633669e-001	 6.8207959412e-001
 4.0072459744e+000	 5.8692393053e-001	 6.6383857978e-001
 4.0015861901e+000	 6.2434602816e-001	 6.4112867745e-001
 3.9955580340e+000	 6.6182776988e-001	 6.1711283632e-001
 3.9891590203e+000	 6.9936421883e-001	 5.9985492979e-001
 3.9823867421e+000	 7.3695036226e-001	 5.8960151661e-001
 4.0585162526e+000	 3.6615683441e-001	 7.0371978924e-001
 4.0549887548e+000	 4.0334996970e-001	 7.0416530211e-001
 4.0511071448e+000	 4.4063125294e-001	 7.0109296824e-001
 4.0468684973e+000	 4.7799619849e-001	 6.9447621484e-001
 4.0422699515e+000	 5.1544023805e-001	 6.8419219615e-001
 4.0373087140e+000	 5.5295872148e-001	 6.7002018162e-001
 4.0319820607e+000	 5.9054691776e-001	 6.5164012362e-001
 4.0262873394e+000	 6.2820001599e-001	 6.2869951847e-001
 4.0202219725e+000	 6.6591312648e-001	 6.0724165383e-001
 4.0137834587e+000	 7.0368128190e-001	 5.9147225902e-001
 4.0069693763e+000	 7.4149943857e-001	 5.8158492531e-001
 4.0834151253e+000	 3.6840319536e-001	 6.8939155166e-001
 4.0798659865e+000	 4.0582450939e-001	 6.8996912896e-001
 4.0759605629e+000	 4.4333451216e-001	 6.8707140796e-001
 4.0716959114e+000	 4.8092869050e-001	 6.8064309150e-001
 4.0670691537e+000	 5.1860244810e-001	 6.7053058268e-001
 4.0620774791e+000	 5.5635110627e-001	 6.5648036935e-001
 4.0567181470e+000	 5.9416990498e-001	 6.3813759261e-001
 4.0509884888e+000	 6.3205400381e-001	 6.1569164986e-001
 4.0448859109e+000	 6.6999848308e-001	 5.9665728435e-001
 4.0384078971e+000	 7.0799834498e-001	 5.8221758677e-001
 4.0315520105e+000	 7.4604851487e-001	 5.7255147919e-001
 4.1083139980e+000	 3.7064955631e-001	 6.7331443511e-001
 4.1047432181e+000	 4.0829904908e-001	 6.7401692558e-001
 4.1008139810e+000	 4.4603777138e-001	 6.7132578988e-001
 4.0965233255e+000	 4.8386118252e-001	 6.6515695656e-001
 4.0918683558e+000	 5.2176465814e-001	 6.5532598244e-001
 4.0868462442e+000	 5.5974349106e-001	 6.4154643289e-001
 4.0814542332e+000	 5.9779289220e-001	 6.2342845022e-001
 4.0756896381e+000	 6.3590799164e-001	 6.0214601939e-001
 4.0695498494e+000	 6.7408383968e-001	 5.8536528195e-001
 4.0630323355e+000	 7.1231540806e-001	 5.7209895577e-001
 4.0561346447e+000	 7.5059759118e-001	 5.6251147104e-001
 4.1332128707e+000	 3.7289591725e-001	 6.5551970135e-001
 4.1296204497e+000	 4.1077358877e-001	 6.5635089109e-001
 4.1256673990e+000	 4.4874103060e-001	 6.5390929913e-001
 4.1213507395e+000	 4.8679367453e-001	 6.4808202331e-001
 4.1166675580e+000	 5.2492686819e-001	 6.3865367237e-001
 4.1116150094e+000	 5.6313587586e-001	 6.2530474119e-001
 4.1061903195e+000	 6.0141587943e-001	 6.0761017866e-001
 4.1003907874e+000	 6.3976197947e-001	 5.8806540677e-001
 4.0942137879e+000	 6.7816919628e-001	 5.7337108709e-001
 4.0876567739e+000	 7.1663247114e-001	 5.6112423771e-001
 4.0807172789e+000	 7.5514666749e-001	 5.5147497105e-001
 4.1581117435e+000	 3.7514227820e-001	 6.3603914429e-001
 4.1544976813e+000	 4.1324812847e-001	 6.3701365819e-001
 4.1505208171e+000	 4.5144428982e-001	 6.3487546086e-001
 4.1461781536e+000	 4.8972616655e-001	 6.2948275668e-001
 4.1414667601e+000	 5.2808907824e-001	 6.2058909780e-001
 4.1363837745e+000	 5.6652826065e-001	 6.0784175381e-001
 4.1309264058e+000	 6.0503886665e-001	 5.9078027830e-001
 4.1250919367e+000	 6.4361596729e-001	 5.7345254289e-001
 4.1188777264e+000	 6.8225455289e-001	 5.6068003009e-001
 4.1122812123e+000	 7.2094953422e-001	 5.4930113838e-001
 4.1052999131e+000	 7.5969574380e-001	 5.3945183351e-001
 4.1830106162e+000	 3.7738863915e-001	 6.1490507427e-001
 4.1793749130e+000	 4.1572266816e-001	 6.1604828023e-001
 4.1753742352e+000	 4.5414754904e-001	 6.1427813009e-001
 4.1710055677e+000	 4.9265865857e-001	 6.0942386568e-001
 4.1662659623e+000	 5.3125128829e-001	 6.0120786752e-001
 4.1611525396e+000	 5.6992064545e-001	 5.8924401822e-001
 4.1556624920e+000	 6.0866185388e-001	 5.7303626714e-001
 4.1497930861e+000	 6.4746995512e-001	 5.5831011137e-001
 4.1435416649e+000	 6.8633990949e-001	 5.4729733441e-001
 4.1369056507e+000	 7.2526659730e-001	 5.3663720262e-001
 4.1298825474e+000	 7.6424482012e-001	 5.2645170322e-001
 4.2079094889e+000	 3.7963500011e-001	 5.9215030266e-001
 4.2042521446e+000	 4.1819720786e-001	 5.9349821878e-001
 4.2002276532e+000	 4.5685080827e-001	 5.9217148198e-001
 4.1958329818e+000	 4.9559115059e-001	 5.8797029623e-001
 4.1910651645e+000	 5.3441349835e-001	 5.8058574889e-001
 4.1859213047e+000	 5.7331303024e-001	 5.6959816717e-001
 4.1803985783e+000	 6.1228484111e-001	 5.5447568027e-001
 4.1744942354e+000	 6.5132394295e-001	 5.4264074984e-001
 4.1682056034e+000	 6.9042526610e-001	 5.3322811975e-001
 4.1615300891e+000	 7.2958366038e-001	 5.2313981907e-001
 4.1544651816e+000	 7.6879389643e-001	 5.1248402165e-001
 4.2328083616e+000	 3.8188136106e-001	 5.6780812721e-001
 4.2291293762e+000	 4.2067174755e-001	 5.6940733165e-001
 4.2250810713e+000	 4.5955406749e-001	 5.6861000241e-001
 4.2206603959e+000	 4.9852364261e-001	 5.6518722416e-001
 4.2158643666e+000	 5.3757570840e-001	 5.5879866319e-001
 4.2106900698e+000	 5.7670541504e-001	 5.4899091620e-001
 4.2051346646e+000	 6.1590782834e-001	 5.3519606939e-001
 4.1991953847e+000	 6.5517793079e-001	 5.2644705141e-001
 4.1928695419e+000	 6.9451062271e-001	 5.1847740518e-001
 4.1861545275e+000	 7.3390072346e-001	 5.0881622476e-001
 4.1790478158e+000	 7.7334297274e-001	 4.9755803300e-001
 3.9332214737e+000	 7.2785220965e-001	 6.0254180895e-001
 3.9261618501e+000	 7.6501838302e-001	 5.9478313300e-001
 3.9187290581e+000	 8.0222351592e-001	 5.8410601498e-001
 3.9109209671e+000	 8.3946244064e-001	 5.7059017670e-001
 3.9027355338e+000	 8.7672992013e-001	 5.5431517287e-001
 3.8941708042e+000	 9.1402064961e-001	 5.3536030439e-001
 3.8852249153e+000	 9.5132925831e-001	 5.1380453299e-001
 3.8758960980e+000	 9.8865031116e-001	 4.8972639699e-001
 3.8661826788e+000	 1.0259783107e+000	 4.6320392870e-001
 3.8560830823e+000	 1.0633076989e+000	 4.3431457348e-001
 3.8455958328e+000	 1.1006328594e+000	 4.0313511067e-001
 3.9578041079e+000	 7.3240128595e-001	 5.9659073080e-001
 3.9507003617e+000	 7.6979974791e-001	 5.8824902667e-001
 3.9432211147e+000	 8.0723741289e-001	 5.7723398639e-001
 3.9353642231e+000	 8.4470908089e-001	 5.6362865339e-001
 3.9271276309e+000	 8.8220948212e-001	 5.4751569455e-001
 3.9185093717e+000	 9.1973327867e-001	 5.2897730670e-001
 3.9095075710e+000	 9.5727506617e-001	 5.0809512445e-001
 3.9001204486e+000	 9.9482937561e-001	 4.8495012949e-001
 3.8903463206e+000	 1.0323906751e+000	 4.5962256168e-001
 3.8801836015e+000	 1.0699533720e+000	 4.3219183196e-001
 3.8696308067e+000	 1.1075118147e+000	 4.0273643745e-001
 3.9823867421e+000	 7.3695036226e-001	 5.8960151661e-001
 3.9752388733e+000	 7.7458111280e-001	 5.8066138283e-001
 3.9677131713e+000	 8.1225130986e-001	 5.6929060493e-001
 3.9598074792e+000	 8.4995572114e-001	 5.5557552350e-001
 3.9515197280e+000	 8.8768904412e-001	 5.3960189369e-001
 3.9428479392e+000	 9.2544590773e-001	 5.2145478492e-001
 3.9337902267e+000	 9.6322087403e-001	 5.0121848202e-001
 3.9243447992e+000	 1.0010084400e+000	 4.7897638809e-001
 3.9145099623e+000	 1.0388030396e+000	 4.5481092920e-001
 3.9042841208e+000	 1.0765990452e+000	 4.2880346132e-001
 3.8936657807e+000	 1.1143907701e+000	 4.0103417957e-001
 4.0069693763e+000	 7.4149943857e-001	 5.8158492531e-001
 3.9997773848e+000	 7.7936247769e-001	 5.7203086533e-001
 3.9922052279e+000	 8.1726520684e-001	 5.6028649905e-001
 3.9842507352e+000	 8.5520236139e-001	 5.4644144016e-001
 3.9759118251e+000	 8.9316860612e-001	 5.3058450864e-001
 3.9671865068e+000	 9.3115853678e-001	 5.1280362359e-001
 3.9580728824e+000	 9.6916668190e-001	 4.9318569776e-001
 3.9485691498e+000	 1.0071875045e+000	 4.7181653395e-001
 3.9386736040e+000	 1.0452154040e+000	 4.4878072348e-001
 3.9283846401e+000	 1.0832447183e+000	 4.2416154703e-001
 3.9177007546e+000	 1.1212697255e+000	 3.9804087812e-001
 4.0315520105e+000	 7.4604851487e-001	 5.7255147919e-001
 4.0243158964e+000	 7.8414384258e-001	 5.6236790654e-001
 4.0166972845e+000	 8.2227910381e-001	 5.5023206949e-001
 4.0086939913e+000	 8.6044900165e-001	 5.3623683133e-001
 4.0003039222e+000	 8.9864816812e-001	 5.2047405378e-001
 3.9915250743e+000	 9.3687116584e-001	 5.0303448308e-001
 3.9823555382e+000	 9.7511248976e-001	 4.8400763798e-001
 3.9727935004e+000	 1.0133665689e+000	 4.6348169961e-001
 3.9628372458e+000	 1.0516277685e+000	 4.4154340380e-001
 3.9524851593e+000	 1.0898903914e+000	 4.1827793591e-001
 3.9417357286e+000	 1.1281486808e+000	 3.9376882850e-001
 4.0561346447e+000	 7.5059759118e-001	 5.6251147104e-001
 4.0488544080e+000	 7.8892520747e-001	 5.5168271429e-001
 4.0411893411e+000	 8.2729300078e-001	 5.3913749625e-001
 4.0331372473e+000	 8.6569564190e-001	 5.2497190662e-001
 4.0246960193e+000	 9.0412773012e-001	 5.0928082624e-001
 4.0158636418e+000	 9.4258379490e-001	 4.9215780637e-001
 4.0066381939e+000	 9.8105829763e-001	 4.7369495010e-001
 3.9970178510e+000	 1.0195456334e+000	 4.5398279587e-001
 3.9870008875e+000	 1.0580401329e+000	 4.3311020357e-001
 3.9765856786e+000	 1.0965360645e+000	 4.1116424340e-001
 3.9657707025e+000	 1.1350276362e+000	 3.8823008783e-001
 4.0807172789e+000	 7.5514666749e-001	 5.5147497105e-001
 4.0733929195e+000	 7.9370657237e-001	 5.3998527869e-001
 4.0656813977e+000	 8.3230689776e-001	 5.2701274514e-001
 4.0575805033e+000	 8.7094228215e-001	 5.1265666386e-001
 4.0490881164e+000	 9.0960729212e-001	 4.9701491251e-001
 4.0402022093e+000	 9.4829642396e-001	 4.8018382560e-001
 4.0309208496e+000	 9.8700410549e-001	 4.6225806927e-001
 4.0212422016e+000	 1.0257246978e+000	 4.4333051852e-001
 4.0111645293e+000	 1.0644524973e+000	 4.2349213712e-001
 4.0006861979e+000	 1.1031817376e+000	 4.0283186054e-001
 3.9898056765e+000	 1.1419065916e+000	 3.8143648217e-001
 4.1052999131e+000	 7.5969574380e-001	 5.3945183351e-001
 4.0979314311e+000	 7.9848793726e-001	 5.2728537862e-001
 4.0901734544e+000	 8.3732079473e-001	 5.1386757429e-001
 4.0820237594e+000	 8.7618892241e-001	 4.9930089543e-001
 4.0734802135e+000	 9.1508685412e-001	 4.8368619469e-001
 4.0645407769e+000	 9.5400905303e-001	 4.6712256835e-001
 4.0552035053e+000	 9.9294991336e-001	 4.4970722468e-001
 4.0454665523e+000	 1.0319037623e+000	 4.3153535475e-001
 4.0353281710e+000	 1.0708648618e+000	 4.1270000629e-001
 4.0247867171e+000	 1.1098274108e+000	 3.9329196065e-001
 4.0138406504e+000	 1.1487855470e+000	 3.7339961340e-001
 4.1298825474e+000	 7.6424482012e-001	 5.2645170322e-001
 4.1224699427e+000	 8.0326930216e-001	 5.1359258802e-001
 4.1146655110e+000	 8.4233469171e-001	 4.9971154026e-001
 4.1064670154e+000	 8.8143556267e-001	 4.8491419443e-001
 4.0978723105e+000	 9.2056641613e-001	 4.6930435660e-001
 4.0888793444e+000	 9.5972168209e-001	 4.5298386379e-001
 4.0794861610e+000	 9.9889572122e-001	 4.3605244571e-001
 4.0696909029e+000	 1.0380828267e+000	 4.1860758935e-001
 4.0594918128e+000	 1.0772772262e+000	 4.0074440670e-001
 4.0488872364e+000	 1.1164730839e+000	 3.8255550584e-001
 4.0378756244e+000	 1.1556645023e+000	 3.6413086592e-001
 4.1544651816e+000	 7.6879389643e-001	 5.1248402165e-001
 4.1470084542e+000	 8.0805066705e-001	 4.9891628197e-001
 4.1391575676e+000	 8.4734858869e-001	 4.8455400406e-001
 4.1309102715e+000	 8.8668220292e-001	 4.6950596049e-001
 4.1222644076e+000	 9.2604597813e-001	 4.5387888965e-001
 4.1132179119e+000	 9.6543431115e-001	 4.3777734851e-001
 4.1037688168e+000	 1.0048415291e+000	 4.2130356788e-001
 4.0939152535e+000	 1.0442618912e+000	 4.0455731074e-001
 4.0836554545e+000	 1.0836895907e+000	 3.8763573390e-001
 4.0729877557e+000	 1.1231187570e+000	 3.7063325325e-001
 4.0619105984e+000	 1.1625434577e+000	 3.5364141306e-001
 4.1790478158e+000	 7.7334297274e-001	 4.9755803300e-001
 4.1715469658e+000	 8.1283203195e-001	 4.8326564252e-001
 4.1636496242e+000	 8.5236248567e-001	 4.6840413686e-001
 4.1553535275e+000	 8.9192884318e-001	 4.5308540553e-001
 4.1466565047e+000	 9.3152554013e-001	 4.3741909848e-001
 4.1375564794e+000	 9.7114694021e-001	 4.2151247217e-001
 4.1280514725e+000	 1.0107873370e+000	 4.0547023846e-001
 4.1181396041e+000	 1.0504409556e+000	 3.8939441669e-001
 4.1078190963e+000	 1.0901019551e+000	 3.7338418924e-001
 4.0970882749e+000	 1.1297644301e+000	 3.5753576107e-001
 4.0859455723e+000	 1.1694224131e+000	 3.4194222333e-001
 3.8455958328e+000	 1.1006328594e+000	 4.0313511067e-001
 3.8347195567e+000	 1.1379481191e+000	 3.8233749336e-001
 3.8234529844e+000	 1.1752477508e+000	 3.6101084305e-001
 3.8117949524e+000	 1.2125259753e+000	 3.3921440723e-001
 3.7997444048e+000	 1.2497769635e+000	 3.1700478714e-001
 3.7873003954e+000	 1.2869948389e+000	 2.8153061820e-001
 3.7744620896e+000	 1.3241736799e+000	 2.4862252465e-001
 3.7612287659e+000	 1.3613075226e+000	 2.1868983613e-001
 3.7475998176e+000	 1.3983903631e+000	 1.9270136624e-001
 3.7335747544e+000	 1.4354161602e+000	 1.7185345873e-001
 3.7191532043e+000	 1.4723788383e+000	 1.5232325913e-001
 3.8696308067e+000	 1.1075118147e+000	 4.0273643745e-001
 3.8586865539e+000	 1.1450602948e+000	 3.8320596664e-001
 3.8473495656e+000	 1.1825930493e+000	 3.6283986152e-001
 3.8356186709e+000	 1.2201042627e+000	 3.4170142046e-001
 3.8234928073e+000	 1.2575880695e+000	 3.1694293243e-001
 3.8109710228e+000	 1.2950385566e+000	 2.8167355864e-001
 3.7980524776e+000	 1.3324497654e+000	 2.4866027680e-001
 3.7847364456e+000	 1.3698156946e+000	 2.1823723520e-001
 3.7710223164e+000	 1.4071303029e+000	 1.9075121334e-001
 3.7569095967e+000	 1.4443875112e+000	 1.6656132592e-001
 3.7423979118e+000	 1.4815812060e+000	 1.4653592435e-001
 3.8936657807e+000	 1.1143907701e+000	 4.0103417957e-001
 3.8826535511e+000	 1.1521724706e+000	 3.8288004615e-001
 3.8712461467e+000	 1.1899383477e+000	 3.6358851923e-001
 3.8594423893e+000	 1.2276825500e+000	 3.4322691703e-001
 3.8472412098e+000	 1.2653991756e+000	 3.1600123946e-001
 3.8346416503e+000	 1.3030822743e+000	 2.8112230261e-001
 3.8216428657e+000	 1.3407258509e+000	 2.4810459178e-001
 3.8082441254e+000	 1.3783238666e+000	 2.1729321885e-001
 3.7944448153e+000	 1.4158702426e+000	 1.8904661668e-001
 3.7802444389e+000	 1.4533588622e+000	 1.6373623892e-001
 3.7656426193e+000	 1.4907835738e+000	 1.4174622387e-001
 3.9177007546e+000	 1.1212697255e+000	 3.9804087812e-001
 3.9066205484e+000	 1.1592846463e+000	 3.8137003495e-001
 3.8951427279e+000	 1.1972836462e+000	 3.6326480641e-001
 3.8832661078e+000	 1.2352608374e+000	 3.4379649991e-001
 3.8709896123e+000	 1.2732102816e+000	 3.1427071154e-001
 3.8583122778e+000	 1.3111259921e+000	 2.7987860599e-001
 3.8452332537e+000	 1.3490019364e+000	 2.4695397814e-001
 3.8317518052e+000	 1.3868320386e+000	 2.1585294111e-001
 3.8178673141e+000	 1.4246101824e+000	 1.8694562146e-001
 3.8035792811e+000	 1.4623302133e+000	 1.6061585478e-001
 3.7888873268e+000	 1.4999859415e+000	 1.3726084406e-001
 3.9417357286e+000	 1.1281486808e+000	 3.9376882850e-001
 3.9305875456e+000	 1.1663968220e+000	 3.7868604910e-001
 3.9190393090e+000	 1.2046289446e+000	 3.6187658696e-001
 3.9070898262e+000	 1.2428391247e+000	 3.4341570838e-001
 3.8947380149e+000	 1.2810213876e+000	 3.1175624439e-001
 3.8819829053e+000	 1.3191697098e+000	 2.7794429194e-001
 3.8688236418e+000	 1.3572780219e+000	 2.4520707997e-001
 3.8552594850e+000	 1.3953402107e+000	 2.1391176170e-001
 3.8412898130e+000	 1.4333501222e+000	 1.8444019896e-001
 3.8269141233e+000	 1.4713015643e+000	 1.5718865354e-001
 3.8121320343e+000	 1.5091883092e+000	 1.3256744017e-001
 3.9657707025e+000	 1.1350276362e+000	 3.8823008783e-001
 3.9545545428e+000	 1.1735089978e+000	 3.7483802338e-001
 3.9429358902e+000	 1.2119742430e+000	 3.5943160237e-001
 3.9309135447e+000	 1.2504174121e+000	 3.4192457695e-001
 3.9184864174e+000	 1.2888324936e+000	 3.0846273452e-001
 3.9056535327e+000	 1.3272134276e+000	 2.7532124879e-001
 3.8924140299e+000	 1.3655541074e+000	 2.4286267282e-001
 3.8787671648e+000	 1.4038483827e+000	 2.1146523985e-001
 3.8647123118e+000	 1.4420900620e+000	 1.8152258975e-001
 3.8502489655e+000	 1.4802729153e+000	 1.5344345619e-001
 3.8353767419e+000	 1.5183906770e+000	 1.2765131397e-001
 3.9898056765e+000	 1.1419065916e+000	 3.8143648217e-001
 3.9785215400e+000	 1.1806211735e+000	 3.6983571672e-001
 3.9668324714e+000	 1.2193195415e+000	 3.5593747532e-001
 3.9547372631e+000	 1.2579956994e+000	 3.3669764299e-001
 3.9422348199e+000	 1.2966435997e+000	 3.0439507924e-001
 3.9293241602e+000	 1.3352571453e+000	 2.7201142815e-001
 3.9160044179e+000	 1.3738301929e+000	 2.3991965973e-001
 3.9022748446e+000	 1.4123565547e+000	 2.0850912825e-001
 3.8881348107e+000	 1.4508300017e+000	 1.7818529566e-001
 3.8735838077e+000	 1.4892442663e+000	 1.4936941436e-001
 3.8586214494e+000	 1.5275930447e+000	 1.2249816905e-001
 4.0138406504e+000	 1.1487855470e+000	 3.7339961340e-001
 4.0024885373e+000	 1.1877333493e+000	 3.6368871749e-001
 3.9907290525e+000	 1.2266648399e+000	 3.5140171327e-001
 3.9785609816e+000	 1.2655739868e+000	 3.3061764227e-001
 3.9659832225e+000	 1.3044547057e+000	 2.9955817661e-001
 3.9529947877e+000	 1.3433008631e+000	 2.6801684297e-001
 3.9395948060e+000	 1.3821062784e+000	 2.3637706737e-001
 3.9257825243e+000	 1.4208647267e+000	 2.0503936728e-001
 3.9115573096e+000	 1.4595699415e+000	 1.7442107186e-001
 3.8969186499e+000	 1.4982156173e+000	 1.4495600045e-001
 3.8818661569e+000	 1.5367954125e+000	 1.1709409875e-001
 4.0378756244e+000	 1.1556645023e+000	 3.6413086592e-001
 4.0264555345e+000	 1.1948455250e+000	 3.5640644854e-001
 4.0146256337e+000	 1.2340101384e+000	 3.4583171189e-001
 4.0023847000e+000	 1.2731522741e+000	 3.2369219945e-001
 3.9897316250e+000	 1.3122658117e+000	 2.9395692543e-001
 3.9766654151e+000	 1.3513445808e+000	 2.6333956573e-001
 3.9631851940e+000	 1.3903823639e+000	 2.3223404244e-001
 3.9492902041e+000	 1.4293728987e+000	 2.0105207941e-001
 3.9349798084e+000	 1.4683098813e+000	 1.7022291939e-001
 3.9202534922e+000	 1.5071869683e+000	 1.4019299804e-001
 3.9051108645e+000	 1.5459977802e+000	 1.1142557458e-001
 4.0619105984e+000	 1.1625434577e+000	 3.5364141306e-001
 4.0504225317e+000	 1.2019577008e+000	 3.4799817213e-001
 4.0385222148e+000	 1.2413554368e+000	 3.3923475840e-001
 4.0262084185e+000	 1.2807305615e+000	 3.1592888446e-001
 4.0134800275e+000	 1.3200769177e+000	 2.8759622521e-001
 4.0003360426e+000	 1.3593882986e+000	 2.5798172667e-001
 3.9867755821e+000	 1.3986584494e+000	 2.2748984805e-001
 3.9727978839e+000	 1.4378810707e+000	 1.9654356385e-001
 3.9584023073e+000	 1.4770498210e+000	 1.6558407784e-001
 3.9435883344e+000	 1.5161583193e+000	 1.3507049273e-001
 3.9283555720e+000	 1.5552001479e+000	 1.0547943504e-001
 4.0859455723e+000	 1.1694224131e+000	 3.4194222333e-001
 4.0743895290e+000	 1.2090698765e+000	 3.3847299463e-001
 4.0624187960e+000	 1.2487007353e+000	 3.3161803467e-001
 4.0500321369e+000	 1.2883088488e+000	 3.0733521416e-001
 4.0372284301e+000	 1.3278880237e+000	 2.8048097615e-001
 4.0240066701e+000	 1.3674320163e+000	 2.5194551212e-001
 4.0103659702e+000	 1.4069345349e+000	 2.2214386034e-001
 3.9963055637e+000	 1.4463892427e+000	 1.9151029128e-001
 3.9818248061e+000	 1.4857897608e+000	 1.6049801838e-001
 3.9669231766e+000	 1.5251296703e+000	 1.2957886325e-001
 3.9516002795e+000	 1.5644025157e+000	 9.9242874813e-002
 3.7191532043e+000	 1.4723788383e+000	 1.5232325913e-001
 3.7043349141e+000	 1.5092722896e+000	 1.2486282088e-001
 3.6891197520e+000	 1.5460903777e+000	 9.6247668507e-002
 3.6735077078e+000	 1.5828269397e+000	 6.6728931343e-002
 3.6574988949e+000	 1.6194757899e+000	 3.6570775420e-002
 3.6410935510e+000	 1.6560307222e+000	 6.0501534468e-003
 3.6242920395e+000	 1.6924855132e+000	-2.4543478913e-002
 3.6070948501e+000	 1.7288339256e+000	-5.4908480459e-002
 3.5895026000e+000	 1.7650697110e+000	-8.4731375506e-002
 3.5715160343e+000	 1.8011866135e+000	-1.1368723839e-001
 3.5531360273e+000	 1.8371783722e+000	-1.4144011115e-001
 3.7423979118e+000	 1.4815812060e+000	 1.4653592435e-001
 3.7274870073e+000	 1.5187052414e+000	 1.1981090030e-001
 3.7121767504e+000	 1.5557534425e+000	 9.2146474582e-002
 3.6964671309e+000	 1.5927196081e+000	 6.3800288803e-002
 3.6803582629e+000	 1.6295975136e+000	 3.5043083140e-002
 3.6638503857e+000	 1.6663809142e+000	 6.1584375374e-003
 3.6469438648e+000	 1.7030635476e+000	-2.2557521255e-002
 3.6296391930e+000	 1.7396391376e+000	-5.0796446785e-002
 3.6119369912e+000	 1.7761013967e+000	-7.8238134067e-002
 3.5938380095e+000	 1.8124440298e+000	-1.0455091463e-001
 3.5753431275e+000	 1.8486607371e+000	-1.2939208517e-001
 3.7656426193e+000	 1.4907835738e+000	 1.4174622387e-001
 3.7506391005e+000	 1.5281381932e+000	 1.1475922010e-001
 3.7352337488e+000	 1.5654165074e+000	 8.8035809061e-002
 3.7194265541e+000	 1.6026122765e+000	 6.0821071962e-002
 3.7032176310e+000	 1.6397192373e+000	 3.3417467153e-002
 3.6866072204e+000	 1.6767311062e+000	 6.1152692759e-003
 3.6695956900e+000	 1.7136415821e+000	-2.0782649143e-002
 3.6521835358e+000	 1.7504443496e+000	-4.6961154517e-002
 3.6343713825e+000	 1.7871330824e+000	-7.2093223537e-002
 3.6161599847e+000	 1.8237014462e+000	-9.5840348820e-002
 3.5975502277e+000	 1.8601431019e+000	-1.1785297857e-001
 3.7888873268e+000	 1.4999859415e+000	 1.3726084406e-001
 3.7737911937e+000	 1.5375711450e+000	 1.0869659600e-001
 3.7582907473e+000	 1.5750795722e+000	 8.2695031468e-002
 3.7423859773e+000	 1.6125049449e+000	 5.7785146315e-002
 3.7260769991e+000	 1.6498409610e+000	 3.1687646459e-002
 3.7093640551e+000	 1.6870812982e+000	 5.9142580931e-003
 3.6922475153e+000	 1.7242196165e+000	-1.9225325013e-002
 3.6747278786e+000	 1.7612495617e+000	-4.3409099480e-002
 3.6568057737e+000	 1.7981647681e+000	-6.6303133866e-002
 3.6384819600e+000	 1.8349588625e+000	-8.7561984986e-002
 3.6197573278e+000	 1.8716254667e+000	-1.0682914867e-001
 3.8121320343e+000	 1.5091883092e+000	 1.3256744017e-001
 3.7969432870e+000	 1.5470040968e+000	 1.0235531406e-001
 3.7813477457e+000	 1.5847426371e+000	 7.4941129804e-002
 3.7653454004e+000	 1.6223976132e+000	 5.0752591713e-002
 3.7489363672e+000	 1.6599626847e+000	 2.9847749442e-002
 3.7321208898e+000	 1.6974314902e+000	 5.5494143304e-003
 3.7148993405e+000	 1.7347976510e+000	-1.7891620479e-002
 3.6972722214e+000	 1.7720547737e+000	-4.0146398377e-002
 3.6792401650e+000	 1.8091964538e+000	-6.0873989211e-002
 3.6608039352e+000	 1.8462162788e+000	-7.9721916329e-002
 3.6419644280e+000	 1.8831078316e+000	-1.0175182674e-001
 3.8353767419e+000	 1.5183906770e+000	 1.2765131397e-001
 3.8200953802e+000	 1.5564370487e+000	 9.5720161650e-002
 3.8044047442e+000	 1.5944057020e+000	 6.6816340938e-002
 3.7883048236e+000	 1.6322902816e+000	 4.1377296708e-002
 3.7717957353e+000	 1.6700844084e+000	 1.9853197851e-002
 3.7548777245e+000	 1.7077816822e+000	 2.7064126166e-003
 3.7375511658e+000	 1.7453756855e+000	-1.6787228171e-002
 3.7198165642e+000	 1.7828599857e+000	-3.7178800279e-002
 3.7016745562e+000	 1.8202281395e+000	-5.5811559021e-002
 3.6831259104e+000	 1.8574736952e+000	-7.2325895839e-002
 3.6641715282e+000	 1.8945901964e+000	-9.9208486464e-002
 3.8586214494e+000	 1.5275930447e+000	 1.2249816905e-001
 3.8432474734e+000	 1.5658700005e+000	 8.8776326002e-002
 3.8274617426e+000	 1.6040687668e+000	 5.8305368422e-002
 3.8112642468e+000	 1.6421829500e+000	 3.1532576192e-002
 3.7946551034e+000	 1.6802061321e+000	 8.9180449644e-003
 3.7776345592e+000	 1.7181318743e+000	-9.0658516416e-003
 3.7602029910e+000	 1.7559537199e+000	-2.1935038824e-002
 3.7423609070e+000	 1.7936651978e+000	-3.4511697701e-002
 3.7241089475e+000	 1.8312598252e+000	-5.1121268720e-002
 3.7054478856e+000	 1.8687311115e+000	-6.5379346541e-002
 3.6863786283e+000	 1.9060725612e+000	-9.6882540696e-002
 3.8818661569e+000	 1.5367954125e+000	 1.1709409875e-001
 3.8663995666e+000	 1.5753029523e+000	 8.1509382221e-002
 3.8505187411e+000	 1.6137318317e+000	 4.9393300353e-002
 3.8342236700e+000	 1.6520756183e+000	 2.1203063459e-002
 3.8175144715e+000	 1.6903278558e+000	-2.5912034028e-003
 3.8003913939e+000	 1.7284820663e+000	-2.1507011434e-002
 3.7828548162e+000	 1.7665317544e+000	-3.5050098673e-002
 3.7649052498e+000	 1.8044704098e+000	-4.2715059606e-002
 3.7465433387e+000	 1.8422915109e+000	-4.6808210008e-002
 3.7277698608e+000	 1.8799885278e+000	-6.1773864656e-002
 3.7085857285e+000	 1.9175549260e+000	-9.4756094926e-002
 3.9051108645e+000	 1.5459977802e+000	 1.1142557458e-001
 3.8895516598e+000	 1.5847359041e+000	 7.3905281752e-002
 3.8735757395e+000	 1.6233948965e+000	 4.0065597929e-002
 3.8571830931e+000	 1.6619682867e+000	 1.0373760247e-002
 3.8403738396e+000	 1.7004495794e+000	-1.4689973199e-002
 3.8231482286e+000	 1.7388322583e+000	-3.4632887644e-002
 3.8055066415e+000	 1.7771097888e+000	-4.8950416090e-002
 3.7874495926e+000	 1.8152756218e+000	-5.7126783362e-002
 3.7689777300e+000	 1.8533231966e+000	-5.8635689126e-002
 3.7500918360e+000	 1.8912459442e+000	-6.2094786459e-002
 3.7307928287e+000	 1.9290372909e+000	-9.2810958764e-002
 3.9283555720e+000	 1.5552001479e+000	 1.0547943504e-001
 3.9127037530e+000	 1.5941688559e+000	 6.5950341244e-002
 3.8966327380e+000	 1.6330579614e+000	 3.0308084407e-002
 3.8801425163e+000	 1.6718609551e+000	-9.6997415591e-004
 3.8632332077e+000	 1.7105713031e+000	-2.7393338718e-002
 3.8459050633e+000	 1.7491824503e+000	-4.8458956776e-002
 3.8281584667e+000	 1.7876878233e+000	-6.3651837437e-002
 3.8099939354e+000	 1.8260808339e+000	-7.2445710009e-002
 3.7914121212e+000	 1.8643548823e+000	-7.4303722131e-002
 3.7724138112e+000	 1.9025033605e+000	-8.3708392871e-002
 3.7529999288e+000	 1.9405196557e+000	-9.4188153263e-002
 3.9516002795e+000	 1.5644025157e+000	 9.9242874813e-002
 3.9358558462e+000	 1.6036018077e+000	 5.7631231809e-002
 3.9196897364e+000	 1.6427210263e+000	 2.0106934457e-002
 3.9031019395e+000	 1.6817536235e+000	-1.2842433435e-002
 3.8860925758e+000	 1.7206930268e+000	-4.0716032945e-002
 3.8686618980e+000	 1.7595326423e+000	-6.3000361087e-002
 3.8508102920e+000	 1.7982658577e+000	-7.9169883233e-002
 3.8325382783e+000	 1.8368860459e+000	-8.8687706339e-002
 3.8138465125e+000	 1.8753865680e+000	-9.1193764382e-002
 3.7947357865e+000	 1.9137607768e+000	-1.0605151714e-001
 3.7752070290e+000	 1.9520020205e+000	-1.1628265783e-001
 3.5531360273e+000	 1.8371783722e+000	-1.4144011115e-001
 3.5343635826e+000	 1.8730387253e+000	-1.5559456504e-001
 3.5151998336e+000	 1.9087614125e+000	-1.9140124227e-001
 3.4956460444e+000	 1.9443401791e+000	-2.2605253612e-001
 3.4757036097e+000	 1.9797687788e+000	-2.5774960350e-001
 3.4553740550e+000	 2.0150409773e+000	-2.8618014500e-001
 3.4346590368e+000	 2.0501505556e+000	-3.1102456626e-001
 3.4135603429e+000	 2.0850913135e+000	-3.3195643480e-001
 3.3920798916e+000	 2.1198570727e+000	-3.4864296379e-001
 3.3702197324e+000	 2.1544416806e+000	-3.6074552194e-001
 3.3479820449e+000	 2.1888390135e+000	-3.6792016874e-001
 3.5753431275e+000	 1.8486607371e+000	-1.2939208517e-001
 3.5564533549e+000	 1.8847452173e+000	-1.4891096512e-001
 3.5371698326e+000	 1.9206911713e+000	-1.8501780248e-001
 3.5174938322e+000	 1.9564923052e+000	-2.1888446287e-001
 3.4974267573e+000	 1.9921423336e+000	-2.5020567899e-001
 3.4769701428e+000	 2.0276349834e+000	-2.7866789366e-001
 3.4561256558e+000	 2.0629639966e+000	-3.0394968849e-001
 3.4348950950e+000	 2.0981231342e+000	-3.2572224105e-001
 3.4132803910e+000	 2.1331061794e+000	-3.4364980983e-001
 3.3912836057e+000	 2.1679069412e+000	-3.5739024647e-001
 3.3689069327e+000	 2.2025192574e+000	-3.6659553430e-001
 3.5975502277e+000	 1.8601431019e+000	-1.1785297857e-001
 3.5785431273e+000	 1.8964517093e+000	-1.4412060680e-001
 3.5591398315e+000	 1.9326209301e+000	-1.7914517455e-001
 3.5393416200e+000	 1.9686444313e+000	-2.1233759871e-001
 3.5191499048e+000	 2.0045158885e+000	-2.4339178379e-001
 3.4985662307e+000	 2.0402289895e+000	-2.7199277613e-001
 3.4775922748e+000	 2.0757774376e+000	-2.9781719202e-001
 3.4562298472e+000	 2.1111549549e+000	-3.2053367524e-001
 3.4344808903e+000	 2.1463552861e+000	-3.3980338351e-001
 3.4123474791e+000	 2.1813722017e+000	-3.5528050314e-001
 3.3898318204e+000	 2.2161995012e+000	-3.6661279106e-001
 3.6197573278e+000	 1.8716254667e+000	-1.0682914867e-001
 3.6006328997e+000	 1.9081582014e+000	-1.3971124143e-001
 3.5811098305e+000	 1.9445506890e+000	-1.7376412302e-001
 3.5611894078e+000	 1.9807965574e+000	-2.0639156277e-001
 3.5408730524e+000	 2.0168894434e+000	-2.3728650163e-001
 3.5201623185e+000	 2.0528229956e+000	-2.6613245123e-001
 3.4990588938e+000	 2.0885908786e+000	-2.9260392154e-001
 3.4775645993e+000	 2.1241867756e+000	-3.1636687905e-001
 3.4556813896e+000	 2.1596043928e+000	-3.3707923479e-001
 3.4334113524e+000	 2.1948374622e+000	-3.5439136155e-001
 3.4107567082e+000	 2.2298797451e+000	-3.6794663966e-001
 3.6419644280e+000	 1.8831078316e+000	-1.0175182674e-001
 3.6227226721e+000	 1.9198646934e+000	-1.3566459234e-001
 3.6030798295e+000	 1.9564804478e+000	-1.6885515259e-001
 3.5830371956e+000	 1.9929486836e+000	-2.0102574878e-001
 3.5625962000e+000	 2.0292629983e+000	-2.3186822338e-001
 3.5417584064e+000	 2.0654170017e+000	-2.6106441549e-001
 3.5205255128e+000	 2.1014043195e+000	-2.8828658815e-001
 3.4988993514e+000	 2.1372185963e+000	-3.1319788727e-001
 3.4768818889e+000	 2.1728534996e+000	-3.3545283140e-001
 3.4544752257e+000	 2.2083027227e+000	-3.5469783180e-001
 3.4316815960e+000	 2.2435599889e+000	-3.7057174196e-001
 3.6641715282e+000	 1.8945901964e+000	-9.9208486464e-002
 3.6448124445e+000	 1.9315711854e+000	-1.3196209569e-001
 3.6250498284e+000	 1.9684102066e+000	-1.6439851605e-001
 3.6048849833e+000	 2.0051008097e+000	-1.9621933190e-001
 3.5843193475e+000	 2.0416365531e+000	-2.2711515287e-001
 3.5633544942e+000	 2.0780110078e+000	-2.5676600808e-001
 3.5419921317e+000	 2.1142177605e+000	-2.8484177335e-001
 3.5202341036e+000	 2.1502504171e+000	-3.1100263096e-001
 3.4980823883e+000	 2.1861026063e+000	-3.3489956139e-001
 3.4755390991e+000	 2.2217679832e+000	-3.5617486630e-001
 3.4526064838e+000	 2.2572402327e+000	-3.7446272214e-001
 3.6863786283e+000	 1.9060725612e+000	-9.6882540696e-002
 3.6669022169e+000	 1.9432776775e+000	-1.2858490916e-001
 3.6470198274e+000	 1.9803399655e+000	-1.6037422177e-001
 3.6267327711e+000	 2.0172529358e+000	-1.9195127528e-001
 3.6060424951e+000	 2.0540101080e+000	-2.2300531251e-001
 3.5849505821e+000	 2.0906050139e+000	-2.5321441557e-001
 3.5634587507e+000	 2.1270312015e+000	-2.8224593301e-001
 3.5415688557e+000	 2.1632822378e+000	-3.0975694067e-001
 3.5192828876e+000	 2.1993517130e+000	-3.3539473545e-001
 3.4966029724e+000	 2.2352332437e+000	-3.5879736149e-001
 3.4735313716e+000	 2.2709204766e+000	-3.7959416791e-001
 3.7085857285e+000	 1.9175549260e+000	-9.4756094926e-002
 3.6889919893e+000	 1.9549841695e+000	-1.2551392027e-001
 3.6689898263e+000	 1.9922697243e+000	-1.5676204112e-001
 3.6485805589e+000	 2.0294050619e+000	-1.8820033645e-001
 3.6277656426e+000	 2.0663836629e+000	-2.1951654877e-001
 3.6065466699e+000	 2.1031990201e+000	-2.5038667646e-001
 3.5849253697e+000	 2.1398446424e+000	-2.8047540108e-001
 3.5629036079e+000	 2.1763140585e+000	-3.0943654938e-001
 3.5404833869e+000	 2.2126008197e+000	-3.3691358931e-001
 3.5176668457e+000	 2.2486985042e+000	-3.6254015955e-001
 3.4944562593e+000	 2.2846007204e+000	-3.8594063156e-001
 3.7307928287e+000	 1.9290372909e+000	-9.2810958764e-002
 3.7110817617e+000	 1.9666906615e+000	-1.2272975440e-001
 3.6909598253e+000	 2.0041994831e+000	-1.5354151546e-001
 3.6704283467e+000	 2.0415571880e+000	-1.8494507341e-001
 3.6494887902e+000	 2.0787572177e+000	-2.1662653737e-001
 3.6281427577e+000	 2.1157930262e+000	-2.4825968562e-001
 3.6063919887e+000	 2.1526580834e+000	-2.7950639324e-001
 3.5842383600e+000	 2.1893458792e+000	-3.1001709542e-001
 3.5616838862e+000	 2.2258499264e+000	-3.3943128590e-001
 3.5387307190e+000	 2.2621637647e+000	-3.6737804996e-001
 3.5153811471e+000	 2.2982809642e+000	-3.9347663104e-001
 3.7529999288e+000	 1.9405196557e+000	-9.4188153263e-002
 3.7331715341e+000	 1.9783971536e+000	-1.2021278259e-001
 3.7129298243e+000	 2.0161292419e+000	-1.5069196296e-001
 3.6922761344e+000	 2.0537093142e+000	-1.8216385053e-001
 3.6712119378e+000	 2.0911307726e+000	-2.1431278833e-001
 3.6497388456e+000	 2.1283870323e+000	-2.4681019851e-001
 3.6278586077e+000	 2.1654715244e+000	-2.7931501039e-001
 3.6055731122e+000	 2.2023776999e+000	-3.1147412529e-001
 3.5828843855e+000	 2.2390990331e+000	-3.4292291755e-001
 3.5597945924e+000	 2.2756290252e+000	-3.7328577111e-001
 3.5363060349e+000	 2.3119612081e+000	-4.0217665093e-001
 3.7752070290e+000	 1.9520020205e+000	-1.1628265783e-001
 3.7552613065e+000	 1.9901036456e+000	-1.2403021082e-001
 3.7348998232e+000	 2.0280590008e+000	-1.4819248516e-001
 3.7141239222e+000	 2.0658614403e+000	-1.7983484428e-001
 3.6929350853e+000	 2.1035043275e+000	-2.1255265091e-001
 3.6713349334e+000	 2.1409810384e+000	-2.4601483531e-001
 3.6493252266e+000	 2.1782849654e+000	-2.7987724202e-001
 3.6269078643e+000	 2.2154095206e+000	-3.1378309634e-001
 3.6040848849e+000	 2.2523481398e+000	-3.4736350804e-001
 3.5808584657e+000	 2.2890942857e+000	-3.8023801180e-001
 3.5572309227e+000	 2.3256414519e+000	-4.1201514348e-001
 3.3479820449e+000	 2.1888390135e+000	-3.6792016874e-001
 3.3253691387e+000	 2.2230429801e+000	-3.9909324069e-001
 3.3023834532e+000	 2.2570475246e+000	-4.2974565122e-001
 3.2790275563e+000	 2.2908466307e+000	-4.5933959026e-001
 3.2553041442e+000	 2.3244343245e+000	-4.8732836334e-001
 3.2312160404e+000	 2.3578046781e+000	-5.1315719755e-001
 3.2067661948e+000	 2.3909518130e+000	-5.3626407521e-001
 3.1819576824e+000	 2.4238699031e+000	-5.5608059342e-001
 3.1567937025e+000	 2.4565531787e+000	-5.7203284807e-001
 3.1312775773e+000	 2.4889959289e+000	-5.8354234039e-001
 3.1054127503e+000	 2.5211925056e+000	-5.8119678523e-001
 3.3689069327e+000	 2.2025192574e+000	-3.6659553430e-001
 3.3461526958e+000	 2.2369369987e+000	-3.9608603037e-001
 3.3230233498e+000	 2.2711540716e+000	-4.2452254476e-001
 3.2995214785e+000	 2.3051644221e+000	-4.5136175856e-001
 3.2756497951e+000	 2.3389620390e+000	-4.7605178927e-001
 3.2514111407e+000	 2.3725409573e+000	-4.9803300976e-001
 3.2268084835e+000	 2.4058952618e+000	-5.1673889464e-001
 3.2018449179e+000	 2.4390190900e+000	-5.3159689255e-001
 3.1765236632e+000	 2.4719066360e+000	-5.4202932263e-001
 3.1508480621e+000	 2.5045521534e+000	-5.5345059386e-001
 3.1248215800e+000	 2.5369499587e+000	-5.9795038887e-001
 3.3898318204e+000	 2.2161995012e+000	-3.6661279106e-001
 3.3669362530e+000	 2.2508310173e+000	-3.9456760540e-001
 3.3436632464e+000	 2.2852606186e+000	-4.2094368373e-001
 3.3200154007e+000	 2.3194822135e+000	-4.4519204609e-001
 3.2959954460e+000	 2.3534897535e+000	-4.6675546138e-001
 3.2716062409e+000	 2.3872772366e+000	-4.8506927934e-001
 3.2468507722e+000	 2.4208387106e+000	-4.9956229008e-001
 3.2217321534e+000	 2.4541682769e+000	-5.0965760911e-001
 3.1962536238e+000	 2.4872600934e+000	-5.1477358657e-001
 3.1704185470e+000	 2.5201083780e+000	-5.4003062033e-001
 3.1442304097e+000	 2.5527074119e+000	-5.7840083603e-001
 3.4107567082e+000	 2.2298797451e+000	-3.6794663966e-001
 3.3877198101e+000	 2.2647250359e+000	-3.9451143087e-001
 3.3643031429e+000	 2.2993671657e+000	-4.1898120058e-001
 3.3405093230e+000	 2.3338000050e+000	-4.4080115527e-001
 3.3163410969e+000	 2.3680174680e+000	-4.5940855431e-001
 3.2918013412e+000	 2.4020135158e+000	-4.7423355536e-001
 3.2668930610e+000	 2.4357821594e+000	-4.8470008697e-001
 3.2416193890e+000	 2.4693174638e+000	-4.9022674680e-001
 3.2159835844e+000	 2.5026135508e+000	-4.9331666148e-001
 3.1899890318e+000	 2.5356646025e+000	-5.2832055794e-001
 3.1636392394e+000	 2.5684648651e+000	-5.6038078480e-001
 3.4316815960e+000	 2.2435599889e+000	-3.7057174196e-001
 3.4085033672e+000	 2.2786190546e+000	-3.9589097561e-001
 3.3849430395e+000	 2.3134737127e+000	-4.1860727702e-001
 3.3610032452e+000	 2.3481177964e+000	-4.3815988625e-001
 3.3366867478e+000	 2.3825451826e+000	-4.5398039207e-001
 3.3119964414e+000	 2.4167497950e+000	-4.6549359074e-001
 3.2869353497e+000	 2.4507256083e+000	-4.7211837212e-001
 3.2615066245e+000	 2.4844666507e+000	-4.7326863110e-001
 3.2357135451e+000	 2.5179670081e+000	-4.8890865082e-001
 3.2095595167e+000	 2.5512208271e+000	-5.1828216086e-001
 3.1830480690e+000	 2.5842223182e+000	-5.4420218493e-001
 3.4526064838e+000	 2.2572402327e+000	-3.7446272214e-001
 3.4292869243e+000	 2.2925130732e+000	-3.9867971200e-001
 3.4055829361e+000	 2.3275802597e+000	-4.1979414247e-001
 3.3814971674e+000	 2.3624355879e+000	-4.3723913403e-001
 3.3570323987e+000	 2.3970728971e+000	-4.5044044342e-001
 3.3321915417e+000	 2.4314860743e+000	-4.5881733606e-001
 3.3069776384e+000	 2.4656690571e+000	-4.6178348573e-001
 3.2813938600e+000	 2.4996158376e+000	-4.5874789952e-001
 3.2554435057e+000	 2.5333204655e+000	-4.8597397775e-001
 3.2291300016e+000	 2.5667770517e+000	-5.0987762099e-001
 3.2024568987e+000	 2.5999797714e+000	-5.2982452842e-001
 3.4735313716e+000	 2.2709204766e+000	-3.7959416791e-001
 3.4500704814e+000	 2.3064070918e+000	-4.0285111592e-001
 3.4262228327e+000	 2.3416868067e+000	-4.2251407264e-001
 3.4019910896e+000	 2.3767533793e+000	-4.3800988553e-001
 3.3773780496e+000	 2.4116006116e+000	-4.4875831758e-001
 3.3523866420e+000	 2.4462223535e+000	-4.5417293363e-001
 3.3270199271e+000	 2.4806125059e+000	-4.5366201382e-001
 3.3012810955e+000	 2.5147650245e+000	-4.6165693458e-001
 3.2751734664e+000	 2.5486739229e+000	-4.8447779588e-001
 3.2487004864e+000	 2.5823332762e+000	-5.0306955480e-001
 3.2218657284e+000	 2.6157372245e+000	-5.1720779683e-001
 3.4944562593e+000	 2.2846007204e+000	-3.8594063156e-001
 3.4708540386e+000	 2.3203011104e+000	-4.0837866658e-001
 3.4468627293e+000	 2.3557933538e+000	-4.2673938816e-001
 3.4224850119e+000	 2.3910711707e+000	-4.4044321688e-001
 3.3977237005e+000	 2.4261283262e+000	-4.4890375999e-001
 3.3725817422e+000	 2.4609586328e+000	-4.5152871174e-001
 3.3470622158e+000	 2.4955559548e+000	-4.4772078083e-001
 3.3211683310e+000	 2.5299142114e+000	-4.6622602451e-001
 3.2949034270e+000	 2.5640273802e+000	-4.8438561017e-001
 3.2682709713e+000	 2.5978895008e+000	-4.9782099059e-001
 3.2412745581e+000	 2.6314946777e+000	-5.0631244663e-001
 3.5153811471e+000	 2.2982809642e+000	-3.9347663104e-001
 3.4916375957e+000	 2.3341951291e+000	-4.1523584650e-001
 3.4675026259e+000	 2.3698999008e+000	-4.3244245323e-001
 3.4429789341e+000	 2.4053889622e+000	-4.4451029076e-001
 3.4180693514e+000	 2.4406560407e+000	-4.5084664826e-001
 3.3927768425e+000	 2.4756949120e+000	-4.5085317912e-001
 3.3671045045e+000	 2.5104994036e+000	-4.5337669283e-001
 3.3410555665e+000	 2.5450633983e+000	-4.7201822020e-001
 3.3146333876e+000	 2.5793808376e+000	-4.8566326655e-001
 3.2878414561e+000	 2.6134457253e+000	-4.9409535624e-001
 3.2606833878e+000	 2.6472521309e+000	-4.9709939508e-001
 3.5363060349e+000	 2.3119612081e+000	-4.0217665093e-001
 3.5124211528e+000	 2.3480891477e+000	-4.2339614134e-001
 3.4881425224e+000	 2.3840064478e+000	-4.3959567434e-001
 3.4634728563e+000	 2.4197067536e+000	-4.5018235384e-001
 3.4384150023e+000	 2.4551837552e+000	-4.5455698827e-001
 3.4129719427e+000	 2.4904311912e+000	-4.5211501961e-001
 3.3871467933e+000	 2.5254428524e+000	-4.6424389298e-001
 3.3609428020e+000	 2.5602125852e+000	-4.7900196847e-001
 3.3343633483e+000	 2.5947342950e+000	-4.8827694177e-001
 3.3074119410e+000	 2.6290019499e+000	-4.9185646741e-001
 3.2800922175e+000	 2.6630095840e+000	-4.8953000659e-001
 3.5572309227e+000	 2.3256414519e+000	-4.1201514348e-001
 3.5332047099e+000	 2.3619831663e+000	-4.3283303987e-001
 3.5087824190e+000	 2.3981129948e+000	-4.4817149901e-001
 3.4839667785e+000	 2.4340245451e+000	-4.5743073428e-001
 3.4587606532e+000	 2.4697114697e+000	-4.6000491040e-001
 3.4331670430e+000	 2.5051674705e+000	-4.5937148604e-001
 3.4071890820e+000	 2.5403863013e+000	-4.7613534713e-001
 3.3808300376e+000	 2.5753617721e+000	-4.8714598442e-001
 3.3540933089e+000	 2.6100877523e+000	-4.9219313371e-001
 3.3269824258e+000	 2.6445581744e+000	-4.9106851609e-001
 3.2995010472e+000	 2.6787670372e+000	-4.8356607956e-001
 3.1054127503e+000	 2.5211925056e+000	-5.8119678523e-001
 3.0792027853e+000	 2.5531373263e+000	-5.8894823269e-001
 3.0526513643e+000	 2.5848248776e+000	-5.9841312872e-001
 3.0257622864e+000	 2.6162497178e+000	-6.0927842671e-001
 2.9985394656e+000	 2.6474064805e+000	-6.2121974835e-001
 2.9709869289e+000	 2.6782898775e+000	-6.3390205919e-001
 2.9431088147e+000	 2.7088947016e+000	-6.4698037784e-001
 2.9149093706e+000	 2.7392158296e+000	-6.6010051690e-001
 2.8863929509e+000	 2.7692482252e+000	-6.7289985412e-001
 2.8575640151e+000	 2.7989869417e+000	-6.8500813156e-001
 2.8284271247e+000	 2.8284271247e+000	-6.9604828106e-001
 3.1248215800e+000	 2.5369499587e+000	-5.9795038887e-001
 3.0984478027e+000	 2.5690944346e+000	-6.0061074689e-001
 3.0717304354e+000	 2.6009800331e+000	-6.0566089189e-001
 3.0446733007e+000	 2.6326012785e+000	-6.1277197478e-001
 3.0172803372e+000	 2.6639527710e+000	-6.2160291746e-001
 2.9895555972e+000	 2.6950291893e+000	-6.3180111097e-001
 2.9615032448e+000	 2.7258252935e+000	-6.4300314873e-001
 2.9331275541e+000	 2.7563359285e+000	-6.5483559323e-001
 2.9044329069e+000	 2.7865560266e+000	-6.6691577414e-001
 2.8754237902e+000	 2.8164806100e+000	-6.7885261617e-001
 2.8461047943e+000	 2.8461047943e+000	-6.9024749433e-001
 3.1442304097e+000	 2.5527074119e+000	-5.7840083603e-001
 3.1176928201e+000	 2.5850515429e+000	-6.1367891508e-001
 3.0908095064e+000	 2.6171351885e+000	-6.1417858743e-001
 3.0635843150e+000	 2.6489528392e+000	-6.1739693946e-001
 3.0360212089e+000	 2.6804990615e+000	-6.2297612713e-001
 3.0081242655e+000	 2.7117685010e+000	-6.3054589880e-001
 2.9798976749e+000	 2.7427558854e+000	-6.3972435279e-001
 2.9513457377e+000	 2.7734560275e+000	-6.5011872976e-001
 2.9224728628e+000	 2.8038638280e+000	-6.6132623827e-001
 2.8932835653e+000	 2.8339742784e+000	-6.7293491123e-001
 2.8637824638e+000	 2.8637824638e+000	-6.8452449137e-001
 3.1636392394e+000	 2.5684648651e+000	-5.6038078480e-001
 3.1369378375e+000	 2.6010086512e+000	-6.0602653108e-001
 3.1098885774e+000	 2.6332903440e+000	-6.2387079748e-001
 3.0824953293e+000	 2.6653044000e+000	-6.2306178736e-001
 3.0547620806e+000	 2.6970453520e+000	-6.2525189911e-001
 3.0266929338e+000	 2.7285078127e+000	-6.3005316768e-001
 2.9982921050e+000	 2.7596864773e+000	-6.3706512354e-001
 2.9695639212e+000	 2.7905761264e+000	-6.4587561105e-001
 2.9405128187e+000	 2.8211716294e+000	-6.5606164153e-001
 2.9111433403e+000	 2.8514679468e+000	-6.6719027860e-001
 2.8814601333e+000	 2.8814601333e+000	-6.7881955393e-001
 3.1830480690e+000	 2.5842223182e+000	-5.4420218493e-001
 3.1561828549e+000	 2.6169657595e+000	-5.8651032219e-001
 3.1289676484e+000	 2.6494454995e+000	-6.2779803714e-001
 3.1014063436e+000	 2.6816559607e+000	-6.2967527901e-001
 3.0735029522e+000	 2.7135916425e+000	-6.2834296754e-001
 3.0452616021e+000	 2.7452471245e+000	-6.3023979048e-001
 3.0166865351e+000	 2.7766170692e+000	-6.3494663499e-001
 2.9877821048e+000	 2.8076962253e+000	-6.4203187186e-001
 2.9585527747e+000	 2.8384794308e+000	-6.5105223606e-001
 2.9290031154e+000	 2.8689616152e+000	-6.6155374133e-001
 2.8991378028e+000	 2.8991378028e+000	-6.7307262637e-001
 3.2024568987e+000	 2.5999797714e+000	-5.2982452842e-001
 3.1754278723e+000	 2.6329228678e+000	-5.6866412988e-001
 3.1480467195e+000	 2.6656006550e+000	-6.0698268011e-001
 3.1203173579e+000	 2.6980075215e+000	-6.3714646000e-001
 3.0922438239e+000	 2.7301379330e+000	-6.3216227254e-001
 3.0638302704e+000	 2.7619864362e+000	-6.3102276406e-001
 3.0350809652e+000	 2.7935476611e+000	-6.3329010042e-001
 3.0060002884e+000	 2.8248163243e+000	-6.3851309864e-001
 2.9765927306e+000	 2.8557872322e+000	-6.4622813541e-001
 2.9468628905e+000	 2.8864552836e+000	-6.5596009094e-001
 2.9168154724e+000	 2.9168154724e+000	-6.6722332587e-001
 3.2218657284e+000	 2.6157372245e+000	-5.1720779683e-001
 3.1946728897e+000	 2.6488799761e+000	-5.5245070711e-001
 3.1671257905e+000	 2.6817558105e+000	-5.8766611343e-001
 3.1392283722e+000	 2.7143590822e+000	-6.2274021231e-001
 3.1109846955e+000	 2.7466842236e+000	-6.3662295392e-001
 3.0823989387e+000	 2.7787257480e+000	-6.3231920560e-001
 3.0534753953e+000	 2.8104782529e+000	-6.3201677117e-001
 3.0242184719e+000	 2.8419364232e+000	-6.3524483105e-001
 2.9946326866e+000	 2.8730950336e+000	-6.4151931877e-001
 2.9647226656e+000	 2.9039489520e+000	-6.5034389439e-001
 2.9344931419e+000	 2.9344931419e+000	-6.6121095230e-001
 3.2412745581e+000	 2.6314946777e+000	-5.0631244663e-001
 3.2139179071e+000	 2.6648370844e+000	-5.3783321564e-001
 3.1862048615e+000	 2.6979109660e+000	-5.6981432900e-001
 3.1581393865e+000	 2.7307106429e+000	-6.0213317005e-001
 3.1297255672e+000	 2.7632305141e+000	-6.3466395680e-001
 3.1009676070e+000	 2.7954650597e+000	-6.3404634892e-001
 3.0718698253e+000	 2.8274088448e+000	-6.3104793552e-001
 3.0424366555e+000	 2.8590565222e+000	-6.3215256329e-001
 3.0126726425e+000	 2.8904028350e+000	-6.3685563494e-001
 2.9825824407e+000	 2.9214426203e+000	-6.4463950079e-001
 2.9521708114e+000	 2.9521708114e+000	-6.5497449768e-001
 3.2606833878e+000	 2.6472521309e+000	-4.9709939508e-001
 3.2331629245e+000	 2.6807941927e+000	-5.2477521381e-001
 3.2052839325e+000	 2.7140661215e+000	-5.5339364847e-001
 3.1770504007e+000	 2.7470622037e+000	-5.8282331200e-001
 3.1484664388e+000	 2.7797768046e+000	-6.1292909617e-001
 3.1195362753e+000	 2.8122043714e+000	-6.3612154107e-001
 3.0902642554e+000	 2.8443394367e+000	-6.3030491757e-001
 3.0606548391e+000	 2.8761766211e+000	-6.2916174550e-001
 3.0307125985e+000	 2.9077106364e+000	-6.3216680625e-001
 3.0004422158e+000	 2.9389362887e+000	-6.3878104788e-001
 2.9698484810e+000	 2.9698484810e+000	-6.4845265539e-001
 3.2800922175e+000	 2.6630095840e+000	-4.8953000659e-001
 3.2524079419e+000	 2.6967513009e+000	-5.1324064484e-001
 3.2243630036e+000	 2.7302212769e+000	-5.3837071345e-001
 3.1959614150e+000	 2.7634137644e+000	-5.6478009652e-001
 3.1672073105e+000	 2.7963230951e+000	-5.9232440388e-001
 3.1381049436e+000	 2.8289436832e+000	-6.2085514469e-001
 3.1086586855e+000	 2.8612700286e+000	-6.2970907622e-001
 3.0788730226e+000	 2.8932967200e+000	-6.2619778506e-001
 3.0487525544e+000	 2.9250184379e+000	-6.2738243227e-001
 3.0183019909e+000	 2.9564299571e+000	-6.3270246828e-001
 2.9875261505e+000	 2.9875261505e+000	-6.4158382898e-001
 3.2995010472e+000	 2.6787670372e+000	-4.8356607956e-001
 3.2716529593e+000	 2.7127084092e+000	-5.0319382551e-001
 3.2434420746e+000	 2.7463764324e+000	-5.2471247611e-001
 3.2148724293e+000	 2.7797653252e+000	-5.4797322706e-001
 3.1859481822e+000	 2.8128693856e+000	-5.7282244922e-001
 3.1566736119e+000	 2.8456829949e+000	-5.9910187146e-001
 3.1270531156e+000	 2.8782006205e+000	-6.2664877501e-001
 3.0970912062e+000	 2.9104168190e+000	-6.2318604782e-001
 3.0667925103e+000	 2.9423262393e+000	-6.2243199344e-001
 3.0361617660e+000	 2.9739236255e+000	-6.2633749557e-001
 3.0052038200e+000	 3.0052038200e+000	-6.3430614069e-001
 2.8284271247e+000	 2.8284271247e+000	-6.9604828106e-001
 2.7989869417e+000	 2.8575640151e+000	-7.1165065034e-001
 2.7692482252e+000	 2.8863929509e+000	-7.2488485191e-001
 2.7392158296e+000	 2.9149093706e+000	-7.3524783339e-001
 2.7088947016e+000	 2.9431088147e+000	-7.4223357534e-001
 2.6782898775e+000	 2.9709869289e+000	-7.4533413263e-001
 2.6474064805e+000	 2.9985394656e+000	-7.4404068766e-001
 2.6162497178e+000	 3.0257622864e+000	-7.3784461292e-001
 2.5848248776e+000	 3.0526513643e+000	-7.2623854010e-001
 2.5531373263e+000	 3.0792027853e+000	-7.0871743305e-001
 2.5211925056e+000	 3.1054127503e+000	-6.8477966188e-001
 2.8461047943e+000	 2.8461047943e+000	-6.9024749433e-001
 2.8164806100e+000	 2.8754237902e+000	-7.0420588215e-001
 2.7865560266e+000	 2.9044329069e+000	-7.1536305920e-001
 2.7563359285e+000	 2.9331275541e+000	-7.2320317140e-001
 2.7258252935e+000	 2.9615032448e+000	-7.2720766096e-001
 2.6950291893e+000	 2.9895555972e+000	-7.2685633049e-001
 2.6639527710e+000	 3.0172803372e+000	-7.2162841892e-001
 2.6326012785e+000	 3.0446733007e+000	-7.1100368644e-001
 2.6009800331e+000	 3.0717304354e+000	-6.9446350564e-001
 2.5690944346e+000	 3.0984478027e+000	-6.7149195630e-001
 2.5369499587e+000	 3.1248215800e+000	-6.4157692068e-001
 2.8637824638e+000	 2.8637824638e+000	-6.8452449137e-001
 2.8339742784e+000	 2.8932835653e+000	-6.9686891287e-001
 2.8038638280e+000	 2.9224728628e+000	-7.0598694630e-001
 2.7734560275e+000	 2.9513457377e+000	-7.1134975683e-001
 2.7427558854e+000	 2.9798976749e+000	-7.1242606181e-001
 2.7117685010e+000	 3.0081242655e+000	-7.0868321803e-001
 2.6804990615e+000	 3.0360212089e+000	-6.9958832060e-001
 2.6489528392e+000	 3.0635843150e+000	-6.8460931058e-001
 2.6171351885e+000	 3.0908095064e+000	-6.6321608864e-001
 2.5850515429e+000	 3.1176928201e+000	-6.3488163182e-001
 2.5527074119e+000	 3.1442304097e+000	-6.4894311599e-001
 2.8814601333e+000	 2.8814601333e+000	-6.7881955393e-001
 2.8514679468e+000	 2.9111433403e+000	-6.8958163422e-001
 2.8211716294e+000	 2.9405128187e+000	-6.9669995291e-001
 2.7905761264e+000	 2.9695639212e+000	-6.9963251369e-001
 2.7596864773e+000	 2.9982921050e+000	-6.9783512088e-001
 2.7285078127e+000	 3.0266929338e+000	-6.9076249021e-001
 2.6970453520e+000	 3.0547620806e+000	-6.7786937095e-001
 2.6653044000e+000	 3.0824953293e+000	-6.5861167667e-001
 2.6332903440e+000	 3.1098885774e+000	-6.3244762164e-001
 2.6010086512e+000	 3.1369378375e+000	-6.2680294120e-001
 2.5684648651e+000	 3.1636392394e+000	-6.5446412154e-001
 2.8991378028e+000	 2.8991378028e+000	-6.7307262637e-001
 2.8689616152e+000	 2.9290031154e+000	-6.8228558598e-001
 2.8384794308e+000	 2.9585527747e+000	-6.8744515478e-001
 2.8076962253e+000	 2.9877821048e+000	-6.8799599245e-001
 2.7766170692e+000	 3.0166865351e+000	-6.8338080046e-001
 2.7452471245e+000	 3.0452616021e+000	-6.7304145654e-001
 2.7135916425e+000	 3.0735029522e+000	-6.5642016053e-001
 2.6816559607e+000	 3.1014063436e+000	-6.3296058849e-001
 2.6494454995e+000	 3.1289676484e+000	-6.1045773541e-001
 2.6169657595e+000	 3.1561828549e+000	-6.3406415422e-001
 2.5842223182e+000	 3.1830480690e+000	-6.5769818921e-001
 2.9168154724e+000	 2.9168154724e+000	-6.6722332587e-001
 2.8864552836e+000	 2.9468628905e+000	-6.7492196674e-001
 2.8557872322e+000	 2.9765927306e+000	-6.7816527472e-001
 2.8248163243e+000	 3.0060002884e+000	-6.7638438133e-001
 2.7935476611e+000	 3.0350809652e+000	-6.6900869361e-001
 2.7619864362e+000	 3.0638302704e+000	-6.5546705276e-001
 2.7301379330e+000	 3.0922438239e+000	-6.3518890392e-001
 2.6980075215e+000	 3.1203173579e+000	-6.0760547402e-001
 2.6656006550e+000	 3.1480467195e+000	-6.1902534234e-001
 2.6329228678e+000	 3.1754278723e+000	-6.3903449379e-001
 2.5999797714e+000	 3.2024568987e+000	-6.5867977703e-001
 2.9344931419e+000	 2.9344931419e+000	-6.6121095230e-001
 2.9039489520e+000	 2.9647226656e+000	-6.6743164411e-001
 2.8730950336e+000	 2.9946326866e+000	-6.6880269326e-001
 2.8419364232e+000	 3.0242184719e+000	-6.6474151721e-001
 2.8104782529e+000	 3.0534753953e+000	-6.5466403536e-001
 2.7787257480e+000	 3.0823989387e+000	-6.3798585214e-001
 2.7466842236e+000	 3.1109846955e+000	-6.1412345106e-001
 2.7143590822e+000	 3.1392283722e+000	-6.0826617676e-001
 2.6817558105e+000	 3.1671257905e+000	-6.2530311502e-001
 2.6488799761e+000	 3.1946728897e+000	-6.4174838962e-001
 2.6157372245e+000	 3.2218657284e+000	-6.5744299286e-001
 2.9521708114e+000	 2.9521708114e+000	-6.5497449768e-001
 2.9214426203e+000	 2.9825824407e+000	-6.5975516468e-001
 2.8904028350e+000	 3.0126726425e+000	-6.5929945891e-001
 2.8590565222e+000	 3.0424366555e+000	-6.5301089620e-001
 2.8274088448e+000	 3.0718698253e+000	-6.4029171339e-001
 2.7954650597e+000	 3.1009676070e+000	-6.2054407625e-001
 2.7632305141e+000	 3.1297255672e+000	-6.0073684320e-001
 2.7307106429e+000	 3.1581393865e+000	-6.1543706225e-001
 2.6979109660e+000	 3.1862048615e+000	-6.2932535014e-001
 2.6648370844e+000	 3.2139179071e+000	-6.4223992488e-001
 2.6314946777e+000	 3.2412745581e+000	-6.5402160485e-001
 2.9698484810e+000	 2.9698484810e+000	-6.4845265539e-001
 2.9389362887e+000	 3.0004422158e+000	-6.5183276353e-001
 2.9077106364e+000	 3.0307125985e+000	-6.4959729800e-001
 2.8761766211e+000	 3.0606548391e+000	-6.4113568369e-001
 2.8443394367e+000	 3.0902642554e+000	-6.2583627833e-001
 2.8122043714e+000	 3.1195362753e+000	-6.0308760550e-001
 2.7797768046e+000	 3.1484664388e+000	-6.0840096482e-001
 2.7470622037e+000	 3.1770504007e+000	-6.2035790428e-001
 2.7140661215e+000	 3.2052839325e+000	-6.3112600365e-001
 2.6807941927e+000	 3.2331629245e+000	-6.4054284652e-001
 2.6472521309e+000	 3.2606833878e+000	-6.4844905154e-001
 2.9875261505e+000	 2.9875261505e+000	-6.4158382898e-001
 2.9564299571e+000	 3.0183019909e+000	-6.4360437349e-001
 2.9250184379e+000	 3.0487525544e+000	-6.3963762424e-001
 2.8932967200e+000	 3.0788730226e+000	-6.2905872424e-001
 2.8612700286e+000	 3.1086586855e+000	-6.1124195383e-001
 2.8289436832e+000	 3.1381049436e+000	-6.0319232349e-001
 2.7963230951e+000	 3.1672073105e+000	-6.1382485312e-001
 2.7634137644e+000	 3.1959614150e+000	-6.2306243536e-001
 2.7302212769e+000	 3.2243630036e+000	-6.3073870086e-001
 2.6967513009e+000	 3.2524079419e+000	-6.3669057516e-001
 2.6630095840e+000	 3.2800922175e+000	-6.4075845163e-001
 3.0052038200e+000	 3.0052038200e+000	-6.3430614069e-001
 2.9739236255e+000	 3.0361617660e+000	-6.3500963398e-001
 2.9423262393e+000	 3.0667925103e+000	-6.2936154791e-001
 2.9104168190e+000	 3.0970912062e+000	-6.1672255092e-001
 2.8782006205e+000	 3.1270531156e+000	-5.9884275177e-001
 2.8456829949e+000	 3.1566736119e+000	-6.0873781416e-001
 2.8128693856e+000	 3.1859481822e+000	-6.1704192694e-001
 2.7797653252e+000	 3.2148724293e+000	-6.2358406490e-001
 2.7463764324e+000	 3.2434420746e+000	-6.2819674618e-001
 2.7127084092e+000	 3.2716529593e+000	-6.3071621478e-001
 2.6787670372e+000	 3.2995010472e+000	-6.3098261338e-001
 2.5211925056e+000	 3.1054127503e+000	-6.8477966188e-001
 2.4889959289e+000	 3.1312775773e+000	-6.6562723396e-001
 2.4565531787e+000	 3.1567937025e+000	-6.7463669903e-001
 2.4238699031e+000	 3.1819576824e+000	-6.8266092478e-001
 2.3909518130e+000	 3.2067661948e+000	-6.8929068837e-001
 2.3578046781e+000	 3.2312160404e+000	-6.9411167764e-001
 2.3244343245e+000	 3.2553041442e+000	-6.9670542800e-001
 2.2908466307e+000	 3.2790275563e+000	-6.9665027485e-001
 2.2570475246e+000	 3.3023834532e+000	-6.9352231870e-001
 2.2230429801e+000	 3.3253691387e+000	-6.8689640054e-001
 2.1888390135e+000	 3.3479820449e+000	-6.7634708462e-001
 2.5369499587e+000	 3.1248215800e+000	-6.4157692068e-001
 2.5045521534e+000	 3.1508480621e+000	-6.8216310389e-001
 2.4719066360e+000	 3.1765236632e+000	-6.8875123561e-001
 2.4390190900e+000	 3.2018449179e+000	-6.8968221206e-001
 2.4058952618e+000	 3.2268084835e+000	-6.8995241335e-001
 2.3725409573e+000	 3.2514111407e+000	-6.8914621753e-001
 2.3389620390e+000	 3.2756497951e+000	-6.8684295288e-001
 2.3051644221e+000	 3.2995214785e+000	-6.8261786707e-001
 2.2711540716e+000	 3.3230233498e+000	-6.7604311043e-001
 2.2369369987e+000	 3.3461526958e+000	-6.6668873070e-001
 2.2025192574e+000	 3.3689069327e+000	-6.5412367639e-001
 2.5527074119e+000	 3.1442304097e+000	-6.4894311599e-001
 2.5201083780e+000	 3.1704185470e+000	-6.8395756185e-001
 2.4872600934e+000	 3.1962536238e+000	-7.0223434040e-001
 2.4541682769e+000	 3.2217321534e+000	-6.9632660267e-001
 2.4208387106e+000	 3.2468507722e+000	-6.9048900722e-001
 2.3872772366e+000	 3.2716062409e+000	-6.8430437577e-001
 2.3534897535e+000	 3.2959954460e+000	-6.7734958186e-001
 2.3194822135e+000	 3.3200154007e+000	-6.6919653717e-001
 2.2852606186e+000	 3.3436632464e+000	-6.5941319319e-001
 2.2508310173e+000	 3.3669362530e+000	-6.4756455582e-001
 2.2161995012e+000	 3.3898318204e+000	-6.3321370973e-001
 2.5684648651e+000	 3.1636392394e+000	-6.5446412154e-001
 2.5356646025e+000	 3.1899890318e+000	-6.8364560219e-001
 2.5026135508e+000	 3.2159835844e+000	-7.1177952805e-001
 2.4693174638e+000	 3.2416193890e+000	-7.0247224007e-001
 2.4357821594e+000	 3.2668930610e+000	-6.9077675585e-001
 2.4020135158e+000	 3.2918013412e+000	-6.7946077625e-001
 2.3680174680e+000	 3.3163410969e+000	-6.6809847200e-001
 2.3338000050e+000	 3.3405093230e+000	-6.5625816978e-001
 2.2993671657e+000	 3.3643031429e+000	-6.4350337288e-001
 2.2647250359e+000	 3.3877198101e+000	-6.2939379582e-001
 2.2298797451e+000	 3.4107567082e+000	-6.1348641019e-001
 2.5842223182e+000	 3.1830480690e+000	-6.5769818921e-001
 2.5512208271e+000	 3.2095595167e+000	-6.8125846602e-001
 2.5179670081e+000	 3.2357135451e+000	-7.0435888180e-001
 2.4844666507e+000	 3.2615066245e+000	-7.0799715033e-001
 2.4507256083e+000	 3.2869353497e+000	-6.9069190611e-001
 2.4167497950e+000	 3.3119964414e+000	-6.7449007891e-001
 2.3825451826e+000	 3.3366867478e+000	-6.5896288799e-001
 2.3481177964e+000	 3.3610032452e+000	-6.4367482543e-001
 2.3134737127e+000	 3.3849430395e+000	-6.2818469606e-001
 2.2786190546e+000	 3.4085033672e+000	-6.1204667259e-001
 2.2435599889e+000	 3.4316815960e+000	-5.9481136319e-001
 2.5999797714e+000	 3.2024568987e+000	-6.5867977703e-001
 2.5667770517e+000	 3.2291300016e+000	-6.7682711899e-001
 2.5333204655e+000	 3.2554435057e+000	-6.9509504758e-001
 2.4996158376e+000	 3.2813938600e+000	-7.1277924572e-001
 2.4656690571e+000	 3.3069776384e+000	-6.9011066708e-001
 2.4314860743e+000	 3.3321915417e+000	-6.6926697862e-001
 2.3970728971e+000	 3.3570323987e+000	-6.4981619892e-001
 2.3624355879e+000	 3.3814971674e+000	-6.3131873520e-001
 2.3275802597e+000	 3.4055829361e+000	-6.1332844270e-001
 2.2925130732e+000	 3.4292869243e+000	-5.9539370087e-001
 2.2572402327e+000	 3.4526064838e+000	-5.7705850309e-001
 2.6157372245e+000	 3.2218657284e+000	-6.5744299286e-001
 2.5823332762e+000	 3.2487004864e+000	-6.7038225958e-001
 2.5486739229e+000	 3.2751734664e+000	-6.8401542773e-001
 2.5147650245e+000	 3.3012810955e+000	-6.9811933356e-001
 2.4806125059e+000	 3.3270199271e+000	-6.8890921115e-001
 2.4462223535e+000	 3.3523866420e+000	-6.6366620412e-001
 2.4116006116e+000	 3.3773780496e+000	-6.4053187518e-001
 2.3767533793e+000	 3.4019910896e+000	-6.1906229557e-001
 2.3416868067e+000	 3.4262228327e+000	-5.9880611907e-001
 2.3064070918e+000	 3.4500704814e+000	-5.7930567944e-001
 2.2709204766e+000	 3.4735313716e+000	-5.6009810268e-001
 2.6314946777e+000	 3.2412745581e+000	-6.5402160485e-001
 2.5978895008e+000	 3.2682709713e+000	-6.6195432705e-001
 2.5640273802e+000	 3.2949034270e+000	-6.7114724298e-001
 2.5299142114e+000	 3.3211683310e+000	-6.8138392190e-001
 2.4955559548e+000	 3.3470622158e+000	-6.8696367515e-001
 2.4609586328e+000	 3.3725817422e+000	-6.5756251705e-001
 2.4261283262e+000	 3.3977237005e+000	-6.3098348534e-001
 2.3910711707e+000	 3.4224850119e+000	-6.0677806351e-001
 2.3557933538e+000	 3.4468627293e+000	-5.8448945106e-001
 2.3203011104e+000	 3.4708540386e+000	-5.6365368259e-001
 2.2846007204e+000	 3.4944562593e+000	-5.4380076305e-001
 2.6472521309e+000	 3.2606833878e+000	-6.4844905154e-001
 2.6134457253e+000	 3.2878414561e+000	-6.5157350925e-001
 2.5793808376e+000	 3.3146333876e+000	-6.5651753784e-001
 2.5450633983e+000	 3.3410555665e+000	-6.6307135938e-001
 2.5104994036e+000	 3.3671045045e+000	-6.7102577892e-001
 2.4756949120e+000	 3.3927768425e+000	-6.5083071092e-001
 2.4406560407e+000	 3.4180693514e+000	-6.2104469329e-001
 2.4053889622e+000	 3.4429789341e+000	-5.9433875168e-001
 2.3698999008e+000	 3.4675026259e+000	-5.7025037757e-001
 2.3341951291e+000	 3.4916375957e+000	-5.4830905194e-001
 2.2982809642e+000	 3.5153811471e+000	-5.2803740382e-001
 2.6630095840e+000	 3.2800922175e+000	-6.4075845163e-001
 2.6290019499e+000	 3.3074119410e+000	-6.3926974994e-001
 2.5947342950e+000	 3.3343633483e+000	-6.4015318579e-001
 2.5602125852e+000	 3.3609428020e+000	-6.4320555506e-001
 2.5254428524e+000	 3.3871467933e+000	-6.4822373631e-001
 2.4904311912e+000	 3.4129719427e+000	-6.4334561021e-001
 2.4551837552e+000	 3.4384150023e+000	-6.1058925541e-001
 2.4197067536e+000	 3.4634728563e+000	-5.8161722381e-001
 2.3840064478e+000	 3.4881425224e+000	-5.5596104423e-001
 2.3480891477e+000	 3.5124211528e+000	-5.3314338851e-001
 2.3119612081e+000	 3.5363060349e+000	-5.1267925373e-001
 2.6787670372e+000	 3.2995010472e+000	-6.3098261338e-001
 2.6445581744e+000	 3.3269824258e+000	-6.2507275608e-001
 2.6100877523e+000	 3.3540933089e+000	-6.2208089436e-001
 2.5753617721e+000	 3.3808300376e+000	-6.2181032016e-001
 2.5403863013e+000	 3.4071890820e+000	-6.2406391327e-001
 2.5051674705e+000	 3.4331670430e+000	-6.2864434152e-001
 2.4697114697e+000	 3.4587606532e+000	-5.9949101783e-001
 2.4340245451e+000	 3.4839667785e+000	-5.6848649028e-001
 2.3981129948e+000	 3.5087824190e+000	-5.4149379735e-001
 2.3619831663e+000	 3.5332047099e+000	-5.1802854512e-001
 2.3256414519e+000	 3.5572309227e+000	-4.9759784151e-001
 2.1888390135e+000	 3.3479820449e+000	-6.7634708462e-001
 2.1544416806e+000	 3.3702197324e+000	-6.4930563284e-001
 2.1198570727e+000	 3.3920798916e+000	-6.2421395311e-001
 2.0850913135e+000	 3.4135603429e+000	-6.0081645112e-001
 2.0501505556e+000	 3.4346590368e+000	-5.7885361241e-001
 2.0150409773e+000	 3.4553740550e+000	-5.5806287606e-001
 1.9797687788e+000	 3.4757036097e+000	-5.3817951093e-001
 1.9443401791e+000	 3.4956460444e+000	-5.1893749184e-001
 1.9087614125e+000	 3.5151998336e+000	-5.0007037324e-001
 1.8730387253e+000	 3.5343635826e+000	-4.8076040632e-001
 1.8371783722e+000	 3.5531360273e+000	-4.5477820307e-001
 2.2025192574e+000	 3.3689069327e+000	-6.5412367639e-001
 2.1679069412e+000	 3.3912836057e+000	-6.2913499400e-001
 2.1331061794e+000	 3.4132803910e+000	-6.0609687881e-001
 2.0981231342e+000	 3.4348950950e+000	-5.8473459221e-001
 2.0629639966e+000	 3.4561256558e+000	-5.6476946546e-001
 2.0276349834e+000	 3.4769701428e+000	-5.4591980457e-001
 1.9921423336e+000	 3.4974267573e+000	-5.2790179745e-001
 1.9564923052e+000	 3.5174938322e+000	-5.1043042087e-001
 1.9206911713e+000	 3.5371698326e+000	-4.9322034449e-001
 1.8847452173e+000	 3.5564533549e+000	-4.7598682966e-001
 1.8486607371e+000	 3.5753431275e+000	-4.5353513438e-001
 2.2161995012e+000	 3.3898318204e+000	-6.3321370973e-001
 2.1813722017e+000	 3.4123474791e+000	-6.1021308544e-001
 2.1463552861e+000	 3.4344808903e+000	-5.8916791973e-001
 2.1111549549e+000	 3.4562298472e+000	-5.6978418762e-001
 2.0757774376e+000	 3.4775922748e+000	-5.5176391981e-001
 2.0402289895e+000	 3.4985662307e+000	-5.3480613895e-001
 2.0045158885e+000	 3.5191499048e+000	-5.1860779814e-001
 1.9686444313e+000	 3.5393416200e+000	-5.0286471890e-001
 1.9326209301e+000	 3.5591398315e+000	-4.8727252601e-001
 1.8964517093e+000	 3.5785431273e+000	-4.7152757667e-001
 1.8601431019e+000	 3.5975502277e+000	-4.5266688849e-001
 2.2298797451e+000	 3.4107567082e+000	-6.1348641019e-001
 2.1948374622e+000	 3.4334113524e+000	-5.9241396910e-001
 2.1596043928e+000	 3.4556813896e+000	-5.7330600045e-001
 2.1241867756e+000	 3.4775645993e+000	-5.5584904753e-001
 2.0885908786e+000	 3.4990588938e+000	-5.3972569076e-001
 2.0528229956e+000	 3.5201623185e+000	-5.2461551583e-001
 2.0168894434e+000	 3.5408730524e+000	-5.1019608375e-001
 1.9807965574e+000	 3.5611894078e+000	-4.9614390024e-001
 1.9445506890e+000	 3.5811098305e+000	-4.8213538170e-001
 1.9081582014e+000	 3.6006328997e+000	-4.6784781507e-001
 1.8716254667e+000	 3.6197573278e+000	-4.5235496785e-001
 2.2435599889e+000	 3.4316815960e+000	-5.9481136319e-001
 2.2083027227e+000	 3.4544752257e+000	-5.7561199087e-001
 2.1728534996e+000	 3.4768818889e+000	-5.5839025408e-001
 2.1372185963e+000	 3.4988993514e+000	-5.4281311568e-001
 2.1014043195e+000	 3.5205255128e+000	-5.2854355282e-001
 2.0654170017e+000	 3.5417584064e+000	-5.1524155721e-001
 2.0292629983e+000	 3.5625962000e+000	-5.0256513715e-001
 1.9929486836e+000	 3.5830371956e+000	-4.9017131869e-001
 1.9564804478e+000	 3.6030798295e+000	-4.7771714299e-001
 1.9198646934e+000	 3.6227226721e+000	-4.6486065732e-001
 1.8831078316e+000	 3.6419644280e+000	-4.5126189682e-001
 2.2572402327e+000	 3.4526064838e+000	-5.7705850309e-001
 2.2217679832e+000	 3.4755390991e+000	-5.5968177197e-001
 2.1861026063e+000	 3.4980823883e+000	-5.4430001593e-001
 2.1502504171e+000	 3.5202341036e+000	-5.3056046537e-001
 2.1142177605e+000	 3.5419921317e+000	-5.1810633788e-001
 2.0780110078e+000	 3.5633544942e+000	-5.0657787086e-001
 2.0416365531e+000	 3.5843193475e+000	-4.9561335601e-001
 2.0051008097e+000	 3.6048849833e+000	-4.8485017244e-001
 1.9684102066e+000	 3.6250498284e+000	-4.7392581595e-001
 1.9315711854e+000	 3.6448124445e+000	-4.6247892138e-001
 1.8945901964e+000	 3.6641715282e+000	-4.5015027539e-001
 2.2709204766e+000	 3.4735313716e+000	-5.6009810268e-001
 2.2352332437e+000	 3.4966029724e+000	-5.4449820070e-001
 2.1993517130e+000	 3.5192828876e+000	-5.3091481743e-001
 2.1632822378e+000	 3.5415688557e+000	-5.1897529557e-001
 2.1270312015e+000	 3.5634587507e+000	-5.0830293351e-001
 2.0906050139e+000	 3.5849505821e+000	-4.9851805083e-001
 2.0540101080e+000	 3.6060424951e+000	-4.8923905533e-001
 2.0172529358e+000	 3.6267327711e+000	-4.8008350874e-001
 1.9803399655e+000	 3.6470198274e+000	-4.7066918802e-001
 1.9432776775e+000	 3.6669022169e+000	-4.6061513957e-001
 1.9060725612e+000	 3.6863786283e+000	-4.4954272333e-001
 2.2846007204e+000	 3.4944562593e+000	-5.4380076305e-001
 2.2486985042e+000	 3.5176668457e+000	-5.2993642441e-001
 2.2126008197e+000	 3.5404833869e+000	-5.1811438026e-001
 2.1763140585e+000	 3.5629036079e+000	-5.0794192710e-001
 2.1398446424e+000	 3.5849253697e+000	-4.9902228131e-001
 2.1031990201e+000	 3.6065466699e+000	-4.9095567777e-001
 2.0663836629e+000	 3.6277656426e+000	-4.8334046996e-001
 2.0294050619e+000	 3.6485805589e+000	-4.7577422842e-001
 1.9922697243e+000	 3.6689898263e+000	-4.6785483460e-001
 1.9549841695e+000	 3.6889919893e+000	-4.5918156717e-001
 1.9175549260e+000	 3.7085857285e+000	-4.4935617785e-001
 2.2982809642e+000	 3.5153811471e+000	-5.2803740382e-001
 2.2621637647e+000	 3.5387307190e+000	-5.1587184182e-001
 2.2258499264e+000	 3.5616838862e+000	-5.0577861069e-001
 2.1893458792e+000	 3.5842383600e+000	-4.9734479906e-001
 2.1526580834e+000	 3.6063919887e+000	-4.9015337525e-001
 2.1157930262e+000	 3.6281427577e+000	-4.8378431939e-001
 2.0787572177e+000	 3.6494887902e+000	-4.7781575694e-001
 2.0415571880e+000	 3.6704283467e+000	-4.7182509026e-001
 2.0041994831e+000	 3.6909598253e+000	-4.6539012533e-001
 1.9666906615e+000	 3.7110817617e+000	-4.5809019060e-001
 1.9290372909e+000	 3.7307928287e+000	-4.4950724489e-001
 2.3119612081e+000	 3.5363060349e+000	-5.1267925373e-001
 2.2756290252e+000	 3.5597945924e+000	-5.0218009554e-001
 2.2390990331e+000	 3.5828843855e+000	-4.9378759409e-001
 2.2023776999e+000	 3.6055731122e+000	-4.8706846529e-001
 2.1654715244e+000	 3.6278586077e+000	-4.8158526015e-001
 2.1283870323e+000	 3.6497388456e+000	-4.7689753085e-001
 2.0911307726e+000	 3.6712119378e+000	-4.7256299786e-001
 2.0537093142e+000	 3.6922761344e+000	-4.6813871517e-001
 2.0161292419e+000	 3.7129298243e+000	-4.6318223019e-001
 1.9783971536e+000	 3.7331715341e+000	-4.5725273544e-001
 1.9405196557e+000	 3.7529999288e+000	-4.4824596888e-001
 2.3256414519e+000	 3.5572309227e+000	-4.9759784151e-001
 2.2890942857e+000	 3.5808584657e+000	-4.8873706494e-001
 2.2523481398e+000	 3.6040848849e+000	-4.8202158971e-001
 2.2154095206e+000	 3.6269078643e+000	-4.7699759102e-001
 2.1782849654e+000	 3.6493252266e+000	-4.7320703022e-001
 2.1409810384e+000	 3.6713349334e+000	-4.7018885506e-001
 2.1035043275e+000	 3.6929350853e+000	-4.6748020101e-001
 2.0658614403e+000	 3.7141239222e+000	-4.6461759028e-001
 2.0280590008e+000	 3.7348998232e+000	-4.6113812537e-001
 1.9901036456e+000	 3.7552613065e+000	-4.5260023099e-001
 1.9520020205e+000	 3.7752070290e+000	-4.3487733816e-001
 1.8371783722e+000	 3.5531360273e+000	-4.5477820307e-001
 1.8011866135e+000	 3.5715160343e+000	-4.4081523029e-001
 1.7650697110e+000	 3.5895026000e+000	-4.2677926398e-001
 1.7288339256e+000	 3.6070948501e+000	-4.1255558331e-001
 1.6924855132e+000	 3.6242920395e+000	-3.9804630413e-001
 1.6560307222e+000	 3.6410935510e+000	-3.8316970785e-001
 1.6194757899e+000	 3.6574988949e+000	-3.6785954054e-001
 1.5828269397e+000	 3.6735077078e+000	-3.5206428489e-001
 1.5460903777e+000	 3.6891197520e+000	-3.3574640820e-001
 1.5092722896e+000	 3.7043349141e+000	-3.1888158901e-001
 1.4723788383e+000	 3.7191532043e+000	-3.0145792536e-001
 1.8486607371e+000	 3.5753431275e+000	-4.5353513438e-001
 1.8124440298e+000	 3.5938380095e+000	-4.3783969598e-001
 1.7761013967e+000	 3.6119369912e+000	-4.2180297087e-001
 1.7396391376e+000	 3.6296391930e+000	-4.0532541677e-001
 1.7030635476e+000	 3.6469438648e+000	-3.8832480002e-001
 1.6663809142e+000	 3.6638503857e+000	-3.7073549155e-001
 1.6295975136e+000	 3.6803582629e+000	-3.5250773256e-001
 1.5927196081e+000	 3.6964671309e+000	-3.3360687269e-001
 1.5557534425e+000	 3.7121767504e+000	-3.1401258382e-001
 1.5187052414e+000	 3.7274870073e+000	-2.9371805230e-001
 1.4815812060e+000	 3.7423979118e+000	-2.7272915270e-001
 1.8601431019e+000	 3.5975502277e+000	-4.5266688849e-001
 1.8237014462e+000	 3.6161599847e+000	-4.3529414365e-001
 1.7871330824e+000	 3.6343713825e+000	-4.1730709624e-001
 1.7504443496e+000	 3.6521835358e+000	-3.9862148974e-001
 1.7136415821e+000	 3.6695956900e+000	-3.7917085589e-001
 1.6767311062e+000	 3.6866072204e+000	-3.5890577740e-001
 1.6397192373e+000	 3.7032176310e+000	-3.3779311975e-001
 1.6026122765e+000	 3.7194265541e+000	-3.1581523531e-001
 1.5654165074e+000	 3.7352337488e+000	-2.9296914251e-001
 1.5281381932e+000	 3.7506391005e+000	-2.6986726572e-001
 1.4907835738e+000	 3.7656426193e+000	-2.6082815305e-001
 1.8716254667e+000	 3.6197573278e+000	-4.5235496785e-001
 1.8349588625e+000	 3.6384819600e+000	-4.3335458965e-001
 1.7981647681e+000	 3.6568057737e+000	-4.1346205911e-001
 1.7612495617e+000	 3.6747278786e+000	-3.9260851657e-001
 1.7242196165e+000	 3.6922475153e+000	-3.7074337794e-001
 1.6870812982e+000	 3.7093640551e+000	-3.4783356381e-001
 1.6498409610e+000	 3.7260769991e+000	-3.2386269720e-001
 1.6125049449e+000	 3.7423859773e+000	-2.9883027296e-001
 1.5750795722e+000	 3.7582907473e+000	-2.7968106756e-001
 1.5375711450e+000	 3.7737911937e+000	-2.6791915698e-001
 1.4999859415e+000	 3.7888873268e+000	-2.5764297973e-001
 1.8831078316e+000	 3.6419644280e+000	-4.5126189682e-001
 1.8462162788e+000	 3.6608039352e+000	-4.3219675381e-001
 1.8091964538e+000	 3.6792401650e+000	-4.1043806048e-001
 1.7720547737e+000	 3.6972722214e+000	-3.8745107267e-001
 1.7347976510e+000	 3.7148993405e+000	-3.6320121307e-001
 1.6974314902e+000	 3.7321208898e+000	-3.3767187024e-001
 1.6599626847e+000	 3.7489363672e+000	-3.1086356180e-001
 1.6223976132e+000	 3.7653454004e+000	-2.9367849827e-001
 1.5847426371e+000	 3.7813477457e+000	-2.7923910670e-001
 1.5470040968e+000	 3.7969432870e+000	-2.6656662124e-001
 1.5091883092e+000	 3.8121320343e+000	-2.5532170079e-001
 1.8945901964e+000	 3.6641715282e+000	-4.5015027539e-001
 1.8574736952e+000	 3.6831259104e+000	-4.3199606848e-001
 1.8202281395e+000	 3.7016745562e+000	-4.0840508991e-001
 1.7828599857e+000	 3.7198165642e+000	-3.8331359872e-001
 1.7453756855e+000	 3.7375511658e+000	-3.5670315078e-001
 1.7077816822e+000	 3.7548777245e+000	-3.3068576109e-001
 1.6700844084e+000	 3.7717957353e+000	-3.1118407930e-001
 1.6322902816e+000	 3.7883048236e+000	-2.9409940687e-001
 1.5944057020e+000	 3.8044047442e+000	-2.7907338804e-001
 1.5564370487e+000	 3.8200953802e+000	-2.6575665488e-001
 1.5183906770e+000	 3.8353767419e+000	-2.5380946154e-001
 1.9060725612e+000	 3.6863786283e+000	-4.4954272333e-001
 1.8687311115e+000	 3.7054478856e+000	-4.3292768717e-001
 1.8312598252e+000	 3.7241089475e+000	-4.0753293187e-001
 1.7936651978e+000	 3.7423609070e+000	-3.8036040470e-001
 1.7559537199e+000	 3.7602029910e+000	-3.5398596517e-001
 1.7181318743e+000	 3.7776345592e+000	-3.3154432570e-001
 1.6802061321e+000	 3.7946551034e+000	-3.1183209009e-001
 1.6421829500e+000	 3.8112642468e+000	-2.9448142637e-001
 1.6040687668e+000	 3.8274617426e+000	-2.7913298713e-001
 1.5658700005e+000	 3.8432474734e+000	-2.6543658069e-001
 1.5275930447e+000	 3.8586214494e+000	-2.5305181128e-001
 1.9175549260e+000	 3.7085857285e+000	-4.4935617785e-001
 1.8799885278e+000	 3.7277698608e+000	-4.3424333835e-001
 1.8422915109e+000	 3.7465433387e+000	-4.0799117194e-001
 1.8044704098e+000	 3.7649052498e+000	-3.7952111533e-001
 1.7665317544e+000	 3.7828548162e+000	-3.5412981504e-001
 1.7284820663e+000	 3.8003913939e+000	-3.3179191375e-001
 1.6903278558e+000	 3.8175144715e+000	-3.1213023212e-001
 1.6520756183e+000	 3.8342236700e+000	-2.9477553133e-001
 1.6137318317e+000	 3.8505187411e+000	-2.7936722121e-001
 1.5753029523e+000	 3.8663995666e+000	-2.6555403808e-001
 1.5367954125e+000	 3.8818661569e+000	-2.5299469130e-001
 1.9290372909e+000	 3.7307928287e+000	-4.4950724489e-001
 1.8912459442e+000	 3.7500918360e+000	-4.3520082170e-001
 1.8533231966e+000	 3.7689777300e+000	-4.0670550775e-001
 1.8152756218e+000	 3.7874495926e+000	-3.7833724534e-001
 1.7771097888e+000	 3.8055066415e+000	-3.5335845112e-001
 1.7388322583e+000	 3.8231482286e+000	-3.3138277133e-001
 1.7004495794e+000	 3.8403738396e+000	-3.1203120689e-001
 1.6619682867e+000	 3.8571830931e+000	-2.9493285845e-001
 1.6233948965e+000	 3.8735757395e+000	-2.7972564196e-001
 1.5847359041e+000	 3.8895516598e+000	-2.6605697366e-001
 1.5459977802e+000	 3.9051108645e+000	-2.5358442310e-001
 1.9405196557e+000	 3.7529999288e+000	-4.4824596888e-001
 1.9025033605e+000	 3.7724138112e+000	-4.2770418662e-001
 1.8643548823e+000	 3.7914121212e+000	-4.0359147434e-001
 1.8260808339e+000	 3.8099939354e+000	-3.7593816923e-001
 1.7876878233e+000	 3.8281584667e+000	-3.5162759290e-001
 1.7491824503e+000	 3.8459050633e+000	-3.3027116257e-001
 1.7105713031e+000	 3.8632332077e+000	-3.1148780339e-001
 1.6718609551e+000	 3.8801425163e+000	-2.9490470171e-001
 1.6330579614e+000	 3.8966327380e+000	-2.8015802862e-001
 1.5941688559e+000	 3.9127037530e+000	-2.6689363215e-001
 1.5552001479e+000	 3.9283555720e+000	-2.5476769724e-001
 1.9520020205e+000	 3.7752070290e+000	-4.3487733816e-001
 1.9137607768e+000	 3.7947357865e+000	-4.1765050535e-001
 1.8753865680e+000	 3.8138465125e+000	-3.9887697973e-001
 1.8368860459e+000	 3.8325382783e+000	-3.7228092621e-001
 1.7982658577e+000	 3.8508102920e+000	-3.4889291048e-001
 1.7595326423e+000	 3.8686618980e+000	-3.2841136916e-001
 1.7206930268e+000	 3.8860925758e+000	-3.1045289548e-001
 1.6817536235e+000	 3.9031019395e+000	-2.9464250781e-001
 1.6427210263e+000	 3.9196897364e+000	-2.8061438127e-001
 1.6036018077e+000	 3.9358558462e+000	-2.6801254765e-001
 1.5644025157e+000	 3.9516002795e+000	-2.5649156240e-001
 1.4723788383e+000	 3.7191532043e+000	-3.0145792536e-001
 1.4354161602e+000	 3.7335747544e+000	-2.8314770494e-001
 1.3983903631e+000	 3.7475998176e+000	-2.6035736937e-001
 1.3613075226e+000	 3.7612287659e+000	-2.4674998888e-001
 1.3241736799e+000	 3.7744620896e+000	-2.3250271063e-001
 1.2869948389e+000	 3.7873003954e+000	-2.1462894794e-001
 1.2497769635e+000	 3.7997444048e+000	-1.9288546608e-001
 1.2125259753e+000	 3.8117949524e+000	-1.6416839849e-001
 1.1752477508e+000	 3.8234529844e+000	-1.3734996669e-001
 1.1379481191e+000	 3.8347195567e+000	-1.1197062884e-001
 1.1006328594e+000	 3.8455958328e+000	-8.7602676969e-002
 1.4815812060e+000	 3.7423979118e+000	-2.7272915270e-001
 1.4443875112e+000	 3.7569095967e+000	-2.5913409403e-001
 1.4071303029e+000	 3.7710223164e+000	-2.5082318946e-001
 1.3698156946e+000	 3.7847364456e+000	-2.3973537909e-001
 1.3324497654e+000	 3.7980524776e+000	-2.2562006491e-001
 1.2950385566e+000	 3.8109710228e+000	-2.0824081949e-001
 1.2575880695e+000	 3.8234928073e+000	-1.8737572034e-001
 1.2201042627e+000	 3.8356186709e+000	-1.5872617185e-001
 1.1825930493e+000	 3.8473495656e+000	-1.3053354536e-001
 1.1450602948e+000	 3.8586865539e+000	-1.0397601075e-001
 1.1075118147e+000	 3.8696308067e+000	-7.8597213532e-002
 1.4907835738e+000	 3.7656426193e+000	-2.6082815305e-001
 1.4533588622e+000	 3.7802444389e+000	-2.5396974131e-001
 1.4158702426e+000	 3.7944448153e+000	-2.4500264353e-001
 1.3783238666e+000	 3.8082441254e+000	-2.3364680712e-001
 1.3407258509e+000	 3.8216428657e+000	-2.1963596588e-001
 1.3030822743e+000	 3.8346416503e+000	-2.0271803143e-001
 1.2653991756e+000	 3.8472412098e+000	-1.8265544905e-001
 1.2276825500e+000	 3.8594423893e+000	-1.5501562546e-001
 1.1899383477e+000	 3.8712461467e+000	-1.2556604663e-001
 1.1521724706e+000	 3.8826535511e+000	-9.7938820336e-002
 1.1143907701e+000	 3.8936657807e+000	-7.1648601454e-002
 1.4999859415e+000	 3.7888873268e+000	-2.5764297973e-001
 1.4623302133e+000	 3.8035792811e+000	-2.4971698809e-001
 1.4246101824e+000	 3.8178673141e+000	-2.4008069342e-001
 1.3868320386e+000	 3.8317518052e+000	-2.2843831402e-001
 1.3490019364e+000	 3.8452332537e+000	-2.1450784534e-001
 1.3111259921e+000	 3.8583122778e+000	-1.9802147363e-001
 1.2732102816e+000	 3.8709896123e+000	-1.7872595331e-001
 1.2352608374e+000	 3.8832661078e+000	-1.5290445365e-001
 1.1972836462e+000	 3.8951427279e+000	-1.2232258141e-001
 1.1592846463e+000	 3.9066205484e+000	-9.3741621654e-002
 1.1212697255e+000	 3.9177007546e+000	-6.6646888814e-002
 1.5091883092e+000	 3.8121320343e+000	-2.5532170079e-001
 1.4713015643e+000	 3.8269141233e+000	-2.4632369186e-001
 1.4333501222e+000	 3.8412898130e+000	-2.3600839860e-001
 1.3953402107e+000	 3.8552594850e+000	-2.2406423181e-001
 1.3572780219e+000	 3.8688236418e+000	-2.1019337587e-001
 1.3191697098e+000	 3.8819829053e+000	-1.9411222459e-001
 1.2810213876e+000	 3.8947380149e+000	-1.7555178025e-001
 1.2428391247e+000	 3.9070898262e+000	-1.5226042933e-001
 1.2046289446e+000	 3.9190393090e+000	-1.2067828130e-001
 1.1663968220e+000	 3.9305875456e+000	-9.1266939868e-002
 1.1281486808e+000	 3.9417357286e+000	-6.3482023417e-002
 1.5183906770e+000	 3.8353767419e+000	-2.5380946154e-001
 1.4802729153e+000	 3.8502489655e+000	-2.4373808387e-001
 1.4420900620e+000	 3.8647123118e+000	-2.3273714748e-001
 1.4038483827e+000	 3.8787671648e+000	-2.2047917472e-001
 1.3655541074e+000	 3.8924140299e+000	-2.0665046355e-001
 1.3272134276e+000	 3.9056535327e+000	-1.9095154570e-001
 1.2888324936e+000	 3.9184864174e+000	-1.7309760743e-001
 1.2504174121e+000	 3.9309135447e+000	-1.5281887260e-001
 1.2119742430e+000	 3.9429358902e+000	-1.2050829804e-001
 1.1735089978e+000	 3.9545545428e+000	-9.0397262429e-002
 1.1350276362e+000	 3.9657707025e+000	-6.2043855837e-002
 1.5275930447e+000	 3.8586214494e+000	-2.5305181128e-001
 1.4892442663e+000	 3.8735838077e+000	-2.4190875787e-001
 1.4508300017e+000	 3.8881348107e+000	-2.3021864752e-001
 1.4123565547e+000	 3.9022748446e+000	-2.1763803064e-001
 1.3738301929e+000	 3.9160044179e+000	-2.0383724088e-001
 1.3352571453e+000	 3.9293241602e+000	-1.8850087571e-001
 1.2966435997e+000	 3.9422348199e+000	-1.7132823893e-001
 1.2579956994e+000	 3.9547372631e+000	-1.5203374492e-001
 1.2193195415e+000	 3.9668324714e+000	-1.2168780283e-001
 1.1806211735e+000	 3.9785215400e+000	-9.1015040211e-002
 1.1419065916e+000	 3.9898056765e+000	-6.2222142340e-002
 1.5367954125e+000	 3.8818661569e+000	-2.5299469130e-001
 1.4982156173e+000	 3.8969186499e+000	-2.4078465926e-001
 1.4595699415e+000	 3.9115573096e+000	-2.2840491566e-001
 1.4208647267e+000	 3.9257825243e+000	-2.1549595294e-001
 1.3821062784e+000	 3.9395948060e+000	-2.0171206004e-001
 1.3433008631e+000	 3.9529947877e+000	-1.8672182544e-001
 1.3044547057e+000	 3.9659832225e+000	-1.7020860153e-001
 1.2655739868e+000	 3.9785609816e+000	-1.5187093011e-001
 1.2266648399e+000	 3.9907290525e+000	-1.2409198579e-001
 1.1877333493e+000	 4.0024885373e+000	-9.3002688606e-002
 1.1487855470e+000	 4.0138406504e+000	-6.3906547712e-002
 1.5459977802e+000	 3.9051108645e+000	-2.5358442310e-001
 1.5071869683e+000	 3.9202534922e+000	-2.4031507463e-001
 1.4683098813e+000	 3.9349798084e+000	-2.2724826912e-001
 1.4293728987e+000	 3.9492902041e+000	-2.1400835258e-001
 1.3903823639e+000	 3.9631851940e+000	-2.0023348634e-001
 1.3513445808e+000	 3.9766654151e+000	-1.8557617265e-001
 1.3122658117e+000	 3.9897316250e+000	-1.6970374109e-001
 1.2731522741e+000	 4.0023847000e+000	-1.5229879525e-001
 1.2340101384e+000	 4.0146256337e+000	-1.2759605539e-001
 1.1948455250e+000	 4.0264555345e+000	-9.6242588582e-002
 1.1556645023e+000	 4.0378756244e+000	-6.6986647981e-002
 1.5552001479e+000	 3.9283555720e+000	-2.5476769724e-001
 1.5161583193e+000	 3.9435883344e+000	-2.4044962164e-001
 1.4770498210e+000	 3.9584023073e+000	-2.2670131652e-001
 1.4378810707e+000	 3.9727978839e+000	-2.1313089050e-001
 1.3986584494e+000	 3.9867755821e+000	-1.9936029191e-001
 1.3593882986e+000	 4.0003360426e+000	-1.8502585713e-001
 1.3200769177e+000	 4.0134800275e+000	-1.6977881900e-001
 1.2807305615e+000	 4.0262084185e+000	-1.5328577486e-001
 1.2413554368e+000	 4.0385222148e+000	-1.3207523789e-001
 1.2019577008e+000	 4.0504225317e+000	-1.0061708770e-001
 1.1625434577e+000	 4.0619105984e+000	-7.1351933041e-002
 1.5644025157e+000	 3.9516002795e+000	-2.5649156240e-001
 1.5251296703e+000	 3.9669231766e+000	-2.4113823931e-001
 1.4857897608e+000	 3.9818248061e+000	-2.2671694931e-001
 1.4463892427e+000	 3.9963055637e+000	-2.1281947022e-001
 1.4069345349e+000	 4.0103659702e+000	-1.9905144961e-001
 1.3674320163e+000	 4.0240066701e+000	-1.8503297588e-001
 1.3278880237e+000	 4.0372284301e+000	-1.7039910879e-001
 1.2883088488e+000	 4.0500321369e+000	-1.5480036897e-001
 1.2487007353e+000	 4.0624187960e+000	-1.3740477684e-001
 1.2090698765e+000	 4.0743895290e+000	-1.0600850109e-001
 1.1694224131e+000	 4.0859455723e+000	-7.6891809186e-002
 1.1006328594e+000	 3.8455958328e+000	-8.7602676969e-002
 1.0633076989e+000	 3.8560830823e+000	-7.5281470629e-002
 1.0259783107e+000	 3.8661826788e+000	-6.2715786453e-002
 9.8865031116e-001	 3.8758960980e+000	-4.9641582503e-002
 9.5132925831e-001	 3.8852249153e+000	-3.5829095309e-002
 9.1402064961e-001	 3.8941708042e+000	-2.1083285625e-002
 8.7672992013e-001	 3.9027355338e+000	-5.2441932129e-003
 8.3946244064e-001	 3.9109209671e+000	 1.1812798352e-002
 8.0222351592e-001	 3.9187290581e+000	 3.0176785653e-002
 7.6501838302e-001	 3.9261618501e+000	 4.9901256724e-002
 7.2785220965e-001	 3.9332214737e+000	 7.1004088030e-002
 1.1075118147e+000	 3.8696308067e+000	-7.8597213532e-002
 1.0699533720e+000	 3.8801836015e+000	-6.6724809456e-002
 1.0323906751e+000	 3.8903463206e+000	-5.4919144752e-002
 9.9482937561e-001	 3.9001204486e+000	-4.2875170085e-002
 9.5727506617e-001	 3.9095075710e+000	-3.0322896967e-002
 9.1973327867e-001	 3.9185093717e+000	-1.7027886516e-002
 8.8220948212e-001	 3.9271276309e+000	-2.7916446783e-003
 8.4470908089e-001	 3.9353642231e+000	 1.2548075133e-002
 8.0723741289e-001	 3.9432211147e+000	 2.9117060773e-002
 7.6979974791e-001	 3.9507003617e+000	 4.7004520030e-002
 7.3240128595e-001	 3.9578041079e+000	 6.6263047574e-002
 1.1143907701e+000	 3.8936657807e+000	-7.1648601454e-002
 1.0765990452e+000	 3.9042841208e+000	-6.0030984857e-002
 1.0388030396e+000	 3.9145099623e+000	-4.8779772994e-002
 1.0010084400e+000	 3.9243447992e+000	-3.7548746796e-002
 9.6322087403e-001	 3.9337902267e+000	-2.6027545384e-002
 9.2544590773e-001	 3.9428479392e+000	-1.3942197982e-002
 8.8768904412e-001	 3.9515197280e+000	-1.0555596738e-003
 8.4995572114e-001	 3.9598074792e+000	 1.2832348041e-002
 8.1225130986e-001	 3.9677131713e+000	 2.7884090696e-002
 7.7458111280e-001	 3.9752388733e+000	 4.4224666882e-002
 7.3695036226e-001	 3.9823867421e+000	 6.1941445171e-002
 1.1212697255e+000	 3.9177007546e+000	-6.6646888814e-002
 1.0832447183e+000	 3.9283846401e+000	-5.5102781635e-002
 1.0452154040e+000	 3.9386736040e+000	-4.4213245950e-002
 1.0071875045e+000	 3.9485691498e+000	-3.3590722607e-002
 9.6916668190e-001	 3.9580728824e+000	-2.2884323073e-002
 9.3115853678e-001	 3.9671865068e+000	-1.1780404630e-002
 8.9316860612e-001	 3.9759118251e+000	-3.0467944811e-006
 8.5520236139e-001	 3.9842507352e+000	 1.2685570135e-002
 8.1726520684e-001	 3.9922052279e+000	 2.6484883187e-002
 7.7936247769e-001	 3.9997773848e+000	 4.1555760071e-002
 7.4149943857e-001	 4.0069693763e+000	 5.8020406084e-002
 1.1281486808e+000	 3.9417357286e+000	-6.3482023417e-002
 1.0898903914e+000	 3.9524851593e+000	-5.1842693717e-002
 1.0516277685e+000	 3.9628372458e+000	-4.1134654400e-002
 1.0133665689e+000	 3.9727935004e+000	-3.0928827988e-002
 9.7511248976e-001	 3.9823555382e+000	-2.0833635227e-002
 9.3687116584e-001	 3.9915250743e+000	-1.0495613740e-002
 8.9864816812e-001	 4.0003039222e+000	 4.0006479630e-004
 8.6044900165e-001	 4.0086939913e+000	 1.2129178005e-002
 8.2227910381e-001	 4.0166972845e+000	 2.4928135531e-002
 7.8414384258e-001	 4.0243158964e+000	 3.8993759683e-002
 7.4604851487e-001	 4.0315520105e+000	 5.4483162336e-002
 1.1350276362e+000	 3.9657707025e+000	-6.2043855837e-002
 1.0965360645e+000	 3.9765856786e+000	-5.0152932964e-002
 1.0580401329e+000	 3.9870008875e+000	-3.9458619804e-002
 1.0195456334e+000	 3.9970178510e+000	-2.9490134496e-002
 9.8105829763e-001	 4.0066381939e+000	-1.9815036315e-002
 9.4258379490e-001	 4.0158636418e+000	-1.0039887913e-002
 9.0412773012e-001	 4.0246960193e+000	 1.8918659646e-004
 8.6569564190e-001	 4.0331372473e+000	 1.1186046819e-002
 8.2729300078e-001	 4.0411893411e+000	 2.3224183335e-002
 7.8892520747e-001	 4.0488544080e+000	 3.6536465613e-002
 7.5059759118e-001	 4.0561346447e+000	 5.1314988880e-002
 1.1419065916e+000	 3.9898056765e+000	-6.2222142340e-002
 1.1031817376e+000	 4.0006861979e+000	-4.9935437673e-002
 1.0644524973e+000	 4.0111645293e+000	-3.9099308434e-002
 1.0257246978e+000	 4.0212422016e+000	-2.9201074626e-002
 9.8700410549e-001	 4.0309208496e+000	-1.9767255695e-002
 9.4829642396e-001	 4.0402022093e+000	-1.0364276537e-002
 9.0960729212e-001	 4.0490881164e+000	-5.9906660422e-004
 8.7094228215e-001	 4.0575805033e+000	 9.8804469865e-003
 8.3230689776e-001	 4.0656813977e+000	 2.1384951186e-002
 7.9370657237e-001	 4.0733929195e+000	 3.4183462144e-002
 7.5514666749e-001	 4.0807172789e+000	 4.8503142055e-002
 1.1487855470e+000	 4.0138406504e+000	-6.3906547712e-002
 1.1098274108e+000	 4.0247867171e+000	-5.1091880759e-002
 1.0708648618e+000	 4.0353281710e+000	-3.9970445004e-002
 1.0319037623e+000	 4.0454665523e+000	-2.9987460941e-002
 9.9294991336e-001	 4.0552035053e+000	-2.0628222329e-002
 9.5400905303e-001	 4.0645407769e+000	-1.1418846122e-002
 9.1508685412e-001	 4.0734802135e+000	-1.9269127508e-003
 8.7618892241e-001	 4.0820237594e+000	 8.2380023910e-003
 8.3732079473e-001	 4.0901734544e+000	 1.9423905070e-002
 7.9848793726e-001	 4.0979314311e+000	 3.1936064525e-002
 7.5969574380e-001	 4.1052999131e+000	 4.6036800268e-002
 1.1556645023e+000	 4.0378756244e+000	-6.6986647981e-002
 1.1164730839e+000	 4.0488872364e+000	-5.3523677661e-002
 1.0772772262e+000	 4.0594918128e+000	-4.1985325813e-002
 1.0380828267e+000	 4.0696909029e+000	-3.1774504526e-002
 9.9889572122e-001	 4.0794861610e+000	-2.2335088595e-002
 9.5972168209e-001	 4.0888793444e+000	-1.3152709554e-002
 9.2056641613e-001	 4.0978723105e+000	-3.7554372633e-003
 8.8143556267e-001	 4.1064670154e+000	 6.2856501035e-003
 8.4233469171e-001	 4.1146655110e+000	 1.7356006500e-002
 8.0326930216e-001	 4.1224699427e+000	 2.9797267452e-002
 7.6424482012e-001	 4.1298825474e+000	 4.3907006790e-002
 1.1625434577e+000	 4.0619105984e+000	-7.1351933041e-002
 1.1231187570e+000	 4.0729877557e+000	-5.7131993956e-002
 1.0836895907e+000	 4.0836554545e+000	-4.5056831418e-002
 1.0442618912e+000	 4.0939152535e+000	-3.4486832779e-002
 1.0048415291e+000	 4.1037688168e+000	-2.4824253269e-002
 9.6543431115e-001	 4.1132179119e+000	-1.5514054306e-002
 9.2604597813e-001	 4.1222644076e+000	-6.0446265430e-003
 8.8668220292e-001	 4.1309102715e+000	 4.0516015332e-003
 8.4734858869e-001	 4.1391575676e+000	 1.5197668272e-002
 8.0805066705e-001	 4.1470084542e+000	 2.7771695383e-002
 7.6879389643e-001	 4.1544651816e+000	 4.2106614579e-002
 1.1694224131e+000	 4.0859455723e+000	-7.6891809186e-002
 1.1297644301e+000	 4.0970882749e+000	-6.1817752709e-002
 1.0901019551e+000	 4.1078190963e+000	-4.9097438862e-002
 1.0504409556e+000	 4.1181396041e+000	-3.8048506582e-002
 1.0107873370e+000	 4.1280514725e+000	-2.8031383687e-002
 9.7114694021e-001	 4.1375564794e+000	-1.8450169659e-002
 9.3152554013e-001	 4.1466565047e+000	-8.7534002970e-003
 8.9192884318e-001	 4.1553535275e+000	 1.5653049459e-003
 8.5236248567e-001	 4.1636496242e+000	 1.2966711776e-002
 8.1283203195e-001	 4.1715469658e+000	 2.5865554601e-002
 7.7334297274e-001	 4.1790478158e+000	 4.0630233060e-002
 7.2785220965e-001	 3.9332214737e+000	 7.1004088030e-002
 6.9073009268e-001	 3.9399101435e+000	 6.5870361978e-002
 6.5365705668e-001	 3.9462301570e+000	 5.8129846507e-002
 6.1663805252e-001	 3.9521838915e+000	 5.8975974820e-002
 5.7967795609e-001	 3.9577738019e+000	 9.0714598883e-002
 5.4278156711e-001	 3.9630024187e+000	 1.1479191495e-001
 5.0595360791e-001	 3.9678723450e+000	 1.3224008279e-001
 4.6919872246e-001	 3.9723862550e+000	 1.4401144044e-001
 4.3252147529e-001	 3.9765468906e+000	 1.5098199947e-001
 3.9592635063e-001	 3.9803570600e+000	 1.5395495334e-001
 3.5941775158e-001	 3.9838196344e+000	 1.5366418919e-001
 7.3240128595e-001	 3.9578041079e+000	 6.6263047574e-002
 6.9504715575e-001	 3.9645345819e+000	 7.0182215439e-002
 6.5774241328e-001	 3.9708940955e+000	 7.1663780607e-002
 6.2049204034e-001	 3.9768850408e+000	 7.5259139391e-002
 5.8330094331e-001	 3.9825098882e+000	 1.0364100873e-001
 5.4617395190e-001	 3.9877711838e+000	 1.2478474306e-001
 5.0911581796e-001	 3.9926715472e+000	 1.3966395003e-001
 4.7213121447e-001	 3.9972136691e+000	 1.4917201979e-001
 4.3522473450e-001	 4.0014003087e+000	 1.5412573573e-001
 3.9840089032e-001	 4.0052342916e+000	 1.5526889614e-001
 3.6166411252e-001	 4.0087185072e+000	 1.5327593663e-001
 7.3695036226e-001	 3.9823867421e+000	 6.1941445171e-002
 6.9936421883e-001	 3.9891590203e+000	 7.3905841538e-002
 6.6182776988e-001	 3.9955580340e+000	 8.3616271989e-002
 6.2434602816e-001	 4.0015861901e+000	 9.1838646658e-002
 5.8692393053e-001	 4.0072459744e+000	 1.1672789966e-001
 5.4956633669e-001	 4.0125399489e+000	 1.3482917462e-001
 5.1227802800e-001	 4.0174707494e+000	 1.4705680715e-001
 4.7506370648e-001	 4.0220410832e+000	 1.5424449972e-001
 4.3792799372e-001	 4.0262537268e+000	 1.5714904966e-001
 4.0087543001e-001	 4.0301115232e+000	 1.5645408565e-001
 3.6391047346e-001	 4.0336173799e+000	 1.5277380264e-001
 7.4149943857e-001	 4.0069693763e+000	 5.8020406084e-002
 7.0368128190e-001	 4.0137834587e+000	 7.7033786356e-002
 6.6591312648e-001	 4.0202219725e+000	 9.3991272763e-002
 6.2820001599e-001	 4.0262873394e+000	 1.0925746146e-001
 5.9054691776e-001	 4.0319820607e+000	 1.2970114690e-001
 5.5295872148e-001	 4.0373087140e+000	 1.4468087758e-001
 5.1544023805e-001	 4.0422699515e+000	 1.5420419443e-001
 4.7799619849e-001	 4.0468684973e+000	 1.5904435644e-001
 4.4063125294e-001	 4.0511071448e+000	 1.5989740105e-001
 4.0334996970e-001	 4.0549887548e+000	 1.5738599719e-001
 3.6615683441e-001	 4.0585162526e+000	 1.5206329433e-001
 7.4604851487e-001	 4.0315520105e+000	 5.4483162336e-002
 7.0799834498e-001	 4.0384078971e+000	 7.9560320034e-002
 6.6999848308e-001	 4.0448859109e+000	 1.0279407876e-001
 6.3205400381e-001	 4.0509884888e+000	 1.2452597960e-001
 5.9416990498e-001	 4.0567181470e+000	 1.4228721634e-001
 5.5635110627e-001	 4.0620774791e+000	 1.5409573815e-001
 5.1860244810e-001	 4.0670691537e+000	 1.6089150080e-001
 4.8092869050e-001	 4.0716959114e+000	 1.6338654822e-001
 4.4333451216e-001	 4.0759605629e+000	 1.6221536832e-001
 4.0582450939e-001	 4.0798659865e+000	 1.5793886448e-001
 3.6840319536e-001	 4.0834151253e+000	 1.5104832040e-001
 7.5059759118e-001	 4.0561346447e+000	 5.1314988880e-002
 7.1231540806e-001	 4.0630323355e+000	 8.1481384534e-002
 6.7408383968e-001	 4.0695498494e+000	 1.1003128884e-001
 6.3590799164e-001	 4.0756896381e+000	 1.3728371245e-001
 5.9779289220e-001	 4.0814542332e+000	 1.5421314665e-001
 5.5974349106e-001	 4.0868462442e+000	 1.6282985411e-001
 5.2176465814e-001	 4.0918683558e+000	 1.6690396845e-001
 4.8386118252e-001	 4.0965233255e+000	 1.6708553112e-001
 4.4603777138e-001	 4.1008139810e+000	 1.6394667525e-001
 4.0829904908e-001	 4.1047432181e+000	 1.5798571734e-001
 3.7064955631e-001	 4.1083139980e+000	 1.4963123956e-001
 7.5514666749e-001	 4.0807172789e+000	 4.8503142055e-002
 7.1663247114e-001	 4.0876567739e+000	 8.2794543279e-002
 6.7816919628e-001	 4.0942137879e+000	 1.1571076558e-001
 6.3976197947e-001	 4.1003907874e+000	 1.4754881130e-001
 6.0141587943e-001	 4.1061903195e+000	 1.6520653203e-001
 5.6313587586e-001	 4.1116150094e+000	 1.7063952850e-001
 5.2492686819e-001	 4.1166675580e+000	 1.7202669724e-001
 4.8679367453e-001	 4.1213507395e+000	 1.6995527412e-001
 4.4874103060e-001	 4.1256673990e+000	 1.6493421674e-001
 4.1077358877e-001	 4.1296204497e+000	 1.5739841791e-001
 3.7289591725e-001	 4.1332128707e+000	 1.4771290723e-001
 7.5969574380e-001	 4.1052999131e+000	 4.6036800268e-002
 7.2094953422e-001	 4.1122812123e+000	 8.3498932609e-002
 6.8225455289e-001	 4.1188777264e+000	 1.1984159752e-001
 6.4361596729e-001	 4.1250919367e+000	 1.5534030870e-001
 6.0503886665e-001	 4.1309264058e+000	 1.7499550557e-001
 5.6652826065e-001	 4.1363837745e+000	 1.7728126346e-001
 5.2808907824e-001	 4.1414667601e+000	 1.7604464892e-001
 4.8972616655e-001	 4.1461781536e+000	 1.7180927370e-001
 4.5144428982e-001	 4.1505208171e+000	 1.6502008359e-001
 4.1324812847e-001	 4.1544976813e+000	 1.5604769559e-001
 3.7514227820e-001	 4.1581117435e+000	 1.4519272053e-001
 7.6424482012e-001	 4.1298825474e+000	 4.3907006790e-002
 7.2526659730e-001	 4.1369056507e+000	 8.3595214967e-002
 6.8633990949e-001	 4.1435416649e+000	 1.2243406260e-001
 6.4746995512e-001	 4.1497930861e+000	 1.6067809214e-001
 6.0866185388e-001	 4.1556624920e+000	 1.8330872322e-001
 5.6992064545e-001	 4.1611525396e+000	 1.8251175430e-001
 5.3125128829e-001	 4.1662659623e+000	 1.7874265132e-001
 4.9265865857e-001	 4.1710055677e+000	 1.7246056790e-001
 4.5414754904e-001	 4.1753742352e+000	 1.6404558645e-001
 4.1572266816e-001	 4.1793749130e+000	 1.5380318083e-001
 3.7738863915e-001	 4.1830106162e+000	 1.4196866171e-001
 7.6879389643e-001	 4.1544651816e+000	 4.2106614579e-002
 7.2958366038e-001	 4.1615300891e+000	 8.3085533747e-002
 6.9042526610e-001	 4.1682056034e+000	 1.2349959305e-001
 6.5132394295e-001	 4.1744942354e+000	 1.6358287880e-001
 6.1228484111e-001	 4.1803985783e+000	 1.8987534830e-001
 5.7331303024e-001	 4.1859213047e+000	 1.8608788376e-001
 5.3441349835e-001	 4.1910651645e+000	 1.7990540224e-001
 4.9559115059e-001	 4.1958329818e+000	 1.7172174987e-001
 4.5685080827e-001	 4.2002276532e+000	 1.6185127891e-001
 4.1819720786e-001	 4.2042521446e+000	 1.5053343755e-001
 3.7963500011e-001	 4.2079094889e+000	 1.3793733998e-001
 7.7334297274e-001	 4.1790478158e+000	 4.0630233060e-002
 7.3390072346e-001	 4.1861545275e+000	 8.1973469739e-002
 6.9451062271e-001	 4.1928695419e+000	 1.2305074136e-001
 6.5517793079e-001	 4.1991953847e+000	 1.6407619117e-001
 6.1590782834e-001	 4.2051346646e+000	 1.9442503661e-001
 5.7670541504e-001	 4.2106900698e+000	 1.8776671655e-001
 5.3757570840e-001	 4.2158643666e+000	 1.7931747331e-001
 4.9852364261e-001	 4.2206603959e+000	 1.6940498099e-001
 4.5955406749e-001	 4.2250810713e+000	 1.5827697974e-001
 4.2067174755e-001	 4.2291293762e+000	 1.4610599459e-001
 3.8188136106e-001	 4.2328083616e+000	 1.3299403194e-001
 3.5941775158e-001	 3.9838196344e+000	 1.5366418919e-001
 3.2299999927e-001	 3.9869375466e+000	 1.4885276455e-001
 2.8667733226e-001	 3.9897137876e+000	 1.4571655492e-001
 2.5045390584e-001	 3.9921514051e+000	 1.4493166896e-001
 2.1433379153e-001	 3.9942535004e+000	 1.4711324533e-001
 1.7832097657e-001	 3.9960232268e+000	 1.5281885785e-001
 1.4241936352e-001	 3.9974637866e+000	 1.6255188099e-001
 1.0663276990e-001	 3.9985784289e+000	 1.7676480881e-001
 7.0964927926e-002	 3.9993704478e+000	 1.9586252087e-001
 3.5419484290e-002	 3.9998431794e+000	 2.2020548917e-001
 0.0000000000e+000	 4.0000000000e+000	 2.5011292051e-001
 3.6166411252e-001	 4.0087185072e+000	 1.5327593663e-001
 3.2501874926e-001	 4.0118559063e+000	 1.5074130722e-001
 2.8846906558e-001	 4.0146494988e+000	 1.4978210244e-001
 2.5201924275e-001	 4.0171023514e+000	 1.5099153496e-001
 2.1567337773e-001	 4.0192175848e+000	 1.5490277089e-001
 1.7943548268e-001	 4.0209983720e+000	 1.6199244005e-001
 1.4330948454e-001	 4.0224479352e+000	 1.7268410226e-001
 1.0729922471e-001	 4.0235695441e+000	 1.8735166284e-001
 7.1408458726e-002	 4.0243665131e+000	 2.0632273060e-001
 3.5640856066e-002	 4.0248421993e+000	 2.2988191249e-001
 0.0000000000e+000	 4.0250000000e+000	 2.5827403919e-001
 3.6391047346e-001	 4.0336173799e+000	 1.5277380264e-001
 3.2703749926e-001	 4.0367742659e+000	 1.5191586987e-001
 2.9026079891e-001	 4.0395852100e+000	 1.5255837519e-001
 2.5358457966e-001	 4.0420532976e+000	 1.5521102542e-001
 2.1701296393e-001	 4.0441816692e+000	 1.6032439080e-001
 1.8054998878e-001	 4.0459735172e+000	 1.6829352175e-001
 1.4419960556e-001	 4.0474320839e+000	 1.7946151745e-001
 1.0796567952e-001	 4.0485606593e+000	 1.9412303923e-001
 7.1851989525e-002	 4.0493625784e+000	 2.1252776214e-001
 3.5862227843e-002	 4.0498412192e+000	 2.3488375861e-001
 0.0000000000e+000	 4.0500000000e+000	 2.6136080853e-001
 3.6615683441e-001	 4.0585162526e+000	 1.5206329433e-001
 3.2905624925e-001	 4.0616926256e+000	 1.5232372302e-001
 2.9205253223e-001	 4.0645209211e+000	 1.5403433333e-001
 2.5514991657e-001	 4.0670042439e+000	 1.5762069740e-001
 2.1835255012e-001	 4.0691457536e+000	 1.6345014747e-001
 1.8166449488e-001	 4.0709486623e+000	 1.7183550066e-001
 1.4508972659e-001	 4.0724162326e+000	 1.8303873133e-001
 1.0863213434e-001	 4.0735517745e+000	 1.9727458378e-001
 7.2295520325e-002	 4.0743586437e+000	 2.1471411876e-001
 3.6083599620e-002	 4.0748402391e+000	 2.3548818753e-001
 0.0000000000e+000	 4.0750000000e+000	 2.5969082774e-001
 3.6840319536e-001	 4.0834151253e+000	 1.5104832040e-001
 3.3107499925e-001	 4.0866109853e+000	 1.5190989922e-001
 2.9384426556e-001	 4.0894566323e+000	 1.5419606458e-001
 2.5671525349e-001	 4.0919551902e+000	 1.5824760619e-001
 2.1969213632e-001	 4.0941098380e+000	 1.6434795757e-001
 1.8277900099e-001	 4.0959238075e+000	 1.7272703038e-001
 1.4597984761e-001	 4.0974003812e+000	 1.8356499197e-001
 1.0929858915e-001	 4.0985428897e+000	 1.9699597888e-001
 7.2739051125e-002	 4.0993547090e+000	 2.1311173970e-001
 3.6304971397e-002	 4.0998392589e+000	 2.3196520087e-001
 0.0000000000e+000	 4.1000000000e+000	 2.5357394972e-001
 3.7064955631e-001	 4.1083139980e+000	 1.4963123956e-001
 3.3309374924e-001	 4.1115293449e+000	 1.5061726088e-001
 2.9563599889e-001	 4.1143923435e+000	 1.5302687121e-001
 2.5828059040e-001	 4.1169061365e+000	 1.5711541139e-001
 2.2103172252e-001	 4.1190739223e+000	 1.6308173708e-001
 1.8389350709e-001	 4.1208989527e+000	 1.7107216419e-001
 1.4686996863e-001	 4.1223845299e+000	 1.8118435306e-001
 1.0996504396e-001	 4.1235340048e+000	 1.9347112425e-001
 7.3182581926e-002	 4.1243507743e+000	 2.0794419913e-001
 3.6526343175e-002	 4.1248382788e+000	 2.2457785882e-001
 0.0000000000e+000	 4.1250000000e+000	 2.4331251575e-001
 3.7289591725e-001	 4.1332128707e+000	 1.4771290723e-001
 3.3511249924e-001	 4.1364477046e+000	 1.4838656568e-001
 2.9742773222e-001	 4.1393280547e+000	 1.5050735400e-001
 2.5984592731e-001	 4.1418570828e+000	 1.5424447920e-001
 2.2237130872e-001	 4.1440380067e+000	 1.5971152177e-001
 1.8500801320e-001	 4.1458740978e+000	 1.6697049359e-001
 1.4776008966e-001	 4.1473686786e+000	 1.7603583035e-001
 1.1063149878e-001	 4.1485251200e+000	 1.8687831106e-001
 7.3626112727e-002	 4.1493468396e+000	 1.9942889781e-001
 3.6747714952e-002	 4.1498372987e+000	 2.1358248918e-001
 0.0000000000e+000	 4.1500000000e+000	 2.2920158181e-001
 3.7514227820e-001	 4.1581117435e+000	 1.4519272053e-001
 3.3713124924e-001	 4.1613660643e+000	 1.4515652954e-001
 2.9921946555e-001	 4.1642637658e+000	 1.4661549307e-001
 2.6141126423e-001	 4.1668080290e+000	 1.4965198105e-001
 2.2371089492e-001	 4.1690020911e+000	 1.5429358338e-001
 1.8612251931e-001	 4.1708492430e+000	 1.6051728189e-001
 1.4865021068e-001	 4.1723528272e+000	 1.6825355250e-001
 1.1129795359e-001	 4.1735162352e+000	 1.7739038991e-001
 7.4069643528e-002	 4.1743429049e+000	 1.8777724795e-001
 3.6969086730e-002	 4.1748363185e+000	 1.9922888899e-001
 0.0000000000e+000	 4.1750000000e+000	 2.1152913665e-001
 3.7738863915e-001	 4.1830106162e+000	 1.4196866171e-001
 3.3914999924e-001	 4.1862844239e+000	 1.4086388741e-001
 3.0101119888e-001	 4.1891994770e+000	 1.4132672589e-001
 2.6297660114e-001	 4.1917589753e+000	 1.4335198865e-001
 2.2505048112e-001	 4.1939661755e+000	 1.4688054165e-001
 1.8723702541e-001	 4.1958243882e+000	 1.5180359305e-001
 1.4954033171e-001	 4.1973369759e+000	 1.5796690653e-001
 1.1196440840e-001	 4.1985073504e+000	 1.6517493270e-001
 7.4513174330e-002	 4.1993389702e+000	 1.7319485146e-001
 3.7190458508e-002	 4.1998353384e+000	 1.8176051881e-001
 0.0000000000e+000	 4.2000000000e+000	 1.9057631216e-001
 3.7963500011e-001	 4.2079094889e+000	 1.3793733998e-001
 3.4116874924e-001	 4.2112027836e+000	 1.3544345186e-001
 3.0280293221e-001	 4.2141351882e+000	 1.3461402255e-001
 2.6454193806e-001	 4.2167099216e+000	 1.3535556570e-001
 2.2639006732e-001	 4.2189302598e+000	 1.3752147236e-001
 1.8835153152e-001	 4.2207995333e+000	 1.4091641590e-001
 1.5043045273e-001	 4.2223211246e+000	 1.4530067811e-001
 1.1263086322e-001	 4.2234984656e+000	 1.5039438884e-001
 7.4956705132e-002	 4.2243350355e+000	 1.5588167182e-001
 3.7411830286e-002	 4.2248343583e+000	 1.6141469028e-001
 0.0000000000e+000	 4.2250000000e+000	 1.6661758622e-001
 3.8188136106e-001	 4.2328083616e+000	 1.3299403194e-001
 3.4318749924e-001	 4.2361211433e+000	 1.2882816964e-001
 3.0459466554e-001	 4.2390708994e+000	 1.2644795825e-001
 2.6610727498e-001	 4.2416608679e+000	 1.2567085639e-001
 2.2772965353e-001	 4.2438943442e+000	 1.2626201157e-001
 1.8946603763e-001	 4.2457746785e+000	 1.2793878398e-001
 1.5132057376e-001	 4.2473052732e+000	 1.3037518688e-001
 1.1329731804e-001	 4.2484895807e+000	 1.3320623590e-001
 7.5400235934e-002	 4.2493311008e+000	 1.3603219993e-001
 3.7633202065e-002	 4.2498333782e+000	 1.3842274689e-001
 0.0000000000e+000	 4.2500000000e+000	 1.3992097839e-001
 4.2500000000e+000	 0.0000000000e+000	 4.8724808383e-001
 4.2498333782e+000	 3.7633202065e-002	 5.0841277124e-001
 4.2493311008e+000	 7.5400235934e-002	 5.2493208861e-001
 4.2484895807e+000	 1.1329731804e-001	 5.3761198862e-001
 4.2473052732e+000	 1.5132057376e-001	 5.4717285646e-001
 4.2457746785e+000	 1.8946603763e-001	 5.5424628192e-001
 4.2438943442e+000	 2.2772965353e-001	 5.5937193541e-001
 4.2416608679e+000	 2.6610727498e-001	 5.6299455858e-001
 4.2390708994e+000	 3.0459466554e-001	 5.6546108018e-001
 4.2361211433e+000	 3.4318749924e-001	 5.6701786793e-001
 4.2328083616e+000	 3.8188136106e-001	 5.6780812721e-001
 4.2750000000e+000	 0.0000000000e+000	 5.8853171445e-001
 4.2748323980e+000	 3.7854573843e-002	 6.0028838631e-001
 4.2743271661e+000	 7.5843766737e-002	 6.0790541540e-001
 4.2734806959e+000	 1.1396377285e-001	 6.1218567585e-001
 4.2722894219e+000	 1.5221069479e-001	 6.1384446211e-001
 4.2707498237e+000	 1.9058054374e-001	 6.1350621343e-001
 4.2688584286e+000	 2.2906923973e-001	 6.1170134506e-001
 4.2666118142e+000	 2.6767261190e-001	 6.0886319679e-001
 4.2640066105e+000	 3.0638639888e-001	 6.0532510980e-001
 4.2610395029e+000	 3.4520624924e-001	 6.0131764289e-001
 4.2577072343e+000	 3.8412772201e-001	 5.9696593883e-001
 4.3000000000e+000	 0.0000000000e+000	 6.8872010514e-001
 4.2998314179e+000	 3.8075945621e-002	 6.9081390114e-001
 4.2993232314e+000	 7.6287297539e-002	 6.8931139316e-001
 4.2984718111e+000	 1.1463022767e-001	 6.8501267338e-001
 4.2972735706e+000	 1.5310081581e-001	 6.7862820442e-001
 4.2957249688e+000	 1.9169504985e-001	 6.7077549516e-001
 4.2938225130e+000	 2.3040882593e-001	 6.6197588592e-001
 4.2915627605e+000	 2.6923794881e-001	 6.5265145392e-001
 4.2889423217e+000	 3.0817813221e-001	 6.4312205017e-001
 4.2859578626e+000	 3.4722499924e-001	 6.3360247896e-001
 4.2826061070e+000	 3.8637408296e-001	 6.2419983102e-001
 4.3250000000e+000	 0.0000000000e+000	 7.8776893908e-001
 4.3248304378e+000	 3.8297317399e-002	 7.7995303372e-001
 4.3243192967e+000	 7.6730828340e-002	 7.6912190891e-001
 4.3234629263e+000	 1.1529668248e-001	 7.5607316873e-001
 4.3222577192e+000	 1.5399093684e-001	 7.4151269990e-001
 4.3207001140e+000	 1.9280955596e-001	 7.2605129782e-001
 4.3187865974e+000	 2.3174841213e-001	 7.1020140460e-001
 4.3165137067e+000	 2.7080328573e-001	 6.9437397046e-001
 4.3138780329e+000	 3.0996986554e-001	 6.7887544954e-001
 4.3108762223e+000	 3.4924374924e-001	 6.6390494177e-001
 4.3075049798e+000	 3.8862044392e-001	 6.4955149191e-001
 4.3500000000e+000	 0.0000000000e+000	 8.8563491825e-001
 4.3498294576e+000	 3.8518689177e-002	 8.6767043104e-001
 4.3493153620e+000	 7.7174359142e-002	 8.4730969206e-001
 4.3484540415e+000	 1.1596313730e-001	 8.2534810844e-001
 4.3472418679e+000	 1.5488105786e-001	 8.0248724399e-001
 4.3456752592e+000	 1.9392406206e-001	 7.7933139429e-001
 4.3437506817e+000	 2.3308799833e-001	 7.5638427658e-001
 4.3414646530e+000	 2.7236862265e-001	 7.3404584589e-001
 4.3388137440e+000	 3.1176159887e-001	 7.1260924888e-001
 4.3357945819e+000	 3.5126249924e-001	 6.9225792705e-001
 4.3324038525e+000	 3.9086680487e-001	 6.7306288070e-001
 4.3750000000e+000	 0.0000000000e+000	 9.8227573429e-001
 4.3748284775e+000	 3.8740060954e-002	 9.5393164255e-001
 4.3743114273e+000	 7.7617889943e-002	 9.2384829033e-001
 4.3734451567e+000	 1.1662959211e-001	 8.9281917633e-001
 4.3722260166e+000	 1.5577117889e-001	 8.6154179157e-001
 4.3706504043e+000	 1.9503856817e-001	 8.3061414239e-001
 4.3687147661e+000	 2.3442758453e-001	 8.0053139105e-001
 4.3664155993e+000	 2.7393395956e-001	 7.7168262561e-001
 4.3637494552e+000	 3.1355333220e-001	 7.4434777072e-001
 4.3607129416e+000	 3.5328124924e-001	 7.1869465119e-001
 4.3573027252e+000	 3.9311316582e-001	 6.9477621999e-001
 4.4000000000e+000	 0.0000000000e+000	 8.6542024119e-001
 4.3998274974e+000	 3.8961432732e-002	 8.4843431025e-001
 4.3993074926e+000	 7.8061420743e-002	 8.3111098398e-001
 4.3984362718e+000	 1.1729604692e-001	 8.1354100144e-001
 4.3972101652e+000	 1.5666129991e-001	 7.9582869359e-001
 4.3956255495e+000	 1.9615307428e-001	 7.7809230129e-001
 4.3936788505e+000	 2.3576717073e-001	 7.6046427640e-001
 4.3913665456e+000	 2.7549929647e-001	 7.4309156479e-001
 4.3886851664e+000	 3.1534506553e-001	 7.2613586981e-001
 4.3856313013e+000	 3.5529999924e-001	 7.0977389505e-001
 4.3822015979e+000	 3.9535952677e-001	 6.9419756488e-001
 4.4250000000e+000	 0.0000000000e+000	 7.5079646879e-001
 4.4248265173e+000	 3.9182804509e-002	 7.4360548836e-001
 4.4243035579e+000	 7.8504951544e-002	 7.3534077858e-001
 4.4234273870e+000	 1.1796250174e-001	 7.2607707839e-001
 4.4221943139e+000	 1.5755142094e-001	 7.1590322227e-001
 4.4206006947e+000	 1.9726758038e-001	 7.0492248610e-001
 4.4186429349e+000	 2.3710675693e-001	 6.9325291608e-001
 4.4163174919e+000	 2.7706463339e-001	 6.8102763950e-001
 4.4136208776e+000	 3.1713679886e-001	 6.6839515584e-001
 4.4105496609e+000	 3.5731874924e-001	 6.5551960694e-001
 4.4071004706e+000	 3.9760588772e-001	 6.4258102478e-001
 4.4500000000e+000	 0.0000000000e+000	 6.3836491281e-001
 4.4498255371e+000	 3.9404176286e-002	 6.4073551525e-001
 4.4492996232e+000	 7.8948482344e-002	 6.4130008438e-001
 4.4484185022e+000	 1.1862895655e-001	 6.4011750076e-001
 4.4471784626e+000	 1.5844154196e-001	 6.3726124662e-001
 4.4455758398e+000	 1.9838208649e-001	 6.3281977954e-001
 4.4436070192e+000	 2.3844634313e-001	 6.2689688917e-001
 4.4412684381e+000	 2.7862997030e-001	 6.1961203569e-001
 4.4385565887e+000	 3.1892853219e-001	 6.1110066850e-001
 4.4354680206e+000	 3.5933749924e-001	 6.0151452374e-001
 4.4319993433e+000	 3.9985224867e-001	 5.9102189924e-001
 4.4750000000e+000	 0.0000000000e+000	 5.2808695177e-001
 4.4748245570e+000	 3.9625548063e-002	 5.3978897209e-001
 4.4742956885e+000	 7.9392013143e-002	 5.4895653745e-001
 4.4734096174e+000	 1.1929541136e-001	 5.5563280906e-001
 4.4721626112e+000	 1.5933166298e-001	 5.5987605851e-001
 4.4705509850e+000	 1.9949659259e-001	 5.6176006916e-001
 4.4685711036e+000	 2.3978592933e-001	 5.6137452066e-001
 4.4662193844e+000	 2.8019530721e-001	 5.5882535510e-001
 4.4634922999e+000	 3.2072026552e-001	 5.5423512316e-001
 4.4603863803e+000	 3.6135624923e-001	 5.4774330900e-001
 4.4568982160e+000	 4.0209860962e-001	 5.3950663225e-001
 4.5000000000e+000	 0.0000000000e+000	 4.1992482242e-001
 4.4998235769e+000	 3.9846919840e-002	 4.4073122265e-001
 4.4992917538e+000	 7.9835543943e-002	 4.5827848347e-001
 4.4984007326e+000	 1.1996186617e-001	 4.7259418320e-001
 4.4971467599e+000	 1.6022178400e-001	 4.8372152172e-001
 4.4955261302e+000	 2.0061109869e-001	 4.9171974976e-001
 4.4935351880e+000	 2.4112551553e-001	 4.9666458107e-001
 4.4911703307e+000	 2.8176064413e-001	 4.9864858618e-001
 4.4884280111e+000	 3.2251199884e-001	 4.9778156607e-001
 4.4853047399e+000	 3.6337499923e-001	 4.9419090434e-001
 4.4817970888e+000	 4.0434497057e-001	 4.8802189615e-001
 4.2328083616e+000	 3.8188136106e-001	 5.6780812721e-001
 4.2291293762e+000	 4.2067174755e-001	 5.6940733165e-001
 4.2250810713e+000	 4.5955406749e-001	 5.6861000241e-001
 4.2206603959e+000	 4.9852364261e-001	 5.6518722416e-001
 4.2158643666e+000	 5.3757570840e-001	 5.5879866319e-001
 4.2106900698e+000	 5.7670541504e-001	 5.4899091620e-001
 4.2051346646e+000	 6.1590782834e-001	 5.3519606939e-001
 4.1991953847e+000	 6.5517793079e-001	 5.2644705141e-001
 4.1928695419e+000	 6.9451062271e-001	 5.1847740518e-001
 4.1861545275e+000	 7.3390072346e-001	 5.0881622476e-001
 4.1790478158e+000	 7.7334297274e-001	 4.9755803300e-001
 4.2577072343e+000	 3.8412772201e-001	 5.9696593883e-001
 4.2540066078e+000	 4.2314628725e-001	 5.9328570046e-001
 4.2499344894e+000	 4.6225732672e-001	 5.8795256425e-001
 4.2454878100e+000	 5.0145613463e-001	 5.8072153144e-001
 4.2406635688e+000	 5.4073791845e-001	 5.7123369786e-001
 4.2354588350e+000	 5.8009779984e-001	 5.5901457893e-001
 4.2298707508e+000	 6.1953081557e-001	 5.4347264957e-001
 4.2238965340e+000	 6.5903191862e-001	 5.3507144756e-001
 4.2175334803e+000	 6.9859597932e-001	 5.2605460813e-001
 4.2107789659e+000	 7.3821778655e-001	 5.1485705820e-001
 4.2036304500e+000	 7.7789204906e-001	 5.0157165407e-001
 4.2826061070e+000	 3.8637408296e-001	 6.2419983102e-001
 4.2788838395e+000	 4.2562082694e-001	 6.1549842363e-001
 4.2747879074e+000	 4.6496058594e-001	 6.0592269442e-001
 4.2703152241e+000	 5.0438862665e-001	 5.9521134802e-001
 4.2654627709e+000	 5.4390012851e-001	 5.8298665040e-001
 4.2602276001e+000	 5.8349018464e-001	 5.6875272968e-001
 4.2546068371e+000	 6.2315380280e-001	 5.5189409618e-001
 4.2485976834e+000	 6.6288590645e-001	 5.4400661061e-001
 4.2421974188e+000	 7.0268133592e-001	 5.3394608389e-001
 4.2354034043e+000	 7.4253484963e-001	 5.2122228025e-001
 4.2282130842e+000	 7.8244112537e-001	 5.0592643504e-001
 4.3075049798e+000	 3.8862044392e-001	 6.4955149191e-001
 4.3037610711e+000	 4.2809536664e-001	 6.3609418508e-001
 4.2996413255e+000	 4.6766384517e-001	 6.2257623400e-001
 4.2951426382e+000	 5.0732111866e-001	 6.0871982961e-001
 4.2902619731e+000	 5.4706233856e-001	 5.9412814458e-001
 4.2849963652e+000	 5.8688256944e-001	 5.7828360920e-001
 4.2793429233e+000	 6.2677679003e-001	 5.6111227836e-001
 4.2732988327e+000	 6.6673989428e-001	 5.5324061370e-001
 4.2668613573e+000	 7.0676669253e-001	 5.4213946805e-001
 4.2600278427e+000	 7.4685191271e-001	 5.2789898995e-001
 4.2527957184e+000	 7.8699020168e-001	 5.1060883861e-001
 4.3324038525e+000	 3.9086680487e-001	 6.7306288070e-001
 4.3286383027e+000	 4.3056990634e-001	 6.5512193580e-001
 4.3244947436e+000	 4.7036710439e-001	 6.3796928934e-001
 4.3199700523e+000	 5.1025361068e-001	 6.2131039775e-001
 4.3150611753e+000	 5.5022454861e-001	 6.0472907278e-001
 4.3097651303e+000	 5.9027495423e-001	 5.8768573204e-001
 4.3040790096e+000	 6.3039977725e-001	 5.7120368862e-001
 4.2979999820e+000	 6.7059388211e-001	 5.6276182121e-001
 4.2915252958e+000	 7.1085204914e-001	 5.5062269979e-001
 4.2846522811e+000	 7.5116897579e-001	 5.3487460463e-001
 4.2773783526e+000	 7.9153927800e-001	 5.1560566293e-001
 4.3573027252e+000	 3.9311316582e-001	 6.9477621999e-001
 4.3535155343e+000	 4.3304444603e-001	 6.7263088619e-001
 4.3493481616e+000	 4.7307036361e-001	 6.5215822450e-001
 4.3447974664e+000	 5.1318610270e-001	 6.3304673215e-001
 4.3398603774e+000	 5.5338675867e-001	 6.1486058833e-001
 4.3345338954e+000	 5.9366733903e-001	 5.9703787874e-001
 4.3288150959e+000	 6.3402276448e-001	 5.8157499366e-001
 4.3227011313e+000	 6.7444786994e-001	 5.7255888045e-001
 4.3161892343e+000	 7.1493740575e-001	 5.5938401320e-001
 4.3092767195e+000	 7.5548603887e-001	 5.4213685085e-001
 4.3019609868e+000	 7.9608835431e-001	 5.2090403203e-001
 4.3822015979e+000	 3.9535952677e-001	 6.9419756488e-001
 4.3783927660e+000	 4.3551898573e-001	 6.7979805164e-001
 4.3742015797e+000	 4.7577362284e-001	 6.6519965390e-001
 4.3696248805e+000	 5.1611859472e-001	 6.4399276340e-001
 4.3646595796e+000	 5.5654896872e-001	 6.2459409812e-001
 4.3593026605e+000	 5.9705972383e-001	 6.0641908827e-001
 4.3535511821e+000	 6.3764575171e-001	 5.9221542604e-001
 4.3474022807e+000	 6.7830185777e-001	 5.8262071368e-001
 4.3408531727e+000	 7.1902276235e-001	 5.6841192889e-001
 4.3339011579e+000	 7.5980310196e-001	 5.4967375559e-001
 4.3265436210e+000	 8.0063743062e-001	 5.2649138657e-001
 4.4071004706e+000	 3.9760588772e-001	 6.4258102478e-001
 4.4032699976e+000	 4.3799352542e-001	 6.3015807405e-001
 4.3990549978e+000	 4.7847688206e-001	 6.1895591042e-001
 4.3944522946e+000	 5.1905108674e-001	 6.0921532107e-001
 4.3894587817e+000	 5.5971117877e-001	 6.0119321161e-001
 4.3840714257e+000	 6.0045210862e-001	 5.9516269996e-001
 4.3782872684e+000	 6.4126873894e-001	 5.9535205853e-001
 4.3721034300e+000	 6.8215584560e-001	 5.9293651024e-001
 4.3655171112e+000	 7.2310811896e-001	 5.7769524591e-001
 4.3585255963e+000	 7.6412016504e-001	 5.5747363779e-001
 4.3511262553e+000	 8.0518650693e-001	 5.3235547491e-001
 4.4319993433e+000	 3.9985224867e-001	 5.9102189924e-001
 4.4281472292e+000	 4.4046806511e-001	 5.8050490963e-001
 4.4239084158e+000	 4.8118014128e-001	 5.7068288739e-001
 4.4192797087e+000	 5.2198357876e-001	 5.6179537646e-001
 4.4142579839e+000	 5.6287338882e-001	 5.5409867904e-001
 4.4088401908e+000	 6.0384449342e-001	 5.4786596369e-001
 4.4030233546e+000	 6.4489172617e-001	 5.4766027856e-001
 4.3968045793e+000	 6.8600983343e-001	 5.4986860856e-001
 4.3901810497e+000	 7.2719347556e-001	 5.4866096176e-001
 4.3831500347e+000	 7.6843722812e-001	 5.4418208193e-001
 4.3757088895e+000	 8.0973558324e-001	 5.3657366772e-001
 4.4568982160e+000	 4.0209860962e-001	 5.3950663225e-001
 4.4530244608e+000	 4.4294260481e-001	 5.3082467209e-001
 4.4487618339e+000	 4.8388340051e-001	 5.2231385922e-001
 4.4441071228e+000	 5.2491607077e-001	 5.1421257938e-001
 4.4390571860e+000	 5.6603559887e-001	 5.0677661915e-001
 4.4336089559e+000	 6.0723687822e-001	 5.0027928823e-001
 4.4277594409e+000	 6.4851471339e-001	 4.9945741406e-001
 4.4215057286e+000	 6.8986382126e-001	 4.9922279861e-001
 4.4148449882e+000	 7.3127883217e-001	 4.9520012733e-001
 4.4077744731e+000	 7.7275429120e-001	 4.8753167889e-001
 4.4002915237e+000	 8.1428465955e-001	 4.7635689061e-001
 4.4817970888e+000	 4.0434497057e-001	 4.8802189615e-001
 4.4779016925e+000	 4.4541714450e-001	 4.8110370008e-001
 4.4736152520e+000	 4.8658665973e-001	 4.7383471839e-001
 4.4689345369e+000	 5.2784856279e-001	 4.6645226288e-001
 4.4638563882e+000	 5.6919780892e-001	 4.5921169168e-001
 4.4583777210e+000	 6.1062926301e-001	 4.5238654557e-001
 4.4524955272e+000	 6.5213770062e-001	 4.5074342162e-001
 4.4462068779e+000	 6.9371780909e-001	 4.4808019661e-001
 4.4395089267e+000	 7.3536418877e-001	 4.4126370317e-001
 4.4323989115e+000	 7.7707135428e-001	 4.3043375827e-001
 4.4248741579e+000	 8.1883373586e-001	 4.1572753598e-001
 4.1790478158e+000	 7.7334297274e-001	 4.9755803300e-001
 4.1715469658e+000	 8.1283203195e-001	 4.8326564252e-001
 4.1636496242e+000	 8.5236248567e-001	 4.6840413686e-001
 4.1553535275e+000	 8.9192884318e-001	 4.5308540553e-001
 4.1466565047e+000	 9.3152554013e-001	 4.3741909848e-001
 4.1375564794e+000	 9.7114694021e-001	 4.2151247217e-001
 4.1280514725e+000	 1.0107873370e+000	 4.0547023846e-001
 4.1181396041e+000	 1.0504409556e+000	 3.8939441669e-001
 4.1078190963e+000	 1.0901019551e+000	 3.7338418924e-001
 4.0970882749e+000	 1.1297644301e+000	 3.5753576107e-001
 4.0859455723e+000	 1.1694224131e+000	 3.4194222333e-001
 4.2036304500e+000	 7.7789204906e-001	 5.0157165407e-001
 4.1960854774e+000	 8.1761339685e-001	 4.8537435777e-001
 4.1881416808e+000	 8.5737638264e-001	 4.6876184343e-001
 4.1797967836e+000	 8.9717548344e-001	 4.5184588105e-001
 4.1710486018e+000	 9.3700510214e-001	 4.3473581159e-001
 4.1618950470e+000	 9.7685956928e-001	 4.1753839013e-001
 4.1523341282e+000	 1.0167331448e+000	 4.0035763200e-001
 4.1423639547e+000	 1.0566200201e+000	 3.8329466237e-001
 4.1319827380e+000	 1.0965143196e+000	 3.6644756962e-001
 4.1211887942e+000	 1.1364101032e+000	 3.4991126286e-001
 4.1099805463e+000	 1.1763013684e+000	 3.3377733388e-001
 4.2282130842e+000	 7.8244112537e-001	 5.0592643504e-001
 4.2206239889e+000	 8.2239476175e-001	 4.8774750343e-001
 4.2126337374e+000	 8.6239027962e-001	 4.6930617529e-001
 4.2042400396e+000	 9.0242212370e-001	 4.5071411267e-001
 4.1954406989e+000	 9.4248466414e-001	 4.3208035936e-001
 4.1862336145e+000	 9.8257219834e-001	 4.1351118099e-001
 4.1766167839e+000	 1.0226789527e+000	 3.9510990856e-001
 4.1665883053e+000	 1.0627990845e+000	 3.7697678547e-001
 4.1561463797e+000	 1.1029266840e+000	 3.5920881870e-001
 4.1452893135e+000	 1.1430557764e+000	 3.4189963432e-001
 4.1340155202e+000	 1.1831803238e+000	 3.2513933775e-001
 4.2527957184e+000	 7.8699020168e-001	 5.1060883861e-001
 4.2451625005e+000	 8.2717612664e-001	 4.9037254290e-001
 4.2371257940e+000	 8.6740417660e-001	 4.7002563092e-001
 4.2286832957e+000	 9.0766876395e-001	 4.4967966810e-001
 4.2198327960e+000	 9.4796422615e-001	 4.2944341258e-001
 4.2105721820e+000	 9.8828482740e-001	 4.0942265232e-001
 4.2008994397e+000	 1.0286247606e+000	 3.8972004584e-001
 4.1908126559e+000	 1.0689781490e+000	 3.7043496689e-001
 4.1803100215e+000	 1.1093390485e+000	 3.5166335329e-001
 4.1693898327e+000	 1.1497014495e+000	 3.3349756050e-001
 4.1580504942e+000	 1.1900592792e+000	 3.1602622023e-001
 4.2773783526e+000	 7.9153927800e-001	 5.1560566293e-001
 4.2697010121e+000	 8.3195749154e-001	 4.9323725474e-001
 4.2616178507e+000	 8.7241807358e-001	 4.7090900292e-001
 4.2531265517e+000	 9.1291540421e-001	 4.4873238751e-001
 4.2442248931e+000	 9.5344378815e-001	 4.2681589227e-001
 4.2349107496e+000	 9.9399745647e-001	 4.0526483893e-001
 4.2251820954e+000	 1.0345705684e+000	 3.8418122522e-001
 4.2150370066e+000	 1.0751572134e+000	 3.6366356697e-001
 4.2044736632e+000	 1.1157514129e+000	 3.4380674478e-001
 4.1934903520e+000	 1.1563471226e+000	 3.2470185561e-001
 4.1820854681e+000	 1.1969382346e+000	 3.0643606963e-001
 4.3019609868e+000	 7.9608835431e-001	 5.2090403203e-001
 4.2942395236e+000	 8.3673885643e-001	 4.9632972359e-001
 4.2861099073e+000	 8.7743197055e-001	 4.7194536966e-001
 4.2775698078e+000	 9.1816204446e-001	 4.4786237578e-001
 4.2686169902e+000	 9.5892335015e-001	 4.2418896245e-001
 4.2592493171e+000	 9.9971008553e-001	 4.0102999641e-001
 4.2494647511e+000	 1.0405163763e+000	 3.7848682591e-001
 4.2392613572e+000	 1.0813362778e+000	 3.5665712036e-001
 4.2286373050e+000	 1.1221637773e+000	 3.3563471475e-001
 4.2175908713e+000	 1.1629927957e+000	 3.1550945925e-001
 4.2061204421e+000	 1.2038171899e+000	 2.9636707438e-001
 4.3265436210e+000	 8.0063743062e-001	 5.2649138657e-001
 4.3187780352e+000	 8.4152022133e-001	 4.9963833156e-001
 4.3106019639e+000	 8.8244586753e-001	 4.7312408709e-001
 4.3020130638e+000	 9.2340868472e-001	 4.4705999498e-001
 4.2930090873e+000	 9.6440291215e-001	 4.2155402331e-001
 4.2835878846e+000	 1.0054227146e+000	 3.9671059482e-001
 4.2737474068e+000	 1.0464621842e+000	 3.7263041937e-001
 4.2634857078e+000	 1.0875153423e+000	 3.4941033112e-001
 4.2528009467e+000	 1.1285761418e+000	 3.2714313072e-001
 4.2416913905e+000	 1.1696384688e+000	 3.0591743294e-001
 4.2301554161e+000	 1.2106961453e+000	 2.8581752012e-001
 4.3511262553e+000	 8.0518650693e-001	 5.3235547491e-001
 4.3433165468e+000	 8.4630158622e-001	 5.0315174978e-001
 4.3350940205e+000	 8.8745976450e-001	 4.7443478095e-001
 4.3264563199e+000	 9.2865532497e-001	 4.4631585708e-001
 4.3174011843e+000	 9.6988247415e-001	 4.1890270450e-001
 4.3079264521e+000	 1.0111353436e+000	 3.9229931266e-001
 4.2980300625e+000	 1.0524079920e+000	 3.6660576384e-001
 4.2877100584e+000	 1.0936944067e+000	 3.4191806784e-001
 4.2769645885e+000	 1.1349885062e+000	 3.1832800196e-001
 4.2657919098e+000	 1.1762841420e+000	 2.9592295660e-001
 4.2541903900e+000	 1.2175751007e+000	 2.7478578703e-001
 4.3757088895e+000	 8.0973558324e-001	 5.3657366772e-001
 4.3678550583e+000	 8.5108295112e-001	 5.0685893027e-001
 4.3595860771e+000	 8.9247366148e-001	 4.7586733917e-001
 4.3508995759e+000	 9.3390196523e-001	 4.4562081696e-001
 4.3417932814e+000	 9.7536203615e-001	 4.1622685869e-001
 4.3322650197e+000	 1.0168479727e+000	 3.8778903099e-001
 4.3223127183e+000	 1.0583537999e+000	 3.6040679912e-001
 4.3119344090e+000	 1.0998734712e+000	 3.3417535913e-001
 4.3011282302e+000	 1.1414008707e+000	 3.0918547560e-001
 4.2898924291e+000	 1.1829298151e+000	 2.8552332526e-001
 4.2782253640e+000	 1.2244540561e+000	 2.6327034710e-001
 4.4002915237e+000	 8.1428465955e-001	 4.7635689061e-001
 4.3923935699e+000	 8.5586431601e-001	 4.6234631302e-001
 4.3840781337e+000	 8.9748755845e-001	 4.5149624202e-001
 4.3753428319e+000	 9.3914860548e-001	 4.4396331350e-001
 4.3661853785e+000	 9.8084159815e-001	 4.1351855535e-001
 4.3566035872e+000	 1.0225606018e+000	 3.8317282780e-001
 4.3465953740e+000	 1.0642996077e+000	 3.5402764149e-001
 4.3361587596e+000	 1.1060525356e+000	 3.2617738906e-001
 4.3252918719e+000	 1.1478132351e+000	 2.9971183270e-001
 4.3139929483e+000	 1.1895754882e+000	 2.7471594586e-001
 4.3022603379e+000	 1.2313330114e+000	 2.5126976161e-001
 4.4248741579e+000	 8.1883373586e-001	 4.1572753598e-001
 4.4169320814e+000	 8.6064568090e-001	 3.9758554377e-001
 4.4085701903e+000	 9.0250145542e-001	 3.8281155147e-001
 4.3997860880e+000	 9.4439524573e-001	 3.7156084854e-001
 4.3905774756e+000	 9.8632116015e-001	 3.6398023625e-001
 4.3809421547e+000	 1.0282732308e+000	 3.6020789264e-001
 4.3708780297e+000	 1.0702454156e+000	 3.4746257881e-001
 4.3603831102e+000	 1.1122316001e+000	 3.1791949288e-001
 4.3494555137e+000	 1.1542255995e+000	 2.8990348458e-001
 4.3380934676e+000	 1.1962211613e+000	 2.6349833411e-001
 4.3262953119e+000	 1.2382119668e+000	 2.3878267865e-001
 4.0859455723e+000	 1.1694224131e+000	 3.4194222333e-001
 4.0743895290e+000	 1.2090698765e+000	 3.3847299463e-001
 4.0624187960e+000	 1.2487007353e+000	 3.3161803467e-001
 4.0500321369e+000	 1.2883088488e+000	 3.0733521416e-001
 4.0372284301e+000	 1.3278880237e+000	 2.8048097615e-001
 4.0240066701e+000	 1.3674320163e+000	 2.5194551212e-001
 4.0103659702e+000	 1.4069345349e+000	 2.2214386034e-001
 3.9963055637e+000	 1.4463892427e+000	 1.9151029128e-001
 3.9818248061e+000	 1.4857897608e+000	 1.6049801838e-001
 3.9669231766e+000	 1.5251296703e+000	 1.2957886325e-001
 3.9516002795e+000	 1.5644025157e+000	 9.9242874813e-002
 4.1099805463e+000	 1.1763013684e+000	 3.3377733388e-001
 4.0983565262e+000	 1.2161820523e+000	 3.3082377665e-001
 4.0863153771e+000	 1.2560460337e+000	 3.2262970016e-001
 4.0738558554e+000	 1.2958871362e+000	 2.9937224536e-001
 4.0609768326e+000	 1.3356991298e+000	 2.7426639571e-001
 4.0476772976e+000	 1.3754757340e+000	 2.4770531996e-001
 4.0339563582e+000	 1.4152106204e+000	 2.2010163138e-001
 4.0198132435e+000	 1.4548974148e+000	 1.9188714333e-001
 4.0052473050e+000	 1.4945297006e+000	 1.6351257931e-001
 3.9902580188e+000	 1.5341010213e+000	 1.3544723722e-001
 3.9748449870e+000	 1.5736048834e+000	 1.0817860729e-001
 4.1340155202e+000	 1.1831803238e+000	 3.2513933775e-001
 4.1223235234e+000	 1.2232942280e+000	 3.2247835530e-001
 4.1102119583e+000	 1.2633913321e+000	 3.1234283479e-001
 4.0976795738e+000	 1.3034654235e+000	 2.9034685580e-001
 4.0847252351e+000	 1.3435102358e+000	 2.6672275441e-001
 4.0713479250e+000	 1.3835194518e+000	 2.4186143660e-001
 4.0575467463e+000	 1.4234867059e+000	 2.1617323062e-001
 4.0433209233e+000	 1.4634055868e+000	 1.9008764214e-001
 4.0286698039e+000	 1.5032696403e+000	 1.6405306356e-001
 4.0135928610e+000	 1.5430723723e+000	 1.3853643725e-001
 3.9980896946e+000	 1.5828072511e+000	 1.1402287222e-001
 4.1580504942e+000	 1.1900592792e+000	 3.1602622023e-001
 4.1462905207e+000	 1.2304064038e+000	 3.1343840872e-001
 4.1341085394e+000	 1.2707366306e+000	 3.0126038067e-001
 4.1215032923e+000	 1.3110437108e+000	 2.8027069442e-001
 4.1084736377e+000	 1.3513213418e+000	 2.5786508704e-001
 4.0950185525e+000	 1.3915631695e+000	 2.3443233151e-001
 4.0811371344e+000	 1.4317627914e+000	 2.1038061034e-001
 4.0668286031e+000	 1.4719137588e+000	 1.8613727014e-001
 4.0520923027e+000	 1.5120095801e+000	 1.6214853025e-001
 4.0369277032e+000	 1.5520437233e+000	 1.3887914491e-001
 4.0213344021e+000	 1.5920096189e+000	 1.1681201854e-001
 4.1820854681e+000	 1.1969382346e+000	 3.0643606963e-001
 4.1702575179e+000	 1.2375185795e+000	 3.0370563712e-001
 4.1580051206e+000	 1.2780819290e+000	 2.8939058967e-001
 4.1453270108e+000	 1.3186219982e+000	 2.6915526452e-001
 4.1322220402e+000	 1.3591324478e+000	 2.4770819606e-001
 4.1186891800e+000	 1.3996068873e+000	 2.2543615334e-001
 4.1047275224e+000	 1.4400388769e+000	 2.0274531163e-001
 4.0903362829e+000	 1.4804219308e+000	 1.8006100642e-001
 4.0755148016e+000	 1.5207495199e+000	 1.5782744129e-001
 4.0602625455e+000	 1.5610150743e+000	 1.3650734894e-001
 4.0445791096e+000	 1.6012119866e+000	 1.1658160507e-001
 4.2061204421e+000	 1.2038171899e+000	 2.9636707438e-001
 4.1942245151e+000	 1.2446307552e+000	 2.9328176212e-001
 4.1819017017e+000	 1.2854272275e+000	 2.7674165451e-001
 4.1691507292e+000	 1.3262002855e+000	 2.5701192794e-001
 4.1559704427e+000	 1.3669435539e+000	 2.3626665825e-001
 4.1423598075e+000	 1.4076506050e+000	 2.1489073906e-001
 4.1283179105e+000	 1.4483149624e+000	 1.9328847617e-001
 4.1138439627e+000	 1.4889301028e+000	 1.7188334118e-001
 4.0989373005e+000	 1.5294894596e+000	 1.5111767845e-001
 4.0835973877e+000	 1.5699864253e+000	 1.3145236502e-001
 4.0678238172e+000	 1.6104143544e+000	 1.1336642298e-001
 4.2301554161e+000	 1.2106961453e+000	 2.8581752012e-001
 4.2181915124e+000	 1.2517429310e+000	 2.8160071808e-001
 4.2057982829e+000	 1.2927725259e+000	 2.6332171052e-001
 4.1929744477e+000	 1.3337785729e+000	 2.4385190900e-001
 4.1797188453e+000	 1.3747546599e+000	 2.2355483113e-001
 4.1660304349e+000	 1.4156943227e+000	 2.0281362280e-001
 4.1519082985e+000	 1.4565910479e+000	 1.8203085754e-001
 4.1373516424e+000	 1.4974382748e+000	 1.6162828954e-001
 4.1223597993e+000	 1.5382293994e+000	 1.4204655984e-001
 4.1069322299e+000	 1.5789577763e+000	 1.2374485492e-001
 4.0910685247e+000	 1.6196167221e+000	 1.0720051767e-001
 4.2541903900e+000	 1.2175751007e+000	 2.7478578703e-001
 4.2421585096e+000	 1.2588551067e+000	 2.6758260325e-001
 4.2296948641e+000	 1.3001178244e+000	 2.4913883718e-001
 4.2167981661e+000	 1.3413568602e+000	 2.2968629848e-001
 4.2034672478e+000	 1.3825657659e+000	 2.0958685915e-001
 4.1897010624e+000	 1.4237380405e+000	 1.8922204448e-001
 4.1754986866e+000	 1.4648671334e+000	 1.6899283221e-001
 4.1608593222e+000	 1.5059464469e+000	 1.4931940504e-001
 4.1457822982e+000	 1.5469693392e+000	 1.3064085580e-001
 4.1302670721e+000	 1.5879291273e+000	 1.1341484496e-001
 4.1143132322e+000	 1.6288190898e+000	 9.8117209841e-002
 4.2782253640e+000	 1.2244540561e+000	 2.6327034710e-001
 4.2661255068e+000	 1.2659672825e+000	 2.5304134343e-001
 4.2535914452e+000	 1.3074631228e+000	 2.3420105976e-001
 4.2406218846e+000	 1.3489351476e+000	 2.1452605732e-001
 4.2272156503e+000	 1.3903768719e+000	 1.9437667965e-001
 4.2133716899e+000	 1.4317817582e+000	 1.7413295797e-001
 4.1990890747e+000	 1.4731432189e+000	 1.5419441014e-001
 4.1843670020e+000	 1.5144546189e+000	 1.3497979253e-001
 4.1692047970e+000	 1.5557092789e+000	 1.1692680437e-001
 4.1536019143e+000	 1.5969004783e+000	 1.0049174387e-001
 4.1375579397e+000	 1.6380214576e+000	 8.6149115797e-002
 4.3022603379e+000	 1.2313330114e+000	 2.5126976161e-001
 4.2900925040e+000	 1.2730794582e+000	 2.3798208867e-001
 4.2774880264e+000	 1.3148084213e+000	 2.1851635079e-001
 4.2644456030e+000	 1.3565134349e+000	 1.9838202024e-001
 4.2509640528e+000	 1.3981879779e+000	 1.7793802868e-001
 4.2370423173e+000	 1.4398254760e+000	 1.5756303919e-001
 4.2226794627e+000	 1.4814193044e+000	 1.3765524498e-001
 4.2078746818e+000	 1.5229627909e+000	 1.1863212077e-001
 4.1926272959e+000	 1.5644492187e+000	 1.0093012606e-001
 4.1769367565e+000	 1.6058718293e+000	 8.5004359996e-002
 4.1608026473e+000	 1.6472238253e+000	 7.1328167168e-002
 4.3262953119e+000	 1.2382119668e+000	 2.3878267865e-001
 4.3140595013e+000	 1.2801916340e+000	 2.2241000755e-001
 4.3013846075e+000	 1.3221537197e+000	 2.0209263153e-001
 4.2882693215e+000	 1.3640917223e+000	 1.8126489928e-001
 4.2747124554e+000	 1.4059990840e+000	 1.6028444658e-001
 4.2607129448e+000	 1.4478691937e+000	 1.3952869372e-001
 4.2462698508e+000	 1.4896953899e+000	 1.1939464401e-001
 4.2313823616e+000	 1.5314709629e+000	 1.0029863450e-001
 4.2160497947e+000	 1.5731891585e+000	 8.2676038303e-002
 4.2002715988e+000	 1.6148431803e+000	 6.6980918053e-002
 4.1840473548e+000	 1.6564261930e+000	 5.3685629910e-002
 3.9516002795e+000	 1.5644025157e+000	 9.9242874813e-002
 3.9358558462e+000	 1.6036018077e+000	 5.7631231809e-002
 3.9196897364e+000	 1.6427210263e+000	 2.0106934457e-002
 3.9031019395e+000	 1.6817536235e+000	-1.2842433435e-002
 3.8860925758e+000	 1.7206930268e+000	-4.0716032945e-002
 3.8686618980e+000	 1.7595326423e+000	-6.3000361087e-002
 3.8508102920e+000	 1.7982658577e+000	-7.9169883233e-002
 3.8325382783e+000	 1.8368860459e+000	-8.8687706339e-002
 3.8138465125e+000	 1.8753865680e+000	-9.1193764382e-002
 3.7947357865e+000	 1.9137607768e+000	-1.0605151714e-001
 3.7752070290e+000	 1.9520020205e+000	-1.1628265783e-001
 3.9748449870e+000	 1.5736048834e+000	 1.0817860729e-001
 3.9590079395e+000	 1.6130347595e+000	 6.8385982984e-002
 3.9427467349e+000	 1.6523840911e+000	 3.2176683451e-002
 3.9260613627e+000	 1.6916462918e+000	 5.7183130702e-005
 3.9089519439e+000	 1.7308147505e+000	-2.7451932423e-002
 3.8914187326e+000	 1.7698828343e+000	-4.9816571606e-002
 3.8734621172e+000	 1.8088438922e+000	-6.6489784780e-002
 3.8550826211e+000	 1.8476912579e+000	-7.6912454676e-002
 3.8362809037e+000	 1.8864182537e+000	-8.5861848514e-002
 3.8170577617e+000	 1.9250181932e+000	-1.0219564542e-001
 3.7974141292e+000	 1.9634843853e+000	-1.1414232474e-001
 3.9980896946e+000	 1.5828072511e+000	 1.1402287222e-001
 3.9821600327e+000	 1.6224677113e+000	 7.6223670010e-002
 3.9658037333e+000	 1.6620471560e+000	 4.1506295558e-002
 3.9490207858e+000	 1.7015389602e+000	 1.0396146321e-002
 3.9318113120e+000	 1.7409364742e+000	-1.6566411498e-002
 3.9141755673e+000	 1.7802330263e+000	-3.8826662109e-002
 3.8961139425e+000	 1.8194219267e+000	-5.5816203824e-002
 3.8776269639e+000	 1.8584964700e+000	-6.6953656726e-002
 3.8587152950e+000	 1.8974499394e+000	-8.1765454859e-002
 3.8393797369e+000	 1.9362756095e+000	-9.9279119620e-002
 3.8196212294e+000	 1.9749667502e+000	-1.1263978824e-001
 4.0213344021e+000	 1.5920096189e+000	 1.1681201854e-001
 4.0053121259e+000	 1.6319006631e+000	 8.1175791946e-002
 3.9888607318e+000	 1.6717102208e+000	 4.8122301245e-002
 3.9719802090e+000	 1.7114316286e+000	 1.8195901438e-002
 3.9546706801e+000	 1.7510581979e+000	-8.0432243818e-003
 3.9369324020e+000	 1.7905832183e+000	-3.0019698337e-002
 3.9187657677e+000	 1.8299999611e+000	-4.7143627217e-002
 3.9001713067e+000	 1.8693016820e+000	-5.8811327491e-002
 3.8811496862e+000	 1.9084816251e+000	-7.8878254275e-002
 3.8617017121e+000	 1.9475330258e+000	-9.7279647563e-002
 3.8418283295e+000	 1.9864491150e+000	-1.1175687033e-001
 4.0445791096e+000	 1.6012119866e+000	 1.1658160507e-001
 4.0284642191e+000	 1.6413336149e+000	 8.3273155485e-002
 4.0119177302e+000	 1.6813732857e+000	 5.2050638512e-002
 3.9949396322e+000	 1.7213242970e+000	 2.3477403271e-002
 3.9775300482e+000	 1.7611799216e+000	-1.8665118228e-003
 3.9596892367e+000	 1.8009334104e+000	-2.3385026613e-002
 3.9414175930e+000	 1.8405779956e+000	-4.0466714486e-002
 3.9227156495e+000	 1.8801068940e+000	-5.4450491369e-002
 3.9035840775e+000	 1.9195133107e+000	-7.7173868794e-002
 3.8840236873e+000	 1.9587904422e+000	-9.6174774756e-002
 3.8640354297e+000	 1.9979314798e+000	-1.1147511540e-001
 4.0678238172e+000	 1.6104143544e+000	 1.1336642298e-001
 4.0516163123e+000	 1.6507665667e+000	 8.2545894744e-002
 4.0349747287e+000	 1.6910363506e+000	 5.3316669825e-002
 4.0178990554e+000	 1.7312169653e+000	 2.6261130115e-002
 4.0003894163e+000	 1.7713016452e+000	 1.9792099362e-003
 3.9824460714e+000	 1.8112836024e+000	-1.8912265819e-002
 3.9640694182e+000	 1.8511560300e+000	-3.5780292899e-002
 3.9452599923e+000	 1.8909121061e+000	-5.3814208627e-002
 3.9260184687e+000	 1.9305449964e+000	-7.6625873024e-002
 3.9063456625e+000	 1.9700478585e+000	-9.5941889012e-002
 3.8862425299e+000	 2.0094138446e+000	-1.1177579816e-001
 4.0910685247e+000	 1.6196167221e+000	 1.0720051767e-001
 4.0747684055e+000	 1.6601995186e+000	 7.9023490362e-002
 4.0580317271e+000	 1.7006994154e+000	 5.1945198462e-002
 4.0408584785e+000	 1.7411096337e+000	 2.6567097303e-002
 4.0232487843e+000	 1.7814233689e+000	 3.5090598268e-003
 4.0052029061e+000	 1.8216337944e+000	-1.6591299659e-002
 3.9867212435e+000	 1.8617340645e+000	-3.3079352695e-002
 3.9678043352e+000	 1.9017173181e+000	-5.4583264592e-002
 3.9484528600e+000	 1.9415766821e+000	-7.7207795494e-002
 3.9286676378e+000	 1.9813052748e+000	-9.6558224933e-002
 3.9084496300e+000	 2.0208962095e+000	-1.1263993130e-001
 4.1143132322e+000	 1.6288190898e+000	 9.8117209841e-002
 4.0979204987e+000	 1.6696324704e+000	 7.2734787970e-002
 4.0810887256e+000	 1.7103624803e+000	 4.7960484313e-002
 4.0638179017e+000	 1.7510023021e+000	 2.4414870289e-002
 4.0461081524e+000	 1.7915450926e+000	 2.7378022608e-003
 4.0279597408e+000	 1.8319839864e+000	-1.6412269174e-002
 4.0093730687e+000	 1.8723120989e+000	-3.2359042487e-002
 3.9903486780e+000	 1.9125225301e+000	-5.6727612176e-002
 3.9708872512e+000	 1.9526083678e+000	-7.8893119953e-002
 3.9509896130e+000	 1.9925626912e+000	-9.8000868241e-002
 3.9306567302e+000	 2.0323785743e+000	-1.1404827286e-001
 4.1375579397e+000	 1.6380214576e+000	 8.6149115797e-002
 4.1210725920e+000	 1.6790654222e+000	 6.3708016019e-002
 4.1041457241e+000	 1.7200255451e+000	 4.1386259140e-002
 4.0867773249e+000	 1.7608949704e+000	 1.9823577281e-002
 4.0689675205e+000	 1.8016668163e+000	-3.2014291199e-004
 4.0507165755e+000	 1.8423341784e+000	-1.8365565514e-002
 4.0320248940e+000	 1.8828901334e+000	-3.5950824821e-002
 4.0128930208e+000	 1.9233277422e+000	-6.0217260321e-002
 3.9933216425e+000	 1.9636400535e+000	-8.1655286632e-002
 3.9733115882e+000	 2.0038201075e+000	-1.0024675995e-001
 3.9528638304e+000	 2.0438609391e+000	-1.1598133344e-001
 4.1608026473e+000	 1.6472238253e+000	 7.1328167168e-002
 4.1442246852e+000	 1.6884983740e+000	 5.1970803025e-002
 4.1272027225e+000	 1.7296886100e+000	 3.2245741332e-002
 4.1097367481e+000	 1.7707876388e+000	 1.2811921455e-002
 4.0918268886e+000	 1.8117885400e+000	-5.6506907784e-003
 4.0734734102e+000	 1.8526843704e+000	-2.2441822953e-002
 4.0546767192e+000	 1.8934681678e+000	-4.1961897711e-002
 4.0354373636e+000	 1.9341329542e+000	-6.5022272438e-002
 4.0157560337e+000	 1.9746717392e+000	-8.5467693457e-002
 3.9956335634e+000	 2.0150775238e+000	-1.0327270043e-001
 3.9750709306e+000	 2.0553433039e+000	-1.1841938308e-001
 4.1840473548e+000	 1.6564261930e+000	 5.3685629910e-002
 4.1673767784e+000	 1.6979313258e+000	 3.7550194234e-002
 4.1502597210e+000	 1.7393516748e+000	 2.0561650164e-002
 4.1326961712e+000	 1.7806803072e+000	 3.3981927659e-003
 4.1146862567e+000	 1.8219102636e+000	-1.3240082059e-002
 4.0962302449e+000	 1.8630345624e+000	-2.8631912136e-002
 4.0773285445e+000	 1.9040462023e+000	-4.9515139900e-002
 4.0579817064e+000	 1.9449381662e+000	-7.1112764892e-002
 4.0381904250e+000	 1.9857034249e+000	-9.0303697224e-002
 4.0179555386e+000	 2.0263349401e+000	-1.0705535329e-001
 3.9972780307e+000	 2.0668256687e+000	-1.2134245793e-001
 3.7752070290e+000	 1.9520020205e+000	-1.1628265783e-001
 3.7552613065e+000	 1.9901036456e+000	-1.2403021082e-001
 3.7348998232e+000	 2.0280590008e+000	-1.4819248516e-001
 3.7141239222e+000	 2.0658614403e+000	-1.7983484428e-001
 3.6929350853e+000	 2.1035043275e+000	-2.1255265091e-001
 3.6713349334e+000	 2.1409810384e+000	-2.4601483531e-001
 3.6493252266e+000	 2.1782849654e+000	-2.7987724202e-001
 3.6269078643e+000	 2.2154095206e+000	-3.1378309634e-001
 3.6040848849e+000	 2.2523481398e+000	-3.4736350804e-001
 3.5808584657e+000	 2.2890942857e+000	-3.8023801180e-001
 3.5572309227e+000	 2.3256414519e+000	-4.1201514348e-001
 3.7974141292e+000	 1.9634843853e+000	-1.1414232474e-001
 3.7773510788e+000	 2.0018101376e+000	-1.2508966353e-001
 3.7568698222e+000	 2.0399887596e+000	-1.3361068864e-001
 3.7359717100e+000	 2.0780135664e+000	-1.5838669775e-001
 3.7146582329e+000	 2.1158778823e+000	-1.9284843356e-001
 3.6929310213e+000	 2.1535750445e+000	-2.2806939541e-001
 3.6707918456e+000	 2.1910984063e+000	-2.6369386789e-001
 3.6482426164e+000	 2.2284413413e+000	-2.9935322012e-001
 3.6252853842e+000	 2.2655972465e+000	-3.3466642344e-001
 3.6019223390e+000	 2.3025595462e+000	-3.6924060652e-001
 3.5781558105e+000	 2.3393216957e+000	-4.0267164715e-001
 3.8196212294e+000	 1.9749667502e+000	-1.1263978824e-001
 3.7994408512e+000	 2.0135166297e+000	-1.2670396206e-001
 3.7788398211e+000	 2.0519185184e+000	-1.3819116882e-001
 3.7578194978e+000	 2.0901656925e+000	-1.4726612950e-001
 3.7363813804e+000	 2.1282514372e+000	-1.7303811209e-001
 3.7145271091e+000	 2.1661690506e+000	-2.0999241758e-001
 3.6922584646e+000	 2.2039118473e+000	-2.4735692432e-001
 3.6695773686e+000	 2.2414731620e+000	-2.8475107642e-001
 3.6464858835e+000	 2.2788463532e+000	-3.2178163247e-001
 3.6229862123e+000	 2.3160248067e+000	-3.5804323555e-001
 3.5990806982e+000	 2.3530019396e+000	-3.9311902053e-001
 3.8418283295e+000	 1.9864491150e+000	-1.1175687033e-001
 3.8215306236e+000	 2.0252231217e+000	-1.2885523856e-001
 3.8008098201e+000	 2.0638482773e+000	-1.4322575531e-001
 3.7796672856e+000	 2.1023178186e+000	-1.5503413071e-001
 3.7581045280e+000	 2.1406249920e+000	-1.6445402930e-001
 3.7361231969e+000	 2.1787630567e+000	-1.9177294587e-001
 3.7137250836e+000	 2.2167252883e+000	-2.3085697893e-001
 3.6909121207e+000	 2.2545049827e+000	-2.6996877562e-001
 3.6676863828e+000	 2.2920954599e+000	-3.0870280635e-001
 3.6440500857e+000	 2.3294900672e+000	-3.4664114770e-001
 3.6200055860e+000	 2.3666821834e+000	-3.8335410552e-001
 3.8640354297e+000	 1.9979314798e+000	-1.1147511540e-001
 3.8436203960e+000	 2.0369296137e+000	-1.3152531975e-001
 3.8227798190e+000	 2.0757780361e+000	-1.4869655060e-001
 3.8015150733e+000	 2.1144699447e+000	-1.6315564332e-001
 3.7798276756e+000	 2.1529985469e+000	-1.7507754058e-001
 3.7577192848e+000	 2.1913570628e+000	-1.8464481825e-001
 3.7351917025e+000	 2.2295387292e+000	-2.1418415791e-001
 3.7122468729e+000	 2.2675368034e+000	-2.5499796027e-001
 3.6888868821e+000	 2.3053445666e+000	-2.9542312224e-001
 3.6651139590e+000	 2.3429553277e+000	-3.3502907181e-001
 3.6409304738e+000	 2.3803624272e+000	-3.7337319844e-001
 3.8862425299e+000	 2.0094138446e+000	-1.1177579816e-001
 3.8657101684e+000	 2.0486361058e+000	-1.3469573561e-001
 3.8447498180e+000	 2.0877077949e+000	-1.5458533366e-001
 3.8233628611e+000	 2.1266220709e+000	-1.7161268935e-001
 3.8015508231e+000	 2.1653721018e+000	-1.8595416127e-001
 3.7793153726e+000	 2.2039510689e+000	-1.9779388850e-001
 3.7566583215e+000	 2.2423521702e+000	-2.0732328978e-001
 3.7335816250e+000	 2.2805686241e+000	-2.3982981839e-001
 3.7100873815e+000	 2.3185936733e+000	-2.8193527732e-001
 3.6861778323e+000	 2.3564205882e+000	-3.2320123161e-001
 3.6618553616e+000	 2.3940426711e+000	-3.6317206560e-001
 3.9084496300e+000	 2.0208962095e+000	-1.1263993130e-001
 3.8877999408e+000	 2.0603425978e+000	-1.3834772787e-001
 3.8667198170e+000	 2.0996375537e+000	-1.6087356909e-001
 3.8452106489e+000	 2.1387741970e+000	-1.8038695057e-001
 3.8232739707e+000	 2.1777456566e+000	-1.9706578503e-001
 3.8009114605e+000	 2.2165450750e+000	-2.1109591413e-001
 3.7781249405e+000	 2.2551656112e+000	-2.2267060013e-001
 3.7549163771e+000	 2.2936004448e+000	-2.3198999865e-001
 3.7312878808e+000	 2.3318427800e+000	-2.6823150251e-001
 3.7072417056e+000	 2.3698858487e+000	-3.1115136004e-001
 3.6827802494e+000	 2.4077229149e+000	-3.5274595840e-001
 3.9306567302e+000	 2.0323785743e+000	-1.1404827286e-001
 3.9098897132e+000	 2.0720490898e+000	-1.4246225808e-001
 3.8886898159e+000	 2.1115673126e+000	-1.6754241598e-001
 3.8670584367e+000	 2.1509263231e+000	-1.8945977810e-001
 3.8449971182e+000	 2.1901192115e+000	-2.0839394997e-001
 3.8225075483e+000	 2.2291390811e+000	-2.2453261560e-001
 3.7995915595e+000	 2.2679790521e+000	-2.3807102151e-001
 3.7762511293e+000	 2.3066322655e+000	-2.4921144146e-001
 3.7524883801e+000	 2.3450918867e+000	-2.5816262332e-001
 3.7283055790e+000	 2.3833511092e+000	-2.9887271319e-001
 3.7037051371e+000	 2.4214031587e+000	-3.4208962787e-001
 3.9528638304e+000	 2.0438609391e+000	-1.1598133344e-001
 3.9319794856e+000	 2.0837555818e+000	-1.4702001555e-001
 3.9106598149e+000	 2.1234970714e+000	-1.7457273654e-001
 3.8889062245e+000	 2.1630784492e+000	-1.9881220172e-001
 3.8667202658e+000	 2.2024927664e+000	-2.1991984856e-001
 3.8441036362e+000	 2.2417330872e+000	-2.3808534371e-001
 3.8210581785e+000	 2.2807924931e+000	-2.5350605912e-001
 3.7975858814e+000	 2.3196640863e+000	-2.6638652863e-001
 3.7736888794e+000	 2.3583409934e+000	-2.7693788630e-001
 3.7493694523e+000	 2.3968163697e+000	-2.8635808360e-001
 3.7246300249e+000	 2.4350834026e+000	-3.3119733867e-001
 3.9750709306e+000	 2.0553433039e+000	-1.1841938308e-001
 3.9540692580e+000	 2.0954620739e+000	-1.5200142490e-001
 3.9326298139e+000	 2.1354268302e+000	-1.8194510436e-001
 3.9107540122e+000	 2.1752305753e+000	-2.0842493882e-001
 3.8884434134e+000	 2.2148663212e+000	-2.3162433733e-001
 3.8656997240e+000	 2.2543270933e+000	-2.5173508993e-001
 3.8425247975e+000	 2.2936059341e+000	-2.6895683572e-001
 3.8189206336e+000	 2.3326959070e+000	-2.8349651099e-001
 3.7948893788e+000	 2.3715901001e+000	-2.9556777887e-001
 3.7704333256e+000	 2.4102816302e+000	-3.0539044183e-001
 3.7455549127e+000	 2.4487636464e+000	-3.2006288277e-001
 3.9972780307e+000	 2.0668256687e+000	-1.2134245793e-001
 3.9761590304e+000	 2.1071685659e+000	-1.5738665346e-001
 3.9545998128e+000	 2.1473565890e+000	-1.8963981245e-001
 3.9326018000e+000	 2.1873827014e+000	-2.1827840310e-001
 3.9101665609e+000	 2.2272398761e+000	-2.4348794619e-001
 3.8872958119e+000	 2.2669210994e+000	-2.6546249641e-001
 3.8639914164e+000	 2.3064193751e+000	-2.8440410218e-001
 3.8402553857e+000	 2.3457277277e+000	-3.0052224519e-001
 3.8160898781e+000	 2.3848392068e+000	-3.1403326105e-001
 3.7914971990e+000	 2.4237468907e+000	-3.2515974264e-001
 3.7664798005e+000	 2.4624438902e+000	-3.3412992748e-001
 3.5572309227e+000	 2.3256414519e+000	-4.1201514348e-001
 3.5332047099e+000	 2.3619831663e+000	-4.3283303987e-001
 3.5087824190e+000	 2.3981129948e+000	-4.4817149901e-001
 3.4839667785e+000	 2.4340245451e+000	-4.5743073428e-001
 3.4587606532e+000	 2.4697114697e+000	-4.6000491040e-001
 3.4331670430e+000	 2.5051674705e+000	-4.5937148604e-001
 3.4071890820e+000	 2.5403863013e+000	-4.7613534713e-001
 3.3808300376e+000	 2.5753617721e+000	-4.8714598442e-001
 3.3540933089e+000	 2.6100877523e+000	-4.9219313371e-001
 3.3269824258e+000	 2.6445581744e+000	-4.9106851609e-001
 3.2995010472e+000	 2.6787670372e+000	-4.8356607956e-001
 3.5781558105e+000	 2.3393216957e+000	-4.0267164715e-001
 3.5539882670e+000	 2.3758771849e+000	-4.2211801357e-001
 3.5294223156e+000	 2.4122195419e+000	-4.3626120426e-001
 3.5044607008e+000	 2.4483423365e+000	-4.4450314797e-001
 3.4791063041e+000	 2.4842391843e+000	-4.4623939120e-001
 3.4533621432e+000	 2.5199037497e+000	-4.5592757177e-001
 3.4272313707e+000	 2.5553297501e+000	-4.7167018240e-001
 3.4007172731e+000	 2.5905109590e+000	-4.8184765522e-001
 3.3738232696e+000	 2.6254412097e+000	-4.8625909581e-001
 3.3465529107e+000	 2.6601143990e+000	-4.8470538527e-001
 3.3189098769e+000	 2.6945244904e+000	-4.7698941127e-001
 3.5990806982e+000	 2.3530019396e+000	-3.9311902053e-001
 3.5747718241e+000	 2.3897712035e+000	-4.1146274996e-001
 3.5500622122e+000	 2.4263260889e+000	-4.2467988383e-001
 3.5249546230e+000	 2.4626601279e+000	-4.3217382913e-001
 3.4994519550e+000	 2.4987668988e+000	-4.3334127341e-001
 3.4735572435e+000	 2.5346400289e+000	-4.5261614997e-001
 3.4472736594e+000	 2.5702731989e+000	-4.6755810024e-001
 3.4206045086e+000	 2.6056601459e+000	-4.7712135493e-001
 3.3935532302e+000	 2.6407946671e+000	-4.8111427398e-001
 3.3661233956e+000	 2.6756706236e+000	-4.7934678283e-001
 3.3383187065e+000	 2.7102819435e+000	-4.7163059313e-001
 3.6200055860e+000	 2.3666821834e+000	-3.8335410552e-001
 3.5955553812e+000	 2.4036652222e+000	-4.0086092847e-001
 3.5707021087e+000	 2.4404326359e+000	-4.1341811247e-001
 3.5454485452e+000	 2.4769779194e+000	-4.2043030659e-001
 3.5197976059e+000	 2.5132946133e+000	-4.3005433319e-001
 3.4937523437e+000	 2.5493763082e+000	-4.4942286429e-001
 3.4673159481e+000	 2.5852166478e+000	-4.6378119833e-001
 3.4404917441e+000	 2.6208093328e+000	-4.7294568660e-001
 3.4132831908e+000	 2.6561481244e+000	-4.7673382968e-001
 3.3856938804e+000	 2.6912268481e+000	-4.7496448345e-001
 3.3577275362e+000	 2.7260393967e+000	-4.6745806951e-001
 3.6409304738e+000	 2.3803624272e+000	-3.7337319844e-001
 3.6163389384e+000	 2.4175592408e+000	-3.9030576733e-001
 3.5913420053e+000	 2.4545391829e+000	-4.0246608735e-001
 3.5659424674e+000	 2.4912957108e+000	-4.0925981452e-001
 3.5401432568e+000	 2.5278223278e+000	-4.2750881299e-001
 3.5139474440e+000	 2.5641125874e+000	-4.4633322711e-001
 3.4873582368e+000	 2.6001600966e+000	-4.6032152347e-001
 3.4603789796e+000	 2.6359585197e+000	-4.6929928190e-001
 3.4330131515e+000	 2.6715015818e+000	-4.7309303158e-001
 3.4052643653e+000	 2.7067830727e+000	-4.7153044657e-001
 3.3771363659e+000	 2.7417968498e+000	-4.6444054604e-001
 3.6618553616e+000	 2.3940426711e+000	-3.6317206560e-001
 3.6371224955e+000	 2.4314532594e+000	-3.7979003671e-001
 3.6119819019e+000	 2.4686457300e+000	-3.9181363890e-001
 3.5864363897e+000	 2.5056135023e+000	-4.0185133161e-001
 3.5604889077e+000	 2.5423500424e+000	-4.2484075252e-001
 3.5341425442e+000	 2.5788488667e+000	-4.4333262328e-001
 3.5074005255e+000	 2.6151035454e+000	-4.5716107309e-001
 3.4802662151e+000	 2.6511077066e+000	-4.6616080033e-001
 3.4527431121e+000	 2.6868550392e+000	-4.7016725244e-001
 3.4248348501e+000	 2.7223392972e+000	-4.6901681108e-001
 3.3965451956e+000	 2.7575543030e+000	-4.6254698214e-001
 3.6827802494e+000	 2.4077229149e+000	-3.5274595840e-001
 3.6579060526e+000	 2.4453472780e+000	-3.6930607149e-001
 3.6326217985e+000	 2.4827522770e+000	-3.8145024115e-001
 3.6069303119e+000	 2.5199312937e+000	-3.9933583973e-001
 3.5808345586e+000	 2.5568777569e+000	-4.2203877130e-001
 3.5543376445e+000	 2.5935851459e+000	-4.4040631375e-001
 3.5274428143e+000	 2.6300469942e+000	-4.5428179659e-001
 3.5001534506e+000	 2.6662568934e+000	-4.6350892841e-001
 3.4724730728e+000	 2.7022084965e+000	-4.6793196623e-001
 3.4444053350e+000	 2.7378955218e+000	-4.6739589022e-001
 3.4159540253e+000	 2.7733117562e+000	-4.6174658382e-001
 3.7037051371e+000	 2.4214031587e+000	-3.4208962787e-001
 3.6786896097e+000	 2.4592412967e+000	-3.5884578353e-001
 3.6532616951e+000	 2.4968588240e+000	-3.7136502187e-001
 3.6274242341e+000	 2.5342490851e+000	-3.9646873752e-001
 3.6011802095e+000	 2.5714054714e+000	-4.1909129392e-001
 3.5745327447e+000	 2.6083214251e+000	-4.3753943911e-001
 3.5474851030e+000	 2.6449904431e+000	-4.5166559674e-001
 3.5200406862e+000	 2.6814060803e+000	-4.6132237895e-001
 3.4922030334e+000	 2.7175619539e+000	-4.6636274518e-001
 3.4639758198e+000	 2.7534517463e+000	-4.6664016669e-001
 3.4353628550e+000	 2.7890692093e+000	-4.6200879672e-001
 3.7246300249e+000	 2.4350834026e+000	-3.3119733867e-001
 3.6994731668e+000	 2.4731353153e+000	-3.4840067356e-001
 3.6739015917e+000	 2.5109653711e+000	-3.6662034511e-001
 3.6479181564e+000	 2.5485668766e+000	-3.9324151549e-001
 3.6215258604e+000	 2.5859331860e+000	-4.1598655548e-001
 3.5947278450e+000	 2.6230577044e+000	-4.3471702290e-001
 3.5675273917e+000	 2.6599338919e+000	-4.4929433097e-001
 3.5399279217e+000	 2.6965552672e+000	-4.5957989027e-001
 3.5119329941e+000	 2.7329154113e+000	-4.6543525710e-001
 3.4835463047e+000	 2.7690079709e+000	-4.6672228785e-001
 3.4547716847e+000	 2.8048266625e+000	-4.6330329936e-001
 3.7455549127e+000	 2.4487636464e+000	-3.2006288277e-001
 3.7202567240e+000	 2.4870293339e+000	-3.3796184266e-001
 3.6945414883e+000	 2.5250719181e+000	-3.6285175500e-001
 3.6684120786e+000	 2.5628846680e+000	-3.8964540879e-001
 3.6418715113e+000	 2.6004609005e+000	-4.1271260692e-001
 3.6149229452e+000	 2.6377939836e+000	-4.3192397494e-001
 3.5875696804e+000	 2.6748773408e+000	-4.4714981264e-001
 3.5598151572e+000	 2.7117044541e+000	-4.5826022552e-001
 3.5316629547e+000	 2.7482688687e+000	-4.6512526266e-001
 3.5031167896e+000	 2.7845641955e+000	-4.6761506114e-001
 3.4741805144e+000	 2.8205841157e+000	-4.6559999663e-001
 3.7664798005e+000	 2.4624438902e+000	-3.3412992748e-001
 3.7410402811e+000	 2.5009233526e+000	-3.2788615711e-001
 3.7151813848e+000	 2.5391784651e+000	-3.5850775459e-001
 3.6889060008e+000	 2.5772024595e+000	-3.8567140434e-001
 3.6622171622e+000	 2.6149886150e+000	-4.0925732013e-001
 3.6351180455e+000	 2.6525302629e+000	-4.2914509445e-001
 3.6076119692e+000	 2.6898207896e+000	-4.4521381229e-001
 3.5797023927e+000	 2.7268536410e+000	-4.5734217198e-001
 3.5513929153e+000	 2.7636223260e+000	-4.6540861284e-001
 3.5226872744e+000	 2.8001204200e+000	-4.6929144964e-001
 3.4935893441e+000	 2.8363415688e+000	-4.6886901355e-001
 3.2995010472e+000	 2.6787670372e+000	-4.8356607956e-001
 3.2716529593e+000	 2.7127084092e+000	-5.0319382551e-001
 3.2434420746e+000	 2.7463764324e+000	-5.2471247611e-001
 3.2148724293e+000	 2.7797653252e+000	-5.4797322706e-001
 3.1859481822e+000	 2.8128693856e+000	-5.7282244922e-001
 3.1566736119e+000	 2.8456829949e+000	-5.9910187146e-001
 3.1270531156e+000	 2.8782006205e+000	-6.2664877501e-001
 3.0970912062e+000	 2.9104168190e+000	-6.2318604782e-001
 3.0667925103e+000	 2.9423262393e+000	-6.2243199344e-001
 3.0361617660e+000	 2.9739236255e+000	-6.2633749557e-001
 3.0052038200e+000	 3.0052038200e+000	-6.3430614069e-001
 3.3189098769e+000	 2.6945244904e+000	-4.7698941127e-001
 3.2908979767e+000	 2.7286655175e+000	-4.9710553746e-001
 3.2625211456e+000	 2.7625315879e+000	-5.1872004426e-001
 3.2337834436e+000	 2.7961168859e+000	-5.4167374000e-001
 3.2046890538e+000	 2.8294156761e+000	-5.6580288444e-001
 3.1752422802e+000	 2.8624223067e+000	-5.9093938371e-001
 3.1454475457e+000	 2.8951312124e+000	-6.1691099659e-001
 3.1153093898e+000	 2.9275369179e+000	-6.3261094799e-001
 3.0848324663e+000	 2.9596340407e+000	-6.2847148575e-001
 3.0540215411e+000	 2.9914172939e+000	-6.2866027764e-001
 3.0228814896e+000	 3.0228814896e+000	-6.3256251236e-001
 3.3383187065e+000	 2.7102819435e+000	-4.7163059313e-001
 3.3101429941e+000	 2.7446226258e+000	-4.9211320293e-001
 3.2816002166e+000	 2.7786867434e+000	-5.1370649139e-001
 3.2526944579e+000	 2.8124684466e+000	-5.3624093077e-001
 3.2234299255e+000	 2.8459619666e+000	-5.5954271703e-001
 3.1938109485e+000	 2.8791616184e+000	-5.8343397696e-001
 3.1638419758e+000	 2.9120618043e+000	-6.0773298619e-001
 3.1335275733e+000	 2.9446570169e+000	-6.3225439785e-001
 3.1028724222e+000	 2.9769418421e+000	-6.3409717580e-001
 3.0718813162e+000	 3.0089109623e+000	-6.3052765185e-001
 3.0405591591e+000	 3.0405591591e+000	-6.3032985633e-001
 3.3577275362e+000	 2.7260393967e+000	-4.6745806951e-001
 3.3293880115e+000	 2.7605797341e+000	-4.8818777057e-001
 3.3006792877e+000	 2.7948418989e+000	-5.0964520800e-001
 3.2716054722e+000	 2.8288200074e+000	-5.3165056792e-001
 3.2421707971e+000	 2.8625082571e+000	-5.5402002855e-001
 3.2123796169e+000	 2.8959009301e+000	-5.7656597940e-001
 3.1822364059e+000	 2.9289923962e+000	-5.9909725110e-001
 3.1517457569e+000	 2.9617771158e+000	-6.2141935560e-001
 3.1209123782e+000	 2.9942496435e+000	-6.3924005137e-001
 3.0897410913e+000	 3.0264046307e+000	-6.3187341133e-001
 3.0582368286e+000	 3.0582368286e+000	-6.2754472921e-001
 3.3771363659e+000	 2.7417968498e+000	-4.6444054604e-001
 3.3486330290e+000	 2.7765368424e+000	-4.8530039296e-001
 3.3197583587e+000	 2.8109970544e+000	-5.0650973287e-001
 3.2905164865e+000	 2.8451715681e+000	-5.2787851438e-001
 3.2609116688e+000	 2.8790545476e+000	-5.4921294275e-001
 3.2309482852e+000	 2.9126402419e+000	-5.7031571107e-001
 3.2006308360e+000	 2.9459229881e+000	-5.9098624189e-001
 3.1699639405e+000	 2.9788972147e+000	-6.1102093890e-001
 3.1389523341e+000	 3.0115574449e+000	-6.3021344818e-001
 3.1076008664e+000	 3.0438982991e+000	-6.3263115792e-001
 3.0759144982e+000	 3.0759144982e+000	-6.2414345522e-001
 3.3965451956e+000	 2.7575543030e+000	-4.6254698214e-001
 3.3678780464e+000	 2.7924939507e+000	-4.8342242077e-001
 3.3388374297e+000	 2.8271522099e+000	-5.0427374881e-001
 3.3094275008e+000	 2.8615231289e+000	-5.2490072474e-001
 3.2796525405e+000	 2.8956008381e+000	-5.4509962439e-001
 3.2495169535e+000	 2.9293795536e+000	-5.6466348408e-001
 3.2190252661e+000	 2.9628535800e+000	-5.8338235402e-001
 3.1881821241e+000	 2.9960173137e+000	-6.0104356144e-001
 3.1569922901e+000	 3.0288652463e+000	-6.1743198309e-001
 3.1254606415e+000	 3.0613919675e+000	-6.3233032643e-001
 3.0935921677e+000	 3.0935921677e+000	-6.2006213285e-001
 3.4159540253e+000	 2.7733117562e+000	-4.6174658382e-001
 3.3871230638e+000	 2.8084510590e+000	-4.8252539715e-001
 3.3579165007e+000	 2.8433073654e+000	-5.0291107859e-001
 3.3283385151e+000	 2.8778746896e+000	-5.2269324266e-001
 3.2983934121e+000	 2.9121471286e+000	-5.4165827807e-001
 3.2680856218e+000	 2.9461188654e+000	-5.5958960284e-001
 3.2374196962e+000	 2.9797841718e+000	-5.7626792942e-001
 3.2064003076e+000	 3.0131374126e+000	-5.9147153928e-001
 3.1750322460e+000	 3.0461730477e+000	-6.0497656657e-001
 3.1433204166e+000	 3.0788856359e+000	-6.1655729025e-001
 3.1112698372e+000	 3.1112698372e+000	-6.1523664127e-001
 3.4353628550e+000	 2.7890692093e+000	-4.6200879672e-001
 3.4063680812e+000	 2.8244081673e+000	-4.8258105224e-001
 3.3769955718e+000	 2.8594625209e+000	-5.0239568098e-001
 3.3472495294e+000	 2.8942262503e+000	-5.2123219836e-001
 3.3171342838e+000	 2.9286934191e+000	-5.3886714711e-001
 3.2866542901e+000	 2.9628581771e+000	-5.5507436428e-001
 3.2558141263e+000	 2.9967147637e+000	-5.6962525802e-001
 3.2246184912e+000	 3.0302575116e+000	-5.8228909361e-001
 3.1930722020e+000	 3.0634808491e+000	-5.9283328831e-001
 3.1611801917e+000	 3.0963793042e+000	-6.0102371434e-001
 3.1289475068e+000	 3.1289475068e+000	-6.0846819399e-001
 3.4547716847e+000	 2.8048266625e+000	-4.6330329936e-001
 3.4256130986e+000	 2.8403652756e+000	-4.8356129799e-001
 3.3960746428e+000	 2.8756176763e+000	-5.0270164690e-001
 3.3661605437e+000	 2.9105778111e+000	-5.2049380615e-001
 3.3358751555e+000	 2.9452397096e+000	-5.3670451245e-001
 3.3052229584e+000	 2.9795974888e+000	-5.5109805805e-001
 3.2742085564e+000	 3.0136453556e+000	-5.6343657917e-001
 3.2428366748e+000	 3.0473776105e+000	-5.7348035340e-001
 3.2111121579e+000	 3.0807886506e+000	-5.8098810576e-001
 3.1790399668e+000	 3.1138729726e+000	-5.8571732254e-001
 3.1466251763e+000	 3.1466251763e+000	-5.9684583755e-001
 3.4741805144e+000	 2.8205841157e+000	-4.6559999663e-001
 3.4448581160e+000	 2.8563223839e+000	-4.8543822304e-001
 3.4151537138e+000	 2.8917728318e+000	-5.0380319578e-001
 3.3850715580e+000	 2.9269293718e+000	-5.2045436213e-001
 3.3546160271e+000	 2.9617860002e+000	-5.3514869162e-001
 3.3237916267e+000	 2.9963368006e+000	-5.4764096675e-001
 3.2926029865e+000	 3.0305759475e+000	-5.5768408307e-001
 3.2610548583e+000	 3.0644977094e+000	-5.6502935800e-001
 3.2291521139e+000	 3.0980964520e+000	-5.6942684791e-001
 3.1968997419e+000	 3.1313666410e+000	-5.7274619018e-001
 3.1643028458e+000	 3.1643028458e+000	-5.8429622088e-001
 3.4935893441e+000	 2.8363415688e+000	-4.6886901355e-001
 3.4641031334e+000	 2.8722794922e+000	-4.8818408780e-001
 3.4342327849e+000	 2.9079279873e+000	-5.0567467196e-001
 3.4039825722e+000	 2.9432809326e+000	-5.2109024190e-001
 3.3733568988e+000	 2.9783322907e+000	-5.3417803769e-001
 3.3423602950e+000	 3.0130761123e+000	-5.4468336608e-001
 3.3109974166e+000	 3.0475065394e+000	-5.5234991217e-001
 3.2792730419e+000	 3.0816178084e+000	-5.5692005960e-001
 3.2471920698e+000	 3.1154042534e+000	-5.5813521876e-001
 3.2147595170e+000	 3.1488603094e+000	-5.6301129823e-001
 3.1819805154e+000	 3.1819805154e+000	-5.7084588354e-001
 3.0052038200e+000	 3.0052038200e+000	-6.3430614069e-001
 2.9739236255e+000	 3.0361617660e+000	-6.3500963398e-001
 2.9423262393e+000	 3.0667925103e+000	-6.2936154791e-001
 2.9104168190e+000	 3.0970912062e+000	-6.1672255092e-001
 2.8782006205e+000	 3.1270531156e+000	-5.9884275177e-001
 2.8456829949e+000	 3.1566736119e+000	-6.0873781416e-001
 2.8128693856e+000	 3.1859481822e+000	-6.1704192694e-001
 2.7797653252e+000	 3.2148724293e+000	-6.2358406490e-001
 2.7463764324e+000	 3.2434420746e+000	-6.2819674618e-001
 2.7127084092e+000	 3.2716529593e+000	-6.3071621478e-001
 2.6787670372e+000	 3.2995010472e+000	-6.3098261338e-001
 3.0228814896e+000	 3.0228814896e+000	-6.3256251236e-001
 2.9914172939e+000	 3.0540215411e+000	-6.2890569207e-001
 2.9596340407e+000	 3.0848324663e+000	-6.1928956372e-001
 2.9275369179e+000	 3.1153093898e+000	-6.0306415139e-001
 2.8951312124e+000	 3.1454475457e+000	-6.0230879416e-001
 2.8624223067e+000	 3.1752422802e+000	-6.1018689818e-001
 2.8294156761e+000	 3.2046890538e+000	-6.1687373902e-001
 2.7961168859e+000	 3.2337834436e+000	-6.2219782872e-001
 2.7625315879e+000	 3.2625211456e+000	-6.2599091803e-001
 2.7286655175e+000	 3.2908979767e+000	-6.2808818073e-001
 2.6945244904e+000	 3.3189098769e+000	-6.2832838859e-001
 3.0405591591e+000	 3.0405591591e+000	-6.3032985633e-001
 3.0089109623e+000	 3.0718813162e+000	-6.2243595075e-001
 2.9769418421e+000	 3.1028724222e+000	-6.0897366511e-001
 2.9446570169e+000	 3.1335275733e+000	-5.9736077161e-001
 2.9120618043e+000	 3.1638419758e+000	-6.0390167820e-001
 2.8791616184e+000	 3.1938109485e+000	-6.0982114086e-001
 2.8459619666e+000	 3.2234299255e+000	-6.1494443740e-001
 2.8124684466e+000	 3.2526944579e+000	-6.1909958879e-001
 2.7786867434e+000	 3.2816002166e+000	-6.2211755398e-001
 2.7446226258e+000	 3.3101429941e+000	-6.2383241599e-001
 2.7102819435e+000	 3.3383187065e+000	-6.2408155900e-001
 3.0582368286e+000	 3.0582368286e+000	-6.2754472921e-001
 3.0264046307e+000	 3.0897410913e+000	-6.1553710195e-001
 2.9942496435e+000	 3.1209123782e+000	-5.9835078946e-001
 2.9617771158e+000	 3.1517457569e+000	-5.9939918217e-001
 2.9289923962e+000	 3.1822364059e+000	-6.0364840237e-001
 2.8959009301e+000	 3.2123796169e+000	-6.0766696948e-001
 2.8625082571e+000	 3.2421707971e+000	-6.1127994054e-001
 2.8288200074e+000	 3.2716054722e+000	-6.1431481731e-001
 2.7948418989e+000	 3.3006792877e+000	-6.1660174262e-001
 2.7605797341e+000	 3.3293880115e+000	-6.1797368828e-001
 2.7260393967e+000	 3.3577275362e+000	-6.1826663429e-001
 3.0759144982e+000	 3.0759144982e+000	-6.2414345522e-001
 3.0438982991e+000	 3.1076008664e+000	-6.0814562547e-001
 3.0115574449e+000	 3.1389523341e+000	-5.9787033382e-001
 2.9788972147e+000	 3.1699639405e+000	-5.9955664727e-001
 2.9459229881e+000	 3.2006308360e+000	-6.0157580376e-001
 2.9126402419e+000	 3.2309482852e+000	-6.0375066347e-001
 2.8790545476e+000	 3.2609116688e+000	-6.0590603092e-001
 2.8451715681e+000	 3.2905164865e+000	-6.0786886068e-001
 2.8109970544e+000	 3.3197583587e+000	-6.0946845527e-001
 2.7765368424e+000	 3.3486330290e+000	-6.1053665489e-001
 2.7417968498e+000	 3.3771363659e+000	-6.1090801877e-001
 3.0935921677e+000	 3.0935921677e+000	-6.2006213285e-001
 3.0613919675e+000	 3.1254606415e+000	-6.0048324322e-001
 3.0288652463e+000	 3.1569922901e+000	-5.9872515418e-001
 2.9960173137e+000	 3.1881821241e+000	-5.9786045060e-001
 2.9628535800e+000	 3.2190252661e+000	-5.9771056268e-001
 2.9293795536e+000	 3.2495169535e+000	-5.9809835867e-001
 2.8956008381e+000	 3.2796525405e+000	-5.9884835898e-001
 2.8615231289e+000	 3.3094275008e+000	-5.9978694315e-001
 2.8271522099e+000	 3.3388374297e+000	-6.0074254929e-001
 2.7924939507e+000	 3.3678780464e+000	-6.0154586571e-001
 2.7575543030e+000	 3.3965451956e+000	-6.0203001436e-001
 3.1112698372e+000	 3.1112698372e+000	-6.1523664127e-001
 3.0788856359e+000	 3.1433204166e+000	-6.0231053563e-001
 3.0461730477e+000	 3.1750322460e+000	-5.9768871621e-001
 3.0131374126e+000	 3.2064003076e+000	-5.9433770913e-001
 2.9797841718e+000	 3.2374196962e+000	-5.9207920710e-001
 2.9461188654e+000	 3.2680856218e+000	-5.9073605135e-001
 2.9121471286e+000	 3.2983934121e+000	-5.9013244679e-001
 2.8778746896e+000	 3.3283385151e+000	-5.9009417021e-001
 2.8433073654e+000	 3.3579165007e+000	-5.9044877136e-001
 2.8084510590e+000	 3.3871230638e+000	-5.9102576639e-001
 2.7733117562e+000	 3.4159540253e+000	-5.9165682349e-001
 3.1289475068e+000	 3.1289475068e+000	-6.0846819399e-001
 3.0963793042e+000	 3.1611801917e+000	-6.0220588318e-001
 3.0634808491e+000	 3.1930722020e+000	-5.9478860546e-001
 3.0302575116e+000	 3.2246184912e+000	-5.8901537782e-001
 2.9967147637e+000	 3.2558141263e+000	-5.8470811696e-001
 2.9628581771e+000	 3.2866542901e+000	-5.8168960223e-001
 2.9286934191e+000	 3.3171342838e+000	-5.7978369176e-001
 2.8942262503e+000	 3.3472495294e+000	-5.7881553204e-001
 2.8594625209e+000	 3.3769955718e+000	-5.7861176057e-001
 2.8244081673e+000	 3.4063680812e+000	-5.7900070121e-001
 2.7890692093e+000	 3.4353628550e+000	-5.7981255196e-001
 3.1466251763e+000	 3.1466251763e+000	-5.9684583755e-001
 3.1138729726e+000	 3.1790399668e+000	-6.0019736824e-001
 3.0807886506e+000	 3.2111121579e+000	-5.9005223496e-001
 3.0473776105e+000	 3.2428366748e+000	-5.8192025420e-001
 3.0136453556e+000	 3.2742085564e+000	-5.7562352836e-001
 2.9795974888e+000	 3.3052229584e+000	-5.7098474022e-001
 2.9452397096e+000	 3.3358751555e+000	-5.6782737007e-001
 2.9105778111e+000	 3.3661605437e+000	-5.6597590666e-001
 2.8756176763e+000	 3.3960746428e+000	-5.6525605147e-001
 2.8403652756e+000	 3.4256130986e+000	-5.6549491597e-001
 2.8048266625e+000	 3.4547716847e+000	-5.6652121157e-001
 3.1643028458e+000	 3.1643028458e+000	-5.8429622088e-001
 3.1313666410e+000	 3.1968997419e+000	-5.9224892169e-001
 3.0980964520e+000	 3.2291521139e+000	-5.8350685001e-001
 3.0644977094e+000	 3.2610548583e+000	-5.7307898270e-001
 3.0305759475e+000	 3.2926029865e+000	-5.6485153752e-001
 2.9963368006e+000	 3.3237916267e+000	-5.5864706615e-001
 2.9617860002e+000	 3.3546160271e+000	-5.5428864011e-001
 2.9269293718e+000	 3.3850715580e+000	-5.5160006312e-001
 2.8917728318e+000	 3.4151537138e+000	-5.5040607697e-001
 2.8563223839e+000	 3.4448581160e+000	-5.5053256072e-001
 2.8205841157e+000	 3.4741805144e+000	-5.5180672283e-001
 3.1819805154e+000	 3.1819805154e+000	-5.7084588354e-001
 3.1488603094e+000	 3.2147595170e+000	-5.7601172939e-001
 3.1154042534e+000	 3.2471920698e+000	-5.7517953287e-001
 3.0816178084e+000	 3.2792730419e+000	-5.6251805897e-001
 3.0475065394e+000	 3.3109974166e+000	-5.5241810470e-001
 3.0130761123e+000	 3.3423602950e+000	-5.4470205628e-001
 2.9783322907e+000	 3.3733568988e+000	-5.3919254573e-001
 2.9432809326e+000	 3.4039825722e+000	-5.3571266452e-001
 2.9079279873e+000	 3.4342327849e+000	-5.3408617118e-001
 2.8722794922e+000	 3.4641031334e+000	-5.3413769242e-001
 2.8363415688e+000	 3.4935893441e+000	-5.3569291744e-001
 2.6787670372e+000	 3.2995010472e+000	-6.3098261338e-001
 2.6445581744e+000	 3.3269824258e+000	-6.2507275608e-001
 2.6100877523e+000	 3.3540933089e+000	-6.2208089436e-001
 2.5753617721e+000	 3.3808300376e+000	-6.2181032016e-001
 2.5403863013e+000	 3.4071890820e+000	-6.2406391327e-001
 2.5051674705e+000	 3.4331670430e+000	-6.2864434152e-001
 2.4697114697e+000	 3.4587606532e+000	-5.9949101783e-001
 2.4340245451e+000	 3.4839667785e+000	-5.6848649028e-001
 2.3981129948e+000	 3.5087824190e+000	-5.4149379735e-001
 2.3619831663e+000	 3.5332047099e+000	-5.1802854512e-001
 2.3256414519e+000	 3.5572309227e+000	-4.9759784151e-001
 2.6945244904e+000	 3.3189098769e+000	-6.2832838859e-001
 2.6601143990e+000	 3.3465529107e+000	-6.2197955128e-001
 2.6254412097e+000	 3.3738232696e+000	-6.1853676741e-001
 2.5905109590e+000	 3.4007172731e+000	-6.1780486094e-001
 2.5553297501e+000	 3.4272313707e+000	-6.1958830715e-001
 2.5199037497e+000	 3.4533621432e+000	-6.2369143068e-001
 2.4842391843e+000	 3.4791063041e+000	-6.1120016220e-001
 2.4483423365e+000	 3.5044607008e+000	-5.7881978104e-001
 2.4122195419e+000	 3.5294223156e+000	-5.5057289102e-001
 2.3758771849e+000	 3.5539882670e+000	-5.2596621953e-001
 2.3393216957e+000	 3.5781558105e+000	-5.0449772519e-001
 2.7102819435e+000	 3.3383187065e+000	-6.2408155900e-001
 2.6756706236e+000	 3.3661233956e+000	-6.1737546197e-001
 2.6407946671e+000	 3.3935532302e+000	-6.1356346183e-001
 2.6056601459e+000	 3.4206045086e+000	-6.1245187407e-001
 2.5702731989e+000	 3.4472736594e+000	-6.1384673006e-001
 2.5346400289e+000	 3.4735572435e+000	-6.1755397282e-001
 2.4987668988e+000	 3.4994519550e+000	-6.2191471905e-001
 2.4626601279e+000	 3.5249546230e+000	-5.8832570487e-001
 2.4263260889e+000	 3.5500622122e+000	-5.5899651477e-001
 2.3897712035e+000	 3.5747718241e+000	-5.3342474783e-001
 2.3530019396e+000	 3.5990806982e+000	-5.1109895858e-001
 2.7260393967e+000	 3.3577275362e+000	-6.1826663429e-001
 2.6912268481e+000	 3.3856938804e+000	-6.1128391328e-001
 2.6561481244e+000	 3.4132831908e+000	-6.0718329963e-001
 2.6208093328e+000	 3.4404917441e+000	-6.0577256054e-001
 2.5852166478e+000	 3.4673159481e+000	-6.0685924459e-001
 2.5493763082e+000	 3.4937523437e+000	-6.1025087538e-001
 2.5132946133e+000	 3.5197976059e+000	-6.1575514006e-001
 2.4769779194e+000	 3.5454485452e+000	-5.9688054136e-001
 2.4404326359e+000	 3.5707021087e+000	-5.6664144652e-001
 2.4036652222e+000	 3.5955553812e+000	-5.4028145336e-001
 2.3666821834e+000	 3.6200055860e+000	-5.1727945624e-001
 2.7417968498e+000	 3.3771363659e+000	-6.1090801877e-001
 2.7067830727e+000	 3.4052643653e+000	-6.0372824872e-001
 2.6715015818e+000	 3.4330131515e+000	-5.9941854528e-001
 2.6359585197e+000	 3.4603789796e+000	-5.9778808797e-001
 2.6001600966e+000	 3.4873582368e+000	-5.9864590430e-001
 2.5641125874e+000	 3.5139474440e+000	-6.0180106121e-001
 2.5278223278e+000	 3.5401432568e+000	-6.0706285135e-001
 2.4912957108e+000	 3.5659424674e+000	-6.0436063484e-001
 2.4545391829e+000	 3.5913420053e+000	-5.7338455376e-001
 2.4175592408e+000	 3.6163389384e+000	-5.4641377393e-001
 2.3803624272e+000	 3.6409304738e+000	-5.2291727212e-001
 2.7575543030e+000	 3.3965451956e+000	-6.0203001436e-001
 2.7223392972e+000	 3.4248348501e+000	-5.9473173264e-001
 2.6868550392e+000	 3.4527431121e+000	-5.9029140736e-001
 2.6511077066e+000	 3.4802662151e+000	-5.8851959159e-001
 2.6151035454e+000	 3.5074005255e+000	-5.8922675399e-001
 2.5788488667e+000	 3.5341425442e+000	-5.9222346820e-001
 2.5423500424e+000	 3.5604889077e+000	-5.9732059674e-001
 2.5056135023e+000	 3.5864363897e+000	-6.0432946920e-001
 2.4686457300e+000	 3.6119819019e+000	-5.7910279096e-001
 2.4314532594e+000	 3.6371224955e+000	-5.5169925852e-001
 2.3940426711e+000	 3.6618553616e+000	-5.2789059565e-001
 2.7733117562e+000	 3.4159540253e+000	-5.9165682349e-001
 2.7378955218e+000	 3.4444053350e+000	-5.8431755238e-001
 2.7022084965e+000	 3.4724730728e+000	-5.7982404015e-001
 2.6662568934e+000	 3.5001534506e+000	-5.7798817515e-001
 2.6300469942e+000	 3.5274428143e+000	-5.7862182997e-001
 2.5935851459e+000	 3.5543376445e+000	-5.8153704880e-001
 2.5568777569e+000	 3.5808345586e+000	-5.8654622904e-001
 2.5199312937e+000	 3.6069303119e+000	-5.9346229709e-001
 2.4827522770e+000	 3.6326217985e+000	-5.8367319709e-001
 2.4453472780e+000	 3.6579060526e+000	-5.5601556412e-001
 2.4077229149e+000	 3.6827802494e+000	-5.3207774780e-001
 2.7890692093e+000	 3.4353628550e+000	-5.7981255196e-001
 2.7534517463e+000	 3.4639758198e+000	-5.7250882051e-001
 2.7175619539e+000	 3.4922030334e+000	-5.6803854518e-001
 2.6814060803e+000	 3.5200406862e+000	-5.6621491181e-001
 2.6449904431e+000	 3.5474851030e+000	-5.6685116025e-001
 2.6083214251e+000	 3.5745327447e+000	-5.6976076963e-001
 2.5714054714e+000	 3.6011802095e+000	-5.7475763778e-001
 2.5342490851e+000	 3.6274242341e+000	-5.8165625458e-001
 2.4968588240e+000	 3.6532616951e+000	-5.8697289330e-001
 2.4592412967e+000	 3.6786896097e+000	-5.5924045269e-001
 2.4214031587e+000	 3.7037051371e+000	-5.3535717746e-001
 2.8048266625e+000	 3.4547716847e+000	-5.6652121157e-001
 2.7690079709e+000	 3.4835463047e+000	-5.5932857687e-001
 2.7329154113e+000	 3.5119329941e+000	-5.5495697267e-001
 2.6965552672e+000	 3.5399279217e+000	-5.5322084500e-001
 2.6599338919e+000	 3.5675273917e+000	-5.5393476480e-001
 2.6230577044e+000	 3.5947278450e+000	-5.5691361108e-001
 2.5859331860e+000	 3.6215258604e+000	-5.6197274817e-001
 2.5485668766e+000	 3.6479181564e+000	-5.6892819667e-001
 2.5109653711e+000	 3.6739015917e+000	-5.7759679817e-001
 2.4731353153e+000	 3.6994731668e+000	-5.6125178823e-001
 2.4350834026e+000	 3.7246300249e+000	-5.3760745776e-001
 2.8205841157e+000	 3.4741805144e+000	-5.5180672283e-001
 2.7845641955e+000	 3.5031167896e+000	-5.4479979069e-001
 2.7482688687e+000	 3.5316629547e+000	-5.4060132301e-001
 2.7117044541e+000	 3.5598151572e+000	-5.3902698927e-001
 2.6748773408e+000	 3.5875696804e+000	-5.3989265578e-001
 2.6377939836e+000	 3.6149229452e+000	-5.4301456693e-001
 2.6004609005e+000	 3.6418715113e+000	-5.4820952011e-001
 2.5628846680e+000	 3.6684120786e+000	-5.5529503446e-001
 2.5250719181e+000	 3.6945414883e+000	-5.6408951292e-001
 2.4870293339e+000	 3.7202567240e+000	-5.6192753388e-001
 2.4487636464e+000	 3.7455549127e+000	-5.3870728267e-001
 2.8363415688e+000	 3.4935893441e+000	-5.3569291744e-001
 2.8001204200e+000	 3.5226872744e+000	-5.2894536245e-001
 2.7636223260e+000	 3.5513929153e+000	-5.2499354812e-001
 2.7268536410e+000	 3.5797023927e+000	-5.2365433104e-001
 2.6898207896e+000	 3.6076119692e+000	-5.2474483776e-001
 2.6525302629e+000	 3.6351180455e+000	-5.2808264395e-001
 2.6149886150e+000	 3.6622171622e+000	-5.3348594725e-001
 2.5772024595e+000	 3.6889060008e+000	-5.4077373360e-001
 2.5391784651e+000	 3.7151813848e+000	-5.4976593683e-001
 2.5009233526e+000	 3.7410402811e+000	-5.6028359161e-001
 2.4624438902e+000	 3.7664798005e+000	-5.1137607934e-001
 2.3256414519e+000	 3.5572309227e+000	-4.9759784151e-001
 2.2890942857e+000	 3.5808584657e+000	-4.8873706494e-001
 2.2523481398e+000	 3.6040848849e+000	-4.8202158971e-001
 2.2154095206e+000	 3.6269078643e+000	-4.7699759102e-001
 2.1782849654e+000	 3.6493252266e+000	-4.7320703022e-001
 2.1409810384e+000	 3.6713349334e+000	-4.7018885506e-001
 2.1035043275e+000	 3.6929350853e+000	-4.6748020101e-001
 2.0658614403e+000	 3.7141239222e+000	-4.6461759028e-001
 2.0280590008e+000	 3.7348998232e+000	-4.6113812537e-001
 1.9901036456e+000	 3.7552613065e+000	-4.5260023099e-001
 1.9520020205e+000	 3.7752070290e+000	-4.3487733816e-001
 2.3393216957e+000	 3.5781558105e+000	-5.0449772519e-001
 2.3025595462e+000	 3.6019223390e+000	-4.9582908582e-001
 2.2655972465e+000	 3.6252853842e+000	-4.8937028488e-001
 2.2284413413e+000	 3.6482426164e+000	-4.8466131242e-001
 2.1910984063e+000	 3.6707918456e+000	-4.8123775854e-001
 2.1535750445e+000	 3.6929310213e+000	-4.7863203421e-001
 2.1158778823e+000	 3.7146582329e+000	-4.7637459336e-001
 2.0780135664e+000	 3.7359717100e+000	-4.7399515280e-001
 2.0399887596e+000	 3.7568698222e+000	-4.6458094161e-001
 2.0018101376e+000	 3.7773510788e+000	-4.4471583889e-001
 1.9634843853e+000	 3.7974141292e+000	-4.2914224045e-001
 2.3530019396e+000	 3.5990806982e+000	-5.1109895858e-001
 2.3160248067e+000	 3.6229862123e+000	-5.0286954508e-001
 2.2788463532e+000	 3.6464858835e+000	-4.9691832086e-001
 2.2414731620e+000	 3.6695773686e+000	-4.9277879302e-001
 2.2039118473e+000	 3.6922584646e+000	-4.8997987926e-001
 2.1661690506e+000	 3.7145271091e+000	-4.8804714982e-001
 2.1282514372e+000	 3.7363813804e+000	-4.8650407071e-001
 2.0901656925e+000	 3.7578194978e+000	-4.7627849728e-001
 2.0519185184e+000	 3.7788398211e+000	-4.5413500349e-001
 2.0135166297e+000	 3.7994408512e+000	-4.3641012050e-001
 1.9749667502e+000	 3.8196212294e+000	-4.2310597441e-001
 2.3666821834e+000	 3.6200055860e+000	-5.1727945624e-001
 2.3294900672e+000	 3.6440500857e+000	-5.0973590595e-001
 2.2920954599e+000	 3.6676863828e+000	-5.0454274967e-001
 2.2545049827e+000	 3.6909121207e+000	-5.0122671284e-001
 2.2167252883e+000	 3.7137250836e+000	-4.9930973871e-001
 2.1787630567e+000	 3.7361231969e+000	-4.9831025179e-001
 2.1406249920e+000	 3.7581045280e+000	-4.8769338845e-001
 2.1023178186e+000	 3.7796672856e+000	-4.6316777661e-001
 2.0638482773e+000	 3.8008098201e+000	-4.4316146669e-001
 2.0252231217e+000	 3.8215306236e+000	-4.2769352526e-001
 1.9864491150e+000	 3.8418283295e+000	-4.1677589916e-001
 2.3803624272e+000	 3.6409304738e+000	-5.2291727212e-001
 2.3429553277e+000	 3.6651139590e+000	-5.1630582106e-001
 2.3053445666e+000	 3.6888868821e+000	-5.1212086289e-001
 2.2675368034e+000	 3.7122468729e+000	-5.0988204174e-001
 2.2295387292e+000	 3.7351917025e+000	-5.0910402334e-001
 2.1913570628e+000	 3.7577192848e+000	-4.9879362297e-001
 2.1529985469e+000	 3.7798276756e+000	-4.7181524801e-001
 2.1144699447e+000	 3.8015150733e+000	-4.4943015679e-001
 2.0757780361e+000	 3.8227798190e+000	-4.3167440959e-001
 2.0369296137e+000	 3.8436203960e+000	-4.1857709453e-001
 1.9979314798e+000	 3.8640354297e+000	-4.1016001596e-001
 2.3940426711e+000	 3.6618553616e+000	-5.2789059565e-001
 2.3564205882e+000	 3.6861778323e+000	-5.2245712711e-001
 2.3185936733e+000	 3.7100873815e+000	-5.1953018488e-001
 2.2805686241e+000	 3.7335816250e+000	-5.1862203113e-001
 2.2423521702e+000	 3.7566583215e+000	-5.0951362264e-001
 2.2039510689e+000	 3.7793153726e+000	-4.8004547703e-001
 2.1653721018e+000	 3.8015508231e+000	-4.5521766203e-001
 2.1266220709e+000	 3.8233628611e+000	-4.3508322541e-001
 2.0877077949e+000	 3.8447498180e+000	-4.1968843670e-001
 2.0486361058e+000	 3.8657101684e+000	-4.0907244465e-001
 2.0094138446e+000	 3.8862425299e+000	-4.0326694989e-001
 2.4077229149e+000	 3.6827802494e+000	-5.3207774780e-001
 2.3698858487e+000	 3.7072417056e+000	-5.2806783958e-001
 2.3318427800e+000	 3.7312878808e+000	-5.2664846610e-001
 2.2936004448e+000	 3.7549163771e+000	-5.1975319793e-001
 2.2551656112e+000	 3.7781249405e+000	-4.8779239209e-001
 2.2165450750e+000	 3.8009114605e+000	-4.6049187337e-001
 2.1777456566e+000	 3.8232739707e+000	-4.3792161029e-001
 2.1387741970e+000	 3.8452106489e+000	-4.2014503373e-001
 2.0996375537e+000	 3.8667198170e+000	-4.0721866371e-001
 2.0603425978e+000	 3.8877999408e+000	-3.9919175064e-001
 2.0208962095e+000	 3.9084496300e+000	-3.9610593208e-001
 2.4214031587e+000	 3.7037051371e+000	-5.3535717746e-001
 2.3833511092e+000	 3.7283055790e+000	-5.3301614772e-001
 2.3450918867e+000	 3.7524883801e+000	-5.2937660503e-001
 2.3066322655e+000	 3.7762511293e+000	-4.9495476942e-001
 2.2679790521e+000	 3.7995915595e+000	-4.6518600394e-001
 2.2291390811e+000	 3.8225075483e+000	-4.4015706948e-001
 2.1901192115e+000	 3.8449971182e+000	-4.1994847694e-001
 2.1509263231e+000	 3.8670584367e+000	-4.0463408357e-001
 2.1115673126e+000	 3.8886898159e+000	-3.9428070306e-001
 2.0720490898e+000	 3.9098897132e+000	-3.8894773041e-001
 2.0323785743e+000	 3.9306567302e+000	-3.8868678264e-001
 2.4350834026e+000	 3.7246300249e+000	-5.3760745776e-001
 2.3968163697e+000	 3.7493694523e+000	-5.3718040964e-001
 2.3583409934e+000	 3.7736888794e+000	-5.0139529535e-001
 2.3196640863e+000	 3.7975858814e+000	-4.6919757189e-001
 2.2807924931e+000	 3.8210581785e+000	-4.4172188137e-001
 2.2417330872e+000	 3.8441036362e+000	-4.1906567097e-001
 2.2024927664e+000	 3.8667202658e+000	-4.0132003913e-001
 2.1630784492e+000	 3.8889062245e+000	-3.8856931466e-001
 2.1234970714e+000	 3.9106598149e+000	-3.8089064998e-001
 2.0837555818e+000	 3.9319794856e+000	-3.7835362949e-001
 2.0438609391e+000	 3.9528638304e+000	-3.8101989409e-001
 2.4487636464e+000	 3.7455549127e+000	-5.3870728267e-001
 2.4102816302e+000	 3.7704333256e+000	-5.0693971615e-001
 2.3715901001e+000	 3.7948893788e+000	-4.7238746800e-001
 2.3326959070e+000	 3.8189206336e+000	-4.4251208450e-001
 2.2936059341e+000	 3.8425247975e+000	-4.1742774228e-001
 2.2543270933e+000	 3.8656997240e+000	-3.9724262179e-001
 2.2148663212e+000	 3.8884434134e+000	-3.8205845600e-001
 2.1752305753e+000	 3.9107540122e+000	-3.7197009238e-001
 2.1354268302e+000	 3.9326298139e+000	-3.6706506901e-001
 2.0954620739e+000	 3.9540692580e+000	-3.6742320631e-001
 2.0553433039e+000	 3.9750709306e+000	-3.7311621539e-001
 2.4624438902e+000	 3.7664798005e+000	-5.1137607934e-001
 2.4237468907e+000	 3.7914971990e+000	-4.7457911201e-001
 2.3848392068e+000	 3.8160898781e+000	-4.4238655063e-001
 2.3457277277e+000	 3.8402553857e+000	-4.1492903055e-001
 2.3064193751e+000	 3.8639914164e+000	-3.9233159116e-001
 2.2669210994e+000	 3.8872958119e+000	-3.7471319486e-001
 2.2272398761e+000	 3.9101665609e+000	-3.6218625814e-001
 2.1873827014e+000	 3.9326018000e+000	-3.5485619600e-001
 2.1473565890e+000	 3.9545998128e+000	-3.5282098094e-001
 2.1071685659e+000	 3.9761590304e+000	-3.5617071796e-001
 2.0668256687e+000	 3.9972780307e+000	-3.6498723645e-001
 1.9520020205e+000	 3.7752070290e+000	-4.3487733816e-001
 1.9137607768e+000	 3.7947357865e+000	-4.1765050535e-001
 1.8753865680e+000	 3.8138465125e+000	-3.9887697973e-001
 1.8368860459e+000	 3.8325382783e+000	-3.7228092621e-001
 1.7982658577e+000	 3.8508102920e+000	-3.4889291048e-001
 1.7595326423e+000	 3.8686618980e+000	-3.2841136916e-001
 1.7206930268e+000	 3.8860925758e+000	-3.1045289548e-001
 1.6817536235e+000	 3.9031019395e+000	-2.9464250781e-001
 1.6427210263e+000	 3.9196897364e+000	-2.8061438127e-001
 1.6036018077e+000	 3.9358558462e+000	-2.6801254765e-001
 1.5644025157e+000	 3.9516002795e+000	-2.5649156240e-001
 1.9634843853e+000	 3.7974141292e+000	-4.2914224045e-001
 1.9250181932e+000	 3.8170577617e+000	-4.1436162019e-001
 1.8864182537e+000	 3.8362809037e+000	-3.9807356842e-001
 1.8476912579e+000	 3.8550826211e+000	-3.7475996020e-001
 1.8088438922e+000	 3.8734621172e+000	-3.5166103356e-001
 1.7698828343e+000	 3.8914187326e+000	-3.3140621649e-001
 1.7308147505e+000	 3.9089519439e+000	-3.1358120182e-001
 1.6916462918e+000	 3.9260613627e+000	-2.9778061842e-001
 1.6523840911e+000	 3.9427467349e+000	-2.8360879605e-001
 1.6130347595e+000	 3.9590079395e+000	-2.7068049710e-001
 1.5736048834e+000	 3.9748449870e+000	-2.5862161415e-001
 1.9749667502e+000	 3.8196212294e+000	-4.2310597441e-001
 1.9362756095e+000	 3.8393797369e+000	-4.1035850152e-001
 1.8974499394e+000	 3.8587152950e+000	-3.9614528710e-001
 1.8584964700e+000	 3.8776269639e+000	-3.7654562526e-001
 1.8194219267e+000	 3.8961139425e+000	-3.5343727635e-001
 1.7802330263e+000	 3.9141755673e+000	-3.3311312069e-001
 1.7409364742e+000	 3.9318113120e+000	-3.1512793881e-001
 1.7015389602e+000	 3.9490207858e+000	-2.9904595770e-001
 1.6620471560e+000	 3.9658037333e+000	-2.8444164890e-001
 1.6224677113e+000	 3.9821600327e+000	-2.7090049235e-001
 1.5828072511e+000	 3.9980896946e+000	-2.5801970447e-001
 1.9864491150e+000	 3.8418283295e+000	-4.1677589916e-001
 1.9475330258e+000	 3.8617017121e+000	-4.0565467036e-001
 1.9084816251e+000	 3.8811496862e+000	-3.9311178470e-001
 1.8693016820e+000	 3.9001713067e+000	-3.7758334296e-001
 1.8299999611e+000	 3.9187657677e+000	-3.5417542220e-001
 1.7905832183e+000	 3.9369324020e+000	-3.3349418828e-001
 1.7510581979e+000	 3.9546706801e+000	-3.1506349318e-001
 1.7114316286e+000	 3.9719802090e+000	-2.9841714528e-001
 1.6717102208e+000	 3.9888607318e+000	-2.8309974088e-001
 1.6319006631e+000	 4.0053121259e+000	-2.6866746016e-001
 1.5920096189e+000	 4.0213344021e+000	-2.5468882609e-001
 1.9979314798e+000	 3.8640354297e+000	-4.1016001596e-001
 1.9587904422e+000	 3.8840236873e+000	-4.0026412731e-001
 1.9195133107e+000	 3.9035840775e+000	-3.8899302782e-001
 1.8801068940e+000	 3.9227156495e+000	-3.7629618566e-001
 1.8405779956e+000	 3.9414175930e+000	-3.5382925071e-001
 1.8009334104e+000	 3.9596892367e+000	-3.3251136260e-001
 1.7611799216e+000	 3.9775300482e+000	-3.1335793004e-001
 1.7213242970e+000	 3.9949396322e+000	-2.9587232179e-001
 1.6813732857e+000	 4.0119177302e+000	-2.7956923769e-001
 1.6413336149e+000	 4.0284642191e+000	-2.6397553683e-001
 1.6012119866e+000	 4.0445791096e+000	-2.4863102734e-001
 2.0094138446e+000	 3.8862425299e+000	-4.0326694989e-001
 1.9700478585e+000	 3.9063456625e+000	-3.9420133885e-001
 1.9305449964e+000	 3.9260184687e+000	-3.8380929169e-001
 1.8909121061e+000	 3.9452599923e+000	-3.7202328553e-001
 1.8511560300e+000	 3.9640694182e+000	-3.5235253782e-001
 1.8112836024e+000	 3.9824460714e+000	-3.3012642854e-001
 1.7713016452e+000	 4.0003894163e+000	-3.0998100211e-001
 1.7312169653e+000	 4.0178990554e+000	-2.9138916256e-001
 1.6910363506e+000	 4.0349747287e+000	-2.7383568791e-001
 1.6507665667e+000	 4.0516163123e+000	-2.5681809078e-001
 1.6104143544e+000	 4.0678238172e+000	-2.3984743916e-001
 2.0208962095e+000	 3.9084496300e+000	-3.9610593208e-001
 1.9813052748e+000	 3.9286676378e+000	-3.8748122409e-001
 1.9415766821e+000	 3.9484528600e+000	-3.7758115137e-001
 1.9017173181e+000	 3.9678043352e+000	-3.6632145809e-001
 1.8617340645e+000	 3.9867212435e+000	-3.4969905594e-001
 1.8216337944e+000	 4.0052029061e+000	-3.2630101697e-001
 1.7814233689e+000	 4.0232487843e+000	-3.0490215857e-001
 1.7411096337e+000	 4.0408584785e+000	-2.8494489080e-001
 1.7006994154e+000	 4.0580317271e+000	-2.6588404049e-001
 1.6601995186e+000	 4.0747684055e+000	-2.4718774439e-001
 1.6196167221e+000	 4.0910685247e+000	-2.2833830118e-001
 2.0323785743e+000	 3.9306567302e+000	-3.8868678264e-001
 1.9925626912e+000	 3.9509896130e+000	-3.8011914198e-001
 1.9526083678e+000	 3.9708872512e+000	-3.7032947328e-001
 1.9125225301e+000	 3.9903486780e+000	-3.5921704402e-001
 1.8723120989e+000	 4.0093730687e+000	-3.4582257407e-001
 1.8319839864e+000	 4.0279597408e+000	-3.2099660912e-001
 1.7915450926e+000	 4.0461081524e+000	-2.9809055366e-001
 1.7510023021e+000	 4.0638179017e+000	-2.7651629042e-001
 1.7103624803e+000	 4.0810887256e+000	-2.5569866167e-001
 1.6696324704e+000	 4.0979204987e+000	-2.3507639506e-001
 1.6288190898e+000	 4.1143132322e+000	-2.1410298686e-001
 2.0438609391e+000	 3.9528638304e+000	-3.8101989409e-001
 2.0038201075e+000	 3.9733115882e+000	-3.7213087898e-001
 1.9636400535e+000	 3.9933216425e+000	-3.6207540703e-001
 1.9233277422e+000	 4.0128930208e+000	-3.5073652350e-001
 1.8828901334e+000	 4.0320248940e+000	-3.3799569785e-001
 1.8423341784e+000	 4.0507165755e+000	-3.1417454081e-001
 1.8016668163e+000	 4.0689675205e+000	-2.8951505493e-001
 1.7608949704e+000	 4.0867773249e+000	-2.6607971833e-001
 1.7200255451e+000	 4.1041457241e+000	-2.4326335142e-001
 1.6790654222e+000	 4.1210725920e+000	-2.2047523556e-001
 1.6380214576e+000	 4.1375579397e+000	-1.9714002783e-001
 2.0553433039e+000	 3.9750709306e+000	-3.7311621539e-001
 2.0150775238e+000	 3.9956335634e+000	-3.6353263709e-001
 1.9746717392e+000	 4.0157560337e+000	-3.5284037752e-001
 1.9341329542e+000	 4.0354373636e+000	-3.4090651241e-001
 1.8934681678e+000	 4.0546767192e+000	-3.2759669759e-001
 1.8526843704e+000	 4.0734734102e+000	-3.0579600646e-001
 1.8117885400e+000	 4.0918268886e+000	-2.7914425129e-001
 1.7707876388e+000	 4.1097367481e+000	-2.5361111640e-001
 1.7296886100e+000	 4.1272027225e+000	-2.2856135917e-001
 1.6884983740e+000	 4.1442246852e+000	-2.0337477375e-001
 1.6472238253e+000	 4.1608026473e+000	-1.7744713744e-001
 2.0668256687e+000	 3.9972780307e+000	-3.6498723645e-001
 2.0263349401e+000	 4.0179555386e+000	-3.5434102233e-001
 1.9857034249e+000	 4.0381904250e+000	-3.4264607727e-001
 1.9449381662e+000	 4.0579817064e+000	-3.2975375847e-001
 1.9040462023e+000	 4.0773285445e+000	-3.1551415552e-001
 1.8630345624e+000	 4.0962302449e+000	-2.9582206304e-001
 1.8219102636e+000	 4.1146862567e+000	-2.6694646072e-001
 1.7806803072e+000	 4.1326961712e+000	-2.3908602297e-001
 1.7393516748e+000	 4.1502597210e+000	-2.1157539915e-001
 1.6979313258e+000	 4.1673767784e+000	-1.8376485155e-001
 1.6564261930e+000	 4.1840473548e+000	-1.5502123345e-001
 1.5644025157e+000	 3.9516002795e+000	-2.5649156240e-001
 1.5251296703e+000	 3.9669231766e+000	-2.4113823931e-001
 1.4857897608e+000	 3.9818248061e+000	-2.2671694931e-001
 1.4463892427e+000	 3.9963055637e+000	-2.1281947022e-001
 1.4069345349e+000	 4.0103659702e+000	-1.9905144961e-001
 1.3674320163e+000	 4.0240066701e+000	-1.8503297588e-001
 1.3278880237e+000	 4.0372284301e+000	-1.7039910879e-001
 1.2883088488e+000	 4.0500321369e+000	-1.5480036897e-001
 1.2487007353e+000	 4.0624187960e+000	-1.3740477684e-001
 1.2090698765e+000	 4.0743895290e+000	-1.0600850109e-001
 1.1694224131e+000	 4.0859455723e+000	-7.6891809186e-002
 1.5736048834e+000	 3.9748449870e+000	-2.5862161415e-001
 1.5341010213e+000	 3.9902580188e+000	-2.4112760709e-001
 1.4945297006e+000	 4.0052473050e+000	-2.2490081642e-001
 1.4548974148e+000	 4.0198132435e+000	-2.0952746120e-001
 1.4152106204e+000	 4.0339563582e+000	-1.9460751195e-001
 1.3754757340e+000	 4.0476772976e+000	-1.7975527626e-001
 1.3356991298e+000	 4.0609768326e+000	-1.6459994347e-001
 1.2958871362e+000	 4.0738558554e+000	-1.4878608800e-001
 1.2560460337e+000	 4.0863153771e+000	-1.3197413088e-001
 1.2161820523e+000	 4.0983565262e+000	-1.0221556137e-001
 1.1763013684e+000	 4.1099805463e+000	-7.2468008766e-002
 1.5828072511e+000	 3.9980896946e+000	-2.5801970447e-001
 1.5430723723e+000	 4.0135928610e+000	-2.3861368612e-001
 1.5032696403e+000	 4.0286698039e+000	-2.2080448277e-001
 1.4634055868e+000	 4.0433209233e+000	-2.0417256807e-001
 1.4234867059e+000	 4.0575467463e+000	-1.8831205586e-001
 1.3835194518e+000	 4.0713479250e+000	-1.7283130039e-001
 1.3435102358e+000	 4.0847252351e+000	-1.5735345535e-001
 1.3034654235e+000	 4.0976795738e+000	-1.4151699108e-001
 1.2633913321e+000	 4.1102119583e+000	-1.2497616975e-001
 1.2232942280e+000	 4.1223235234e+000	-9.7888201772e-002
 1.1831803238e+000	 4.1340155202e+000	-6.7881305489e-002
 1.5920096189e+000	 4.0213344021e+000	-2.5468882609e-001
 1.5520437233e+000	 4.0369277032e+000	-2.3359862205e-001
 1.5120095801e+000	 4.0520923027e+000	-2.1442931698e-001
 1.4719137588e+000	 4.0668286031e+000	-1.9675545170e-001
 1.4317627914e+000	 4.0811371344e+000	-1.8016510287e-001
 1.3915631695e+000	 4.0950185525e+000	-1.6426049802e-001
 1.3513213418e+000	 4.1084736377e+000	-1.4865858902e-001
 1.3110437108e+000	 4.1215032923e+000	-1.3299158345e-001
 1.2707366306e+000	 4.1341085394e+000	-1.1690743333e-001
 1.2304064038e+000	 4.1462905207e+000	-9.2931464288e-002
 1.1900592792e+000	 4.1580504942e+000	-6.3040222915e-002
 1.6012119866e+000	 4.0445791096e+000	-2.4863102734e-001
 1.5610150743e+000	 4.0602625455e+000	-2.2608366693e-001
 1.5207495199e+000	 4.0755148016e+000	-2.0577584308e-001
 1.4804219308e+000	 4.0903362829e+000	-1.8727597552e-001
 1.4400388769e+000	 4.1047275224e+000	-1.7016592237e-001
 1.3996068873e+000	 4.1186891800e+000	-1.5404161019e-001
 1.3591324478e+000	 4.1322220402e+000	-1.3851362202e-001
 1.3186219982e+000	 4.1453270108e+000	-1.2320774301e-001
 1.2780819290e+000	 4.1580051206e+000	-1.0776546291e-001
 1.2375185795e+000	 4.1702575179e+000	-8.7249837516e-002
 1.1969382346e+000	 4.1820854681e+000	-5.7852765372e-002
 1.6104143544e+000	 4.0678238172e+000	-2.3984743916e-001
 1.5699864253e+000	 4.0835973877e+000	-2.1606920479e-001
 1.5294894596e+000	 4.0989373005e+000	-1.9484376465e-001
 1.4889301028e+000	 4.1138439627e+000	-1.7573322829e-001
 1.4483149624e+000	 4.1283179105e+000	-1.5831305310e-001
 1.4076506050e+000	 4.1423598075e+000	-1.4217268953e-001
 1.3669435539e+000	 4.1559704427e+000	-1.2691618389e-001
 1.3262002855e+000	 4.1691507292e+000	-1.1216273830e-001
 1.2854272275e+000	 4.1819017017e+000	-9.7547227160e-002
 1.2446307552e+000	 4.1942245151e+000	-8.0747272479e-002
 1.2038171899e+000	 4.2061204421e+000	-5.2226432792e-002
 1.6196167221e+000	 4.0910685247e+000	-2.2833830118e-001
 1.5789577763e+000	 4.1069322299e+000	-2.0355477624e-001
 1.5382293994e+000	 4.1223597993e+000	-1.8163198807e-001
 1.4974382748e+000	 4.1373516424e+000	-1.6212554610e-001
 1.4565910479e+000	 4.1519082985e+000	-1.4460432392e-001
 1.4156943227e+000	 4.1660304349e+000	-1.2865111982e-001
 1.3747546599e+000	 4.1797188453e+000	-1.1386327457e-001
 1.3337785729e+000	 4.1929744477e+000	-9.9853245773e-002
 1.2927725259e+000	 4.2057982829e+000	-8.6249138483e-002
 1.2517429310e+000	 4.2181915124e+000	-7.2695191555e-002
 1.2106961453e+000	 4.2301554161e+000	-4.6068235035e-002
 1.6288190898e+000	 4.1143132322e+000	-2.1410298686e-001
 1.5879291273e+000	 4.1302670721e+000	-1.8853910235e-001
 1.5469693392e+000	 4.1457822982e+000	-1.6613864513e-001
 1.5059464469e+000	 4.1608593222e+000	-1.4645053367e-001
 1.4648671334e+000	 4.1754986866e+000	-1.2903687382e-001
 1.4237380405e+000	 4.1897010624e+000	-1.1347363484e-001
 1.3825657659e+000	 4.2034672478e+000	-9.9351282181e-002
 1.3413568602e+000	 4.2167981661e+000	-8.6275366556e-002
 1.3001178244e+000	 4.2296948641e+000	-7.3867068669e-002
 1.2588551067e+000	 4.2421585096e+000	-6.1763699323e-002
 1.2175751007e+000	 4.2541903900e+000	-3.9284705739e-002
 1.6380214576e+000	 4.1375579397e+000	-1.9714002783e-001
 1.5969004783e+000	 4.1536019143e+000	-1.7102010766e-001
 1.5557092789e+000	 4.1692047970e+000	-1.4836111471e-001
 1.5144546189e+000	 4.1843670020e+000	-1.2870508485e-001
 1.4731432189e+000	 4.1990890747e+000	-1.1160717138e-001
 1.4317817582e+000	 4.2133716899e+000	-9.6636336675e-002
 1.3903768719e+000	 4.2272156503e+000	-8.3376000254e-002
 1.3489351476e+000	 4.2406218846e+000	-7.1424642573e-002
 1.3074631228e+000	 4.2535914452e+000	-6.0396364101e-002
 1.2659672825e+000	 4.2661255068e+000	-4.9921399234e-002
 1.2244540561e+000	 4.2782253640e+000	-3.1781915692e-002
 1.6472238253e+000	 4.1608026473e+000	-1.7744713744e-001
 1.6058718293e+000	 4.1769367565e+000	-1.5099494240e-001
 1.5644492187e+000	 4.1926272959e+000	-1.2829604384e-001
 1.5229627909e+000	 4.2078746818e+000	-1.0888540250e-001
 1.4814193044e+000	 4.2226794627e+000	-9.2311033406e-002
 1.4398254760e+000	 4.2370423173e+000	-7.8134713336e-002
 1.3981879779e+000	 4.2509640528e+000	-6.5932644286e-002
 1.3565134349e+000	 4.2644456030e+000	-5.5296072191e-002
 1.3148084213e+000	 4.2774880264e+000	-4.5831860433e-002
 1.2730794582e+000	 4.2900925040e+000	-3.7163017695e-002
 1.2313330114e+000	 4.3022603379e+000	-2.3465485766e-002
 1.6564261930e+000	 4.1840473548e+000	-1.5502123345e-001
 1.6148431803e+000	 4.2002715988e+000	-1.2846000402e-001
 1.5731891585e+000	 4.2160497947e+000	-1.0593936805e-001
 1.5314709629e+000	 4.2313823616e+000	-8.6987017700e-002
 1.4896953899e+000	 4.2462698508e+000	-7.1143643105e-002
 1.4478691937e+000	 4.2607129448e+000	-5.7963655823e-002
 1.4059990840e+000	 4.2747124554e+000	-4.7015867826e-002
 1.3640917223e+000	 4.2882693215e+000	-3.7884125311e-002
 1.3221537197e+000	 4.3013846075e+000	-3.0167896773e-002
 1.2801916340e+000	 4.3140595013e+000	-2.3482814914e-002
 1.2382119668e+000	 4.3262953119e+000	-1.4240599409e-002
 1.1694224131e+000	 4.0859455723e+000	-7.6891809186e-002
 1.1297644301e+000	 4.0970882749e+000	-6.1817752709e-002
 1.0901019551e+000	 4.1078190963e+000	-4.9097438862e-002
 1.0504409556e+000	 4.1181396041e+000	-3.8048506582e-002
 1.0107873370e+000	 4.1280514725e+000	-2.8031383687e-002
 9.7114694021e-001	 4.1375564794e+000	-1.8450169659e-002
 9.3152554013e-001	 4.1466565047e+000	-8.7534002970e-003
 8.9192884318e-001	 4.1553535275e+000	 1.5653049459e-003
 8.5236248567e-001	 4.1636496242e+000	 1.2966711776e-002
 8.1283203195e-001	 4.1715469658e+000	 2.5865554601e-002
 7.7334297274e-001	 4.1790478158e+000	 4.0630233060e-002
 1.1763013684e+000	 4.1099805463e+000	-7.2468008766e-002
 1.1364101032e+000	 4.1211887942e+000	-5.5881808179e-002
 1.0965143196e+000	 4.1319827380e+000	-4.2051242162e-002
 1.0566200201e+000	 4.1423639547e+000	-3.0282291673e-002
 1.0167331448e+000	 4.1523341282e+000	-1.9923971689e-002
 9.7685956928e-001	 4.1618950470e+000	-1.0369240289e-002
 9.3700510214e-001	 4.1710486018e+000	-1.0557879270e-003
 8.9717548344e-001	 4.1797967836e+000	 8.5332922602e-003
 8.5737638264e-001	 4.1881416808e+000	 1.8868951992e-002
 8.1761339685e-001	 4.1960854774e+000	 3.0375751779e-002
 7.7789204906e-001	 4.2036304500e+000	 4.3431539540e-002
 1.1831803238e+000	 4.1340155202e+000	-6.7881305489e-002
 1.1430557764e+000	 4.1452893135e+000	-5.0394125527e-002
 1.1029266840e+000	 4.1561463797e+000	-3.6049172993e-002
 1.0627990845e+000	 4.1665883053e+000	-2.4140272579e-002
 1.0226789527e+000	 4.1766167839e+000	-1.4004549935e-002
 9.8257219834e-001	 4.1862336145e+000	-5.0233673559e-003
 9.4248466414e-001	 4.1954406989e+000	 3.3768620289e-003
 9.0242212370e-001	 4.2042400396e+000	 1.1723980758e-002
 8.6239027962e-001	 4.2126337374e+000	 2.0499513096e-002
 8.2239476175e-001	 4.2206239889e+000	 3.0138209216e-002
 7.8244112537e-001	 4.2282130842e+000	 4.1027705777e-002
 1.1900592792e+000	 4.1580504942e+000	-6.3040222915e-002
 1.1497014495e+000	 4.1693898327e+000	-4.5262404171e-002
 1.1093390485e+000	 4.1803100215e+000	-3.0998210338e-002
 1.0689781490e+000	 4.1908126559e+000	-1.9528808961e-002
 1.0286247606e+000	 4.2008994397e+000	-1.0178957283e-002
 9.8828482740e-001	 4.2105721820e+000	-2.3179648677e-003
 9.4796422615e-001	 4.2198327960e+000	 4.6394670286e-003
 9.0766876395e-001	 4.2286832957e+000	 1.1232528515e-002
 8.6740417660e-001	 4.2371257940e+000	 1.7953705451e-002
 8.2717612664e-001	 4.2451625005e+000	 2.5248303720e-002
 7.8699020168e-001	 4.2527957184e+000	 3.3514091645e-002
 1.1969382346e+000	 4.1820854681e+000	-5.7852765372e-002
 1.1563471226e+000	 4.1934903520e+000	-4.0393956386e-002
 1.1157514129e+000	 4.2044736632e+000	-2.6805074610e-002
 1.0751572134e+000	 4.2150370066e+000	-1.6354126932e-002
 1.0345705684e+000	 4.2251820954e+000	-8.3530204981e-003
 9.9399745647e-001	 4.2349107496e+000	-2.1585525847e-003
 9.5344378815e-001	 4.2442248931e+000	 2.8267245446e-003
 9.1291540421e-001	 4.2531265517e+000	 7.1537630243e-003
 8.7241807358e-001	 4.2616178507e+000	 1.1326401894e-002
 8.3195749154e-001	 4.2697010121e+000	 1.5800871297e-002
 7.9153927800e-001	 4.2773783526e+000	 2.0985416624e-002
 1.2038171899e+000	 4.2061204421e+000	-5.2226432792e-002
 1.1629927957e+000	 4.2175908713e+000	-3.5695718369e-002
 1.1221637773e+000	 4.2286373050e+000	-2.3376235041e-002
 1.0813362778e+000	 4.2392613572e+000	-1.4522322877e-002
 1.0405163763e+000	 4.2494647511e+000	-8.4325545892e-003
 9.9971008553e-001	 4.2592493171e+000	-4.4507529986e-003
 9.5892335015e-001	 4.2686169902e+000	-1.9668816501e-003
 9.1816204446e-001	 4.2775698078e+000	-4.1780935379e-004
 8.7743197055e-001	 4.2861099073e+000	 7.1205024151e-004
 8.3673885643e-001	 4.2942395236e+000	 1.8902226087e-003
 7.9608835431e-001	 4.3019609868e+000	 3.5357780949e-003
 1.2106961453e+000	 4.2301554161e+000	-4.6068235035e-002
 1.1696384688e+000	 4.2416913905e+000	-3.1074260923e-002
 1.1285761418e+000	 4.2528009467e+000	-2.0617916820e-002
 1.0875153423e+000	 4.2634857078e+000	-1.3939367134e-002
 1.0464621842e+000	 4.2737474068e+000	-1.0323363149e-002
 1.0054227146e+000	 4.2835878846e+000	-9.1002884139e-003
 9.6440291215e-001	 4.2930090873e+000	-9.6470754112e-003
 9.2340868472e-001	 4.3020130638e+000	-1.1387994272e-002
 8.8244586753e-001	 4.3106019639e+000	-1.3795314639e-002
 8.4152022133e-001	 4.3187780352e+000	-1.6389842106e-002
 8.0063743062e-001	 4.3265436210e+000	-1.8741330990e-002
 1.2175751007e+000	 4.2541903900e+000	-3.9284705739e-002
 1.1762841420e+000	 4.2657919098e+000	-2.6435799774e-002
 1.1349885062e+000	 4.2769645885e+000	-1.8436107981e-002
 1.0936944067e+000	 4.2877100584e+000	-1.4511107557e-002
 1.0524079920e+000	 4.2980300625e+000	-1.3931238674e-002
 1.0111353436e+000	 4.3079264521e+000	-1.6012978128e-002
 9.6988247415e-001	 4.3174011843e+000	-2.0119782358e-002
 9.2865532497e-001	 4.3264563199e+000	-2.5662900582e-002
 8.8745976450e-001	 4.3350940205e+000	-3.2102059162e-002
 8.4630158622e-001	 4.3433165468e+000	-3.8946018612e-002
 8.0518650693e-001	 4.3511262553e+000	-4.5753005027e-002
 1.2244540561e+000	 4.2782253640e+000	-3.1781915692e-002
 1.1829298151e+000	 4.2898924291e+000	-2.1686205552e-002
 1.1414008707e+000	 4.3011282302e+000	-1.6736566071e-002
 1.0998734712e+000	 4.3119344090e+000	-1.6143272956e-002
 1.0583537999e+000	 4.3223127183e+000	-1.9161962876e-002
 1.0168479727e+000	 4.3322650197e+000	-2.5094735709e-002
 9.7536203615e-001	 4.3417932814e+000	-3.3291124207e-002
 9.3390196523e-001	 4.3508995759e+000	-4.3148931816e-002
 8.9247366148e-001	 4.3595860771e+000	-5.4114939751e-002
 8.5108295112e-001	 4.3678550583e+000	-6.5685484748e-002
 8.0973558324e-001	 4.3757088895e+000	-7.4174815501e-002
 1.2313330114e+000	 4.3022603379e+000	-2.3465485766e-002
 1.1895754882e+000	 4.3139929483e+000	-1.6731013424e-002
 1.1478132351e+000	 4.3252918719e+000	-1.5424824584e-002
 1.1060525356e+000	 4.3361587596e+000	-1.8741476425e-002
 1.0642996077e+000	 4.3465953740e+000	-2.5921306986e-002
 1.0225606018e+000	 4.3566035872e+000	-3.6251566357e-002
 9.8084159815e-001	 4.3661853785e+000	-4.9067413291e-002
 9.3914860548e-001	 4.3753428319e+000	-6.2057673232e-002
 8.9748755845e-001	 4.3840781337e+000	-3.5603021048e-002
 8.5586431601e-001	 4.3923935699e+000	-1.3728977581e-002
 8.1428465955e-001	 4.4002915237e+000	 3.6682677146e-003
 1.2382119668e+000	 4.3262953119e+000	-1.4240599409e-002
 1.1962211613e+000	 4.3380934676e+000	-1.1475432419e-002
 1.1542255995e+000	 4.3494555137e+000	-1.4406199186e-002
 1.1122316001e+000	 4.3603831102e+000	-2.2211218549e-002
 1.0702454156e+000	 4.3708780297e+000	-3.4115032040e-002
 1.0282732308e+000	 4.3809421547e+000	-1.9114770888e-002
 9.8632116015e-001	 4.3905774756e+000	 1.1447890315e-002
 9.4439524573e-001	 4.3997860880e+000	 3.6616971466e-002
 9.0250145542e-001	 4.4085701903e+000	 5.6500124239e-002
 8.6064568090e-001	 4.4169320814e+000	 7.1200105522e-002
 8.1883373586e-001	 4.4248741579e+000	 8.0815000393e-002
 7.7334297274e-001	 4.1790478158e+000	 4.0630233060e-002
 7.3390072346e-001	 4.1861545275e+000	 8.1973469739e-002
 6.9451062271e-001	 4.1928695419e+000	 1.2305074136e-001
 6.5517793079e-001	 4.1991953847e+000	 1.6407619117e-001
 6.1590782834e-001	 4.2051346646e+000	 1.9442503661e-001
 5.7670541504e-001	 4.2106900698e+000	 1.8776671655e-001
 5.3757570840e-001	 4.2158643666e+000	 1.7931747331e-001
 4.9852364261e-001	 4.2206603959e+000	 1.6940498099e-001
 4.5955406749e-001	 4.2250810713e+000	 1.5827697974e-001
 4.2067174755e-001	 4.2291293762e+000	 1.4610599459e-001
 3.8188136106e-001	 4.2328083616e+000	 1.3299403194e-001
 7.7789204906e-001	 4.2036304500e+000	 4.3431539540e-002
 7.3821778655e-001	 4.2107789659e+000	 8.2360561681e-002
 6.9859597932e-001	 4.2175334803e+000	 1.2158467965e-001
 6.5903191862e-001	 4.2238965340e+000	 1.6131950355e-001
 6.1953081557e-001	 4.2298707508e+000	 1.9477165694e-001
 5.8009779984e-001	 4.2354588350e+000	 1.8464233224e-001
 5.4073791845e-001	 4.2406635688e+000	 1.7368075334e-001
 5.0145613463e-001	 4.2454878100e+000	 1.6216584584e-001
 4.6225732672e-001	 4.2499344894e+000	 1.5029548397e-001
 4.2314628725e-001	 4.2540066078e+000	 1.3819133777e-001
 3.8412772201e-001	 4.2577072343e+000	 1.2590369589e-001
 7.8244112537e-001	 4.2282130842e+000	 4.1027705777e-002
 7.4253484963e-001	 4.2354034043e+000	 7.7140777220e-002
 7.0268133592e-001	 4.2421974188e+000	 1.1411918342e-001
 6.6288590645e-001	 4.2485976834e+000	 1.5218035158e-001
 6.2315380280e-001	 4.2546068371e+000	 1.8903721063e-001
 5.8349018464e-001	 4.2602276001e+000	 1.7609625586e-001
 5.4390012851e-001	 4.2654627709e+000	 1.6330306897e-001
 5.0438862665e-001	 4.2703152241e+000	 1.5088679461e-001
 4.6496058594e-001	 4.2747879074e+000	 1.3899439684e-001
 4.2562082694e-001	 4.2788838395e+000	 1.2769563636e-001
 3.8637408296e-001	 4.2826061070e+000	 1.1698802154e-001
 7.8699020168e-001	 4.2527957184e+000	 3.3514091645e-002
 7.4685191271e-001	 4.2600278427e+000	 6.6408742163e-002
 7.0676669253e-001	 4.2668613573e+000	 1.0074824090e-001
 6.6673989428e-001	 4.2732988327e+000	 1.3675218337e-001
 6.2677679003e-001	 4.2793429233e+000	 1.7459318009e-001
 5.8688256944e-001	 4.2849963652e+000	 1.6193876703e-001
 5.4706233856e-001	 4.2902619731e+000	 1.4801301175e-001
 5.0732111866e-001	 4.2951426382e+000	 1.3541492413e-001
 4.6766384517e-001	 4.2996413255e+000	 1.2423950117e-001
 4.2809536664e-001	 4.3037610711e+000	 1.1450352736e-001
 3.8862044392e-001	 4.3075049798e+000	 1.0615065576e-001
 7.9153927800e-001	 4.2773783526e+000	 2.0985416624e-002
 7.5116897579e-001	 4.2846522811e+000	 5.0258360639e-002
 7.1085204914e-001	 4.2915252958e+000	 8.1565037017e-002
 6.7059388211e-001	 4.2979999820e+000	 1.1512756183e-001
 6.3039977725e-001	 4.3040790096e+000	 1.5111996387e-001
 5.9027495423e-001	 4.3097651303e+000	 1.4197909560e-001
 5.5022454861e-001	 4.3150611753e+000	 1.2763804091e-001
 5.1025361068e-001	 4.3199700523e+000	 1.1559611616e-001
 4.7036710439e-001	 4.3244947436e+000	 1.0589528190e-001
 4.3056990634e-001	 4.3286383027e+000	 9.8498266999e-002
 3.9086680487e-001	 4.3324038525e+000	 9.3293781622e-002
 7.9608835431e-001	 4.3019609868e+000	 3.5357780949e-003
 7.5548603887e-001	 4.3092767195e+000	 2.8782835713e-002
 7.1493740575e-001	 4.3161892343e+000	 5.6661976355e-002
 6.7444786994e-001	 4.3227011313e+000	 8.7398189968e-002
 6.3402276448e-001	 4.3288150959e+000	 1.2116725800e-001
 5.9366733903e-001	 4.3345338954e+000	 1.1602545168e-001
 5.5338675867e-001	 4.3398603774e+000	 1.0200451570e-001
 5.1318610270e-001	 4.3447974664e+000	 9.1275072110e-002
 4.7307036361e-001	 4.3493481616e+000	 8.3824963134e-002
 4.3304444603e-001	 4.3535155343e+000	 7.9561770111e-002
 3.9311316582e-001	 4.3573027252e+000	 7.8318160238e-002
 8.0063743062e-001	 4.3265436210e+000	-1.8741330990e-002
 7.5980310196e-001	 4.3339011579e+000	 2.0746893054e-003
 7.1902276235e-001	 4.3408531727e+000	 2.6130705326e-002
 6.7830185777e-001	 4.3474022807e+000	 5.3654935295e-002
 6.3764575171e-001	 4.3535511821e+000	 8.4825248676e-002
 5.9705972383e-001	 4.3593026605e+000	 8.3885054564e-002
 5.5654896872e-001	 4.3646595796e+000	 7.0937726627e-002
 5.1611859472e-001	 4.3696248805e+000	 6.2295346605e-002
 4.7577362284e-001	 4.3742015797e+000	 5.7890544012e-002
 4.3551898573e-001	 4.3783927660e+000	 6.5285772976e-002
 3.9535952677e-001	 4.3822015979e+000	 7.4989884771e-002
 8.0518650693e-001	 4.3511262553e+000	-4.5753005027e-002
 7.6412016504e-001	 4.3585255963e+000	-2.9774218569e-002
 7.2310811896e-001	 4.3655171112e+000	-9.9378664204e-003
 6.8215584560e-001	 4.3721034300e+000	 1.3987853445e-002
 6.4126873894e-001	 4.3782872684e+000	 5.4495460469e-002
 6.0045210862e-001	 4.3840714257e+000	 7.7172447204e-002
 5.5971117877e-001	 4.3894587817e+000	 8.1073167635e-002
 5.1905108674e-001	 4.3944522946e+000	 8.5722014281e-002
 4.7847688206e-001	 4.3990549978e+000	 9.0977208256e-002
 4.3799352542e-001	 4.4032699976e+000	 9.6694584002e-002
 3.9760588772e-001	 4.4071004706e+000	 1.0272747600e-001
 8.0973558324e-001	 4.3757088895e+000	-7.4174815501e-002
 7.6843722812e-001	 4.3831500347e+000	-3.0722468595e-002
 7.2719347556e-001	 4.3901810497e+000	 1.2953520389e-002
 6.8600983343e-001	 4.3968045793e+000	 5.6880421449e-002
 6.4489172617e-001	 4.4030233546e+000	 1.0107860825e-001
 6.0384449342e-001	 4.4088401908e+000	 1.2201744850e-001
 5.6287338882e-001	 4.4142579839e+000	 1.2164109143e-001
 5.2198357876e-001	 4.4192797087e+000	 1.2211002396e-001
 4.8118014128e-001	 4.4239084158e+000	 1.2327718794e-001
 4.4046806511e-001	 4.4281472292e+000	 1.2499309363e-001
 3.9985224867e-001	 4.4319993433e+000	 1.2710570746e-001
 8.1428465955e-001	 4.4002915237e+000	 3.6682677146e-003
 7.7275429120e-001	 4.4077744731e+000	 3.8769714661e-002
 7.3127883217e-001	 4.4148449882e+000	 7.4251103025e-002
 6.8986382126e-001	 4.4215057286e+000	 1.1012944276e-001
 6.4851471339e-001	 4.4277594409e+000	 1.4641479529e-001
 6.0723687822e-001	 4.4336089559e+000	 1.6482146703e-001
 5.6603559887e-001	 4.4390571860e+000	 1.5991707228e-001
 5.2491607077e-001	 4.4441071228e+000	 1.5595571338e-001
 4.8388340051e-001	 4.4487618339e+000	 1.5278523235e-001
 4.4294260481e-001	 4.4530244608e+000	 1.5025099065e-001
 4.0209860962e-001	 4.4568982160e+000	 1.4819575783e-001
 8.1883373586e-001	 4.4248741579e+000	 8.0815000393e-002
 7.7707135428e-001	 4.4323989115e+000	 1.0743153393e-001
 7.3536418877e-001	 4.4395089267e+000	 1.3458518596e-001
 6.9371780909e-001	 4.4462068779e+000	 1.6228272073e-001
 6.5213770062e-001	 4.4524955272e+000	 1.9052389967e-001
 6.1062926301e-001	 4.4583777210e+000	 2.0564749027e-001
 5.6919780892e-001	 4.4638563882e+000	 1.9596546048e-001
 5.2784856279e-001	 4.4689345369e+000	 1.8732481021e-001
 4.8658665973e-001	 4.4736152520e+000	 1.7956846097e-001
 4.4541714450e-001	 4.4779016925e+000	 1.7253680060e-001
 4.0434497057e-001	 4.4817970888e+000	 1.6606757266e-001
 3.8188136106e-001	 4.2328083616e+000	 1.3299403194e-001
 3.4318749924e-001	 4.2361211433e+000	 1.2882816964e-001
 3.0459466554e-001	 4.2390708994e+000	 1.2644795825e-001
 2.6610727498e-001	 4.2416608679e+000	 1.2567085639e-001
 2.2772965353e-001	 4.2438943442e+000	 1.2626201157e-001
 1.8946603763e-001	 4.2457746785e+000	 1.2793878398e-001
 1.5132057376e-001	 4.2473052732e+000	 1.3037518688e-001
 1.1329731804e-001	 4.2484895807e+000	 1.3320623590e-001
 7.5400235934e-002	 4.2493311008e+000	 1.3603219993e-001
 3.7633202065e-002	 4.2498333782e+000	 1.3842274689e-001
 0.0000000000e+000	 4.2500000000e+000	 1.3992097839e-001
 3.8412772201e-001	 4.2577072343e+000	 1.2590369589e-001
 3.4520624924e-001	 4.2610395029e+000	 1.2161429255e-001
 3.0638639888e-001	 4.2640066105e+000	 1.1960463857e-001
 2.6767261190e-001	 4.2666118142e+000	 1.1964814797e-001
 2.2906923973e-001	 4.2688584286e+000	 1.2146547636e-001
 1.9058054374e-001	 4.2707498237e+000	 1.2472915153e-001
 1.5221069479e-001	 4.2722894219e+000	 1.2906811789e-001
 1.1396377285e-001	 4.2734806959e+000	 1.3407218696e-001
 7.5843766737e-002	 4.2743271661e+000	 1.3929638640e-001
 3.7854573843e-002	 4.2748323980e+000	 1.4426520087e-001
 0.0000000000e+000	 4.2750000000e+000	 1.4847669852e-001
 3.8637408296e-001	 4.2826061070e+000	 1.1698802154e-001
 3.4722499924e-001	 4.2859578626e+000	 1.1353533840e-001
 3.0817813221e-001	 4.2889423217e+000	 1.1287281742e-001
 2.6923794881e-001	 4.2915627605e+000	 1.1472866478e-001
 2.3040882593e-001	 4.2938225130e+000	 1.1877788046e-001
 1.9169504985e-001	 4.2957249688e+000	 1.2464699718e-001
 1.5310081581e-001	 4.2972735706e+000	 1.3191873064e-001
 1.1463022767e-001	 4.2984718111e+000	 1.4013653268e-001
 7.6287297539e-002	 4.2993232314e+000	 1.4880904009e-001
 3.8075945621e-002	 4.2998314179e+000	 1.5741441196e-001
 0.0000000000e+000	 4.3000000000e+000	 1.6540454942e-001
 3.8862044392e-001	 4.3075049798e+000	 1.0615065576e-001
 3.4924374924e-001	 4.3108762223e+000	 1.0451083887e-001
 3.0996986554e-001	 4.3138780329e+000	 1.0618801937e-001
 2.7080328573e-001	 4.3165137067e+000	 1.1086402154e-001
 2.3174841213e-001	 4.3187865974e+000	 1.1816701506e-001
 1.9280955596e-001	 4.3207001140e+000	 1.2767636417e-001
 1.5399093684e-001	 4.3222577192e+000	 1.3892738523e-001
 1.1529668248e-001	 4.3234629263e+000	 1.5141600426e-001
 7.6730828340e-002	 4.3243192967e+000	 1.6460330696e-001
 3.8297317399e-002	 4.3248304378e+000	 1.7791997411e-001
 0.0000000000e+000	 4.3250000000e+000	 1.9077059602e-001
 3.9086680487e-001	 4.3324038525e+000	 9.3293781622e-002
 3.5126249924e-001	 4.3357945819e+000	 9.4458853938e-002
 3.1176159887e-001	 4.3388137440e+000	 9.9484290036e-002
 2.7236862265e-001	 4.3414646530e+000	 1.0800434722e-001
 2.3308799833e-001	 4.3437506817e+000	 1.1959917936e-001
 1.9392406206e-001	 4.3456752592e+000	 1.3379979799e-001
 1.5488105786e-001	 4.3472418679e+000	 1.5009293881e-001
 1.1596313730e-001	 4.3484540415e+000	 1.6792582520e-001
 7.7174359142e-002	 4.3493153620e+000	 1.8671082105e-001
 3.8518689177e-002	 4.3498294576e+000	 2.0582996570e-001
 0.0000000000e+000	 4.3500000000e+000	 2.2463938449e-001
 3.9311316582e-001	 4.3573027252e+000	 7.8318160238e-002
 3.5328124924e-001	 4.3607129416e+000	 8.3296014023e-002
 3.1355333220e-001	 4.3637494552e+000	 9.2694238306e-002
 2.7393395956e-001	 4.3664155993e+000	 1.0609832743e-001
 2.3442758453e-001	 4.3687147661e+000	 1.2303922311e-001
 1.9503856817e-001	 4.3706504043e+000	 1.4299838913e-001
 1.5577117889e-001	 4.3722260166e+000	 1.6541278844e-001
 1.1662959211e-001	 4.3734451567e+000	 1.8967975437e-001
 7.7617889943e-002	 4.3743114273e+000	 2.1516174773e-001
 3.8740060954e-002	 4.3748284775e+000	 2.4119099285e-001
 0.0000000000e+000	 4.3750000000e+000	 2.6707398569e-001
 3.9535952677e-001	 4.3822015979e+000	 7.4989884771e-002
 3.5529999924e-001	 4.3856313013e+000	 8.7482049580e-002
 3.1534506553e-001	 4.3886851664e+000	 1.0170707883e-001
 2.7549929647e-001	 4.3913665456e+000	 1.1747103969e-001
 2.3576717073e-001	 4.3936788505e+000	 1.3457671257e-001
 1.9615307428e-001	 4.3956255495e+000	 1.5282361044e-001
 1.5666129991e-001	 4.3972101652e+000	 1.7200801265e-001
 1.1729604692e-001	 4.3984362718e+000	 1.9192301280e-001
 7.8061420743e-002	 4.3993074926e+000	 2.1235858011e-001
 3.8961432732e-002	 4.3998274974e+000	 2.3310163393e-001
 0.0000000000e+000	 4.4000000000e+000	 2.5393613082e-001
 3.9760588772e-001	 4.4071004706e+000	 1.0272747600e-001
 3.5731874924e-001	 4.4105496609e+000	 1.1105328709e-001
 3.1713679886e-001	 4.4136208776e+000	 1.2103046917e-001
 2.7706463339e-001	 4.4163174919e+000	 1.3246846658e-001
 2.3710675693e-001	 4.4186429349e+000	 1.4517334073e-001
 1.9726758038e-001	 4.4206006947e+000	 1.5894778468e-001
 1.5755142094e-001	 4.4221943139e+000	 1.7359115262e-001
 1.1796250174e-001	 4.4234273870e+000	 1.8889950378e-001
 7.8504951544e-002	 4.4243035579e+000	 2.0466566036e-001
 3.9182804509e-002	 4.4248265173e+000	 2.2067927894e-001
 0.0000000000e+000	 4.4250000000e+000	 2.3672693482e-001
 3.9985224867e-001	 4.4319993433e+000	 1.2710570746e-001
 3.5933749924e-001	 4.4354680206e+000	 1.3118730876e-001
 3.1892853219e-001	 4.4385565887e+000	 1.3684138181e-001
 2.7862997030e-001	 4.4412684381e+000	 1.4388082798e-001
 2.3844634313e-001	 4.4436070192e+000	 1.5211506551e-001
 1.9838208649e-001	 4.4455758398e+000	 1.6135003931e-001
 1.5844154196e-001	 4.4471784626e+000	 1.7138824608e-001
 1.1862895655e-001	 4.4484185022e+000	 1.8202877428e-001
 7.8948482344e-002	 4.4492996232e+000	 1.9306735860e-001
 3.9404176286e-002	 4.4498255371e+000	 2.0429644818e-001
 0.0000000000e+000	 4.4500000000e+000	 2.1550528836e-001
 4.0209860962e-001	 4.4568982160e+000	 1.4819575783e-001
 3.6135624923e-001	 4.4603863803e+000	 1.4795394874e-001
 3.2072026552e-001	 4.4634922999e+000	 1.4920830023e-001
 2.8019530721e-001	 4.4662193844e+000	 1.5177525158e-001
 2.3978592933e-001	 4.4685711036e+000	 1.5546765467e-001
 1.9949659259e-001	 4.4705509850e+000	 1.6009477899e-001
 1.5933166298e-001	 4.4721626112e+000	 1.6546233241e-001
 1.1929541136e-001	 4.4734096174e+000	 1.7137249717e-001
 7.9392013143e-002	 4.4742956885e+000	 1.7762398079e-001
 3.9625548063e-002	 4.4748245570e+000	 1.8401208129e-001
 0.0000000000e+000	 4.4750000000e+000	 1.9032876611e-001
 4.0434497057e-001	 4.4817970888e+000	 1.6606757266e-001
 3.6337499923e-001	 4.4853047399e+000	 1.6142180141e-001
 3.2251199884e-001	 4.4884280111e+000	 1.5819846197e-001
 2.8176064413e-001	 4.4911703307e+000	 1.5621761338e-001
 2.4112551553e-001	 4.4935351880e+000	 1.5529561899e-001
 2.0061109869e-001	 4.4955261302e+000	 1.5524514660e-001
 1.6022178400e-001	 4.4971467599e+000	 1.5587518483e-001
 1.1996186617e-001	 4.4984007326e+000	 1.5699107514e-001
 7.9835543943e-002	 4.4992917538e+000	 1.5839455923e-001
 3.9846919840e-002	 4.4998235769e+000	 1.5988384109e-001
 0.0000000000e+000	 4.5000000000e+000	 1.6125366332e-001
 4.5000000000e+000	 0.0000000000e+000	 4.1992482242e-001
 4.4998235769e+000	 3.9846919840e-002	 4.4073122265e-001
 4.4992917538e+000	 7.9835543943e-002	 4.5827848347e-001
 4.4984007326e+000	 1.1996186617e-001	 4.7259418320e-001
 4.4971467599e+000	 1.6022178400e-001	 4.8372152172e-001
 4.4955261302e+000	 2.0061109869e-001	 4.9171974976e-001
 4.4935351880e+000	 2.4112551553e-001	 4.9666458107e-001
 4.4911703307e+000	 2.8176064413e-001	 4.9864858618e-001
 4.4884280111e+000	 3.2251199884e-001	 4.9778156607e-001
 4.4853047399e+000	 3.6337499923e-001	 4.9419090434e-001
 4.4817970888e+000	 4.0434497057e-001	 4.8802189615e-001
 4.5250000000e+000	 0.0000000000e+000	 4.3534313202e-001
 4.5248225967e+000	 4.0068291616e-002	 4.5400747133e-001
 4.5242878191e+000	 8.0279074742e-002	 4.6957167466e-001
 4.5233918477e+000	 1.2062832098e-001	 4.8207080034e-001
 4.5221309085e+000	 1.6111190503e-001	 4.9155573740e-001
 4.5205012753e+000	 2.0172560480e-001	 4.9809363416e-001
 4.5184992724e+000	 2.4246510172e-001	 5.0176830933e-001
 4.5161212770e+000	 2.8332598104e-001	 5.0268064419e-001
 4.5133637222e+000	 3.2430373217e-001	 5.0094895422e-001
 4.5102230996e+000	 3.6539374923e-001	 4.9670933878e-001
 4.5066959615e+000	 4.0659133152e-001	 4.9011600712e-001
 4.5500000000e+000	 0.0000000000e+000	 4.4999303440e-001
 4.5498216166e+000	 4.0289663393e-002	 4.6657837512e-001
 4.5492838844e+000	 8.0722605541e-002	 4.8021646137e-001
 4.5483829629e+000	 1.2129477580e-001	 4.9094975492e-001
 4.5471150572e+000	 1.6200202605e-001	 4.9883676194e-001
 4.5454764205e+000	 2.0284011090e-001	 5.0395246101e-001
 4.5434633567e+000	 2.4380468792e-001	 5.0638871335e-001
 4.5410722233e+000	 2.8489131795e-001	 5.0625465351e-001
 4.5382994334e+000	 3.2609546550e-001	 5.0367705926e-001
 4.5351414592e+000	 3.6741249922e-001	 4.9880069883e-001
 4.5315948342e+000	 4.0883769246e-001	 4.9178865414e-001
 4.5750000000e+000	 0.0000000000e+000	 4.6388528707e-001
 4.5748206365e+000	 4.0511035169e-002	 4.7845294712e-001
 4.5742799497e+000	 8.1166136340e-002	 4.9022013172e-001
 4.5733740781e+000	 1.2196123061e-001	 4.9923663049e-001
 4.5720992059e+000	 1.6289214707e-001	 5.0556849565e-001
 4.5704515657e+000	 2.0395461700e-001	 5.0929846971e-001
 4.5684274411e+000	 2.4514427412e-001	 5.1052639485e-001
 4.5660231695e+000	 2.8645665486e-001	 5.0936960251e-001
 4.5632351446e+000	 3.2788719882e-001	 5.0596328146e-001
 4.5600598189e+000	 3.6943124922e-001	 5.0046082296e-001
 4.5564937069e+000	 4.1108405341e-001	 4.9303414131e-001
 4.6000000000e+000	 0.0000000000e+000	 4.7703041367e-001
 4.5998196564e+000	 4.0732406946e-002	 4.8964000010e-001
 4.5992760150e+000	 8.1609667139e-002	 4.9958980606e-001
 4.5983651933e+000	 1.2262768542e-001	 5.0693687430e-001
 4.5970833545e+000	 1.6378226809e-001	 5.1175473296e-001
 4.5954267108e+000	 2.0506912311e-001	 5.1413382302e-001
 4.5933915255e+000	 2.4648386031e-001	 5.1418190714e-001
 4.5909741158e+000	 2.8802199177e-001	 5.1202445811e-001
 4.5881708558e+000	 3.2967893215e-001	 5.0780502552e-001
 4.5849781786e+000	 3.7144999921e-001	 5.0168557879e-001
 4.5813925796e+000	 4.1333041436e-001	 4.9384682527e-001
 4.6250000000e+000	 0.0000000000e+000	 4.8943871033e-001
 4.6248186762e+000	 4.0953778723e-002	 5.0014815196e-001
 4.6242720803e+000	 8.2053197938e-002	 5.0833244149e-001
 4.6233563085e+000	 1.2329414023e-001	 5.1405580099e-001
 4.6220675032e+000	 1.6467238911e-001	 5.1739916524e-001
 4.6204018560e+000	 2.0618362921e-001	 5.1846060919e-001
 4.6183556099e+000	 2.4782344651e-001	 5.1735575636e-001
 4.6159250621e+000	 2.8958732868e-001	 5.1421816642e-001
 4.6131065669e+000	 3.3147066547e-001	 5.0919970046e-001
 4.6098965382e+000	 3.7346874920e-001	 5.0247086223e-001
 4.6062914523e+000	 4.1557677530e-001	 4.9422111380e-001
 4.6500000000e+000	 0.0000000000e+000	 5.0112025172e-001
 4.6498176961e+000	 4.1175150499e-002	 5.0998583095e-001
 4.6492681456e+000	 8.2496728737e-002	 5.1645483627e-001
 4.6483474236e+000	 1.2396059504e-001	 5.2059859613e-001
 4.6470516519e+000	 1.6556251013e-001	 5.2250538357e-001
 4.6453770012e+000	 2.0729813531e-001	 5.2228084391e-001
 4.6433196943e+000	 2.4916303270e-001	 5.2004840281e-001
 4.6408760084e+000	 2.9115266559e-001	 5.1594965325e-001
 4.6380422781e+000	 3.3326239880e-001	 5.1014471950e-001
 4.6348148979e+000	 3.7548749920e-001	 5.0281259673e-001
 4.6311903250e+000	 4.1782313625e-001	 4.9415146443e-001
 4.6750000000e+000	 0.0000000000e+000	 5.1208489703e-001
 4.6748167160e+000	 4.1396522276e-002	 5.1916128072e-001
 4.6742642109e+000	 8.2940259537e-002	 5.2396363404e-001
 4.6733385388e+000	 1.2462704985e-001	 5.2657031970e-001
 4.6720358005e+000	 1.6645263115e-001	 5.2707688146e-001
 4.6703521463e+000	 2.0841264141e-001	 5.2559647225e-001
 4.6682837786e+000	 2.5050261890e-001	 5.2226026214e-001
 4.6658269547e+000	 2.9271800250e-001	 5.1721782468e-001
 4.6629779893e+000	 3.3505413212e-001	 5.1063749995e-001
 4.6597332576e+000	 3.7750624919e-001	 5.0270673257e-001
 4.6560891977e+000	 4.2006949719e-001	 4.9363238312e-001
 4.7000000000e+000	 0.0000000000e+000	 5.2234229569e-001
 4.6998157358e+000	 4.1617894052e-002	 5.2768256527e-001
 4.6992602762e+000	 8.3383790336e-002	 5.3086532797e-001
 4.6983296540e+000	 1.2529350466e-001	 5.3197590939e-001
 4.6970199492e+000	 1.6734275217e-001	 5.3111705739e-001
 4.6953272915e+000	 2.0952714752e-001	 5.2840937059e-001
 4.6932478630e+000	 2.5184220510e-001	 5.2399170652e-001
 4.6907779010e+000	 2.9428333941e-001	 5.1802156755e-001
 4.6879137004e+000	 3.3684586545e-001	 5.1067546308e-001
 4.6846516172e+000	 3.7952499918e-001	 5.0214924614e-001
 4.6809880705e+000	 4.2231585814e-001	 4.9265842297e-001
 4.7250000000e+000	 0.0000000000e+000	 5.3190189289e-001
 4.7248147557e+000	 4.1839265829e-002	 5.3555757368e-001
 4.7242563415e+000	 8.3827321135e-002	 5.3716626468e-001
 4.7233207692e+000	 1.2595995947e-001	 5.3682018391e-001
 4.7220040979e+000	 1.6823287319e-001	 5.3462921738e-001
 4.7203024367e+000	 2.1064165362e-001	 5.3072134839e-001
 4.7182119474e+000	 2.5318179129e-001	 5.2524306585e-001
 4.7157288472e+000	 2.9584867632e-001	 5.1835975004e-001
 4.7128494116e+000	 3.3863759877e-001	 5.1025603404e-001
 4.7095699769e+000	 3.8154374918e-001	 5.0113613922e-001
 4.7058869432e+000	 4.2456221908e-001	 4.9122418298e-001
 4.7500000000e+000	 0.0000000000e+000	 5.4077293498e-001
 4.7498137756e+000	 4.2060637605e-002	 5.4279402471e-001
 4.7492524068e+000	 8.4270851934e-002	 5.4287264816e-001
 4.7483118844e+000	 1.2662641428e-001	 5.4110784601e-001
 4.7469882465e+000	 1.6912299422e-001	 5.3761657737e-001
 4.7452775818e+000	 2.1175615972e-001	 5.3253414995e-001
 4.7431760318e+000	 2.5452137749e-001	 5.2601462881e-001
 4.7406797935e+000	 2.9741401323e-001	 5.1823122206e-001
 4.7377851228e+000	 3.4042933210e-001	 5.0937664176e-001
 4.7344883366e+000	 3.8356249917e-001	 4.9966343835e-001
 4.7307858159e+000	 4.2680858003e-001	 4.8932430681e-001
 4.4817970888e+000	 4.0434497057e-001	 4.8802189615e-001
 4.4779016925e+000	 4.4541714450e-001	 4.8110370008e-001
 4.4736152520e+000	 4.8658665973e-001	 4.7383471839e-001
 4.4689345369e+000	 5.2784856279e-001	 4.6645226288e-001
 4.4638563882e+000	 5.6919780892e-001	 4.5921169168e-001
 4.4583777210e+000	 6.1062926301e-001	 4.5238654557e-001
 4.4524955272e+000	 6.5213770062e-001	 4.5074342162e-001
 4.4462068779e+000	 6.9371780909e-001	 4.4808019661e-001
 4.4395089267e+000	 7.3536418877e-001	 4.4126370317e-001
 4.4323989115e+000	 7.7707135428e-001	 4.3043375827e-001
 4.4248741579e+000	 8.1883373586e-001	 4.1572753598e-001
 4.5066959615e+000	 4.0659133152e-001	 4.9011600712e-001
 4.5027789241e+000	 4.4789168419e-001	 4.8332411216e-001
 4.4984686700e+000	 4.8928991895e-001	 4.7626943381e-001
 4.4937619509e+000	 5.3078105481e-001	 4.6919370709e-001
 4.4886555903e+000	 5.7236001898e-001	 4.6235692769e-001
 4.4831464861e+000	 6.1402164781e-001	 4.5603748802e-001
 4.4772316134e+000	 6.5576068785e-001	 4.5490880088e-001
 4.4709080272e+000	 6.9757179692e-001	 4.5198712447e-001
 4.4641728651e+000	 7.3944954538e-001	 4.4518760679e-001
 4.4570233499e+000	 7.8138841736e-001	 4.3465020477e-001
 4.4494567921e+000	 8.2338281217e-001	 4.2051190941e-001
 4.5315948342e+000	 4.0883769246e-001	 4.9178865414e-001
 4.5276561557e+000	 4.5036622388e-001	 4.8504287158e-001
 4.5233220881e+000	 4.9199317817e-001	 4.7811708641e-001
 4.5185893650e+000	 5.3371354682e-001	 4.7125747813e-001
 4.5134547925e+000	 5.7552222903e-001	 4.6472870711e-001
 4.5079152512e+000	 6.1741403260e-001	 4.5881405066e-001
 4.5019676997e+000	 6.5938367507e-001	 4.5798364884e-001
 4.4956091766e+000	 7.0142578475e-001	 4.5476826257e-001
 4.4888368036e+000	 7.4353490198e-001	 4.4794997070e-001
 4.4816477883e+000	 7.8570548043e-001	 4.3766882910e-001
 4.4740394263e+000	 8.2793188848e-001	 4.2406160297e-001
 4.5564937069e+000	 4.1108405341e-001	 4.9303414131e-001
 4.5525333873e+000	 4.5284076358e-001	 4.8625407425e-001
 4.5481755061e+000	 4.9469643739e-001	 4.7937156978e-001
 4.5434167791e+000	 5.3664603884e-001	 4.7263727345e-001
 4.5382539946e+000	 5.7868443908e-001	 4.6632053787e-001
 4.5326840163e+000	 6.2080641740e-001	 4.6070955880e-001
 4.5267037859e+000	 6.6300666230e-001	 4.5997810293e-001
 4.5203103259e+000	 7.0527977258e-001	 4.5643501227e-001
 4.5135007421e+000	 7.4762025859e-001	 4.4956350849e-001
 4.5062722267e+000	 7.9002254351e-001	 4.3950370497e-001
 4.4986220605e+000	 8.3248096479e-001	 4.2639209802e-001
 4.5813925796e+000	 4.1333041436e-001	 4.9384682527e-001
 4.5774106189e+000	 4.5531530327e-001	 4.8695186262e-001
 4.5730289242e+000	 4.9739969661e-001	 4.8002681731e-001
 4.5682441932e+000	 5.3957853085e-001	 4.7332682285e-001
 4.5630531968e+000	 5.8184664912e-001	 4.6712595198e-001
 4.5574527815e+000	 6.2419880219e-001	 4.6171735290e-001
 4.5514398722e+000	 6.6662964952e-001	 4.6090230595e-001
 4.5450114752e+000	 7.0913376041e-001	 4.5699876980e-001
 4.5381646806e+000	 7.5170561519e-001	 4.5004091736e-001
 4.5308966650e+000	 7.9433960659e-001	 4.4016887768e-001
 4.5232046947e+000	 8.3703004110e-001	 4.2751883470e-001
 4.6062914523e+000	 4.1557677530e-001	 4.9422111380e-001
 4.6022878506e+000	 4.5778984296e-001	 4.8713042447e-001
 4.5978823423e+000	 5.0010295583e-001	 4.8007680115e-001
 4.5930716073e+000	 5.4251102287e-001	 4.7331988759e-001
 4.5878523989e+000	 5.8500885917e-001	 4.6713850493e-001
 4.5822215466e+000	 6.2759118699e-001	 4.6213702550e-001
 4.5761759585e+000	 6.7025263675e-001	 4.6076640595e-001
 4.5697126245e+000	 7.1298774823e-001	 4.5647092642e-001
 4.5628286191e+000	 7.5579097179e-001	 4.4939487856e-001
 4.5555211034e+000	 7.9865666967e-001	 4.3967836492e-001
 4.5477873289e+000	 8.4157911741e-001	 4.2745721309e-001
 4.6311903250e+000	 4.1782313625e-001	 4.9415146443e-001
 4.6271650822e+000	 4.6026438265e-001	 4.8678399163e-001
 4.6227357603e+000	 5.0280621505e-001	 4.7951553114e-001
 4.6178990214e+000	 5.4544351488e-001	 4.7261025955e-001
 4.6126516011e+000	 5.8817106922e-001	 4.6635177503e-001
 4.6069903117e+000	 6.3098357178e-001	 4.6164657010e-001
 4.6009120447e+000	 6.7387562397e-001	 4.5958055610e-001
 4.5944137738e+000	 7.1684173606e-001	 4.5486286855e-001
 4.5874925575e+000	 7.5987632840e-001	 4.4763805784e-001
 4.5801455418e+000	 8.0297373275e-001	 4.3804615745e-001
 4.5723699631e+000	 8.4612819372e-001	 4.2622259423e-001
 4.6560891977e+000	 4.2006949719e-001	 4.9363238312e-001
 4.6520423138e+000	 4.6273892234e-001	 4.8590683885e-001
 4.6475891784e+000	 5.0550947427e-001	 4.7833705383e-001
 4.6427264355e+000	 5.4837600689e-001	 4.7119176043e-001
 4.6374508033e+000	 5.9133327927e-001	 4.6475936281e-001
 4.6317590768e+000	 6.3437595657e-001	 4.6014514770e-001
 4.6256481310e+000	 6.7749861120e-001	 4.5735491451e-001
 4.6191149232e+000	 7.2069572389e-001	 4.5218597789e-001
 4.6121564960e+000	 7.6396168500e-001	 4.4478310588e-001
 4.6047699802e+000	 8.0729079583e-001	 4.3528621987e-001
 4.5969525973e+000	 8.5067727003e-001	 4.2383030121e-001
 4.6809880705e+000	 4.2231585814e-001	 4.9265842297e-001
 4.6769195454e+000	 4.6521346202e-001	 4.8449328265e-001
 4.6724425965e+000	 5.0821273349e-001	 4.7653545149e-001
 4.6675538496e+000	 5.5130849891e-001	 4.6905824094e-001
 4.6622500054e+000	 5.9449548931e-001	 4.6235489044e-001
 4.6565278419e+000	 6.3776834136e-001	 4.5764175213e-001
 4.6503842172e+000	 6.8112159842e-001	 4.5409964414e-001
 4.6438160725e+000	 7.2454971171e-001	 4.4845163157e-001
 4.6368204345e+000	 7.6804704160e-001	 4.4084265864e-001
 4.6293944186e+000	 8.1160785890e-001	 4.3141249131e-001
 4.6215352316e+000	 8.5522634634e-001	 4.2029562015e-001
 4.7058869432e+000	 4.2456221908e-001	 4.9122418298e-001
 4.7017967771e+000	 4.6768800171e-001	 4.8253768018e-001
 4.6972960145e+000	 5.1091599270e-001	 4.7410484115e-001
 4.6923812637e+000	 5.5424099092e-001	 4.6620358001e-001
 4.6870492076e+000	 5.9765769936e-001	 4.5913200114e-001
 4.6812966070e+000	 6.4116072615e-001	 4.5414539042e-001
 4.6751203035e+000	 6.8474458564e-001	 4.4982491264e-001
 4.6685172218e+000	 7.2840369954e-001	 4.4367120225e-001
 4.6614843730e+000	 7.7213239820e-001	 4.3582933780e-001
 4.6540188570e+000	 8.1592492198e-001	 4.2643888607e-001
 4.6461178658e+000	 8.5977542265e-001	 4.1563380119e-001
 4.7307858159e+000	 4.2680858003e-001	 4.8932430681e-001
 4.7266740087e+000	 4.7016254140e-001	 4.8003442820e-001
 4.7221494326e+000	 5.1361925192e-001	 4.7103937374e-001
 4.7172086778e+000	 5.5717348293e-001	 4.6262168409e-001
 4.7118484097e+000	 6.0081990940e-001	 4.5508435862e-001
 4.7060653722e+000	 6.4455311094e-001	 4.4966508248e-001
 4.6998563898e+000	 6.8836757286e-001	 4.4454089226e-001
 4.6932183711e+000	 7.3225768736e-001	 4.3785605823e-001
 4.6861483115e+000	 7.7621775480e-001	 4.2975575112e-001
 4.6786432954e+000	 8.2024198506e-001	 4.2037929432e-001
 4.6707005000e+000	 8.6432449896e-001	 4.0986005945e-001
 4.4248741579e+000	 8.1883373586e-001	 4.1572753598e-001
 4.4169320814e+000	 8.6064568090e-001	 3.9758554377e-001
 4.4085701903e+000	 9.0250145542e-001	 3.8281155147e-001
 4.3997860880e+000	 9.4439524573e-001	 3.7156084854e-001
 4.3905774756e+000	 9.8632116015e-001	 3.6398023625e-001
 4.3809421547e+000	 1.0282732308e+000	 3.6020789264e-001
 4.3708780297e+000	 1.0702454156e+000	 3.4746257881e-001
 4.3603831102e+000	 1.1122316001e+000	 3.1791949288e-001
 4.3494555137e+000	 1.1542255995e+000	 2.8990348458e-001
 4.3380934676e+000	 1.1962211613e+000	 2.6349833411e-001
 4.3262953119e+000	 1.2382119668e+000	 2.3878267865e-001
 4.4494567921e+000	 8.2338281217e-001	 4.2051190941e-001
 4.4414705930e+000	 8.6542704580e-001	 4.0231858079e-001
 4.4330622469e+000	 9.0751535240e-001	 3.8694864966e-001
 4.4242293440e+000	 9.4964188598e-001	 3.7455728656e-001
 4.4149695727e+000	 9.9180072215e-001	 3.6529156599e-001
 4.4052807222e+000	 1.0339858599e+000	 3.5929034198e-001
 4.3951606854e+000	 1.0761912235e+000	 3.5668414100e-001
 4.3846074608e+000	 1.1184106645e+000	 3.5759507266e-001
 4.3736191554e+000	 1.1606379640e+000	 3.5763357917e-001
 4.3621939868e+000	 1.2028668344e+000	 3.2792638589e-001
 4.3503302858e+000	 1.2450909222e+000	 2.9932568670e-001
 4.4740394263e+000	 8.2793188848e-001	 4.2406160297e-001
 4.4660091046e+000	 8.7020841069e-001	 4.0593311019e-001
 4.4575543036e+000	 9.1252924937e-001	 3.9009218711e-001
 4.4486726001e+000	 9.5488852624e-001	 3.7669385138e-001
 4.4393616698e+000	 9.9728028415e-001	 3.6588541001e-001
 4.4296192898e+000	 1.0396984889e+000	 3.5780634541e-001
 4.4194433411e+000	 1.0821370313e+000	 3.5258821879e-001
 4.4088318115e+000	 1.1245897290e+000	 3.5035459106e-001
 4.3977827972e+000	 1.1670503284e+000	 3.5122096186e-001
 4.3862945061e+000	 1.2095125075e+000	 3.5529472702e-001
 4.3743652598e+000	 1.2519698775e+000	 3.6007002290e-001
 4.4986220605e+000	 8.3248096479e-001	 4.2639209802e-001
 4.4905476161e+000	 8.7498977558e-001	 4.0844354916e-001
 4.4820463602e+000	 9.1754314634e-001	 3.9225540861e-001
 4.4731158561e+000	 9.6013516649e-001	 3.7798250642e-001
 4.4637537669e+000	 1.0027598461e+000	 3.6577234063e-001
 4.4539578573e+000	 1.0454111180e+000	 3.5576497384e-001
 4.4437259969e+000	 1.0880828392e+000	 3.4809294688e-001
 4.4330561621e+000	 1.1307687934e+000	 3.4288121009e-001
 4.4219464389e+000	 1.1734626929e+000	 3.4024707241e-001
 4.4103950254e+000	 1.2161581807e+000	 3.4030016882e-001
 4.3984002337e+000	 1.2588488329e+000	 3.4120602249e-001
 4.5232046947e+000	 8.3703004110e-001	 4.2751883470e-001
 4.5150861277e+000	 8.7977114048e-001	 4.0986431489e-001
 4.5065384168e+000	 9.2255704332e-001	 3.9345160273e-001
 4.4975591122e+000	 9.6538180674e-001	 3.7843530526e-001
 4.4881458639e+000	 1.0082394081e+000	 3.6496306937e-001
 4.4782964248e+000	 1.0511237471e+000	 3.5317548890e-001
 4.4680086526e+000	 1.0940286471e+000	 3.4320602867e-001
 4.4572805127e+000	 1.1369478578e+000	 3.3518096596e-001
 4.4461100807e+000	 1.1798750573e+000	 3.2921934976e-001
 4.4344955446e+000	 1.2228038538e+000	 3.2543297814e-001
 4.4224352077e+000	 1.2657277883e+000	 3.2071066525e-001
 4.5477873289e+000	 8.4157911741e-001	 4.2745721309e-001
 4.5396246393e+000	 8.8455250537e-001	 4.1020982453e-001
 4.5310304734e+000	 9.2757094029e-001	 3.9369410064e-001
 4.5220023682e+000	 9.7062844700e-001	 3.7806438920e-001
 4.5125379610e+000	 1.0137189701e+000	 3.6346844309e-001
 4.5026349923e+000	 1.0568363761e+000	 3.5004733781e-001
 4.4922913083e+000	 1.0999744549e+000	 3.3793540586e-001
 4.4815048633e+000	 1.1431269223e+000	 3.2726018842e-001
 4.4702737224e+000	 1.1862874218e+000	 3.1814240477e-001
 4.4585960639e+000	 1.2294495269e+000	 3.1069593957e-001
 4.4464701816e+000	 1.2726067437e+000	 3.0072232200e-001
 4.5723699631e+000	 8.4612819372e-001	 4.2622259423e-001
 4.5641631508e+000	 8.8933387026e-001	 4.0949449524e-001
 4.5555225300e+000	 9.3258483726e-001	 3.9299627495e-001
 4.5464456242e+000	 9.7587508725e-001	 3.7688198492e-001
 4.5369300581e+000	 1.0191985321e+000	 3.6129944042e-001
 4.5269735599e+000	 1.0625490052e+000	 3.4639014838e-001
 4.5165739640e+000	 1.1059202628e+000	 3.3228925203e-001
 4.5057292139e+000	 1.1493059867e+000	 3.1912549290e-001
 4.4944373641e+000	 1.1926997862e+000	 3.0702119022e-001
 4.4826965832e+000	 1.2360952000e+000	 2.9609223825e-001
 4.4705051556e+000	 1.2794856990e+000	 2.8123479735e-001
 4.5969525973e+000	 8.5067727003e-001	 4.2383030121e-001
 4.5887016624e+000	 8.9411523516e-001	 4.0773274416e-001
 4.5800145866e+000	 9.3759873424e-001	 3.9137153862e-001
 4.5708888803e+000	 9.8112172750e-001	 3.7490040217e-001
 4.5613221552e+000	 1.0246780942e+000	 3.5846716821e-001
 4.5513121274e+000	 1.0682616342e+000	 3.4221372417e-001
 4.5408566198e+000	 1.1118660707e+000	 3.2627596650e-001
 4.5299535645e+000	 1.1554850512e+000	 3.1078377285e-001
 4.5186010059e+000	 1.1991121506e+000	 2.9586099163e-001
 4.5067971024e+000	 1.2427408731e+000	 2.8162544921e-001
 4.4945401296e+000	 1.2863646544e+000	 2.6224234526e-001
 4.6215352316e+000	 8.5522634634e-001	 4.2029562015e-001
 4.6132401739e+000	 8.9889660005e-001	 4.0493898844e-001
 4.6045066432e+000	 9.4261263121e-001	 3.8883334385e-001
 4.5953321363e+000	 9.8636836776e-001	 3.7213203158e-001
 4.5857142523e+000	 1.0301576562e+000	 3.5498285812e-001
 4.5756506949e+000	 1.0739742633e+000	 3.3752803983e-001
 4.5651392755e+000	 1.1178118785e+000	 3.1990416824e-001
 4.5541779151e+000	 1.1616641156e+000	 3.0224219238e-001
 4.5427646476e+000	 1.2055245151e+000	 2.8466741843e-001
 4.5308976217e+000	 1.2493865463e+000	 2.6729952696e-001
 4.5185751035e+000	 1.2932436098e+000	 2.4373965713e-001
 4.6461178658e+000	 8.5977542265e-001	 4.1563380119e-001
 4.6377786855e+000	 9.0367796494e-001	 4.0112764519e-001
 4.6289986998e+000	 9.4762652819e-001	 3.8539518110e-001
 4.6197753924e+000	 9.9161500801e-001	 3.6858934251e-001
 4.6101063494e+000	 1.0356372182e+000	 3.5085786332e-001
 4.5999892625e+000	 1.0796868924e+000	 3.3234323659e-001
 4.5894219312e+000	 1.1237576864e+000	 3.1318269014e-001
 4.5784022658e+000	 1.1678431801e+000	 2.9350817903e-001
 4.5669282894e+000	 1.2119368795e+000	 2.7344639537e-001
 4.5549981410e+000	 1.2560322194e+000	 2.5238293017e-001
 4.5426100775e+000	 1.3001225651e+000	 2.2572185015e-001
 4.6707005000e+000	 8.6432449896e-001	 4.0986005945e-001
 4.6623171971e+000	 9.0845932984e-001	 3.9631313153e-001
 4.6534907565e+000	 9.5264042516e-001	 3.8107057804e-001
 4.6442186484e+000	 9.9686164827e-001	 3.6428488099e-001
 4.6344984465e+000	 1.0411167802e+000	 3.4610365529e-001
 4.6243278300e+000	 1.0853995214e+000	 3.2666961784e-001
 4.6137045869e+000	 1.1297034943e+000	 3.0612057331e-001
 4.6026266164e+000	 1.1740222445e+000	 2.8458941693e-001
 4.5910919311e+000	 1.2183492440e+000	 2.6220415426e-001
 4.5790986602e+000	 1.2626778925e+000	 2.3768286596e-001
 4.5666450514e+000	 1.3070015205e+000	 2.0818445619e-001
 4.3262953119e+000	 1.2382119668e+000	 2.3878267865e-001
 4.3140595013e+000	 1.2801916340e+000	 2.2241000755e-001
 4.3013846075e+000	 1.3221537197e+000	 2.0209263153e-001
 4.2882693215e+000	 1.3640917223e+000	 1.8126489928e-001
 4.2747124554e+000	 1.4059990840e+000	 1.6028444658e-001
 4.2607129448e+000	 1.4478691937e+000	 1.3952869372e-001
 4.2462698508e+000	 1.4896953899e+000	 1.1939464401e-001
 4.2313823616e+000	 1.5314709629e+000	 1.0029863450e-001
 4.2160497947e+000	 1.5731891585e+000	 8.2676038303e-002
 4.2002715988e+000	 1.6148431803e+000	 6.6980918053e-002
 4.1840473548e+000	 1.6564261930e+000	 5.3685629910e-002
 4.3503302858e+000	 1.2450909222e+000	 2.9932568670e-001
 4.3380264985e+000	 1.2873038097e+000	 2.7676797955e-001
 4.3252811887e+000	 1.3294990181e+000	 2.5199633096e-001
 4.3120930399e+000	 1.3716700096e+000	 2.2657391726e-001
 4.2984608579e+000	 1.4138101900e+000	 2.0086576434e-001
 4.2843835723e+000	 1.4559129115e+000	 1.7525713355e-001
 4.2698602388e+000	 1.4979714754e+000	 1.5015331735e-001
 4.2548900414e+000	 1.5399791349e+000	 1.2597938624e-001
 4.2394722936e+000	 1.5819290983e+000	 1.0317988637e-001
 4.2236064410e+000	 1.6238145313e+000	 8.2218487209e-002
 4.2072920623e+000	 1.6656285608e+000	 6.3577578980e-002
 4.3743652598e+000	 1.2519698775e+000	 3.6007002290e-001
 4.3619934957e+000	 1.2944159855e+000	 3.3195931874e-001
 4.3491777698e+000	 1.3368443166e+000	 3.0270178776e-001
 4.3359167584e+000	 1.3792482970e+000	 2.7264905227e-001
 4.3222092604e+000	 1.4216212960e+000	 2.4217358579e-001
 4.3080541997e+000	 1.4639566292e+000	 2.1166855470e-001
 4.2934506269e+000	 1.5062475609e+000	 1.8154761101e-001
 4.2783977212e+000	 1.5484873069e+000	 1.5224463552e-001
 4.2628947925e+000	 1.5906690380e+000	 1.2421343067e-001
 4.2469412832e+000	 1.6327858823e+000	 9.7927362484e-002
 4.2305367698e+000	 1.6748309285e+000	 7.3878951253e-002
 4.3984002337e+000	 1.2588488329e+000	 3.4120602249e-001
 4.3859604930e+000	 1.3015281612e+000	 3.5037118123e-001
 4.3730743510e+000	 1.3441896150e+000	 3.5419177653e-001
 4.3597404768e+000	 1.3868265843e+000	 3.1947250206e-001
 4.3459576629e+000	 1.4294324020e+000	 2.8418950374e-001
 4.3317248272e+000	 1.4720003470e+000	 2.4874391741e-001
 4.3170410149e+000	 1.5145236464e+000	 2.1355782558e-001
 4.3019054009e+000	 1.5569954790e+000	 1.7907399677e-001
 4.2863172913e+000	 1.5994089778e+000	 1.4575557358e-001
 4.2702761254e+000	 1.6417572333e+000	 1.1408570889e-001
 4.2537814774e+000	 1.6840332963e+000	 8.4567149772e-002
 4.4224352077e+000	 1.2657277883e+000	 3.2071066525e-001
 4.4099274902e+000	 1.3086403370e+000	 3.2478633554e-001
 4.3969709321e+000	 1.3515349135e+000	 3.3034793416e-001
 4.3835641953e+000	 1.3944048717e+000	 3.3724370705e-001
 4.3697060655e+000	 1.4372435081e+000	 3.2689561828e-001
 4.3553954547e+000	 1.4800440647e+000	 2.8646469396e-001
 4.3406314030e+000	 1.5227997319e+000	 2.4616477835e-001
 4.3254130807e+000	 1.5655036510e+000	 2.0644760565e-001
 4.3097397902e+000	 1.6081489176e+000	 1.6778574309e-001
 4.2936109676e+000	 1.6507285843e+000	 1.3067222138e-001
 4.2770261849e+000	 1.6932356640e+000	 9.5620111783e-002
 4.4464701816e+000	 1.2726067437e+000	 3.0072232200e-001
 4.4338944874e+000	 1.3157525127e+000	 2.9974323506e-001
 4.4208675133e+000	 1.3588802119e+000	 3.0042043199e-001
 4.4073879137e+000	 1.4019831590e+000	 3.0259883273e-001
 4.3934544680e+000	 1.4450546141e+000	 3.0610419708e-001
 4.3790660822e+000	 1.4880877825e+000	 3.1074328235e-001
 4.3642217911e+000	 1.5310758174e+000	 2.7934978924e-001
 4.3489207605e+000	 1.5740118230e+000	 2.3434610486e-001
 4.3331622890e+000	 1.6168888573e+000	 1.9028387860e-001
 4.3169458098e+000	 1.6596999353e+000	 1.4766611057e-001
 4.3002708924e+000	 1.7024380317e+000	 1.0701629430e-001
 4.4705051556e+000	 1.2794856990e+000	 2.8123479735e-001
 4.4578614846e+000	 1.3228646884e+000	 2.7523637754e-001
 4.4447640944e+000	 1.3662255104e+000	 2.7106720342e-001
 4.4312116322e+000	 1.4095614464e+000	 2.6856877388e-001
 4.4172028705e+000	 1.4528657201e+000	 2.6756303513e-001
 4.4027367096e+000	 1.4961315002e+000	 2.6785254151e-001
 4.3878121791e+000	 1.5393519029e+000	 2.6922066292e-001
 4.3724284403e+000	 1.5825199950e+000	 2.6275063058e-001
 4.3565847879e+000	 1.6256287971e+000	 2.1323041716e-001
 4.3402806520e+000	 1.6686712863e+000	 1.6504708882e-001
 4.3235155999e+000	 1.7116403995e+000	 1.1873466013e-001
 4.4945401296e+000	 1.2863646544e+000	 2.6224234526e-001
 4.4818284819e+000	 1.3299768642e+000	 2.5126071474e-001
 4.4686606756e+000	 1.3735708088e+000	 2.4228392304e-001
 4.4550353506e+000	 1.4171397337e+000	 2.3514995230e-001
 4.4409512731e+000	 1.4606768261e+000	 2.2967683422e-001
 4.4264073371e+000	 1.5041752179e+000	 2.2566281414e-001
 4.4114025672e+000	 1.5476279884e+000	 2.2288656258e-001
 4.3959361201e+000	 1.5910281670e+000	 2.2110743459e-001
 4.3800072868e+000	 1.6343687369e+000	 2.2006577731e-001
 4.3636154943e+000	 1.6776426373e+000	 1.8279535689e-001
 4.3467603075e+000	 1.7208427672e+000	 1.3075466436e-001
 4.5185751035e+000	 1.2932436098e+000	 2.4373965713e-001
 4.5057954791e+000	 1.3370890399e+000	 2.2781164035e-001
 4.4925572567e+000	 1.3809161073e+000	 2.1406671181e-001
 4.4788590691e+000	 1.4247180211e+000	 2.0233924053e-001
 4.4646996756e+000	 1.4684879322e+000	 1.9244324210e-001
 4.4500779646e+000	 1.5122189357e+000	 1.8417254609e-001
 4.4349929552e+000	 1.5559040739e+000	 1.7730101181e-001
 4.4194437999e+000	 1.5995363390e+000	 1.7158279268e-001
 4.4034297856e+000	 1.6431086766e+000	 1.6675264980e-001
 4.3869503365e+000	 1.6866139883e+000	 1.6252631457e-001
 4.3700050150e+000	 1.7300451349e+000	 1.4305624123e-001
 4.5426100775e+000	 1.3001225651e+000	 2.2572185015e-001
 4.5297624763e+000	 1.3442012157e+000	 2.0488497828e-001
 4.5164538379e+000	 1.3882614057e+000	 1.8641212527e-001
 4.5026827875e+000	 1.4322963084e+000	 1.7013394996e-001
 4.4884480781e+000	 1.4762990382e+000	 1.5586034954e-001
 4.4737485920e+000	 1.5202626534e+000	 1.4338063032e-001
 4.4585833433e+000	 1.5641801594e+000	 1.3246372778e-001
 4.4429514797e+000	 1.6080445111e+000	 1.2285847615e-001
 4.4268522845e+000	 1.6518486164e+000	 1.1429392798e-001
 4.4102851787e+000	 1.6955853393e+000	 1.0647972377e-001
 4.3932497225e+000	 1.7392475027e+000	 9.9106511724e-002
 4.5666450514e+000	 1.3070015205e+000	 2.0818445619e-001
 4.5537294736e+000	 1.3513133914e+000	 1.8247697136e-001
 4.5403504190e+000	 1.3956067041e+000	 1.5931714207e-001
 4.5265065060e+000	 1.4398745957e+000	 1.3853181925e-001
 4.5121964807e+000	 1.4841101442e+000	 1.1992667867e-001
 4.4974192195e+000	 1.5283063712e+000	 1.0328639516e-001
 4.4821737314e+000	 1.5724562449e+000	 8.8374866995e-002
 4.4664591594e+000	 1.6165526831e+000	 7.4935490806e-002
 4.4502747833e+000	 1.6605885562e+000	 6.2691487270e-002
 4.4336200209e+000	 1.7045566903e+000	 5.1346277864e-002
 4.4164944300e+000	 1.7484498704e+000	 4.0583912596e-002
 4.1840473548e+000	 1.6564261930e+000	 5.3685629910e-002
 4.1673767784e+000	 1.6979313258e+000	 3.7550194234e-002
 4.1502597210e+000	 1.7393516748e+000	 2.0561650164e-002
 4.1326961712e+000	 1.7806803072e+000	 3.3981927659e-003
 4.1146862567e+000	 1.8219102636e+000	-1.3240082059e-002
 4.0962302449e+000	 1.8630345624e+000	-2.8631912136e-002
 4.0773285445e+000	 1.9040462023e+000	-4.9515139900e-002
 4.0579817064e+000	 1.9449381662e+000	-7.1112764892e-002
 4.0381904250e+000	 1.9857034249e+000	-9.0303697224e-002
 4.0179555386e+000	 2.0263349401e+000	-1.0705535329e-001
 3.9972780307e+000	 2.0668256687e+000	-1.2134245793e-001
 4.2072920623e+000	 1.6656285608e+000	 6.3577578980e-002
 4.1905288716e+000	 1.7073642776e+000	 4.5339803110e-002
 4.1733167194e+000	 1.7490147397e+000	 2.6742934377e-002
 4.1556555944e+000	 1.7905729755e+000	 8.4584876757e-003
 4.1375456248e+000	 1.8320319873e+000	-8.8204296618e-003
 4.1189870796e+000	 1.8733847544e+000	-2.4379854027e-002
 4.0999803697e+000	 1.9146242367e+000	-4.6871023109e-002
 4.0805260492e+000	 1.9557433782e+000	-6.6756503194e-002
 4.0606248162e+000	 1.9967351106e+000	-8.3633929834e-002
 4.0402775138e+000	 2.0375923565e+000	-9.7496654750e-002
 4.0194851309e+000	 2.0783080336e+000	-1.0834618220e-001
 4.2305367698e+000	 1.6748309285e+000	 7.3878951253e-002
 4.2136809648e+000	 1.7167972294e+000	 5.3083276989e-002
 4.1963737179e+000	 1.7586778046e+000	 3.2412394318e-002
 4.1786150176e+000	 1.8004656439e+000	 1.2531391966e-002
 4.1604049929e+000	 1.8421537110e+000	-5.8733457976e-003
 4.1417439143e+000	 1.8837349464e+000	-2.4026830807e-002
 4.1226321950e+000	 1.9252022712e+000	-4.6215424357e-002
 4.1030703921e+000	 1.9665485903e+000	-6.4789825905e-002
 4.0830592075e+000	 2.0077667963e+000	-7.9759961269e-002
 4.0625994891e+000	 2.0488497728e+000	-9.1145056057e-002
 4.0416922311e+000	 2.0897903984e+000	-9.8973329520e-002
 4.2537814774e+000	 1.6840332963e+000	 8.4567149772e-002
 4.2368330580e+000	 1.7262301812e+000	 6.0763631180e-002
 4.2194307163e+000	 1.7683408694e+000	 3.7558746731e-002
 4.2015744408e+000	 1.8103583123e+000	 1.5611411494e-002
 4.1832643610e+000	 1.8522754347e+000	-4.3984493459e-003
 4.1645007490e+000	 1.8940851384e+000	-2.5620372555e-002
 4.1452840202e+000	 1.9357803056e+000	-4.7507305239e-002
 4.1256147349e+000	 1.9773538023e+000	-6.5163922321e-002
 4.1054935987e+000	 2.0187984819e+000	-7.8625103620e-002
 4.0849214643e+000	 2.0601071891e+000	-8.7935890844e-002
 4.0638993313e+000	 2.1012727632e+000	-9.3151157561e-002
 4.2770261849e+000	 1.6932356640e+000	 9.5620111783e-002
 4.2599851512e+000	 1.7356631330e+000	 6.8364280254e-002
 4.2424877148e+000	 1.7780039343e+000	 4.2170970131e-002
 4.2245338639e+000	 1.8202509806e+000	 1.7693173904e-002
 4.2061237291e+000	 1.8623971584e+000	-4.3953798322e-003
 4.1872575837e+000	 1.9044353304e+000	-2.8739988876e-002
 4.1679358455e+000	 1.9463583401e+000	-5.0705939999e-002
 4.1481590777e+000	 1.9881590143e+000	-6.7830443852e-002
 4.1279279900e+000	 2.0298301676e+000	-8.0173282783e-002
 4.1072434395e+000	 2.0713646055e+000	-8.7805260418e-002
 4.0861064314e+000	 2.1127551280e+000	-9.0807847654e-002
 4.3002708924e+000	 1.7024380317e+000	 1.0701629430e-001
 4.2831372445e+000	 1.7450960848e+000	 7.5869027252e-002
 4.2655447132e+000	 1.7876669991e+000	 4.6238297730e-002
 4.2474932871e+000	 1.8301436490e+000	 1.8771425338e-002
 4.2289830972e+000	 1.8725188821e+000	-5.8637968698e-003
 4.2100144184e+000	 1.9147855224e+000	-3.3352631676e-002
 4.1905876707e+000	 1.9569363745e+000	-5.5770907079e-002
 4.1707034205e+000	 1.9989642264e+000	-7.2741491524e-002
 4.1503623812e+000	 2.0408618533e+000	-8.4349021872e-002
 4.1295654147e+000	 2.0826220218e+000	-9.0690013008e-002
 4.1083135316e+000	 2.1242374928e+000	-9.1872479814e-002
 4.3235155999e+000	 1.7116403995e+000	 1.1873466013e-001
 4.3062893377e+000	 1.7545290366e+000	 8.3262053241e-002
 4.2886017116e+000	 1.7973300640e+000	 4.9750210593e-002
 4.2704527103e+000	 1.8400363174e+000	 1.8841027245e-002
 4.2518424653e+000	 1.8826406057e+000	-1.0043247015e-002
 4.2327712531e+000	 1.9251357145e+000	-3.9425409541e-002
 4.2132394960e+000	 1.9675144090e+000	-6.2662080944e-002
 4.1932477633e+000	 2.0097694384e+000	-7.9849603903e-002
 4.1727967725e+000	 2.0518935390e+000	-9.1097425158e-002
 4.1518873899e+000	 2.0938794381e+000	-9.6527723692e-002
 4.1305206318e+000	 2.1357198577e+000	-9.6275008590e-002
 4.3467603075e+000	 1.7208427672e+000	 1.3075466436e-001
 4.3294414309e+000	 1.7639619884e+000	 9.0527907209e-002
 4.3116587101e+000	 1.8069931288e+000	 5.2696431006e-002
 4.2934121334e+000	 1.8499289858e+000	 1.7896953304e-002
 4.2747018334e+000	 1.8927623294e+000	-1.5745386660e-002
 4.2555280878e+000	 1.9354859065e+000	-4.6925583540e-002
 4.2358913212e+000	 1.9780924434e+000	-7.1339624164e-002
 4.2157921061e+000	 2.0205746504e+000	-8.9107745388e-002
 4.1952311637e+000	 2.0629252247e+000	-1.0036416254e-001
 4.1742093651e+000	 2.1051368545e+000	-1.0525667496e-001
 4.1527277319e+000	 2.1472022225e+000	-1.0394623967e-001
 4.3700050150e+000	 1.7300451349e+000	 1.4305624123e-001
 4.3525935241e+000	 1.7733949402e+000	 9.7651496277e-002
 4.3347157085e+000	 1.8166561937e+000	 5.5066916066e-002
 4.3163715566e+000	 1.8598216541e+000	 1.5934286435e-002
 4.2975612015e+000	 1.9028840531e+000	-2.2494949844e-002
 4.2782849225e+000	 1.9458360985e+000	-5.5820563173e-002
 4.2585431465e+000	 1.9886704779e+000	-8.1763979754e-002
 4.2383364489e+000	 2.0313798625e+000	-1.0046929489e-001
 4.2176655550e+000	 2.0739569104e+000	-1.1209545449e-001
 4.1965313403e+000	 2.1163942708e+000	-1.1681583788e-001
 4.1749348321e+000	 2.1586845873e+000	-1.1481780727e-001
 4.3932497225e+000	 1.7392475027e+000	 9.9106511724e-002
 4.3757456173e+000	 1.7828278921e+000	 1.0239586696e-001
 4.3577727070e+000	 1.8263192586e+000	 5.6851851464e-002
 4.3393309798e+000	 1.8697143225e+000	 1.2948215912e-002
 4.3204205696e+000	 1.9130057768e+000	-3.0266229768e-002
 4.3010417572e+000	 1.9561862905e+000	-6.6077902443e-002
 4.2811949717e+000	 1.9992485124e+000	-9.3895863753e-002
 4.2608807917e+000	 2.0421850745e+000	-1.1388803486e-001
 4.2400999462e+000	 2.0849885961e+000	-1.2623805749e-001
 4.2188533156e+000	 2.1276516871e+000	-1.3114485394e-001
 4.1971419323e+000	 2.1701669521e+000	-1.2882215217e-001
 4.4164944300e+000	 1.7484498704e+000	 4.0583912596e-002
 4.3988977105e+000	 1.7922608439e+000	 4.0637709337e-002
 4.3808297054e+000	 1.8359823234e+000	 4.1560749376e-002
 4.3622904030e+000	 1.8796069909e+000	 8.3737221530e-003
 4.3432799376e+000	 1.9231275005e+000	-3.9033537187e-002
 4.3237985918e+000	 1.9665364825e+000	-7.7665296054e-002
 4.3038467969e+000	 2.0098265468e+000	-1.0769625804e-001
 4.2834251345e+000	 2.0529902865e+000	-1.2931814068e-001
 4.2625343375e+000	 2.0960202818e+000	-1.4273924995e-001
 4.2411752908e+000	 2.1389091034e+000	-1.4818401733e-001
 4.2193490324e+000	 2.1816493170e+000	-1.4589250054e-001
 3.9972780307e+000	 2.0668256687e+000	-1.2134245793e-001
 3.9761590304e+000	 2.1071685659e+000	-1.5738665346e-001
 3.9545998128e+000	 2.1473565890e+000	-1.8963981245e-001
 3.9326018000e+000	 2.1873827014e+000	-2.1827840310e-001
 3.9101665609e+000	 2.2272398761e+000	-2.4348794619e-001
 3.8872958119e+000	 2.2669210994e+000	-2.6546249641e-001
 3.8639914164e+000	 2.3064193751e+000	-2.8440410218e-001
 3.8402553857e+000	 2.3457277277e+000	-3.0052224519e-001
 3.8160898781e+000	 2.3848392068e+000	-3.1403326105e-001
 3.7914971990e+000	 2.4237468907e+000	-3.2515974264e-001
 3.7664798005e+000	 2.4624438902e+000	-3.3412992748e-001
 4.0194851309e+000	 2.0783080336e+000	-1.0834618220e-001
 3.9982488028e+000	 2.1188750579e+000	-1.4390186163e-001
 3.9765698118e+000	 2.1592863478e+000	-1.7612756491e-001
 3.9544495878e+000	 2.1995348275e+000	-2.0518567243e-001
 3.9318897085e+000	 2.2396134310e+000	-2.3124709553e-001
 3.9088918997e+000	 2.2795151055e+000	-2.5449076118e-001
 3.8854580354e+000	 2.3192328160e+000	-2.7510307569e-001
 3.8615901379e+000	 2.3587595484e+000	-2.9327736889e-001
 3.8372903774e+000	 2.3980883135e+000	-3.0921332010e-001
 3.8125610723e+000	 2.4372121512e+000	-3.2311636740e-001
 3.7874046883e+000	 2.4761241341e+000	-3.3519710171e-001
 4.0416922311e+000	 2.0897903984e+000	-9.8973329520e-002
 4.0203385752e+000	 2.1305815500e+000	-1.3362381738e-001
 3.9985398108e+000	 2.1712161067e+000	-1.6539840995e-001
 3.9762973756e+000	 2.2116869537e+000	-1.9444566919e-001
 3.9536128561e+000	 2.2519869858e+000	-2.2092217284e-001
 3.9304879876e+000	 2.2921091116e+000	-2.4499200203e-001
 3.9069246544e+000	 2.3320462570e+000	-2.6682620870e-001
 3.8829248900e+000	 2.3717913691e+000	-2.8660226406e-001
 3.8584908768e+000	 2.4113374202e+000	-3.0450348956e-001
 3.8336249456e+000	 2.4506774117e+000	-3.2071847178e-001
 3.8083295761e+000	 2.4898043779e+000	-3.3544046285e-001
 4.0638993313e+000	 2.1012727632e+000	-9.3151157561e-002
 4.0424283476e+000	 2.1422880420e+000	-1.2648534571e-001
 4.0205098097e+000	 2.1831458655e+000	-1.5739084464e-001
 3.9981451634e+000	 2.2238390798e+000	-1.8600266571e-001
 3.9753360036e+000	 2.2643605407e+000	-2.1246332716e-001
 3.9520840754e+000	 2.3047031177e+000	-2.3692234445e-001
 3.9283912734e+000	 2.3448596980e+000	-2.5953570104e-001
 3.9042596422e+000	 2.3848231898e+000	-2.8046530087e-001
 3.8796913761e+000	 2.4245865269e+000	-2.9987840395e-001
 3.8546888190e+000	 2.4641426722e+000	-3.1794704661e-001
 3.8292544638e+000	 2.5034846217e+000	-3.3594333393e-001
 4.0861064314e+000	 2.1127551280e+000	-9.0807847654e-002
 4.0645181200e+000	 2.1539945340e+000	-1.2242005468e-001
 4.0424798087e+000	 2.1950756243e+000	-1.5204400629e-001
 4.0199929511e+000	 2.2359912059e+000	-1.7980142951e-001
 3.9970591512e+000	 2.2767340956e+000	-2.0582105557e-001
 3.9736801633e+000	 2.3172971239e+000	-2.3023811273e-001
 3.9498578924e+000	 2.3576731389e+000	-2.5319380012e-001
 3.9255943943e+000	 2.3978550105e+000	-2.7483474388e-001
 3.9008918754e+000	 2.4378356336e+000	-2.9531243714e-001
 3.8757526923e+000	 2.4776079327e+000	-3.1478266526e-001
 3.8501793516e+000	 2.5171648656e+000	-3.3839705019e-001
 4.1083135316e+000	 2.1242374928e+000	-9.1872479814e-002
 4.0866078923e+000	 2.1657010260e+000	-1.2136231423e-001
 4.0644498076e+000	 2.2070053831e+000	-1.4929765511e-001
 4.0418407389e+000	 2.2481433320e+000	-1.7578720991e-001
 4.0187822988e+000	 2.2891076504e+000	-2.0094619379e-001
 3.9952762511e+000	 2.3298911300e+000	-2.2489582464e-001
 3.9713245114e+000	 2.3704865799e+000	-2.4776279968e-001
 3.9469291465e+000	 2.4108868312e+000	-2.6967875497e-001
 3.9220923747e+000	 2.4510847403e+000	-2.9077970948e-001
 3.8968165656e+000	 2.4910731932e+000	-3.1120549493e-001
 3.8711042394e+000	 2.5308451094e+000	-3.3937173398e-001
 4.1305206318e+000	 2.1357198577e+000	-9.6275008590e-002
 4.1086976647e+000	 2.1774075181e+000	-1.2324723571e-001
 4.0864198066e+000	 2.2189351420e+000	-1.4909215748e-001
 4.0636885267e+000	 2.2602954581e+000	-1.7390572508e-001
 4.0405054463e+000	 2.3014812053e+000	-1.9778990705e-001
 4.0168723389e+000	 2.3424851361e+000	-2.2085218616e-001
 3.9927911303e+000	 2.3833000209e+000	-2.4320503849e-001
 3.9682638986e+000	 2.4239186519e+000	-2.6496539605e-001
 3.9432928740e+000	 2.4643338470e+000	-2.8625409453e-001
 3.9178804389e+000	 2.5045384537e+000	-3.0830169714e-001
 3.8920291272e+000	 2.5445253532e+000	-3.3889501267e-001
 4.1527277319e+000	 2.1472022225e+000	-1.0394623967e-001
 4.1307874371e+000	 2.1891140101e+000	-1.2801065205e-001
 4.1083898056e+000	 2.2308649008e+000	-1.5136846971e-001
 4.0855363145e+000	 2.2724475842e+000	-1.7410314950e-001
 4.0622285939e+000	 2.3138547601e+000	-1.9630368131e-001
 4.0384684268e+000	 2.3550791422e+000	-2.1806408650e-001
 4.0142577493e+000	 2.3961134619e+000	-2.3948289921e-001
 3.9895986507e+000	 2.4369504726e+000	-2.6066263174e-001
 3.9644933734e+000	 2.4775829537e+000	-2.8170922570e-001
 3.9389443123e+000	 2.5180037142e+000	-3.0675636837e-001
 3.9129540150e+000	 2.5582055971e+000	-3.3699398278e-001
 4.1749348321e+000	 2.1586845873e+000	-1.1481780727e-001
 4.1528772095e+000	 2.2008205021e+000	-1.3558909859e-001
 4.1303598045e+000	 2.2427946596e+000	-1.5606812242e-001
 4.1073841022e+000	 2.2845997104e+000	-1.7632610186e-001
 4.0839517414e+000	 2.3262283150e+000	-1.9643931471e-001
 4.0600645146e+000	 2.3676731483e+000	-2.1648859320e-001
 4.0357243683e+000	 2.4089269028e+000	-2.3655880717e-001
 4.0109334029e+000	 2.4499822933e+000	-2.5673833197e-001
 3.9856938727e+000	 2.4908320604e+000	-2.7711850267e-001
 3.9600081856e+000	 2.5314689747e+000	-3.0422404485e-001
 3.9338789027e+000	 2.5718858409e+000	-3.3369522411e-001
 4.1971419323e+000	 2.1701669521e+000	-1.2882215217e-001
 4.1749669819e+000	 2.2125269942e+000	-1.4591979448e-001
 4.1523298035e+000	 2.2547244184e+000	-1.6313320527e-001
 4.1292318900e+000	 2.2967518365e+000	-1.8052163325e-001
 4.1056748890e+000	 2.3386018699e+000	-1.9814890931e-001
 4.0816606025e+000	 2.3802671544e+000	-2.1608294742e-001
 4.0571909873e+000	 2.4217403438e+000	-2.3439522927e-001
 4.0322681550e+000	 2.4630141140e+000	-2.5316027448e-001
 4.0068943720e+000	 2.5040811671e+000	-2.7320705190e-001
 3.9810720589e+000	 2.5449342352e+000	-3.0072475715e-001
 3.9548037905e+000	 2.5855660847e+000	-3.2902481342e-001
 4.2193490324e+000	 2.1816493170e+000	-1.4589250054e-001
 4.1970567543e+000	 2.2242334862e+000	-1.5894062466e-001
 4.1742998024e+000	 2.2666541773e+000	-1.7250635230e-001
 4.1510796778e+000	 2.3089039626e+000	-1.8663721581e-001
 4.1273980366e+000	 2.3509754247e+000	-2.0138486312e-001
 4.1032566903e+000	 2.3928611605e+000	-2.1680455937e-001
 4.0786576062e+000	 2.4345537848e+000	-2.3295467290e-001
 4.0536029072e+000	 2.4760459347e+000	-2.4989614726e-001
 4.0280948713e+000	 2.5173302738e+000	-2.7059410661e-001
 4.0021359322e+000	 2.5583994957e+000	-2.9627818090e-001
 3.9757286783e+000	 2.5992463286e+000	-3.2300833765e-001
 3.7664798005e+000	 2.4624438902e+000	-3.3412992748e-001
 3.7410402811e+000	 2.5009233526e+000	-3.2788615711e-001
 3.7151813848e+000	 2.5391784651e+000	-3.5850775459e-001
 3.6889060008e+000	 2.5772024595e+000	-3.8567140434e-001
 3.6622171622e+000	 2.6149886150e+000	-4.0925732013e-001
 3.6351180455e+000	 2.6525302629e+000	-4.2914509445e-001
 3.6076119692e+000	 2.6898207896e+000	-4.4521381229e-001
 3.5797023927e+000	 2.7268536410e+000	-4.5734217198e-001
 3.5513929153e+000	 2.7636223260e+000	-4.6540861284e-001
 3.5226872744e+000	 2.8001204200e+000	-4.6929144964e-001
 3.4935893441e+000	 2.8363415688e+000	-4.6886901355e-001
 3.7874046883e+000	 2.4761241341e+000	-3.3519710171e-001
 3.7618238382e+000	 2.5148173712e+000	-3.2326930268e-001
 3.7358212814e+000	 2.5532850122e+000	-3.3846799796e-001
 3.7093999231e+000	 2.5915202509e+000	-3.6810430929e-001
 3.6825628131e+000	 2.6295163296e+000	-3.9410360740e-001
 3.6553131458e+000	 2.6672665421e+000	-4.1634937509e-001
 3.6276542579e+000	 2.7047642384e+000	-4.3472457646e-001
 3.5995896282e+000	 2.7420028279e+000	-4.4911177316e-001
 3.5711228760e+000	 2.7789757834e+000	-4.5939324761e-001
 3.5422577593e+000	 2.8156766446e+000	-4.6545113312e-001
 3.5129981738e+000	 2.8520990220e+000	-4.6716755058e-001
 3.8083295761e+000	 2.4898043779e+000	-3.3544046285e-001
 3.7826073953e+000	 2.5287113898e+000	-3.3082500576e-001
 3.7564611780e+000	 2.5673915592e+000	-3.2682878805e-001
 3.7298938453e+000	 2.6058380424e+000	-3.4945041218e-001
 3.7029084640e+000	 2.6440440441e+000	-3.7798183064e-001
 3.6755082460e+000	 2.6820028213e+000	-4.0270549469e-001
 3.6476965466e+000	 2.7197076873e+000	-4.2350818767e-001
 3.6194768638e+000	 2.7571520148e+000	-4.4027627278e-001
 3.5908528366e+000	 2.7943292408e+000	-4.5289581194e-001
 3.5618282442e+000	 2.8312328691e+000	-4.6125269151e-001
 3.5324070035e+000	 2.8678564751e+000	-4.6523275493e-001
 3.8292544638e+000	 2.5034846217e+000	-3.3594333393e-001
 3.8033909524e+000	 2.5426054084e+000	-3.3693710374e-001
 3.7771010746e+000	 2.5814981062e+000	-3.3497025636e-001
 3.7503877675e+000	 2.6201558338e+000	-3.3027362762e-001
 3.7232541150e+000	 2.6585717586e+000	-3.6089184461e-001
 3.6957033463e+000	 2.6967391006e+000	-3.8821157156e-001
 3.6677388353e+000	 2.7346511361e+000	-4.1156103400e-001
 3.6393640993e+000	 2.7723012017e+000	-4.3083033573e-001
 3.6105827973e+000	 2.8096826981e+000	-4.4590925530e-001
 3.5813987290e+000	 2.8467890937e+000	-4.5668736753e-001
 3.5518158332e+000	 2.8836139283e+000	-4.6305417191e-001
 3.8501793516e+000	 2.5171648656e+000	-3.3839705019e-001
 3.8241745096e+000	 2.5564994271e+000	-3.4163235048e-001
 3.7977409712e+000	 2.5956046532e+000	-3.4178468857e-001
 3.7708816897e+000	 2.6344736253e+000	-3.3909486661e-001
 3.7435997659e+000	 2.6730994731e+000	-3.4283307228e-001
 3.7158984465e+000	 2.7114753798e+000	-3.7286532869e-001
 3.6877811240e+000	 2.7495945849e+000	-3.9887914478e-001
 3.6592513348e+000	 2.7874503886e+000	-4.2076830479e-001
 3.6303127579e+000	 2.8250361555e+000	-4.3842624187e-001
 3.6009692139e+000	 2.8623453183e+000	-4.5174615534e-001
 3.5712246628e+000	 2.8993713815e+000	-4.6062113518e-001
 3.8711042394e+000	 2.5308451094e+000	-3.3937173398e-001
 3.8449580667e+000	 2.5703934457e+000	-3.4493697416e-001
 3.8183808678e+000	 2.6097112003e+000	-3.4729635181e-001
 3.7913756120e+000	 2.6487914167e+000	-3.4670065984e-001
 3.7639454168e+000	 2.6876271877e+000	-3.4340921823e-001
 3.7360935468e+000	 2.7262116591e+000	-3.5666410444e-001
 3.7078234128e+000	 2.7645380338e+000	-3.8545820030e-001
 3.6791385703e+000	 2.8025995755e+000	-4.1008420939e-001
 3.6500427186e+000	 2.8403896129e+000	-4.3043915815e-001
 3.6205396987e+000	 2.8779015428e+000	-4.4641980735e-001
 3.5906334925e+000	 2.9151288346e+000	-4.5792277245e-001
 3.8920291272e+000	 2.5445253532e+000	-3.3889501267e-001
 3.8657416238e+000	 2.5842874643e+000	-3.4687669145e-001
 3.8390207644e+000	 2.6238177473e+000	-3.5152903578e-001
 3.8118695342e+000	 2.6631092081e+000	-3.5311285494e-001
 3.7842910677e+000	 2.7021549022e+000	-3.5189770156e-001
 3.7562886470e+000	 2.7409479383e+000	-3.4816137032e-001
 3.7278657015e+000	 2.7794814826e+000	-3.7129354115e-001
 3.6990258058e+000	 2.8177487624e+000	-3.9877177396e-001
 3.6697726792e+000	 2.8557430702e+000	-4.2194012052e-001
 3.6401101836e+000	 2.8934577674e+000	-4.4069884062e-001
 3.6100423222e+000	 2.9308862878e+000	-4.5494801106e-001
 3.9129540150e+000	 2.5582055971e+000	-3.3699398278e-001
 3.8865251809e+000	 2.5981814829e+000	-3.4747672120e-001
 3.8596606609e+000	 2.6379242943e+000	-3.5450606551e-001
 3.8323634564e+000	 2.6774269996e+000	-3.5835286825e-001
 3.8046367186e+000	 2.7166826167e+000	-3.5929694296e-001
 3.7764837473e+000	 2.7556842175e+000	-3.5762654867e-001
 3.7479079902e+000	 2.7944249314e+000	-3.5638017734e-001
 3.7189130413e+000	 2.8328979493e+000	-3.8682442617e-001
 3.6895026398e+000	 2.8710965276e+000	-4.1292098240e-001
 3.6596806685e+000	 2.9090139919e+000	-4.3457354323e-001
 3.6294511519e+000	 2.9466437410e+000	-4.5168558330e-001
 3.9338789027e+000	 2.5718858409e+000	-3.3369522411e-001
 3.9073087380e+000	 2.6120755016e+000	-3.4676179765e-001
 3.8803005575e+000	 2.6520308414e+000	-3.5625031372e-001
 3.8528573787e+000	 2.6917447910e+000	-3.6244169621e-001
 3.8249823695e+000	 2.7312103313e+000	-3.6562604908e-001
 3.7966788475e+000	 2.7704204968e+000	-3.6610212656e-001
 3.7679502789e+000	 2.8093683802e+000	-3.6417678154e-001
 3.7388002768e+000	 2.8480471362e+000	-3.7423530474e-001
 3.7092326005e+000	 2.8864499850e+000	-4.0337334129e-001
 3.6792511533e+000	 2.9245702165e+000	-4.2803398032e-001
 3.6488599816e+000	 2.9624011941e+000	-4.4812403158e-001
 3.9548037905e+000	 2.5855660847e+000	-3.2902481342e-001
 3.9280922951e+000	 2.6259695202e+000	-3.4475618327e-001
 3.9009404541e+000	 2.6661373884e+000	-3.5678421279e-001
 3.8733513009e+000	 2.7060625825e+000	-3.6539992651e-001
 3.8453280204e+000	 2.7457380458e+000	-3.7090374951e-001
 3.8168739478e+000	 2.7851567760e+000	-3.7360496333e-001
 3.7879925676e+000	 2.8243118291e+000	-3.7382113948e-001
 3.7586875124e+000	 2.8631963231e+000	-3.7187755176e-001
 3.7289625611e+000	 2.9018034423e+000	-3.9328854549e-001
 3.6988216382e+000	 2.9401264410e+000	-4.2107000002e-001
 3.6682688113e+000	 2.9781586473e+000	-4.4425171352e-001
 3.9757286783e+000	 2.5992463286e+000	-3.2300833765e-001
 3.9488758523e+000	 2.6398635388e+000	-3.4148368117e-001
 3.9215803507e+000	 2.6802439354e+000	-3.5612976635e-001
 3.8938452231e+000	 2.7203803739e+000	-3.6724774883e-001
 3.8656736713e+000	 2.7602657603e+000	-3.7514840673e-001
 3.8370690480e+000	 2.7998930552e+000	-3.8015158219e-001
 3.8080348563e+000	 2.8392552779e+000	-3.8258559997e-001
 3.7785747479e+000	 2.8783455100e+000	-3.8278666439e-001
 3.7486925218e+000	 2.9171568997e+000	-3.8265770070e-001
 3.7183921230e+000	 2.9556826656e+000	-4.1367123915e-001
 3.6876776410e+000	 2.9939161004e+000	-4.4005680675e-001
 3.4935893441e+000	 2.8363415688e+000	-4.6886901355e-001
 3.4641031334e+000	 2.8722794922e+000	-4.8818408780e-001
 3.4342327849e+000	 2.9079279873e+000	-5.0567467196e-001
 3.4039825722e+000	 2.9432809326e+000	-5.2109024190e-001
 3.3733568988e+000	 2.9783322907e+000	-5.3417803769e-001
 3.3423602950e+000	 3.0130761123e+000	-5.4468336608e-001
 3.3109974166e+000	 3.0475065394e+000	-5.5234991217e-001
 3.2792730419e+000	 3.0816178084e+000	-5.5692005960e-001
 3.2471920698e+000	 3.1154042534e+000	-5.5813521876e-001
 3.2147595170e+000	 3.1488603094e+000	-5.6301129823e-001
 3.1819805154e+000	 3.1819805154e+000	-5.7084588354e-001
 3.5129981738e+000	 2.8520990220e+000	-4.6716755058e-001
 3.4833481508e+000	 2.8882366005e+000	-4.8631062543e-001
 3.4533118559e+000	 2.9240831428e+000	-5.0345926829e-001
 3.4228935865e+000	 2.9596324933e+000	-5.1836420485e-001
 3.3920977704e+000	 2.9948785812e+000	-5.3077400112e-001
 3.3609289633e+000	 3.0298154240e+000	-5.4043536537e-001
 3.3293918467e+000	 3.0644371313e+000	-5.4709345920e-001
 3.2974912255e+000	 3.0987379073e+000	-5.5049221722e-001
 3.2652320257e+000	 3.1327120548e+000	-5.5202993290e-001
 3.2326192921e+000	 3.1663539778e+000	-5.5795796823e-001
 3.1996581849e+000	 3.1996581849e+000	-5.6440105335e-001
 3.5324070035e+000	 2.8678564751e+000	-4.6523275493e-001
 3.5025931682e+000	 2.9041937088e+000	-4.8429529595e-001
 3.4723909269e+000	 2.9402382983e+000	-5.0119568164e-001
 3.4418046008e+000	 2.9759840540e+000	-5.1568583311e-001
 3.4108386421e+000	 3.0114248717e+000	-5.2751558547e-001
 3.3794976316e+000	 3.0465547358e+000	-5.3643298923e-001
 3.3477862768e+000	 3.0813677232e+000	-5.4218462090e-001
 3.3157094090e+000	 3.1158580062e+000	-5.4451590215e-001
 3.2832719817e+000	 3.1500198562e+000	-5.4791797209e-001
 3.2504790672e+000	 3.1838476462e+000	-5.5265273999e-001
 3.2173358544e+000	 3.2173358544e+000	-5.5776540693e-001
 3.5518158332e+000	 2.8836139283e+000	-4.6305417191e-001
 3.5218381856e+000	 2.9201508170e+000	-4.8212651653e-001
 3.4914699980e+000	 2.9563934538e+000	-4.9887118722e-001
 3.4607156151e+000	 2.9923356148e+000	-5.1304124656e-001
 3.4295795138e+000	 3.0279711622e+000	-5.2438774236e-001
 3.3980662999e+000	 3.0632940475e+000	-5.3266000860e-001
 3.3661807068e+000	 3.0982983150e+000	-5.3760597554e-001
 3.3339275926e+000	 3.1329781052e+000	-5.3986654713e-001
 3.3013119376e+000	 3.1673276576e+000	-5.4351270436e-001
 3.2683388423e+000	 3.2013413146e+000	-5.4711288358e-001
 3.2350135239e+000	 3.2350135239e+000	-5.5095415138e-001
 3.5712246628e+000	 2.8993713815e+000	-4.6062113518e-001
 3.5410832031e+000	 2.9361079253e+000	-4.7979251746e-001
 3.5105490690e+000	 2.9725486093e+000	-4.9647289862e-001
 3.4796266294e+000	 3.0086871755e+000	-5.1041642928e-001
 3.4483203854e+000	 3.0445174527e+000	-5.2137531399e-001
 3.4166349682e+000	 3.0800333592e+000	-5.2910011184e-001
 3.3845751369e+000	 3.1152289069e+000	-5.3334004620e-001
 3.3521457762e+000	 3.1500982041e+000	-5.3611525711e-001
 3.3193518936e+000	 3.1846354590e+000	-5.3883343242e-001
 3.2861986174e+000	 3.2188349829e+000	-5.4135569890e-001
 3.2526911935e+000	 3.2526911935e+000	-5.4398255292e-001
 3.5906334925e+000	 2.9151288346e+000	-4.5792277245e-001
 3.5603282205e+000	 2.9520650336e+000	-4.7728134714e-001
 3.5296281400e+000	 2.9887037647e+000	-4.9398777221e-001
 3.4985376437e+000	 3.0250387362e+000	-5.0779723324e-001
 3.4670612571e+000	 3.0610637432e+000	-5.1846303606e-001
 3.4352036365e+000	 3.0967726710e+000	-5.2573690700e-001
 3.4029695670e+000	 3.1321594988e+000	-5.2955396168e-001
 3.3703639597e+000	 3.1672183030e+000	-5.3205474383e-001
 3.3373918495e+000	 3.2019432604e+000	-5.3389945997e-001
 3.3040583925e+000	 3.2363286513e+000	-5.3539851490e-001
 3.2703688630e+000	 3.2703688630e+000	-5.3686593527e-001
 3.6100423222e+000	 2.9308862878e+000	-4.5494801106e-001
 3.5795732379e+000	 2.9680221419e+000	-4.7458087700e-001
 3.5487072110e+000	 3.0048589202e+000	-4.9140261128e-001
 3.5174486580e+000	 3.0413902970e+000	-5.0516938182e-001
 3.4858021287e+000	 3.0776100337e+000	-5.1563554068e-001
 3.4537723048e+000	 3.1135119827e+000	-5.2255392395e-001
 3.4213639971e+000	 3.1490900907e+000	-5.2586327991e-001
 3.3885821433e+000	 3.1843384020e+000	-5.2770622781e-001
 3.3554318055e+000	 3.2192510618e+000	-5.2873009171e-001
 3.3219181675e+000	 3.2538223197e+000	-5.2925868877e-001
 3.2880465325e+000	 3.2880465325e+000	-5.2961967810e-001
 3.6294511519e+000	 2.9466437410e+000	-4.5168558330e-001
 3.5988182553e+000	 2.9839792502e+000	-4.7167880625e-001
 3.5677862821e+000	 3.0210140757e+000	-4.8870407022e-001
 3.5363596723e+000	 3.0577418577e+000	-5.0251847330e-001
 3.5045430004e+000	 3.0941563242e+000	-5.1287735911e-001
 3.4723409732e+000	 3.1302512944e+000	-5.1930479549e-001
 3.4397584272e+000	 3.1660206826e+000	-5.2185508635e-001
 3.4068003269e+000	 3.2014585009e+000	-5.2309090440e-001
 3.3734717614e+000	 3.2365588632e+000	-5.2334463326e-001
 3.3397779426e+000	 3.2713159881e+000	-5.2295360523e-001
 3.3057242021e+000	 3.3057242021e+000	-5.2225921559e-001
 3.6488599816e+000	 2.9624011941e+000	-4.4812403158e-001
 3.6180632727e+000	 2.9999363585e+000	-4.6856266640e-001
 3.5868653531e+000	 3.0371692312e+000	-4.8587865843e-001
 3.5552706866e+000	 3.0740934184e+000	-4.9982998413e-001
 3.5232838721e+000	 3.1107026147e+000	-5.1017292445e-001
 3.4909096415e+000	 3.1469906062e+000	-5.1538395099e-001
 3.4581528573e+000	 3.1829512745e+000	-5.1755238373e-001
 3.4250185104e+000	 3.2185785998e+000	-5.1822994443e-001
 3.3915117174e+000	 3.2538666646e+000	-5.1776239120e-001
 3.3576377177e+000	 3.2888096565e+000	-5.1650067577e-001
 3.3234018716e+000	 3.3234018716e+000	-5.1480003489e-001
 3.6682688113e+000	 2.9781586473e+000	-4.4425171352e-001
 3.6373082901e+000	 3.0158934668e+000	-4.6521982578e-001
 3.6059444241e+000	 3.0533243867e+000	-4.8291274419e-001
 3.5741817009e+000	 3.0904449792e+000	-4.9708927218e-001
 3.5420247437e+000	 3.1272489052e+000	-5.0729022584e-001
 3.5094783098e+000	 3.1637299179e+000	-5.1114433091e-001
 3.4765472874e+000	 3.1998818664e+000	-5.1297812660e-001
 3.4432366940e+000	 3.2356986988e+000	-5.1314449490e-001
 3.4095516733e+000	 3.2711744660e+000	-5.1200267301e-001
 3.3754974928e+000	 3.3063033249e+000	-5.0991733792e-001
 3.3410795411e+000	 3.3410795411e+000	-5.0725767481e-001
 3.6876776410e+000	 2.9939161004e+000	-4.4005680675e-001
 3.6565533075e+000	 3.0318505751e+000	-4.6163749375e-001
 3.6250234951e+000	 3.0694795422e+000	-4.7979255832e-001
 3.5930927152e+000	 3.1067965399e+000	-4.9428157987e-001
 3.5607656154e+000	 3.1437951957e+000	-5.0285559584e-001
 3.5280469781e+000	 3.1804692296e+000	-5.0661059365e-001
 3.4949417175e+000	 3.2168124582e+000	-5.0815522260e-001
 3.4614548776e+000	 3.2528187977e+000	-5.0785567961e-001
 3.4275916292e+000	 3.2884822674e+000	-5.0608478706e-001
 3.3933572679e+000	 3.3237969933e+000	-5.0322105461e-001
 3.3587572107e+000	 3.3587572106e+000	-4.9964772437e-001
 3.1819805154e+000	 3.1819805154e+000	-5.7084588354e-001
 3.1488603094e+000	 3.2147595170e+000	-5.7601172939e-001
 3.1154042534e+000	 3.2471920698e+000	-5.7517953287e-001
 3.0816178084e+000	 3.2792730419e+000	-5.6251805897e-001
 3.0475065394e+000	 3.3109974166e+000	-5.5241810470e-001
 3.0130761123e+000	 3.3423602950e+000	-5.4470205628e-001
 2.9783322907e+000	 3.3733568988e+000	-5.3919254573e-001
 2.9432809326e+000	 3.4039825722e+000	-5.3571266452e-001
 2.9079279873e+000	 3.4342327849e+000	-5.3408617118e-001
 2.8722794922e+000	 3.4641031334e+000	-5.3413769242e-001
 2.8363415688e+000	 3.4935893441e+000	-5.3569291744e-001
 3.1996581849e+000	 3.1996581849e+000	-5.6440105335e-001
 3.1663539778e+000	 3.2326192921e+000	-5.6913495249e-001
 3.1327120548e+000	 3.2652320257e+000	-5.7334275602e-001
 3.0987379073e+000	 3.2974912255e+000	-5.6455138125e-001
 3.0644371313e+000	 3.3293918467e+000	-5.5436682952e-001
 3.0298154240e+000	 3.3609289633e+000	-5.4671008066e-001
 2.9948785812e+000	 3.3920977704e+000	-5.4139752647e-001
 2.9596324933e+000	 3.4228935865e+000	-5.3824596980e-001
 2.9240831428e+000	 3.4533118559e+000	-5.3707283926e-001
 2.8882366005e+000	 3.4833481508e+000	-5.3769639736e-001
 2.8520990220e+000	 3.5129981738e+000	-5.3993594179e-001
 3.2173358544e+000	 3.2173358544e+000	-5.5776540693e-001
 3.1838476462e+000	 3.2504790672e+000	-5.6198221540e-001
 3.1500198562e+000	 3.2832719817e+000	-5.6578068202e-001
 3.1158580062e+000	 3.3157094090e+000	-5.6526325254e-001
 3.0813677232e+000	 3.3477862768e+000	-5.5495198935e-001
 3.0465547358e+000	 3.3794976316e+000	-5.4731081280e-001
 3.0114248717e+000	 3.4108386421e+000	-5.4214988893e-001
 2.9759840540e+000	 3.4418046008e+000	-5.3927974840e-001
 2.9402382983e+000	 3.4723909269e+000	-5.3851150818e-001
 2.9041937088e+000	 3.5025931682e+000	-5.3965708675e-001
 2.8678564751e+000	 3.5324070035e+000	-5.4252941234e-001
 3.2350135239e+000	 3.2350135239e+000	-5.5095415138e-001
 3.2013413146e+000	 3.2683388423e+000	-5.5456903743e-001
 3.1673276576e+000	 3.3013119376e+000	-5.5787146892e-001
 3.1329781052e+000	 3.3339275926e+000	-5.6119096926e-001
 3.0982983150e+000	 3.3661807068e+000	-5.5419512009e-001
 3.0632940475e+000	 3.3980662999e+000	-5.4652692551e-001
 3.0279711622e+000	 3.4295795138e+000	-5.4147345044e-001
 2.9923356148e+000	 3.4607156151e+000	-5.3883896911e-001
 2.9563934538e+000	 3.4914699980e+000	-5.3842830458e-001
 2.9201508170e+000	 3.5218381856e+000	-5.4004705089e-001
 2.8836139283e+000	 3.5518158332e+000	-5.4350178823e-001
 3.2526911935e+000	 3.2526911935e+000	-5.4398255292e-001
 3.2188349829e+000	 3.2861986174e+000	-5.4691097440e-001
 3.1846354590e+000	 3.3193518936e+000	-5.4963097382e-001
 3.1500982041e+000	 3.3521457762e+000	-5.5247756668e-001
 3.1152289069e+000	 3.3845751369e+000	-5.5211772377e-001
 3.0800333592e+000	 3.4166349682e+000	-5.4438103346e-001
 3.0445174527e+000	 3.4483203854e+000	-5.3939194544e-001
 3.0086871755e+000	 3.4796266294e+000	-5.3694849275e-001
 2.9725486093e+000	 3.5105490690e+000	-5.3684922165e-001
 2.9361079253e+000	 3.5410832031e+000	-5.3889342075e-001
 2.8993713815e+000	 3.5712246628e+000	-5.4288134307e-001
 3.2703688630e+000	 3.2703688630e+000	-5.3686593527e-001
 3.2363286513e+000	 3.3040583925e+000	-5.3902361769e-001
 3.2019432604e+000	 3.3373918495e+000	-5.4107506692e-001
 3.1672183030e+000	 3.3703639597e+000	-5.4336096180e-001
 3.1321594988e+000	 3.4029695670e+000	-5.4622288398e-001
 3.0967726710e+000	 3.4352036365e+000	-5.4089569467e-001
 3.0610637432e+000	 3.4670612571e+000	-5.3592902770e-001
 3.0250387362e+000	 3.4985376437e+000	-5.3363307504e-001
 2.9887037647e+000	 3.5296281400e+000	-5.3380012270e-001
 2.9520650336e+000	 3.5603282205e+000	-5.3622317229e-001
 2.9151288346e+000	 3.5906334925e+000	-5.4069616997e-001
 3.2880465325e+000	 3.2880465325e+000	-5.2961967810e-001
 3.2538223197e+000	 3.3219181675e+000	-5.3092259325e-001
 3.2192510618e+000	 3.3554318055e+000	-5.3221963125e-001
 3.1843384020e+000	 3.3885821433e+000	-5.3385730606e-001
 3.1490900907e+000	 3.4213639971e+000	-5.3618297232e-001
 3.1135119827e+000	 3.4537723048e+000	-5.3609341209e-001
 3.0776100337e+000	 3.4858021287e+000	-5.3110827251e-001
 3.0413902970e+000	 3.5174486580e+000	-5.2891736945e-001
 3.0048589202e+000	 3.5487072110e+000	-5.2930674465e-001
 2.9680221419e+000	 3.5795732379e+000	-5.3206313061e-001
 2.9308862878e+000	 3.6100423222e+000	-5.3697418637e-001
 3.3057242021e+000	 3.3057242021e+000	-5.2225921559e-001
 3.2713159881e+000	 3.3397779426e+000	-5.2262356067e-001
 3.2365588632e+000	 3.3734717614e+000	-5.2308056222e-001
 3.2014585009e+000	 3.4068003269e+000	-5.2398274167e-001
 3.1660206826e+000	 3.4397584272e+000	-5.2568340054e-001
 3.1302512944e+000	 3.4723409732e+000	-5.2853568954e-001
 3.0941563242e+000	 3.5045430004e+000	-5.2495317879e-001
 3.0577418577e+000	 3.5363596723e+000	-5.2282592993e-001
 3.0210140757e+000	 3.5677862821e+000	-5.2339470143e-001
 2.9839792502e+000	 3.5988182553e+000	-5.2643997399e-001
 2.9466437410e+000	 3.6294511519e+000	-5.3174313876e-001
 3.3234018716e+000	 3.3234018716e+000	-5.1480003489e-001
 3.2888096565e+000	 3.3576377177e+000	-5.1414221234e-001
 3.2538666646e+000	 3.3915117174e+000	-5.1367376738e-001
 3.2185785998e+000	 3.4250185104e+000	-5.1375340191e-001
 3.1829512745e+000	 3.4581528573e+000	-5.1474053881e-001
 3.1469906062e+000	 3.4909096415e+000	-5.1699437582e-001
 3.1107026147e+000	 3.5232838721e+000	-5.1748717106e-001
 3.0740934184e+000	 3.5552706866e+000	-5.1538321356e-001
 3.0371692312e+000	 3.5868653531e+000	-5.1608948721e-001
 2.9999363585e+000	 3.6180632727e+000	-5.1938023778e-001
 2.9624011941e+000	 3.6488599816e+000	-5.2503060719e-001
 3.3410795411e+000	 3.3410795411e+000	-5.0725767481e-001
 3.3063033249e+000	 3.3754974928e+000	-5.0549427251e-001
 3.2711744660e+000	 3.4095516733e+000	-5.0401516605e-001
 3.2356986988e+000	 3.4432366940e+000	-5.0318541132e-001
 3.1998818664e+000	 3.4765472874e+000	-5.0337072772e-001
 3.1637299179e+000	 3.5094783098e+000	-5.0493653633e-001
 3.1272489052e+000	 3.5420247437e+000	-5.0824699721e-001
 3.0904449792e+000	 3.5741817009e+000	-5.0661358309e-001
 3.0533243867e+000	 3.6059444241e+000	-5.0741647964e-001
 3.0158934668e+000	 3.6373082901e+000	-5.1091031823e-001
 2.9781586473e+000	 3.6682688113e+000	-5.1686400972e-001
 3.3587572107e+000	 3.3587572106e+000	-4.9964772437e-001
 3.3237969933e+000	 3.3933572679e+000	-4.9669549650e-001
 3.2884822674e+000	 3.4275916292e+000	-4.9412068903e-001
 3.2528187977e+000	 3.4614548776e+000	-4.9229488600e-001
 3.2168124582e+000	 3.4949417175e+000	-4.9159027905e-001
 3.1804692296e+000	 3.5280469781e+000	-4.9237868959e-001
 3.1437951957e+000	 3.5607656154e+000	-4.9503059036e-001
 3.1067965399e+000	 3.5930927152e+000	-4.9654130945e-001
 3.0694795422e+000	 3.6250234951e+000	-4.9740094284e-001
 3.0318505751e+000	 3.6565533075e+000	-5.0105647608e-001
 2.9939161004e+000	 3.6876776410e+000	-5.0727060666e-001
 2.8363415688e+000	 3.4935893441e+000	-5.3569291744e-001
 2.8001204200e+000	 3.5226872744e+000	-5.2894536245e-001
 2.7636223260e+000	 3.5513929153e+000	-5.2499354812e-001
 2.7268536410e+000	 3.5797023927e+000	-5.2365433104e-001
 2.6898207896e+000	 3.6076119692e+000	-5.2474483776e-001
 2.6525302629e+000	 3.6351180455e+000	-5.2808264395e-001
 2.6149886150e+000	 3.6622171622e+000	-5.3348594725e-001
 2.5772024595e+000	 3.6889060008e+000	-5.4077373360e-001
 2.5391784651e+000	 3.7151813848e+000	-5.4976593683e-001
 2.5009233526e+000	 3.7410402811e+000	-5.6028359161e-001
 2.4624438902e+000	 3.7664798005e+000	-5.1137607934e-001
 2.8520990220e+000	 3.5129981738e+000	-5.3993594179e-001
 2.8156766446e+000	 3.5422577593e+000	-5.3394748070e-001
 2.7789757834e+000	 3.5711228760e+000	-5.3081662426e-001
 2.7420028279e+000	 3.5995896282e+000	-5.3037289098e-001
 2.7047642384e+000	 3.6276542579e+000	-5.3244601591e-001
 2.6672665421e+000	 3.6553131458e+000	-5.3686611624e-001
 2.6295163296e+000	 3.6825628131e+000	-5.4346385058e-001
 2.5915202509e+000	 3.7093999231e+000	-5.5207057188e-001
 2.5532850122e+000	 3.7358212814e+000	-5.6251847378e-001
 2.5148173712e+000	 3.7618238382e+000	-5.5529268735e-001
 2.4761241341e+000	 3.7874046883e+000	-5.0627556510e-001
 2.8678564751e+000	 3.5324070035e+000	-5.4252941234e-001
 2.8312328691e+000	 3.5618282442e+000	-5.3757429691e-001
 2.7943292408e+000	 3.5908528366e+000	-5.3553746831e-001
 2.7571520148e+000	 3.6194768638e+000	-5.3626097692e-001
 2.7197076873e+000	 3.6476965466e+000	-5.3958703837e-001
 2.6820028213e+000	 3.6755082460e+000	-5.4535818563e-001
 2.6440440441e+000	 3.7029084640e+000	-5.5341741491e-001
 2.6058380424e+000	 3.7298938453e+000	-5.6360832522e-001
 2.5673915592e+000	 3.7564611780e+000	-5.6533539576e-001
 2.5287113898e+000	 3.7826073953e+000	-5.3673888463e-001
 2.4898043779e+000	 3.8083295761e+000	-5.0173922030e-001
 2.8836139283e+000	 3.5518158332e+000	-5.4350178823e-001
 2.8467890937e+000	 3.5813987290e+000	-5.3985007827e-001
 2.8096826981e+000	 3.6105827973e+000	-5.3917615481e-001
 2.7723012017e+000	 3.6393640993e+000	-5.4133447202e-001
 2.7346511361e+000	 3.6677388353e+000	-5.4617960017e-001
 2.6967391006e+000	 3.6957033463e+000	-5.5356636430e-001
 2.6585717586e+000	 3.7232541150e+000	-5.6334997681e-001
 2.6201558338e+000	 3.7503877675e+000	-5.7477006884e-001
 2.5814981062e+000	 3.7771010746e+000	-5.4604228938e-001
 2.5426054084e+000	 3.8033909524e+000	-5.1936464381e-001
 2.5034846217e+000	 3.8292544638e+000	-4.9498021299e-001
 2.8993713815e+000	 3.5712246628e+000	-5.4288134307e-001
 2.8623453183e+000	 3.6009692139e+000	-5.4079899658e-001
 2.8250361555e+000	 3.6303127579e+000	-5.4175275277e-001
 2.7874503886e+000	 3.6592513348e+000	-5.4560934350e-001
 2.7495945849e+000	 3.6877811240e+000	-5.5223556969e-001
 2.7114753798e+000	 3.7158984465e+000	-5.6149842671e-001
 2.6730994731e+000	 3.7435997659e+000	-5.7326522373e-001
 2.6344736253e+000	 3.7708816897e+000	-5.5447760919e-001
 2.5956046532e+000	 3.7977409712e+000	-5.2770096384e-001
 2.5564994271e+000	 3.8241745096e+000	-5.0316005050e-001
 2.5171648656e+000	 3.8501793516e+000	-4.8111784058e-001
 2.9151288346e+000	 3.5906334925e+000	-5.4069616997e-001
 2.8779015428e+000	 3.6205396987e+000	-5.4044513077e-001
 2.8403896129e+000	 3.6500427186e+000	-5.4328732578e-001
 2.8025995755e+000	 3.6791385703e+000	-5.4910164036e-001
 2.7645380338e+000	 3.7078234128e+000	-5.5776698403e-001
 2.7262116591e+000	 3.7360935468e+000	-5.6916240262e-001
 2.6876271877e+000	 3.7639454168e+000	-5.6165927510e-001
 2.6487914167e+000	 3.7913756120e+000	-5.3491794459e-001
 2.6097112003e+000	 3.8183808678e+000	-5.1030665152e-001
 2.5703934457e+000	 3.8449580667e+000	-4.8811578753e-001
 2.5308451094e+000	 3.8711042394e+000	-4.6862822281e-001
 2.9308862878e+000	 3.6100423222e+000	-5.3697418637e-001
 2.8934577674e+000	 3.6401101836e+000	-5.3881246945e-001
 2.8557430702e+000	 3.6697726792e+000	-5.4379993221e-001
 2.8177487624e+000	 3.6990258058e+000	-5.5182749122e-001
 2.7794814826e+000	 3.7278657015e+000	-5.6278604441e-001
 2.7409479383e+000	 3.7562886470e+000	-5.6712696478e-001
 2.7021549022e+000	 3.7842910677e+000	-5.4062115327e-001
 2.6631092081e+000	 3.8118695342e+000	-5.1609129528e-001
 2.6238177473e+000	 3.8390207644e+000	-4.9385508348e-001
 2.5842874643e+000	 3.8657416238e+000	-4.7422311894e-001
 2.5445253532e+000	 3.8920291272e+000	-4.5749818146e-001
 2.9466437410e+000	 3.6294511519e+000	-5.3174313876e-001
 2.9090139919e+000	 3.6596806685e+000	-5.3592491326e-001
 2.8710965276e+000	 3.6895026398e+000	-5.4331062529e-001
 2.8328979493e+000	 3.7189130413e+000	-5.5380310216e-001
 2.7944249314e+000	 3.7479079902e+000	-5.6730511184e-001
 2.7556842175e+000	 3.7764837473e+000	-5.4434087113e-001
 2.7166826167e+000	 3.8046367186e+000	-5.2011048034e-001
 2.6774269996e+000	 3.8323634564e+000	-4.9799828607e-001
 2.6379242943e+000	 3.8596606609e+000	-4.7834247615e-001
 2.5981814829e+000	 3.8865251809e+000	-4.6147387442e-001
 2.5582055971e+000	 3.9129540150e+000	-4.4771518377e-001
 2.9624011941e+000	 3.6488599816e+000	-5.2503060719e-001
 2.9245702165e+000	 3.6792511533e+000	-5.3180627727e-001
 2.8864499850e+000	 3.7092326005e+000	-5.4183945330e-001
 2.8480471362e+000	 3.7388002768e+000	-5.5504475466e-001
 2.8093683802e+000	 3.7679502789e+000	-5.4553118339e-001
 2.7704204968e+000	 3.7966788475e+000	-5.2188488280e-001
 2.7312103313e+000	 3.8249823695e+000	-5.0013262331e-001
 2.6917447910e+000	 3.8528573787e+000	-4.8063993557e-001
 2.6520308414e+000	 3.8803005575e+000	-4.6376551836e-001
 2.6120755016e+000	 3.9073087380e+000	-4.4986043426e-001
 2.5718858409e+000	 3.9338789027e+000	-4.3926732524e-001
 2.9781586473e+000	 3.6682688113e+000	-5.1686400972e-001
 2.9401264410e+000	 3.6988216382e+000	-5.2648029320e-001
 2.9018034423e+000	 3.7289625611e+000	-5.3940645965e-001
 2.8631963231e+000	 3.7586875124e+000	-5.4356921397e-001
 2.8243118291e+000	 3.7879925676e+000	-5.2085845596e-001
 2.7851567760e+000	 3.8168739478e+000	-4.9976896027e-001
 2.7457380458e+000	 3.8453280204e+000	-4.8069325560e-001
 2.7060625825e+000	 3.8733513009e+000	-4.6401764579e-001
 2.6661373884e+000	 3.9009404541e+000	-4.5012135891e-001
 2.6259695202e+000	 3.9280922951e+000	-4.3937571480e-001
 2.5855660847e+000	 3.9548037905e+000	-4.3214331306e-001
 2.9939161004e+000	 3.6876776410e+000	-5.0727060666e-001
 2.9556826656e+000	 3.7183921230e+000	-5.1997061165e-001
 2.9171568997e+000	 3.7486925218e+000	-5.3603168306e-001
 2.8783455100e+000	 3.7785747479e+000	-5.1639767612e-001
 2.8392552779e+000	 3.8080348563e+000	-4.9634090855e-001
 2.7998930552e+000	 3.8370690480e+000	-4.7800328707e-001
 2.7602657603e+000	 3.8656736713e+000	-4.6179834900e-001
 2.7203803739e+000	 3.8938452231e+000	-4.4813319202e-001
 2.6802439354e+000	 3.9215803507e+000	-4.3740759441e-001
 2.6398635388e+000	 3.9488758523e+000	-4.3001315431e-001
 2.5992463286e+000	 3.9757286783e+000	-4.2633244997e-001
 2.4624438902e+000	 3.7664798005e+000	-5.1137607934e-001
 2.4237468907e+000	 3.7914971990e+000	-4.7457911201e-001
 2.3848392068e+000	 3.8160898781e+000	-4.4238655063e-001
 2.3457277277e+000	 3.8402553857e+000	-4.1492903055e-001
 2.3064193751e+000	 3.8639914164e+000	-3.9233159116e-001
 2.2669210994e+000	 3.8872958119e+000	-3.7471319486e-001
 2.2272398761e+000	 3.9101665609e+000	-3.6218625814e-001
 2.1873827014e+000	 3.9326018000e+000	-3.5485619600e-001
 2.1473565890e+000	 3.9545998128e+000	-3.5282098094e-001
 2.1071685659e+000	 3.9761590304e+000	-3.5617071796e-001
 2.0668256687e+000	 3.9972780307e+000	-3.6498723645e-001
 2.4761241341e+000	 3.7874046883e+000	-5.0627556510e-001
 2.4372121512e+000	 3.8125610723e+000	-4.7289974034e-001
 2.3980883135e+000	 3.8372903774e+000	-4.4384659677e-001
 2.3587595484e+000	 3.8615901379e+000	-4.1922263183e-001
 2.3192328160e+000	 3.8854580354e+000	-3.9912927745e-001
 2.2795151055e+000	 3.9088918997e+000	-3.8366243257e-001
 2.2396134310e+000	 3.9318897085e+000	-3.7291200681e-001
 2.1995348275e+000	 3.9544495878e+000	-3.6696147676e-001
 2.1592863478e+000	 3.9765698118e+000	-3.6588745589e-001
 2.1188750579e+000	 3.9982488028e+000	-3.6975927965e-001
 2.0783080336e+000	 4.0194851309e+000	-3.7863860662e-001
 2.4898043779e+000	 3.8083295761e+000	-5.0173922030e-001
 2.4506774117e+000	 3.8336249456e+000	-4.7123864285e-001
 2.4113374202e+000	 3.8584908768e+000	-4.4478341149e-001
 2.3717913691e+000	 3.8829248900e+000	-4.2245622033e-001
 2.3320462570e+000	 3.9069246544e+000	-4.0433522427e-001
 2.2921091116e+000	 3.9304879876e+000	-3.9049358469e-001
 2.2519869858e+000	 3.9536128561e+000	-3.8099902551e-001
 2.2116869537e+000	 3.9762973756e+000	-3.7591340081e-001
 2.1712161067e+000	 3.9985398108e+000	-3.7529227552e-001
 2.1305815500e+000	 4.0203385752e+000	-3.7918452016e-001
 2.0897903984e+000	 4.0416922311e+000	-3.8763192099e-001
 2.5034846217e+000	 3.8292544638e+000	-4.9498021299e-001
 2.4641426722e+000	 3.8546888190e+000	-4.6961543372e-001
 2.4245865269e+000	 3.8796913761e+000	-4.4522439818e-001
 2.3848231898e+000	 3.9042596422e+000	-4.2466489421e-001
 2.3448596980e+000	 3.9283912734e+000	-4.0799212734e-001
 2.3047031177e+000	 3.9520840754e+000	-3.9525684468e-001
 2.2643605407e+000	 3.9753360036e+000	-3.8650490289e-001
 2.2238390798e+000	 3.9981451634e+000	-3.8177684706e-001
 2.1831458655e+000	 4.0205098097e+000	-3.8110750151e-001
 2.1422880420e+000	 4.0424283476e+000	-3.8452557414e-001
 2.1012727632e+000	 4.0638993313e+000	-3.9205327515e-001
 2.5171648656e+000	 3.8501793516e+000	-4.8111784058e-001
 2.4776079327e+000	 3.8757526923e+000	-4.6805023853e-001
 2.4378356336e+000	 3.9008918754e+000	-4.4519728426e-001
 2.3978550105e+000	 3.9255943943e+000	-4.2588389008e-001
 2.3576731389e+000	 3.9498578924e+000	-4.1014263713e-001
 2.3172971239e+000	 3.9736801633e+000	-3.9800217888e-001
 2.2767340956e+000	 3.9970591512e+000	-3.8948682078e-001
 2.2359912059e+000	 4.0199929511e+000	-3.8461610981e-001
 2.1950756243e+000	 4.0424798087e+000	-3.8340443542e-001
 2.1539945340e+000	 4.0645181200e+000	-3.8586064286e-001
 2.1127551280e+000	 4.0861064314e+000	-3.9198766028e-001
 2.5308451094e+000	 3.8711042394e+000	-4.6862822281e-001
 2.4910731932e+000	 3.8968165656e+000	-4.6656368040e-001
 2.4510847403e+000	 3.9220923747e+000	-4.4473011241e-001
 2.4108868312e+000	 3.9469291465e+000	-4.2614857924e-001
 2.3704865799e+000	 3.9713245114e+000	-4.1082936003e-001
 2.3298911300e+000	 3.9952762511e+000	-3.9877933273e-001
 2.2891076504e+000	 4.0187822988e+000	-3.9000156508e-001
 2.2481433320e+000	 4.0418407389e+000	-3.8449491463e-001
 2.2070053831e+000	 4.0644498076e+000	-3.8225363926e-001
 2.1657010260e+000	 4.0866078923e+000	-3.8326701937e-001
 2.1242374928e+000	 4.1083135316e+000	-3.8751899301e-001
 2.5445253532e+000	 3.8920291272e+000	-4.5749818146e-001
 2.5045384537e+000	 3.9178804389e+000	-4.6207824757e-001
 2.4643338470e+000	 3.9432928740e+000	-4.4385123211e-001
 2.4239186519e+000	 3.9682638986e+000	-4.2549446408e-001
 2.3833000209e+000	 3.9927911303e+000	-4.1009485954e-001
 2.3424851361e+000	 4.0168723389e+000	-3.9763783662e-001
 2.3014812053e+000	 4.0405054463e+000	-3.8810553650e-001
 2.2602954581e+000	 4.0636885267e+000	-3.8147643359e-001
 2.2189351420e+000	 4.0864198066e+000	-3.7772495534e-001
 2.1774075181e+000	 4.1086976647e+000	-3.7682111297e-001
 2.1357198577e+000	 4.1305206318e+000	-3.7873014426e-001
 2.5582055971e+000	 3.9129540150e+000	-4.4771518377e-001
 2.5180037142e+000	 3.9389443123e+000	-4.5209495110e-001
 2.4775829537e+000	 3.9644933734e+000	-4.4258929142e-001
 2.4369504726e+000	 3.9895986507e+000	-4.2395717455e-001
 2.3961134619e+000	 4.0142577493e+000	-4.0798165744e-001
 2.3550791422e+000	 4.0384684268e+000	-3.9462701169e-001
 2.3138547601e+000	 4.0622285939e+000	-3.8385476078e-001
 2.2724475842e+000	 4.0855363145e+000	-3.7562330006e-001
 2.2308649008e+000	 4.1083898056e+000	-3.6988752554e-001
 2.1891140101e+000	 4.1307874371e+000	-3.6659847282e-001
 2.1472022225e+000	 4.1527277319e+000	-3.6570296726e-001
 2.5718858409e+000	 3.9338789027e+000	-4.3926732524e-001
 2.5314689747e+000	 3.9600081856e+000	-4.4294547083e-001
 2.4908320604e+000	 3.9856938727e+000	-4.4097322906e-001
 2.4499822933e+000	 4.0109334029e+000	-4.2157246478e-001
 2.4089269028e+000	 4.0357243683e+000	-4.0453223489e-001
 2.3676731483e+000	 4.0600645146e+000	-3.8979597540e-001
 2.3262283150e+000	 4.0839517414e+000	-3.7730489873e-001
 2.2845997104e+000	 4.1073841022e+000	-3.6699762308e-001
 2.2427946596e+000	 4.1303598045e+000	-3.5880980992e-001
 2.2008205021e+000	 4.1528772095e+000	-3.5267381080e-001
 2.1586845873e+000	 4.1749348321e+000	-3.4851832457e-001
 2.5855660847e+000	 3.9548037905e+000	-4.3214331306e-001
 2.5449342352e+000	 3.9810720589e+000	-4.3462543934e-001
 2.5040811671e+000	 4.0068943720e+000	-4.3669397761e-001
 2.4630141140e+000	 4.0322681550e+000	-4.1837620982e-001
 2.4217403438e+000	 4.0571909873e+000	-3.9978903348e-001
 2.3802671544e+000	 4.0816606025e+000	-3.8319364689e-001
 2.3386018699e+000	 4.1056748890e+000	-3.6851125583e-001
 2.2967518365e+000	 4.1292318900e+000	-3.5566100118e-001
 2.2547244184e+000	 4.1523298035e+000	-3.4455960477e-001
 2.2125269942e+000	 4.1749669819e+000	-3.3512102367e-001
 2.1701669521e+000	 4.1971419323e+000	-3.2725611433e-001
 2.5992463286e+000	 3.9757286783e+000	-4.2633244997e-001
 2.5583994957e+000	 4.0021359322e+000	-4.2713092407e-001
 2.5173302738e+000	 4.0280948713e+000	-4.2727999791e-001
 2.4760459347e+000	 4.0536029072e+000	-4.1440440241e-001
 2.4345537848e+000	 4.0786576062e+000	-3.9379445631e-001
 2.3928611605e+000	 4.1032566903e+000	-3.7486875221e-001
 2.3509754247e+000	 4.1273980366e+000	-3.5752879160e-001
 2.3089039626e+000	 4.1510796778e+000	-3.4167453586e-001
 2.2666541773e+000	 4.1742998024e+000	-3.2720406006e-001
 2.2242334862e+000	 4.1970567543e+000	-3.1401321456e-001
 2.1816493170e+000	 4.2193490324e+000	-3.0199529559e-001
 2.0668256687e+000	 3.9972780307e+000	-3.6498723645e-001
 2.0263349401e+000	 4.0179555386e+000	-3.5434102233e-001
 1.9857034249e+000	 4.0381904250e+000	-3.4264607727e-001
 1.9449381662e+000	 4.0579817064e+000	-3.2975375847e-001
 1.9040462023e+000	 4.0773285445e+000	-3.1551415552e-001
 1.8630345624e+000	 4.0962302449e+000	-2.9582206304e-001
 1.8219102636e+000	 4.1146862567e+000	-2.6694646072e-001
 1.7806803072e+000	 4.1326961712e+000	-2.3908602297e-001
 1.7393516748e+000	 4.1502597210e+000	-2.1157539915e-001
 1.6979313258e+000	 4.1673767784e+000	-1.8376485155e-001
 1.6564261930e+000	 4.1840473548e+000	-1.5502123345e-001
 2.0783080336e+000	 4.0194851309e+000	-3.7863860662e-001
 2.0375923565e+000	 4.0402775138e+000	-3.6420100284e-001
 1.9967351106e+000	 4.0606248162e+000	-3.4945942980e-001
 1.9557433782e+000	 4.0805260492e+000	-3.3429810798e-001
 1.9146242367e+000	 4.0999803697e+000	-3.1859894409e-001
 1.8733847544e+000	 4.1189870796e+000	-3.0168291800e-001
 1.8320319873e+000	 4.1375456248e+000	-2.7187788868e-001
 1.7905729755e+000	 4.1556555944e+000	-2.4389864052e-001
 1.7490147397e+000	 4.1733167194e+000	-2.1709169349e-001
 1.7073642776e+000	 4.1905288716e+000	-1.9081840683e-001
 1.6656285608e+000	 4.2072920623e+000	-1.6445596426e-001
 2.0897903984e+000	 4.0416922311e+000	-3.8763192099e-001
 2.0488497728e+000	 4.0625994891e+000	-3.6997997263e-001
 2.0077667963e+000	 4.0830592075e+000	-3.5276121442e-001
 1.9665485903e+000	 4.1030703921e+000	-3.3589259935e-001
 1.9252022712e+000	 4.1226321950e+000	-3.1928772605e-001
 1.8837349464e+000	 4.1417439143e+000	-3.0285658625e-001
 1.8421537110e+000	 4.1604049929e+000	-2.7591934646e-001
 1.8004656439e+000	 4.1786150176e+000	-2.4847731339e-001
 1.7586778046e+000	 4.1963737179e+000	-2.2302016200e-001
 1.7167972294e+000	 4.2136809648e+000	-1.9891997624e-001
 1.6748309285e+000	 4.2305367698e+000	-1.7556390898e-001
 2.1012727632e+000	 4.0638993313e+000	-3.9205327515e-001
 2.0601071891e+000	 4.0849214643e+000	-3.7175342224e-001
 2.0187984819e+000	 4.1054935987e+000	-3.5261644799e-001
 1.9773538023e+000	 4.1256147349e+000	-3.3459191184e-001
 1.9357803056e+000	 4.1452840202e+000	-3.1762498375e-001
 1.8940851384e+000	 4.1645007490e+000	-3.0165616394e-001
 1.8522754347e+000	 4.1832643610e+000	-2.7902197067e-001
 1.8103583123e+000	 4.2015744408e+000	-2.5276573578e-001
 1.7683408694e+000	 4.2194307163e+000	-2.2929720891e-001
 1.7262301812e+000	 4.2368330580e+000	-2.0799882812e-001
 1.6840332963e+000	 4.2537814774e+000	-1.8826735566e-001
 2.1127551280e+000	 4.0861064314e+000	-3.9198766028e-001
 2.0713646055e+000	 4.1072434395e+000	-3.6959594856e-001
 2.0298301676e+000	 4.1279279900e+000	-3.4908946153e-001
 1.9881590143e+000	 4.1481590777e+000	-3.3045024365e-001
 1.9463583401e+000	 4.1679358455e+000	-3.1365492012e-001
 1.9044353304e+000	 4.1872575837e+000	-2.9867438881e-001
 1.8623971584e+000	 4.2061237291e+000	-2.8113701230e-001
 1.8202509806e+000	 4.2245338639e+000	-2.5670790821e-001
 1.7780039343e+000	 4.2424877148e+000	-2.3585973327e-001
 1.7356631330e+000	 4.2599851512e+000	-2.1798491065e-001
 1.6932356640e+000	 4.2770261849e+000	-2.0248945372e-001
 2.1242374928e+000	 4.1083135316e+000	-3.8751899301e-001
 2.0826220218e+000	 4.1295654147e+000	-3.6358127895e-001
 2.0408618533e+000	 4.1503623812e+000	-3.4224391875e-001
 1.9989642264e+000	 4.1707034205e+000	-3.2352132496e-001
 1.9569363745e+000	 4.1905876707e+000	-3.0742146632e-001
 1.9147855224e+000	 4.2100144184e+000	-2.9394553183e-001
 1.8725188821e+000	 4.2289830972e+000	-2.8221583361e-001
 1.8301436490e+000	 4.2474932871e+000	-2.6024812919e-001
 1.7876669991e+000	 4.2655447132e+000	-2.4264511555e-001
 1.7450960848e+000	 4.2831372445e+000	-2.2880883350e-001
 1.7024380317e+000	 4.3002708924e+000	-2.1815419071e-001
 2.1357198577e+000	 4.1305206318e+000	-3.7873014426e-001
 2.0938794381e+000	 4.1518873899e+000	-3.5378229468e-001
 2.0518935390e+000	 4.1727967725e+000	-3.3214283399e-001
 2.0097694384e+000	 4.1932477633e+000	-3.1385843044e-001
 1.9675144090e+000	 4.2132394960e+000	-2.9896828895e-001
 1.9251357145e+000	 4.2327712531e+000	-2.8750378734e-001
 1.8826406057e+000	 4.2518424653e+000	-2.7948813360e-001
 1.8400363174e+000	 4.2704527103e+000	-2.6333098721e-001
 1.7973300640e+000	 4.2886017116e+000	-2.4959120471e-001
 1.7545290366e+000	 4.3062893377e+000	-2.4040185007e-001
 1.7116403995e+000	 4.3235155999e+000	-2.3518636978e-001
 2.1472022225e+000	 4.1527277319e+000	-3.6570296726e-001
 2.1051368545e+000	 4.1742093651e+000	-3.4027105349e-001
 2.0629252247e+000	 4.1952311637e+000	-3.1884858959e-001
 2.0205746504e+000	 4.2157921061e+000	-3.0151439148e-001
 1.9780924434e+000	 4.2358913212e+000	-2.8833879718e-001
 1.9354859065e+000	 4.2555280878e+000	-2.7938327519e-001
 1.8927623294e+000	 4.2747018334e+000	-2.7470005563e-001
 1.8499289858e+000	 4.2934121334e+000	-2.6590135301e-001
 1.8069931288e+000	 4.3116587101e+000	-2.5663630568e-001
 1.7639619884e+000	 4.3294414309e+000	-2.5269584022e-001
 1.7208427672e+000	 4.3467603075e+000	-2.5351158785e-001
 2.1586845873e+000	 4.1749348321e+000	-3.4851832457e-001
 2.1163942708e+000	 4.1965313403e+000	-3.2311881152e-001
 2.0739569104e+000	 4.2176655550e+000	-3.0242295271e-001
 2.0313798625e+000	 4.2383364489e+000	-2.8654160798e-001
 1.9886704779e+000	 4.2585431465e+000	-2.7557614960e-001
 1.9458360985e+000	 4.2782849225e+000	-2.6961804268e-001
 1.9028840531e+000	 4.2975612015e+000	-2.6874845017e-001
 1.8598216541e+000	 4.3163715566e+000	-2.6790437206e-001
 1.8166561937e+000	 4.3347157085e+000	-2.6371916720e-001
 1.7733949402e+000	 4.3525935241e+000	-2.6562329367e-001
 1.7300451349e+000	 4.3700050150e+000	-2.7305621450e-001
 2.1701669521e+000	 4.1971419323e+000	-3.2725611433e-001
 2.1276516871e+000	 4.2188533156e+000	-3.0239604453e-001
 2.0849885961e+000	 4.2400999462e+000	-2.8292709157e-001
 2.0421850745e+000	 4.2608807917e+000	-2.6899205973e-001
 1.9992485124e+000	 4.2811949717e+000	-2.6072326079e-001
 1.9561862905e+000	 4.3010417572e+000	-2.5824206646e-001
 1.9130057768e+000	 4.3204205696e+000	-2.6165848711e-001
 1.8697143225e+000	 4.3393309798e+000	-2.6928545731e-001
 1.8263192586e+000	 4.3577727070e+000	-2.7077897013e-001
 1.7828278921e+000	 4.3757456173e+000	-2.7647107613e-001
 1.7392475027e+000	 4.3932497225e+000	-2.2600887365e-001
 2.1816493170e+000	 4.2193490324e+000	-3.0199529559e-001
 2.1389091034e+000	 4.2411752908e+000	-2.7817246840e-001
 2.0960202818e+000	 4.2625343375e+000	-2.6042159124e-001
 2.0529902865e+000	 4.2834251345e+000	-2.4891731751e-001
 2.0098265468e+000	 4.3038467969e+000	-2.4382280783e-001
 1.9665364825e+000	 4.3237985918e+000	-2.4528925443e-001
 1.9231275005e+000	 4.3432799376e+000	-2.5345543357e-001
 1.8796069909e+000	 4.3622904030e+000	-2.6844728718e-001
 1.8359823234e+000	 4.3808297054e+000	-2.5820986212e-001
 1.7922608439e+000	 4.3988977105e+000	-2.0890065695e-001
 1.7484498704e+000	 4.4164944300e+000	-1.6243030111e-001
 1.6564261930e+000	 4.1840473548e+000	-1.5502123345e-001
 1.6148431803e+000	 4.2002715988e+000	-1.2846000402e-001
 1.5731891585e+000	 4.2160497947e+000	-1.0593936805e-001
 1.5314709629e+000	 4.2313823616e+000	-8.6987017700e-002
 1.4896953899e+000	 4.2462698508e+000	-7.1143643105e-002
 1.4478691937e+000	 4.2607129448e+000	-5.7963655823e-002
 1.4059990840e+000	 4.2747124554e+000	-4.7015867826e-002
 1.3640917223e+000	 4.2882693215e+000	-3.7884125311e-002
 1.3221537197e+000	 4.3013846075e+000	-3.0167896773e-002
 1.2801916340e+000	 4.3140595013e+000	-2.3482814914e-002
 1.2382119668e+000	 4.3262953119e+000	-1.4240599409e-002
 1.6656285608e+000	 4.2072920623e+000	-1.6445596426e-001
 1.6238145313e+000	 4.2236064410e+000	-1.4354256484e-001
 1.5819290983e+000	 4.2394722936e+000	-1.2694586738e-001
 1.5399791349e+000	 4.2548900414e+000	-1.1418670156e-001
 1.4979714754e+000	 4.2698602388e+000	-1.0479887656e-001
 1.4559129115e+000	 4.2843835723e+000	-9.8329918918e-002
 1.4138101900e+000	 4.2984608579e+000	-9.4341765479e-002
 1.3716700096e+000	 4.3120930399e+000	-9.2411410616e-002
 1.3294990181e+000	 4.3252811887e+000	-9.2131507249e-002
 1.2873038097e+000	 4.3380264985e+000	-9.3110921141e-002
 1.2450909222e+000	 4.3503302858e+000	-9.3750884595e-002
 1.6748309285e+000	 4.2305367698e+000	-1.7556390898e-001
 1.6327858823e+000	 4.2469412832e+000	-1.6054628180e-001
 1.5906690380e+000	 4.2628947925e+000	-1.5011722631e-001
 1.5484873069e+000	 4.2783977212e+000	-1.4379049818e-001
 1.5062475609e+000	 4.2934506269e+000	-1.4109282059e-001
 1.4639566292e+000	 4.3080541997e+000	-1.4156463674e-001
 1.4216212960e+000	 4.3222092604e+000	-1.4476081687e-001
 1.3792482970e+000	 4.3359167584e+000	-1.5025131914e-001
 1.3368443166e+000	 4.3491777698e+000	-1.5762180368e-001
 1.2944159855e+000	 4.3619934957e+000	-1.6647419946e-001
 1.2519698775e+000	 4.3743652598e+000	-1.7642722355e-001
 1.6840332963e+000	 4.2537814774e+000	-1.8826735566e-001
 1.6417572333e+000	 4.2702761254e+000	-1.7939262409e-001
 1.5994089778e+000	 4.2863172913e+000	-1.7537413740e-001
 1.5569954790e+000	 4.3019054009e+000	-1.7571836504e-001
 1.5145236464e+000	 4.3170410149e+000	-1.7994473850e-001
 1.4720003470e+000	 4.3317248272e+000	-1.8758641864e-001
 1.4294324020e+000	 4.3459576629e+000	-1.9819101700e-001
 1.3868265843e+000	 4.3597404768e+000	-2.1132127044e-001
 1.3441896150e+000	 4.3730743510e+000	-2.2655566845e-001
 1.3015281612e+000	 4.3859604930e+000	-1.8969243724e-001
 1.2588488329e+000	 4.3984002337e+000	-1.4477103075e-001
 1.6932356640e+000	 4.2770261849e+000	-2.0248945372e-001
 1.6507285843e+000	 4.2936109676e+000	-2.0000396973e-001
 1.6081489176e+000	 4.3097397902e+000	-2.0263824833e-001
 1.5655036510e+000	 4.3254130807e+000	-2.0989125990e-001
 1.5227997319e+000	 4.3406314030e+000	-2.2127493791e-001
 1.4800440647e+000	 4.3553954547e+000	-2.3631496121e-001
 1.4372435081e+000	 4.3697060655e+000	-2.5455148984e-001
 1.3944048717e+000	 4.3835641953e+000	-2.3522555602e-001
 1.3515349135e+000	 4.3969709321e+000	-1.9314013223e-001
 1.3086403370e+000	 4.4099274902e+000	-1.5259532115e-001
 1.2657277883e+000	 4.4224352077e+000	-1.1355590944e-001
 1.7024380317e+000	 4.3002708924e+000	-2.1815419071e-001
 1.6596999353e+000	 4.3169458098e+000	-2.2230358101e-001
 1.6168888573e+000	 4.3331622890e+000	-2.3183213610e-001
 1.5740118230e+000	 4.3489207605e+000	-2.4623111382e-001
 1.5310758174e+000	 4.3642217911e+000	-2.6500474258e-001
 1.4880877825e+000	 4.3790660822e+000	-2.6948069497e-001
 1.4450546141e+000	 4.3934544680e+000	-2.2902310758e-001
 1.4019831590e+000	 4.4073879137e+000	-1.9047316049e-001
 1.3588802119e+000	 4.4208675133e+000	-1.5379229525e-001
 1.3157525127e+000	 4.4338944874e+000	-1.1894415838e-001
 1.2726067437e+000	 4.4464701816e+000	-8.5894642420e-002
 1.7116403995e+000	 4.3235155999e+000	-2.3518636978e-001
 1.6686712863e+000	 4.3402806520e+000	-2.4621558069e-001
 1.6256287971e+000	 4.3565847879e+000	-2.6287928205e-001
 1.5825199950e+000	 4.3724284403e+000	-2.8466080496e-001
 1.5393519029e+000	 4.3878121791e+000	-2.5546224590e-001
 1.4961315002e+000	 4.4027367096e+000	-2.1771819670e-001
 1.4528657201e+000	 4.4172028705e+000	-1.8220636767e-001
 1.4095614464e+000	 4.4312116322e+000	-1.4888777687e-001
 1.3662255104e+000	 4.4447640944e+000	-1.1772537533e-001
 1.3228646884e+000	 4.4578614846e+000	-8.8684097704e-002
 1.2794856990e+000	 4.4705051556e+000	-6.1730905737e-002
 1.7208427672e+000	 4.3467603075e+000	-2.5351158785e-001
 1.6776426373e+000	 4.3636154943e+000	-2.7166492901e-001
 1.6343687369e+000	 4.3800072868e+000	-2.7540842121e-001
 1.5910281670e+000	 4.3959361201e+000	-2.3730590787e-001
 1.5476279884e+000	 4.4114025672e+000	-2.0179541455e-001
 1.5041752179e+000	 4.4264073371e+000	-1.6883640794e-001
 1.4606768261e+000	 4.4409512731e+000	-1.3838994033e-001
 1.4171397337e+000	 4.4550353506e+000	-1.1041871667e-001
 1.3735708088e+000	 4.4686606756e+000	-8.4887154556e-002
 1.3299768642e+000	 4.4818284819e+000	-6.1761437081e-002
 1.2863646544e+000	 4.4945401296e+000	-4.1009558684e-002
 1.7300451349e+000	 4.3700050150e+000	-2.7305621450e-001
 1.6866139883e+000	 4.3869503365e+000	-2.5211232215e-001
 1.6431086766e+000	 4.4034297856e+000	-2.1546390900e-001
 1.5995363390e+000	 4.4194437999e+000	-1.8172013162e-001
 1.5559040739e+000	 4.4349929552e+000	-1.5084124904e-001
 1.5122189357e+000	 4.4500779646e+000	-1.2278880907e-001
 1.4684879322e+000	 4.4646996756e+000	-9.7525724213e-002
 1.4247180211e+000	 4.4788590691e+000	-7.5016340478e-002
 1.3809161073e+000	 4.4925572567e+000	-5.5226499395e-002
 1.3370890399e+000	 4.5057954791e+000	-3.8123593059e-002
 1.2932436098e+000	 4.5185751035e+000	-2.3676612325e-002
 1.7392475027e+000	 4.3932497225e+000	-2.2600887365e-001
 1.6955853393e+000	 4.4102851787e+000	-1.9036825927e-001
 1.6518486164e+000	 4.4268522845e+000	-1.5793802403e-001
 1.6080445111e+000	 4.4429514797e+000	-1.2867969062e-001
 1.5641801594e+000	 4.4585833433e+000	-1.0255576686e-001
 1.5202626534e+000	 4.4737485920e+000	-7.9529829924e-002
 1.4762990382e+000	 4.4884480781e+000	-5.9566603835e-002
 1.4322963084e+000	 4.5026827875e+000	-4.2632030155e-002
 1.3882614057e+000	 4.5164538379e+000	-2.8693331985e-002
 1.3442012157e+000	 4.5297624763e+000	-1.7719071204e-002
 1.3001225651e+000	 4.5426100775e+000	-9.6791990269e-003
 1.7484498704e+000	 4.4164944300e+000	-1.6243030111e-001
 1.7045566903e+000	 4.4336200209e+000	-1.3087461485e-001
 1.6605885562e+000	 4.4502747833e+000	-1.0279089711e-001
 1.6165526831e+000	 4.4664591594e+000	-7.8143082641e-002
 1.5724562449e+000	 4.4821737314e+000	-5.6895873512e-002
 1.5283063712e+000	 4.4974192195e+000	-3.9014824790e-002
 1.4841101442e+000	 4.5121964807e+000	-2.4466423659e-002
 1.4398745957e+000	 4.5265065060e+000	-1.3218161995e-002
 1.3956067041e+000	 4.5403504190e+000	-5.2386023587e-003
 1.3513133914e+000	 4.5537294736e+000	-4.9743743756e-004
 1.3070015205e+000	 4.5666450514e+000	 1.0344570502e-003
 1.2382119668e+000	 4.3262953119e+000	-1.4240599409e-002
 1.1962211613e+000	 4.3380934676e+000	-1.1475432419e-002
 1.1542255995e+000	 4.3494555137e+000	-1.4406199186e-002
 1.1122316001e+000	 4.3603831102e+000	-2.2211218549e-002
 1.0702454156e+000	 4.3708780297e+000	-3.4115032040e-002
 1.0282732308e+000	 4.3809421547e+000	-1.9114770888e-002
 9.8632116015e-001	 4.3905774756e+000	 1.1447890315e-002
 9.4439524573e-001	 4.3997860880e+000	 3.6616971466e-002
 9.0250145542e-001	 4.4085701903e+000	 5.6500124239e-002
 8.6064568090e-001	 4.4169320814e+000	 7.1200105522e-002
 8.1883373586e-001	 4.4248741579e+000	 8.0815000393e-002
 1.2450909222e+000	 4.3503302858e+000	-9.3750884595e-002
 1.2028668344e+000	 4.3621939868e+000	-1.0016381983e-001
 1.1606379640e+000	 4.3736191554e+000	-1.1140226652e-001
 1.1184106645e+000	 4.3846074608e+000	-7.7245018065e-002
 1.0761912235e+000	 4.3951606854e+000	-4.1168559521e-002
 1.0339858599e+000	 4.4052807222e+000	-1.0089029054e-002
 9.9180072215e-001	 4.4149695727e+000	 1.6123854423e-002
 9.4964188598e-001	 4.4242293440e+000	 3.7594152272e-002
 9.0751535240e-001	 4.4330622469e+000	 5.4439925619e-002
 8.6542704580e-001	 4.4414705930e+000	 6.6773462665e-002
 8.2338281217e-001	 4.4494567921e+000	 7.4701512835e-002
 1.2519698775e+000	 4.3743652598e+000	-1.7642722355e-001
 1.2095125075e+000	 4.3862945061e+000	-1.3513946818e-001
 1.1670503284e+000	 4.3977827972e+000	-9.5092084404e-002
 1.1245897290e+000	 4.4088318115e+000	-5.9726350485e-002
 1.0821370313e+000	 4.4194433411e+000	-2.8885053835e-002
 1.0396984889e+000	 4.4296192898e+000	-2.4185231573e-003
 9.9728028415e-001	 4.4393616698e+000	 1.9815579629e-002
 9.5488852624e-001	 4.4486726001e+000	 3.7952478390e-002
 9.1252924937e-001	 4.4575543036e+000	 5.2120511642e-002
 8.7020841069e-001	 4.4660091046e+000	 6.2441370217e-002
 8.2793188848e-001	 4.4740394263e+000	 6.9030342678e-002
 1.2588488329e+000	 4.3984002337e+000	-1.4477103075e-001
 1.2161581807e+000	 4.4103950254e+000	-1.0820280560e-001
 1.1734626929e+000	 4.4219464389e+000	-7.4208333180e-002
 1.1307687934e+000	 4.4330561621e+000	-4.4305091545e-002
 1.0880828392e+000	 4.4437259969e+000	-1.8322141527e-002
 1.0454111180e+000	 4.4539578573e+000	 3.9030073990e-003
 1.0027598461e+000	 4.4637537669e+000	 2.2524612615e-002
 9.6013516649e-001	 4.4731158561e+000	 3.7688925849e-002
 9.1754314634e-001	 4.4820463602e+000	 4.9534431533e-002
 8.7498977558e-001	 4.4905476161e+000	 5.8192094924e-002
 8.3248096479e-001	 4.4986220605e+000	 6.3785618899e-002
 1.2657277883e+000	 4.4224352077e+000	-1.1355590944e-001
 1.2228038538e+000	 4.4344955446e+000	-8.4106826663e-002
 1.1798750573e+000	 4.4461100807e+000	-5.5783629962e-002
 1.1369478578e+000	 4.4572805127e+000	-3.0966020798e-002
 1.0940286471e+000	 4.4680086526e+000	-9.4694758962e-003
 1.0511237471e+000	 4.4782964248e+000	 8.8811747287e-003
 1.0082394081e+000	 4.4881458639e+000	 2.4251970827e-002
 9.6538180674e-001	 4.4975591122e+000	 3.6800058004e-002
 9.2255704332e-001	 4.5065384168e+000	 4.6673935681e-002
 8.7977114048e-001	 4.5150861277e+000	 5.4013715796e-002
 8.3703004110e-001	 4.5232046947e+000	 5.8951391070e-002
 1.2726067437e+000	 4.4464701816e+000	-8.5894642420e-002
 1.2294495269e+000	 4.4585960639e+000	-6.2827270131e-002
 1.1862874218e+000	 4.4702737224e+000	-3.9798736702e-002
 1.1431269223e+000	 4.4815048633e+000	-1.9694788545e-002
 1.0999744549e+000	 4.4922913083e+000	-2.3174598184e-003
 1.0568363761e+000	 4.5026349923e+000	 1.2520959989e-002
 1.0137189701e+000	 4.5125379610e+000	 2.4998156784e-002
 9.7062844700e-001	 4.5220023682e+000	 3.5282036686e-002
 9.2757094029e-001	 4.5310304734e+000	 4.3530983717e-002
 8.8455250537e-001	 4.5396246393e+000	 4.9894129176e-002
 8.4157911741e-001	 4.5477873289e+000	 5.4511631505e-002
 1.2794856990e+000	 4.4705051556e+000	-6.1730905737e-002
 1.2360952000e+000	 4.4826965832e+000	-4.4340965304e-002
 1.1926997862e+000	 4.4944373641e+000	-2.6235383085e-002
 1.1493059867e+000	 4.5057292139e+000	-1.0477892436e-002
 1.1059202628e+000	 4.5165739640e+000	 3.1427744085e-003
 1.0625490052e+000	 4.5269735599e+000	 1.4826730341e-002
 1.0191985321e+000	 4.5369300581e+000	 2.4763171913e-002
 9.7587508725e-001	 4.5464456242e+000	 3.3130632998e-002
 9.3258483726e-001	 4.5555225300e+000	 4.0097252327e-002
 8.8933387026e-001	 4.5641631508e+000	 4.5821053657e-002
 8.4612819372e-001	 4.5723699631e+000	 5.0450237336e-002
 1.2863646544e+000	 4.4945401296e+000	-4.1009558684e-002
 1.2427408731e+000	 4.5067971024e+000	-2.8625802860e-002
 1.1991121506e+000	 4.5186010059e+000	-1.5076240647e-002
 1.1554850512e+000	 4.5299535645e+000	-3.3026548070e-003
 1.1118660707e+000	 4.5408566198e+000	 6.9193845657e-003
 1.0682616342e+000	 4.5513121274e+000	 1.5802255368e-002
 1.0246780942e+000	 4.5613221552e+000	 2.3546529952e-002
 9.8112172750e-001	 4.5708888803e+000	 3.0341237761e-002
 9.3759873424e-001	 4.5800145866e+000	 3.6364142821e-002
 8.9411523516e-001	 4.5887016624e+000	 4.1782034829e-002
 8.5067727003e-001	 4.5969525973e+000	 4.6751032521e-002
 1.2932436098e+000	 4.5185751035e+000	-2.3676612325e-002
 1.2493865463e+000	 4.5308976217e+000	-1.5660706635e-002
 1.2055245151e+000	 4.5427646476e+000	-6.3048977269e-003
 1.1616641156e+000	 4.5541779151e+000	 1.8427992506e-003
 1.1178118785e+000	 4.5651392755e+000	 9.0198373945e-003
 1.0739742633e+000	 4.5756506949e+000	 1.5450722967e-002
 1.0301576562e+000	 4.5857142523e+000	 2.1347269921e-002
 9.8636836776e-001	 4.5953321363e+000	 2.6908871626e-002
 9.4261263121e-001	 4.6045066432e+000	 3.2322788454e-002
 8.9889660005e-001	 4.6132401739e+000	 3.7764449883e-002
 8.5522634634e-001	 4.6215352316e+000	 4.3397769798e-002
 1.3001225651e+000	 4.5426100775e+000	-9.6791990269e-003
 1.2560322194e+000	 4.5549981410e+000	-5.2377640358e-003
 1.2119368795e+000	 4.5669282894e+000	 9.4164786920e-005
 1.1678431801e+000	 4.5784022658e+000	 4.9695631261e-003
 1.1237576864e+000	 4.5894219312e+000	 9.4509268780e-003
 1.0796868924e+000	 4.5999892625e+000	 1.3774754739e-002
 1.0356372182e+000	 4.6101063494e+000	 1.8163968676e-002
 9.9161500801e-001	 4.6197753924e+000	 2.2828194872e-002
 9.4762652819e-001	 4.6289986998e+000	 2.7964061517e-002
 9.0367796494e-001	 4.6377786855e+000	 3.3755512064e-002
 8.5977542265e-001	 4.6461178658e+000	 4.0374132558e-002
 1.3070015205e+000	 4.5666450514e+000	 1.0344570502e-003
 1.2626778925e+000	 4.5790986602e+000	 2.2499548707e-003
 1.2183492440e+000	 4.5910919311e+000	 4.1355969442e-003
 1.1740222445e+000	 4.6026266164e+000	 6.0879692570e-003
 1.1297034943e+000	 4.6137045869e+000	 8.2187919451e-003
 1.0853995214e+000	 4.6243278300e+000	 1.0776420891e-002
 1.0411167802e+000	 4.6344984465e+000	 1.3994753077e-002
 9.9686164827e-001	 4.6442186484e+000	 1.8093516883e-002
 9.5264042516e-001	 4.6534907565e+000	 2.3278580209e-002
 9.0845932984e-001	 4.6623171971e+000	 2.9742274989e-002
 8.6432449896e-001	 4.6707005000e+000	 3.7663736678e-002
 8.1883373586e-001	 4.4248741579e+000	 8.0815000393e-002
 7.7707135428e-001	 4.4323989115e+000	 1.0743153393e-001
 7.3536418877e-001	 4.4395089267e+000	 1.3458518596e-001
 6.9371780909e-001	 4.4462068779e+000	 1.6228272073e-001
 6.5213770062e-001	 4.4524955272e+000	 1.9052389967e-001
 6.1062926301e-001	 4.4583777210e+000	 2.0564749027e-001
 5.6919780892e-001	 4.4638563882e+000	 1.9596546048e-001
 5.2784856279e-001	 4.4689345369e+000	 1.8732481021e-001
 4.8658665973e-001	 4.4736152520e+000	 1.7956846097e-001
 4.4541714450e-001	 4.4779016925e+000	 1.7253680060e-001
 4.0434497057e-001	 4.4817970888e+000	 1.6606757266e-001
 8.2338281217e-001	 4.4494567921e+000	 7.4701512835e-002
 7.8138841736e-001	 4.4570233499e+000	 9.9389741241e-002
 7.3944954538e-001	 4.4641728651e+000	 1.2459844219e-001
 6.9757179692e-001	 4.4709080272e+000	 1.5033669978e-001
 6.5576068785e-001	 4.4772316134e+000	 1.7660645618e-001
 6.1402164781e-001	 4.4831464861e+000	 1.9380196957e-001
 5.7236001898e-001	 4.4886555903e+000	 1.8503182135e-001
 5.3078105481e-001	 4.4937619509e+000	 1.7728911111e-001
 4.8928991895e-001	 4.4984686700e+000	 1.7042405373e-001
 4.4789168419e-001	 4.5027789241e+000	 1.6428414001e-001
 4.0659133152e-001	 4.5066959615e+000	 1.5871401789e-001
 8.2793188848e-001	 4.4740394263e+000	 6.9030342678e-002
 7.8570548043e-001	 4.4816477883e+000	 9.1910298861e-002
 7.4353490198e-001	 4.4888368036e+000	 1.1529630519e-001
 7.0142578475e-001	 4.4956091766e+000	 1.3919966304e-001
 6.5938367507e-001	 4.5019676997e+000	 1.6362439148e-001
 6.1741403260e-001	 4.5079152512e+000	 1.8247791188e-001
 5.7552222903e-001	 4.5134547925e+000	 1.7462439463e-001
 5.3371354682e-001	 4.5185893650e+000	 1.6778573489e-001
 4.9199317817e-001	 4.5233220881e+000	 1.6181951209e-001
 4.5036622388e-001	 4.5276561557e+000	 1.5658038831e-001
 4.0883769246e-001	 4.5315948342e+000	 1.5191998115e-001
 8.3248096479e-001	 4.4986220605e+000	 6.3785618899e-002
 7.9002254351e-001	 4.5062722267e+000	 8.4976976005e-002
 7.4762025859e-001	 4.5135007421e+000	 1.0666219089e-001
 7.0527977258e-001	 4.5203103259e+000	 1.2885467946e-001
 6.6300666230e-001	 4.5267037859e+000	 1.5156043391e-001
 6.2080641740e-001	 4.5326840163e+000	 1.7169684355e-001
 5.7868443908e-001	 4.5382539946e+000	 1.6476174380e-001
 5.3664603884e-001	 4.5434167791e+000	 1.5883028440e-001
 4.9469643739e-001	 4.5481755061e+000	 1.5376748213e-001
 4.5284076358e-001	 4.5525333873e+000	 1.4943524026e-001
 4.1108405341e-001	 4.5564937069e+000	 1.4569221292e-001
 8.3703004110e-001	 4.5232046947e+000	 5.8951391070e-002
 7.9433960659e-001	 4.5308966650e+000	 7.8573489051e-002
 7.5170561519e-001	 4.5381646806e+000	 9.8679489131e-002
 7.0913376041e-001	 4.5450114752e+000	 1.1928481897e-001
 6.6662964952e-001	 4.5514398722e+000	 1.4039733986e-001
 6.2419880219e-001	 4.5574527815e+000	 1.6148034636e-001
 5.8184664912e-001	 4.5630531968e+000	 1.5546251529e-001
 5.3957853085e-001	 4.5682441932e+000	 1.5043847306e-001
 4.9739969661e-001	 4.5730289242e+000	 1.4628074829e-001
 4.5531530327e-001	 4.5774106189e+000	 1.4285855689e-001
 4.1333041436e-001	 4.5813925796e+000	 1.4003765799e-001
 8.4157911741e-001	 4.5477873289e+000	 5.4511631505e-002
 7.9865666967e-001	 4.5555211034e+000	 7.2683502967e-002
 7.5579097179e-001	 4.5628286191e+000	 9.1331564424e-002
 7.1298774823e-001	 4.5697126245e+000	 1.1047315236e-001
 6.7025263675e-001	 4.5761759585e+000	 1.3011789306e-001
 6.2759118699e-001	 4.5822215466e+000	 1.5026810980e-001
 5.8500885917e-001	 4.5878523989e+000	 1.4674543619e-001
 5.4251102287e-001	 4.5930716073e+000	 1.4262612188e-001
 5.0010295583e-001	 4.5978823423e+000	 1.3937222959e-001
 4.5778984296e-001	 4.6022878506e+000	 1.3686036097e-001
 4.1557677530e-001	 4.6062914523e+000	 1.3496345014e-001
 8.4612819372e-001	 4.5723699631e+000	 5.0450237336e-002
 8.0297373275e-001	 4.5801455418e+000	 6.7290632696e-002
 7.5987632840e-001	 4.5874925575e+000	 8.4601756605e-002
 7.1684173606e-001	 4.5944137738e+000	 1.0240275130e-001
 6.7387562397e-001	 4.6009120447e+000	 1.2070490385e-001
 6.3098357178e-001	 4.6069903117e+000	 1.3951205897e-001
 5.8817106922e-001	 4.6126516011e+000	 1.3862931212e-001
 5.4544351488e-001	 4.6178990214e+000	 1.3540915654e-001
 5.0280621505e-001	 4.6227357603e+000	 1.3305497607e-001
 4.6026438265e-001	 4.6271650822e+000	 1.3145083270e-001
 4.1782313625e-001	 4.6311903250e+000	 1.3047690709e-001
 8.5067727003e-001	 4.5969525973e+000	 4.6751032521e-002
 8.0729079583e-001	 4.6047699802e+000	 6.2378444494e-002
 7.6396168500e-001	 4.6121564960e+000	 7.8473381499e-002
 7.2069572389e-001	 4.6191149232e+000	 9.5056688338e-002
 6.7749861120e-001	 4.6256481310e+000	 1.1214120843e-001
 6.3437595657e-001	 4.6317590768e+000	 1.2973220253e-001
 5.9133327927e-001	 4.6374508033e+000	 1.3113302510e-001
 5.4837600689e-001	 4.6427264355e+000	 1.2880360464e-001
 5.0550947427e-001	 4.6475891784e+000	 1.2734216525e-001
 4.6273892234e-001	 4.6520423138e+000	 1.2664030547e-001
 4.2006949719e-001	 4.6560891977e+000	 1.2658552559e-001
 8.5522634634e-001	 4.6215352316e+000	 4.3397769798e-002
 8.1160785890e-001	 4.6293944186e+000	 5.7930457223e-002
 7.6804704160e-001	 4.6368204345e+000	 7.2929731561e-002
 7.2454971171e-001	 4.6438160725e+000	 8.8418036817e-002
 6.8112159842e-001	 4.6503842172e+000	 1.0440966820e-001
 6.3776834136e-001	 4.6565278419e+000	 1.2091119691e-001
 5.9449548931e-001	 4.6622500054e+000	 1.2427553154e-001
 5.5130849891e-001	 4.6675538496e+000	 1.2282559292e-001
 5.0821273349e-001	 4.6724425965e+000	 1.2224709874e-001
 4.6521346202e-001	 4.6769195454e+000	 1.2243926183e-001
 4.2231585814e-001	 4.6809880705e+000	 1.2329697664e-001
 8.5977542265e-001	 4.6461178658e+000	 4.0374132558e-002
 8.1592492198e-001	 4.6540188570e+000	 5.3930143606e-002
 7.7213239820e-001	 4.6614843730e+000	 6.7954076492e-002
 7.2840369954e-001	 4.6685172218e+000	 8.2469870906e-002
 6.8474458564e-001	 4.6751203035e+000	 9.7493169116e-002
 6.4116072615e-001	 4.6812966070e+000	 1.1303174695e-001
 5.9765769936e-001	 4.6870492076e+000	 1.1807586027e-001
 5.5424099092e-001	 4.6923812637e+000	 1.1749134471e-001
 5.1091599270e-001	 4.6972960145e+000	 1.1778319898e-001
 4.6768800171e-001	 4.7017967771e+000	 1.1885832947e-001
 4.2456221908e-001	 4.7058869432e+000	 1.2061910089e-001
 8.6432449896e-001	 4.6707005000e+000	 3.7663736678e-002
 8.2024198506e-001	 4.6786432954e+000	 5.0360931442e-002
 7.7621775480e-001	 4.6861483115e+000	 6.3529663841e-002
 7.3225768736e-001	 4.6932183711e+000	 7.7195265554e-002
 6.8836757286e-001	 4.6998563898e+000	 9.1374620981e-002
 6.4455311094e-001	 4.7060653722e+000	 1.0607660459e-001
 6.0081990940e-001	 4.7118484097e+000	 1.1255311061e-001
 5.5717348293e-001	 4.7172086778e+000	 1.1281717735e-001
 5.1361925192e-001	 4.7221494326e+000	 1.1396400604e-001
 4.7016254140e-001	 4.7266740087e+000	 1.1590827746e-001
 4.2680858003e-001	 4.7307858159e+000	 1.1855990417e-001
 4.0434497057e-001	 4.4817970888e+000	 1.6606757266e-001
 3.6337499923e-001	 4.4853047399e+000	 1.6142180141e-001
 3.2251199884e-001	 4.4884280111e+000	 1.5819846197e-001
 2.8176064413e-001	 4.4911703307e+000	 1.5621761338e-001
 2.4112551553e-001	 4.4935351880e+000	 1.5529561899e-001
 2.0061109869e-001	 4.4955261302e+000	 1.5524514660e-001
 1.6022178400e-001	 4.4971467599e+000	 1.5587518483e-001
 1.1996186617e-001	 4.4984007326e+000	 1.5699107514e-001
 7.9835543943e-002	 4.4992917538e+000	 1.5839455923e-001
 3.9846919840e-002	 4.4998235769e+000	 1.5988384109e-001
 0.0000000000e+000	 4.5000000000e+000	 1.6125366332e-001
 4.0659133152e-001	 4.5066959615e+000	 1.5871401789e-001
 3.6539374923e-001	 4.5102230996e+000	 1.5503146435e-001
 3.2430373217e-001	 4.5133637222e+000	 1.5278310479e-001
 2.8332598104e-001	 4.5161212770e+000	 1.5179219855e-001
 2.4246510172e-001	 4.5184992724e+000	 1.5187815122e-001
 2.0172560480e-001	 4.5205012753e+000	 1.5285651091e-001
 1.6111190503e-001	 4.5221309085e+000	 1.5453898123e-001
 1.2062832098e-001	 4.5233918477e+000	 1.5673345041e-001
 8.0279074742e-002	 4.5242878191e+000	 1.5924403624e-001
 4.0068291616e-002	 4.5248225967e+000	 1.6187114618e-001
 0.0000000000e+000	 4.5250000000e+000	 1.6441155209e-001
 4.0883769246e-001	 4.5315948342e+000	 1.5191998115e-001
 3.6741249922e-001	 4.5351414592e+000	 1.4914251977e-001
 3.2609546550e-001	 4.5382994334e+000	 1.4781302049e-001
 2.8489131795e-001	 4.5410722233e+000	 1.4775802303e-001
 2.4380468792e-001	 4.5434633567e+000	 1.4880005155e-001
 2.0284011090e-001	 4.5454764205e+000	 1.5075760703e-001
 1.6200202605e-001	 4.5471150572e+000	 1.5344517680e-001
 1.2129477580e-001	 4.5483829629e+000	 1.5667326080e-001
 8.0722605541e-002	 4.5492838844e+000	 1.6024841399e-001
 4.0289663393e-002	 4.5498216166e+000	 1.6397330450e-001
 0.0000000000e+000	 4.5500000000e+000	 1.6764678684e-001
 4.1108405341e-001	 4.5564937069e+000	 1.4569221292e-001
 3.6943124922e-001	 4.5600598189e+000	 1.4375993596e-001
 3.2788719882e-001	 4.5632351446e+000	 1.4329140005e-001
 2.8645665486e-001	 4.5660231695e+000	 1.4411650641e-001
 2.4514427412e-001	 4.5684274411e+000	 1.4606097514e-001
 2.0395461700e-001	 4.5704515657e+000	 1.4894633368e-001
 1.6289214707e-001	 4.5720992059e+000	 1.5258992285e-001
 1.2196123061e-001	 4.5733740781e+000	 1.5680492016e-001
 8.1166136340e-002	 4.5742799497e+000	 1.6140037976e-001
 4.0511035169e-002	 4.5748206365e+000	 1.6618128857e-001
 0.0000000000e+000	 4.5750000000e+000	 1.7094863796e-001
 4.1333041436e-001	 4.5813925796e+000	 1.4003765799e-001
 3.7144999921e-001	 4.5849781786e+000	 1.3888887854e-001
 3.2967893215e-001	 4.5881708558e+000	 1.3922163497e-001
 2.8802199177e-001	 4.5909741158e+000	 1.4086927221e-001
 2.4648386031e-001	 4.5933915255e+000	 1.4366078475e-001
 2.0506912311e-001	 4.5954267108e+000	 1.4742080104e-001
 1.6378226809e-001	 4.5970833545e+000	 1.5196958614e-001
 1.2262768542e-001	 4.5983651933e+000	 1.5712306197e-001
 8.1609667139e-002	 4.5992760150e+000	 1.6269284481e-001
 4.0732406946e-002	 4.5998196564e+000	 1.6848629939e-001
 0.0000000000e+000	 4.6000000000e+000	 1.7430660905e-001
 4.1557677530e-001	 4.6062914523e+000	 1.3496345014e-001
 3.7346874920e-001	 4.6098965382e+000	 1.3453470509e-001
 3.3147066547e-001	 4.6131065669e+000	 1.3560731189e-001
 2.8958732868e-001	 4.6159250621e+000	 1.3801814247e-001
 2.4782344651e-001	 4.6183556099e+000	 1.4159954513e-001
 2.0618362921e-001	 4.6204018560e+000	 1.4617932499e-001
 1.6467238911e-001	 4.6220675032e+000	 1.5158074303e-001
 1.2329414023e-001	 4.6233563085e+000	 1.5762253339e-001
 8.2053197938e-002	 4.6242720803e+000	 1.6411893834e-001
 4.0953778723e-002	 4.6248186762e+000	 1.7087976036e-001
 0.0000000000e+000	 4.6250000000e+000	 1.7771043070e-001
 4.1782313625e-001	 4.6311903250e+000	 1.3047690709e-001
 3.7548749920e-001	 4.6348148979e+000	 1.3070296000e-001
 3.3326239880e-001	 4.6380422781e+000	 1.3245220733e-001
 2.9115266559e-001	 4.6408760084e+000	 1.3556513232e-001
 2.4916303270e-001	 4.6433196943e+000	 1.3987751761e-001
 2.0729813531e-001	 4.6453770012e+000	 1.4522042159e-001
 1.6556251013e-001	 4.6470516519e+000	 1.5142017385e-001
 1.2396059504e-001	 4.6483474236e+000	 1.5829838952e-001
 8.2496728737e-002	 4.6492681456e+000	 1.6567200165e-001
 4.1175150499e-002	 4.6498176961e+000	 1.7335331125e-001
 0.0000000000e+000	 4.6500000000e+000	 1.8115005432e-001
 4.2006949719e-001	 4.6560891977e+000	 1.2658552559e-001
 3.7750624919e-001	 4.6597332576e+000	 1.2739936950e-001
 3.3505413212e-001	 4.6629779893e+000	 1.2976028260e-001
 2.9271800250e-001	 4.6658269547e+000	 1.3351244487e-001
 2.5050261890e-001	 4.6682837786e+000	 1.3849515483e-001
 2.0841264141e-001	 4.6703521463e+000	 1.4454280171e-001
 1.6645263115e-001	 4.6720358005e+000	 1.5148485746e-001
 1.2462704985e-001	 4.6733385388e+000	 1.5914588785e-001
 8.2940259537e-002	 4.6742642109e+000	 1.6734558242e-001
 4.1396522276e-002	 4.6748167160e+000	 1.7589880242e-001
 0.0000000000e+000	 4.6750000000e+000	 1.8461564628e-001
 4.2231585814e-001	 4.6809880705e+000	 1.2329697664e-001
 3.7952499918e-001	 4.6846516172e+000	 1.2462983678e-001
 3.3684586545e-001	 4.6879137004e+000	 1.2753567891e-001
 2.9428333941e-001	 4.6907779010e+000	 1.3186246621e-001
 2.5184220510e-001	 4.6932478630e+000	 1.3745309563e-001
 2.0952714752e-001	 4.6953272915e+000	 1.4414536592e-001
 1.6734275217e-001	 4.6970199492e+000	 1.5177196596e-001
 1.2529350466e-001	 4.6983296540e+000	 1.6016048286e-001
 8.3383790336e-002	 4.6992602762e+000	 1.6913342926e-001
 4.1617894052e-002	 4.6998157358e+000	 1.7850828922e-001
 0.0000000000e+000	 4.7000000000e+000	 1.8809758215e-001
 4.2456221908e-001	 4.7058869432e+000	 1.2061910089e-001
 3.8154374918e-001	 4.7095699769e+000	 1.2240043734e-001
 3.3863759877e-001	 4.7128494116e+000	 1.2578271259e-001
 2.9584867632e-001	 4.7157288472e+000	 1.3061776054e-001
 2.5318179129e-001	 4.7182119474e+000	 1.3675216017e-001
 2.1064165362e-001	 4.7203024367e+000	 1.4402719936e-001
 1.6823287319e-001	 4.7220040979e+000	 1.5227885958e-001
 1.2595995947e-001	 4.7233207692e+000	 1.6133782082e-001
 8.3827321135e-002	 4.7242563415e+000	 1.7102948637e-001
 4.1839265829e-002	 4.7248147557e+000	 1.8117402658e-001
 0.0000000000e+000	 4.7250000000e+000	 1.9158644123e-001
 4.2680858003e-001	 4.7307858159e+000	 1.1855990417e-001
 3.8356249917e-001	 4.7344883366e+000	 1.2071741444e-001
 3.4042933210e-001	 4.7377851228e+000	 1.2450587049e-001
 2.9741401323e-001	 4.7406797935e+000	 1.2978106551e-001
 2.5452137749e-001	 4.7431760318e+000	 1.3639334513e-001
 2.1175615972e-001	 4.7452775818e+000	 1.4418756699e-001
 1.6912299422e-001	 4.7469882465e+000	 1.5300308172e-001
 1.2662641428e-001	 4.7483118844e+000	 1.6267373474e-001
 8.4270851934e-002	 4.7492524068e+000	 1.7302788842e-001
 4.2060637605e-002	 4.7498137756e+000	 1.8388846375e-001
 0.0000000000e+000	 4.7500000000e+000	 1.9507300113e-001
 4.7500000000e+000	 0.0000000000e+000	 5.4077293498e-001
 4.7498137756e+000	 4.2060637605e-002	 5.4279402471e-001
 4.7492524068e+000	 8.4270851934e-002	 5.4287264816e-001
 4.7483118844e+000	 1.2662641428e-001	 5.4110784601e-001
 4.7469882465e+000	 1.6912299422e-001	 5.3761657737e-001
 4.7452775818e+000	 2.1175615972e-001	 5.3253414995e-001
 4.7431760318e+000	 2.5452137749e-001	 5.2601462881e-001
 4.7406797935e+000	 2.9741401323e-001	 5.1823122206e-001
 4.7377851228e+000	 3.4042933210e-001	 5.0937664176e-001
 4.7344883366e+000	 3.8356249917e-001	 4.9966343835e-001
 4.7307858159e+000	 4.2680858003e-001	 4.8932430681e-001
 4.7750000000e+000	 0.0000000000e+000	 5.2953437522e-001
 4.7748127955e+000	 4.2282009382e-002	 5.3175490974e-001
 4.7742484721e+000	 8.4714382733e-002	 5.3212489444e-001
 4.7733029995e+000	 1.2729286910e-001	 5.3074505787e-001
 4.7719723952e+000	 1.7001311524e-001	 5.2773421223e-001
 4.7702527270e+000	 2.1287066582e-001	 5.2322968719e-001
 4.7681401161e+000	 2.5586096368e-001	 5.1738774208e-001
 4.7656307398e+000	 2.9897935014e-001	 5.1038395470e-001
 4.7627208340e+000	 3.4222106542e-001	 5.0241358507e-001
 4.7594066962e+000	 3.8558124916e-001	 4.9369191224e-001
 4.7556846886e+000	 4.2905494097e-001	 4.8445454259e-001
 4.8000000000e+000	 0.0000000000e+000	 5.1854275291e-001
 4.7998118153e+000	 4.2503381158e-002	 5.2090634385e-001
 4.7992445374e+000	 8.5157913532e-002	 5.2150523549e-001
 4.7982941147e+000	 1.2795932391e-001	 5.2044181398e-001
 4.7969565439e+000	 1.7090323626e-001	 5.1783671970e-001
 4.7952278722e+000	 2.1398517192e-001	 5.1382928491e-001
 4.7931042005e+000	 2.5720054988e-001	 5.0857794953e-001
 4.7905816861e+000	 3.0054468705e-001	 5.0226065321e-001
 4.7876565451e+000	 3.4401279874e-001	 4.9507520200e-001
 4.7843250559e+000	 3.8759999915e-001	 4.8723960781e-001
 4.7805835613e+000	 4.3130130191e-001	 4.7899239890e-001
 4.8250000000e+000	 0.0000000000e+000	 5.0779248560e-001
 4.8248108352e+000	 4.2724752935e-002	 5.1024290570e-001
 4.8242406027e+000	 8.5601444331e-002	 5.1100842284e-001
 4.8232852299e+000	 1.2862577872e-001	 5.1019305067e-001
 4.8219406925e+000	 1.7179335728e-001	 5.0791923298e-001
 4.8202030174e+000	 2.1509967803e-001	 5.0432828539e-001
 4.8180682849e+000	 2.5854013607e-001	 4.9958081486e-001
 4.8155326324e+000	 3.0211002396e-001	 4.9385711522e-001
 4.8125922563e+000	 3.4580453207e-001	 4.8735753683e-001
 4.8092434156e+000	 3.8961874915e-001	 4.8030282889e-001
 4.8054824340e+000	 4.3354766286e-001	 4.7293445219e-001
 4.8500000000e+000	 0.0000000000e+000	 4.9727810597e-001
 4.8498098551e+000	 4.2946124712e-002	 4.9975928156e-001
 4.8492366680e+000	 8.6044975130e-002	 5.0062930738e-001
 4.8482763451e+000	 1.2929223353e-001	 4.9999379452e-001
 4.8469248412e+000	 1.7268347830e-001	 4.9797696557e-001
 4.8451781625e+000	 2.1621418413e-001	 4.9472210041e-001
 4.8430323693e+000	 2.5987972227e-001	 4.9039195970e-001
 4.8404835786e+000	 3.0367536087e-001	 4.8516918384e-001
 4.8375279675e+000	 3.4759626540e-001	 4.7925666604e-001
 4.8341617752e+000	 3.9163749914e-001	 4.7287789732e-001
 4.8303813068e+000	 4.3579402381e-001	 4.6627728188e-001
 4.8750000000e+000	 0.0000000000e+000	 4.8699425883e-001
 4.8748088749e+000	 4.3167496488e-002	 4.8945026263e-001
 4.8742327333e+000	 8.6488505929e-002	 4.9036283682e-001
 4.8732674603e+000	 1.2995868834e-001	 4.8983916008e-001
 4.8719089899e+000	 1.7357359932e-001	 4.8800520924e-001
 4.8701533077e+000	 2.1732869023e-001	 4.8500620956e-001
 4.8679964537e+000	 2.6121930847e-001	 4.8100706209e-001
 4.8654345249e+000	 3.0524069778e-001	 4.7619274651e-001
 4.8624636787e+000	 3.4938799872e-001	 4.7076869741e-001
 4.8590801349e+000	 3.9365624914e-001	 4.6496115247e-001
 4.8552801795e+000	 4.3804038475e-001	 4.5901747035e-001
 4.9000000000e+000	 0.0000000000e+000	 4.7693569829e-001
 4.8998078948e+000	 4.3388868265e-002	 4.7931074226e-001
 4.8992287986e+000	 8.6932036728e-002	 4.8020405320e-001
 4.8982585754e+000	 1.3062514315e-001	 4.7972434754e-001
 4.8968931385e+000	 1.7446372034e-001	 4.7799933203e-001
 4.8951284529e+000	 2.1844319634e-001	 4.7517615842e-001
 4.8929605380e+000	 2.6255889466e-001	 4.7142185512e-001
 4.8903854712e+000	 3.0680603469e-001	 4.6692373380e-001
 4.8873993898e+000	 3.5117973205e-001	 4.6188976929e-001
 4.8839984946e+000	 3.9567499914e-001	 4.5654895082e-001
 4.8801790522e+000	 4.4028674570e-001	 4.5115160277e-001
 4.9250000000e+000	 0.0000000000e+000	 4.6709728497e-001
 4.9248069147e+000	 4.3610240041e-002	 4.6933571345e-001
 4.9242248639e+000	 8.7375567527e-002	 4.7014809051e-001
 4.9232496906e+000	 1.3129159796e-001	 4.6964464067e-001
 4.9218772872e+000	 1.7535384136e-001	 4.6795477628e-001
 4.9201035980e+000	 2.1955770244e-001	 4.6522755695e-001
 4.9179246224e+000	 2.6389848086e-001	 4.6163212545e-001
 4.9153364175e+000	 3.0837137160e-001	 4.5735811838e-001
 4.9123351010e+000	 3.5297146538e-001	 4.5261604976e-001
 4.9089168542e+000	 3.9769374913e-001	 4.4763766550e-001
 4.9050779249e+000	 4.4253310665e-001	 4.4267626710e-001
 4.9500000000e+000	 0.0000000000e+000	 4.5747398332e-001
 4.9498059346e+000	 4.3831611818e-002	 4.5952026628e-001
 4.9492209292e+000	 8.7819098327e-002	 4.6019017238e-001
 4.9482408058e+000	 1.3195805278e-001	 4.5959540460e-001
 4.9468614359e+000	 1.7624396239e-001	 4.5786705680e-001
 4.9450787432e+000	 2.2067220854e-001	 4.5515607783e-001
 4.9428887068e+000	 2.6523806706e-001	 4.5163371200e-001
 4.9402873638e+000	 3.0993670852e-001	 4.4749191395e-001
 4.9372708122e+000	 3.5476319871e-001	 4.4294373595e-001
 4.9338352139e+000	 3.9971249913e-001	 4.3822368590e-001
 4.9299767976e+000	 4.4477946760e-001	 4.3358805401e-001
 4.9750000000e+000	 0.0000000000e+000	 4.4806085900e-001
 4.9748049544e+000	 4.4052983595e-002	 4.4985958549e-001
 4.9742169945e+000	 8.8262629126e-002	 4.5032560977e-001
 4.9732319210e+000	 1.3262450759e-001	 4.4957208385e-001
 4.9718455845e+000	 1.7713408341e-001	 4.4773175900e-001
 4.9700538884e+000	 2.2178671465e-001	 4.4495745488e-001
 4.9678527912e+000	 2.6657765326e-001	 4.4142250466e-001
 4.9652383101e+000	 3.1150204543e-001	 4.3732117418e-001
 4.9622065233e+000	 3.5655493203e-001	 4.3286905325e-001
 4.9587535736e+000	 4.0173124913e-001	 4.2830341721e-001
 4.9548756703e+000	 4.4702582855e-001	 4.2388355677e-001
 5.0000000000e+000	 0.0000000000e+000	 4.3885307636e-001
 4.9998039743e+000	 4.4274355371e-002	 4.4034894810e-001
 4.9992130598e+000	 8.8706159925e-002	 4.4054979888e-001
 4.9982230362e+000	 1.3329096240e-001	 4.3957020033e-001
 4.9968297332e+000	 1.7802420443e-001	 4.3754453718e-001
 4.9950290335e+000	 2.2290122075e-001	 4.3462748157e-001
 4.9928168755e+000	 2.6791723945e-001	 4.3099444295e-001
 4.9901892563e+000	 3.1306738234e-001	 4.2684199172e-001
 4.9871422345e+000	 3.5834666536e-001	 4.2238825464e-001
 4.9836719332e+000	 4.0374999913e-001	 4.1787328009e-001
 4.9797745430e+000	 4.4927218951e-001	 4.1355937124e-001
 4.7307858159e+000	 4.2680858003e-001	 4.8932430681e-001
 4.7266740087e+000	 4.7016254140e-001	 4.8003442820e-001
 4.7221494326e+000	 5.1361925192e-001	 4.7103937374e-001
 4.7172086778e+000	 5.5717348293e-001	 4.6262168409e-001
 4.7118484097e+000	 6.0081990940e-001	 4.5508435862e-001
 4.7060653722e+000	 6.4455311094e-001	 4.4966508248e-001
 4.6998563898e+000	 6.8836757286e-001	 4.4454089226e-001
 4.6932183711e+000	 7.3225768736e-001	 4.3785605823e-001
 4.6861483115e+000	 7.7621775480e-001	 4.2975575112e-001
 4.6786432954e+000	 8.2024198506e-001	 4.2037929432e-001
 4.6707005000e+000	 8.6432449896e-001	 4.0986005945e-001
 4.7556846886e+000	 4.2905494097e-001	 4.8445454259e-001
 4.7515512403e+000	 4.7263708109e-001	 4.7593991063e-001
 4.7470028507e+000	 5.1632251113e-001	 4.6754789833e-001
 4.7420360919e+000	 5.6010597494e-001	 4.5956390001e-001
 4.7366476119e+000	 6.0398211945e-001	 4.5229419227e-001
 4.7308341373e+000	 6.4794549573e-001	 4.4691642813e-001
 4.7245924760e+000	 6.9199056008e-001	 4.4136790293e-001
 4.7179195205e+000	 7.3611167519e-001	 4.3431566455e-001
 4.7108122499e+000	 7.8030311141e-001	 4.2590392890e-001
 4.7032677338e+000	 8.2455904814e-001	 4.1627089928e-001
 4.6952831342e+000	 8.6887357527e-001	 4.0554866267e-001
 4.7805835613e+000	 4.3130130191e-001	 4.7899239890e-001
 4.7764284720e+000	 4.7511162077e-001	 4.7117702317e-001
 4.7718562687e+000	 5.1902577035e-001	 4.6330909091e-001
 4.7668635060e+000	 5.6303846695e-001	 4.5567689299e-001
 4.7614468140e+000	 6.0714432950e-001	 4.4859003130e-001
 4.7556029024e+000	 6.5133788053e-001	 4.4314080295e-001
 4.7493285623e+000	 6.9561354731e-001	 4.3716269702e-001
 4.7426206698e+000	 7.3996566301e-001	 4.2974011478e-001
 4.7354761884e+000	 7.8438846801e-001	 4.2101628752e-001
 4.7278921722e+000	 8.2887611122e-001	 4.1112826547e-001
 4.7198657684e+000	 8.7342265158e-001	 4.0020681473e-001
 4.8054824340e+000	 4.3354766286e-001	 4.7293445219e-001
 4.8013057036e+000	 4.7758616046e-001	 4.6574197932e-001
 4.7967096868e+000	 5.2172902957e-001	 4.5831876676e-001
 4.7916909201e+000	 5.6597095897e-001	 4.5095604486e-001
 4.7862460162e+000	 6.1030653954e-001	 4.4396678891e-001
 4.7803716675e+000	 6.5473026532e-001	 4.3834821322e-001
 4.7740646486e+000	 6.9923653453e-001	 4.3193613263e-001
 4.7673218191e+000	 7.4381965084e-001	 4.2414112492e-001
 4.7601401269e+000	 7.8847382461e-001	 4.1510540641e-001
 4.7525166106e+000	 8.3319317430e-001	 4.0496484064e-001
 4.7444484026e+000	 8.7797172789e-001	 3.9384883607e-001
 4.8303813068e+000	 4.3579402381e-001	 4.6627728188e-001
 4.8261829352e+000	 4.8006070016e-001	 4.5963099307e-001
 4.8215631049e+000	 5.2443228879e-001	 4.5257273930e-001
 4.8165183342e+000	 5.6890345098e-001	 4.4539673338e-001
 4.8110452184e+000	 6.1346874959e-001	 4.3841937217e-001
 4.8051404326e+000	 6.5812265011e-001	 4.3254865721e-001
 4.7988007348e+000	 7.0285952176e-001	 4.2569905812e-001
 4.7920229684e+000	 7.4767363867e-001	 4.1753039967e-001
 4.7848040654e+000	 7.9255918122e-001	 4.0818385225e-001
 4.7771410490e+000	 8.3751023738e-001	 3.9779405854e-001
 4.7690310368e+000	 8.8252080420e-001	 3.8648903197e-001
 4.8552801795e+000	 4.3804038475e-001	 4.5901747035e-001
 4.8510601668e+000	 4.8253523985e-001	 4.5284027890e-001
 4.8464165229e+000	 5.2713554801e-001	 4.4606682016e-001
 4.8413457483e+000	 5.7183594300e-001	 4.3899433238e-001
 4.8358444205e+000	 6.1663095964e-001	 4.3194268222e-001
 4.8299091977e+000	 6.6151503491e-001	 4.2575212538e-001
 4.8235368211e+000	 7.0648250899e-001	 4.1846231235e-001
 4.8167241177e+000	 7.5152762650e-001	 4.0991963265e-001
 4.8094680039e+000	 7.9664453783e-001	 4.0026417926e-001
 4.8017654874e+000	 8.4182730046e-001	 3.8962933925e-001
 4.7936136710e+000	 8.8706988052e-001	 3.7814169297e-001
 4.8801790522e+000	 4.4028674570e-001	 4.5115160277e-001
 4.8759373984e+000	 4.8500977954e-001	 4.4536605176e-001
 4.8712699410e+000	 5.2983880724e-001	 4.3879681919e-001
 4.8661731623e+000	 5.7476843502e-001	 4.3174421182e-001
 4.8606436227e+000	 6.1979316970e-001	 4.2453161438e-001
 4.8546779629e+000	 6.6490741971e-001	 4.1796860062e-001
 4.8482729073e+000	 7.1010549622e-001	 4.1023672492e-001
 4.8414252671e+000	 7.5538161434e-001	 4.0132050675e-001
 4.8341319423e+000	 8.0072989444e-001	 3.9135892956e-001
 4.8263899258e+000	 8.4614436354e-001	 3.8048408949e-001
 4.8181963052e+000	 8.9161895683e-001	 3.6882109521e-001
 4.9050779249e+000	 4.4253310665e-001	 4.4267626710e-001
 4.9008146301e+000	 4.8748431924e-001	 4.3720452704e-001
 4.8961233591e+000	 5.3254206646e-001	 4.3075854455e-001
 4.8910005764e+000	 5.7770092704e-001	 4.2364173792e-001
 4.8854428248e+000	 6.2295537975e-001	 4.1618105835e-001
 4.8794467280e+000	 6.6829980451e-001	 4.0920805839e-001
 4.8730089936e+000	 7.1372848345e-001	 4.0103311643e-001
 4.8661264164e+000	 7.5923560217e-001	 3.9174469433e-001
 4.8587958808e+000	 8.0481525105e-001	 3.8148063343e-001
 4.8510143642e+000	 8.5046142663e-001	 3.7037170301e-001
 4.8427789394e+000	 8.9616803315e-001	 3.5854150085e-001
 4.9299767976e+000	 4.4477946760e-001	 4.3358805401e-001
 4.9256918617e+000	 4.8995885893e-001	 4.2835192060e-001
 4.9209767771e+000	 5.3524532569e-001	 4.2194780270e-001
 4.9158279905e+000	 5.8063341906e-001	 4.1468227324e-001
 4.9102420270e+000	 6.2611758981e-001	 4.0691455382e-001
 4.9042154931e+000	 6.7169218931e-001	 3.9948046694e-001
 4.8977450799e+000	 7.1735147068e-001	 3.9086229865e-001
 4.8908275657e+000	 7.6308959000e-001	 3.8120385755e-001
 4.8834598193e+000	 8.0890060766e-001	 3.7064180966e-001
 4.8756388026e+000	 8.5477848971e-001	 3.5930556090e-001
 4.8673615736e+000	 9.0071710947e-001	 3.4731715837e-001
 4.9548756703e+000	 4.4702582855e-001	 4.2388355677e-001
 4.9505690933e+000	 4.9243339863e-001	 4.1880444874e-001
 4.9458301952e+000	 5.3794858491e-001	 4.1236039851e-001
 4.9406554046e+000	 5.8356591108e-001	 4.0486117677e-001
 4.9350412291e+000	 6.2927979986e-001	 3.9674899532e-001
 4.9289842582e+000	 6.7508457411e-001	 3.8879578746e-001
 4.9224811661e+000	 7.2097445791e-001	 3.7973507481e-001
 4.9155287150e+000	 7.6694357784e-001	 3.6970964859e-001
 4.9081237578e+000	 8.1298596427e-001	 3.5885496580e-001
 4.9002632410e+000	 8.5909555280e-001	 3.4729903190e-001
 4.8919442078e+000	 9.0526618578e-001	 3.3516230293e-001
 4.9797745430e+000	 4.4927218951e-001	 4.1355937124e-001
 4.9754463249e+000	 4.9490793833e-001	 4.0855832816e-001
 4.9706836133e+000	 5.4065184414e-001	 4.0199213521e-001
 4.9654828187e+000	 5.8649840310e-001	 3.9417380404e-001
 4.9598404313e+000	 6.3244200992e-001	 3.8563717066e-001
 4.9537530233e+000	 6.7847695892e-001	 3.7716397431e-001
 4.9472172524e+000	 7.2459744515e-001	 3.6766223975e-001
 4.9402298643e+000	 7.7079756568e-001	 3.5727370992e-001
 4.9327876962e+000	 8.1707132088e-001	 3.4613259846e-001
 4.9248876794e+000	 8.6341261589e-001	 3.3436547274e-001
 4.9165268420e+000	 9.0981526210e-001	 3.2209115673e-001
 4.6707005000e+000	 8.6432449896e-001	 4.0986005945e-001
 4.6623171971e+000	 9.0845932984e-001	 3.9631313153e-001
 4.6534907565e+000	 9.5264042516e-001	 3.8107057804e-001
 4.6442186484e+000	 9.9686164827e-001	 3.6428488099e-001
 4.6344984465e+000	 1.0411167802e+000	 3.4610365529e-001
 4.6243278300e+000	 1.0853995214e+000	 3.2666961784e-001
 4.6137045869e+000	 1.1297034943e+000	 3.0612057331e-001
 4.6026266164e+000	 1.1740222445e+000	 2.8458941693e-001
 4.5910919311e+000	 1.2183492440e+000	 2.6220415426e-001
 4.5790986602e+000	 1.2626778925e+000	 2.3768286596e-001
 4.5666450514e+000	 1.3070015205e+000	 2.0818445619e-001
 4.6952831342e+000	 8.6887357527e-001	 4.0554866267e-001
 4.6868557086e+000	 9.1324069473e-001	 3.9269674050e-001
 4.6779828131e+000	 9.5765432214e-001	 3.7835557850e-001
 4.6686619045e+000	 1.0021082885e+000	 3.6266984104e-001
 4.6588905436e+000	 1.0465963422e+000	 3.4577893156e-001
 4.6486663975e+000	 1.0911121505e+000	 3.2781696615e-001
 4.6379872426e+000	 1.1356493021e+000	 3.0891276454e-001
 4.6268509670e+000	 1.1802013090e+000	 2.8918985868e-001
 4.6152555729e+000	 1.2247616084e+000	 2.6876651938e-001
 4.6031991795e+000	 1.2693235656e+000	 2.4582260419e-001
 4.5906800254e+000	 1.3138804759e+000	 2.1898052302e-001
 4.7198657684e+000	 8.7342265158e-001	 4.0020681473e-001
 4.7113942202e+000	 9.1802205963e-001	 3.8791453469e-001
 4.7024748697e+000	 9.6266821912e-001	 3.7433949419e-001
 4.6931051605e+000	 1.0073549288e+000	 3.5961853672e-001
 4.6832826406e+000	 1.0520759042e+000	 3.4388284965e-001
 4.6730049650e+000	 1.0968247796e+000	 3.2725794227e-001
 4.6622698984e+000	 1.1415951100e+000	 3.0986364200e-001
 4.6510753176e+000	 1.1863803734e+000	 2.9181410896e-001
 4.6394192146e+000	 1.2311739729e+000	 2.7321786924e-001
 4.6272996988e+000	 1.2759692387e+000	 2.5185014241e-001
 4.6147149993e+000	 1.3207594313e+000	 2.2753299756e-001
 4.7444484026e+000	 8.7797172789e-001	 3.9384883607e-001
 4.7359327318e+000	 9.2280342452e-001	 3.8198390754e-001
 4.7269669263e+000	 9.6768211609e-001	 3.6904282620e-001
 4.7175484166e+000	 1.0126015690e+000	 3.5515461006e-001
 4.7076747377e+000	 1.0575554662e+000	 3.4044222447e-001
 4.6973435326e+000	 1.1025374086e+000	 3.2502256453e-001
 4.6865525541e+000	 1.1475409179e+000	 3.0900645657e-001
 4.6752996682e+000	 1.1925594379e+000	 2.9249867872e-001
 4.6635828564e+000	 1.2375863373e+000	 2.7559800096e-001
 4.6514002180e+000	 1.2826149119e+000	 2.5580110171e-001
 4.6387499733e+000	 1.3276383866e+000	 2.3388081359e-001
 4.7690310368e+000	 8.8252080420e-001	 3.8648903197e-001
 4.7604712433e+000	 9.2758478942e-001	 3.7492219113e-001
 4.7514589829e+000	 9.7269601307e-001	 3.6248596750e-001
 4.7419916726e+000	 1.0178482093e+000	 3.4930154781e-001
 4.7320668348e+000	 1.0630350282e+000	 3.3548366802e-001
 4.7216821001e+000	 1.1082500377e+000	 3.2114060027e-001
 4.7108352098e+000	 1.1534867257e+000	 3.0637415960e-001
 4.6995240188e+000	 1.1987385023e+000	 2.9127973054e-001
 4.6877464981e+000	 1.2439987017e+000	 2.7594631398e-001
 4.6755007373e+000	 1.2892605850e+000	 2.5771065582e-001
 4.6627849472e+000	 1.3345173420e+000	 2.3806240754e-001
 4.7936136710e+000	 8.8706988052e-001	 3.7814169297e-001
 4.7850097549e+000	 9.3236615432e-001	 3.6674665772e-001
 4.7759510395e+000	 9.7770991005e-001	 3.5468920576e-001
 4.7664349286e+000	 1.0230948496e+000	 3.4208268542e-001
 4.7564589319e+000	 1.0685145902e+000	 3.2903359459e-001
 4.7460206676e+000	 1.1139626667e+000	 3.1564157229e-001
 4.7351178655e+000	 1.1594325336e+000	 3.0199941064e-001
 4.7237483694e+000	 1.2049175668e+000	 2.8819308751e-001
 4.7119101398e+000	 1.2504110662e+000	 2.7428035656e-001
 4.6996012565e+000	 1.2959062581e+000	 2.5761354260e-001
 4.6868199212e+000	 1.3413962974e+000	 2.4011573124e-001
 4.8181963052e+000	 8.9161895683e-001	 3.6882109521e-001
 4.8095482664e+000	 9.3714751922e-001	 3.5747452128e-001
 4.8004430961e+000	 9.8272380703e-001	 3.4567272601e-001
 4.7908781847e+000	 1.0283414898e+000	 3.3352121088e-001
 4.7808510290e+000	 1.0739941522e+000	 3.2111822576e-001
 4.7703592351e+000	 1.1196752958e+000	 3.0855476502e-001
 4.7594005212e+000	 1.1653783415e+000	 2.9591458482e-001
 4.7479727200e+000	 1.2110966312e+000	 2.8327424189e-001
 4.7360737816e+000	 1.2568234306e+000	 2.7040013416e-001
 4.7237017758e+000	 1.3025519312e+000	 2.5554407516e-001
 4.7108548951e+000	 1.3482752527e+000	 2.4007826426e-001
 4.8427789394e+000	 8.9616803315e-001	 3.5854150085e-001
 4.8340867780e+000	 9.4192888412e-001	 3.4712293902e-001
 4.8249351527e+000	 9.8773770401e-001	 3.3545661325e-001
 4.8153214407e+000	 1.0335881301e+000	 3.2364016850e-001
 4.8052431260e+000	 1.0794737142e+000	 3.1176359535e-001
 4.7946978026e+000	 1.1253879249e+000	 2.9990923064e-001
 4.7836831769e+000	 1.1713241493e+000	 2.8815178016e-001
 4.7721970706e+000	 1.2172756957e+000	 2.7655836357e-001
 4.7602374233e+000	 1.2632357951e+000	 2.6469899023e-001
 4.7478022951e+000	 1.3091976043e+000	 2.5153615261e-001
 4.7348898691e+000	 1.3551542081e+000	 2.3798702596e-001
 4.8673615736e+000	 9.0071710947e-001	 3.4731715837e-001
 4.8586252895e+000	 9.4671024902e-001	 3.3570901276e-001
 4.8494272093e+000	 9.9275160099e-001	 3.2406085497e-001
 4.8397646967e+000	 1.0388347703e+000	 3.1246246252e-001
 4.8296352231e+000	 1.0849532762e+000	 3.0099555412e-001
 4.8190363702e+000	 1.1311005539e+000	 2.8973379490e-001
 4.8079658326e+000	 1.1772699572e+000	 2.7874282448e-001
 4.7964214212e+000	 1.2234547601e+000	 2.6808030813e-001
 4.7844010650e+000	 1.2696481595e+000	 2.5720738375e-001
 4.7719028143e+000	 1.3158432775e+000	 2.4562327056e-001
 4.7589248430e+000	 1.3620331635e+000	 2.3387858705e-001
 4.8919442078e+000	 9.0526618578e-001	 3.3516230293e-001
 4.8831638011e+000	 9.5149161392e-001	 3.2324979034e-001
 4.8739192659e+000	 9.9776549797e-001	 3.1150534360e-001
 4.8642079528e+000	 1.0440814106e+000	 3.0001086063e-001
 4.8540273202e+000	 1.0904328382e+000	 2.8883977440e-001
 4.8433749377e+000	 1.1368131830e+000	 2.7805706283e-001
 4.8322484884e+000	 1.1832157651e+000	 2.6771928225e-001
 4.8206457718e+000	 1.2296338246e+000	 2.5787462478e-001
 4.8085647068e+000	 1.2760605240e+000	 2.4795542399e-001
 4.7960033336e+000	 1.3224889506e+000	 2.3783853122e-001
 4.7829598170e+000	 1.3689121189e+000	 2.2778908087e-001
 4.9165268420e+000	 9.0981526210e-001	 3.2209115673e-001
 4.9077023127e+000	 9.5627297882e-001	 3.0976226701e-001
 4.8984113225e+000	 1.0027793950e+000	 2.9780987889e-001
 4.8886512088e+000	 1.0493280509e+000	 2.8630799735e-001
 4.8784194173e+000	 1.0959124002e+000	 2.7532175451e-001
 4.8677135052e+000	 1.1425258121e+000	 2.6490742425e-001
 4.8565311441e+000	 1.1891615729e+000	 2.5511246114e-001
 4.8448701224e+000	 1.2358128890e+000	 2.4597556402e-001
 4.8327283485e+000	 1.2824728884e+000	 2.3697287923e-001
 4.8201038528e+000	 1.3291346237e+000	 2.2821465327e-001
 4.8069947909e+000	 1.3757910742e+000	 2.1975421437e-001
 4.5666450514e+000	 1.3070015205e+000	 2.0818445619e-001
 4.5537294736e+000	 1.3513133914e+000	 1.8247697136e-001
 4.5403504190e+000	 1.3956067041e+000	 1.5931714207e-001
 4.5265065060e+000	 1.4398745957e+000	 1.3853181925e-001
 4.5121964807e+000	 1.4841101442e+000	 1.1992667867e-001
 4.4974192195e+000	 1.5283063712e+000	 1.0328639516e-001
 4.4821737314e+000	 1.5724562449e+000	 8.8374866995e-002
 4.4664591594e+000	 1.6165526831e+000	 7.4935490806e-002
 4.4502747833e+000	 1.6605885562e+000	 6.2691487270e-002
 4.4336200209e+000	 1.7045566903e+000	 5.1346277864e-002
 4.4164944300e+000	 1.7484498704e+000	 4.0583912596e-002
 4.5906800254e+000	 1.3138804759e+000	 2.1898052302e-001
 4.5776964708e+000	 1.3584255672e+000	 1.9401132608e-001
 4.5642470002e+000	 1.4029520026e+000	 1.7121758342e-001
 4.5503302244e+000	 1.4474528831e+000	 1.5042753317e-001
 4.5359448832e+000	 1.4919212502e+000	 1.3144838732e-001
 4.5210898470e+000	 1.5363500889e+000	 1.1406651230e-001
 4.5057641194e+000	 1.5807323304e+000	 9.8047659798e-002
 4.4899668392e+000	 1.6250608551e+000	 8.3137248374e-002
 4.4736972822e+000	 1.6693284959e+000	 6.9060696126e-002
 4.4569548631e+000	 1.7135280413e+000	 5.5523804510e-002
 4.4397391376e+000	 1.7576522382e+000	 4.2213193377e-002
 4.6147149993e+000	 1.3207594313e+000	 2.2753299756e-001
 4.6016634680e+000	 1.3655377429e+000	 2.0352076359e-001
 4.5881435813e+000	 1.4102973010e+000	 1.8132042481e-001
 4.5741539429e+000	 1.4550311704e+000	 1.6076146992e-001
 4.5596932857e+000	 1.4997323562e+000	 1.4165250125e-001
 4.5447604745e+000	 1.5443938066e+000	 1.2378142161e-001
 4.5293545075e+000	 1.5890084159e+000	 1.0691567171e-001
 4.5134745190e+000	 1.6335690271e+000	 9.0802518589e-002
 4.4971197811e+000	 1.6780684357e+000	 7.5169395253e-002
 4.4802897053e+000	 1.7224993923e+000	 5.9724291774e-002
 4.4629838451e+000	 1.7668546059e+000	 4.4156197731e-002
 4.6387499733e+000	 1.3276383866e+000	 2.3388081359e-001
 4.6256304653e+000	 1.3726499187e+000	 2.1104215850e-001
 4.6120401625e+000	 1.4176425995e+000	 1.8966041478e-001
 4.5979776614e+000	 1.4626094578e+000	 1.6956618507e-001
 4.5834416883e+000	 1.5075434623e+000	 1.5056931603e-001
 4.5684311019e+000	 1.5524375244e+000	 1.3245909164e-001
 4.5529448956e+000	 1.5972845014e+000	 1.1500447723e-001
 4.5369821988e+000	 1.6420771991e+000	 9.7954414841e-002
 4.5205422799e+000	 1.6868083755e+000	 8.1038169948e-002
 4.5036245475e+000	 1.7314707433e+000	 6.3965729942e-002
 4.4862285526e+000	 1.7760569736e+000	 4.6428254128e-002
 4.6627849472e+000	 1.3345173420e+000	 2.3806240754e-001
 4.6495974625e+000	 1.3797620944e+000	 2.1661194925e-001
 4.6359367437e+000	 1.4249878979e+000	 1.9627192881e-001
 4.6218013798e+000	 1.4701877451e+000	 1.7687392598e-001
 4.6071900908e+000	 1.5153545683e+000	 1.5822888571e-001
 4.5921017294e+000	 1.5604812421e+000	 1.4012731785e-001
 4.5765352836e+000	 1.6055605868e+000	 1.2233954796e-001
 4.5604898786e+000	 1.6505853711e+000	 1.0461601957e-001
 4.5439647788e+000	 1.6955483152e+000	 8.6687648228e-002
 4.5269593898e+000	 1.7404420943e+000	 6.8266227402e-002
 4.5094732602e+000	 1.7852593414e+000	 4.9044886193e-002
 4.6868199212e+000	 1.3413962974e+000	 2.4011573124e-001
 4.6735644597e+000	 1.3868742701e+000	 2.2026614936e-001
 4.6598333248e+000	 1.4323331963e+000	 2.0118897885e-001
 4.6456250983e+000	 1.4777660325e+000	 1.8271663968e-001
 4.6309384933e+000	 1.5231656743e+000	 1.6466102894e-001
 4.6157723569e+000	 1.5685249599e+000	 1.4681372701e-001
 4.6001256717e+000	 1.6138366723e+000	 1.2894625520e-001
 4.5839975584e+000	 1.6590935431e+000	 1.1081038504e-001
 4.5673872776e+000	 1.7042882550e+000	 9.2138499735e-002
 4.5502942320e+000	 1.7494134453e+000	 7.2644007610e-002
 4.5327179677e+000	 1.7944617091e+000	 5.2021807703e-002
 4.7108548951e+000	 1.3482752527e+000	 2.4007826426e-001
 4.6975314569e+000	 1.3939864459e+000	 2.2204035822e-001
 4.6837299060e+000	 1.4396784948e+000	 2.0444522259e-001
 4.6694488167e+000	 1.4853443198e+000	 1.8712598055e-001
 4.6546868958e+000	 1.5309767803e+000	 1.6989533504e-001
 4.6394429843e+000	 1.5765686776e+000	 1.5254578155e-001
 4.6237160597e+000	 1.6221127578e+000	 1.3484987257e-001
 4.6075052382e+000	 1.6676017152e+000	 1.1656053414e-001
 4.5908097765e+000	 1.7130281948e+000	 9.7411434674e-002
 4.5736290742e+000	 1.7583847963e+000	 7.7117406156e-002
 4.5559626752e+000	 1.8036640769e+000	 5.5374917737e-002
 4.7348898691e+000	 1.3551542081e+000	 2.3798702596e-001
 4.7214984542e+000	 1.4010986216e+000	 2.2196977165e-001
 4.7076264871e+000	 1.4470237932e+000	 2.0607397251e-001
 4.6932725352e+000	 1.4929226072e+000	 1.9013331776e-001
 4.6784352984e+000	 1.5387878863e+000	 1.7396116979e-001
 4.6631136118e+000	 1.5846123954e+000	 1.5735078366e-001
 4.6473064478e+000	 1.6303888433e+000	 1.4007557846e-001
 4.6310129180e+000	 1.6761098872e+000	 1.2188946112e-001
 4.6142322754e+000	 1.7217681346e+000	 1.0252720278e-001
 4.5969639164e+000	 1.7673561473e+000	 8.1704867922e-002
 4.5792073827e+000	 1.8128664446e+000	 5.9120295971e-002
 4.7589248430e+000	 1.3620331635e+000	 2.3387858705e-001
 4.7454654514e+000	 1.4082107974e+000	 2.2008919204e-001
 4.7315230682e+000	 1.4543690917e+000	 2.0610820454e-001
 4.7170962536e+000	 1.5005008945e+000	 1.9176974243e-001
 4.7021837009e+000	 1.5465989924e+000	 1.7688768107e-001
 4.6867842393e+000	 1.5926561131e+000	 1.6125587941e-001
 4.6708968359e+000	 1.6386649288e+000	 1.4464845843e-001
 4.6545205977e+000	 1.6846180592e+000	 1.2682013228e-001
 4.6376547742e+000	 1.7305080743e+000	 1.0750659234e-001
 4.6202987586e+000	 1.7763274983e+000	 8.6424944317e-002
 4.6024520903e+000	 1.8220688123e+000	 6.3274198119e-002
 4.7829598170e+000	 1.3689121189e+000	 2.2778908087e-001
 4.7694324486e+000	 1.4153229731e+000	 2.1643303828e-001
 4.7554196494e+000	 1.4617143901e+000	 2.0458056652e-001
 4.7409199721e+000	 1.5080791818e+000	 1.9206607467e-001
 4.7259321034e+000	 1.5544100984e+000	 1.7870380435e-001
 4.7104548668e+000	 1.6006998308e+000	 1.6428806263e-001
 4.6944872239e+000	 1.6469410143e+000	 1.4859350754e-001
 4.6780282775e+000	 1.6931262312e+000	 1.3137548671e-001
 4.6610772731e+000	 1.7392480141e+000	 1.1237042919e-001
 4.6436336008e+000	 1.7852988493e+000	 9.1296290603e-002
 4.6256967978e+000	 1.8312711801e+000	 6.7853051510e-002
 4.8069947909e+000	 1.3757910742e+000	 2.1975421437e-001
 4.7933994458e+000	 1.4224351489e+000	 2.1103535531e-001
 4.7793162305e+000	 1.4690596886e+000	 2.0152338644e-001
 4.7647436905e+000	 1.5156574692e+000	 1.9105287031e-001
 4.7496805060e+000	 1.5622212044e+000	 1.7943826799e-001
 4.7341254942e+000	 1.6087435486e+000	 1.6647417871e-001
 4.7180776120e+000	 1.6552170998e+000	 1.5193563263e-001
 4.7015359573e+000	 1.7016344032e+000	 1.3557843698e-001
 4.6844997719e+000	 1.7479879539e+000	 1.1713957580e-001
 4.6669684431e+000	 1.7942702003e+000	 9.6337663298e-002
 4.6489415053e+000	 1.8404735478e+000	 7.2873450796e-002
 4.4164944300e+000	 1.7484498704e+000	 4.0583912596e-002
 4.3988977105e+000	 1.7922608439e+000	 4.0637709337e-002
 4.3808297054e+000	 1.8359823234e+000	 4.1560749376e-002
 4.3622904030e+000	 1.8796069909e+000	 8.3737221530e-003
 4.3432799376e+000	 1.9231275005e+000	-3.9033537187e-002
 4.3237985918e+000	 1.9665364825e+000	-7.7665296054e-002
 4.3038467969e+000	 2.0098265468e+000	-1.0769625804e-001
 4.2834251345e+000	 2.0529902865e+000	-1.2931814068e-001
 4.2625343375e+000	 2.0960202818e+000	-1.4273924995e-001
 4.2411752908e+000	 2.1389091034e+000	-1.4818401733e-001
 4.2193490324e+000	 2.1816493170e+000	-1.4589250054e-001
 4.4397391376e+000	 1.7576522382e+000	 4.2213193377e-002
 4.4220498037e+000	 1.8016937957e+000	 3.8954222442e-002
 4.4038867039e+000	 1.8456453883e+000	 3.6318443819e-002
 4.3852498261e+000	 1.8894996592e+000	 3.2423582290e-002
 4.3661393057e+000	 1.9332492242e+000	 6.1045923407e-003
 4.3465554265e+000	 1.9768866745e+000	-3.8800174295e-002
 4.3264986222e+000	 2.0204045813e+000	-7.5275156927e-002
 4.3059694774e+000	 2.0637954986e+000	-1.0351089225e-001
 4.2849687287e+000	 2.1070519675e+000	-1.2371438392e-001
 4.2634972660e+000	 2.1501665198e+000	-1.3610863191e-001
 4.2415561326e+000	 2.1931316818e+000	-1.4093212513e-001
 4.4629838451e+000	 1.7668546059e+000	 4.4156197731e-002
 4.4452018969e+000	 1.8111267475e+000	 3.7756104584e-002
 4.4269437023e+000	 1.8553084531e+000	 3.1738639660e-002
 4.4082092493e+000	 1.8993923276e+000	 2.3631308651e-002
 4.3889986738e+000	 1.9433709479e+000	 1.6783411556e-002
 4.3693122612e+000	 1.9872368665e+000	 4.3683787100e-004
 4.3491504474e+000	 2.0309826157e+000	-4.2318559045e-002
 4.3285138202e+000	 2.0746007106e+000	-7.6999782132e-002
 4.3074031200e+000	 2.1180836532e+000	-1.0381268968e-001
 4.2858192412e+000	 2.1614239361e+000	-1.2297901193e-001
 4.2637632328e+000	 2.2046140466e+000	-1.3473583564e-001
 4.4862285526e+000	 1.7760569736e+000	 4.6428254128e-002
 4.4683539901e+000	 1.8205596993e+000	 3.7057917422e-002
 4.4500007008e+000	 1.8649715180e+000	 2.7835086687e-002
 4.4311686725e+000	 1.9092849960e+000	 1.6008554842e-002
 4.4118580419e+000	 1.9534926715e+000	 6.6004062704e-003
 4.3920690959e+000	 1.9975870585e+000	 6.6452401294e-004
 4.3718022727e+000	 2.0415606502e+000	-8.8212610450e-003
 4.3510581630e+000	 2.0854059226e+000	-4.9780902754e-002
 4.3298375112e+000	 2.1291153389e+000	-8.3031607009e-002
 4.3081412164e+000	 2.1726813525e+000	-1.0879399637e-001
 4.2859703329e+000	 2.2160964114e+000	-1.2730392220e-001
 4.5094732602e+000	 1.7852593414e+000	 4.9044886193e-002
 4.4915060834e+000	 1.8299926511e+000	 3.6874456034e-002
 4.4730576992e+000	 1.8746345829e+000	 2.4621807563e-002
 4.4541280956e+000	 1.9191776644e+000	 9.5372436015e-003
 4.4347174100e+000	 1.9636143952e+000	-2.3066474204e-003
 4.4148259306e+000	 2.0079372506e+000	-1.0957639538e-002
 4.3944540979e+000	 2.0521386846e+000	-1.6504569834e-002
 4.3736025058e+000	 2.0962111347e+000	-2.1849858977e-002
 4.3522719025e+000	 2.1401470246e+000	-6.1368041814e-002
 4.3304631916e+000	 2.1839387688e+000	-9.3551842890e-002
 4.3081774331e+000	 2.2275787763e+000	-1.1863604515e-001
 4.5327179677e+000	 1.7944617091e+000	 5.2021807703e-002
 4.5146581766e+000	 1.8394256029e+000	 3.7220742935e-002
 4.4961146977e+000	 1.8842976477e+000	 2.1352236642e-002
 4.4770875188e+000	 1.9290703327e+000	 4.1996031338e-003
 4.4575767781e+000	 1.9737361189e+000	-9.9574713283e-003
 4.4375827653e+000	 2.0182874426e+000	-2.1197205894e-002
 4.4171059232e+000	 2.0627167191e+000	-2.9603018740e-002
 4.3961468486e+000	 2.1070163467e+000	-3.5263493121e-002
 4.3747062937e+000	 2.1511787103e+000	-3.8818379835e-002
 4.3527851668e+000	 2.1951961851e+000	-7.7250242800e-002
 4.3303845333e+000	 2.2390611411e+000	-1.0873125119e-001
 4.5559626752e+000	 1.8036640769e+000	 5.5374917737e-002
 4.5378102698e+000	 1.8488585547e+000	 3.8112022276e-002
 4.5191716961e+000	 1.8939607126e+000	 1.9046437698e-002
 4.5000469420e+000	 1.9389630011e+000	-2.1840683007e-005
 4.4804361462e+000	 1.9838578426e+000	-1.6371449908e-002
 4.4603396000e+000	 2.0286376346e+000	-3.0075518810e-002
 4.4397577484e+000	 2.0732947536e+000	-4.1212089163e-002
 4.4186911914e+000	 2.1178215587e+000	-4.9864083448e-002
 4.3971406850e+000	 2.1622103960e+000	-5.6119263318e-002
 4.3751071420e+000	 2.2064536015e+000	-6.0070178657e-002
 4.3525916335e+000	 2.2505435059e+000	-9.7587989026e-002
 4.5792073827e+000	 1.8128664446e+000	 5.9120295971e-002
 4.5609623630e+000	 1.8582915065e+000	 3.9563754216e-002
 4.5422286946e+000	 1.9036237774e+000	 1.7724624800e-002
 4.5230063652e+000	 1.9488556695e+000	-3.1442718525e-003
 4.5032955143e+000	 1.9939795663e+000	-2.1567638817e-002
 4.4830964347e+000	 2.0389878266e+000	-3.7613553506e-002
 4.4624095737e+000	 2.0838727880e+000	-5.1354723203e-002
 4.4412355342e+000	 2.1286267708e+000	-6.2868454557e-002
 4.4195750762e+000	 2.1732420817e+000	-7.2236614112e-002
 4.3974291173e+000	 2.2177110178e+000	-7.9545579800e-002
 4.3747987336e+000	 2.2620258708e+000	-8.5204124591e-002
 4.6024520903e+000	 1.8220688123e+000	 6.3274198119e-002
 4.5841144562e+000	 1.8677244584e+000	 4.1591609467e-002
 4.5652856930e+000	 1.9132868423e+000	 1.7371683290e-002
 4.5459657884e+000	 1.9587483379e+000	-5.1845915862e-003
 4.5261548824e+000	 2.0041012900e+000	-2.5564773222e-002
 4.5058532694e+000	 2.0493380186e+000	-4.3831925964e-002
 4.4850613989e+000	 2.0944508225e+000	-6.0053463957e-002
 4.4637798771e+000	 2.1394319828e+000	-7.4301122352e-002
 4.4420094675e+000	 2.1842737674e+000	-8.6650919903e-002
 4.4197510925e+000	 2.2289684341e+000	-9.7183112867e-002
 4.3970058338e+000	 2.2735082356e+000	-1.0598214013e-001
 4.6256967978e+000	 1.8312711801e+000	 6.7853051510e-002
 4.6072665494e+000	 1.8771574102e+000	 4.4069213283e-002
 4.5883426915e+000	 1.9229499072e+000	 1.7972738467e-002
 4.5689252115e+000	 1.9686410063e+000	-6.1594254091e-003
 4.5490142505e+000	 2.0142230137e+000	-2.8381275849e-002
 4.5286101041e+000	 2.0596882107e+000	-4.8750901964e-002
 4.5077132242e+000	 2.1050288570e+000	-6.7330465548e-002
 4.4863242199e+000	 2.1502371949e+000	-8.4186174007e-002
 4.4644438587e+000	 2.1953054531e+000	-9.9388244998e-002
 4.4420730677e+000	 2.2402258505e+000	-1.1301086274e-001
 4.4192129340e+000	 2.2849906004e+000	-1.2513212588e-001
 4.6489415053e+000	 1.8404735478e+000	 7.2873450796e-002
 4.6304186427e+000	 1.8865903620e+000	 4.6808909259e-002
 4.6113996900e+000	 1.9326129720e+000	 1.9513149590e-002
 4.5918846347e+000	 1.9785336746e+000	-6.0851300515e-003
 4.5718736186e+000	 2.0243447374e+000	-3.0035264796e-002
 4.5513669388e+000	 2.0700384027e+000	-5.2390405829e-002
 4.5303650494e+000	 2.1156068914e+000	-7.3207502847e-002
 4.5088685627e+000	 2.1610424069e+000	-9.2547278676e-002
 4.4868782500e+000	 2.2063371388e+000	-1.1047419597e-001
 4.4643950429e+000	 2.2514832668e+000	-1.2705641591e-001
 4.4414200342e+000	 2.2964729653e+000	-1.4236574877e-001
 4.2193490324e+000	 2.1816493170e+000	-1.4589250054e-001
 4.1970567543e+000	 2.2242334862e+000	-1.5894062466e-001
 4.1742998024e+000	 2.2666541773e+000	-1.7250635230e-001
 4.1510796778e+000	 2.3089039626e+000	-1.8663721581e-001
 4.1273980366e+000	 2.3509754247e+000	-2.0138486312e-001
 4.1032566903e+000	 2.3928611605e+000	-2.1680455937e-001
 4.0786576062e+000	 2.4345537848e+000	-2.3295467290e-001
 4.0536029072e+000	 2.4760459347e+000	-2.4989614726e-001
 4.0280948713e+000	 2.5173302738e+000	-2.7059410661e-001
 4.0021359322e+000	 2.5583994957e+000	-2.9627818090e-001
 3.9757286783e+000	 2.5992463286e+000	-3.2300833765e-001
 4.2415561326e+000	 2.1931316818e+000	-1.4093212513e-001
 4.2191465267e+000	 2.2359399782e+000	-1.5662951329e-001
 4.1962698014e+000	 2.2785839361e+000	-1.7204321153e-001
 4.1729274656e+000	 2.3210560887e+000	-1.8724582526e-001
 4.1491211841e+000	 2.3633489796e+000	-2.0231501606e-001
 4.1248527781e+000	 2.4054551666e+000	-2.1733297668e-001
 4.1001242252e+000	 2.4473672257e+000	-2.3238588907e-001
 4.0749376593e+000	 2.4890777554e+000	-2.4756336671e-001
 4.0492953706e+000	 2.5305793805e+000	-2.6759679336e-001
 4.0231998056e+000	 2.5718647562e+000	-2.8965306567e-001
 3.9966535661e+000	 2.6129265724e+000	-3.1214651559e-001
 4.2637632328e+000	 2.2046140466e+000	-1.3473583564e-001
 4.2412362991e+000	 2.2476464703e+000	-1.5342331345e-001
 4.2182398003e+000	 2.2905136949e+000	-1.7103274306e-001
 4.1947752533e+000	 2.3332082148e+000	-1.8766178075e-001
 4.1708443317e+000	 2.3757225345e+000	-2.0341407527e-001
 4.1464488660e+000	 2.4180491727e+000	-2.1839871634e-001
 4.1215908442e+000	 2.4601806667e+000	-2.3272966435e-001
 4.0962724114e+000	 2.5021095762e+000	-2.4681155244e-001
 4.0704958700e+000	 2.5438284872e+000	-2.6591025788e-001
 4.0442636789e+000	 2.5853300167e+000	-2.8475987635e-001
 4.0175784539e+000	 2.6266068162e+000	-3.0344283262e-001
 4.2859703329e+000	 2.2160964114e+000	-1.2730392220e-001
 4.2633260715e+000	 2.2593529623e+000	-1.4931563291e-001
 4.2402097993e+000	 2.3024434537e+000	-1.6946175572e-001
 4.2166230411e+000	 2.3453603409e+000	-1.8786497873e-001
 4.1925674792e+000	 2.3880960893e+000	-2.0465491481e-001
 4.1680449538e+000	 2.4306431788e+000	-2.1996752326e-001
 4.1430574632e+000	 2.4729941077e+000	-2.3394451135e-001
 4.1176071636e+000	 2.5151413969e+000	-2.4858601081e-001
 4.0916963693e+000	 2.5570775939e+000	-2.6551912640e-001
 4.0653275522e+000	 2.5987952773e+000	-2.8157622815e-001
 4.0385033416e+000	 2.6402870601e+000	-2.9686778550e-001
 4.3081774331e+000	 2.2275787763e+000	-1.1863604515e-001
 4.2854158438e+000	 2.2710594543e+000	-1.4429956889e-001
 4.2621797983e+000	 2.3143732126e+000	-1.6731666943e-001
 4.2384708289e+000	 2.3575124671e+000	-1.8783505084e-001
 4.2142906268e+000	 2.4004696442e+000	-2.0601027023e-001
 4.1896410417e+000	 2.4432371849e+000	-2.2200513260e-001
 4.1645240822e+000	 2.4858075487e+000	-2.3598906387e-001
 4.1389419157e+000	 2.5281732176e+000	-2.5123858597e-001
 4.1128968686e+000	 2.5703267006e+000	-2.6640841472e-001
 4.0863914255e+000	 2.6122605378e+000	-2.8008026320e-001
 4.0594282294e+000	 2.6539673039e+000	-2.9239253727e-001
 4.3303845333e+000	 2.2390611411e+000	-1.0873125119e-001
 4.3075056162e+000	 2.2827659464e+000	-1.3836772113e-001
 4.2841497972e+000	 2.3263029714e+000	-1.6458352517e-001
 4.2603186167e+000	 2.3696645932e+000	-1.8755137062e-001
 4.2360137743e+000	 2.4128431991e+000	-2.0745274221e-001
 4.2112371295e+000	 2.4558311910e+000	-2.2447726998e-001
 4.1859907011e+000	 2.4986209896e+000	-2.3882207374e-001
 4.1602766679e+000	 2.5412050383e+000	-2.5476130654e-001
 4.1340973679e+000	 2.5835758073e+000	-2.6856351820e-001
 4.1074552989e+000	 2.6257257983e+000	-2.8025063701e-001
 4.0803531172e+000	 2.6676475477e+000	-2.8998890016e-001
 4.3525916335e+000	 2.2505435059e+000	-9.7587989026e-002
 4.3295953886e+000	 2.2944724384e+000	-1.3151220459e-001
 4.3061197962e+000	 2.3382327302e+000	-1.6124799466e-001
 4.2821664045e+000	 2.3818167193e+000	-1.8699306014e-001
 4.2577369219e+000	 2.4252167539e+000	-2.0895479995e-001
 4.2328332174e+000	 2.4684251971e+000	-2.2734965176e-001
 4.2074573201e+000	 2.5114344306e+000	-2.4341108746e-001
 4.1816114200e+000	 2.5542368590e+000	-2.5914644253e-001
 4.1552978673e+000	 2.5968249141e+000	-2.7197020209e-001
 4.1285191722e+000	 2.6391910588e+000	-2.8206650539e-001
 4.1012780050e+000	 2.6813277916e+000	-2.8962931900e-001
 4.3747987336e+000	 2.2620258708e+000	-8.5204124591e-002
 4.3516851610e+000	 2.3061789304e+000	-1.2372466176e-001
 4.3280897951e+000	 2.3501624891e+000	-1.5729538972e-001
 4.3040141922e+000	 2.3939688454e+000	-1.8613899637e-001
 4.2794600695e+000	 2.4375903088e+000	-2.1048878450e-001
 4.2544293052e+000	 2.4810192032e+000	-2.3058798525e-001
 4.2289239391e+000	 2.5242478716e+000	-2.4861232461e-001
 4.2029461722e+000	 2.5672686797e+000	-2.6438649933e-001
 4.1764983666e+000	 2.6100740208e+000	-2.7661459214e-001
 4.1495830455e+000	 2.6526563193e+000	-2.8550751174e-001
 4.1222028927e+000	 2.6950080354e+000	-2.9128685522e-001
 4.3970058338e+000	 2.2735082356e+000	-1.0598214013e-001
 4.3737749334e+000	 2.3178854225e+000	-1.1499627457e-001
 4.3500597941e+000	 2.3620922479e+000	-1.5271067136e-001
 4.3258619800e+000	 2.4061209716e+000	-1.8496781738e-001
 4.3011832170e+000	 2.4499638637e+000	-2.1202691204e-001
 4.2760253930e+000	 2.4936132094e+000	-2.3415796896e-001
 4.2503905581e+000	 2.5370613125e+000	-2.5428932887e-001
 4.2242809243e+000	 2.5803005004e+000	-2.7047421167e-001
 4.1976988659e+000	 2.6233231275e+000	-2.8248316548e-001
 4.1706469189e+000	 2.6661215798e+000	-2.9055377477e-001
 4.1431277805e+000	 2.7086882792e+000	-2.9493517122e-001
 4.4192129340e+000	 2.2849906004e+000	-1.2513212588e-001
 4.3958647058e+000	 2.3295919145e+000	-1.3527970724e-001
 4.3720297931e+000	 2.3740220067e+000	-1.4747845862e-001
 4.3477097678e+000	 2.4182730977e+000	-1.8345792833e-001
 4.3229063646e+000	 2.4623374186e+000	-2.1354127697e-001
 4.2976214809e+000	 2.5062072155e+000	-2.3842711177e-001
 4.2718571771e+000	 2.5498747535e+000	-2.6044109535e-001
 4.2456156764e+000	 2.5933323211e+000	-2.7740253792e-001
 4.2188993652e+000	 2.6365722342e+000	-2.8956274181e-001
 4.1917107922e+000	 2.6795868403e+000	-2.9718587648e-001
 4.1640526683e+000	 2.7223685231e+000	-3.0054851531e-001
 4.4414200342e+000	 2.2964729653e+000	-1.4236574877e-001
 4.4179544782e+000	 2.3412984066e+000	-1.5575218589e-001
 4.3939997920e+000	 2.3859517656e+000	-1.6658593959e-001
 4.3695575556e+000	 2.4304252238e+000	-1.8158750728e-001
 4.3446295122e+000	 2.4747109734e+000	-2.1500385499e-001
 4.3192175687e+000	 2.5188012216e+000	-2.4326976153e-001
 4.2933237960e+000	 2.5626881945e+000	-2.6706672309e-001
 4.2669504286e+000	 2.6063641418e+000	-2.8516465447e-001
 4.2400998645e+000	 2.6498213409e+000	-2.9784047485e-001
 4.2127746655e+000	 2.6930521008e+000	-3.0538485068e-001
 4.1849775561e+000	 2.7360487669e+000	-3.0810170706e-001
 3.9757286783e+000	 2.5992463286e+000	-3.2300833765e-001
 3.9488758523e+000	 2.6398635388e+000	-3.4148368117e-001
 3.9215803507e+000	 2.6802439354e+000	-3.5612976635e-001
 3.8938452231e+000	 2.7203803739e+000	-3.6724774883e-001
 3.8656736713e+000	 2.7602657603e+000	-3.7514840673e-001
 3.8370690480e+000	 2.7998930552e+000	-3.8015158219e-001
 3.8080348563e+000	 2.8392552779e+000	-3.8258559997e-001
 3.7785747479e+000	 2.8783455100e+000	-3.8278666439e-001
 3.7486925218e+000	 2.9171568997e+000	-3.8265770070e-001
 3.7183921230e+000	 2.9556826656e+000	-4.1367123915e-001
 3.6876776410e+000	 2.9939161004e+000	-4.4005680675e-001
 3.9966535661e+000	 2.6129265724e+000	-3.1214651559e-001
 3.9696594094e+000	 2.6537575574e+000	-3.3045748831e-001
 3.9422202473e+000	 2.6943504824e+000	-3.4547838125e-001
 3.9143391453e+000	 2.7346981653e+000	-3.5749556259e-001
 3.8860193222e+000	 2.7747934748e+000	-3.6680451900e-001
 3.8572641483e+000	 2.8146293345e+000	-3.7370930574e-001
 3.8280771451e+000	 2.8541987267e+000	-3.7852197447e-001
 3.7984619834e+000	 2.8934946969e+000	-3.8156198001e-001
 3.7684224824e+000	 2.9325103571e+000	-3.8315556734e-001
 3.7379626079e+000	 2.9712388901e+000	-3.9721325457e-001
 3.7070864707e+000	 3.0096735536e+000	-4.2896312875e-001
 4.0175784539e+000	 2.6266068162e+000	-3.0344283262e-001
 3.9904429665e+000	 2.6676515760e+000	-3.2122378513e-001
 3.9628601438e+000	 2.7084570295e+000	-3.3624640481e-001
 3.9348330675e+000	 2.7490159568e+000	-3.4878249845e-001
 3.9063649731e+000	 2.7893211894e+000	-3.5911249387e-001
 3.8774592485e+000	 2.8293656137e+000	-3.6752489842e-001
 3.8481194338e+000	 2.8691421756e+000	-3.7431573572e-001
 3.8183492189e+000	 2.9086438838e+000	-3.7978796196e-001
 3.7881524430e+000	 2.9478638144e+000	-3.8425086306e-001
 3.7575330927e+000	 2.9867951147e+000	-3.8801943406e-001
 3.7264953004e+000	 3.0254310067e+000	-4.1628343662e-001
 4.0385033416e+000	 2.6402870601e+000	-2.9686778550e-001
 4.0112265236e+000	 2.6815455947e+000	-3.1375823154e-001
 3.9835000404e+000	 2.7225635765e+000	-3.2841475006e-001
 3.9553269898e+000	 2.7633337482e+000	-3.4109481064e-001
 3.9267106240e+000	 2.8038489039e+000	-3.5206401299e-001
 3.8976543488e+000	 2.8441018930e+000	-3.6159555348e-001
 3.8681617225e+000	 2.8840856244e+000	-3.6996967071e-001
 3.8382364544e+000	 2.9237930707e+000	-3.7747307104e-001
 3.8078824037e+000	 2.9632172718e+000	-3.8439833565e-001
 3.7771035776e+000	 3.0023513392e+000	-3.9104331037e-001
 3.7459041300e+000	 3.0411884599e+000	-4.0202465889e-001
 4.0594282294e+000	 2.6539673039e+000	-2.9239253727e-001
 4.0320100807e+000	 2.6954396133e+000	-3.0803703967e-001
 4.0041399370e+000	 2.7366701235e+000	-3.2196476617e-001
 3.9758209120e+000	 2.7776515397e+000	-3.3441907152e-001
 3.9470562748e+000	 2.8183766184e+000	-3.4565095612e-001
 3.9178494490e+000	 2.8588381722e+000	-3.5591854043e-001
 3.8882040112e+000	 2.8990290732e+000	-3.6548651904e-001
 3.8581236899e+000	 2.9389422576e+000	-3.7462559522e-001
 3.8276123643e+000	 2.9785707292e+000	-3.8361189764e-001
 3.7966740624e+000	 3.0179075638e+000	-3.9272638035e-001
 3.7653129597e+000	 3.0569459131e+000	-4.0225420759e-001
 4.0803531172e+000	 2.6676475477e+000	-2.8998890016e-001
 4.0527936378e+000	 2.7093336319e+000	-3.0403695974e-001
 4.0247798336e+000	 2.7507766705e+000	-3.1687822729e-001
 3.9963148342e+000	 2.7919693311e+000	-3.2874216339e-001
 3.9674019257e+000	 2.8329043329e+000	-3.3986539609e-001
 3.9380445493e+000	 2.8735744514e+000	-3.5049120313e-001
 3.9082462999e+000	 2.9139725220e+000	-3.6086897414e-001
 3.8780109254e+000	 2.9540914445e+000	-3.7125365409e-001
 3.8473423250e+000	 2.9939241865e+000	-3.8190516931e-001
 3.8162445473e+000	 3.0334637884e+000	-3.9308783740e-001
 3.7847217894e+000	 3.0727033662e+000	-4.0506976252e-001
 4.1012780050e+000	 2.6813277916e+000	-2.8962931900e-001
 4.0735771949e+000	 2.7232276505e+000	-3.0173526627e-001
 4.0454197301e+000	 2.7648832176e+000	-3.1313732171e-001
 4.0168087564e+000	 2.8062871225e+000	-3.2405127058e-001
 3.9877475766e+000	 2.8474320475e+000	-3.3469959384e-001
 3.9582396495e+000	 2.8883107307e+000	-3.4531095783e-001
 3.9282885886e+000	 2.9289159709e+000	-3.5611968444e-001
 3.8978981609e+000	 2.9692406314e+000	-3.6736520313e-001
 3.8670722856e+000	 3.0092776439e+000	-3.7929148609e-001
 3.8358150322e+000	 3.0490200129e+000	-3.9214646778e-001
 3.8041306191e+000	 3.0884608194e+000	-4.0618145040e-001
 4.1222028927e+000	 2.6950080354e+000	-2.9128685522e-001
 4.0943607521e+000	 2.7371216692e+000	-3.0110974484e-001
 4.0660596267e+000	 2.7789897646e+000	-3.1072464132e-001
 4.0373026787e+000	 2.8206049140e+000	-3.2033387181e-001
 4.0080932275e+000	 2.8619597620e+000	-3.3014599370e-001
 3.9784347498e+000	 2.9030470099e+000	-3.4037529143e-001
 3.9483308773e+000	 2.9438594197e+000	-3.5124125452e-001
 3.9177853965e+000	 2.9843898182e+000	-3.6296803789e-001
 3.8868022462e+000	 3.0246311013e+000	-3.7578390584e-001
 3.8553855170e+000	 3.0645762375e+000	-3.8992066097e-001
 3.8235394488e+000	 3.1042182725e+000	-4.0561305966e-001
 4.1431277805e+000	 2.7086882792e+000	-2.9493517122e-001
 4.1151443092e+000	 2.7510156878e+000	-3.0213867914e-001
 4.0866995233e+000	 2.7930963116e+000	-3.0962317144e-001
 4.0577966009e+000	 2.8349227054e+000	-3.1757773276e-001
 4.0284388784e+000	 2.8764874765e+000	-3.2619721867e-001
 3.9986298500e+000	 2.9177832891e+000	-3.3568175958e-001
 3.9683731661e+000	 2.9588028685e+000	-3.4623624622e-001
 3.9376726320e+000	 2.9995390051e+000	-3.5806979804e-001
 3.9065322069e+000	 3.0399845586e+000	-3.7139521581e-001
 3.8749560019e+000	 3.0801324620e+000	-3.8642841970e-001
 3.8429482785e+000	 3.1199757257e+000	-4.0338787433e-001
 4.1640526683e+000	 2.7223685231e+000	-3.0054851531e-001
 4.1359278663e+000	 2.7649097064e+000	-3.0480083850e-001
 4.1073394199e+000	 2.8072028587e+000	-3.0981628095e-001
 4.0782905231e+000	 2.8492404969e+000	-3.1577089880e-001
 4.0487845293e+000	 2.8910151910e+000	-3.2284606602e-001
 4.0188249503e+000	 2.9325195684e+000	-3.3122798506e-001
 3.9884154548e+000	 2.9737463174e+000	-3.4110717969e-001
 3.9575598675e+000	 3.0146881920e+000	-3.5267797124e-001
 3.9262621675e+000	 3.0553380160e+000	-3.6613793948e-001
 3.8945264867e+000	 3.0956886866e+000	-3.8168736963e-001
 3.8623571082e+000	 3.1357331788e+000	-3.9809514442e-001
 4.1849775561e+000	 2.7360487669e+000	-3.0810170706e-001
 4.1567114234e+000	 2.7788037250e+000	-3.0907546567e-001
 4.1279793165e+000	 2.8213094057e+000	-3.1128771266e-001
 4.0987844453e+000	 2.8635582883e+000	-3.1490168809e-001
 4.0691301802e+000	 2.9055429056e+000	-3.2008550288e-001
 4.0390200505e+000	 2.9472558476e+000	-3.2701165602e-001
 4.0084577435e+000	 2.9886897662e+000	-3.3585653448e-001
 3.9774471030e+000	 3.0298373789e+000	-3.4679989700e-001
 3.9459921281e+000	 3.0706914733e+000	-3.6002434314e-001
 3.9140969716e+000	 3.1112449111e+000	-3.7571476882e-001
 3.8817659379e+000	 3.1514906320e+000	-3.9057135160e-001
 3.6876776410e+000	 2.9939161004e+000	-4.4005680675e-001
 3.6565533075e+000	 3.0318505751e+000	-4.6163749375e-001
 3.6250234951e+000	 3.0694795422e+000	-4.7979255832e-001
 3.5930927152e+000	 3.1067965399e+000	-4.9428157987e-001
 3.5607656154e+000	 3.1437951957e+000	-5.0285559584e-001
 3.5280469781e+000	 3.1804692296e+000	-5.0661059365e-001
 3.4949417175e+000	 3.2168124582e+000	-5.0815522260e-001
 3.4614548776e+000	 3.2528187977e+000	-5.0785567961e-001
 3.4275916292e+000	 3.2884822674e+000	-5.0608478706e-001
 3.3933572679e+000	 3.3237969933e+000	-5.0322105461e-001
 3.3587572107e+000	 3.3587572106e+000	-4.9964772437e-001
 3.7070864707e+000	 3.0096735536e+000	-4.2896312875e-001
 3.6757983249e+000	 3.0478076834e+000	-4.5366131308e-001
 3.6441025662e+000	 3.0856346977e+000	-4.7453239818e-001
 3.6120037295e+000	 3.1231481007e+000	-4.9134062289e-001
 3.5795064871e+000	 3.1603414862e+000	-4.9973128430e-001
 3.5466156464e+000	 3.1972085414e+000	-5.0486592446e-001
 3.5133361476e+000	 3.2337430501e+000	-5.0736379163e-001
 3.4796730611e+000	 3.2699388967e+000	-5.0760936192e-001
 3.4456315852e+000	 3.3057900689e+000	-5.0599422812e-001
 3.4112170430e+000	 3.3412906616e+000	-5.0291613328e-001
 3.3764348802e+000	 3.3764348802e+000	-4.9877798683e-001
 3.7264953004e+000	 3.0254310067e+000	-4.1628343662e-001
 3.6950433423e+000	 3.0637647916e+000	-4.4425288361e-001
 3.6631816372e+000	 3.1017898531e+000	-4.6799829553e-001
 3.6309147437e+000	 3.1394996614e+000	-4.8529072432e-001
 3.5982473587e+000	 3.1768877767e+000	-4.9538497968e-001
 3.5651843147e+000	 3.2139478531e+000	-5.0202375152e-001
 3.5317305777e+000	 3.2506736420e+000	-5.0560128162e-001
 3.4978912447e+000	 3.2870589956e+000	-5.0652039381e-001
 3.4636715411e+000	 3.3230978703e+000	-5.0519151990e-001
 3.4290768181e+000	 3.3587843300e+000	-5.0203170480e-001
 3.3941125497e+000	 3.3941125497e+000	-4.9746359344e-001
 3.7459041300e+000	 3.0411884599e+000	-4.0202465889e-001
 3.7142883597e+000	 3.0797218999e+000	-4.3341709783e-001
 3.6822607082e+000	 3.1179450086e+000	-4.6019306003e-001
 3.6498257580e+000	 3.1558512221e+000	-4.7769686836e-001
 3.6169882304e+000	 3.1934340672e+000	-4.8985731909e-001
 3.5837529830e+000	 3.2306871648e+000	-4.9812178473e-001
 3.5501250078e+000	 3.2676042339e+000	-5.0290240622e-001
 3.5161094283e+000	 3.3041790945e+000	-5.0462042571e-001
 3.4817114971e+000	 3.3404056717e+000	-5.0370518469e-001
 3.4469365932e+000	 3.3762779984e+000	-5.0059310059e-001
 3.4117902192e+000	 3.4117902192e+000	-4.9572662429e-001
 3.7653129597e+000	 3.0569459131e+000	-4.0225420759e-001
 3.7335333771e+000	 3.0956790082e+000	-4.2115833130e-001
 3.7013397793e+000	 3.1341001641e+000	-4.4974710518e-001
 3.6687367723e+000	 3.1722027829e+000	-4.6884495457e-001
 3.6357291020e+000	 3.2099803577e+000	-4.8318855635e-001
 3.6023216513e+000	 3.2474264766e+000	-4.9319739759e-001
 3.5685194379e+000	 3.2845348258e+000	-4.9930159068e-001
 3.5343276118e+000	 3.3212991935e+000	-5.0194086869e-001
 3.4997514530e+000	 3.3577134731e+000	-5.0156355563e-001
 3.4647963683e+000	 3.3937716668e+000	-4.9862551421e-001
 3.4294678888e+000	 3.4294678888e+000	-4.9358907385e-001
 3.7847217894e+000	 3.0727033662e+000	-4.0506976252e-001
 3.7527783945e+000	 3.1116361165e+000	-4.1018272681e-001
 3.7204188503e+000	 3.1502553196e+000	-4.3692782211e-001
 3.6876477866e+000	 3.1885543436e+000	-4.5877762913e-001
 3.6544699737e+000	 3.2265266482e+000	-4.7541857181e-001
 3.6208903196e+000	 3.2641657883e+000	-4.8728763582e-001
 3.5869138680e+000	 3.3014654177e+000	-4.9483297924e-001
 3.5525457954e+000	 3.3384192924e+000	-4.9851290070e-001
 3.5177914090e+000	 3.3750212745e+000	-4.9879478159e-001
 3.4826561434e+000	 3.4112653352e+000	-4.9615400481e-001
 3.4471455583e+000	 3.4471455583e+000	-4.9107285312e-001
 3.8041306191e+000	 3.0884608194e+000	-4.0618145040e-001
 3.7720234120e+000	 3.1275932248e+000	-4.1332601719e-001
 3.7394979213e+000	 3.1664104751e+000	-4.2282541281e-001
 3.7065588009e+000	 3.2049059043e+000	-4.4753713088e-001
 3.6732108454e+000	 3.2430729387e+000	-4.6658688191e-001
 3.6394589879e+000	 3.2809051000e+000	-4.8042922574e-001
 3.6053082981e+000	 3.3183960095e+000	-4.8953044230e-001
 3.5707639790e+000	 3.3555393913e+000	-4.9436747244e-001
 3.5358313649e+000	 3.3923290759e+000	-4.9542683184e-001
 3.5005159185e+000	 3.4287590036e+000	-4.9320350063e-001
 3.4648232278e+000	 3.4648232278e+000	-4.8819979178e-001
 3.8235394488e+000	 3.1042182725e+000	-4.0561305966e-001
 3.7912684294e+000	 3.1435503331e+000	-4.1295969228e-001
 3.7585769923e+000	 3.1825656306e+000	-4.1509404927e-001
 3.7254698152e+000	 3.2212574651e+000	-4.3516530162e-001
 3.6919517170e+000	 3.2596192292e+000	-4.5673264840e-001
 3.6580276562e+000	 3.2976444118e+000	-4.7265858234e-001
 3.6237027281e+000	 3.3353266014e+000	-4.8342758336e-001
 3.5889821625e+000	 3.3726594903e+000	-4.8953531317e-001
 3.5538713209e+000	 3.4096368773e+000	-4.9148750066e-001
 3.5183756936e+000	 3.4462526720e+000	-4.8979880227e-001
 3.4825008974e+000	 3.4825008974e+000	-4.8499164023e-001
 3.8429482785e+000	 3.1199757257e+000	-4.0338787433e-001
 3.8105134468e+000	 3.1595074414e+000	-4.1107841258e-001
 3.7776560634e+000	 3.1987207860e+000	-4.1532563901e-001
 3.7443808295e+000	 3.2376090258e+000	-4.2170359619e-001
 3.7106925887e+000	 3.2761655197e+000	-4.4589468728e-001
 3.6765963245e+000	 3.3143837235e+000	-4.6401181716e-001
 3.6420971582e+000	 3.3522571933e+000	-4.7655774578e-001
 3.6072003461e+000	 3.3897795892e+000	-4.8404693626e-001
 3.5719112768e+000	 3.4269446787e+000	-4.8700441169e-001
 3.5362354687e+000	 3.4637463403e+000	-4.8596458595e-001
 3.5001785669e+000	 3.5001785669e+000	-4.8147007164e-001
 3.8623571082e+000	 3.1357331788e+000	-3.9809514442e-001
 3.8297584642e+000	 3.1754645497e+000	-4.0771197050e-001
 3.7967351344e+000	 3.2148759415e+000	-4.1417214400e-001
 3.7632918438e+000	 3.2539605865e+000	-4.1784499910e-001
 3.7294334603e+000	 3.2927118102e+000	-4.3411147751e-001
 3.6951649928e+000	 3.3311230352e+000	-4.5452474593e-001
 3.6604915883e+000	 3.3691877852e+000	-4.6895401929e-001
 3.6254185297e+000	 3.4068996881e+000	-4.7793264467e-001
 3.5899512327e+000	 3.4442524801e+000	-4.8200502227e-001
 3.5540952438e+000	 3.4812400087e+000	-4.8172540660e-001
 3.5178562364e+000	 3.5178562364e+000	-4.7765668384e-001
 3.8817659379e+000	 3.1514906320e+000	-3.9057135160e-001
 3.8490034816e+000	 3.1914216579e+000	-4.0288971522e-001
 3.8158142054e+000	 3.2310310970e+000	-4.1166066545e-001
 3.7822028581e+000	 3.2703121473e+000	-4.1726760606e-001
 3.7481743320e+000	 3.3092581007e+000	-4.2142116942e-001
 3.7137336611e+000	 3.3478623470e+000	-4.4423289595e-001
 3.6788860184e+000	 3.3861183771e+000	-4.6064924637e-001
 3.6436367132e+000	 3.4240197871e+000	-4.7122253616e-001
 3.6079911887e+000	 3.4615602815e+000	-4.7651662759e-001
 3.5719550189e+000	 3.4987336771e+000	-4.7710570093e-001
 3.5355339060e+000	 3.5355339059e+000	-4.7357300123e-001
 3.3587572107e+000	 3.3587572106e+000	-4.9964772437e-001
 3.3237969933e+000	 3.3933572679e+000	-4.9669549650e-001
 3.2884822674e+000	 3.4275916292e+000	-4.9412068903e-001
 3.2528187977e+000	 3.4614548776e+000	-4.9229488600e-001
 3.2168124582e+000	 3.4949417175e+000	-4.9159027905e-001
 3.1804692296e+000	 3.5280469781e+000	-4.9237868959e-001
 3.1437951957e+000	 3.5607656154e+000	-4.9503059036e-001
 3.1067965399e+000	 3.5930927152e+000	-4.9654130945e-001
 3.0694795422e+000	 3.6250234951e+000	-4.9740094284e-001
 3.0318505751e+000	 3.6565533075e+000	-5.0105647608e-001
 2.9939161004e+000	 3.6876776410e+000	-5.0727060666e-001
 3.3764348802e+000	 3.3764348802e+000	-4.9877798683e-001
 3.3412906616e+000	 3.4112170430e+000	-4.9488077783e-001
 3.3057900689e+000	 3.4456315852e+000	-4.9154235118e-001
 3.2699388967e+000	 3.4796730611e+000	-4.8915741190e-001
 3.2337430501e+000	 3.5133361476e+000	-4.8812110581e-001
 3.1972085414e+000	 3.5466156464e+000	-4.8882800826e-001
 3.1603414862e+000	 3.5795064871e+000	-4.9167111220e-001
 3.1231481007e+000	 3.6120037295e+000	-4.9673214030e-001
 3.0856346977e+000	 3.6441025662e+000	-4.9890693689e-001
 3.0478076834e+000	 3.6757983249e+000	-5.0418307467e-001
 3.0096735536e+000	 3.7070864707e+000	-5.1233232884e-001
 3.3941125497e+000	 3.3941125497e+000	-4.9746359344e-001
 3.3587843300e+000	 3.4290768181e+000	-4.9280606158e-001
 3.3230978703e+000	 3.4636715411e+000	-4.8888590697e-001
 3.2870589956e+000	 3.4978912447e+000	-4.8612100261e-001
 3.2506736420e+000	 3.5317305777e+000	-4.8492949793e-001
 3.2139478531e+000	 3.5651843147e+000	-4.8572877365e-001
 3.1768877767e+000	 3.5982473587e+000	-4.8893439650e-001
 3.1394996614e+000	 3.6309147437e+000	-4.9495907629e-001
 3.1017898531e+000	 3.6631816372e+000	-5.0081836241e-001
 3.0637647916e+000	 3.6950433423e+000	-5.0793179976e-001
 3.0254310067e+000	 3.7264953004e+000	-5.1822939834e-001
 3.4117902192e+000	 3.4117902192e+000	-4.9572662429e-001
 3.3762779984e+000	 3.4469365932e+000	-4.9048937948e-001
 3.3404056717e+000	 3.4817114971e+000	-4.8616536324e-001
 3.3041790945e+000	 3.5161094283e+000	-4.8319566627e-001
 3.2676042339e+000	 3.5501250078e+000	-4.8202149355e-001
 3.2306871648e+000	 3.5837529830e+000	-4.8308308536e-001
 3.1934340672e+000	 3.6169882304e+000	-4.8681863821e-001
 3.1558512221e+000	 3.6498257580e+000	-4.9366322870e-001
 3.1179450086e+000	 3.6822607082e+000	-5.0313377042e-001
 3.0797218999e+000	 3.7142883597e+000	-5.1229815471e-001
 3.0411884599e+000	 3.7459041300e+000	-5.2495430384e-001
 3.4294678888e+000	 3.4294678888e+000	-4.9358907385e-001
 3.3937716668e+000	 3.4647963683e+000	-4.8794874610e-001
 3.3577134731e+000	 3.4997514530e+000	-4.8339477752e-001
 3.3212991935e+000	 3.5343276118e+000	-4.8039152879e-001
 3.2845348258e+000	 3.5685194379e+000	-4.7940331506e-001
 3.2474264766e+000	 3.6023216513e+000	-4.8089329282e-001
 3.2099803577e+000	 3.6357291020e+000	-4.8532234703e-001
 3.1722027829e+000	 3.6687367723e+000	-4.9314798140e-001
 3.1341001641e+000	 3.7013397793e+000	-5.0482321482e-001
 3.0956790082e+000	 3.7335333771e+000	-5.1727814718e-001
 3.0569459131e+000	 3.7653129597e+000	-5.1524709958e-001
 3.4471455583e+000	 3.4471455583e+000	-4.9107285312e-001
 3.4112653352e+000	 3.4826561434e+000	-4.8520215928e-001
 3.3750212745e+000	 3.5177914090e+000	-4.8058825668e-001
 3.3384192924e+000	 3.5525457954e+000	-4.7771883089e-001
 3.3014654177e+000	 3.5869138680e+000	-4.7708136433e-001
 3.2641657883e+000	 3.6208903196e+000	-4.7916198895e-001
 3.2265266482e+000	 3.6544699737e+000	-4.8444433930e-001
 3.1885543436e+000	 3.6876477866e+000	-4.9340840910e-001
 3.1502553196e+000	 3.7204188503e+000	-5.0652941438e-001
 3.1116361165e+000	 3.7527783945e+000	-5.1998525570e-001
 3.0727033662e+000	 3.7847217894e+000	-5.0246738122e-001
 3.4648232278e+000	 3.4648232278e+000	-4.8819979178e-001
 3.4287590036e+000	 3.5005159185e+000	-4.8226760056e-001
 3.3923290759e+000	 3.5358313649e+000	-4.7775995574e-001
 3.3555393913e+000	 3.5707639790e+000	-4.7518792513e-001
 3.3183960095e+000	 3.6053082981e+000	-4.7506221814e-001
 3.2809051000e+000	 3.6394589879e+000	-4.7789200391e-001
 3.2430729387e+000	 3.6732108454e+000	-4.8418373020e-001
 3.2049059043e+000	 3.7065588009e+000	-4.9443994612e-001
 3.1664104751e+000	 3.7394979213e+000	-5.0915813172e-001
 3.1275932248e+000	 3.7720234120e+000	-5.0647354485e-001
 3.0884608194e+000	 3.8041306191e+000	-4.9131375937e-001
 3.4825008974e+000	 3.4825008974e+000	-4.8499164023e-001
 3.4462526720e+000	 3.5183756936e+000	-4.7916303563e-001
 3.4096368773e+000	 3.5538713209e+000	-4.7492407657e-001
 3.3726594903e+000	 3.5889821625e+000	-4.7280927309e-001
 3.3353266014e+000	 3.6237027281e+000	-4.7335262374e-001
 3.2976444118e+000	 3.6580276562e+000	-4.7708639907e-001
 3.2596192292e+000	 3.6919517170e+000	-4.8453992617e-001
 3.2212574651e+000	 3.7254698152e+000	-4.9623837733e-001
 3.1825656306e+000	 3.7585769923e+000	-5.0479519611e-001
 3.1435503331e+000	 3.7912684294e+000	-4.9347972632e-001
 3.1042182725e+000	 3.8235394488e+000	-4.8178502081e-001
 3.5001785669e+000	 3.5001785669e+000	-4.8147007164e-001
 3.4637463403e+000	 3.5362354687e+000	-4.7590641466e-001
 3.4269446787e+000	 3.5719112768e+000	-4.7209486677e-001
 3.3897795892e+000	 3.6072003461e+000	-4.7059344263e-001
 3.3522571933e+000	 3.6420971582e+000	-4.7195949455e-001
 3.3143837235e+000	 3.6765963245e+000	-4.7674846120e-001
 3.2761655197e+000	 3.7106925887e+000	-4.8551261755e-001
 3.2376090258e+000	 3.7443808295e+000	-4.9879982924e-001
 3.1987207860e+000	 3.7776560634e+000	-4.9225950562e-001
 3.1595074414e+000	 3.8105134468e+000	-4.8237881200e-001
 3.1199757257e+000	 3.8429482785e+000	-4.7388046256e-001
 3.5178562364e+000	 3.5178562364e+000	-4.7765668384e-001
 3.4812400087e+000	 3.5540952438e+000	-4.7251567276e-001
 3.4442524801e+000	 3.5899512327e+000	-4.6928661850e-001
 3.4068996881e+000	 3.6254185297e+000	-4.6855110519e-001
 3.3691877852e+000	 3.6604915883e+000	-4.7088990599e-001
 3.3311230352e+000	 3.6951649928e+000	-4.7688169681e-001
 3.2927118102e+000	 3.7294334603e+000	-4.8710177142e-001
 3.2539605865e+000	 3.7632918438e+000	-4.9134582666e-001
 3.2148759415e+000	 3.7967351344e+000	-4.8143531568e-001
 3.1754645497e+000	 3.8297584642e+000	-4.7313875634e-001
 3.1357331788e+000	 3.8623571082e+000	-4.6690798882e-001
 3.5355339060e+000	 3.5355339059e+000	-4.7357300123e-001
 3.4987336771e+000	 3.5719550189e+000	-4.6900873032e-001
 3.4615602815e+000	 3.6079911887e+000	-4.6651366734e-001
 3.4240197871e+000	 3.6436367132e+000	-4.6669303319e-001
 3.3861183771e+000	 3.6788860184e+000	-4.7015109141e-001
 3.3478623470e+000	 3.7137336611e+000	-4.7748982661e-001
 3.3092581007e+000	 3.7481743320e+000	-4.8930762474e-001
 3.2703121473e+000	 3.7822028581e+000	-4.8075431347e-001
 3.2310310970e+000	 3.8158142054e+000	-4.7229414279e-001
 3.1914216579e+000	 3.8490034816e+000	-4.6572794618e-001
 3.1514906320e+000	 3.8817659379e+000	-4.6152670275e-001
 2.9939161004e+000	 3.6876776410e+000	-5.0727060666e-001
 2.9556826656e+000	 3.7183921230e+000	-5.1997061165e-001
 2.9171568997e+000	 3.7486925218e+000	-5.3603168306e-001
 2.8783455100e+000	 3.7785747479e+000	-5.1639767612e-001
 2.8392552779e+000	 3.8080348563e+000	-4.9634090855e-001
 2.7998930552e+000	 3.8370690480e+000	-4.7800328707e-001
 2.7602657603e+000	 3.8656736713e+000	-4.6179834900e-001
 2.7203803739e+000	 3.8938452231e+000	-4.4813319202e-001
 2.6802439354e+000	 3.9215803507e+000	-4.3740759441e-001
 2.6398635388e+000	 3.9488758523e+000	-4.3001315431e-001
 2.5992463286e+000	 3.9757286783e+000	-4.2633244997e-001
 3.0096735536e+000	 3.7070864707e+000	-5.1233232884e-001
 2.9712388901e+000	 3.7379626079e+000	-5.2959869912e-001
 2.9325103571e+000	 3.7684224824e+000	-5.2609197542e-001
 2.8934946969e+000	 3.7984619834e+000	-5.0822591707e-001
 2.8541987267e+000	 3.8280771451e+000	-4.9141140715e-001
 2.8146293345e+000	 3.8572641483e+000	-4.7604725601e-001
 2.7747934748e+000	 3.8860193222e+000	-4.6252707353e-001
 2.7346981653e+000	 3.9143391453e+000	-4.5123838392e-001
 2.6943504824e+000	 3.9422202473e+000	-4.4256175693e-001
 2.6537575574e+000	 3.9696594094e+000	-4.3686995745e-001
 2.6129265724e+000	 3.9966535661e+000	-4.3452711566e-001
 3.0254310067e+000	 3.7264953004e+000	-5.1822939834e-001
 2.9867951147e+000	 3.7575330927e+000	-5.3035372667e-001
 2.9478638144e+000	 3.7881524430e+000	-5.1505235691e-001
 2.9086438838e+000	 3.8183492189e+000	-5.0017413406e-001
 2.8691421756e+000	 3.8481194338e+000	-4.8610191718e-001
 2.8293656137e+000	 3.8774592485e+000	-4.7321459192e-001
 2.7893211894e+000	 3.9063649731e+000	-4.6188618273e-001
 2.7490159568e+000	 3.9348330675e+000	-4.5248497871e-001
 2.7084570295e+000	 3.9628601438e+000	-4.4537267526e-001
 2.6676515760e+000	 3.9904429665e+000	-4.4090353373e-001
 2.6266068162e+000	 4.0175784539e+000	-4.3942356113e-001
 3.0411884599e+000	 3.7459041300e+000	-5.2495430384e-001
 3.0023513392e+000	 3.7771035776e+000	-5.1723289594e-001
 2.9632172718e+000	 3.8078824037e+000	-5.0464586019e-001
 2.9237930707e+000	 3.8382364544e+000	-4.9225925724e-001
 2.8840856244e+000	 3.8681617225e+000	-4.8043603940e-001
 2.8441018930e+000	 3.8976543488e+000	-4.6953551050e-001
 2.8038489039e+000	 3.9267106240e+000	-4.5991244915e-001
 2.7633337482e+000	 3.9553269898e+000	-4.5191624522e-001
 2.7225635765e+000	 3.9835000404e+000	-4.4589005165e-001
 2.6815455947e+000	 4.0112265236e+000	-4.4216995368e-001
 2.6402870601e+000	 4.0385033416e+000	-4.4108415776e-001
 3.0569459131e+000	 3.7653129597e+000	-5.1524709958e-001
 3.0179075638e+000	 3.7966740624e+000	-5.0524782111e-001
 2.9785707292e+000	 3.8276123643e+000	-4.9488294848e-001
 2.9389422576e+000	 3.8581236899e+000	-4.8449832061e-001
 2.8990290732e+000	 3.8882040112e+000	-4.7443732641e-001
 2.8588381722e+000	 3.9178494490e+000	-4.6504002830e-001
 2.8183766184e+000	 3.9470562748e+000	-4.5664229631e-001
 2.7776515397e+000	 3.9758209120e+000	-4.4957495467e-001
 2.7366701235e+000	 4.0041399370e+000	-4.4416294341e-001
 2.6954396133e+000	 4.0320100807e+000	-4.4072449687e-001
 2.6539673039e+000	 4.0594282294e+000	-4.3957034137e-001
 3.0727033662e+000	 3.7847217894e+000	-5.0246738122e-001
 3.0334637884e+000	 3.8162445473e+000	-4.9440274523e-001
 2.9939241865e+000	 3.8473423250e+000	-4.8577433530e-001
 2.9540914445e+000	 3.8780109254e+000	-4.7690845937e-001
 2.9139725220e+000	 3.9082462999e+000	-4.6812928381e-001
 2.8735744514e+000	 3.9380445493e+000	-4.5975796781e-001
 2.8329043329e+000	 3.9674019257e+000	-4.5211180769e-001
 2.7919693311e+000	 3.9963148342e+000	-4.4550339339e-001
 2.7507766705e+000	 4.0247798336e+000	-4.4023977939e-001
 2.7093336319e+000	 4.0527936378e+000	-4.3662167216e-001
 2.6676475477e+000	 4.0803531172e+000	-4.3494263622e-001
 3.0884608194e+000	 3.8041306191e+000	-4.9131375937e-001
 3.0490200129e+000	 3.8358150322e+000	-4.8470230143e-001
 3.0092776439e+000	 3.8670722856e+000	-4.7733097809e-001
 2.9692406314e+000	 3.8978981609e+000	-4.6950690727e-001
 2.9289159709e+000	 3.9282885886e+000	-4.6153537144e-001
 2.8883107307e+000	 3.9582396495e+000	-4.5371896237e-001
 2.8474320475e+000	 3.9877475766e+000	-4.4635673537e-001
 2.8062871225e+000	 4.0168087564e+000	-4.3974337520e-001
 2.7648832176e+000	 4.0454197301e+000	-4.3416837604e-001
 2.7232276505e+000	 4.0735771949e+000	-4.2991523738e-001
 2.6813277916e+000	 4.1012780050e+000	-4.2726067824e-001
 3.1042182725e+000	 3.8235394488e+000	-4.8178502081e-001
 3.0645762375e+000	 3.8553855170e+000	-4.7615150309e-001
 3.0246311013e+000	 3.8868022462e+000	-4.6956407203e-001
 2.9843898182e+000	 3.9177853965e+000	-4.6231099420e-001
 2.9438594197e+000	 3.9483308773e+000	-4.5467900454e-001
 2.9030470099e+000	 3.9784347498e+000	-4.4695246102e-001
 2.8619597620e+000	 4.0080932275e+000	-4.3941250845e-001
 2.8206049140e+000	 4.0373026787e+000	-4.3233625344e-001
 2.7789897646e+000	 4.0660596267e+000	-4.2599595295e-001
 2.7371216692e+000	 4.0943607521e+000	-4.2065821841e-001
 2.6950080354e+000	 4.1222028927e+000	-4.1658323756e-001
 3.1199757257e+000	 3.8429482785e+000	-4.7388046256e-001
 3.0801324620e+000	 3.8749560019e+000	-4.6875573418e-001
 3.0399845586e+000	 3.9065322069e+000	-4.6248504398e-001
 2.9995390051e+000	 3.9376726320e+000	-4.5533814369e-001
 2.9588028685e+000	 3.9683731661e+000	-4.4758355484e-001
 2.9177832891e+000	 3.9986298500e+000	-4.3948773313e-001
 2.8764874765e+000	 4.0284388784e+000	-4.3131424122e-001
 2.8349227054e+000	 4.0577966009e+000	-4.2332293253e-001
 2.7930963116e+000	 4.0866995233e+000	-4.1576914792e-001
 2.7510156878e+000	 4.1151443092e+000	-4.0890292761e-001
 2.7086882792e+000	 4.1431277805e+000	-4.0296824045e-001
 3.1357331788e+000	 3.8623571082e+000	-4.6690798882e-001
 3.0956886866e+000	 3.8945264867e+000	-4.6252073996e-001
 3.0553380160e+000	 3.9262621675e+000	-4.5610554673e-001
 3.0146881920e+000	 3.9575598675e+000	-4.4860587058e-001
 2.9737463174e+000	 3.9884154548e+000	-4.4027235172e-001
 2.9325195684e+000	 4.0188249503e+000	-4.3135387291e-001
 2.8910151910e+000	 4.0487845293e+000	-4.2209674107e-001
 2.8492404969e+000	 4.0782905231e+000	-4.1274387933e-001
 2.8072028587e+000	 4.1073394199e+000	-4.0353403157e-001
 2.7649097064e+000	 4.1359278663e+000	-3.9470098181e-001
 2.7223685231e+000	 4.1640526683e+000	-3.8647279042e-001
 3.1514906320e+000	 3.8817659379e+000	-4.6152670275e-001
 3.1112449111e+000	 3.9140969716e+000	-4.5745261799e-001
 3.0706914733e+000	 3.9459921281e+000	-4.5043745331e-001
 3.0298373789e+000	 3.9774471030e+000	-4.4213177876e-001
 2.9886897662e+000	 4.0084577435e+000	-4.3276868319e-001
 2.9472558476e+000	 4.0390200505e+000	-4.2257980380e-001
 2.9055429056e+000	 4.0691301802e+000	-4.1179451613e-001
 2.8635582883e+000	 4.0987844453e+000	-4.0063913400e-001
 2.8213094057e+000	 4.1279793165e+000	-3.8933612153e-001
 2.7788037250e+000	 4.1567114234e+000	-3.7810331965e-001
 2.7360487669e+000	 4.1849775561e+000	-3.6715318886e-001
 2.5992463286e+000	 3.9757286783e+000	-4.2633244997e-001
 2.5583994957e+000	 4.0021359322e+000	-4.2713092407e-001
 2.5173302738e+000	 4.0280948713e+000	-4.2727999791e-001
 2.4760459347e+000	 4.0536029072e+000	-4.1440440241e-001
 2.4345537848e+000	 4.0786576062e+000	-3.9379445631e-001
 2.3928611605e+000	 4.1032566903e+000	-3.7486875221e-001
 2.3509754247e+000	 4.1273980366e+000	-3.5752879160e-001
 2.3089039626e+000	 4.1510796778e+000	-3.4167453586e-001
 2.2666541773e+000	 4.1742998024e+000	-3.2720406006e-001
 2.2242334862e+000	 4.1970567543e+000	-3.1401321456e-001
 2.1816493170e+000	 4.2193490324e+000	-3.0199529559e-001
 2.6129265724e+000	 3.9966535661e+000	-4.3452711566e-001
 2.5718647562e+000	 4.0231998056e+000	-4.3161205779e-001
 2.5305793805e+000	 4.0492953706e+000	-4.2838040612e-001
 2.4890777554e+000	 4.0749376593e+000	-4.1950401274e-001
 2.4473672257e+000	 4.1001242252e+000	-3.9673444394e-001
 2.4054551666e+000	 4.1248527781e+000	-3.7609809817e-001
 2.3633489796e+000	 4.1491211841e+000	-3.5753754118e-001
 2.3210560887e+000	 4.1729274656e+000	-3.4099308068e-001
 2.2785839361e+000	 4.1962698014e+000	-3.2640237648e-001
 2.2359399782e+000	 4.2191465267e+000	-3.1370005998e-001
 2.1931316818e+000	 4.2415561326e+000	-3.0281736409e-001
 2.6266068162e+000	 4.0175784539e+000	-4.3942356113e-001
 2.5853300167e+000	 4.0442636789e+000	-4.3341621623e-001
 2.5438284872e+000	 4.0704958700e+000	-4.2742212637e-001
 2.5021095762e+000	 4.0962724114e+000	-4.2157254626e-001
 2.4601806667e+000	 4.1215908442e+000	-3.9825043173e-001
 2.4180491727e+000	 4.1464488660e+000	-3.7650608683e-001
 2.3757225345e+000	 4.1708443317e+000	-3.5732261634e-001
 2.3332082148e+000	 4.1947752533e+000	-3.4068051512e-001
 2.2905136949e+000	 4.2182398003e+000	-3.2655687317e-001
 2.2476464703e+000	 4.2412362991e+000	-3.1492495282e-001
 2.2046140466e+000	 4.2637632328e+000	-3.0575377809e-001
 2.6402870601e+000	 4.0385033416e+000	-4.4108415776e-001
 2.5987952773e+000	 4.0653275522e+000	-4.3259504455e-001
 2.5570775939e+000	 4.0916963693e+000	-4.2444613927e-001
 2.5151413969e+000	 4.1176071636e+000	-4.1681280311e-001
 2.4729941077e+000	 4.1430574632e+000	-3.9838871293e-001
 2.4306431788e+000	 4.1680449538e+000	-3.7612839237e-001
 2.3880960893e+000	 4.1925674792e+000	-3.5690913863e-001
 2.3453603409e+000	 4.2166230411e+000	-3.4075147984e-001
 2.3024434537e+000	 4.2402097993e+000	-3.2767178663e-001
 2.2593529623e+000	 4.2633260715e+000	-3.1768180728e-001
 2.2160964114e+000	 4.2859703329e+000	-3.1078821634e-001
 2.6539673039e+000	 4.0594282294e+000	-4.3957034137e-001
 2.6122605378e+000	 4.0863914255e+000	-4.2919945890e-001
 2.5703267006e+000	 4.1128968686e+000	-4.1949290165e-001
 2.5281732176e+000	 4.1389419157e+000	-4.1066997475e-001
 2.4858075487e+000	 4.1645240822e+000	-3.9719546369e-001
 2.4432371849e+000	 4.1896410417e+000	-3.7500077294e-001
 2.4004696442e+000	 4.2142906268e+000	-3.5632251317e-001
 2.3575124671e+000	 4.2384708289e+000	-3.4122109687e-001
 2.3143732126e+000	 4.2621797983e+000	-3.2975203092e-001
 2.2710594543e+000	 4.2854158438e+000	-3.2196540942e-001
 2.2275787763e+000	 4.3081774331e+000	-3.1790542176e-001
 2.6676475477e+000	 4.0803531172e+000	-4.3494263622e-001
 2.6257257983e+000	 4.1074552989e+000	-4.2327966506e-001
 2.5835758073e+000	 4.1340973679e+000	-4.1260236007e-001
 2.5412050383e+000	 4.1602766679e+000	-4.0317381292e-001
 2.4986209896e+000	 4.1859907011e+000	-3.9471674600e-001
 2.4558311910e+000	 4.2112371295e+000	-3.7315906853e-001
 2.4128431991e+000	 4.2360137743e+000	-3.5558842127e-001
 2.3696645932e+000	 4.2603186167e+000	-3.4210495731e-001
 2.3263029714e+000	 4.2841497972e+000	-3.3280318021e-001
 2.2827659464e+000	 4.3075056162e+000	-3.2777139474e-001
 2.2390611411e+000	 4.3303845333e+000	-3.2709117418e-001
 2.6813277916e+000	 4.1012780050e+000	-4.2726067824e-001
 2.6391910588e+000	 4.1285191722e+000	-4.1488517658e-001
 2.5968249141e+000	 4.1552978673e+000	-4.0381396378e-001
 2.5542368590e+000	 4.1816114200e+000	-3.9435376578e-001
 2.5114344306e+000	 4.2074573201e+000	-3.8680199479e-001
 2.4684251971e+000	 4.2328332174e+000	-3.7063919889e-001
 2.4252167539e+000	 4.2577369219e+000	-3.5473281351e-001
 2.3818167193e+000	 4.2821664045e+000	-3.4341910934e-001
 2.3382327302e+000	 4.3061197962e+000	-3.3683145202e-001
 2.2944724384e+000	 4.3295953886e+000	-3.3509622656e-001
 2.2505435059e+000	 4.3525916335e+000	-3.3833226392e-001
 2.6950080354e+000	 4.1222028927e+000	-4.1658323756e-001
 2.6526563193e+000	 4.1495830455e+000	-4.0406483237e-001
 2.6100740208e+000	 4.1764983666e+000	-3.9316667737e-001
 2.5672686797e+000	 4.2029461722e+000	-3.8423898559e-001
 2.5242478716e+000	 4.2289239391e+000	-3.7762194891e-001
 2.4810192032e+000	 4.2544293052e+000	-3.6747716147e-001
 2.4375903088e+000	 4.2794600695e+000	-3.5378190282e-001
 2.3939688454e+000	 4.3040141922e+000	-3.4518004665e-001
 2.3501624891e+000	 4.3280897951e+000	-3.4184369084e-001
 2.3061789304e+000	 4.3516851610e+000	-3.4393717497e-001
 2.2620258708e+000	 4.3747987336e+000	-3.5161646611e-001
 2.7086882792e+000	 4.1431277805e+000	-4.0296824045e-001
 2.6661215798e+000	 4.1706469189e+000	-3.9086681370e-001
 2.6233231275e+000	 4.1976988659e+000	-3.8069899301e-001
 2.5803005004e+000	 4.2242809243e+000	-3.7285833620e-001
 2.5370613125e+000	 4.2503905581e+000	-3.6772767424e-001
 2.4936132094e+000	 4.2760253930e+000	-3.6370902947e-001
 2.4499638637e+000	 4.3011832170e+000	-3.5276215786e-001
 2.4061209716e+000	 4.3258619800e+000	-3.4740469714e-001
 2.3620922479e+000	 4.3500597941e+000	-3.4784735233e-001
 2.3178854225e+000	 4.3737749334e+000	-3.5429229649e-001
 2.2735082356e+000	 4.3970058338e+000	-3.2635648916e-001
 2.7223685231e+000	 4.1640526683e+000	-3.8647279042e-001
 2.6795868403e+000	 4.1917107922e+000	-3.7533866075e-001
 2.6365722342e+000	 4.2188993652e+000	-3.6644894231e-001
 2.5933323211e+000	 4.2456156764e+000	-3.6024040029e-001
 2.5498747535e+000	 4.2718571771e+000	-3.5713836901e-001
 2.5062072155e+000	 4.2976214809e+000	-3.5755588374e-001
 2.4623374186e+000	 4.3229063646e+000	-3.5170029664e-001
 2.4182730977e+000	 4.3477097678e+000	-3.5011041208e-001
 2.3740220067e+000	 4.3720297931e+000	-3.5485048794e-001
 2.3295919145e+000	 4.3958647058e+000	-3.3099134346e-001
 2.2849906004e+000	 4.4192129340e+000	-3.0379924901e-001
 2.7360487669e+000	 4.1849775561e+000	-3.6715318886e-001
 2.6930521008e+000	 4.2127746655e+000	-3.5752728862e-001
 2.6498213409e+000	 4.2400998645e+000	-3.5045410781e-001
 2.6063641418e+000	 4.2669504286e+000	-3.4641348643e-001
 2.5626881945e+000	 4.2933237960e+000	-3.4587313101e-001
 2.5188012216e+000	 4.3192175687e+000	-3.4928769945e-001
 2.4747109734e+000	 4.3446295122e+000	-3.5062328025e-001
 2.4304252238e+000	 4.3695575556e+000	-3.5331495546e-001
 2.3859517656e+000	 4.3939997920e+000	-3.3370427662e-001
 2.3412984066e+000	 4.4179544782e+000	-3.0810741199e-001
 2.2964729653e+000	 4.4414200342e+000	-2.8428314240e-001
 2.1816493170e+000	 4.2193490324e+000	-3.0199529559e-001
 2.1389091034e+000	 4.2411752908e+000	-2.7817246840e-001
 2.0960202818e+000	 4.2625343375e+000	-2.6042159124e-001
 2.0529902865e+000	 4.2834251345e+000	-2.4891731751e-001
 2.0098265468e+000	 4.3038467969e+000	-2.4382280783e-001
 1.9665364825e+000	 4.3237985918e+000	-2.4528925443e-001
 1.9231275005e+000	 4.3432799376e+000	-2.5345543357e-001
 1.8796069909e+000	 4.3622904030e+000	-2.6844728718e-001
 1.8359823234e+000	 4.3808297054e+000	-2.5820986212e-001
 1.7922608439e+000	 4.3988977105e+000	-2.0890065695e-001
 1.7484498704e+000	 4.4164944300e+000	-1.6243030111e-001
 2.1931316818e+000	 4.2415561326e+000	-3.0281736409e-001
 2.1501665198e+000	 4.2634972660e+000	-2.8571350295e-001
 2.1070519675e+000	 4.2849687287e+000	-2.7494355999e-001
 2.0637954986e+000	 4.3059694774e+000	-2.7067250918e-001
 2.0204045813e+000	 4.3264986222e+000	-2.7305371804e-001
 1.9768866745e+000	 4.3465554265e+000	-2.8222847550e-001
 1.9332492242e+000	 4.3661393057e+000	-2.9832554790e-001
 1.8894996592e+000	 4.3852498261e+000	-2.8921994211e-001
 1.8456453883e+000	 4.4038867039e+000	-2.4630768992e-001
 1.8016937957e+000	 4.4220498037e+000	-2.0148788321e-001
 1.7576522382e+000	 4.4397391376e+000	-1.5953302980e-001
 2.2046140466e+000	 4.2637632328e+000	-3.0575377809e-001
 2.1614239361e+000	 4.2858192412e+000	-2.9511340283e-001
 2.1180836532e+000	 4.3074031200e+000	-2.9106893496e-001
 2.0746007106e+000	 4.3285138202e+000	-2.9377588602e-001
 2.0309826157e+000	 4.3491504474e+000	-3.0337804537e-001
 1.9872368665e+000	 4.3693122612e+000	-3.2000701114e-001
 1.9433709479e+000	 4.3889986738e+000	-3.0262721790e-001
 1.8993923276e+000	 4.4082092493e+000	-2.7135559634e-001
 1.8553084531e+000	 4.4269437023e+000	-2.3581879524e-001
 1.8111267475e+000	 4.4452018969e+000	-1.9527044126e-001
 1.7668546059e+000	 4.4629838451e+000	-1.5761298713e-001
 2.2160964114e+000	 4.2859703329e+000	-3.1078821634e-001
 2.1726813525e+000	 4.3081412164e+000	-3.0635854336e-001
 2.1291153389e+000	 4.3298375112e+000	-3.0878679329e-001
 2.0854059226e+000	 4.3510581630e+000	-3.1821923149e-001
 2.0415606502e+000	 4.3718022727e+000	-3.3479028328e-001
 1.9975870585e+000	 4.3920690959e+000	-3.1184309862e-001
 1.9534926715e+000	 4.4118580419e+000	-2.8255718150e-001
 1.9092849960e+000	 4.4311686725e+000	-2.5520211707e-001
 1.8649715180e+000	 4.4500007008e+000	-2.2671782577e-001
 1.8205596993e+000	 4.4683539901e+000	-1.9022678224e-001
 1.7760569736e+000	 4.4862285526e+000	-1.5665241992e-001
 2.2275787763e+000	 4.3081774331e+000	-3.1790542176e-001
 2.1839387688e+000	 4.3304631916e+000	-3.1943628970e-001
 2.1401470246e+000	 4.3522719025e+000	-3.2808712742e-001
 2.0962111347e+000	 4.3736025058e+000	-3.4399516959e-001
 2.0521386846e+000	 4.3944540979e+000	-3.1772257618e-001
 2.0079372506e+000	 4.4148259306e+000	-2.9007452165e-001
 1.9636143952e+000	 4.4347174100e+000	-2.6440769850e-001
 1.9191776644e+000	 4.4541280956e+000	-2.4074033305e-001
 1.8746345829e+000	 4.4730576992e+000	-2.1897989508e-001
 1.8299926511e+000	 4.4915060834e+000	-1.8633574821e-001
 1.7852593414e+000	 4.5094732602e+000	-1.5663389102e-001
 2.2390611411e+000	 4.3303845333e+000	-3.2709117418e-001
 2.1951961851e+000	 4.3527851668e+000	-3.3433497148e-001
 2.1511787103e+000	 4.3747062937e+000	-3.4896082157e-001
 2.1070163467e+000	 4.3961468486e+000	-3.2116016188e-001
 2.0627167191e+000	 4.4171059232e+000	-2.9476543152e-001
 2.0182874426e+000	 4.4375827653e+000	-2.7042949725e-001
 1.9737361189e+000	 4.4575767781e+000	-2.4815673376e-001
 1.9290703327e+000	 4.4770875188e+000	-2.2795160001e-001
 1.8842976477e+000	 4.4961146977e+000	-2.0981859695e-001
 1.8394256029e+000	 4.5146581766e+000	-1.8357656209e-001
 1.7944617091e+000	 4.5327179677e+000	-1.5754027127e-001
 2.2505435059e+000	 4.3525916335e+000	-3.3833226392e-001
 2.2064536015e+000	 4.3751071420e+000	-3.5082585108e-001
 2.1622103960e+000	 4.3971406850e+000	-3.2308976383e-001
 2.1178215587e+000	 4.4186911914e+000	-2.9752719198e-001
 2.0732947536e+000	 4.4397577484e+000	-2.7412823495e-001
 2.0286376346e+000	 4.4603396000e+000	-2.5288325220e-001
 1.9838578426e+000	 4.4804361462e+000	-2.3378283688e-001
 1.9389630011e+000	 4.5000469420e+000	-2.1681778717e-001
 1.8939607126e+000	 4.5191716961e+000	-2.0197907577e-001
 1.8488585547e+000	 4.5378102698e+000	-1.8192881799e-001
 1.8036640769e+000	 4.5559626752e+000	-1.5935473159e-001
 2.2620258708e+000	 4.3747987336e+000	-3.5161646611e-001
 2.2177110178e+000	 4.3974291173e+000	-3.2448450615e-001
 2.1732420817e+000	 4.4195750762e+000	-2.9929642046e-001
 2.1286267708e+000	 4.4412355342e+000	-2.7640404486e-001
 2.0838727880e+000	 4.4624095737e+000	-2.5578359737e-001
 2.0389878266e+000	 4.4830964347e+000	-2.3741165256e-001
 1.9939795663e+000	 4.5032955143e+000	-2.2126512732e-001
 1.9488556695e+000	 4.5230063652e+000	-2.0732126425e-001
 1.9036237774e+000	 4.5422286946e+000	-1.9555761264e-001
 1.8582915065e+000	 4.5609623630e+000	-1.8137247176e-001
 1.8128664446e+000	 4.5792073827e+000	-1.6206073539e-001
 2.2735082356e+000	 4.3970058338e+000	-3.2635648916e-001
 2.2289684341e+000	 4.4197510925e+000	-3.0104888325e-001
 2.1842737674e+000	 4.4420094675e+000	-2.7819633538e-001
 2.1394319828e+000	 4.4637798771e+000	-2.5776083423e-001
 2.0944508225e+000	 4.4850613989e+000	-2.3970482040e-001
 2.0493380186e+000	 4.5058532694e+000	-2.2399118749e-001
 2.0041012900e+000	 4.5261548824e+000	-2.1058328004e-001
 1.9587483379e+000	 4.5459657884e+000	-1.9944488879e-001
 1.9132868423e+000	 4.5652856930e+000	-1.9054024310e-001
 1.8677244584e+000	 4.5841144562e+000	-1.8188783188e-001
 1.8220688123e+000	 4.6024520903e+000	-1.6564203117e-001
 2.2849906004e+000	 4.4192129340e+000	-3.0379924901e-001
 2.2402258505e+000	 4.4420730677e+000	-2.8048359565e-001
 2.1953054531e+000	 4.4644438587e+000	-2.5975724044e-001
 2.1502371949e+000	 4.4863242199e+000	-2.4156841301e-001
 2.1050288570e+000	 4.5077132242e+000	-2.2586587903e-001
 2.0596882107e+000	 4.5286101041e+000	-2.1259895364e-001
 2.0142230137e+000	 4.5490142505e+000	-2.0171751154e-001
 1.9686410063e+000	 4.5689252115e+000	-1.9317199393e-001
 1.9229499072e+000	 4.5883426915e+000	-1.8691341233e-001
 1.8771574102e+000	 4.6072665494e+000	-1.8289334955e-001
 1.8312711801e+000	 4.6256967978e+000	-1.7008264537e-001
 2.2964729653e+000	 4.4414200342e+000	-2.8428314240e-001
 2.2514832668e+000	 4.4643950429e+000	-2.6275410528e-001
 2.2063371388e+000	 4.4868782500e+000	-2.4394765223e-001
 2.1610424069e+000	 4.5088685627e+000	-2.2779835478e-001
 2.1156068914e+000	 4.5303650494e+000	-2.1424140473e-001
 2.0700384027e+000	 4.5513669388e+000	-2.0321263993e-001
 2.0243447374e+000	 4.5718736186e+000	-1.9464856631e-001
 1.9785336746e+000	 4.5918846347e+000	-1.8848637649e-001
 1.9326129720e+000	 4.6113996900e+000	-1.8466396491e-001
 1.8865903620e+000	 4.6304186427e+000	-1.8311993969e-001
 1.8404735478e+000	 4.6489415053e+000	-1.7536687543e-001
 1.7484498704e+000	 4.4164944300e+000	-1.6243030111e-001
 1.7045566903e+000	 4.4336200209e+000	-1.3087461485e-001
 1.6605885562e+000	 4.4502747833e+000	-1.0279089711e-001
 1.6165526831e+000	 4.4664591594e+000	-7.8143082641e-002
 1.5724562449e+000	 4.4821737314e+000	-5.6895873512e-002
 1.5283063712e+000	 4.4974192195e+000	-3.9014824790e-002
 1.4841101442e+000	 4.5121964807e+000	-2.4466423659e-002
 1.4398745957e+000	 4.5265065060e+000	-1.3218161995e-002
 1.3956067041e+000	 4.5403504190e+000	-5.2386023587e-003
 1.3513133914e+000	 4.5537294736e+000	-4.9743743756e-004
 1.3070015205e+000	 4.5666450514e+000	 1.0344570502e-003
 1.7576522382e+000	 4.4397391376e+000	-1.5953302980e-001
 1.7135280413e+000	 4.4569548631e+000	-1.3167398460e-001
 1.6693284959e+000	 4.4736972822e+000	-1.0690472411e-001
 1.6250608551e+000	 4.4899668392e+000	-8.5169829810e-002
 1.5807323304e+000	 4.5057641194e+000	-6.6415298824e-002
 1.5363500889e+000	 4.5210898470e+000	-5.0588640110e-002
 1.4919212502e+000	 4.5359448832e+000	-3.7638963077e-002
 1.4474528831e+000	 4.5503302244e+000	-2.7517058579e-002
 1.4029520026e+000	 4.5642470002e+000	-2.0175472280e-002
 1.3584255672e+000	 4.5776964708e+000	-1.5568570412e-002
 1.3138804759e+000	 4.5906800254e+000	-1.3652597974e-002
 1.7668546059e+000	 4.4629838451e+000	-1.5761298713e-001
 1.7224993923e+000	 4.4802897053e+000	-1.3311122230e-001
 1.6780684357e+000	 4.4971197811e+000	-1.1132123221e-001
 1.6335690271e+000	 4.5134745190e+000	-9.2168347157e-002
 1.5890084159e+000	 4.5293545075e+000	-7.5579958248e-002
 1.5443938066e+000	 4.5447604745e+000	-6.1485624178e-002
 1.4997323562e+000	 4.5596932857e+000	-4.9817169278e-002
 1.4550311704e+000	 4.5741539429e+000	-4.0508772905e-002
 1.4102973010e+000	 4.5881435813e+000	-3.3497050158e-002
 1.3655377429e+000	 4.6016634680e+000	-2.8721123939e-002
 1.3207594313e+000	 4.6147149993e+000	-2.6122688424e-002
 1.7760569736e+000	 4.4862285526e+000	-1.5665241992e-001
 1.7314707433e+000	 4.5036245475e+000	-1.3517424445e-001
 1.6868083755e+000	 4.5205422799e+000	-1.1603393143e-001
 1.6420771991e+000	 4.5369821988e+000	-9.9137659836e-002
 1.5972845014e+000	 4.5529448956e+000	-8.4394311690e-002
 1.5524375244e+000	 4.5684311019e+000	-7.1715589283e-002
 1.5075434623e+000	 4.5834416883e+000	-6.1016122657e-002
 1.4626094578e+000	 4.5979776614e+000	-5.2213567369e-002
 1.4176425995e+000	 4.6120401625e+000	-4.5228692530e-002
 1.3726499187e+000	 4.6256304653e+000	-3.9985459154e-002
 1.3276383866e+000	 4.6387499733e+000	-3.6411088882e-002
 1.7852593414e+000	 4.5094732602e+000	-1.5663389102e-001
 1.7404420943e+000	 4.5269593898e+000	-1.3785117008e-001
 1.6955483152e+000	 4.5439647788e+000	-1.2103642218e-001
 1.6505853711e+000	 4.5604898786e+000	-1.0607677286e-001
 1.6055605868e+000	 4.5765352836e+000	-9.2862689930e-002
 1.5604812421e+000	 4.5921017294e+000	-8.1288111207e-002
 1.5153545683e+000	 4.6071900908e+000	-7.1250561367e-002
 1.4701877451e+000	 4.6218013798e+000	-6.2651258067e-002
 1.4249878979e+000	 4.6359367437e+000	-5.5395207285e-002
 1.3797620944e+000	 4.6495974625e+000	-4.9391287938e-002
 1.3345173420e+000	 4.6627849472e+000	-4.4552325850e-002
 1.7944617091e+000	 4.5327179677e+000	-1.5754027127e-001
 1.7494134453e+000	 4.5502942320e+000	-1.4113031548e-001
 1.7042882550e+000	 4.5673872776e+000	-1.2632239298e-001
 1.6590935431e+000	 4.5839975584e+000	-1.1298467161e-001
 1.6138366723e+000	 4.6001256717e+000	-1.0098929794e-001
 1.5685249599e+000	 4.6157723569e+000	-9.0212535297e-002
 1.5231656743e+000	 4.6309384933e+000	-8.0534890100e-002
 1.4777660325e+000	 4.6456250983e+000	-7.1841226241e-002
 1.4323331963e+000	 4.6598333248e+000	-6.4020867732e-002
 1.3868742701e+000	 4.6735644597e+000	-5.6967689569e-002
 1.3413962974e+000	 4.6868199212e+000	-5.0580196927e-002
 1.8036640769e+000	 4.5559626752e+000	-1.5935473159e-001
 1.7583847963e+000	 4.5736290742e+000	-1.4500018925e-001
 1.7130281948e+000	 4.5908097765e+000	-1.3188561818e-001
 1.6676017152e+000	 4.6075052382e+000	-1.1986032237e-001
 1.6221127578e+000	 4.6237160597e+000	-1.0877821807e-001
 1.5765686776e+000	 4.6394429843e+000	-9.8497982338e-002
 1.5309767803e+000	 4.6546868958e+000	-8.8883188589e-002
 1.4853443198e+000	 4.6694488167e+000	-7.9802429372e-002
 1.4396784948e+000	 4.6837299060e+000	-7.1129426240e-002
 1.3939864459e+000	 4.6975314569e+000	-6.2743126858e-002
 1.3482752527e+000	 4.7108548951e+000	-5.4527789406e-002
 1.8128664446e+000	 4.5792073827e+000	-1.6206073539e-001
 1.7673561473e+000	 4.5969639164e+000	-1.4944948734e-001
 1.7217681346e+000	 4.6142322754e+000	-1.3771995582e-001
 1.6761098872e+000	 4.6310129180e+000	-1.2670267275e-001
 1.6303888433e+000	 4.6473064478e+000	-1.1623341321e-001
 1.5846123954e+000	 4.6631136118e+000	-1.0615335425e-001
 1.5387878863e+000	 4.6784352984e+000	-9.6309219856e-002
 1.4929226072e+000	 4.6932725352e+000	-8.6553411931e-002
 1.4470237932e+000	 4.7076264871e+000	-7.6744127456e-002
 1.4010986216e+000	 4.7214984542e+000	-6.6745461795e-002
 1.3551542081e+000	 4.7348898691e+000	-5.6427498304e-002
 1.8220688123e+000	 4.6024520903e+000	-1.6564203117e-001
 1.7763274983e+000	 4.6202987586e+000	-1.5446708838e-001
 1.7305080743e+000	 4.6376547742e+000	-1.4381934546e-001
 1.6846180592e+000	 4.6545205977e+000	-1.3351065222e-001
 1.6386649288e+000	 4.6708968359e+000	-1.2335872974e-001
 1.5926561131e+000	 4.6867842393e+000	-1.1318733963e-001
 1.5465989924e+000	 4.7021837009e+000	-1.0282643821e-001
 1.5005008945e+000	 4.7170962536e+000	-9.2112315814e-002
 1.4543690917e+000	 4.7315230682e+000	-8.0887721129e-002
 1.4082107974e+000	 4.7454654514e+000	-6.9001970723e-002
 1.3620331635e+000	 4.7589248430e+000	-5.6311043838e-002
 1.8312711801e+000	 4.6256967978e+000	-1.7008264537e-001
 1.7852988493e+000	 4.6436336008e+000	-1.6004204904e-001
 1.7392480141e+000	 4.6610772731e+000	-1.5017780621e-001
 1.6931262312e+000	 4.6780282775e+000	-1.4028317252e-001
 1.6469410143e+000	 4.6944872239e+000	-1.3015790051e-001
 1.6006998308e+000	 4.7104548668e+000	-1.1960841908e-001
 1.5544100984e+000	 4.7259321034e+000	-1.0844799701e-001
 1.5080791818e+000	 4.7409199721e+000	-9.6496890455e-002
 1.4617143901e+000	 4.7554196494e+000	-8.3582474543e-002
 1.4153229731e+000	 4.7694324486e+000	-6.9539359053e-002
 1.3689121189e+000	 4.7829598170e+000	-5.4209488386e-002
 1.8404735478e+000	 4.6489415053e+000	-1.7536687543e-001
 1.7942702003e+000	 4.6669684431e+000	-1.6616359964e-001
 1.7479879539e+000	 4.6844997719e+000	-1.5678943465e-001
 1.7016344032e+000	 4.7015359573e+000	-1.4701912814e-001
 1.6552170998e+000	 4.7180776120e+000	-1.3663454766e-001
 1.6087435486e+000	 4.7341254942e+000	-1.2542487046e-001
 1.5622212044e+000	 4.7496805060e+000	-1.1318675617e-001
 1.5156574692e+000	 4.7647436905e+000	-9.9724502635e-002
 1.4690596886e+000	 4.7793162305e+000	-8.4850184580e-002
 1.4224351489e+000	 4.7933994458e+000	-6.8383775533e-002
 1.3757910742e+000	 4.8069947909e+000	-5.0153252929e-002
 1.3070015205e+000	 4.5666450514e+000	 1.0344570502e-003
 1.2626778925e+000	 4.5790986602e+000	 2.2499548707e-003
 1.2183492440e+000	 4.5910919311e+000	 4.1355969442e-003
 1.1740222445e+000	 4.6026266164e+000	 6.0879692570e-003
 1.1297034943e+000	 4.6137045869e+000	 8.2187919451e-003
 1.0853995214e+000	 4.6243278300e+000	 1.0776420891e-002
 1.0411167802e+000	 4.6344984465e+000	 1.3994753077e-002
 9.9686164827e-001	 4.6442186484e+000	 1.8093516883e-002
 9.5264042516e-001	 4.6534907565e+000	 2.3278580209e-002
 9.0845932984e-001	 4.6623171971e+000	 2.9742274989e-002
 8.6432449896e-001	 4.6707005000e+000	 3.7663736678e-002
 1.3138804759e+000	 4.5906800254e+000	-1.3652597974e-002
 1.2693235656e+000	 4.6031991795e+000	-8.8327236035e-003
 1.2247616084e+000	 4.6152555729e+000	-3.9255408865e-003
 1.1802013090e+000	 4.6268509670e+000	 6.7560491020e-004
 1.1356493021e+000	 4.6379872426e+000	 5.3264867068e-003
 1.0911121505e+000	 4.6486663975e+000	 1.0254621646e-002
 1.0465963422e+000	 4.6588905436e+000	 1.5673372674e-002
 1.0021082885e+000	 4.6686619045e+000	 2.1782257613e-002
 9.5765432214e-001	 4.6779828131e+000	 2.8767275385e-002
 9.1324069473e-001	 4.6868557086e+000	 3.6801247924e-002
 8.6887357527e-001	 4.6952831342e+000	 4.6044176363e-002
 1.3207594313e+000	 4.6147149993e+000	-2.6122688424e-002
 1.2759692387e+000	 4.6272996988e+000	-1.8123815917e-002
 1.2311739729e+000	 4.6394192146e+000	-1.0371710727e-002
 1.1863803734e+000	 4.6510753176e+000	-3.4941519599e-003
 1.1415951100e+000	 4.6622698984e+000	 3.3101402659e-003
 1.0968247796e+000	 4.6730049650e+000	 1.0247933069e-002
 1.0520759042e+000	 4.6832826406e+000	 1.7512137633e-002
 1.0073549288e+000	 4.6931051605e+000	 2.5282137137e-002
 9.6266821912e-001	 4.7024748697e+000	 3.3724131175e-002
 9.1802205963e-001	 4.7113942202e+000	 4.2991495178e-002
 8.7342265158e-001	 4.7198657684e+000	 5.3225153389e-002
 1.3276383866e+000	 4.6387499733e+000	-3.6411088882e-002
 1.2826149119e+000	 4.6514002180e+000	-2.5652244604e-002
 1.2375863373e+000	 4.6635828564e+000	-1.5252069941e-002
 1.1925594379e+000	 4.6752996682e+000	-6.4633808968e-003
 1.1475409179e+000	 4.6865525541e+000	 2.1347193431e-003
 1.1025374086e+000	 4.6973435326e+000	 1.0728333732e-002
 1.0575554662e+000	 4.7076747377e+000	 1.9490001148e-002
 1.0126015690e+000	 4.7175484166e+000	 2.8579043278e-002
 9.6768211609e-001	 4.7269669263e+000	 3.8141927326e-002
 9.2280342452e-001	 4.7359327318e+000	 4.8312643045e-002
 8.7797172789e-001	 4.7444484026e+000	 5.9213092616e-002
 1.3345173420e+000	 4.6627849472e+000	-4.4552325850e-002
 1.2892605850e+000	 4.6755007373e+000	-3.1446317459e-002
 1.2439987017e+000	 4.6877464981e+000	-1.8615293499e-002
 1.1987385023e+000	 4.6995240188e+000	-8.2738103571e-003
 1.1534867257e+000	 4.7108352098e+000	 1.7654115288e-003
 1.1082500377e+000	 4.7216821001e+000	 1.1667893994e-002
 1.0630350282e+000	 4.7320668348e+000	 2.1585880303e-002
 1.0178482093e+000	 4.7419916726e+000	 3.1658701079e-002
 9.7269601307e-001	 4.7514589829e+000	 4.2013155400e-002
 9.2758478942e-001	 4.7604712433e+000	 5.2763905543e-002
 8.8252080420e-001	 4.7690310368e+000	 6.4013883878e-002
 1.3413962974e+000	 4.6868199212e+000	-5.0580196927e-002
 1.2959062581e+000	 4.6996012565e+000	-3.5533743298e-002
 1.2504110662e+000	 4.7119101398e+000	-2.0538489321e-002
 1.2049175668e+000	 4.7237483694e+000	-8.9668267132e-003
 1.1594325336e+000	 4.7351178655e+000	 2.1676196205e-003
 1.1139626667e+000	 4.7460206676e+000	 1.3038773651e-002
 1.0685145902e+000	 4.7564589319e+000	 2.3778657000e-002
 1.0230948496e+000	 4.7664349286e+000	 3.4506676976e-002
 9.7770991005e-001	 4.7759510395e+000	 4.5330026163e-002
 9.3236615432e-001	 4.7850097549e+000	 5.6344094983e-002
 8.8706988052e-001	 4.7936136710e+000	 6.7632895711e-002
 1.3482752527e+000	 4.7108548951e+000	-5.4527789406e-002
 1.3025519312e+000	 4.7237017758e+000	-3.7941647236e-002
 1.2568234306e+000	 4.7360737816e+000	-2.1531921225e-002
 1.2110966312e+000	 4.7479727200e+000	-8.5834829793e-003
 1.1653783415e+000	 4.7594005212e+000	 3.3069561318e-003
 1.1196752958e+000	 4.7703592351e+000	 1.4813219655e-002
 1.0739941522e+000	 4.7808510290e+000	 2.6047178855e-002
 1.0283414898e+000	 4.7908781847e+000	 3.7108382842e-002
 9.8272380703e-001	 4.8004430961e+000	 4.8084476748e-002
 9.3714751922e-001	 4.8095482664e+000	 5.9051632214e-002
 8.9161895683e-001	 4.8181963052e+000	 7.0074988646e-002
 1.3551542081e+000	 4.7348898691e+000	-5.6427498304e-002
 1.3091976043e+000	 4.7478022951e+000	-3.8696585507e-002
 1.2632357951e+000	 4.7602374233e+000	-2.1263748826e-002
 1.2172756957e+000	 4.7721970706e+000	-7.1645072728e-003
 1.1713241493e+000	 4.7836831769e+000	 5.1492379707e-003
 1.1253879249e+000	 4.7946978026e+000	 1.6963563897e-002
 1.0794737142e+000	 4.8052431260e+000	 2.8370260068e-002
 1.0335881301e+000	 4.8153214407e+000	 3.9449079913e-002
 9.8773770401e-001	 4.8249351527e+000	 5.0268177602e-002
 9.4192888412e-001	 4.8340867780e+000	 6.0884556565e-002
 8.9616803315e-001	 4.8427789394e+000	 7.1344528104e-002
 1.3620331635e+000	 4.7589248430e+000	-5.6311043838e-002
 1.3158432775e+000	 4.7719028143e+000	-3.7824559823e-002
 1.2696481595e+000	 4.7844010650e+000	-1.9754293480e-002
 1.2234547601e+000	 4.7964214212e+000	-4.7503110184e-003
 1.1772699572e+000	 4.8079658326e+000	 7.6604812774e-003
 1.1311005539e+000	 4.8190363702e+000	 1.9462221069e-002
 1.0849532762e+000	 4.8296352231e+000	 3.0726682268e-002
 1.0388347703e+000	 4.8397646967e+000	 4.1513882589e-002
 9.9275160099e-001	 4.8494272093e+000	 5.1872539216e-002
 9.4671024902e-001	 4.8586252895e+000	 6.1840535472e-002
 9.0071710947e-001	 4.8673615736e+000	 7.1445396897e-002
 1.3689121189e+000	 4.7829598170e+000	-5.4209488386e-002
 1.3224889506e+000	 4.7960033336e+000	-3.5351031314e-002
 1.2760605240e+000	 4.8085647068e+000	-1.7023452342e-002
 1.2296338246e+000	 4.8206457718e+000	-1.3809969057e-003
 1.1832157651e+000	 4.8322484884e+000	 1.0806896419e-002
 1.1368131830e+000	 4.8433749377e+000	 2.2281686577e-002
 1.0904328382e+000	 4.8540273202e+000	 3.3095195332e-002
 1.0440814106e+000	 4.8642079528e+000	 4.3287762126e-002
 9.9776549797e-001	 4.8739192659e+000	 5.2888718662e-002
 9.5149161392e-001	 4.8831638011e+000	 6.1916873828e-002
 9.0526618578e-001	 4.8919442078e+000	 7.0381007359e-002
 1.3757910742e+000	 4.8069947909e+000	-5.0153252929e-002
 1.3291346237e+000	 4.8201038528e+000	-3.1300934037e-002
 1.2824728884e+000	 4.8327283485e+000	-1.3090708970e-002
 1.2358128890e+000	 4.8448701224e+000	 2.9036333932e-003
 1.1891615729e+000	 4.8565311441e+000	 1.4554883133e-002
 1.1425258121e+000	 4.8677135052e+000	 2.5394534530e-002
 1.0959124002e+000	 4.8784194173e+000	 3.5454518175e-002
 1.0493280509e+000	 4.8886512088e+000	 4.4755550212e-002
 1.0027793950e+000	 4.8984113225e+000	 5.3307625926e-002
 9.5627297882e-001	 4.9077023127e+000	 6.1110523043e-002
 9.0981526210e-001	 4.9165268420e+000	 6.8154313103e-002
 8.6432449896e-001	 4.6707005000e+000	 3.7663736678e-002
 8.2024198506e-001	 4.6786432954e+000	 5.0360931442e-002
 7.7621775480e-001	 4.6861483115e+000	 6.3529663841e-002
 7.3225768736e-001	 4.6932183711e+000	 7.7195265554e-002
 6.8836757286e-001	 4.6998563898e+000	 9.1374620981e-002
 6.4455311094e-001	 4.7060653722e+000	 1.0607660459e-001
 6.0081990940e-001	 4.7118484097e+000	 1.1255311061e-001
 5.5717348293e-001	 4.7172086778e+000	 1.1281717735e-001
 5.1361925192e-001	 4.7221494326e+000	 1.1396400604e-001
 4.7016254140e-001	 4.7266740087e+000	 1.1590827746e-001
 4.2680858003e-001	 4.7307858159e+000	 1.1855990417e-001
 8.6887357527e-001	 4.6952831342e+000	 4.6044176363e-002
 8.2455904814e-001	 4.7032677338e+000	 5.7571992895e-002
 7.8030311141e-001	 4.7108122499e+000	 6.9548823281e-002
 7.3611167519e-001	 4.7179195205e+000	 8.2002236901e-002
 6.9199056008e-001	 4.7245924760e+000	 9.4951199276e-002
 6.4794549573e-001	 4.7308341373e+000	 1.0840651530e-001
 6.0398211945e-001	 4.7366476119e+000	 1.1554343782e-001
 5.6010597494e-001	 4.7420360919e+000	 1.1605178494e-001
 5.1632251113e-001	 4.7470028507e+000	 1.1742793200e-001
 4.7263708109e-001	 4.7515512403e+000	 1.1959532398e-001
 4.2905494097e-001	 4.7556846886e+000	 1.2247239881e-001
 8.7342265158e-001	 4.7198657684e+000	 5.3225153389e-002
 8.2887611122e-001	 4.7278921722e+000	 6.3713517945e-002
 7.8438846801e-001	 4.7354761884e+000	 7.4630670828e-002
 7.3996566301e-001	 4.7426206698e+000	 8.6006309962e-002
 6.9561354731e-001	 4.7493285623e+000	 9.7861371654e-002
 6.5133788053e-001	 4.7556029024e+000	 1.1020847988e-001
 6.0714432950e-001	 4.7614468140e+000	 1.1784352826e-001
 5.6303846695e-001	 4.7668635060e+000	 1.1858612850e-001
 5.1902577035e-001	 4.7718562687e+000	 1.2018301512e-001
 4.7511162077e-001	 4.7764284720e+000	 1.2256647652e-001
 4.3130130191e-001	 4.7805835613e+000	 1.2566355202e-001
 8.7797172789e-001	 4.7444484026e+000	 5.9213092616e-002
 8.3319317430e-001	 4.7525166106e+000	 6.8791615281e-002
 7.8847382461e-001	 4.7601401269e+000	 7.8781007328e-002
 7.4381965084e-001	 4.7673218191e+000	 8.9212985931e-002
 6.9923653453e-001	 4.7740646486e+000	 1.0011034771e-001
 6.5473026532e-001	 4.7803716675e+000	 1.1148742423e-001
 6.1030653954e-001	 4.7862460162e+000	 1.1949453004e-001
 5.6597095897e-001	 4.7916909201e+000	 1.2045844972e-001
 5.2172902957e-001	 4.7967096868e+000	 1.2226459617e-001
 4.7758616046e-001	 4.8013057036e+000	 1.2485418198e-001
 4.3354766286e-001	 4.8054824340e+000	 1.2816292543e-001
 8.8252080420e-001	 4.7690310368e+000	 6.4013883878e-002
 8.3751023738e-001	 4.7771410490e+000	 7.2811882875e-002
 7.9255918122e-001	 4.7848040654e+000	 8.2005147368e-002
 7.4767363867e-001	 4.7920229684e+000	 9.1627304354e-002
 7.0285952176e-001	 4.7988007348e+000	 1.0170290014e-001
 6.5812265011e-001	 4.8051404326e+000	 1.1224786225e-001
 6.1346874959e-001	 4.8110452184e+000	 1.2053720426e-001
 5.6890345098e-001	 4.8165183342e+000	 1.2170662837e-001
 5.2443228879e-001	 4.8215631049e+000	 1.2370767917e-001
 4.8006070016e-001	 4.8261829352e+000	 1.2649057581e-001
 4.3579402381e-001	 4.8303813068e+000	 1.2999979460e-001
 8.8706988052e-001	 4.7936136710e+000	 6.7632895711e-002
 8.4182730046e-001	 4.8017654874e+000	 7.5779421072e-002
 7.9664453783e-001	 4.8094680039e+000	 8.4307931747e-002
 7.5152762650e-001	 4.8167241177e+000	 9.3253854973e-002
 7.0648250899e-001	 4.8235368211e+000	 1.0264337596e-001
 6.6151503491e-001	 4.8299091977e+000	 1.1249390636e-001
 6.1663095964e-001	 4.8358444205e+000	 1.2101193494e-001
 5.7183594300e-001	 4.8413457483e+000	 1.2236819159e-001
 5.2713554801e-001	 4.8464165229e+000	 1.2454694008e-001
 4.8253523985e-001	 4.8510601668e+000	 1.2750749002e-001
 4.3804038475e-001	 4.8552801795e+000	 1.3120315633e-001
 8.9161895683e-001	 4.8181963052e+000	 7.0074988646e-002
 8.4614436354e-001	 4.8263899258e+000	 7.7698845287e-002
 8.0072989444e-001	 4.8341319423e+000	 8.5693739562e-002
 7.5538161434e-001	 4.8414252671e+000	 9.4096789200e-002
 7.1010549622e-001	 4.8482729073e+000	 1.0293570736e-001
 6.6490741971e-001	 4.8546779629e+000	 1.1222927780e-001
 6.1979316970e-001	 4.8606436227e+000	 1.2095873861e-001
 5.7476843502e-001	 4.8661731623e+000	 1.2248032289e-001
 5.2983880724e-001	 4.8712699410e+000	 1.2481673516e-001
 4.8500977954e-001	 4.8759373984e+000	 1.2793646092e-001
 4.4028674570e-001	 4.8801790522e+000	 1.3180173580e-001
 8.9616803315e-001	 4.8427789394e+000	 7.1344528104e-002
 8.5046142663e-001	 4.8510143642e+000	 7.8574298316e-002
 8.0481525105e-001	 4.8587958808e+000	 8.6166499924e-002
 7.5923560217e-001	 4.8661264164e+000	 9.4159831236e-002
 7.1372848345e-001	 4.8730089936e+000	 1.0258342221e-001
 6.6829980451e-001	 4.8794467280e+000	 1.1145731655e-001
 6.2295537975e-001	 4.8854428248e+000	 1.2041727368e-001
 5.7770092704e-001	 4.8910005764e+000	 1.2207987086e-001
 5.3254206646e-001	 4.8961233591e+000	 1.2455110905e-001
 4.8748431924e-001	 4.9008146301e+000	 1.2780873661e-001
 4.4253310665e-001	 4.9050779249e+000	 1.3182399346e-001
 9.0071710947e-001	 4.8673615736e+000	 7.1445396897e-002
 8.5477848971e-001	 4.8756388026e+000	 7.8409462264e-002
 8.0890060766e-001	 4.8834598193e+000	 8.5729703325e-002
 7.6308959000e-001	 4.8908275657e+000	 9.3446288866e-002
 7.1735147068e-001	 4.8977450799e+000	 1.0158965431e-001
 6.7169218931e-001	 4.9042154931e+000	 1.1018099090e-001
 6.2611758981e-001	 4.9102420270e+000	 1.1923273732e-001
 5.8063341906e-001	 4.9158279905e+000	 1.2120335764e-001
 5.3524532569e-001	 4.9209767771e+000	 1.2378380269e-001
 4.8995885893e-001	 4.9256918617e+000	 1.2715528427e-001
 4.4477946760e-001	 4.9299767976e+000	 1.3129813169e-001
 9.0526618578e-001	 4.8919442078e+000	 7.0381007359e-002
 8.5909555280e-001	 4.9002632410e+000	 7.7207570126e-002
 8.1298596427e-001	 4.9081237578e+000	 8.4386412657e-002
 7.6694357784e-001	 4.9155287150e+000	 9.1959063921e-002
 7.2097445791e-001	 4.9224811661e+000	 9.9957153267e-002
 6.7508457411e-001	 4.9289842582e+000	 1.0840290685e-001
 6.2927979986e-001	 4.9350412291e+000	 1.1730964661e-001
 5.8356591108e-001	 4.9406554046e+000	 1.1988698712e-001
 5.3794858491e-001	 4.9458301952e+000	 1.2254826089e-001
 4.9243339863e-001	 4.9505690933e+000	 1.2600679722e-001
 4.4702582855e-001	 4.9548756703e+000	 1.3025210132e-001
 9.0981526210e-001	 4.9165268420e+000	 6.8154313103e-002
 8.6341261589e-001	 4.9248876794e+000	 7.4971417013e-002
 8.1707132088e-001	 4.9327876962e+000	 8.2139273901e-002
 7.7079756568e-001	 4.9402298643e+000	 8.9700662420e-002
 7.2459744515e-001	 4.9472172524e+000	 9.7688294096e-002
 6.7847695892e-001	 4.9537530233e+000	 1.0612531718e-001
 6.3244200992e-001	 4.9598404313e+000	 1.1502582306e-001
 5.8649840310e-001	 4.9654828187e+000	 1.1816665288e-001
 5.4065184414e-001	 4.9706836133e+000	 1.2087763981e-001
 4.9490793833e-001	 4.9754463249e+000	 1.2439370177e-001
 4.4927218951e-001	 4.9797745430e+000	 1.2871360788e-001
 4.2680858003e-001	 4.7307858159e+000	 1.1855990417e-001
 3.8356249917e-001	 4.7344883366e+000	 1.2071741444e-001
 3.4042933210e-001	 4.7377851228e+000	 1.2450587049e-001
 2.9741401323e-001	 4.7406797935e+000	 1.2978106551e-001
 2.5452137749e-001	 4.7431760318e+000	 1.3639334513e-001
 2.1175615972e-001	 4.7452775818e+000	 1.4418756699e-001
 1.6912299422e-001	 4.7469882465e+000	 1.5300308172e-001
 1.2662641428e-001	 4.7483118844e+000	 1.6267373474e-001
 8.4270851934e-002	 4.7492524068e+000	 1.7302788842e-001
 4.2060637605e-002	 4.7498137756e+000	 1.8388846375e-001
 0.0000000000e+000	 4.7500000000e+000	 1.9507300113e-001
 4.2905494097e-001	 4.7556846886e+000	 1.2247239881e-001
 3.8558124916e-001	 4.7594066962e+000	 1.2426797243e-001
 3.4222106542e-001	 4.7627208340e+000	 1.2751296347e-001
 2.9897935014e-001	 4.7656307398e+000	 1.3208033154e-001
 2.5586096368e-001	 4.7681401161e+000	 1.3783729172e-001
 2.1287066582e-001	 4.7702527270e+000	 1.4464526009e-001
 1.7001311524e-001	 4.7719723952e+000	 1.5235982162e-001
 1.2729286910e-001	 4.7733029995e+000	 1.6083071983e-001
 8.4714382733e-002	 4.7742484721e+000	 1.6990186767e-001
 4.2282009382e-002	 4.7748127955e+000	 1.7941137888e-001
 0.0000000000e+000	 4.7750000000e+000	 1.8919161935e-001
 4.3130130191e-001	 4.7805835613e+000	 1.2566355202e-001
 3.8759999915e-001	 4.7843250559e+000	 1.2724764066e-001
 3.4401279874e-001	 4.7876565451e+000	 1.3010297852e-001
 3.0054468705e-001	 4.7905816861e+000	 1.3411968091e-001
 2.5720054988e-001	 4.7931042005e+000	 1.3918181852e-001
 2.1398517192e-001	 4.7952278722e+000	 1.4516734897e-001
 1.7090323626e-001	 4.7969565439e+000	 1.5194807164e-001
 1.2795932391e-001	 4.7982941147e+000	 1.5938960517e-001
 8.5157913532e-002	 4.7992445374e+000	 1.6735138711e-001
 4.2503381158e-002	 4.7998118153e+000	 1.7568669505e-001
 0.0000000000e+000	 4.8000000000e+000	 1.8424268851e-001
 4.3354766286e-001	 4.8054824340e+000	 1.2816292543e-001
 3.8961874915e-001	 4.8092434156e+000	 1.2968070835e-001
 3.4580453207e-001	 4.8125922563e+000	 1.3229491896e-001
 3.0211002396e-001	 4.8155326324e+000	 1.3591282011e-001
 2.5854013607e-001	 4.8180682849e+000	 1.4043532687e-001
 2.1509967803e-001	 4.8202030174e+000	 1.4575692405e-001
 1.7179335728e-001	 4.8219406925e+000	 1.5176560797e-001
 1.2862577872e-001	 4.8232852299e+000	 1.5834285187e-001
 8.5601444331e-002	 4.8242406027e+000	 1.6536359434e-001
 4.2724752935e-002	 4.8248108352e+000	 1.7269625023e-001
 0.0000000000e+000	 4.8250000000e+000	 1.8020274315e-001
 4.3579402381e-001	 4.8303813068e+000	 1.2999979460e-001
 3.9163749914e-001	 4.8341617752e+000	 1.3159125351e-001
 3.4759626540e-001	 4.8375279675e+000	 1.3410765226e-001
 3.0367536087e-001	 4.8404835786e+000	 1.3747339575e-001
 2.5987972227e-001	 4.8430323693e+000	 1.4160623469e-001
 2.1621418413e-001	 4.8451781625e+000	 1.4641716924e-001
 1.7268347830e-001	 4.8469248412e+000	 1.5181037764e-001
 1.2929223353e-001	 4.8482763451e+000	 1.5768316962e-001
 8.6044975130e-002	 4.8492366680e+000	 1.6392596362e-001
 4.2946124712e-002	 4.8498098551e+000	 1.7042228748e-001
 0.0000000000e+000	 4.8500000000e+000	 1.7704880160e-001
 4.3804038475e-001	 4.8552801795e+000	 1.3120315633e-001
 3.9365624914e-001	 4.8590801349e+000	 1.3300314831e-001
 3.4938799872e-001	 4.8624636787e+000	 1.3555991360e-001
 3.0524069778e-001	 4.8654345249e+000	 1.3881499612e-001
 2.6121930847e-001	 4.8679964537e+000	 1.4270297606e-001
 2.1732869023e-001	 4.8701533077e+000	 1.4715135952e-001
 1.7357359932e-001	 4.8719089899e+000	 1.5208049411e-001
 1.2995868834e-001	 4.8732674603e+000	 1.5740351030e-001
 8.6488505929e-002	 4.8742327333e+000	 1.6302628750e-001
 4.3167496488e-002	 4.8748088749e+000	 1.6884744455e-001
 0.0000000000e+000	 4.8750000000e+000	 1.7475835364e-001
 4.4028674570e-001	 4.8801790522e+000	 1.3180173580e-001
 3.9567499914e-001	 4.8839984946e+000	 1.3394006438e-001
 3.5117973205e-001	 4.8873993898e+000	 1.3667030916e-001
 3.0680603469e-001	 4.8903854712e+000	 1.3995115264e-001
 2.6255889466e-001	 4.8929605380e+000	 1.4373400078e-001
 2.1844319634e-001	 4.8951284529e+000	 1.4796285864e-001
 1.7446372034e-001	 4.8968931385e+000	 1.5257423305e-001
 1.3062514315e-001	 4.8982585754e+000	 1.5749706180e-001
 8.6932036728e-002	 4.8992287986e+000	 1.6265266870e-001
 4.3388868265e-002	 4.8998078948e+000	 1.6795474387e-001
 0.0000000000e+000	 4.9000000000e+000	 1.7330934842e-001
 4.4253310665e-001	 4.9050779249e+000	 1.3182399346e-001
 3.9769374913e-001	 4.9089168542e+000	 1.3442547786e-001
 3.5297146538e-001	 4.9123351010e+000	 1.3745731945e-001
 3.0837137160e-001	 4.9153364175e+000	 1.4089534134e-001
 2.6389848086e-001	 4.9179246224e+000	 1.4470777398e-001
 2.1955770244e-001	 4.9201035980e+000	 1.4885511687e-001
 1.7535384136e-001	 4.9218772872e+000	 1.5329002820e-001
 1.3129159796e-001	 4.9232496906e+000	 1.5795724202e-001
 8.7375567527e-002	 4.9242248639e+000	 1.6279351222e-001
 4.3610240041e-002	 4.9248069147e+000	 1.6772758271e-001
 0.0000000000e+000	 4.9250000000e+000	 1.7268018282e-001
 4.4477946760e-001	 4.9299767976e+000	 1.3129813169e-001
 3.9971249913e-001	 4.9338352139e+000	 1.3448267433e-001
 3.5476319871e-001	 4.9372708122e+000	 1.3793930245e-001
 3.0993670852e-001	 4.9402873638e+000	 1.4166098422e-001
 2.6523806706e-001	 4.9428887068e+000	 1.4563277576e-001
 2.2067220854e-001	 4.9450787432e+000	 1.4983166880e-001
 1.7624396239e-001	 4.9468614359e+000	 1.5422646740e-001
 1.3195805278e-001	 4.9482408058e+000	 1.5877769308e-001
 8.7819098327e-002	 4.9492209292e+000	 1.6343751775e-001
 4.3831611818e-002	 4.9498059346e+000	 1.6814972376e-001
 0.0000000000e+000	 4.9500000000e+000	 1.7284969018e-001
 4.4702582855e-001	 4.9548756703e+000	 1.3025210132e-001
 4.0173124913e-001	 4.9587535736e+000	 1.3413475365e-001
 3.5655493203e-001	 4.9622065233e+000	 1.3813449671e-001
 3.1150204543e-001	 4.9652383101e+000	 1.4226145066e-001
 2.6657765326e-001	 4.9678527912e+000	 1.4651750078e-001
 2.2178671465e-001	 4.9700538884e+000	 1.5089613122e-001
 1.7713408341e-001	 4.9718455845e+000	 1.5538228871e-001
 1.3262450759e-001	 4.9732319210e+000	 1.5995227568e-001
 8.8262629126e-002	 4.9742169945e+000	 1.6457367221e-001
 4.4052983595e-002	 4.9748049544e+000	 1.6920528594e-001
 0.0000000000e+000	 4.9750000000e+000	 1.7379712926e-001
 4.4927218951e-001	 4.9797745430e+000	 1.2871360788e-001
 4.0374999913e-001	 4.9836719332e+000	 1.3340463456e-001
 3.5834666536e-001	 4.9871422345e+000	 1.3806102434e-001
 3.1306738234e-001	 4.9901892563e+000	 1.4271005867e-001
 2.6791723945e-001	 4.9928168755e+000	 1.4737045791e-001
 2.2290122075e-001	 4.9950290335e+000	 1.5205220107e-001
 1.7802420443e-001	 4.9968297332e+000	 1.5675637663e-001
 1.3329096240e-001	 4.9982230362e+000	 1.6147506363e-001
 8.8706159925e-002	 4.9992130598e+000	 1.6619124262e-001
 4.4274355371e-002	 4.9998039743e+000	 1.7087873552e-001
 0.0000000000e+000	 5.0000000000e+000	 1.7550217367e-001
