x	y	stress_yy
 1.000000000000000e+00	 0.000000000000000e+00	 1.814181649448736e+01
 9.998338218507750e-01	 2.301879740688203e-02	 1.817492305477354e+01
 9.993275599243348e-01	 4.608215271279779e-02	 1.819192977200358e+01
 9.984697124756583e-01	 6.917769523648053e-02	 1.819157283086853e+01
 9.972489236794969e-01	 9.229260277661558e-02	 1.817250084494327e+01
 9.956540178012001e-01	 1.154136152499791e-01	 1.813327371949943e+01
 9.936740343365396e-01	 1.385270506335803e-01	 1.807236215987550e+01
 9.912982639881663e-01	 1.616188232546628e-01	 1.798814791451092e+01
 9.885162853320295e-01	 1.846744644584668e-01	 1.787892484240039e+01
 9.853180020131134e-01	 2.076791456684508e-01	 1.774290089367646e+01
 9.816936802964240e-01	 2.306177038372821e-01	 1.757820108903381e+01
 1.014285762337685e+00	 0.000000000000000e+00	 1.781830764025359e+01
 1.014117210207158e+00	 2.334763847636930e-02	 1.783879593481320e+01
 1.013603715943827e+00	 4.674047139590417e-02	 1.784355647071125e+01
 1.012733613491393e+00	 7.016595135258462e-02	 1.783134987113254e+01
 1.011495384797893e+00	 9.361107297002941e-02	 1.780085917658285e+01
 1.009877694474696e+00	 1.170623867344661e-01	 1.775068939615857e+01
 1.007869425438318e+00	 1.405060151646194e-01	 1.767936768409085e+01
 1.005459715400836e+00	 1.639276713629985e-01	 1.758534421951289e+01
 1.002637994060108e+00	 1.873126799789160e-01	 1.746699386707397e+01
 9.993940208268849e-01	 2.106460005981402e-01	 1.732261869410399e+01
 9.957179229122425e-01	 2.339122535574748e-01	 1.715045141630556e+01
 1.028571613012482e+00	 0.000000000000000e+00	 1.749974906576511e+01
 1.028400686885902e+00	 2.367648157850007e-02	 1.751013584805265e+01
 1.027879960240766e+00	 4.739879414830282e-02	 1.750517951501942e+01
 1.026997602708497e+00	 7.115421357755074e-02	 1.748366111561627e+01
 1.025741934009444e+00	 9.492955131367199e-02	 1.744429354035040e+01
 1.024101459100028e+00	 1.187111684111830e-01	 1.738572176950102e+01
 1.022064904316570e+00	 1.424849919293243e-01	 1.730652373110024e+01
 1.019621254379648e+00	 1.662365337446359e-01	 1.720521183581694e+01
 1.016759790108138e+00	 1.899509118092326e-01	 1.708023525454730e+01
 1.013470126677695e+00	 2.136128738698931e-01	 1.692998300167801e+01
 1.009742252244628e+00	 2.372068236462269e-01	 1.675278788247196e+01
 1.042857540357000e+00	 0.000000000000000e+00	 1.718702893109476e+01
 1.042684240221567e+00	 2.400532644483651e-02	 1.718947719102951e+01
 1.042156281155643e+00	 4.805712043257811e-02	 1.717698211691219e+01
 1.041261668477513e+00	 7.214248110459021e-02	 1.714834116960521e+01
 1.039988559678984e+00	 9.624803673113663e-02	 1.710229252074699e+01
 1.038325300060698e+00	 1.203599589340155e-01	 1.703751600634371e+01
 1.036260459377960e+00	 1.444639793119433e-01	 1.695263467932566e+01
 1.033782869359052e+00	 1.685454085144208e-01	 1.684621701773569e+01
 1.030881661943093e+00	 1.925891577952661e-01	 1.671677984283954e+01
 1.027546308069888e+00	 2.165797630611406e-01	 1.656279199764695e+01
 1.023766656840262e+00	 2.405014114133076e-01	 1.638267883097109e+01
 1.057143532703853e+00	 0.000000000000000e+00	 1.688098735770424e+01
 1.056967858548713e+00	 2.433417280694075e-02	 1.687732544177155e+01
 1.056432667028950e+00	 4.871544971131429e-02	 1.685913755057495e+01
 1.055525799148979e+00	 7.313075312691440e-02	 1.682523354194333e+01
 1.054235250171347e+00	 9.756652814601664e-02	 1.677437230737405e+01
 1.052549205740208e+00	 1.220087569568488e-01	 1.670526343937574e+01
 1.050456079029154e+00	 1.464429756967244e-01	 1.661656949162162e+01
 1.047944548773499e+00	 1.708542937871996e-01	 1.650690887844576e+01
 1.045003598031943e+00	 1.952274157828657e-01	 1.637485945675812e+01
 1.041622553507811e+00	 2.195466657493138e-01	 1.621896282864530e+01
 1.037791125245829e+00	 2.437960141684862e-01	 1.603772939666230e+01
 1.071429578385649e+00	 0.000000000000000e+00	 1.658241962983376e+01
 1.071251530201898e+00	 2.466302039637492e-02	 1.657415908687735e+01
 1.070709106201178e+00	 4.937378144709573e-02	 1.655180981445699e+01
 1.069789983073436e+00	 7.411902883773466e-02	 1.651419005136368e+01
 1.068481993851369e+00	 9.888502448190539e-02	 1.646007485484710e+01
 1.066773164522058e+00	 1.236575611335686e-01	 1.638819849003165e+01
 1.064651751676819e+00	 1.484219794679160e-01	 1.629725741057796e+01
 1.062106281057439e+00	 1.731631876778187e-01	 1.618591386731551e+01
 1.059125586841663e+00	 1.978656836178809e-01	 1.605280017700283e+01
 1.055698851495811e+00	 2.225135795118439e-01	 1.589652367751050e+01
 1.051815646008011e+00	 2.470906292215318e-01	 1.571567238850484e+01
 1.085715665735001e+00	 0.000000000000000e+00	 1.629207914336236e+01
 1.085535243515682e+00	 2.499186894470118e-02	 1.628043139658669e+01
 1.084985587012820e+00	 5.003211510250672e-02	 1.625515424110951e+01
 1.084054208601425e+00	 7.510730743026230e-02	 1.621507027964813e+01
 1.082728779083882e+00	 1.002035246623961e-01	 1.615896618785715e+01
 1.080997164789749e+00	 1.253063701180604e-01	 1.608559583409129e+01
 1.078847465727619e+00	 1.504009890097661e-01	 1.599368399338134e+01
 1.076268054645321e+00	 1.754720883011241e-01	 1.588193068286657e+01
 1.073247616839224e+00	 2.005039591461607e-01	 1.574901614020946e+01
 1.069775190538234e+00	 2.254805019261618e-01	 1.559360645956130e+01
 1.065840207673492e+00	 2.503852538822138e-01	 1.541435989142003e+01
 1.100001783084519e+00	 0.000000000000000e+00	 1.601068012507714e+01
 1.099818986824623e+00	 2.532071818348164e-02	 1.599657206164806e+01
 1.099262097804366e+00	 5.069045014013161e-02	 1.596931805954306e+01
 1.098318464083486e+00	 7.609558809770867e-02	 1.592774106736213e+01
 1.096975594233721e+00	 1.015220276110822e-01	 1.587063483819535e+01
 1.095221194926784e+00	 1.269551825642097e-01	 1.579676778795855e+01
 1.093043209588223e+00	 1.523800027065229e-01	 1.570488745539187e+01
 1.090429857971597e+00	 1.777809937719623e-01	 1.559372558179879e+01
 1.087369676491597e+00	 2.031422402135547e-01	 1.546200382170579e+01
 1.083851559139426e+00	 2.284474305696987e-01	 1.530844008752495e+01
 1.079864798788953e+00	 2.536798854603011e-01	 1.513175552201046e+01
 1.114287918766816e+00	 0.000000000000000e+00	 1.573890014293878e+01
 1.114102748463282e+00	 2.564956784427844e-02	 1.572298870437608e+01
 1.113538626916308e+00	 5.134878602255466e-02	 1.569444091436159e+01
 1.112582737870157e+00	 7.708387003328505e-02	 1.565207604834737e+01
 1.111222427665721e+00	 1.028405322515569e-01	 1.559469040190777e+01
 1.109445243316661e+00	 1.286039971259019e-01	 1.552106189583066e+01
 1.107238971665293e+00	 1.543590189424345e-01	 1.542995529475262e+01
 1.104591679470715e+00	 1.800899022051795e-01	 1.532012804856376e+01
 1.101491754265754e+00	 2.057805246659122e-01	 1.519033675769528e+01
 1.097927945803734e+00	 2.314143630198855e-01	 1.503934425412227e+01
 1.093889407901079e+00	 2.569745212655634e-01	 1.486592727950467e+01
 1.128574061114501e+00	 0.000000000000000e+00	 1.547738242584768e+01
 1.128386516766216e+00	 2.597841765865374e-02	 1.546006827503733e+01
 1.127815162689139e+00	 5.200712221236022e-02	 1.543065534550020e+01
 1.126847018311981e+00	 7.807215243020288e-02	 1.538795521954015e+01
 1.125469267744715e+00	 1.041590375074135e-01	 1.533076220594450e+01
 1.123669298342884e+00	 1.302528124570227e-01	 1.525785869997192e+01
 1.121434740365498e+00	 1.563380361017492e-01	 1.516802117315013e+01
 1.118753507577126e+00	 1.823988117156219e-01	 1.506002679356504e+01
 1.115613838628670e+00	 2.084188103490824e-01	 1.493266066796289e+01
 1.112004339035504e+00	 2.343812968541535e-01	 1.478472368647923e+01
 1.107914023556551e+00	 2.602691586077694e-01	 1.461504093922891e+01
 1.142860198460186e+00	 0.000000000000000e+00	 1.522673800956609e+01
 1.142670280067985e+00	 2.630726735816965e-02	 1.520817834359057e+01
 1.142091693463350e+00	 5.266545817213261e-02	 1.517808723201098e+01
 1.141111293759497e+00	 7.906043448167339e-02	 1.513526454302754e+01
 1.139716102835537e+00	 1.054775423022454e-01	 1.507849807472979e+01
 1.137893348388953e+00	 1.319016272114574e-01	 1.500656967808314e+01
 1.135630504095502e+00	 1.583170525687151e-01	 1.491826203033090e+01
 1.132915330725281e+00	 1.847077204181359e-01	 1.481236605125358e+01
 1.129735918047314e+00	 2.110570951089146e-01	 1.468768894408572e+01
 1.126080727339082e+00	 2.373482296499335e-01	 1.454306283111329e+01
 1.121938634302054e+00	 2.635637947966888e-01	 1.437735394117228e+01
 9.816936802964240e-01	 2.306177038372821e-01	 1.757820108903381e+01
 9.776342863994824e-01	 2.534730768946625e-01	 1.738018477041442e+01
 9.731306880439857e-01	 2.762311524069800e-01	 1.714432836740565e+01
 9.681744667976357e-01	 2.988759714563225e-01	 1.686918760087843e+01
 9.627577163271480e-01	 3.213913671440238e-01	 1.655372052484031e+01
 9.568730786461752e-01	 3.437610012650069e-01	 1.619732734080449e+01
 9.505137794457967e-01	 3.659684029576715e-01	 1.579988834406176e+01
 9.436736622717954e-01	 3.879970091915093e-01	 1.536179931236874e+01
 9.363472213109787e-01	 4.098302069345519e-01	 1.488400362762631e+01
 9.285296325490471e-01	 4.314513768232032e-01	 1.436802041488417e+01
 9.202167830650884e-01	 4.528439381382666e-01	 1.381596799221945e+01
 9.957179229122425e-01	 2.339122535574748e-01	 1.715045141630556e+01
 9.916005374791480e-01	 2.570941330418181e-01	 1.694742265725010e+01
 9.870326017877620e-01	 2.801773250107799e-01	 1.671056101836169e+01
 9.820055771421120e-01	 3.031456425612922e-01	 1.643848836576159e+01
 9.765114442609665e-01	 3.259826878383744e-01	 1.613019331960258e+01
 9.705427400435855e-01	 3.486718892333964e-01	 1.578506801116431e+01
 9.640925934049355e-01	 3.711965405861092e-01	 1.540294317050889e+01
 9.571547599412131e-01	 3.935398422506569e-01	 1.498412091122710e+01
 9.497236551845439e-01	 4.156849438654169e-01	 1.452940455962781e+01
 9.417943862059640e-01	 4.376149886466908e-01	 1.404012486907214e+01
 9.333627813284100e-01	 4.593131590072458e-01	 1.351816196764351e+01
 1.009742252244628e+00	 2.372068236462269e-01	 1.675278788247196e+01
 1.005566874916577e+00	 2.607152115768242e-01	 1.654698567924785e+01
 1.000934601491359e+00	 2.841235220132460e-01	 1.631099706455946e+01
 9.958367730085770e-01	 3.074153400658279e-01	 1.604351211182627e+01
 9.902652572383444e-01	 3.305740369218140e-01	 1.574355410359830e+01
 9.842124859648721e-01	 3.535828075675452e-01	 1.541051335662051e+01
 9.776714913264066e-01	 3.764247105426353e-01	 1.504417956201842e+01
 9.706359409690050e-01	 3.990827095843819e-01	 1.464477206054891e+01
 9.631001717696162e-01	 4.215397170000070e-01	 1.421296745449808e+01
 9.550592218841777e-01	 4.437786385842048e-01	 1.374992395085034e+01
 9.465088608791017e-01	 4.657824198802068e-01	 1.325730183630058e+01
 1.023766656840262e+00	 2.405014114133076e-01	 1.638267883097108e+01
 1.019533287305854e+00	 2.643363095427448e-01	 1.617602374793648e+01
 1.014836675801436e+00	 2.880697401918617e-01	 1.594248775415318e+01
 1.009668043101530e+00	 3.116850604831455e-01	 1.568083092725566e+01
 1.004019144026986e+00	 3.351654106447972e-01	 1.539011495581708e+01
 9.978823052463919e-01	 3.584937522568460e-01	 1.506973415291055e+01
 9.912504621207464e-01	 3.816529085574751e-01	 1.471944515580960e+01
 9.841171943454884e-01	 4.046256066658365e-01	 1.433939478268410e+01
 9.764767601419596e-01	 4.273945215566902e-01	 1.393014549964912e+01
 9.683241287506194e-01	 4.499423216018177e-01	 1.349269794436765e+01
 9.596550109810312e-01	 4.722517154736102e-01	 1.302850995698279e+01
 1.037791125245829e+00	 2.437960141684862e-01	 1.603772939666230e+01
 1.033499763241064e+00	 2.679574239826441e-01	 1.583184077567878e+01
 1.028738813364647e+00	 2.920159763241097e-01	 1.560205447701515e+01
 1.023499376125471e+00	 3.159548003264606e-01	 1.534720212865776e+01
 1.017773093394594e+00	 3.397568052577776e-01	 1.506638723528318e+01
 1.011552186724500e+00	 3.634047192906907e-01	 1.475901349638319e+01
 1.004829494698492e+00	 3.868811303608553e-01	 1.442481196852856e+01
 9.975985090609817e-01	 4.101685289681731e-01	 1.406386659113340e+01
 9.898534093773371e-01	 4.332493527538351e-01	 1.367663757849190e+01
 9.815890959722187e-01	 4.561060326656014e-01	 1.326398217360910e+01
 9.728012208980669e-01	 4.787210405039170e-01	 1.282717226271109e+01
 1.051815646008011e+00	 2.470906292215318e-01	 1.571567238850484e+01
 1.047466291316291e+00	 2.715785519395860e-01	 1.551188441127584e+01
 1.042641002827651e+00	 2.959622271874738e-01	 1.528687742443522e+01
 1.037330760784896e+00	 3.202245561089889e-01	 1.503955591507411e+01
 1.031527094108872e+00	 3.443482170112095e-01	 1.476906829831695e+01
 1.025222119235553e+00	 3.683157046584718e-01	 1.447483265185386e+01
 1.018408577970180e+00	 3.921093716830016e-01	 1.415656144008997e+01
 1.011079874105802e+00	 4.157114719645439e-01	 1.381428479346049e+01
 1.003230108551512e+00	 4.391042058098098e-01	 1.344837189282561e+01
 9.948541127159070e-01	 4.622697667416280e-01	 1.305955000161526e+01
 9.859474798940767e-01	 4.851903896875877e-01	 1.264892069070424e+01
 1.065840207673492e+00	 2.503852538822138e-01	 1.541435989142003e+01
 1.061432860125619e+00	 2.751996904566348e-01	 1.521373658523696e+01
 1.056543232837103e+00	 2.999084895594362e-01	 1.499428514335425e+01
 1.051162185784308e+00	 3.244943243439465e-01	 1.475498399585226e+01
 1.045281134937524e+00	 3.489396421555472e-01	 1.449502926355141e+01
 1.038892091615907e+00	 3.732267043495812e-01	 1.421385801679495e+01
 1.031987700846347e+00	 3.973376282541403e-01	 1.391117065727511e+01
 1.024561278470266e+00	 4.212544311281006e-01	 1.358695203240571e+01
 1.016606846740247e+00	 4.449590759429827e-01	 1.324149087710867e+01
 1.008119168148615e+00	 4.684335187959696e-01	 1.287539717073952e+01
 9.990937772329286e-01	 4.916597577410830e-01	 1.248961699828925e+01
 1.079864798788953e+00	 2.536798854603011e-01	 1.513175552201046e+01
 1.075399458263132e+00	 2.788208365768544e-01	 1.493510479117017e+01
 1.070445492039662e+00	 3.038547602174804e-01	 1.472174490387769e+01
 1.064993639828203e+00	 3.287641015445487e-01	 1.449072910392234e+01
 1.059035204648252e+00	 3.535310769412446e-01	 1.424130372953291e+01
 1.052562092701919e+00	 3.781377143534121e-01	 1.397292910046030e+01
 1.045566852237530e+00	 4.025658958044971e-01	 1.368529964992461e+01
 1.038042711144692e+00	 4.267974019319960e-01	 1.337836295273122e+01
 1.029983613019307e+00	 4.508139583717223e-01	 1.305233728726568e+01
 1.021384251437273e+00	 4.745972837946980e-01	 1.270772736213267e+01
 1.012240102178491e+00	 4.981291393808635e-01	 1.234533783886335e+01
 1.093889407901079e+00	 2.569745212655634e-01	 1.486592727950467e+01
 1.089366074322916e+00	 2.824419873433087e-01	 1.467381403728523e+01
 1.084347769081984e+00	 3.078010359390896e-01	 1.446685380714235e+01
 1.078825111621082e+00	 3.330338842240116e-01	 1.424417531508371e+01
 1.072789292008760e+00	 3.581225176187560e-01	 1.400507735948732e+01
 1.066232111329943e+00	 3.830487306593562e-01	 1.374904742693450e+01
 1.059146021054265e+00	 4.077941700642983e-01	 1.347577966354654e+01
 1.051524161119399e+00	 4.323403798493822e-01	 1.318519189285282e+01
 1.043360396464453e+00	 4.566688483143967e-01	 1.287744135870919e+01
 1.034649351748811e+00	 4.807610567038857e-01	 1.255293886512633e+01
 1.025386443994631e+00	 5.045985293233902e-01	 1.221236098491838e+01
 1.107914023556551e+00	 2.602691586077694e-01	 1.461504093922891e+01
 1.103332696899054e+00	 2.860631397990621e-01	 1.442779940868046e+01
 1.098250052610725e+00	 3.117473135017465e-01	 1.422733056798856e+01
 1.092656589867442e+00	 3.373036688955506e-01	 1.401283910194053e+01
 1.086543385786751e+00	 3.627139604385353e-01	 1.378367825647647e+01
 1.079902136336337e+00	 3.879597492568057e-01	 1.353936628030684e+01
 1.072725196207091e+00	 4.130224467637699e-01	 1.327960232189154e+01
 1.065005617384702e+00	 4.378833603534111e-01	 1.300428151052824e+01
 1.056737186151450e+00	 4.625237409893744e-01	 1.271350893891248e+01
 1.047914458250161e+00	 4.869248324896046e-01	 1.240761225824877e+01
 1.038532791945218e+00	 5.110679222851237e-01	 1.208715259657102e+01
 1.121938634302054e+00	 2.635637947966888e-01	 1.437735394117227e+01
 1.117299314585631e+00	 2.896842909871785e-01	 1.419509918701183e+01
 1.112152331272543e+00	 3.156935896829344e-01	 1.400100791343935e+01
 1.106488063271783e+00	 3.415734520723818e-01	 1.379436105825599e+01
 1.100297474749929e+00	 3.673054016510370e-01	 1.357456805984106e+01
 1.093572156557455e+00	 3.928707661351533e-01	 1.334118121834215e+01
 1.086304366606542e+00	 4.182507216331378e-01	 1.309390960168533e+01
 1.078487068930921e+00	 4.434263389172351e-01	 1.283263226093707e+01
 1.070113971156061e+00	 4.683786316150235e-01	 1.255741050932810e+01
 1.061179560108253e+00	 4.930886061179267e-01	 1.226849901342659e+01
 1.051679135294118e+00	 5.175373129825247e-01	 1.196635544419062e+01
 9.202167830650884e-01	 4.528439381382666e-01	 1.381596799221945e+01
 9.114046648473878e-01	 4.739928653376373e-01	 1.323040371511086e+01
 9.020912353519670e-01	 4.948802800036434e-01	 1.261312555209375e+01
 8.922746742864819e-01	 5.154899876712747e-01	 1.196610127635859e+01
 8.819539668184718e-01	 5.358060209788083e-01	 1.129218383929716e+01
 8.711289202812919e-01	 5.558126876982258e-01	 1.059513139816357e+01
 8.598001777972277e-01	 5.754946185800570e-01	 9.879617426737015e+00
 8.479692286694867e-01	 5.948368147295444e-01	 9.151230231354221e+00
 8.356384154163032e-01	 6.138246942277596e-01	 8.416461360482749e+00
 8.228109373437806e-01	 6.324441377108051e-01	 7.682682583852977e+00
 8.094908505790605e-01	 6.506815326226161e-01	 6.958111322975871e+00
 9.333627813284100e-01	 4.593131590072458e-01	 1.351816196764352e+01
 9.244247752827184e-01	 4.807642147537833e-01	 1.296648117292155e+01
 9.149782963456433e-01	 5.019500220617313e-01	 1.238745145505218e+01
 9.050214982206021e-01	 5.228541551156739e-01	 1.178292013633604e+01
 8.945533515775020e-01	 5.434604184478213e-01	 1.115548806885731e+01
 8.835736609973344e-01	 5.637528956545838e-01	 1.050852528030772e+01
 8.720830787899015e-01	 5.837159979249101e-01	 9.846178146516007e+00
 8.600831155342660e-01	 6.033345120932596e-01	 9.173367532377453e+00
 8.475761472133474e-01	 6.225936479267381e-01	 8.495777485129215e+00
 8.345654188377984e-01	 6.414790843554314e-01	 7.819834224555836e+00
 8.210550444796545e-01	 6.599770143573945e-01	 7.152675350186255e+00
 9.465088608791017e-01	 4.657824198802068e-01	 1.325730183630058e+01
 9.374449662274109e-01	 4.875356060421673e-01	 1.273826841380337e+01
 9.278654370263987e-01	 5.090198078370565e-01	 1.219554149394976e+01
 9.177684009750668e-01	 5.302183680976542e-01	 1.163085344236712e+01
 9.071528142455878e-01	 5.511148632487299e-01	 1.104657193291019e+01
 8.960184786665549e-01	 5.716931527097678e-01	 1.044571170228115e+01
 8.843660557353290e-01	 5.919374281068149e-01	 9.831939131962862e+00
 8.721970773069457e-01	 6.118322620022576e-01	 9.209569205971524e+00
 8.595139528291983e-01	 6.313626558479829e-01	 8.583554513937061e+00
 8.463199730175579e-01	 6.505140868668495e-01	 7.959466105115673e+00
 8.326193098892952e-01	 6.692725535698656e-01	 7.343466147088038e+00
 9.596550109810312e-01	 4.722517154736102e-01	 1.302850995698279e+01
 9.504652270480891e-01	 4.943070336725015e-01	 1.254077771509766e+01
 9.407526468694558e-01	 5.160896315556505e-01	 1.203237982543055e+01
 9.305153721395666e-01	 5.375826206028219e-01	 1.150493964850012e+01
 9.197523445327681e-01	 5.587693491301476e-01	 1.096061056676008e+01
 9.084633631252294e-01	 5.796334523790161e-01	 1.040208431796203e+01
 8.966490986019068e-01	 6.001589024114224e-01	 9.832593317788236e+00
 8.843111040939087e-01	 6.203300575165623e-01	 9.255906615006076e+00
 8.714518225140709e-01	 6.401317108300180e-01	 8.676319224380046e+00
 8.580745902829160e-01	 6.595491378663692e-01	 8.098634696726332e+00
 8.441836373632470e-01	 6.785681426685646e-01	 7.528140909223758e+00
 9.728012208980669e-01	 4.787210405039170e-01	 1.282717226271110e+01
 9.634855471113760e-01	 5.010784921144978e-01	 1.236929087686362e+01
 9.536399153500362e-01	 5.231594874435458e-01	 1.189322164736851e+01
 9.432624013037896e-01	 5.449469066167819e-01	 1.140048531384959e+01
 9.323519321490816e-01	 5.664238698406905e-01	 1.089303982183349e+01
 9.209083042096341e-01	 5.875737881775672e-01	 1.037328568523473e+01
 9.089321973580297e-01	 6.083804141243842e-01	 9.844066365622123e+00
 8.964251860015402e-01	 6.288278916961995e-01	 9.308663394618225e+00
 8.833897465181827e-01	 6.489008057113672e-01	 8.770786050922826e+00
 8.698292610337306e-01	 6.685842299752990e-01	 8.234555498171151e+00
 8.557480174567735e-01	 6.878637740620275e-01	 7.704483391972312e+00
 9.859474798940767e-01	 4.851903896875877e-01	 1.264892069070424e+01
 9.765059157838942e-01	 5.078499758378683e-01	 1.221934125491362e+01
 9.665272319433628e-01	 5.302293697267743e-01	 1.177357513018629e+01
 9.560094780574259e-01	 5.523112201251403e-01	 1.131304722906436e+01
 9.449515668045673e-01	 5.740784191289722e-01	 1.083953888404209e+01
 9.333532917560440e-01	 5.955141536206587e-01	 1.035519067103035e+01
 9.212153419720944e-01	 6.166019565313522e-01	 9.862501146647471e+00
 9.085393131362222e-01	 6.373257576011928e-01	 9.364321297545843e+00
 8.953277150917490e-01	 6.576699333305543e-01	 8.863844570385343e+00
 8.815839756698585e-01	 6.776193558149491e-01	 8.364592428809125e+00
 8.673124407251396e-01	 6.971594401587902e-01	 7.870395467060279e+00
 9.990937772329286e-01	 4.916597577410830e-01	 1.248961699828925e+01
 9.895263224322676e-01	 5.146214793123250e-01	 1.208669721110051e+01
 9.794145861246581e-01	 5.372992726313681e-01	 1.166918477344932e+01
 9.687565919901648e-01	 5.596755551135029e-01	 1.123841595267757e+01
 9.575512382092630e-01	 5.817329907436078e-01	 1.079601426322728e+01
 9.457983156007349e-01	 6.034545422235297e-01	 1.034389116539442e+01
 9.334985224124954e-01	 6.248235229179774e-01	 9.884243448259095e+00
 9.206534756043400e-01	 6.458236482915676e-01	 9.419547155994389e+00
 9.072657184849856e-01	 6.664390865261035e-01	 8.952547974473690e+00
 8.933387245911578e-01	 6.866545080066284e-01	 8.486248058253217e+00
 8.788768977236079e-01	 7.064551333673871e-01	 8.023889345102864e+00
 1.012240102178491e+00	 4.981291393808635e-01	 1.234533783886335e+01
 1.002546756423119e+00	 5.213929970075802e-01	 1.196734685212299e+01
 9.923019673691437e-01	 5.443691903833595e-01	 1.157601605827281e+01
 9.815037326916951e-01	 5.670399055674747e-01	 1.117260062927419e+01
 9.701509360732091e-01	 5.893875784332123e-01	 1.075858502914493e+01
 9.582433655799834e-01	 6.113949475014185e-01	 1.033568198567774e+01
 9.457817286476292e-01	 6.330451065699113e-01	 9.905828793565291e+00
 9.327676635122770e-01	 6.543215568273484e-01	 9.471180858619471e+00
 9.192037469481085e-01	 6.752082581365386e-01	 9.034102439810219e+00
 9.050934981974861e-01	 6.956896791716466e-01	 8.597154596740181e+00
 8.904413790074432e-01	 7.157508460963548e-01	 8.163080403677865e+00
 1.025386443994631e+00	 5.045985293233902e-01	 1.221236098491838e+01
 1.015567207123072e+00	 5.281645233933461e-01	 1.185748394130722e+01
 1.005189365152042e+00	 5.514391172087801e-01	 1.149024127934564e+01
 9.942508897517067e-01	 5.744042654726615e-01	 1.111181497453533e+01
 9.827506501064427e-01	 5.970421759463997e-01	 1.072356918221351e+01
 9.706884315300646e-01	 6.193353629695629e-01	 1.032704786413213e+01
 9.580649506458910e-01	 6.412667007728053e-01	 9.923970273943162e+00
 9.448818669664171e-01	 6.628194762685597e-01	 9.516224251598713e+00
 9.311417907313339e-01	 6.839774410003836e-01	 9.105857314982888e+00
 9.168482868887002e-01	 7.047248619313129e-01	 8.695065577980543e+00
 9.020058751319096e-01	 7.250465707542284e-01	 8.286180566633295e+00
 1.038532791945218e+00	 5.110679222851237e-01	 1.208715259657102e+01
 1.028587663898750e+00	 5.349360529393342e-01	 1.175349487951419e+01
 1.018076768948577e+00	 5.585090473336626e-01	 1.140822645213266e+01
 1.006998052759889e+00	 5.817686288146692e-01	 1.105246432384805e+01
 9.953503700190041e-01	 6.046967770317856e-01	 1.068747105855773e+01
 9.831335032872549e-01	 6.272757821432017e-01	 1.031465142299030e+01
 9.703481783756770e-01	 6.494882988123111e-01	 9.935547304955934e+00
 9.569960760731446e-01	 6.713173996752270e-01	 9.551830881978288e+00
 9.430798400848772e-01	 6.927466279561625e-01	 9.165296052279118e+00
 9.286030810646587e-01	 7.137600489069369e-01	 8.777848173179283e+00
 9.135703766522705e-01	 7.343422997495432e-01	 8.391492185825108e+00
 1.051679135294118e+00	 5.175373129825247e-01	 1.196635544419062e+01
 1.041608116116776e+00	 5.417075801152571e-01	 1.165194666169892e+01
 1.030964168233969e+00	 5.655789749840386e-01	 1.132651920125222e+01
 1.019745211305930e+00	 5.891329895791028e-01	 1.099113365149386e+01
 1.007950085520931e+00	 6.123513754379840e-01	 1.064696967891925e+01
 9.955785706878293e-01	 6.352161985375726e-01	 1.029532205069414e+01
 9.826314018053823e-01	 6.577098939740801e-01	 9.937595224902429e+00
 9.691102809388425e-01	 6.798153201073742e-01	 9.575296509652985e+00
 9.550178852589553e-01	 7.015158118423989e-01	 9.210027818995332e+00
 9.403578711252181e-01	 7.227952327198277e-01	 8.843476081043853e+00
 9.251348741237903e-01	 7.436380254908352e-01	 8.477402381357086e+00
 8.094908505790605e-01	 6.506815326226161e-01	 6.958111322975871e+00
 7.956830624271515e-01	 6.685238174230594e-01	 6.252228455856782e+00
 7.813933179443889e-01	 6.859585270306811e-01	 5.570807483584086e+00
 7.666281954255775e-01	 7.029738267457829e-01	 4.916968266455936e+00
 7.513950941565928e-01	 7.195585469175594e-01	 4.293618344791878e+00
 7.357022165618519e-01	 7.357022165618521e-01	 3.703429938195435e+00
 7.195585469175590e-01	 7.513950941565929e-01	 3.148819601504718e+00
 7.029738267457828e-01	 7.666281954255776e-01	 2.631930817728084e+00
 6.859585270306806e-01	 7.813933179443893e-01	 2.154619753386553e+00
 6.685238174230592e-01	 7.956830624271517e-01	 1.718444341655562e+00
 6.506815326226163e-01	 8.094908505790606e-01	 1.324656795230153e+00
 8.210550444796545e-01	 6.599770143573945e-01	 7.152675350186255e+00
 8.070500015485216e-01	 6.780741897983326e-01	 6.500491255280199e+00
 7.925561171731763e-01	 6.957579675236486e-01	 5.866574118462625e+00
 7.775800636242920e-01	 7.130163437660235e-01	 5.254118900693124e+00
 7.621293458920958e-01	 7.298379893077620e-01	 4.666159716183405e+00
 7.462122835788024e-01	 7.462122835788025e-01	 4.105546113117510e+00
 7.298379893077620e-01	 7.621293458920964e-01	 3.574921407798567e+00
 7.130163437660234e-01	 7.775800636242922e-01	 3.076703372416057e+00
 6.957579675236482e-01	 7.925561171731764e-01	 2.613067533009930e+00
 6.780741897983322e-01	 8.070500015485218e-01	 2.185933284665912e+00
 6.599770143573943e-01	 8.210550444796544e-01	 1.796952976980546e+00
 8.326193098892952e-01	 6.692725535698656e-01	 7.343466147088038e+00
 8.184170109590402e-01	 6.876246212274461e-01	 6.738983045318625e+00
 8.037189854285399e-01	 7.055574686107333e-01	 6.147263086479971e+00
 7.885319995449450e-01	 7.230589228837120e-01	 5.571547060206478e+00
 7.728636640035178e-01	 7.401174952607817e-01	 5.014960809269308e+00
 7.567224155850235e-01	 7.567224155850236e-01	 4.480491023241111e+00
 7.401174952607816e-01	 7.728636640035181e-01	 3.970962546327736e+00
 7.230589228837118e-01	 7.885319995449455e-01	 3.489017515181826e+00
 7.055574686107329e-01	 8.037189854285400e-01	 3.037096608970059e+00
 6.876246212274458e-01	 8.184170109590403e-01	 2.617422653900484e+00
 6.692725535698655e-01	 8.326193098892952e-01	 2.231986779008479e+00
 8.441836373632470e-01	 6.785681426685646e-01	 7.528140909223758e+00
 8.297840813750883e-01	 6.971751039107528e-01	 6.965977700607756e+00
 8.148819135936146e-01	 7.153570222888413e-01	 6.411729370247352e+00
 7.994839942429858e-01	 7.331015558971893e-01	 5.868655092227701e+00
 7.835980397240893e-01	 7.503970563814085e-01	 5.339939614260945e+00
 7.672326039968961e-01	 7.672326039968963e-01	 4.828668784830092e+00
 7.503970563814082e-01	 7.835980397240895e-01	 4.337806117232287e+00
 7.331015558971890e-01	 7.994839942429861e-01	 3.870170717841190e+00
 7.153570222888415e-01	 8.148819135936152e-01	 3.428416881314900e+00
 6.971751039107525e-01	 8.297840813750883e-01	 3.015015623888883e+00
 6.785681426685646e-01	 8.441836373632471e-01	 2.632238388218317e+00
 8.557480174567735e-01	 6.878637740620275e-01	 7.704483391972312e+00
 8.411512035130448e-01	 7.067256300486032e-01	 7.179842326539430e+00
 8.260448925515365e-01	 7.251566205548785e-01	 6.658889777687595e+00
 8.104360387738634e-01	 7.431442346047952e-01	 6.144877588632617e+00
 7.943324642870420e-01	 7.606766642744333e-01	 5.641018500770353e+00
 7.777428402308016e-01	 7.777428402308020e-01	 5.150461624476256e+00
 7.606766642744328e-01	 7.943324642870419e-01	 4.676268529624082e+00
 7.431442346047951e-01	 8.104360387738637e-01	 4.221390290690275e+00
 7.251566205548781e-01	 8.260448925515365e-01	 3.788645804586276e+00
 7.067256300486029e-01	 8.411512035130450e-01	 3.380701675268439e+00
 6.878637740620274e-01	 8.557480174567736e-01	 3.000053928418243e+00
 8.673124407251396e-01	 6.971594401587902e-01	 7.870395467060279e+00
 8.525183680892905e-01	 7.162761918413502e-01	 7.379031036825753e+00
 8.372079131854400e-01	 7.349562554057512e-01	 6.887718812586636e+00
 8.213881241930269e-01	 7.531869508048717e-01	 6.399679227997633e+00
 8.050669289256061e-01	 7.709563105446461e-01	 5.918123917169520e+00
 7.882531157031213e-01	 7.882531157031215e-01	 5.446231329499090e+00
 7.709563105446458e-01	 8.050669289256063e-01	 4.987122605315771e+00
 7.531869508048714e-01	 8.213881241930272e-01	 4.543838050963648e+00
 7.349562554057508e-01	 8.372079131854402e-01	 4.119314542014070e+00
 7.162761918413497e-01	 8.525183680892905e-01	 3.716364165768116e+00
 6.971594401587901e-01	 8.673124407251396e-01	 3.337654389557213e+00
 8.788768977236079e-01	 7.064551333673871e-01	 8.023889345102864e+00
 8.638855658202043e-01	 7.258267814893441e-01	 7.562079221894523e+00
 8.483709663784602e-01	 7.447559188383650e-01	 7.097244870880043e+00
 8.323402415559250e-01	 7.632296962957591e-01	 6.632552787876291e+00
 8.158014248730130e-01	 7.812359867968365e-01	 6.171186113664520e+00
 7.987634218302354e-01	 7.987634218302355e-01	 5.716320583936268e+00
 7.812359867968363e-01	 8.158014248730134e-01	 5.271100437725084e+00
 7.632296962957585e-01	 8.323402415559253e-01	 4.838614623038980e+00
 7.447559188383648e-01	 8.483709663784607e-01	 4.421873634261643e+00
 7.258267814893438e-01	 8.638855658202044e-01	 4.023787303985380e+00
 7.064551333673871e-01	 8.788768977236078e-01	 3.647143852614642e+00
 8.904413790074432e-01	 7.157508460963548e-01	 8.163080403677865e+00
 8.752527874221663e-01	 7.353773911929373e-01	 7.727598263532519e+00
 8.595340430137332e-01	 7.545556028496262e-01	 7.286546733085869e+00
 8.432923819180074e-01	 7.732724628757974e-01	 6.843017311834762e+00
 8.265359433624941e-01	 7.915156846357957e-01	 6.400138886929279e+00
 8.092737500285259e-01	 8.092737500285260e-01	 5.961054200517109e+00
 7.915156846357952e-01	 8.265359433624941e-01	 5.528896028191077e+00
 7.732724628757972e-01	 8.432923819180078e-01	 5.106763403838823e+00
 7.545556028496260e-01	 8.595340430137337e-01	 4.697698226816516e+00
 7.353773911929372e-01	 8.752527874221667e-01	 4.304662580202192e+00
 7.157508460963549e-01	 8.904413790074435e-01	 3.930517074121117e+00
 9.020058751319096e-01	 7.250465707542284e-01	 8.286180566633295e+00
 8.866200236115567e-01	 7.449280131524817e-01	 7.874270655760556e+00
 8.706971339743936e-01	 7.643552994364409e-01	 7.454750326328859e+00
 8.542445363347229e-01	 7.833152423433283e-01	 7.030616417367956e+00
 8.372704756272800e-01	 8.017953956663135e-01	 6.604919344366612e+00
 8.197840917143736e-01	 8.197840917143742e-01	 6.180740257945444e+00
 8.017953956663133e-01	 8.372704756272804e-01	 5.761167719662689e+00
 7.833152423433281e-01	 8.542445363347232e-01	 5.349274223450670e+00
 7.643552994364405e-01	 8.706971339743941e-01	 4.948092895603398e+00
 7.449280131524816e-01	 8.866200236115570e-01	 4.560594702927991e+00
 7.250465707542285e-01	 9.020058751319096e-01	 4.189666487731924e+00
 9.135703766522705e-01	 7.343422997495432e-01	 8.391492185825108e+00
 8.979872651047554e-01	 7.544786395683292e-01	 8.000845495974497e+00
 8.818602301435767e-01	 7.741550005957150e-01	 7.601025732086864e+00
 8.651966958615209e-01	 7.933580264966917e-01	 7.194916732223746e+00
 8.480050129006019e-01	 8.120751114931807e-01	 6.785467686257679e+00
 8.302944383041598e-01	 8.302944383041599e-01	 6.375671151876039e+00
 8.120751114931802e-01	 8.480050129006023e-01	 5.968540445698612e+00
 7.933580264966916e-01	 8.651966958615213e-01	 5.567086727949443e+00
 7.741550005957150e-01	 8.818602301435772e-01	 5.174296106390644e+00
 7.544786395683287e-01	 8.979872651047555e-01	 4.793107084929932e+00
 7.343422997495435e-01	 9.135703766522707e-01	 4.426388674464952e+00
 9.251348741237903e-01	 7.436380254908352e-01	 8.477402381357086e+00
 9.093545026181421e-01	 7.640292626408308e-01	 8.106134313979622e+00
 8.930233224044176e-01	 7.839546983243546e-01	 7.724584418176178e+00
 8.761488515538501e-01	 8.034008071342293e-01	 7.335506447908023e+00
 8.587395464156911e-01	 8.223548237211875e-01	 6.941727004236656e+00
 8.408047812142654e-01	 8.408047812142655e-01	 6.546124567129509e+00
 8.223548237211870e-01	 8.587395464156912e-01	 6.151607810926550e+00
 8.034008071342290e-01	 8.761488515538506e-01	 5.761093508710250e+00
 7.839546983243543e-01	 8.930233224044180e-01	 5.377484340007675e+00
 7.640292626408302e-01	 9.093545026181423e-01	 5.003646918138900e+00
 7.436380254908355e-01	 9.251348741237905e-01	 4.642390348058107e+00
 6.506815326226163e-01	 8.094908505790606e-01	 1.324656795230153e+00
 6.324441377108048e-01	 8.228109373437807e-01	 9.754487212143744e-01
 6.138246942277593e-01	 8.356384154163033e-01	 6.722481220142974e-01
 5.948368147295442e-01	 8.479692286694869e-01	 4.142589478328299e-01
 5.754946185800568e-01	 8.598001777972279e-01	 1.998171556552155e-01
 5.558126876982253e-01	 8.711289202812919e-01	 2.643150994449622e-02
 5.358060209788079e-01	 8.819539668184722e-01	-1.091670976667342e-01
 5.154899876712745e-01	 8.922746742864820e-01	-2.109688684161503e-01
 4.948802800036430e-01	 9.020912353519670e-01	-2.836220077872339e-01
 4.739928653376368e-01	 9.114046648473878e-01	-3.323645417916566e-01
 4.528439381382665e-01	 9.202167830650881e-01	-3.629522828488684e-01
 6.599770143573943e-01	 8.210550444796544e-01	 1.796952976980546e+00
 6.414790843554309e-01	 8.345654188377986e-01	 1.447099095987652e+00
 6.225936479267378e-01	 8.475761472133476e-01	 1.136552482830877e+00
 6.033345120932594e-01	 8.600831155342663e-01	 8.649990050765805e-01
 5.837159979249100e-01	 8.720830787899015e-01	 6.313801318446053e-01
 5.637528956545833e-01	 8.835736609973346e-01	 4.339253469339395e-01
 5.434604184478211e-01	 8.945533515775020e-01	 2.701919594834365e-01
 5.228541551156736e-01	 9.050214982206022e-01	 1.371114344318928e-01
 5.019500220617310e-01	 9.149782963456434e-01	 3.104128206419687e-02
 4.807642147537830e-01	 9.244247752827184e-01	-5.217851095364312e-02
 4.593131590072458e-01	 9.333627813284101e-01	-1.171655573880717e-01
 6.692725535698655e-01	 8.326193098892952e-01	 2.231986779008479e+00
 6.505140868668492e-01	 8.463199730175580e-01	 1.880759266324232e+00
 6.313626558479827e-01	 8.595139528291983e-01	 1.562904945764016e+00
 6.118322620022574e-01	 8.721970773069458e-01	 1.278540212650324e+00
 5.919374281068147e-01	 8.843660557353294e-01	 1.027148963607370e+00
 5.716931527097676e-01	 8.960184786665553e-01	 8.076074378544048e-01
 5.511148632487294e-01	 9.071528142455881e-01	 6.182154382134242e-01
 5.302183680976538e-01	 9.177684009750672e-01	 4.567332179345723e-01
 5.090198078370561e-01	 9.278654370263989e-01	 3.204232454826075e-01
 4.875356060421670e-01	 9.374449662274114e-01	 2.060960071865455e-01
 4.657824198802068e-01	 9.465088608791018e-01	 1.101589773037437e-01
 6.785681426685646e-01	 8.441836373632471e-01	 2.632238388218317e+00
 6.595491378663686e-01	 8.580745902829160e-01	 2.279241944243048e+00
 6.401317108300179e-01	 8.714518225140712e-01	 1.954377560156714e+00
 6.203300575165623e-01	 8.843111040939093e-01	 1.658143347623604e+00
 6.001589024114220e-01	 8.966490986019068e-01	 1.390505549194245e+00
 5.796334523790159e-01	 9.084633631252296e-01	 1.150916593209550e+00
 5.587693491301475e-01	 9.197523445327686e-01	 9.383386110393842e-01
 5.375826206028216e-01	 9.305153721395665e-01	 7.512718500164594e-01
 5.160896315556502e-01	 9.407526468694557e-01	 5.877873496214823e-01
 4.943070336725011e-01	 9.504652270480891e-01	 4.455632004557052e-01
 4.722517154736102e-01	 9.596550109810310e-01	 3.219236755683834e-01
 6.878637740620274e-01	 8.557480174567736e-01	 3.000053928418243e+00
 6.685842299752985e-01	 8.698292610337308e-01	 2.645207814083175e+00
 6.489008057113668e-01	 8.833897465181827e-01	 2.313876338894982e+00
 6.288278916961991e-01	 8.964251860015403e-01	 2.006892958222927e+00
 6.083804141243839e-01	 9.089321973580301e-01	 1.724649019619401e+00
 5.875737881775670e-01	 9.209083042096341e-01	 1.467105788123591e+00
 5.664238698406903e-01	 9.323519321490821e-01	 1.233811113932630e+00
 5.449469066167815e-01	 9.432624013037897e-01	 1.023920307016525e+00
 5.231594874435456e-01	 9.536399153500364e-01	 8.362207247686391e-01
 5.010784921144974e-01	 9.634855471113758e-01	 6.691595345582125e-01
 4.787210405039172e-01	 9.728012208980670e-01	 5.208740834694607e-01
 6.971594401587901e-01	 8.673124407251396e-01	 3.337654389557213e+00
 6.776193558149488e-01	 8.815839756698589e-01	 2.981175659789536e+00
 6.576699333305539e-01	 8.953277150917490e-01	 2.644152320156330e+00
 6.373257576011925e-01	 9.085393131362224e-01	 2.327709105738981e+00
 6.166019565313520e-01	 9.212153419720943e-01	 2.032607917233149e+00
 5.955141536206586e-01	 9.333532917560440e-01	 1.759254546317627e+00
 5.740784191289717e-01	 9.449515668045674e-01	 1.507709317966283e+00
 5.523112201251401e-01	 9.560094780574260e-01	 1.277701329973737e+00
 5.302293697267740e-01	 9.665272319433633e-01	 1.068645917968767e+00
 5.078499758378680e-01	 9.765059157838943e-01	 8.796649333558726e-01
 4.851903896875877e-01	 9.859474798940765e-01	 7.096093924163798e-01
 7.064551333673871e-01	 8.788768977236078e-01	 3.647143852614642e+00
 6.866545080066282e-01	 8.933387245911584e-01	 3.289531693347157e+00
 6.664390865261031e-01	 9.072657184849857e-01	 2.947811756595772e+00
 6.458236482915671e-01	 9.206534756043400e-01	 2.623358180219473e+00
 6.248235229179774e-01	 9.334985224124955e-01	 2.317251413636428e+00
 6.034545422235295e-01	 9.457983156007354e-01	 2.030280347224395e+00
 5.817329907436075e-01	 9.575512382092632e-01	 1.762947725073872e+00
 5.596755551135026e-01	 9.687565919901651e-01	 1.515478622011604e+00
 5.372992726313677e-01	 9.794145861246583e-01	 1.287831719508444e+00
 5.146214793123248e-01	 9.895263224322677e-01	 1.079713077237384e+00
 4.916597577410830e-01	 9.990937772329286e-01	 8.905920681964477e-01
 7.157508460963549e-01	 8.904413790074435e-01	 3.930517074121117e+00
 6.956896791716466e-01	 9.050934981974866e-01	 3.572538156928109e+00
 6.752082581365383e-01	 9.192037469481085e-01	 3.227325511227579e+00
 6.543215568273478e-01	 9.327676635122771e-01	 2.896462874080755e+00
 6.330451065699109e-01	 9.457817286476290e-01	 2.581299654197022e+00
 6.113949475014181e-01	 9.582433655799836e-01	 2.282949144975398e+00
 5.893875784332121e-01	 9.701509360732092e-01	 2.002289476564338e+00
 5.670399055674743e-01	 9.815037326916953e-01	 1.739967173924541e+00
 5.443691903833591e-01	 9.923019673691438e-01	 1.496403146479508e+00
 5.213929970075799e-01	 1.002546756423119e+00	 1.271800899682503e+00
 4.981291393808635e-01	 1.012240102178491e+00	 1.066156730315880e+00
 7.250465707542285e-01	 9.020058751319096e-01	 4.189666487731924e+00
 7.047248619313127e-01	 9.168482868887010e-01	 3.832341263875717e+00
 6.839774410003833e-01	 9.311417907313339e-01	 3.485037731139259e+00
 6.628194762685597e-01	 9.448818669664175e-01	 3.149511389145900e+00
 6.412667007728051e-01	 9.580649506458917e-01	 2.827333307485564e+00
 6.193353629695627e-01	 9.706884315300651e-01	 2.519885078896978e+00
 5.970421759463996e-01	 9.827506501064432e-01	 2.228356053950990e+00
 5.744042654726613e-01	 9.942508897517068e-01	 1.953742796138297e+00
 5.514391172087798e-01	 1.005189365152043e+00	 1.696850659004883e+00
 5.281645233933456e-01	 1.015567207123073e+00	 1.458297353921049e+00
 5.045985293233903e-01	 1.025386443994631e+00	 1.238518348874601e+00
 7.343422997495435e-01	 9.135703766522707e-01	 4.426388674464952e+00
 7.137600489069367e-01	 9.286030810646588e-01	 4.070978537064180e+00
 6.927466279561619e-01	 9.430798400848776e-01	 3.723173862974285e+00
 6.713173996752266e-01	 9.569960760731446e-01	 3.384865944979598e+00
 6.494882988123111e-01	 9.703481783756774e-01	 3.057802390024090e+00
 6.272757821432012e-01	 9.831335032872551e-01	 2.743579447097384e+00
 6.046967770317851e-01	 9.953503700190042e-01	 2.443636243604816e+00
 5.817686288146687e-01	 1.006998052759889e+00	 2.159250927309766e+00
 5.585090473336621e-01	 1.018076768948577e+00	 1.891538677064621e+00
 5.349360529393340e-01	 1.028587663898750e+00	 1.641451514307809e+00
 5.110679222851237e-01	 1.038532791945217e+00	 1.409779819397500e+00
 7.436380254908355e-01	 9.251348741237905e-01	 4.642390348058107e+00
 7.227952327198275e-01	 9.403578711252182e-01	 4.290385597319693e+00
 7.015158118423985e-01	 9.550178852589556e-01	 3.943848067733423e+00
 6.798153201073739e-01	 9.691102809388428e-01	 3.604770649607453e+00
 6.577098939740799e-01	 9.826314018053828e-01	 3.275034429707067e+00
 6.352161985375724e-01	 9.955785706878293e-01	 2.956399007571728e+00
 6.123513754379838e-01	 1.007950085520931e+00	 2.650494429596082e+00
 5.891329895791025e-01	 1.019745211305930e+00	 2.358814782809973e+00
 5.655789749840383e-01	 1.030964168233969e+00	 2.082713459070209e+00
 5.417075801152568e-01	 1.041608116116776e+00	 1.823400070580696e+00
 5.175373129825247e-01	 1.051679135294118e+00	 1.581938970007821e+00
 4.528439381382665e-01	 9.202167830650881e-01	-3.629522828488684e-01
 4.314513768232033e-01	 9.285296325490469e-01	-3.805196387216974e-01
 4.098302069345520e-01	 9.363472213109786e-01	-3.866618938627306e-01
 3.879970091915094e-01	 9.436736622717951e-01	-3.823348142236112e-01
 3.659684029576717e-01	 9.505137794457966e-01	-3.687037461062466e-01
 3.437610012650071e-01	 9.568730786461752e-01	-3.471216505533143e-01
 3.213913671440240e-01	 9.627577163271481e-01	-3.191064335254419e-01
 2.988759714563226e-01	 9.681744667976357e-01	-2.863179282075956e-01
 2.762311524069802e-01	 9.731306880439857e-01	-2.505348631905258e-01
 2.534730768946626e-01	 9.776342863994822e-01	-2.136321228932938e-01
 2.306177038372821e-01	 9.816936802964242e-01	-1.775585756060321e-01
 4.593131590072458e-01	 9.333627813284101e-01	-1.171655573880693e-01
 4.376149886466910e-01	 9.417943862059641e-01	-1.674897709075893e-01
 4.156849438654171e-01	 9.497236551845435e-01	-2.040386863584487e-01
 3.935398422506571e-01	 9.571547599412135e-01	-2.278736065375400e-01
 3.711965405861093e-01	 9.640925934049352e-01	-2.402691824829160e-01
 3.486718892333965e-01	 9.705427400435856e-01	-2.426903130111535e-01
 3.259826878383746e-01	 9.765114442609666e-01	-2.367684000393044e-01
 3.031456425612923e-01	 9.820055771421120e-01	-2.242773267615332e-01
 2.801773250107800e-01	 9.870326017877615e-01	-2.071095009998265e-01
 2.570941330418183e-01	 9.916005374791478e-01	-1.872522765428841e-01
 2.339122535574748e-01	 9.957179229122425e-01	-1.667650322460803e-01
 4.657824198802068e-01	 9.465088608791018e-01	 1.101589773037437e-01
 4.437786385842050e-01	 9.550592218841775e-01	 3.032363427384333e-02
 4.215397170000070e-01	 9.631001717696162e-01	-3.377152381594328e-02
 3.990827095843820e-01	 9.706359409690051e-01	-8.325721015523957e-02
 3.764247105426354e-01	 9.776714913264067e-01	-1.194797140405897e-01
 3.535828075675455e-01	 9.842124859648724e-01	-1.439770405662189e-01
 3.305740369218143e-01	 9.902652572383446e-01	-1.584544544548017e-01
 3.074153400658280e-01	 9.958367730085771e-01	-1.647598017363812e-01
 2.841235220132461e-01	 1.000934601491359e+00	-1.648589566718068e-01
 2.607152115768244e-01	 1.005566874916577e+00	-1.608117102961821e-01
 2.372068236462269e-01	 1.009742252244628e+00	-1.547483824764546e-01
 4.722517154736102e-01	 9.596550109810310e-01	 3.219236755683856e-01
 4.499423216018179e-01	 9.683241287506192e-01	 2.156097276684306e-01
 4.273945215566904e-01	 9.764767601419596e-01	 1.266307751430460e-01
 4.046256066658366e-01	 9.841171943454887e-01	 5.382093590822645e-02
 3.816529085574754e-01	 9.912504621207464e-01	-4.201947993412114e-03
 3.584937522568462e-01	 9.978823052463918e-01	-4.901205342334647e-02
 3.351654106447973e-01	 1.004019144026986e+00	-8.235076074184433e-02
 3.116850604831456e-01	 1.009668043101530e+00	-1.061016563125787e-01
 2.880697401918619e-01	 1.014836675801436e+00	-1.222657019609898e-01
 2.643363095427450e-01	 1.019533287305854e+00	-1.329368884908724e-01
 2.405014114133076e-01	 1.023766656840262e+00	-1.402786550301047e-01
 4.787210405039172e-01	 9.728012208980670e-01	 5.208740834694590e-01
 4.561060326656015e-01	 9.815890959722186e-01	 3.909123791188247e-01
 4.332493527538352e-01	 9.898534093773371e-01	 2.795248136598569e-01
 4.101685289681732e-01	 9.975985090609815e-01	 1.855427946448129e-01
 3.868811303608555e-01	 1.004829494698492e+00	 1.075822708081937e-01
 3.634047192906908e-01	 1.011552186724500e+00	 4.406803369246282e-02
 3.397568052577777e-01	 1.017773093394594e+00	-6.741449459887416e-03
 3.159548003264608e-01	 1.023499376125470e+00	-4.672904660701271e-02
 2.920159763241100e-01	 1.028738813364647e+00	-7.789416293798146e-02
 2.679574239826443e-01	 1.033499763241064e+00	-1.023284490697822e-01
 2.437960141684862e-01	 1.037791125245829e+00	-1.221922948514096e-01
 4.851903896875877e-01	 9.859474798940765e-01	 7.096093924163820e-01
 4.622697667416281e-01	 9.948541127159070e-01	 5.586398634399024e-01
 4.391042058098099e-01	 1.003230108551511e+00	 4.271415898091369e-01
 4.157114719645438e-01	 1.011079874105801e+00	 3.139740394713215e-01
 3.921093716830018e-01	 1.018408577970179e+00	 2.177835447664493e-01
 3.683157046584720e-01	 1.025222119235553e+00	 1.370273072871160e-01
 3.443482170112096e-01	 1.031527094108872e+00	 6.999791645688402e-02
 3.202245561089890e-01	 1.037330760784897e+00	 1.484801188876306e-02
 2.959622271874740e-01	 1.042641002827651e+00	-3.038525279893167e-02
 2.715785519395862e-01	 1.047466291316291e+00	-6.775625494225745e-02
 2.470906292215318e-01	 1.051815646008011e+00	-9.938773148485947e-02
 4.916597577410830e-01	 9.990937772329286e-01	 8.905920681964477e-01
 4.684335187959697e-01	 1.008119168148615e+00	 7.210737823558122e-01
 4.449590759429830e-01	 1.016606846740247e+00	 5.715947619568031e-01
 4.212544311281008e-01	 1.024561278470266e+00	 4.410717072722730e-01
 3.973376282541404e-01	 1.031987700846347e+00	 3.282120022341484e-01
 3.732267043495814e-01	 1.038892091615907e+00	 2.315370911304495e-01
 3.489396421555473e-01	 1.045281134937523e+00	 1.494063604885851e-01
 3.244943243439466e-01	 1.051162185784308e+00	 8.004116509317982e-02
 2.999084895594364e-01	 1.056543232837103e+00	 2.154866406837042e-02
 2.751996904566350e-01	 1.061432860125619e+00	-2.805483569868894e-02
 2.503852538822138e-01	 1.065840207673492e+00	-7.082129703389461e-02
 4.981291393808635e-01	 1.012240102178491e+00	 1.066156730315882e+00
 4.745972837946981e-01	 1.021384251437272e+00	 8.803772917989543e-01
 4.508139583717224e-01	 1.029983613019306e+00	 7.148882705993749e-01
 4.267974019319963e-01	 1.038042711144692e+00	 5.686912555968215e-01
 4.025658958044973e-01	 1.045566852237530e+00	 4.405838250846286e-01
 3.781377143534123e-01	 1.052562092701918e+00	 3.291819734101336e-01
 3.535310769412447e-01	 1.059035204648252e+00	 2.329430427124417e-01
 3.287641015445488e-01	 1.064993639828203e+00	 1.501888112853449e-01
 3.038547602174806e-01	 1.070445492039662e+00	 7.912841593477427e-02
 2.788208365768544e-01	 1.075399458263132e+00	 1.788081577942080e-02
 2.536798854603012e-01	 1.079864798788953e+00	-3.550346193545795e-02
 5.045985293233903e-01	 1.025386443994631e+00	 1.238518348874601e+00
 4.807610567038857e-01	 1.034649351748811e+00	 1.038602696858345e+00
 4.566688483143969e-01	 1.043360396464453e+00	 8.589233743891667e-01
 4.323403798493825e-01	 1.051524161119399e+00	 6.985930774398974e-01
 4.077941700642985e-01	 1.059146021054265e+00	 5.565272745724068e-01
 3.830487306593562e-01	 1.066232111329943e+00	 4.314653706397937e-01
 3.581225176187561e-01	 1.072789292008759e+00	 3.219923833994676e-01
 3.330338842240117e-01	 1.078825111621081e+00	 2.265608007665925e-01
 3.078010359390897e-01	 1.084347769081983e+00	 1.435123106534397e-01
 2.824419873433090e-01	 1.089366074322916e+00	 7.109912363698134e-02
 2.569745212655634e-01	 1.093889407901079e+00	 7.504639947108593e-03
 5.110679222851237e-01	 1.038532791945217e+00	 1.409779819397499e+00
 4.869248324896047e-01	 1.047914458250161e+00	 1.197698470363688e+00
 4.625237409893745e-01	 1.056737186151450e+00	 1.005505152209898e+00
 4.378833603534112e-01	 1.065005617384702e+00	 8.324485216307105e-01
 4.130224467637700e-01	 1.072725196207091e+00	 6.775882599049075e-01
 3.879597492568058e-01	 1.079902136336336e+00	 5.398146693341475e-01
 3.627139604385357e-01	 1.086543385786751e+00	 4.178687977919948e-01
 3.373036688955508e-01	 1.092656589867441e+00	 3.103627788745227e-01
 3.117473135017467e-01	 1.098250052610725e+00	 2.158000972589771e-01
 2.860631397990623e-01	 1.103332696899054e+00	 1.325955148949405e-01
 2.602691586077694e-01	 1.107914023556551e+00	 5.909442252852504e-02
 5.175373129825247e-01	 1.051679135294118e+00	 1.581938970007821e+00
 4.930886061179270e-01	 1.061179560108253e+00	 1.359515745497062e+00
 4.683786316150236e-01	 1.070113971156061e+00	 1.156348517988005e+00
 4.434263389172353e-01	 1.078487068930921e+00	 9.718454620541850e-01
 4.182507216331380e-01	 1.086304366606542e+00	 8.052354895059395e-01
 3.928707661351534e-01	 1.093572156557455e+00	 6.555859823675170e-01
 3.673054016510371e-01	 1.100297474749929e+00	 5.218210760580118e-01
 3.415734520723819e-01	 1.106488063271783e+00	 4.027402035324212e-01
 3.156935896829346e-01	 1.112152331272543e+00	 2.970366306851606e-01
 2.896842909871788e-01	 1.117299314585631e+00	 2.033157365765412e-01
 2.635637947966888e-01	 1.121938634302054e+00	 1.201128180591140e-01
 2.306177038372821e-01	 9.816936802964242e-01	-1.775585756060321e-01
 2.076791456684508e-01	 9.853180020131134e-01	-1.445669442404967e-01
 1.846744644584667e-01	 9.885162853320296e-01	-1.155554011167439e-01
 1.616188232546627e-01	 9.912982639881665e-01	-9.042083491227793e-02
 1.385270506335802e-01	 9.936740343365396e-01	-6.899237667590086e-02
 1.154136152499789e-01	 9.956540178012000e-01	-5.103898418365649e-02
 9.229260277661536e-02	 9.972489236794971e-01	-3.627692657002024e-02
 6.917769523648026e-02	 9.984697124756582e-01	-2.437708575733621e-02
 4.608215271279750e-02	 9.993275599243346e-01	-1.497200319091796e-02
 2.301879740688172e-02	 9.998338218507749e-01	-7.662612202964603e-03
 0.000000000000000e+00	 1.000000000000000e+00	-2.024607736999862e-03
 2.339122535574748e-01	 9.957179229122425e-01	-1.667650322460803e-01
 2.106460005981401e-01	 9.993940208268849e-01	-1.474077811378316e-01
 1.873126799789159e-01	 1.002637994060108e+00	-1.296571959185551e-01
 1.639276713629985e-01	 1.005459715400836e+00	-1.136412272578262e-01
 1.405060151646193e-01	 1.007869425438318e+00	-9.943422562389026e-02
 1.170623867344659e-01	 1.009877694474696e+00	-8.706153188376264e-02
 9.361107297002917e-02	 1.011495384797892e+00	-7.650412116851513e-02
 7.016595135258435e-02	 1.012733613491392e+00	-6.770323611547990e-02
 4.674047139590386e-02	 1.013603715943827e+00	-6.056495293730935e-02
 2.334763847636898e-02	 1.014117210207157e+00	-5.496463123707462e-02
 0.000000000000000e+00	 1.014285762337685e+00	-5.075120588926296e-02
 2.372068236462269e-01	 1.009742252244628e+00	-1.547483824764546e-01
 2.136128738698931e-01	 1.013470126677695e+00	-1.479985176769136e-01
 1.899509118092326e-01	 1.016759790108138e+00	-1.406881490743292e-01
 1.662365337446358e-01	 1.019621254379648e+00	-1.331490801440300e-01
 1.424849919293242e-01	 1.022064904316569e+00	-1.256727856432751e-01
 1.187111684111829e-01	 1.024101459100028e+00	-1.185122746535372e-01
 9.492955131367173e-02	 1.025741934009444e+00	-1.118841432070794e-01
 7.115421357755045e-02	 1.026997602708497e+00	-1.059707708032249e-01
 4.739879414830253e-02	 1.027879960240767e+00	-1.009226182286724e-01
 2.367648157849975e-02	 1.028400686885902e+00	-9.686058758857063e-02
 0.000000000000000e+00	 1.028571613012482e+00	-9.387840920179968e-02
 2.405014114133076e-01	 1.023766656840262e+00	-1.402786550301065e-01
 2.165797630611406e-01	 1.027546308069888e+00	-1.452450969549171e-01
 1.925891577952661e-01	 1.030881661943092e+00	-1.476750014334667e-01
 1.685454085144206e-01	 1.033782869359052e+00	-1.480782014029116e-01
 1.444639793119431e-01	 1.036260459377960e+00	-1.469365981935242e-01
 1.203599589340152e-01	 1.038325300060698e+00	-1.447035546899937e-01
 9.624803673113642e-02	 1.039988559678984e+00	-1.418035983941008e-01
 7.214248110458996e-02	 1.041261668477513e+00	-1.386324055205561e-01
 4.805712043257780e-02	 1.042156281155644e+00	-1.355570365330312e-01
 2.400532644483619e-02	 1.042684240221567e+00	-1.329163934150985e-01
 0.000000000000000e+00	 1.042857540357000e+00	-1.310218693899357e-01
 2.437960141684862e-01	 1.037791125245829e+00	-1.221922948514096e-01
 2.195466657493138e-01	 1.041622553507811e+00	-1.381125344192142e-01
 1.952274157828656e-01	 1.045003598031943e+00	-1.496970393714219e-01
 1.708542937871995e-01	 1.047944548773499e+00	-1.576091596650269e-01
 1.464429756967243e-01	 1.050456079029154e+00	-1.624958473367726e-01
 1.220087569568486e-01	 1.052549205740208e+00	-1.649848293978895e-01
 9.756652814601643e-02	 1.054235250171347e+00	-1.656821955802923e-01
 7.313075312691415e-02	 1.055525799148979e+00	-1.651703875473767e-01
 4.871544971131398e-02	 1.056432667028950e+00	-1.640065720087813e-01
 2.433417280694042e-02	 1.056967858548713e+00	-1.627213768218994e-01
 0.000000000000000e+00	 1.057143532703853e+00	-1.618179665761232e-01
 2.470906292215318e-01	 1.051815646008011e+00	-9.938773148485724e-02
 2.225135795118439e-01	 1.055698851495811e+00	-1.256209757489883e-01
 1.978656836178807e-01	 1.059125586841663e+00	-1.458825877322592e-01
 1.731631876778185e-01	 1.062106281057438e+00	-1.609661629245771e-01
 1.484219794679158e-01	 1.064651751676819e+00	-1.716595795173990e-01
 1.236575611335684e-01	 1.066773164522058e+00	-1.787401930165391e-01
 9.888502448190516e-02	 1.068481993851369e+00	-1.829705358892277e-01
 7.411902883773439e-02	 1.069789983073437e+00	-1.850945230157319e-01
 4.937378144709543e-02	 1.070709106201178e+00	-1.858341564709609e-01
 2.466302039637459e-02	 1.071251530201898e+00	-1.858867169035738e-01
 0.000000000000000e+00	 1.071429578385649e+00	-1.859224235086643e-01
 2.503852538822138e-01	 1.065840207673492e+00	-7.082129703389461e-02
 2.254805019261618e-01	 1.069775190538234e+00	-1.068420656926945e-01
 2.005039591461607e-01	 1.073247616839224e+00	-1.354057794118919e-01
 1.754720883011241e-01	 1.076268054645321e+00	-1.574141833274934e-01
 1.504009890097659e-01	 1.078847465727620e+00	-1.737731426485065e-01
 1.253063701180602e-01	 1.080997164789749e+00	-1.853860937428427e-01
 1.002035246623959e-01	 1.082728779083882e+00	-1.931480762425339e-01
 7.510730743026205e-02	 1.084054208601425e+00	-1.979403597918084e-01
 5.003211510250640e-02	 1.084985587012820e+00	-2.006256691109236e-01
 2.499186894470083e-02	 1.085535243515682e+00	-2.020440022293921e-01
 0.000000000000000e+00	 1.085715665735001e+00	-2.030090290919482e-01
 2.536798854603012e-01	 1.079864798788953e+00	-3.550346193545795e-02
 2.284474305696987e-01	 1.083851559139426e+00	-8.089559961895798e-02
 2.031422402135546e-01	 1.087369676491597e+00	-1.174835764519375e-01
 1.777809937719622e-01	 1.090429857971597e+00	-1.462563058147461e-01
 1.523800027065227e-01	 1.093043209588223e+00	-1.682158245835268e-01
 1.269551825642095e-01	 1.095221194926783e+00	-1.843692285923400e-01
 1.015220276110820e-01	 1.096975594233721e+00	-1.957212514397582e-01
 7.609558809770840e-02	 1.098318464083486e+00	-2.032675118338783e-01
 5.069045014013127e-02	 1.099262097804365e+00	-2.079884423671308e-01
 2.532071818348128e-02	 1.099818986824623e+00	-2.108439015620838e-01
 0.000000000000000e+00	 1.100001783084519e+00	-2.127684612988689e-01
 2.569745212655634e-01	 1.093889407901079e+00	 7.504639947108593e-03
 2.314143630198855e-01	 1.097927945803735e+00	-4.694643242869234e-02
 2.057805246659121e-01	 1.101491754265755e+00	-9.137302009228820e-02
 1.800899022051794e-01	 1.104591679470715e+00	-1.268312805484284e-01
 1.543590189424344e-01	 1.107238971665294e+00	-1.543986730945321e-01
 1.286039971259017e-01	 1.109445243316661e+00	-1.751646000611446e-01
 1.028405322515567e-01	 1.111222427665721e+00	-1.902217405744602e-01
 7.708387003328478e-02	 1.112582737870157e+00	-2.006581123394835e-01
 5.134878602255434e-02	 1.113538626916308e+00	-2.075498826339259e-01
 2.564956784427809e-02	 1.114102748463282e+00	-2.119549367436309e-01
 0.000000000000000e+00	 1.114287918766816e+00	-2.149072005536659e-01
 2.602691586077694e-01	 1.107914023556551e+00	 5.909442252852504e-02
 2.343812968541535e-01	 1.112004339035504e+00	-4.201622041936748e-03
 2.084188103490823e-01	 1.115613838628670e+00	-5.636868951048246e-02
 1.823988117156219e-01	 1.118753507577126e+00	-9.851126107890118e-02
 1.563380361017490e-01	 1.121434740365498e+00	-1.317624812872644e-01
 1.302528124570224e-01	 1.123669298342884e+00	-1.572737202627552e-01
 1.041590375074133e-01	 1.125469267744714e+00	-1.762048650077690e-01
 7.807215243020260e-02	 1.126847018311981e+00	-1.897153842795689e-01
 5.200712221235990e-02	 1.127815162689139e+00	-1.989561956409560e-01
 2.597841765865338e-02	 1.128386516766216e+00	-2.050623487044083e-01
 0.000000000000000e+00	 1.128574061114501e+00	-2.091465255753662e-01
 2.635637947966888e-01	 1.121938634302054e+00	 1.201128180591140e-01
 2.373482296499335e-01	 1.126080727339082e+00	 4.809221304754296e-02
 2.110570951089145e-01	 1.129735918047314e+00	-1.180035100255061e-02
 1.847077204181358e-01	 1.132915330725281e+00	-6.069971201273083e-02
 1.583170525687149e-01	 1.135630504095502e+00	-9.977592398856427e-02
 1.319016272114572e-01	 1.137893348388953e+00	-1.302229496467184e-01
 1.054775423022452e-01	 1.139716102835537e+00	-1.532481063972748e-01
 7.906043448167313e-02	 1.141111293759497e+00	-1.700623180561640e-01
 5.266545817213228e-02	 1.142091693463350e+00	-1.818712073529378e-01
 2.630726735816929e-02	 1.142670280067985e+00	-1.898670484529619e-01
 0.000000000000000e+00	 1.142860198460186e+00	-1.952215844722685e-01
 1.142860198460186e+00	 0.000000000000000e+00	 1.522673800956609e+01
 1.142670280067985e+00	 2.630726735816965e-02	 1.520817834359057e+01
 1.142091693463350e+00	 5.266545817213261e-02	 1.517808723201098e+01
 1.141111293759497e+00	 7.906043448167339e-02	 1.513526454302754e+01
 1.139716102835537e+00	 1.054775423022454e-01	 1.507849807472979e+01
 1.137893348388953e+00	 1.319016272114574e-01	 1.500656967808314e+01
 1.135630504095502e+00	 1.583170525687151e-01	 1.491826203033090e+01
 1.132915330725281e+00	 1.847077204181359e-01	 1.481236605125358e+01
 1.129735918047314e+00	 2.110570951089146e-01	 1.468768894408572e+01
 1.126080727339082e+00	 2.373482296499335e-01	 1.454306283111329e+01
 1.121938634302054e+00	 2.635637947966888e-01	 1.437735394117228e+01
 1.157145321350848e+00	 0.000000000000000e+00	 1.498785173375914e+01
 1.156953029083323e+00	 2.663609370653390e-02	 1.496817271792414e+01
 1.156367210464742e+00	 5.332374738429320e-02	 1.493754394079408e+01
 1.155374556304495e+00	 8.004864635632550e-02	 1.489475567793995e+01
 1.153961926262349e+00	 1.067959534713262e-01	 1.483859083678766e+01
 1.152116388389058e+00	 1.335503248849476e-01	 1.476783178571461e+01
 1.149825259788246e+00	 1.602959285071759e-01	 1.468126785324591e+01
 1.147076148246399e+00	 1.870164651665215e-01	 1.457770348218776e+01
 1.143856994661234e+00	 2.136951925256247e-01	 1.445596701169889e+01
 1.140156116082579e+00	 2.403149517652857e-01	 1.431492004733983e+01
 1.135962249164317e+00	 2.668581970349608e-01	 1.415346736519368e+01
 1.171430429241259e+00	 0.000000000000000e+00	 1.476070382528102e+01
 1.171235763100916e+00	 2.696491970997891e-02	 1.474014546633490e+01
 1.170642712476017e+00	 5.398203590584637e-02	 1.470921274058719e+01
 1.169637803872298e+00	 8.103685719410998e-02	 1.466669427312202e+01
 1.168207734730349e+00	 1.081143632569114e-01	 1.461137552398560e+01
 1.166339413454362e+00	 1.351990208281577e-01	 1.454204620391374e+01
 1.164020000575990e+00	 1.622748023686339e-01	 1.445750837385203e+01
 1.161236950898263e+00	 1.893252074914670e-01	 1.435658520646035e+01
 1.157978056447746e+00	 2.163332871729747e-01	 1.423813037496467e+01
 1.154231490046761e+00	 2.432816707661114e-01	 1.410103802078108e+01
 1.149985849301752e+00	 2.701525958145355e-01	 1.394425323645681e+01
 1.185715523798227e+00	 0.000000000000000e+00	 1.454460284544773e+01
 1.185518483787291e+00	 2.729374540682903e-02	 1.452338899059429e+01
 1.184918201162855e+00	 5.464032381352620e-02	 1.449236383822675e+01
 1.183901038127150e+00	 8.202506711023397e-02	 1.445032184175083e+01
 1.182453529901738e+00	 1.094327718127217e-01	 1.439605800018091e+01
 1.180562425244395e+00	 1.368477152333390e-01	 1.432837574429788e+01
 1.178214728114948e+00	 1.642536743838632e-01	 1.424609551453335e+01
 1.175397740333110e+00	 1.916339476622378e-01	 1.414806400306888e+01
 1.172099105054432e+00	 2.189713793586628e-01	 1.403316401901570e+01
 1.168306850873861e+00	 2.462483869984567e-01	 1.390032492082797e+01
 1.164009436350526e+00	 2.734469915196950e-01	 1.374853354449041e+01
 1.200000606688556e+00	 0.000000000000000e+00	 1.433889028388307e+01
 1.199801192808974e+00	 2.762257083540859e-02	 1.431722939012242e+01
 1.199193678190934e+00	 5.529861118406665e-02	 1.428630219494482e+01
 1.198164260733292e+00	 8.301327621990451e-02	 1.424491601761212e+01
 1.196699313438714e+00	 1.107511792924778e-01	 1.419188194727446e+01
 1.194785425418687e+00	 1.384964082927426e-01	 1.412602308647995e+01
 1.192409444061335e+00	 1.662325447836382e-01	 1.404618348880606e+01
 1.189558518203180e+00	 1.939426859480992e-01	 1.395123775832645e+01
 1.186220142128876e+00	 2.216094693903864e-01	 1.384010126440157e+01
 1.182382200206109e+00	 2.492151008083671e-01	 1.371174090999171e+01
 1.178033011946810e+00	 2.767413845347217e-01	 1.356518637554531e+01
 1.214285679579051e+00	 0.000000000000000e+00	 1.414293862157182e+01
 1.214083891832494e+00	 2.795139603404196e-02	 1.412102447978131e+01
 1.213469145225935e+00	 5.595689809420178e-02	 1.409036548199756e+01
 1.212427473354969e+00	 8.400148463832864e-02	 1.404978843036162e+01
 1.210945087003475e+00	 1.120695858499002e-01	 1.399812664062228e+01
 1.209008415636766e+00	 1.401451001986199e-01	 1.393422843289465e+01
 1.206604150071366e+00	 1.682114137987335e-01	 1.385696631360799e+01
 1.203719286160712e+00	 1.962514226183162e-01	 1.376524681249490e+01
 1.200341169318661e+00	 2.242475575758435e-01	 1.365802092383529e+01
 1.196457539685740e+00	 2.521818125418887e-01	 1.353429508549344e+01
 1.192056577726769e+00	 2.800357752438980e-01	 1.339314261279825e+01
 1.228570744136519e+00	 0.000000000000000e+00	 1.395614952906482e+01
 1.228366582524378e+00	 2.828022104105345e-02	 1.393416194597808e+01
 1.227744603933536e+00	 5.661518462066559e-02	 1.390392217894146e+01
 1.226690677656422e+00	 8.498969248071346e-02	 1.386428272904161e+01
 1.225190852258222e+00	 1.133879916387098e-01	 1.381410487966921e+01
 1.223231397558160e+00	 1.417937911432220e-01	 1.375226732726083e+01
 1.220798847801256e+00	 1.701902816599234e-01	 1.367767549516993e+01
 1.217880045857944e+00	 1.985601579421542e-01	 1.358927149155830e+01
 1.214462188271370e+00	 2.268856442227320e-01	 1.348604465732991e+01
 1.210532870954982e+00	 2.551485225450670e-01	 1.336704263425664e+01
 1.206080135326573e+00	 2.833301640315056e-01	 1.323138286680137e+01
 1.242855802027764e+00	 0.000000000000000e+00	 1.377795218896025e+01
 1.242649266551153e+00	 2.860904589476743e-02	 1.375605762994831e+01
 1.242020055979417e+00	 5.727347084019214e-02	 1.372636980307812e+01
 1.240953875301895e+00	 8.597789986226598e-02	 1.368777274192254e+01
 1.239436610865154e+00	 1.147063968126271e-01	 1.363916106131437e+01
 1.237454372842400e+00	 1.434424813188002e-01	 1.357944862351242e+01
 1.234993538907220e+00	 1.721691485979826e-01	 1.350757787450083e+01
 1.232040798947115e+00	 2.008688921888784e-01	 1.342252980923912e+01
 1.228583200634588e+00	 2.295237296387498e-01	 1.332333450976079e+01
 1.224608195656070e+00	 2.581152311639481e-01	 1.320908218412999e+01
 1.220103686382390e+00	 2.866245512818271e-01	 1.307893461764964e+01
 1.257140854919592e+00	 0.000000000000000e+00	 1.360780173277452e+01
 1.256931945579345e+00	 2.893787063350823e-02	 1.358615392810180e+01
 1.256295503029258e+00	 5.793175682951539e-02	 1.355713325963278e+01
 1.255217067955632e+00	 8.696610689819327e-02	 1.351966076182471e+01
 1.253682364486469e+00	 1.160248015253727e-01	 1.347266938465322e+01
 1.251677343149015e+00	 1.450911709176057e-01	 1.341511259322736e+01
 1.249188225045472e+00	 1.741480148436853e-01	 1.334597361978863e+01
 1.246201547080464e+00	 2.031776256277540e-01	 1.326427532571323e+01
 1.242704208055896e+00	 2.321618141315945e-01	 1.316909061634090e+01
 1.238683515431234e+00	 2.610819387445777e-01	 1.305955333572963e+01
 1.234127232530387e+00	 2.899189373791445e-01	 1.293486955202317e+01
 1.271425904478810e+00	 0.000000000000000e+00	 1.344517778320458e+01
 1.271214621275483e+00	 2.926669529560020e-02	 1.342391830022262e+01
 1.270570946748737e+00	 5.859004266536945e-02	 1.339566330316944e+01
 1.269480257281874e+00	 8.795431370370244e-02	 1.335937594704931e+01
 1.267928114784366e+00	 1.173432059306674e-01	 1.331403217676214e+01
 1.265900310137534e+00	 1.467398601318897e-01	 1.325862916066020e+01
 1.263382907872229e+00	 1.761268806278061e-01	 1.319219435416051e+01
 1.260362291910229e+00	 2.054863585280462e-01	 1.311379515069766e+01
 1.256825212182878e+00	 2.347998980089641e-01	 1.302254906280093e+01
 1.252758831922707e+00	 2.640486456330018e-01	 1.291763436069319e+01
 1.248150775406733e+00	 2.932133227077401e-01	 1.279830107977534e+01
 1.285710952372222e+00	 0.000000000000000e+00	 1.328958309358391e+01
 1.285497295306093e+00	 2.959551991936768e-02	 1.326884187713360e+01
 1.284846388803535e+00	 5.924832842448829e-02	 1.324143510159002e+01
 1.283743444944865e+00	 8.894252039400048e-02	 1.320637282892627e+01
 1.282173863421045e+00	 1.186616101822318e-01	 1.316267833011004e+01
 1.280123275467486e+00	 1.483885491539035e-01	 1.310939625545260e+01
 1.277577589043704e+00	 1.781057461811192e-01	 1.304560140827318e+01
 1.274523035088650e+00	 2.077950911590204e-01	 1.297040807968113e+01
 1.270946214663118e+00	 2.374379815785564e-01	 1.288297988824022e+01
 1.266834146772720e+00	 2.670153521752661e-01	 1.278254005340088e+01
 1.262174316647597e+00	 2.965077076518963e-01	 1.266838201610047e+01
 1.121938634302054e+00	 2.635637947966888e-01	 1.437735394117228e+01
 1.117299314585631e+00	 2.896842909871785e-01	 1.419509918701184e+01
 1.112152331272543e+00	 3.156935896829344e-01	 1.400100791343935e+01
 1.106488063271783e+00	 3.415734520723818e-01	 1.379436105825598e+01
 1.100297474749929e+00	 3.673054016510370e-01	 1.357456805984106e+01
 1.093572156557455e+00	 3.928707661351533e-01	 1.334118121834215e+01
 1.086304366606542e+00	 4.182507216331378e-01	 1.309390960168533e+01
 1.078487068930921e+00	 4.434263389172351e-01	 1.283263226093707e+01
 1.070113971156061e+00	 4.683786316150235e-01	 1.255741050932810e+01
 1.061179560108253e+00	 4.930886061179267e-01	 1.226849901342658e+01
 1.051679135294118e+00	 5.175373129825247e-01	 1.196635544419062e+01
 1.135962249164317e+00	 2.668581970349608e-01	 1.415346736519368e+01
 1.131264940507173e+00	 2.933051850388362e-01	 1.397639648655890e+01
 1.126053622738153e+00	 3.196395856405782e-01	 1.378869492718934e+01
 1.120318554507902e+00	 3.458429320534967e-01	 1.358971704506774e+01
 1.114050587040045e+00	 3.718965168269621e-01	 1.337892714581309e+01
 1.107241206075309e+00	 3.977814342839482e-01	 1.315591189126829e+01
 1.099882572754026e+00	 4.234786252445681e-01	 1.292039233373366e+01
 1.091967563164214e+00	 4.489689238761272e-01	 1.267223537381721e+01
 1.083489806280113e+00	 4.742331064869885e-01	 1.241146443078971e+01
 1.074443720016364e+00	 4.992519420589114e-01	 1.213826910899503e+01
 1.064824545126001e+00	 5.240062442908520e-01	 1.185301364285144e+01
 1.149985849301752e+00	 2.701525958145355e-01	 1.394425323645681e+01
 1.145230551764896e+00	 2.969260752888895e-01	 1.377272792904649e+01
 1.139954899607613e+00	 3.235855774551876e-01	 1.359163665659560e+01
 1.134149031222319e+00	 3.501124075518628e-01	 1.340040154919935e+01
 1.127803684889805e+00	 3.764876271823806e-01	 1.319853769858635e+01
 1.120910241241152e+00	 4.026920972766797e-01	 1.298566377427695e+01
 1.113460764644947e+00	 4.287065233668244e-01	 1.276151233921632e+01
 1.105448043243582e+00	 4.545115030154289e-01	 1.252593969355246e+01
 1.096865627360146e+00	 4.800875752118876e-01	 1.227893506719866e+01
 1.087707865997702e+00	 5.054152715285448e-01	 1.202062897693384e+01
 1.077969941155748e+00	 5.304751688069794e-01	 1.175130056255068e+01
 1.164009436350526e+00	 2.734469915196950e-01	 1.374853354449041e+01
 1.159196149988179e+00	 3.005469621597157e-01	 1.358283054650766e+01
 1.153856163502768e+00	 3.275315655870698e-01	 1.340849738392656e+01
 1.147979495028594e+00	 3.543818790655260e-01	 1.322501857714371e+01
 1.141556769903712e+00	 3.810787332528600e-01	 1.303195614053653e+01
 1.134579263649660e+00	 4.076027556861920e-01	 1.282895856132427e+01
 1.127038943863363e+00	 4.339344166097565e-01	 1.261576954488338e+01
 1.118928510741666e+00	 4.600540769816966e-01	 1.239223638322381e+01
 1.110241435956580e+00	 4.859420384726595e-01	 1.215831779626927e+01
 1.100971999599649e+00	 5.115785952457937e-01	 1.191409109112028e+01
 1.091115324916893e+00	 5.369440872855219e-01	 1.165975848303402e+01
 1.178033011946810e+00	 2.767413845347217e-01	 1.356518637554531e+01
 1.173161736806400e+00	 3.041678460736917e-01	 1.340550151309629e+01
 1.167757416045464e+00	 3.314775504965320e-01	 1.323800499767272e+01
 1.161809947540286e+00	 3.586513470925324e-01	 1.306223861174160e+01
 1.155309843686275e+00	 3.856698355739673e-01	 1.287780763617322e+01
 1.148248274895508e+00	 4.125134100853290e-01	 1.268438834213514e+01
 1.140617111993330e+00	 4.391623055832140e-01	 1.248173530971268e+01
 1.132408967231106e+00	 4.655966464214871e-01	 1.226968845540674e+01
 1.123617233629833e+00	 4.917964969522419e-01	 1.204817964448499e+01
 1.114236122369594e+00	 5.177419139296247e-01	 1.181723876008937e+01
 1.104260697942969e+00	 5.434130004810946e-01	 1.157699909938711e+01
 1.192056577726769e+00	 2.800357752438980e-01	 1.339314261279825e+01
 1.187127313848934e+00	 3.077887274531949e-01	 1.323959460732996e+01
 1.181658658857547e+00	 3.354235326438813e-01	 1.307894725102443e+01
 1.175640390370952e+00	 3.629208121309280e-01	 1.291079470183638e+01
 1.169062907841999e+00	 3.902609346812700e-01	 1.273478204852295e+01
 1.161917276573373e+00	 4.174240610469351e-01	 1.255061146132586e+01
 1.154195270618903e+00	 4.443901908970469e-01	 1.235804822307851e+01
 1.145889414284543e+00	 4.711392119813576e-01	 1.215692654581124e+01
 1.136993021940326e+00	 4.976509513335730e-01	 1.194715507256415e+01
 1.127500235854920e+00	 5.239052282990043e-01	 1.172872196040881e+01
 1.117406061767513e+00	 5.498819091483128e-01	 1.150169943892113e+01
 1.206080135326573e+00	 2.833301640315056e-01	 1.323138286680137e+01
 1.201092882745161e+00	 3.114096067206020e-01	 1.308401692118231e+01
 1.195559893560861e+00	 3.393695124894245e-01	 1.293016828141715e+01
 1.189470825134154e+00	 3.671902746787588e-01	 1.276947882477572e+01
 1.182815963975389e+00	 3.948520311103353e-01	 1.260163017765846e+01
 1.175586270277928e+00	 4.223347091438544e-01	 1.242634866645929e+01
 1.167773421324141e+00	 4.496180731611049e-01	 1.224341019610617e+01
 1.159369853474618e+00	 4.766817743078645e-01	 1.205264498181914e+01
 1.150368802448477e+00	 5.035054022995908e-01	 1.185394205499797e+01
 1.140764341603015e+00	 5.300685390728993e-01	 1.164725346078296e+01
 1.130551417924058e+00	 5.563508140417918e-01	 1.143259806296072e+01
 1.220103686382390e+00	 2.866245512818271e-01	 1.307893461764964e+01
 1.215058445124458e+00	 3.150304842982906e-01	 1.293772579616126e+01
 1.209461121777253e+00	 3.433154904934693e-01	 1.279056537013622e+01
 1.203301253443449e+00	 3.714597352340707e-01	 1.263713849980480e+01
 1.196569013690954e+00	 3.994431253967306e-01	 1.247716025867031e+01
 1.189255257603850e+00	 4.272453549489311e-01	 1.231037952178268e+01
 1.181351565693099e+00	 4.548459529852373e-01	 1.213658282261980e+01
 1.172850286373970e+00	 4.822243340475645e-01	 1.195559812218870e+01
 1.163744576714707e+00	 5.093598505332340e-01	 1.176729842999695e+01
 1.154028441161263e+00	 5.362318469702763e-01	 1.157160521349157e+01
 1.143696767946139e+00	 5.628197159161465e-01	 1.136849153060817e+01
 1.234127232530387e+00	 2.899189373791445e-01	 1.293486955202317e+01
 1.229024002616201e+00	 3.186513606086377e-01	 1.279972596831517e+01
 1.223362345128567e+00	 3.472614671163222e-01	 1.265908592288324e+01
 1.217131676912398e+00	 3.757291942949100e-01	 1.251267363239130e+01
 1.210322058593197e+00	 4.040342180760229e-01	 1.236023469844067e+01
 1.202924240145814e+00	 4.321559990350092e-01	 1.220153906651164e+01
 1.194929705309834e+00	 4.600738309792942e-01	 1.203638398823630e+01
 1.186330714555242e+00	 4.877668918470147e-01	 1.186459694635364e+01
 1.177120346299433e+00	 5.152142967174402e-01	 1.168603849833338e+01
 1.167292536077051e+00	 5.423951527101019e-01	 1.150060499189503e+01
 1.156842113367289e+00	 5.692886155259922e-01	 1.130823110364267e+01
 1.248150775406733e+00	 2.932133227077401e-01	 1.279830107977534e+01
 1.242989556849769e+00	 3.222722360740202e-01	 1.266906690573259e+01
 1.237263565236651e+00	 3.512074428182910e-01	 1.253472465392317e+01
 1.230962097154558e+00	 3.799986523593224e-01	 1.239503357131685e+01
 1.224075100286626e+00	 4.086253096837797e-01	 1.224976703243527e+01
 1.216593219498494e+00	 4.370666419749334e-01	 1.209871469842424e+01
 1.208507841758404e+00	 4.653017077531252e-01	 1.194168470808575e+01
 1.199811139591073e+00	 4.933094483527717e-01	 1.177850587368349e+01
 1.190496112763076e+00	 5.210687415351478e-01	 1.160902985150171e+01
 1.180556627897764e+00	 5.485584570113426e-01	 1.143313325465097e+01
 1.169987455721043e+00	 5.757575136259440e-01	 1.125071967358645e+01
 1.262174316647597e+00	 2.965077076518963e-01	 1.266838201610047e+01
 1.256955109454539e+00	 3.258931111168156e-01	 1.254484032356216e+01
 1.251164783723348e+00	 3.551534180596824e-01	 1.241652095797628e+01
 1.244792515783490e+00	 3.842681099253539e-01	 1.228321436198474e+01
 1.237828140375747e+00	 4.132164007555682e-01	 1.214471908439881e+01
 1.230262197256569e+00	 4.419772843415474e-01	 1.200084326523903e+01
 1.222085976622863e+00	 4.705295839165800e-01	 1.185140617537454e+01
 1.213291563054103e+00	 4.988520042113921e-01	 1.169623979481725e+01
 1.203871877666055e+00	 5.269231856692950e-01	 1.153519041135879e+01
 1.193820718170790e+00	 5.547217605929656e-01	 1.136812021900656e+01
 1.183132796540936e+00	 5.822264109706171e-01	 1.119490889365675e+01
 1.051679135294118e+00	 5.175373129825247e-01	 1.196635544419062e+01
 1.041608116116776e+00	 5.417075801152571e-01	 1.165194666169892e+01
 1.030964168233969e+00	 5.655789749840386e-01	 1.132651920125222e+01
 1.019745211305930e+00	 5.891329895791028e-01	 1.099113365149386e+01
 1.007950085520931e+00	 6.123513754379840e-01	 1.064696967891924e+01
 9.955785706878293e-01	 6.352161985375726e-01	 1.029532205069414e+01
 9.826314018053823e-01	 6.577098939740801e-01	 9.937595224902429e+00
 9.691102809388425e-01	 6.798153201073742e-01	 9.575296509652985e+00
 9.550178852589553e-01	 7.015158118423989e-01	 9.210027818995330e+00
 9.403578711252181e-01	 7.227952327198277e-01	 8.843476081043855e+00
 9.251348741237903e-01	 7.436380254908352e-01	 8.477402381357088e+00
 1.064824545126001e+00	 5.240062442908520e-01	 1.185301364285144e+01
 1.054627643757190e+00	 5.484786264475274e-01	 1.155629704916454e+01
 1.043850652389678e+00	 5.726484006014743e-01	 1.124904801877451e+01
 1.032491464680596e+00	 5.964968274030253e-01	 1.093227544800628e+01
 1.020548906321208e+00	 6.200054302940132e-01	 1.060708678640216e+01
 1.008022754368101e+00	 6.431560510859452e-01	 1.027468364213316e+01
 9.949137530071114e-01	 6.659309053234386e-01	 9.936356186178088e+00
 9.812236255783677e-01	 6.883126371053294e-01	 9.593476372037152e+00
 9.669550827157742e-01	 7.102843730320811e-01	 9.247490010385272e+00
 9.521118264813074e-01	 7.318297749475440e-01	 8.899907761130700e+00
 9.366985504033987e-01	 7.529330911458786e-01	 8.552295128195009e+00
 1.077969941155748e+00	 5.304751688069794e-01	 1.175130056255068e+01
 1.067647157727559e+00	 5.552496656704091e-01	 1.147121246374521e+01
 1.056737123014926e+00	 5.797178187962588e-01	 1.118099994879656e+01
 1.045237704671911e+00	 6.038606574951999e-01	 1.088162099986543e+01
 1.033147713892791e+00	 6.276594771135987e-01	 1.057411355595770e+01
 1.020466924981896e+00	 6.510958952978120e-01	 1.025959077167423e+01
 1.007196091312141e+00	 6.741519080410896e-01	 9.939235285563091e+00
 9.933369574985162e-01	 6.968099451814584e-01	 9.614292528348093e+00
 9.788922676380573e-01	 7.190529250151160e-01	 9.286063120389915e+00
 9.638657694951804e-01	 7.408643076892963e-01	 8.955894426791685e+00
 9.482622145405371e-01	 7.622281470413493e-01	 8.625171357042444e+00
 1.091115324916893e+00	 5.369440872855219e-01	 1.165975848303402e+01
 1.080666659546745e+00	 5.620206985737621e-01	 1.139527599579722e+01
 1.069623581613069e+00	 5.867872303930618e-01	 1.112100844180633e+01
 1.057983932766892e+00	 6.112244807146443e-01	 1.083786377697116e+01
 1.045746509705525e+00	 6.353135167896200e-01	 1.054681318678970e+01
 1.032911083981049e+00	 6.590357320994003e-01	 1.024888606644056e+01
 1.019478418153453e+00	 6.823729030860695e-01	 9.945164201335642e+00
 1.005450278112578e+00	 7.053072453270419e-01	 9.636775190139490e+00
 9.908294414185685e-01	 7.278214688144412e-01	 9.324885168109340e+00
 9.756197015382420e-01	 7.498988319990696e-01	 9.010690904032986e+00
 9.598258678844229e-01	 7.715231942616434e-01	 8.695411358574450e+00
 1.104260697942969e+00	 5.434130004810946e-01	 1.157699909938711e+01
 1.093686150733604e+00	 5.687917259474445e-01	 1.132713820767827e+01
 1.082510029687462e+00	 5.938566362165515e-01	 1.106777202222980e+01
 1.070730150452557e+00	 6.185882979203762e-01	 1.079975946514702e+01
 1.058345295229253e+00	 6.429675502149553e-01	 1.052400777364981e+01
 1.045355232817389e+00	 6.669755624169363e-01	 1.024146726690192e+01
 1.031760734964027e+00	 6.905938914174142e-01	 9.953125484681651e+00
 1.017563588833845e+00	 7.138045385333613e-01	 9.660000749913857e+00
 1.002766605450071e+00	 7.365900054529947e-01	 9.363135220008154e+00
 9.873736239818964e-01	 7.589333489308475e-01	 9.063587504102861e+00
 9.713895117842751e-01	 7.808182338911576e-01	 8.762424934309822e+00
 1.117406061767513e+00	 5.498819091483128e-01	 1.150169943892113e+01
 1.106705632806998e+00	 5.755627485813165e-01	 1.126551316496937e+01
 1.095396468741459e+00	 6.009260370913970e-01	 1.102005046073838e+01
 1.083476359215923e+00	 6.259521099714127e-01	 1.076612230658942e+01
 1.070944071933819e+00	 6.506215782824841e-01	 1.050457484262662e+01
 1.057799372942749e+00	 6.749153871766472e-01	 1.023628398517000e+01
 1.044043043176842e+00	 6.988148739941590e-01	 9.962149567451478e+00
 1.029676891075605e+00	 7.223018257916974e-01	 9.683089064900416e+00
 1.014703761125330e+00	 7.453585359537156e-01	 9.400030975691431e+00
 9.991275381975498e-01	 7.679678595386151e-01	 9.113907936472824e+00
 9.829531475893118e-01	 7.901132670142886e-01	 8.825649661047144e+00
 1.130551417924058e+00	 5.563508140417918e-01	 1.143259806296072e+01
 1.119725107285783e+00	 5.823337672652362e-01	 1.120917474462127e+01
 1.108282900278415e+00	 6.079954338422673e-01	 1.097666121363643e+01
 1.096222560544009e+00	 6.333159177267716e-01	 1.073582169566470e+01
 1.083542841289068e+00	 6.582756018850847e-01	 1.048744412865267e+01
 1.070243505808959e+00	 6.828552073047597e-01	 1.023233468948616e+01
 1.056325344224879e+00	 7.070358517753396e-01	 9.971311978702825e+00
 1.041790186251149e+00	 7.307991080933313e-01	 9.705200930359027e+00
 1.026640909837109e+00	 7.541270613395418e-01	 9.434826522135015e+00
 1.010881445556606e+00	 7.770023648763554e-01	 9.161007367441890e+00
 9.945167766487508e-01	 7.994082947154326e-01	 8.884549276401120e+00
 1.143696767946139e+00	 5.628197159161465e-01	 1.136849153060817e+01
 1.132744575688819e+00	 5.891047827890633e-01	 1.115695319774127e+01
 1.121169325801685e+00	 6.150648272938309e-01	 1.093647610783686e+01
 1.108968755923832e+00	 6.406797220454709e-01	 1.070777900950636e+01
 1.096141604764842e+00	 6.659296219156364e-01	 1.047159457527829e+01
 1.082687632867852e+00	 6.907950237275002e-01	 1.022866389669997e+01
 1.068607639541119e+00	 7.152568257199923e-01	 9.979730753228358e+00
 1.053903475773768e+00	 7.392963864295434e-01	 9.725535727159951e+00
 1.038578052978170e+00	 7.628955826334110e-01	 9.466810242814500e+00
 1.022635347430469e+00	 7.860368659980541e-01	 9.204270612646134e+00
 1.006080400311810e+00	 8.087033180789859e-01	 8.938612175694161e+00
 1.156842113367289e+00	 5.692886155259922e-01	 1.130823110364266e+01
 1.145764039534964e+00	 5.958757959426564e-01	 1.110773194676257e+01
 1.134055746814624e+00	 6.221342182707570e-01	 1.089841825188751e+01
 1.121714946842410e+00	 6.480435237865279e-01	 1.068096465473288e+01
 1.108740363830987e+00	 6.735836392670183e-01	 1.045605153903023e+01
 1.095131755571259e+00	 6.987348373710959e-01	 1.022435955619165e+01
 1.080889930558540e+00	 7.234777967871520e-01	 9.986564016795496e+00
 1.066016761056750e+00	 7.477936617916149e-01	 9.743329229774066e+00
 1.050515191941278e+00	 7.716641008582622e-01	 9.495302869410247e+00
 1.034389245190546e+00	 7.950713639576943e-01	 9.243110452820286e+00
 1.017644019927708e+00	 8.179983381893458e-01	 8.987350011344693e+00
 1.169987455721043e+00	 5.757575136259440e-01	 1.125071967358646e+01
 1.158783500343078e+00	 6.026468075158748e-01	 1.106044459855968e+01
 1.146942164820587e+00	 6.292036075977139e-01	 1.086145915526673e+01
 1.134461134786759e+00	 6.554073238089599e-01	 1.065439531328613e+01
 1.121339119957345e+00	 6.812376548321089e-01	 1.043988418226192e+01
 1.107575875371013e+00	 7.066746491617736e-01	 1.021855061017978e+01
 1.093172218710124e+00	 7.316987659358548e-01	 9.991007734197323e+00
 1.078130043513388e+00	 7.562909351708273e-01	 9.757851562056118e+00
 1.062452328119198e+00	 7.804326170370328e-01	 9.519655664873103e+00
 1.046143140208240e+00	 8.041058598092611e-01	 9.276966063116648e+00
 1.029207636845662e+00	 8.272933561309074e-01	 9.030296386689388e+00
 1.183132796540936e+00	 5.822264109706171e-01	 1.119490889365675e+01
 1.171802959632020e+00	 6.094178182985777e-01	 1.101407215671185e+01
 1.159828581322929e+00	 6.362729960993709e-01	 1.082461603974760e+01
 1.147207321243899e+00	 6.627711229717850e-01	 1.062713137190136e+01
 1.133937874613762e+00	 6.888916695037870e-01	 1.042220303983346e+01
 1.120019993718943e+00	 7.146144600257595e-01	 1.021040471669336e+01
 1.105454505428850e+00	 7.399197341251366e-01	 9.992293607450710e+00
 1.090243324556970e+00	 7.647882075584607e-01	 9.768405289324606e+00
 1.074389462904693e+00	 7.892011321926621e-01	 9.539248727632804e+00
 1.057897033854956e+00	 8.131403546067386e-01	 9.305301547147931e+00
 1.040771252414892e+00	 8.365883729880681e-01	 9.067005636893818e+00
 9.251348741237903e-01	 7.436380254908352e-01	 8.477402381357088e+00
 9.093545026181421e-01	 7.640292626408308e-01	 8.106134313979622e+00
 8.930233224044176e-01	 7.839546983243546e-01	 7.724584418176178e+00
 8.761488515538501e-01	 8.034008071342293e-01	 7.335506447908021e+00
 8.587395464156911e-01	 8.223548237211875e-01	 6.941727004236656e+00
 8.408047812142654e-01	 8.408047812142655e-01	 6.546124567129509e+00
 8.223548237211870e-01	 8.587395464156912e-01	 6.151607810926548e+00
 8.034008071342290e-01	 8.761488515538506e-01	 5.761093508710251e+00
 7.839546983243543e-01	 8.930233224044180e-01	 5.377484340007674e+00
 7.640292626408302e-01	 9.093545026181423e-01	 5.003646918138902e+00
 7.436380254908355e-01	 9.251348741237905e-01	 4.642390348058107e+00
 9.366985504033987e-01	 7.529330911458786e-01	 8.552295128195009e+00
 9.207209329469740e-01	 7.735792075268062e-01	 8.198791147942632e+00
 9.041856219770256e-01	 7.937537001796383e-01	 7.834166822955554e+00
 8.871002295365527e-01	 8.134428746370428e-01	 7.461040147431616e+00
 8.694733176745297e-01	 8.326338059899012e-01	 7.082107029280349e+00
 8.513143777879396e-01	 8.513143777879398e-01	 6.700121394249137e+00
 8.326338059899007e-01	 8.694733176745300e-01	 6.317874510955331e+00
 8.134428746370425e-01	 8.871002295365529e-01	 5.938173827578296e+00
 7.937537001796382e-01	 9.041856219770259e-01	 5.563821621534835e+00
 7.735792075268058e-01	 9.207209329469740e-01	 5.197593767041149e+00
 7.529330911458786e-01	 9.366985504033989e-01	 4.842218921947198e+00
 9.482622145405371e-01	 7.622281470413493e-01	 8.625171357042444e+00
 9.320873513404406e-01	 7.831291423855008e-01	 8.287905668308012e+00
 9.153479098286428e-01	 8.035526917460267e-01	 7.938780698245437e+00
 8.980515960197999e-01	 8.234849315956234e-01	 7.580283568371061e+00
 8.802070776624943e-01	 8.429127774654996e-01	 7.214983731032473e+00
 8.618239633262329e-01	 8.618239633262332e-01	 6.845514105749615e+00
 8.429127774654992e-01	 8.802070776624945e-01	 6.474551381288267e+00
 8.234849315956231e-01	 8.980515960198002e-01	 6.104795760200558e+00
 8.035526917460263e-01	 9.153479098286429e-01	 5.738950434374397e+00
 7.831291423855004e-01	 9.320873513404410e-01	 5.379701085248900e+00
 7.622281470413493e-01	 9.482622145405372e-01	 5.029695700624640e+00
 9.598258678844229e-01	 7.715231942616434e-01	 8.695411358574450e+00
 9.434537591247535e-01	 7.926790683310672e-01	 8.372985982657568e+00
 9.265101872616607e-01	 8.133516741667508e-01	 8.038058249127802e+00
 9.090029522813683e-01	 8.335269791815854e-01	 7.692989266995715e+00
 8.909408276319577e-01	 8.531917393472582e-01	 7.340226261986702e+00
 8.723335390553479e-01	 8.723335390553483e-01	 6.982284705492969e+00
 8.531917393472578e-01	 8.909408276319581e-01	 6.621729561470352e+00
 8.335269791815850e-01	 9.090029522813686e-01	 6.261155914463173e+00
 8.133516741667507e-01	 9.265101872616610e-01	 5.903169254837285e+00
 7.926790683310669e-01	 9.434537591247538e-01	 5.550365703798821e+00
 7.715231942616434e-01	 9.598258678844229e-01	 5.205312460681351e+00
 9.713895117842751e-01	 7.808182338911576e-01	 8.762424934309822e+00
 9.548201576261218e-01	 8.022289864776585e-01	 8.453563622991382e+00
 9.376724555784728e-01	 8.231506485850438e-01	 8.131649195764846e+00
 9.199542995990326e-01	 8.435690185665407e-01	 7.798921583685291e+00
 9.016745688352942e-01	 8.634706928344529e-01	 7.457710006557912e+00
 8.828431062014854e-01	 8.828431062014855e-01	 7.110416055372269e+00
 8.634706928344525e-01	 9.016745688352944e-01	 6.759495852098002e+00
 8.435690185665403e-01	 9.199542995990332e-01	 6.407441536933201e+00
 8.231506485850433e-01	 9.376724555784728e-01	 6.056762346943930e+00
 8.022289864776583e-01	 9.548201576261224e-01	 5.709965557760487e+00
 7.808182338911576e-01	 9.713895117842752e-01	 5.369537561382765e+00
 9.829531475893118e-01	 7.901132670142886e-01	 8.825649661047144e+00
 9.661865481707581e-01	 8.117788979394280e-01	 8.529192168205981e+00
 9.488347160814705e-01	 8.329496161441370e-01	 8.219219743499227e+00
 9.309056392505691e-01	 8.536110509221023e-01	 7.897855950156984e+00
 9.124083025248777e-01	 8.737496391263593e-01	 7.567316214915492e+00
 8.933526659908472e-01	 8.933526659908475e-01	 7.229891825259816e+00
 8.737496391263588e-01	 9.124083025248780e-01	 6.887932970471930e+00
 8.536110509221021e-01	 9.309056392505696e-01	 6.543831063941375e+00
 8.329496161441363e-01	 9.488347160814706e-01	 6.200000598850908e+00
 8.117788979394276e-01	 9.661865481707583e-01	 5.858860798161924e+00
 7.901132670142885e-01	 9.829531475893116e-01	 5.522817322541502e+00
 9.945167766487508e-01	 7.994082947154326e-01	 8.884549276401120e+00
 9.775529320848717e-01	 8.213288038305283e-01	 8.599445962690275e+00
 9.599969700730466e-01	 8.427485779872628e-01	 8.300451624816564e+00
 9.418569725137537e-01	 8.636530774198836e-01	 7.989578245030961e+00
 9.231420299530818e-01	 8.840285794222529e-01	 7.668931662366509e+00
 9.038622196496362e-01	 9.038622196496365e-01	 7.340696446447863e+00
 8.840285794222525e-01	 9.231420299530823e-01	 7.007119788411690e+00
 8.636530774198832e-01	 9.418569725137540e-01	 6.670494634212461e+00
 8.427485779872623e-01	 9.599969700730470e-01	 6.333142300914895e+00
 8.213288038305280e-01	 9.775529320848719e-01	 5.997394826329615e+00
 7.994082947154325e-01	 9.945167766487507e-01	 5.665577306248015e+00
 1.006080400311810e+00	 8.087033180789859e-01	 8.938612175694161e+00
 9.889193106946728e-01	 8.308787052651121e-01	 8.663918923304417e+00
 9.711592188555936e-01	 8.525475352576530e-01	 8.375041207386985e+00
 9.528083006663611e-01	 8.736950992314974e-01	 8.073884193845013e+00
 9.338757523722805e-01	 8.943075149214100e-01	 7.762448332232127e+00
 9.143717684040532e-01	 9.143717684040537e-01	 7.442815068300492e+00
 8.943075149214097e-01	 9.338757523722809e-01	 7.117131553667276e+00
 8.736950992314970e-01	 9.528083006663611e-01	 6.787594566137882e+00
 8.525475352576527e-01	 9.711592188555939e-01	 6.456433870091008e+00
 8.308787052651120e-01	 9.889193106946730e-01	 6.125895256886444e+00
 8.087033180789860e-01	 1.006080400311810e+00	 5.798223510195635e+00
 1.017644019927708e+00	 8.179983381893458e-01	 8.987350011344693e+00
 1.000285685326373e+00	 8.404286033573330e-01	 8.722223427710453e+00
 9.823214637315038e-01	 8.623464890985402e-01	 8.442698662929303e+00
 9.637596249861673e-01	 8.837371175285563e-01	 8.150578809981983e+00
 9.446094710348477e-01	 9.045864468231064e-01	 7.847763120348748e+00
 9.248813134803007e-01	 9.248813134803011e-01	 7.536233517861662e+00
 9.045864468231058e-01	 9.446094710348479e-01	 7.218040096232675e+00
 8.837371175285563e-01	 9.637596249861677e-01	 6.895285802502980e+00
 8.623464890985397e-01	 9.823214637315040e-01	 6.570110524934405e+00
 8.404286033573327e-01	 1.000285685326373e+00	 6.244674815083112e+00
 8.179983381893455e-01	 1.017644019927708e+00	 5.921143479633173e+00
 1.029207636845662e+00	 8.272933561309074e-01	 9.030296386689388e+00
 1.011652057306182e+00	 8.499784992213438e-01	 8.773989277655623e+00
 9.934837060031694e-01	 8.721454406531562e-01	 8.503147192113023e+00
 9.747109467509483e-01	 8.937791334826740e-01	 8.219475873291833e+00
 9.553431871931574e-01	 9.148653763266172e-01	 7.924777559492860e+00
 9.353908561045803e-01	 9.353908561045807e-01	 7.620938262186410e+00
 9.148653763266166e-01	 9.553431871931575e-01	 7.309914020749064e+00
 8.937791334826736e-01	 9.747109467509487e-01	 6.993716325229444e+00
 8.721454406531558e-01	 9.934837060031696e-01	 6.674396915091188e+00
 8.499784992213435e-01	 1.011652057306182e+00	 6.354032173628122e+00
 8.272933561309074e-01	 1.029207636845662e+00	 6.034707344345740e+00
 1.040771252414892e+00	 8.365883729880681e-01	 9.067005636893818e+00
 1.023018427960310e+00	 8.595283939712974e-01	 8.818862731377914e+00
 1.004645946972983e+00	 8.819443910647330e-01	 8.556122301139654e+00
 9.856622672384795e-01	 9.038211482654626e-01	 8.280397443476106e+00
 9.660769020995830e-01	 9.251443046312183e-01	 7.993397562179236e+00
 9.459003975030937e-01	 9.459003975030944e-01	 7.696916373183589e+00
 9.251443046312178e-01	 9.660769020995831e-01	 7.392818886079606e+00
 9.038211482654623e-01	 9.856622672384796e-01	 7.083027542464979e+00
 8.819443910647331e-01	 1.004645946972983e+00	 6.769507708818162e+00
 8.595283939712971e-01	 1.023018427960311e+00	 6.454252733723056e+00
 8.365883729880681e-01	 1.040771252414892e+00	 6.139268786495624e+00
 7.436380254908355e-01	 9.251348741237905e-01	 4.642390348058107e+00
 7.227952327198275e-01	 9.403578711252182e-01	 4.290385597319692e+00
 7.015158118423985e-01	 9.550178852589556e-01	 3.943848067733423e+00
 6.798153201073739e-01	 9.691102809388428e-01	 3.604770649607453e+00
 6.577098939740799e-01	 9.826314018053828e-01	 3.275034429707064e+00
 6.352161985375724e-01	 9.955785706878293e-01	 2.956399007571730e+00
 6.123513754379838e-01	 1.007950085520931e+00	 2.650494429596082e+00
 5.891329895791025e-01	 1.019745211305930e+00	 2.358814782809970e+00
 5.655789749840383e-01	 1.030964168233969e+00	 2.082713459070209e+00
 5.417075801152568e-01	 1.041608116116776e+00	 1.823400070580696e+00
 5.175373129825247e-01	 1.051679135294118e+00	 1.581938970007823e+00
 7.529330911458786e-01	 9.366985504033989e-01	 4.842218921947198e+00
 7.318297749475436e-01	 9.521118264813079e-01	 4.494231704894635e+00
 7.102843730320807e-01	 9.669550827157742e-01	 4.149798047328270e+00
 6.883126371053290e-01	 9.812236255783680e-01	 3.810989343143826e+00
 6.659309053234379e-01	 9.949137530071112e-01	 3.479791528075245e+00
 6.431560510859449e-01	 1.008022754368101e+00	 3.158093777894962e+00
 6.200054302940129e-01	 1.020548906321208e+00	 2.847678584153219e+00
 5.964968274030251e-01	 1.032491464680596e+00	 2.550213285823440e+00
 5.726484006014738e-01	 1.043850652389678e+00	 2.267243106214337e+00
 5.484786264475269e-01	 1.054627643757190e+00	 2.000185715942504e+00
 5.240062442908519e-01	 1.064824545126001e+00	 1.750327315371273e+00
 7.622281470413493e-01	 9.482622145405372e-01	 5.029695700624640e+00
 7.408643076892962e-01	 9.638657694951810e-01	 4.685373675543599e+00
 7.190529250151156e-01	 9.788922676380574e-01	 4.342885877726482e+00
 6.968099451814580e-01	 9.933369574985162e-01	 4.004369473120104e+00
 6.741519080410894e-01	 1.007196091312142e+00	 3.671900167690978e+00
 6.510958952978116e-01	 1.020466924981897e+00	 3.347479469811883e+00
 6.276594771135983e-01	 1.033147713892791e+00	 3.033023109691310e+00
 6.038606574951996e-01	 1.045237704671911e+00	 2.730350726979371e+00
 5.797178187962586e-01	 1.056737123014926e+00	 2.441176910753774e+00
 5.552496656704088e-01	 1.067647157727559e+00	 2.167103648698341e+00
 5.304751688069793e-01	 1.077969941155748e+00	 1.909614215204084e+00
 7.715231942616434e-01	 9.598258678844229e-01	 5.205312460681351e+00
 7.498988319990690e-01	 9.756197015382422e-01	 4.864389977218442e+00
 7.278214688144408e-01	 9.908294414185691e-01	 4.523763876256668e+00
 7.053072453270417e-01	 1.005450278112579e+00	 4.185624923625488e+00
 6.823729030860691e-01	 1.019478418153453e+00	 3.852124146101490e+00
 6.590357320993998e-01	 1.032911083981049e+00	 3.525358834495751e+00
 6.353135167896196e-01	 1.045746509705525e+00	 3.207359502522670e+00
 6.112244807146440e-01	 1.057983932766892e+00	 2.900077941790114e+00
 5.867872303930614e-01	 1.069623581613069e+00	 2.605376488255334e+00
 5.620206985737617e-01	 1.080666659546745e+00	 2.325018589229935e+00
 5.369440872855219e-01	 1.091115324916893e+00	 2.060660733271658e+00
 7.808182338911576e-01	 9.713895117842752e-01	 5.369537561382765e+00
 7.589333489308472e-01	 9.873736239818964e-01	 5.031831532214478e+00
 7.365900054529944e-01	 1.002766605450072e+00	 4.693053297748671e+00
 7.138045385333609e-01	 1.017563588833845e+00	 4.355435584264184e+00
 6.905938914174139e-01	 1.031760734964027e+00	 4.021190889275957e+00
 6.669755624169360e-01	 1.045355232817389e+00	 3.692496396324627e+00
 6.429675502149550e-01	 1.058345295229253e+00	 3.371479663050579e+00
 6.185882979203756e-01	 1.070730150452557e+00	 3.060205248637371e+00
 5.938566362165510e-01	 1.082510029687462e+00	 2.760662423509658e+00
 5.687917259474442e-01	 1.093686150733605e+00	 2.474754078988786e+00
 5.434130004810946e-01	 1.104260697942969e+00	 2.204286928239655e+00
 7.901132670142885e-01	 9.829531475893116e-01	 5.522817322541502e+00
 7.679678595386146e-01	 9.991275381975497e-01	 5.188223337867100e+00
 7.453585359537155e-01	 1.014703761125330e+00	 4.851346162080125e+00
 7.223018257916970e-01	 1.029676891075605e+00	 4.514449350144842e+00
 6.988148739941589e-01	 1.044043043176842e+00	 4.179793591393850e+00
 6.749153871766467e-01	 1.057799372942749e+00	 3.849620701766934e+00
 6.506215782824836e-01	 1.070944071933819e+00	 3.526138225155194e+00
 6.259521099714122e-01	 1.083476359215924e+00	 3.211504832311205e+00
 6.009260370913967e-01	 1.095396468741459e+00	 2.907816684246723e+00
 5.755627485813160e-01	 1.106705632806998e+00	 2.617094902889180e+00
 5.498819091483128e-01	 1.117406061767513e+00	 2.341274265804428e+00
 7.994082947154325e-01	 9.945167766487507e-01	 5.665577306248015e+00
 7.770023648763551e-01	 1.010881445556606e+00	 5.334065974163222e+00
 7.541270613395413e-01	 1.026640909837109e+00	 4.999206954204542e+00
 7.307991080933308e-01	 1.041790186251149e+00	 4.663283982319145e+00
 7.070358517753395e-01	 1.056325344224880e+00	 4.328593205327354e+00
 6.828552073047591e-01	 1.070243505808959e+00	 3.997426411349096e+00
 6.582756018850845e-01	 1.083542841289068e+00	 3.672054723045632e+00
 6.333159177267713e-01	 1.096222560544010e+00	 3.354712961235993e+00
 6.079954338422668e-01	 1.108282900278415e+00	 3.047584866433083e+00
 5.823337672652358e-01	 1.119725107285783e+00	 2.752789342676706e+00
 5.563508140417918e-01	 1.130551417924058e+00	 2.472367862515026e+00
 8.087033180789860e-01	 1.006080400311810e+00	 5.798223510195635e+00
 7.860368659980534e-01	 1.022635347430469e+00	 5.469837007367190e+00
 7.628955826334107e-01	 1.038578052978170e+00	 5.137174206922516e+00
 7.392963864295431e-01	 1.053903475773768e+00	 4.802528839899223e+00
 7.152568257199916e-01	 1.068607639541119e+00	 4.468220295833834e+00
 6.907950237274999e-01	 1.082687632867853e+00	 4.136576247333072e+00
 6.659296219156362e-01	 1.096141604764842e+00	 3.809915608655808e+00
 6.406797220454709e-01	 1.108968755923833e+00	 3.490532051765981e+00
 6.150648272938307e-01	 1.121169325801685e+00	 3.180678284702474e+00
 5.891047827890625e-01	 1.132744575688819e+00	 2.882551274874043e+00
 5.628197159161465e-01	 1.143696767946138e+00	 2.598278574831173e+00
 8.179983381893455e-01	 1.017644019927708e+00	 5.921143479633173e+00
 7.950713639576940e-01	 1.034389245190546e+00	 5.595992297933901e+00
 7.716641008582614e-01	 1.050515191941279e+00	 5.265761975723930e+00
 7.477936617916146e-01	 1.066016761056751e+00	 4.932746494062815e+00
 7.234777967871515e-01	 1.080889930558541e+00	 4.599276766378850e+00
 6.987348373710952e-01	 1.095131755571259e+00	 4.267702808581916e+00
 6.735836392670180e-01	 1.108740363830987e+00	 3.940376131475163e+00
 6.480435237865273e-01	 1.121714946842410e+00	 3.619632591717566e+00
 6.221342182707568e-01	 1.134055746814624e+00	 3.307775920240677e+00
 5.958757959426559e-01	 1.145764039534964e+00	 3.007062125668261e+00
 5.692886155259922e-01	 1.156842113367289e+00	 2.719684945728214e+00
 8.272933561309074e-01	 1.029207636845662e+00	 6.034707344345740e+00
 8.041058598092605e-01	 1.046143140208240e+00	 5.712967220237923e+00
 7.804326170370325e-01	 1.062452328119198e+00	 5.385461214191355e+00
 7.562909351708267e-01	 1.078130043513388e+00	 5.054474233235899e+00
 7.316987659358543e-01	 1.093172218710124e+00	 4.722337469531474e+00
 7.066746491617730e-01	 1.107575875371013e+00	 4.391410263061005e+00
 6.812376548321085e-01	 1.121339119957345e+00	 4.064062091634186e+00
 6.554073238089596e-01	 1.134461134786760e+00	 3.742654934210018e+00
 6.292036075977134e-01	 1.146942164820587e+00	 3.429526237337476e+00
 6.026468075158744e-01	 1.158783500343079e+00	 3.126972693992906e+00
 5.757575136259440e-01	 1.169987455721043e+00	 2.837235020056018e+00
 8.365883729880681e-01	 1.040771252414892e+00	 6.139268786495624e+00
 8.131403546067379e-01	 1.057897033854957e+00	 5.821177800978043e+00
 7.892011321926615e-01	 1.074389462904693e+00	 5.496741057699537e+00
 7.647882075584603e-01	 1.090243324556970e+00	 5.168225467919190e+00
 7.399197341251362e-01	 1.105454505428851e+00	 4.837951709987206e+00
 7.146144600257591e-01	 1.120019993718943e+00	 4.508275927493017e+00
 6.888916695037869e-01	 1.133937874613762e+00	 4.181571476104761e+00
 6.627711229717848e-01	 1.147207321243900e+00	 3.860210971903355e+00
 6.362729960993706e-01	 1.159828581322929e+00	 3.546548878820944e+00
 6.094178182985774e-01	 1.171802959632020e+00	 3.242904853057439e+00
 5.822264109706172e-01	 1.183132796540936e+00	 2.951548038859771e+00
 5.175373129825247e-01	 1.051679135294118e+00	 1.581938970007821e+00
 4.930886061179270e-01	 1.061179560108253e+00	 1.359515745497063e+00
 4.683786316150236e-01	 1.070113971156061e+00	 1.156348517988003e+00
 4.434263389172353e-01	 1.078487068930921e+00	 9.718454620541781e-01
 4.182507216331380e-01	 1.086304366606542e+00	 8.052354895059397e-01
 3.928707661351534e-01	 1.093572156557455e+00	 6.555859823675148e-01
 3.673054016510371e-01	 1.100297474749929e+00	 5.218210760580095e-01
 3.415734520723819e-01	 1.106488063271783e+00	 4.027402035324212e-01
 3.156935896829346e-01	 1.112152331272543e+00	 2.970366306851606e-01
 2.896842909871788e-01	 1.117299314585631e+00	 2.033157365765412e-01
 2.635637947966888e-01	 1.121938634302054e+00	 1.201128180591118e-01
 5.240062442908519e-01	 1.064824545126001e+00	 1.750327315371273e+00
 4.992519420589116e-01	 1.074443720016364e+00	 1.518826726627767e+00
 4.742331064869885e-01	 1.083489806280113e+00	 1.305825672845936e+00
 4.489689238761274e-01	 1.091967563164214e+00	 1.110899193106265e+00
 4.234786252445683e-01	 1.099882572754026e+00	 9.334532200027210e-01
 3.977814342839484e-01	 1.107241206075309e+00	 7.727403519387410e-01
 3.718965168269625e-01	 1.114050587040045e+00	 6.278762008580414e-01
 3.458429320534969e-01	 1.120318554507902e+00	 4.978560505319756e-01
 3.196395856405784e-01	 1.126053622738153e+00	 3.815715773345083e-01
 2.933051850388365e-01	 1.131264940507173e+00	 2.778274057677013e-01
 2.668581970349608e-01	 1.135962249164317e+00	 1.853572939844153e-01
 5.304751688069793e-01	 1.077969941155748e+00	 1.909614215204087e+00
 5.054152715285452e-01	 1.087707865997702e+00	 1.669827858622626e+00
 4.800875752118880e-01	 1.096865627360146e+00	 1.447809239382150e+00
 4.545115030154290e-01	 1.105448043243582e+00	 1.243292440882799e+00
 4.287065233668245e-01	 1.113460764644947e+00	 1.055852044243213e+00
 4.026920972766799e-01	 1.120910241241152e+00	 8.849170340632044e-01
 3.764876271823808e-01	 1.127803684889804e+00	 7.297853045549152e-01
 3.501124075518630e-01	 1.134149031222319e+00	 5.896385242973137e-01
 3.235855774551878e-01	 1.139954899607613e+00	 4.635571320625036e-01
 2.969260752888898e-01	 1.145230551764896e+00	 3.505352536997393e-01
 2.701525958145354e-01	 1.149985849301752e+00	 2.494953501522259e-01
 5.369440872855219e-01	 1.091115324916893e+00	 2.060660733271656e+00
 5.115785952457940e-01	 1.100971999599649e+00	 1.813370946964119e+00
 4.859420384726598e-01	 1.110241435956580e+00	 1.583136870042151e+00
 4.600540769816969e-01	 1.118928510741666e+00	 1.369844081790947e+00
 4.339344166097567e-01	 1.127038943863363e+00	 1.173227732520548e+00
 4.076027556861921e-01	 1.134579263649660e+00	 9.928846738803692e-01
 3.810787332528601e-01	 1.141556769903712e+00	 8.282862141878937e-01
 3.543818790655262e-01	 1.147979495028594e+00	 6.787912789624806e-01
 3.275315655870700e-01	 1.153856163502768e+00	 5.436597685544671e-01
 3.005469621597160e-01	 1.159196149988180e+00	 4.220659196273080e-01
 2.734469915196949e-01	 1.164009436350527e+00	 3.131114945838118e-01
 5.434130004810946e-01	 1.104260697942969e+00	 2.204286928239655e+00
 5.177419139296249e-01	 1.114236122369594e+00	 1.950267232631659e+00
 4.917964969522420e-01	 1.123617233629833e+00	 1.712606326471494e+00
 4.655966464214873e-01	 1.132408967231106e+00	 1.491333995306593e+00
 4.391623055832144e-01	 1.140617111993330e+00	 1.286338158280336e+00
 4.125134100853292e-01	 1.148248274895508e+00	 1.097375311169517e+00
 3.856698355739675e-01	 1.155309843686275e+00	 9.240816187979852e-01
 3.586513470925326e-01	 1.161809947540285e+00	 7.659844577974262e-01
 3.314775504965322e-01	 1.167757416045464e+00	 6.225142200008003e-01
 3.041678460736920e-01	 1.173161736806400e+00	 4.930161990781949e-01
 2.767413845347217e-01	 1.178033011946810e+00	 3.767623977311827e-01
 5.498819091483128e-01	 1.117406061767513e+00	 2.341274265804430e+00
 5.239052282990043e-01	 1.127500235854920e+00	 2.081289778278300e+00
 4.976509513335732e-01	 1.136993021940326e+00	 1.836977826028262e+00
 4.711392119813578e-01	 1.145889414284543e+00	 1.608505357872418e+00
 4.443901908970471e-01	 1.154195270618903e+00	 1.395905527276309e+00
 4.174240610469353e-01	 1.161917276573373e+00	 1.199086533505530e+00
 3.902609346812702e-01	 1.169062907841999e+00	 1.017841136240384e+00
 3.629208121309281e-01	 1.175640390370952e+00	 8.518566642804943e-01
 3.354235326438815e-01	 1.181658658857547e+00	 7.007253460067837e-01
 3.077887274531950e-01	 1.187127313848934e+00	 5.639547991671690e-01
 2.800357752438979e-01	 1.192056577726769e+00	 4.409785297632980e-01
 5.563508140417918e-01	 1.130551417924058e+00	 2.472367862515026e+00
 5.300685390728995e-01	 1.140764341603014e+00	 2.207175687910352e+00
 5.035054022995912e-01	 1.150368802448477e+00	 1.956976224565687e+00
 4.766817743078647e-01	 1.159369853474618e+00	 1.722066776737888e+00
 4.496180731611050e-01	 1.167773421324142e+00	 1.502618451185024e+00
 4.223347091438546e-01	 1.175586270277928e+00	 1.298683479176549e+00
 3.948520311103356e-01	 1.182815963975389e+00	 1.110203235782973e+00
 3.671902746787591e-01	 1.189470825134154e+00	 9.370167956377384e-01
 3.393695124894248e-01	 1.195559893560861e+00	 7.788698692365377e-01
 3.114096067206023e-01	 1.201092882745161e+00	 6.354239714313421e-01
 2.833301640315056e-01	 1.206080135326573e+00	 5.062656836094948e-01
 5.628197159161465e-01	 1.143696767946138e+00	 2.598278574831173e+00
 5.362318469702764e-01	 1.154028441161263e+00	 2.328628173467464e+00
 5.093598505332343e-01	 1.163744576714707e+00	 2.073293048660465e+00
 4.822243340475648e-01	 1.172850286373970e+00	 1.832694276620682e+00
 4.548459529852376e-01	 1.181351565693099e+00	 1.607133878195813e+00
 4.272453549489312e-01	 1.189255257603850e+00	 1.396800701953193e+00
 3.994431253967307e-01	 1.196569013690954e+00	 1.201777028096775e+00
 3.714597352340709e-01	 1.203301253443449e+00	 1.022045749916128e+00
 3.433154904934695e-01	 1.209461121777253e+00	 8.574979922751316e-01
 3.150304842982908e-01	 1.215058445124458e+00	 7.079410320430100e-01
 2.866245512818271e-01	 1.220103686382390e+00	 5.731063929531219e-01
 5.692886155259922e-01	 1.156842113367289e+00	 2.719684945728216e+00
 5.423951527101020e-01	 1.167292536077051e+00	 2.446318480483593e+00
 5.152142967174405e-01	 1.177120346299433e+00	 2.186588389263933e+00
 4.877668918470149e-01	 1.186330714555242e+00	 1.941033150897985e+00
 4.600738309792945e-01	 1.194929705309834e+00	 1.710078891954455e+00
 4.321559990350095e-01	 1.202924240145813e+00	 1.494043908699679e+00
 4.040342180760231e-01	 1.210322058593197e+00	 1.293143933186955e+00
 3.757291942949101e-01	 1.217131676912397e+00	 1.107498016652693e+00
 3.472614671163226e-01	 1.223362345128568e+00	 9.371349042367416e-01
 3.186513606086379e-01	 1.229024002616201e+00	 7.819997783598895e-01
 2.899189373791444e-01	 1.234127232530387e+00	 6.419612535326880e-01
 5.757575136259440e-01	 1.169987455721043e+00	 2.837235020056019e+00
 5.485584570113428e-01	 1.180556627897764e+00	 2.560887683912783e+00
 5.210687415351480e-01	 1.190496112763076e+00	 2.297492667676843e+00
 4.933094483527719e-01	 1.199811139591073e+00	 2.047699687984108e+00
 4.653017077531255e-01	 1.208507841758404e+00	 1.812052389215720e+00
 4.370666419749336e-01	 1.216593219498495e+00	 1.590991579828972e+00
 4.086253096837799e-01	 1.224075100286626e+00	 1.384859235866620e+00
 3.799986523593226e-01	 1.230962097154558e+00	 1.193903160294345e+00
 3.512074428182912e-01	 1.237263565236650e+00	 1.018282185792483e+00
 3.222722360740204e-01	 1.242989556849769e+00	 8.580718099663174e-01
 2.932133227077402e-01	 1.248150775406734e+00	 7.132701553560195e-01
 5.822264109706172e-01	 1.183132796540936e+00	 2.951548038859771e+00
 5.547217605929659e-01	 1.193820718170789e+00	 2.672948364220034e+00
 5.269231856692952e-01	 1.203871877666055e+00	 2.406608283779083e+00
 4.988520042113924e-01	 1.213291563054103e+00	 2.153282782603489e+00
 4.705295839165803e-01	 1.222085976622864e+00	 1.913626645639889e+00
 4.419772843415477e-01	 1.230262197256569e+00	 1.688196481716008e+00
 4.132164007555683e-01	 1.237828140375747e+00	 1.477453537520331e+00
 3.842681099253542e-01	 1.244792515783489e+00	 1.281767204712494e+00
 3.551534180596826e-01	 1.251164783723347e+00	 1.101419120518958e+00
 3.258931111168158e-01	 1.256955109454539e+00	 9.366077616350112e-01
 2.965077076518963e-01	 1.262174316647596e+00	 7.874534327579235e-01
 2.635637947966888e-01	 1.121938634302054e+00	 1.201128180591116e-01
 2.373482296499335e-01	 1.126080727339082e+00	 4.809221304754296e-02
 2.110570951089145e-01	 1.129735918047314e+00	-1.180035100255283e-02
 1.847077204181358e-01	 1.132915330725281e+00	-6.069971201272839e-02
 1.583170525687149e-01	 1.135630504095502e+00	-9.977592398856205e-02
 1.319016272114572e-01	 1.137893348388953e+00	-1.302229496467202e-01
 1.054775423022452e-01	 1.139716102835537e+00	-1.532481063972748e-01
 7.906043448167313e-02	 1.141111293759497e+00	-1.700623180561640e-01
 5.266545817213228e-02	 1.142091693463350e+00	-1.818712073529403e-01
 2.630726735816929e-02	 1.142670280067985e+00	-1.898670484529619e-01
 0.000000000000000e+00	 1.142860198460186e+00	-1.952215844722660e-01
 2.668581970349608e-01	 1.135962249164317e+00	 1.853572939844153e-01
 2.403149517652857e-01	 1.140156116082579e+00	 1.049635710258319e-01
 2.136951925256246e-01	 1.143856994661234e+00	 3.759312244291091e-02
 1.870164651665213e-01	 1.147076148246399e+00	-1.790390209787684e-02
 1.602959285071758e-01	 1.149825259788246e+00	-6.271849914756222e-02
 1.335503248849474e-01	 1.152116388389058e+00	-9.807080621383002e-02
 1.067959534713259e-01	 1.153961926262349e+00	-1.251988637551174e-01
 8.004864635632519e-02	 1.155374556304495e+00	-1.453482036674265e-01
 5.332374738429285e-02	 1.156367210464742e+00	-1.597623051245758e-01
 2.663609370653354e-02	 1.156953029083323e+00	-1.696739417456030e-01
 0.000000000000000e+00	 1.157145321350848e+00	-1.762974288287644e-01
 2.701525958145354e-01	 1.149985849301752e+00	 2.494953501522259e-01
 2.432816707661115e-01	 1.154231490046761e+00	 1.613421840084608e-01
 2.163332871729747e-01	 1.157978056447746e+00	 8.700297053572514e-02
 1.893252074914669e-01	 1.161236950898263e+00	 2.532577336259445e-02
 1.622748023686338e-01	 1.164020000575990e+00	-2.488798088384625e-02
 1.351990208281575e-01	 1.166339413454362e+00	-6.487093485761775e-02
 1.081143632569111e-01	 1.168207734730349e+00	-9.587800520029832e-02
 8.103685719410969e-02	 1.169637803872298e+00	-1.191754250831656e-01
 5.398203590584604e-02	 1.170642712476017e+00	-1.360306707591770e-01
 2.696491970997855e-02	 1.171235763100916e+00	-1.477033005690505e-01
 0.000000000000000e+00	 1.171430429241259e+00	-1.554367187915484e-01
 2.734469915196949e-01	 1.164009436350527e+00	 3.131114945838118e-01
 2.462483869984567e-01	 1.168306850873860e+00	 2.177726405286780e-01
 2.189713793586627e-01	 1.172099105054432e+00	 1.369399627434300e-01
 1.916339476622377e-01	 1.175397740333110e+00	 6.947178110092356e-02
 1.642536743838629e-01	 1.178214728114948e+00	 1.417472513409845e-02
 1.368477152333388e-01	 1.180562425244396e+00	-3.018326785144176e-02
 1.094327718127214e-01	 1.182453529901738e+00	-6.486072382330699e-02
 8.202506711023368e-02	 1.183901038127150e+00	-9.113124311943333e-02
 5.464032381352585e-02	 1.184918201162855e+00	-1.102730026063357e-01
 2.729374540682866e-02	 1.185518483787291e+00	-1.235591815246178e-01
 0.000000000000000e+00	 1.185715523798227e+00	-1.322493269488132e-01
 2.767413845347217e-01	 1.178033011946810e+00	 3.767623977311807e-01
 2.492151008083671e-01	 1.182382200206109e+00	 2.747735924109276e-01
 2.216094693903863e-01	 1.186220142128876e+00	 1.878905422156889e-01
 1.939426859480990e-01	 1.189558518203180e+00	 1.149936092591788e-01
 1.662325447836380e-01	 1.192409444061334e+00	 5.490684761033449e-02
 1.384964082927424e-01	 1.194785425418687e+00	 6.411302929976825e-03
 1.107511792924775e-01	 1.196699313438713e+00	-3.174244561413198e-02
 8.301327621990420e-02	 1.198164260733292e+00	-6.082257684998460e-02
 5.529861118406629e-02	 1.199193678190934e+00	-8.210520789331999e-02
 2.762257083540821e-02	 1.199801192808975e+00	-9.686449974575750e-02
 0.000000000000000e+00	 1.200000606688556e+00	-1.063637075438146e-01
 2.800357752438979e-01	 1.192056577726769e+00	 4.409785297632980e-01
 2.521818125418886e-01	 1.196457539685740e+00	 3.328392802270135e-01
 2.242475575758435e-01	 1.200341169318661e+00	 2.403182564991451e-01
 1.962514226183161e-01	 1.203719286160712e+00	 1.623291188167544e-01
 1.682114137987333e-01	 1.206604150071365e+00	 9.772503557329904e-02
 1.401451001986197e-01	 1.209008415636766e+00	 4.531215866065774e-02
 1.120695858499000e-01	 1.210945087003475e+00	 3.862360436107881e-03
 8.400148463832836e-02	 1.212427473354968e+00	-2.787484751418656e-02
 5.595689809420142e-02	 1.213469145225935e+00	-5.116127307079688e-02
 2.795139603404157e-02	 1.214083891832495e+00	-6.725991985644586e-02
 0.000000000000000e+00	 1.214285679579051e+00	-7.742580372506636e-02
 2.833301640315056e-01	 1.206080135326573e+00	 5.062656836094925e-01
 2.551485225450670e-01	 1.210532870954983e+00	 3.924409523118324e-01
 2.268856442227319e-01	 1.214462188271370e+00	 2.946650884230158e-01
 1.985601579421541e-01	 1.217880045857944e+00	 2.118958007207323e-01
 1.701902816599233e-01	 1.220798847801255e+00	 1.430265545990317e-01
 1.417937911432218e-01	 1.223231397558161e+00	 8.690010020487016e-02
 1.133879916387095e-01	 1.225190852258222e+00	 4.232128920740563e-02
 8.498969248071314e-02	 1.226690677656422e+00	 8.069096907825868e-03
 5.661518462066523e-02	 1.227744603933536e+00	-1.709221298110930e-02
 2.828022104105307e-02	 1.228366582524378e+00	-3.440282431360520e-02
 0.000000000000000e+00	 1.228570744136519e+00	-4.509803104380872e-02
 2.866245512818271e-01	 1.220103686382390e+00	 5.731063929531239e-01
 2.581152311639481e-01	 1.224608195656070e+00	 4.540281859050788e-01
 2.295237296387498e-01	 1.228583200634588e+00	 3.513526951892072e-01
 2.008688921888782e-01	 1.232040798947115e+00	 2.640919463077884e-01
 1.721691485979824e-01	 1.234993538907219e+00	 1.911904005269072e-01
 1.434424813188000e-01	 1.237454372842401e+00	 1.315384156699557e-01
 1.147063968126268e-01	 1.239436610865154e+00	 8.398502997871482e-02
 8.597789986226567e-02	 1.240953875301895e+00	 4.734998294414039e-02
 5.727347084019176e-02	 1.242020055979417e+00	 2.043490749380594e-02
 2.860904589476704e-02	 1.242649266551153e+00	 2.033647093011126e-03
 0.000000000000000e+00	 1.242855802027764e+00	-9.058331063444447e-03
 2.899189373791444e-01	 1.234127232530387e+00	 6.419612535326860e-01
 2.610819387445777e-01	 1.238683515431234e+00	 5.180301182042515e-01
 2.321618141315945e-01	 1.242704208055896e+00	 4.107835629687280e-01
 2.031776256277538e-01	 1.246201547080464e+00	 3.192977379151984e-01
 1.741480148436851e-01	 1.249188225045472e+00	 2.425783372311254e-01
 1.450911709176055e-01	 1.251677343149015e+00	 1.795738751636489e-01
 1.160248015253724e-01	 1.253682364486469e+00	 1.291883266837106e-01
 8.696610689819298e-02	 1.255217067955632e+00	 9.029304460514509e-02
 5.793175682951503e-02	 1.256295503029258e+00	 6.173788507103684e-02
 2.893787063350784e-02	 1.256931945579345e+00	 4.236149224486430e-02
 0.000000000000000e+00	 1.257140854919592e+00	 3.100071049702979e-02
 2.932133227077402e-01	 1.248150775406734e+00	 7.132701553560195e-01
 2.640486456330018e-01	 1.252758831922707e+00	 5.848565944159849e-01
 2.347998980089640e-01	 1.256825212182878e+00	 4.733420836512989e-01
 2.054863585280461e-01	 1.260362291910229e+00	 3.778762659588626e-01
 1.761268806278058e-01	 1.263382907872229e+00	 2.975358644222497e-01
 1.467398601318895e-01	 1.265900310137534e+00	 2.313376584810061e-01
 1.173432059306671e-01	 1.267928114784366e+00	 1.782508734233934e-01
 8.795431370370210e-02	 1.269480257281874e+00	 1.372088934536799e-01
 5.859004266536907e-02	 1.270570946748737e+00	 1.071202282396533e-01
 2.926669529559979e-02	 1.271214621275483e+00	 8.687868135467802e-02
 0.000000000000000e+00	 1.271425904478810e+00	 7.537268616177317e-02
 2.965077076518963e-01	 1.262174316647596e+00	 7.874534327579237e-01
 2.670153521752661e-01	 1.266834146772720e+00	 6.548992392619317e-01
 2.374379815785563e-01	 1.270946214663118e+00	 5.393955598039308e-01
 2.077950911590201e-01	 1.274523035088650e+00	 4.401744781988974e-01
 1.781057461811192e-01	 1.277577589043705e+00	 3.563931209211948e-01
 1.483885491539033e-01	 1.280123275467486e+00	 2.871462209388496e-01
 1.186616101822315e-01	 1.282173863421045e+00	 2.314781502705994e-01
 8.894252039400018e-02	 1.283743444944866e+00	 1.883943306631031e-01
 5.924832842448790e-02	 1.284846388803535e+00	 1.568719507484779e-01
 2.959551991936728e-02	 1.285497295306093e+00	 1.358699359756841e-01
 0.000000000000000e+00	 1.285710952372222e+00	 1.243381342639898e-01
 1.285710952372222e+00	 0.000000000000000e+00	 1.328958309358391e+01
 1.285497295306093e+00	 2.959551991936768e-02	 1.326884187713360e+01
 1.284846388803535e+00	 5.924832842448829e-02	 1.324143510159002e+01
 1.283743444944865e+00	 8.894252039400048e-02	 1.320637282892627e+01
 1.282173863421045e+00	 1.186616101822318e-01	 1.316267833011004e+01
 1.280123275467486e+00	 1.483885491539035e-01	 1.310939625545260e+01
 1.277577589043704e+00	 1.781057461811192e-01	 1.304560140827318e+01
 1.274523035088650e+00	 2.077950911590204e-01	 1.297040807968113e+01
 1.270946214663118e+00	 2.374379815785564e-01	 1.288297988824022e+01
 1.266834146772720e+00	 2.670153521752661e-01	 1.278254005340088e+01
 1.262174316647597e+00	 2.965077076518963e-01	 1.266838201610047e+01
 1.299996999436575e+00	 0.000000000000000e+00	 1.314167028587208e+01
 1.299780968341605e+00	 2.992436754283352e-02	 1.312152394963470e+01
 1.299122829357391e+00	 5.990666022752204e-02	 1.309501272640355e+01
 1.298007630249775e+00	 8.993079620458713e-02	 1.306119506810066e+01
 1.296420608479857e+00	 1.199801066498033e-01	 1.301914277307463e+01
 1.294347235625972e+00	 1.500373534937382e-01	 1.296794884523900e+01
 1.291773263065350e+00	 1.800847501464908e-01	 1.290673592812650e+01
 1.288684768743407e+00	 2.101039852746392e-01	 1.283466527265660e+01
 1.285068204839977e+00	 2.400762496692715e-01	 1.275094618392023e+01
 1.280910446123659e+00	 2.699822662242060e-01	 1.265484587799610e+01
 1.276198838767993e+00	 2.998023230222043e-01	 1.254569966495452e+01
 1.314283043168385e+00	 0.000000000000000e+00	 1.300209387801489e+01
 1.314064638045126e+00	 3.025321508956966e-02	 1.298256733687935e+01
 1.313399266580941e+00	 6.056499187694717e-02	 1.295696804245203e+01
 1.312271812227235e+00	 9.091907178457748e-02	 1.292440124125191e+01
 1.310667350215281e+00	 1.212986028097242e-01	 1.288398555386441e+01
 1.308571192466371e+00	 1.516861574488443e-01	 1.283486052252802e+01
 1.305968933775486e+00	 1.820637536500776e-01	 1.277619470621519e+01
 1.302846499094542e+00	 2.124128788514846e-01	 1.270719428310964e+01
 1.299190191722443e+00	 2.427145171443396e-01	 1.262711210742989e+01
 1.294986742190813e+00	 2.729491795807888e-01	 1.253525715384309e+01
 1.290223357616614e+00	 3.030969376236583e-01	 1.243100426847491e+01
 1.328569080234105e+00	 0.000000000000000e+00	 1.287036051457240e+01
 1.328348301083665e+00	 3.058206248284655e-02	 1.285147029789292e+01
 1.327675697142885e+00	 6.122332321915620e-02	 1.282679074635304e+01
 1.326535987548803e+00	 9.190734690337923e-02	 1.279547233074188e+01
 1.324914085302944e+00	 1.226170983543531e-01	 1.275667881558777e+01
 1.322795142669631e+00	 1.533349606345124e-01	 1.270959449483843e+01
 1.320164597861666e+00	 1.840427562301277e-01	 1.265343194857579e+01
 1.317008222837535e+00	 2.147217713508359e-01	 1.258744028187939e+01
 1.313312172015283e+00	 2.453527833881926e-01	 1.251091379453927e+01
 1.309063031689621e+00	 2.759160915527708e-01	 1.242320101719290e+01
 1.304247869921001e+00	 3.063915506875612e-01	 1.232371403583327e+01
 1.342855107300192e+00	 0.000000000000000e+00	 1.274599783027601e+01
 1.342631954124233e+00	 3.091090964593466e-02	 1.272775243860131e+01
 1.341952117711919e+00	 6.188165410054168e-02	 1.270399224588708e+01
 1.340800152886037e+00	 9.289562133040007e-02	 1.267391140082649e+01
 1.339160810418477e+00	 1.239355929760491e-01	 1.263671715930446e+01
 1.337019082916703e+00	 1.549837626660329e-01	 1.259163680780440e+01
 1.334360252011446e+00	 1.860217574248894e-01	 1.253792508233537e+01
 1.331169936667871e+00	 2.170306622339723e-01	 1.247487204531195e+01
 1.327434142423264e+00	 2.479910477852630e-01	 1.240181137094264e+01
 1.323139311335525e+00	 2.788830014479088e-01	 1.231812897713049e+01
 1.318272372408692e+00	 3.096861614452167e-01	 1.222327192886651e+01
 1.357141121033102e+00	 0.000000000000000e+00	 1.262855334527088e+01
 1.356915593833839e+00	 3.123975650210440e-02	 1.261095358829672e+01
 1.356228524956741e+00	 6.253998436749619e-02	 1.258810451729006e+01
 1.355064304910496e+00	 9.388389483504776e-02	 1.255924243543412e+01
 1.353407522237509e+00	 1.252540863671710e-01	 1.252361646200946e+01
 1.351243009888537e+00	 1.566325631586963e-01	 1.248049514314821e+01
 1.348555892912382e+00	 1.880007567726111e-01	 1.242917353352454e+01
 1.345331637281031e+00	 2.193395509621733e-01	 1.236898071283742e+01
 1.341556099651152e+00	 2.506293097199832e-01	 1.229928768959855e+01
 1.337215577843965e+00	 2.818499085739595e-01	 1.221951563275656e+01
 1.332296861807227e+00	 3.129807691279275e-01	 1.212914435926164e+01
 1.371427118099289e+00	 0.000000000000000e+00	 1.251759342938697e+01
 1.371199216879492e+00	 3.156860297462624e-02	 1.250063274630530e+01
 1.370504915546047e+00	 6.319831386641224e-02	 1.247867903394566e+01
 1.369328440293738e+00	 9.487216718673007e-02	 1.245100924856330e+01
 1.367654217435671e+00	 1.265725782200777e-01	 1.241691276847284e+01
 1.365466920266081e+00	 1.582813617277929e-01	 1.237569769175921e+01
 1.362751517252028e+00	 1.899797538115409e-01	 1.232669758125642e+01
 1.359493321372499e+00	 2.216484369967183e-01	 1.226927862217714e+01
 1.355678040403714e+00	 2.532675685767853e-01	 1.220284714696491e+01
 1.351291827930385e+00	 2.848168122386797e-01	 1.212685747052390e+01
 1.346321334844147e+00	 3.162753729669972e-01	 1.204081996714425e+01
 1.385713095165209e+00	 0.000000000000000e+00	 1.241270233045855e+01
 1.385482819928202e+00	 3.189744898677063e-02	 1.239636709379182e+01
 1.384781286148537e+00	 6.385664244368242e-02	 1.237528576132632e+01
 1.383592555707320e+00	 9.586043815485464e-02	 1.234877446206032e+01
 1.381900892688592e+00	 1.278910682271282e-01	 1.231616125160703e+01
 1.379690810730285e+00	 1.599301579886133e-01	 1.227679209646050e+01
 1.376947121717941e+00	 1.919587480799270e-01	 1.223003728276216e+01
 1.373654985637756e+00	 2.239573197988867e-01	 1.217529821658079e+01
 1.369799961385716e+00	 2.559058237401017e-01	 1.211201457243680e+01
 1.365368058310225e+00	 2.877837117498259e-01	 1.203967173594528e+01
 1.360345788246990e+00	 3.195699721937289e-01	 1.195780847519828e+01
 1.399999048897318e+00	 0.000000000000000e+00	 1.231348126211856e+01
 1.399766399646979e+00	 3.222629446180800e-02	 1.229775106605008e+01
 1.399057633432906e+00	 6.451496994569926e-02	 1.227751221345209e+01
 1.397856647822801e+00	 9.684870750882919e-02	 1.225211854596524e+01
 1.396147544671901e+00	 1.292095560806813e-01	 1.222093523646845e+01
 1.393914677962101e+00	 1.615789515564481e-01	 1.218334445948711e+01
 1.391142702997676e+00	 1.939377391160178e-01	 1.213875146422307e+01
 1.387816626772285e+00	 2.262661988299577e-01	 1.208659101894944e+01
 1.383921859301924e+00	 2.585440745943648e-01	 1.202633418576004e+01
 1.379444265698925e+00	 2.907506064151547e-01	 1.195749537436209e+01
 1.374370218743297e+00	 3.228645660394258e-01	 1.187963961292275e+01
 1.414284975962072e+00	 0.000000000000000e+00	 1.221954754686364e+01
 1.414049952702832e+00	 3.255513932300882e-02	 1.220439548100333e+01
 1.413333954067853e+00	 6.517329621885529e-02	 1.218496256651881e+01
 1.412120713311740e+00	 9.783697501806153e-02	 1.216063891700354e+01
 1.410394170061229e+00	 1.305280414730958e-01	 1.213082528339469e+01
 1.408138518642477e+00	 1.632277420465876e-01	 1.209493841010105e+01
 1.405338257778788e+00	 1.959167264580614e-01	 1.205241677274839e+01
 1.401978241471570e+00	 2.285750735512108e-01	 1.200272666811667e+01
 1.398043730857107e+00	 2.611823205240068e-01	 1.194536861761504e+01
 1.393520446811928e+00	 2.937174955424229e-01	 1.187988403589199e+01
 1.388394623060607e+00	 3.261591537353912e-01	 1.180586210606815e+01
 1.428570873025926e+00	 0.000000000000000e+00	 1.213053381052178e+01
 1.428333475762771e+00	 3.288398349364353e-02	 1.211592671998103e+01
 1.427610244722076e+00	 6.583162110954309e-02	 1.209725682569470e+01
 1.426384748845693e+00	 9.882524045195930e-02	 1.207394909115406e+01
 1.424640765532204e+00	 1.318465240967308e-01	 1.204543832613940e+01
 1.422362329452363e+00	 1.648765290743223e-01	 1.201117422813496e+01
 1.419533782748831e+00	 1.978957096443060e-01	 1.197062678521960e+01
 1.416139826431091e+00	 2.308839434239253e-01	 1.192329201293776e+01
 1.412165572756028e+00	 2.638205609134598e-01	 1.186869798895033e+01
 1.407596598364675e+00	 2.966843784393872e-01	 1.180641114006409e+01
 1.402418997926461e+00	 3.294537345129283e-01	 1.173604272669071e+01
 1.262174316647597e+00	 2.965077076518963e-01	 1.266838201610047e+01
 1.256955109454539e+00	 3.258931111168156e-01	 1.254484032356216e+01
 1.251164783723348e+00	 3.551534180596824e-01	 1.241652095797628e+01
 1.244792515783490e+00	 3.842681099253539e-01	 1.228321436198474e+01
 1.237828140375747e+00	 4.132164007555682e-01	 1.214471908439881e+01
 1.230262197256569e+00	 4.419772843415474e-01	 1.200084326523903e+01
 1.222085976622863e+00	 4.705295839165800e-01	 1.185140617537454e+01
 1.213291563054103e+00	 4.988520042113921e-01	 1.169623979481725e+01
 1.203871877666055e+00	 5.269231856692950e-01	 1.153519041135879e+01
 1.193820718170790e+00	 5.547217605929656e-01	 1.136812021900656e+01
 1.183132796540936e+00	 5.822264109706171e-01	 1.119490889365675e+01
 1.276198838767993e+00	 2.998023230222043e-01	 1.254569966495452e+01
 1.270921638882720e+00	 3.295142394221146e-01	 1.242765107604996e+01
 1.265066974533483e+00	 3.590996693027053e-01	 1.230511039125671e+01
 1.258623901783632e+00	 3.885378661189792e-01	 1.217789635860638e+01
 1.251582142423700e+00	 4.178078129515949e-01	 1.204583063211064e+01
 1.243932131093599e+00	 4.468882701834049e-01	 1.190873866775945e+01
 1.235665061212145e+00	 4.757578257441907e-01	 1.176645069294449e+01
 1.226772929407417e+00	 5.043949477444406e-01	 1.161880274312516e+01
 1.217248578138877e+00	 5.327780392929062e-01	 1.146563775760836e+01
 1.207085736202502e+00	 5.608854952672500e-01	 1.130680672431918e+01
 1.196279056813543e+00	 5.886957607827461e-01	 1.114216986144869e+01
 1.290223357616614e+00	 3.030969376236583e-01	 1.243100426847491e+01
 1.284888165052574e+00	 3.331353668823323e-01	 1.231830036636511e+01
 1.278969162100207e+00	 3.630459196247387e-01	 1.220135446999667e+01
 1.272455284556780e+00	 3.928076213160798e-01	 1.208001161625617e+01
 1.265336141262610e+00	 4.223992240759926e-01	 1.195411496999210e+01
 1.257602061741100e+00	 4.517992548790162e-01	 1.182350617667987e+01
 1.249244142632999e+00	 4.809860663514812e-01	 1.168802580564488e+01
 1.240254292615020e+00	 5.099378899836977e-01	 1.154751388666072e+01
 1.230625275490343e+00	 5.386328915499143e-01	 1.140181054118622e+01
 1.220350751138874e+00	 5.670492285028369e-01	 1.125075670773508e+01
 1.209425314018505e+00	 5.951651090848595e-01	 1.109419495891048e+01
 1.304247869921001e+00	 3.063915506875612e-01	 1.232371403583327e+01
 1.298854684705190e+00	 3.367564926525975e-01	 1.221619887578536e+01
 1.292871343179647e+00	 3.669921681050627e-01	 1.210465910700568e+01
 1.286286660875609e+00	 3.970773745204665e-01	 1.198896412131605e+01
 1.279090133683234e+00	 4.269906330575335e-01	 1.186897707177699e+01
 1.271271986009470e+00	 4.567102372825999e-01	 1.174455472648272e+01
 1.262823217717048e+00	 4.862143045186584e-01	 1.161554742837865e+01
 1.253735649531359e+00	 5.154808296359515e-01	 1.148179917217476e+01
 1.244001966599343e+00	 5.444877410743382e-01	 1.134314780823901e+01
 1.233615759884871e+00	 5.732129588616810e-01	 1.119942538179698e+01
 1.222571565088504e+00	 6.016344543676050e-01	 1.105045861383330e+01
 1.318272372408692e+00	 3.096861614452167e-01	 1.222327192886651e+01
 1.312821194581664e+00	 3.403776158880397e-01	 1.212078235854466e+01
 1.306773514527932e+00	 3.709384138229578e-01	 1.201445549091298e+01
 1.300118027512793e+00	 4.013471247359494e-01	 1.190418321790755e+01
 1.292844116476331e+00	 4.315820388249894e-01	 1.178984722686227e+01
 1.284941900709110e+00	 4.616212162483760e-01	 1.167131839870405e+01
 1.276402283295917e+00	 4.914425390259288e-01	 1.154845632599126e+01
 1.267216997010882e+00	 5.210237654079906e-01	 1.142110896939750e+01
 1.257378648344766e+00	 5.503425865001975e-01	 1.128911247039327e+01
 1.246880759345454e+00	 5.793766849057361e-01	 1.115229113651652e+01
 1.235717806956221e+00	 6.081037951216303e-01	 1.101045761372963e+01
 1.332296861807227e+00	 3.129807691279275e-01	 1.212914435926164e+01
 1.326787691423086e+00	 3.439987357437876e-01	 1.203151032215363e+01
 1.320675672901189e+00	 3.748846558577046e-01	 1.193019875580296e+01
 1.313949381241011e+00	 4.056168709663394e-01	 1.182512227320685e+01
 1.306598086432660e+00	 4.361734403071328e-01	 1.171617970782769e+01
 1.298611802650422e+00	 4.665321906305634e-01	 1.160325509831643e+01
 1.289981336201229e+00	 4.966707686534989e-01	 1.148621680527875e+01
 1.280698331908039e+00	 5.265666960066030e-01	 1.136491678550530e+01
 1.270755317605502e+00	 5.561974264615115e-01	 1.123919004854994e+01
 1.260145746425587e+00	 5.855404051969570e-01	 1.110885431936500e+01
 1.248864036554340e+00	 6.145731298375837e-01	 1.097370992884746e+01
 1.346321334844147e+00	 3.162753729669972e-01	 1.204081996714425e+01
 1.340754171970549e+00	 3.476198513749700e-01	 1.194786479017751e+01
 1.334577815055549e+00	 3.788308932885835e-01	 1.185136673397595e+01
 1.327780718832936e+00	 4.098866122154465e-01	 1.175125742615504e+01
 1.320352040342977e+00	 4.407648364327352e-01	 1.164745152121294e+01
 1.312281688643806e+00	 4.714431592833817e-01	 1.153984531281527e+01
 1.303560373264609e+00	 5.018989921815753e-01	 1.142831548872327e+01
 1.294179651077275e+00	 5.321096201385769e-01	 1.131271805991135e+01
 1.284131971260440e+00	 5.620522595922992e-01	 1.119288749517059e+01
 1.273410718030233e+00	 5.917041182972974e-01	 1.106863609149385e+01
 1.262010250815542e+00	 6.210424570061129e-01	 1.093975360872623e+01
 1.360345788246990e+00	 3.195699721937289e-01	 1.195780847519828e+01
 1.354720632965146e+00	 3.512409619367159e-01	 1.186934914152287e+01
 1.348479937747139e+00	 3.827771251948748e-01	 1.177745878583702e+01
 1.341612037061243e+00	 4.141563474870811e-01	 1.168208641354689e+01
 1.334105974998042e+00	 4.453562261305693e-01	 1.158316123554547e+01
 1.325951555499662e+00	 4.763541210610502e-01	 1.148059094804233e+01
 1.317139391317681e+00	 5.071272083903644e-01	 1.137426016405953e+01
 1.307660951373040e+00	 5.376525365107007e-01	 1.126402903358544e+01
 1.297508606188468e+00	 5.679070845265797e-01	 1.114973208939229e+01
 1.286675671064355e+00	 5.978678227687122e-01	 1.103117735468553e+01
 1.275156446672509e+00	 6.275117751178659e-01	 1.090814574698865e+01
 1.374370218743297e+00	 3.228645660394258e-01	 1.187963961292275e+01
 1.368687071147968e+00	 3.548620665841546e-01	 1.179548702076942e+01
 1.362382037732088e+00	 3.867233506558594e-01	 1.170799470140528e+01
 1.355443332698608e+00	 4.184260757850536e-01	 1.161712746797276e+01
 1.347859887188615e+00	 4.499476083294069e-01	 1.152282788110276e+01
 1.339621400028392e+00	 4.812650748177886e-01	 1.142501423526625e+01
 1.330718387192070e+00	 5.123554160600730e-01	 1.132357870425733e+01
 1.321142229649782e+00	 5.431954438297626e-01	 1.121838568758069e+01
 1.310885219268478e+00	 5.737618998983726e-01	 1.110927039977060e+01
 1.299940602432917e+00	 6.040315171731547e-01	 1.099603774398379e+01
 1.288302621057924e+00	 6.339810826634908e-01	 1.087846150949572e+01
 1.388394623060607e+00	 3.261591537353912e-01	 1.180586210606815e+01
 1.382653483260108e+00	 3.584831644724148e-01	 1.172582131452505e+01
 1.376284111766524e+00	 3.906695687508174e-01	 1.164251366838085e+01
 1.369274602517707e+00	 4.226957961131750e-01	 1.155591828253425e+01
 1.361613773705451e+00	 4.545389819580201e-01	 1.146598991633803e+01
 1.353291219040396e+00	 4.861760194078157e-01	 1.137265670448326e+01
 1.344297357719400e+00	 5.175836139709075e-01	 1.127581805294245e+01
 1.334623482761948e+00	 5.487383408025508e-01	 1.117534274587497e+01
 1.324261807379358e+00	 5.796167043416971e-01	 1.107106730986995e+01
 1.313205509040881e+00	 6.101952000725799e-01	 1.096279468136058e+01
 1.301448770904468e+00	 6.404503781336350e-01	 1.085029322138616e+01
 1.402418997926461e+00	 3.294537345129283e-01	 1.173604272669071e+01
 1.396619866042658e+00	 3.621042547566253e-01	 1.165991318918352e+01
 1.390186156606576e+00	 3.946157785590295e-01	 1.158057330211167e+01
 1.383105843291214e+00	 4.269655074752547e-01	 1.149801503766082e+01
 1.375367631339310e+00	 4.591303459451807e-01	 1.141220425630433e+01
 1.366961009346076e+00	 4.910869536853510e-01	 1.132307821930380e+01
 1.357876299731293e+00	 5.228118009030744e-01	 1.123054327067648e+01
 1.348104707563986e+00	 5.542812261358537e-01	 1.113447273802639e+01
 1.337638367399997e+00	 5.854714964905721e-01	 1.103470510230358e+01
 1.326470387793212e+00	 6.163588700289419e-01	 1.093104248614814e+01
 1.314594893144823e+00	 6.469196600189466e-01	 1.082324950887893e+01
 1.183132796540936e+00	 5.822264109706171e-01	 1.119490889365675e+01
 1.171802959632020e+00	 6.094178182985777e-01	 1.101407215671185e+01
 1.159828581322929e+00	 6.362729960993709e-01	 1.082461603974761e+01
 1.147207321243899e+00	 6.627711229717850e-01	 1.062713137190136e+01
 1.133937874613762e+00	 6.888916695037870e-01	 1.042220303983346e+01
 1.120019993718943e+00	 7.146144600257595e-01	 1.021040471669336e+01
 1.105454505428850e+00	 7.399197341251366e-01	 9.992293607450710e+00
 1.090243324556970e+00	 7.647882075584607e-01	 9.768405289324606e+00
 1.074389462904693e+00	 7.892011321926621e-01	 9.539248727632804e+00
 1.057897033854956e+00	 8.131403546067386e-01	 9.305301547147931e+00
 1.040771252414892e+00	 8.365883729880681e-01	 9.067005636893818e+00
 1.196279056813543e+00	 5.886957607827461e-01	 1.114216986144869e+01
 1.184823329568884e+00	 6.161893026801177e-01	 1.097011937714628e+01
 1.172715899167537e+00	 6.433428790699680e-01	 1.078952945102387e+01
 1.159954399234961e+00	 6.701354371961921e-01	 1.060095124900067e+01
 1.146537510492046e+00	 6.965462195362728e-01	 1.040492590014739e+01
 1.132464982472780e+00	 7.225548262406800e-01	 1.020197938563179e+01
 1.117737651234249e+00	 7.481412773310235e-01	 9.992617496790851e+00
 1.102357452866200e+00	 7.732860742889249e-01	 9.777320940896008e+00
 1.086327432635354e+00	 7.979702606633312e-01	 9.556540673768080e+00
 1.069651749630091e+00	 8.221754813233386e-01	 9.330693537130264e+00
 1.052335676803569e+00	 8.458840399867048e-01	 9.100158275395900e+00
 1.209425314018505e+00	 5.951651090848595e-01	 1.109419495891048e+01
 1.197843696467493e+00	 6.229607854811509e-01	 1.093040702968152e+01
 1.185603214004979e+00	 6.504127603904537e-01	 1.075814750525592e+01
 1.172701474251644e+00	 6.774997497018224e-01	 1.057792927053003e+01
 1.159137143430437e+00	 7.042007677823064e-01	 1.039025154987373e+01
 1.144909968322899e+00	 7.304951906025160e-01	 1.019559496355816e+01
 1.130020794173789e+00	 7.563628186182840e-01	 9.994416700719682e+00
 1.114471578349102e+00	 7.817839390363610e-01	 9.787145886938903e+00
 1.098265399580877e+00	 8.067393870877569e-01	 9.574179224195337e+00
 1.081406462662920e+00	 8.312106059317127e-01	 9.355876978758680e+00
 1.063900098494396e+00	 8.551797048164093e-01	 9.132559388458667e+00
 1.222571565088504e+00	 6.016344543676050e-01	 1.105045861383330e+01
 1.210864057289905e+00	 6.297322651218270e-01	 1.089443118857869e+01
 1.198490522828354e+00	 6.574826384113476e-01	 1.072998975962224e+01
 1.185448543319761e+00	 6.848640587704881e-01	 1.055761031109554e+01
 1.171736770489137e+00	 7.118553124559704e-01	 1.037775200162499e+01
 1.157354948365572e+00	 7.384355512586466e-01	 1.019085239538497e+01
 1.142303931381488e+00	 7.645843560686765e-01	 9.997322851857531e+00
 1.126585698179115e+00	 7.902817998180376e-01	 9.797544151578482e+00
 1.110203360955788e+00	 8.155085094198991e-01	 9.591862434009883e+00
 1.093161170210711e+00	 8.402457263237395e-01	 9.380585520650216e+00
 1.075464514789027e+00	 8.644753653082524e-01	 9.163979691552882e+00
 1.235717806956221e+00	 6.081037951216303e-01	 1.101045761372963e+01
 1.223884408998180e+00	 6.365037400222964e-01	 1.086170936662037e+01
 1.211377822630763e+00	 6.645525114831703e-01	 1.070459621048100e+01
 1.198195603465128e+00	 6.922283626840025e-01	 1.053955860708228e+01
 1.184336388728350e+00	 7.195098517713456e-01	 1.036701747492690e+01
 1.169799919697071e+00	 7.463759063564521e-01	 1.018736960172684e+01
 1.154587059991365e+00	 7.728058877639603e-01	 1.000098325262727e+01
 1.138699809529677e+00	 7.987796546512245e-01	 9.808194050352885e+00
 1.122141313974611e+00	 8.242776256137182e-01	 9.609301201580923e+00
 1.104915869530733e+00	 8.492808403912976e-01	 9.404564140083153e+00
 1.087028922989120e+00	 8.737710192933065e-01	 9.194199651524825e+00
 1.248864036554340e+00	 6.145731298375837e-01	 1.097370992884746e+01
 1.236904748554374e+00	 6.432752086027080e-01	 1.083177938659285e+01
 1.224265110405305e+00	 6.716223779564416e-01	 1.068152621743286e+01
 1.210942651713557e+00	 6.995926597241778e-01	 1.052335673740601e+01
 1.196935995208283e+00	 7.271643839425148e-01	 1.035765543773596e+01
 1.182244879413671e+00	 7.543162540433125e-01	 1.018478058520262e+01
 1.166870177137439e+00	 7.810274117858940e-01	 1.000506005027225e+01
 1.150813909574226e+00	 8.072775015531899e-01	 9.818787437762813e+00
 1.134079255851869e+00	 8.330467336231737e-01	 9.626218592304353e+00
 1.116670557880252e+00	 8.583159460262669e-01	 9.427568546453077e+00
 1.098593320396328e+00	 8.830666646026432e-01	 9.223008973055503e+00
 1.262010250815542e+00	 6.210424570061129e-01	 1.093975360872623e+01
 1.249925072920549e+00	 6.500466692832125e-01	 1.080419832328156e+01
 1.237152383145082e+00	 6.786922361816812e-01	 1.066035749461166e+01
 1.223689685090863e+00	 7.069569481728269e-01	 1.050860466795061e+01
 1.209535586989136e+00	 7.348189071835588e-01	 1.034928970784623e+01
 1.194689824611643e+00	 7.622565924666073e-01	 1.018273459257863e+01
 1.179153279953728e+00	 7.892489262162363e-01	 1.000922946342155e+01
 1.162927995486199e+00	 8.157753385412044e-01	 9.829029001836401e+00
 1.146017183802085e+00	 8.418158314022254e-01	 9.642349204609850e+00
 1.128425232516537e+00	 8.673510411205255e-01	 9.449364622002806e+00
 1.110157704312310e+00	 8.923622990673346e-01	 9.250206117207254e+00
 1.275156446672509e+00	 6.275117751178659e-01	 1.090814574698865e+01
 1.262945379058761e+00	 6.568181204839599e-01	 1.077854151089251e+01
 1.250039637843193e+00	 6.857620845094093e-01	 1.064068516435260e+01
 1.236436700622858e+00	 7.143212263117624e-01	 1.049491885509650e+01
 1.222135161131115e+00	 7.424734197085595e-01	 1.034155960986399e+01
 1.207134752387260e+00	 7.701969197737164e-01	 1.018089532872384e+01
 1.191436365574252e+00	 7.974704291367465e-01	 1.001318105648382e+01
 1.175042064439034e+00	 8.242731636325358e-01	 9.838635602317485e+00
 1.157955095039786e+00	 8.505849169048342e-01	 9.657438575173220e+00
 1.140179890696855e+00	 8.763861235659529e-01	 9.469727897137137e+00
 1.121722072038720e+00	 9.016579205184524e-01	 9.275597849743217e+00
 1.288302621057924e+00	 6.339810826634908e-01	 1.087846150949572e+01
 1.275965663931068e+00	 6.635895606250993e-01	 1.075440161122777e+01
 1.262926871492737e+00	 6.928319212901460e-01	 1.062212086878387e+01
 1.249183695335358e+00	 7.216854924227970e-01	 1.048193140412067e+01
 1.234734714694425e+00	 7.501279197315989e-01	 1.033411918378271e+01
 1.219579659836794e+00	 7.781372341120201e-01	 1.017894021867782e+01
 1.203719431133027e+00	 8.056919186291830e-01	 1.001661705845402e+01
 1.187156113606170e+00	 8.327709748444542e-01	 9.847335649362332e+00
 1.169892986779494e+00	 8.593539880849598e-01	 9.671242620534748e+00
 1.151934529678472e+00	 8.854211912544275e-01	 9.488443057852505e+00
 1.133286420877215e+00	 9.109535267870686e-01	 9.298998817093176e+00
 1.301448770904468e+00	 6.404503781336350e-01	 1.085029322138616e+01
 1.288985924499531e+00	 6.703609881267809e-01	 1.073138773832019e+01
 1.275814081086816e+00	 6.999017448744109e-01	 1.060429193524696e+01
 1.261930666254174e+00	 7.290497447877435e-01	 1.046928927858924e+01
 1.247334244739268e+00	 7.577824054667585e-01	 1.032663644151037e+01
 1.232024544056519e+00	 7.860775336288979e-01	 1.017655971442983e+01
 1.216002473764073e+00	 8.139133927753053e-01	 1.001925172299390e+01
 1.199270140161044e+00	 8.412687701942285e-01	 9.854868519881146e+00
 1.181830856235734e+00	 8.681230428965618e-01	 9.683527112549976e+00
 1.163689146718658e+00	 8.944562420778287e-01	 9.505303483011641e+00
 1.144850748129450e+00	 9.202491157042549e-01	 9.320231148011739e+00
 1.314594893144823e+00	 6.469196600189466e-01	 1.082324950887893e+01
 1.302006157726207e+00	 6.771324014091545e-01	 1.070912463557652e+01
 1.288701263618528e+00	 7.069715536127238e-01	 1.058684059177868e+01
 1.274677610405123e+00	 7.364139816884141e-01	 1.045665355717412e+01
 1.259933748325849e+00	 7.654368751281202e-01	 1.031879266799365e+01
 1.244469402142706e+00	 7.940178164717294e-01	 1.017345664328042e+01
 1.228285490601410e+00	 8.221348496568718e-01	 1.002081072689754e+01
 1.211384141277094e+00	 8.497665476991278e-01	 9.860984008889842e+00
 1.193768700623030e+00	 8.768920792936009e-01	 9.694067185305212e+00
 1.175443739074679e+00	 9.034912739280352e-01	 9.520110809374433e+00
 1.156415051097081e+00	 9.295446851010828e-01	 9.339124079130816e+00
 1.040771252414892e+00	 8.365883729880681e-01	 9.067005636893818e+00
 1.023018427960310e+00	 8.595283939712974e-01	 8.818862731377914e+00
 1.004645946972983e+00	 8.819443910647330e-01	 8.556122301139654e+00
 9.856622672384795e-01	 9.038211482654626e-01	 8.280397443476106e+00
 9.660769020995830e-01	 9.251443046312183e-01	 7.993397562179237e+00
 9.459003975030937e-01	 9.459003975030944e-01	 7.696916373183591e+00
 9.251443046312178e-01	 9.660769020995831e-01	 7.392818886079606e+00
 9.038211482654623e-01	 9.856622672384796e-01	 7.083027542464980e+00
 8.819443910647331e-01	 1.004645946972983e+00	 6.769507708818162e+00
 8.595283939712971e-01	 1.023018427960311e+00	 6.454252733723056e+00
 8.365883729880681e-01	 1.040771252414892e+00	 6.139268786495622e+00
 1.052335676803569e+00	 8.458840399867048e-01	 9.100158275395900e+00
 1.034385593637595e+00	 8.690789566902977e-01	 8.859606506666990e+00
 1.015808968688077e+00	 8.917440268656871e-01	 8.604442107770566e+00
 9.966143537184107e-01	 9.138638654388909e-01	 8.336189512637793e+00
 9.768113677779181e-01	 9.354239518974904e-01	 8.056468944303134e+00
 9.564106739936137e-01	 9.564106739936139e-01	 7.766985116955592e+00
 9.354239518974901e-01	 9.768113677779182e-01	 7.469514917036753e+00
 9.138638654388903e-01	 9.966143537184112e-01	 7.165894234327325e+00
 8.917440268656868e-01	 1.015808968688077e+00	 6.858004130753278e+00
 8.690789566902973e-01	 1.034385593637595e+00	 6.547756547094167e+00
 8.458840399867049e-01	 1.052335676803569e+00	 6.237079755531884e+00
 1.063900098494396e+00	 8.551797048164093e-01	 9.132559388458667e+00
 1.045752756663082e+00	 8.786295171809760e-01	 8.899073354800489e+00
 1.026971987799014e+00	 9.015436603802878e-01	 8.650981488043069e+00
 1.007566437643386e+00	 9.239065802693275e-01	 8.389722806626056e+00
 9.875458309520403e-01	 9.457035967655604e-01	 8.116831461852625e+00
 9.669209480321814e-01	 9.669209480321818e-01	 7.833926110748191e+00
 9.457035967655600e-01	 9.875458309520405e-01	 7.542698272853150e+00
 9.239065802693268e-01	 1.007566437643387e+00	 7.244899832205364e+00
 9.015436603802873e-01	 1.026971987799014e+00	 6.942329862596038e+00
 8.786295171809756e-01	 1.045752756663083e+00	 6.636820966899214e+00
 8.551797048164094e-01	 1.063900098494396e+00	 6.330225329511660e+00
 1.075464514789027e+00	 8.644753653082524e-01	 9.163979691552882e+00
 1.057119914384448e+00	 8.881800732149159e-01	 8.937071444903056e+00
 1.038135001701094e+00	 9.113432893219885e-01	 8.695585391884700e+00
 1.018518516457923e+00	 9.339492904134958e-01	 8.440878327347525e+00
 9.982802891172464e-01	 9.559832368368600e-01	 8.174401386873708e+00
 9.774312171664081e-01	 9.774312171664084e-01	 7.897690065322635e+00
 9.559832368368598e-01	 9.982802891172471e-01	 7.612353225870658e+00
 9.339492904134957e-01	 1.018518516457923e+00	 7.320061251453591e+00
 9.113432893219882e-01	 1.038135001701094e+00	 7.022533507349169e+00
 8.881800732149152e-01	 1.057119914384449e+00	 6.721525296574669e+00
 8.644753653082524e-01	 1.075464514789027e+00	 6.418814498443767e+00
 1.087028922989120e+00	 8.737710192933065e-01	 9.194199651524825e+00
 1.068487064149366e+00	 8.977306225636994e-01	 8.973417103758356e+00
 1.049298007789620e+00	 9.211429114042431e-01	 8.738105361830973e+00
 1.029470587606540e+00	 9.439919935281210e-01	 8.489542135313187e+00
 1.009014739768834e+00	 9.662628697128208e-01	 8.229098549316864e+00
 9.879414789439063e-01	 9.879414789439066e-01	 7.958229784058284e+00
 9.662628697128207e-01	 1.009014739768835e+00	 7.678464713121009e+00
 9.439919935281209e-01	 1.029470587606540e+00	 7.391394683308913e+00
 9.211429114042424e-01	 1.049298007789620e+00	 7.098661595775953e+00
 8.977306225636988e-01	 1.068487064149366e+00	 6.801945461235523e+00
 8.737710192933065e-01	 1.087028922989120e+00	 6.502951611106156e+00
 1.098593320396328e+00	 8.830666646026432e-01	 9.223008973055503e+00
 1.079854203305508e+00	 9.072811629989098e-01	 9.007934386137689e+00
 1.060461003459893e+00	 9.309425243405042e-01	 8.778399185716090e+00
 1.040422648533754e+00	 9.540346872699265e-01	 8.535605083059128e+00
 1.019749180402101e+00	 9.765424929948752e-01	 8.280846149436677e+00
 9.984517309122878e-01	 9.984517309122882e-01	 8.015500052469250e+00
 9.765424929948747e-01	 1.019749180402101e+00	 7.741018300995531e+00
 9.540346872699262e-01	 1.040422648533754e+00	 7.458915632656684e+00
 9.309425243405040e-01	 1.060461003459894e+00	 7.170758695123567e+00
 9.072811629989095e-01	 1.079854203305509e+00	 6.878154185145968e+00
 8.830666646026430e-01	 1.098593320396329e+00	 6.582736618993797e+00
 1.110157704312310e+00	 8.923622990673346e-01	 9.250206117207254e+00
 1.091221329200549e+00	 9.168316922921298e-01	 9.040454671975558e+00
 1.071623986107216e+00	 9.407421258442269e-01	 8.816330571064659e+00
 1.051374696684083e+00	 9.640773692956361e-01	 8.578962565223765e+00
 1.030483608512344e+00	 9.868221042844536e-01	 8.329570581913206e+00
 1.008961970619164e+00	 1.008961970619164e+00	 8.069457534624403e+00
 9.868221042844530e-01	 1.030483608512344e+00	 7.800000152122470e+00
 9.640773692956357e-01	 1.051374696684084e+00	 7.522638953436996e+00
 9.407421258442266e-01	 1.071623986107216e+00	 7.238867511053098e+00
 9.168316922921292e-01	 1.091221329200549e+00	 6.950221158100797e+00
 8.923622990673349e-01	 1.110157704312310e+00	 6.658265305023831e+00
 1.121722072038720e+00	 9.016579205184524e-01	 9.275597849743217e+00
 1.102588439182163e+00	 9.263822082149419e-01	 9.070816288455692e+00
 1.082786953126889e+00	 9.505417136288637e-01	 8.851768839618618e+00
 1.062326729502046e+00	 9.741200372619742e-01	 8.619514284080150e+00
 1.041218021594859e+00	 9.971017011829885e-01	 8.375201270849615e+00
 1.019472195612146e+00	 1.019472195612146e+00	 8.120060675972795e+00
 9.971017011829884e-01	 1.041218021594859e+00	 7.855396994292417e+00
 9.741200372619737e-01	 1.062326729502046e+00	 7.582578881861438e+00
 9.505417136288635e-01	 1.082786953126890e+00	 7.303028983266259e+00
 9.263822082149412e-01	 1.102588439182163e+00	 7.018213191518152e+00
 9.016579205184526e-01	 1.121722072038720e+00	 6.729629498098022e+00
 1.133286420877215e+00	 9.109535267870686e-01	 9.298998817093176e+00
 1.113955530598024e+00	 9.359327085389288e-01	 9.098864155228409e+00
 1.093949901914216e+00	 9.603412854078683e-01	 8.884588640561715e+00
 1.073278744432160e+00	 9.841626888256640e-01	 8.657164029419675e+00
 1.051952417144943e+00	 1.007381281291911e+00	 8.417670514869281e+00
 1.029982403438847e+00	 1.029982403438848e+00	 8.167269612116709e+00
 1.007381281291911e+00	 1.051952417144943e+00	 7.907196091285990e+00
 9.841626888256638e-01	 1.073278744432160e+00	 7.638749067596796e+00
 9.603412854078678e-01	 1.093949901914216e+00	 7.363282375278992e+00
 9.359327085389286e-01	 1.113955530598024e+00	 7.082194364978058e+00
 9.109535267870685e-01	 1.133286420877215e+00	 6.796917274531930e+00
 1.144850748129450e+00	 9.202491157042549e-01	 9.320231148011739e+00
 1.125322600795804e+00	 9.454831910356732e-01	 9.124449451124326e+00
 1.105112829864497e+00	 9.701408388946942e-01	 8.914669681119676e+00
 1.084230738918943e+00	 9.942053216434308e-01	 8.691819471772430e+00
 1.062686792657895e+00	 1.017660842212654e+00	 8.456913341598330e+00
 1.040492591646879e+00	 1.040492591646879e+00	 8.211046083112279e+00
 1.017660842212653e+00	 1.062686792657896e+00	 7.955385215468812e+00
 9.942053216434305e-01	 1.084230738918943e+00	 7.691162603059270e+00
 9.701408388946938e-01	 1.105112829864497e+00	 7.419665358755517e+00
 9.454831910356730e-01	 1.125322600795804e+00	 7.142226163882109e+00
 9.202491157042547e-01	 1.144850748129450e+00	 6.860213147279693e+00
 1.156415051097081e+00	 9.295446851010828e-01	 9.339124079130816e+00
 1.136689647123178e+00	 9.550336534767583e-01	 9.147429300859992e+00
 1.116275734373034e+00	 9.799403718027949e-01	 8.941896473320112e+00
 1.095182710406913e+00	 1.004247933371997e+00	 8.723391968031365e+00
 1.073421145629011e+00	 1.027940381546648e+00	 8.492867370877171e+00
 1.051002757783851e+00	 1.051002757783852e+00	 8.251353352910858e+00
 1.027940381546647e+00	 1.073421145629011e+00	 7.999952622030523e+00
 1.004247933371997e+00	 1.095182710406913e+00	 7.739832050951394e+00
 9.799403718027947e-01	 1.116275734373035e+00	 7.472214092783878e+00
 9.550336534767578e-01	 1.136689647123179e+00	 7.198367608855759e+00
 9.295446851010828e-01	 1.156415051097081e+00	 6.919598243808195e+00
 8.365883729880681e-01	 1.040771252414892e+00	 6.139268786495622e+00
 8.131403546067379e-01	 1.057897033854957e+00	 5.821177800978043e+00
 7.892011321926615e-01	 1.074389462904693e+00	 5.496741057699535e+00
 7.647882075584603e-01	 1.090243324556970e+00	 5.168225467919190e+00
 7.399197341251362e-01	 1.105454505428851e+00	 4.837951709987204e+00
 7.146144600257591e-01	 1.120019993718943e+00	 4.508275927493017e+00
 6.888916695037869e-01	 1.133937874613762e+00	 4.181571476104764e+00
 6.627711229717848e-01	 1.147207321243900e+00	 3.860210971903355e+00
 6.362729960993706e-01	 1.159828581322929e+00	 3.546548878820945e+00
 6.094178182985774e-01	 1.171802959632020e+00	 3.242904853057441e+00
 5.822264109706172e-01	 1.183132796540936e+00	 2.951548038859771e+00
 8.458840399867049e-01	 1.052335676803569e+00	 6.237079755531884e+00
 8.221754813233382e-01	 1.069651749630091e+00	 5.922679062603923e+00
 7.979702606633309e-01	 1.086327432635354e+00	 5.601430330632242e+00
 7.732860742889248e-01	 1.102357452866200e+00	 5.275577070132279e+00
 7.481412773310232e-01	 1.117737651234249e+00	 4.947422816367622e+00
 7.225548262406796e-01	 1.132464982472780e+00	 4.619312752192172e+00
 6.965462195362724e-01	 1.146537510492047e+00	 4.293615311751557e+00
 6.701354371961920e-01	 1.159954399234961e+00	 3.972704022766871e+00
 6.433428790699675e-01	 1.172715899167537e+00	 3.658939830857594e+00
 6.161893026801172e-01	 1.184823329568884e+00	 3.354654130372751e+00
 5.886957607827459e-01	 1.196279056813543e+00	 3.062132703266540e+00
 8.551797048164094e-01	 1.063900098494396e+00	 6.330225329511660e+00
 8.312106059317125e-01	 1.081406462662920e+00	 6.019337579946167e+00
 8.067393870877567e-01	 1.098265399580878e+00	 5.701151969022114e+00
 7.817839390363607e-01	 1.114471578349103e+00	 5.377886527906658e+00
 7.563628186182836e-01	 1.130020794173789e+00	 5.051824969222753e+00
 7.304951906025154e-01	 1.144909968322899e+00	 4.725298272165141e+00
 7.042007677823060e-01	 1.159137143430437e+00	 4.400666186012712e+00
 6.774997497018219e-01	 1.172701474251644e+00	 4.080298913852380e+00
 6.504127603904530e-01	 1.185603214004979e+00	 3.766559224944280e+00
 6.229607854811502e-01	 1.197843696467493e+00	 3.461785225889820e+00
 5.951651090848594e-01	 1.209425314018505e+00	 3.168273998384997e+00
 8.644753653082524e-01	 1.075464514789027e+00	 6.418814498443767e+00
 8.402457263237391e-01	 1.093161170210712e+00	 6.111290114956691e+00
 8.155085094198986e-01	 1.110203360955788e+00	 5.796067762289626e+00
 7.902817998180374e-01	 1.126585698179116e+00	 5.475338009088485e+00
 7.645843560686761e-01	 1.142303931381488e+00	 5.151362176017633e+00
 7.384355512586462e-01	 1.157354948365572e+00	 4.826453919685457e+00
 7.118553124559701e-01	 1.171736770489137e+00	 4.502960677761536e+00
 6.848640587704878e-01	 1.185448543319762e+00	 4.183245240385733e+00
 6.574826384113471e-01	 1.198490522828354e+00	 3.869667700415945e+00
 6.297322651218268e-01	 1.210864057289906e+00	 3.564568017489194e+00
 6.016344543676049e-01	 1.222571565088503e+00	 3.270249409037643e+00
 8.737710192933065e-01	 1.087028922989120e+00	 6.502951611106156e+00
 8.492808403912974e-01	 1.104915869530733e+00	 6.198667606951085e+00
 8.242776256137179e-01	 1.122141313974611e+00	 5.886332612629960e+00
 7.987796546512239e-01	 1.138699809529677e+00	 5.568107842461924e+00
 7.728058877639600e-01	 1.154587059991365e+00	 5.246229761376114e+00
 7.463759063564516e-01	 1.169799919697072e+00	 4.922991703183076e+00
 7.195098517713455e-01	 1.184336388728351e+00	 4.600725297984921e+00
 6.922283626840020e-01	 1.198195603465128e+00	 4.281781976321154e+00
 6.645525114831701e-01	 1.211377822630763e+00	 3.968514805879744e+00
 6.365037400222959e-01	 1.223884408998181e+00	 3.663260899697895e+00
 6.081037951216300e-01	 1.235717806956221e+00	 3.368324613489685e+00
 8.830666646026430e-01	 1.098593320396329e+00	 6.582736618993797e+00
 8.583159460262664e-01	 1.116670557880253e+00	 6.281595478746516e+00
 8.330467336231733e-01	 1.134079255851869e+00	 5.972094897195252e+00
 8.072775015531897e-01	 1.150813909574226e+00	 5.656364930043764e+00
 7.810274117858935e-01	 1.166870177137439e+00	 5.336614823802874e+00
 7.543162540433123e-01	 1.182244879413672e+00	 5.015114702986429e+00
 7.271643839425146e-01	 1.196935995208283e+00	 4.694177019443428e+00
 6.995926597241775e-01	 1.210942651713558e+00	 4.376138033150063e+00
 6.716223779564410e-01	 1.224265110405306e+00	 4.063339582756066e+00
 6.432752086027077e-01	 1.236904748554375e+00	 3.758111387919870e+00
 6.145731298375836e-01	 1.248864036554340e+00	 3.462754104715689e+00
 8.923622990673349e-01	 1.110157704312310e+00	 6.658265305023831e+00
 8.673510411205249e-01	 1.128425232516537e+00	 6.360193923671533e+00
 8.418158314022248e-01	 1.146017183802086e+00	 6.053496807646924e+00
 8.157753385412038e-01	 1.162927995486199e+00	 5.740271133616911e+00
 7.892489262162360e-01	 1.179153279953729e+00	 5.422696663868093e+00
 7.622565924666068e-01	 1.194689824611644e+00	 5.103017536088808e+00
 7.348189071835585e-01	 1.209535586989136e+00	 4.783523773237199e+00
 7.069569481728264e-01	 1.223689685090863e+00	 4.466532783793726e+00
 6.786922361816808e-01	 1.237152383145082e+00	 4.154371112358167e+00
 6.500466692832122e-01	 1.249925072920549e+00	 3.849356684912322e+00
 6.210424570061129e-01	 1.262010250815542e+00	 3.553781772847625e+00
 9.016579205184526e-01	 1.121722072038720e+00	 6.729629498098022e+00
 8.763861235659521e-01	 1.140179890696855e+00	 6.434578174827073e+00
 8.505849169048336e-01	 1.157955095039786e+00	 6.130674668710228e+00
 8.242731636325352e-01	 1.175042064439034e+00	 5.819981637360781e+00
 7.974704291367462e-01	 1.191436365574252e+00	 5.504647185913511e+00
 7.701969197737161e-01	 1.207134752387260e+00	 5.186886792173981e+00
 7.424734197085591e-01	 1.222135161131116e+00	 4.868964914664073e+00
 7.143212263117621e-01	 1.236436700622859e+00	 4.553176554098858e+00
 6.857620845094089e-01	 1.250039637843193e+00	 4.241829029140961e+00
 6.568181204839595e-01	 1.262945379058760e+00	 3.937224212231580e+00
 6.275117751178659e-01	 1.275156446672509e+00	 3.641641451604801e+00
 9.109535267870685e-01	 1.133286420877215e+00	 6.796917274531930e+00
 8.854211912544271e-01	 1.151934529678473e+00	 6.504858757866801e+00
 8.593539880849593e-01	 1.169892986779494e+00	 6.203759237230561e+00
 8.327709748444536e-01	 1.187156113606170e+00	 5.895645288285874e+00
 8.056919186291830e-01	 1.203719431133028e+00	 5.582631275170857e+00
 7.781372341120194e-01	 1.219579659836794e+00	 5.266901442953706e+00
 7.501279197315985e-01	 1.234734714694425e+00	 4.950691660563663e+00
 7.216854924227964e-01	 1.249183695335357e+00	 4.636271084249795e+00
 6.928319212901455e-01	 1.262926871492738e+00	 4.325924002534403e+00
 6.635895606250989e-01	 1.275965663931068e+00	 4.021932109150249e+00
 6.339810826634908e-01	 1.288302621057924e+00	 3.726557431277872e+00
 9.202491157042547e-01	 1.144850748129450e+00	 6.860213147279693e+00
 8.944562420778284e-01	 1.163689146718658e+00	 6.571141728461210e+00
 8.681230428965616e-01	 1.181830856235735e+00	 6.272875983110159e+00
 8.412687701942280e-01	 1.199270140161045e+00	 5.967404916041281e+00
 8.139133927753052e-01	 1.216002473764074e+00	 5.656807152030488e+00
 7.860775336288973e-01	 1.232024544056519e+00	 5.343233226703109e+00
 7.577824054667582e-01	 1.247334244739269e+00	 5.028887500162750e+00
 7.290497447877430e-01	 1.261930666254174e+00	 4.716009962223420e+00
 6.999017448744103e-01	 1.275814081086816e+00	 4.406858189583195e+00
 6.703609881267807e-01	 1.288985924499531e+00	 4.103689701344734e+00
 6.404503781336349e-01	 1.301448770904468e+00	 3.808744940630919e+00
 9.295446851010828e-01	 1.156415051097081e+00	 6.919598243808195e+00
 9.034912739280351e-01	 1.175443739074679e+00	 6.633528895517703e+00
 8.768920792936006e-01	 1.193768700623031e+00	 6.338145353392688e+00
 8.497665476991274e-01	 1.211384141277095e+00	 6.035397633538759e+00
 8.221348496568712e-01	 1.228285490601410e+00	 5.727326705059573e+00
 7.940178164717289e-01	 1.244469402142706e+00	 5.416047009730077e+00
 7.654368751281195e-01	 1.259933748325849e+00	 5.103728581276069e+00
 7.364139816884138e-01	 1.274677610405123e+00	 4.792579031243757e+00
 7.069715536127235e-01	 1.288701263618529e+00	 4.484825660434486e+00
 6.771324014091542e-01	 1.302006157726207e+00	 4.182697941469097e+00
 6.469196600189466e-01	 1.314594893144823e+00	 3.888410599897198e+00
 5.822264109706172e-01	 1.183132796540936e+00	 2.951548038859771e+00
 5.547217605929659e-01	 1.193820718170789e+00	 2.672948364220033e+00
 5.269231856692952e-01	 1.203871877666055e+00	 2.406608283779086e+00
 4.988520042113924e-01	 1.213291563054103e+00	 2.153282782603489e+00
 4.705295839165803e-01	 1.222085976622864e+00	 1.913626645639888e+00
 4.419772843415477e-01	 1.230262197256569e+00	 1.688196481716010e+00
 4.132164007555683e-01	 1.237828140375747e+00	 1.477453537520328e+00
 3.842681099253542e-01	 1.244792515783489e+00	 1.281767204712494e+00
 3.551534180596826e-01	 1.251164783723347e+00	 1.101419120518961e+00
 3.258931111168158e-01	 1.256955109454539e+00	 9.366077616350112e-01
 2.965077076518963e-01	 1.262174316647596e+00	 7.874534327579259e-01
 5.886957607827459e-01	 1.196279056813543e+00	 3.062132703266542e+00
 5.608854952672502e-01	 1.207085736202502e+00	 2.781741947966667e+00
 5.327780392929063e-01	 1.217248578138877e+00	 2.512930299359212e+00
 5.043949477444409e-01	 1.226772929407417e+00	 2.256552243141038e+00
 4.757578257441908e-01	 1.235665061212146e+00	 2.013367617521152e+00
 4.468882701834050e-01	 1.243932131093599e+00	 1.784042488830978e+00
 4.178078129515951e-01	 1.251582142423700e+00	 1.569150839147957e+00
 3.885378661189793e-01	 1.258623901783632e+00	 1.369176982791272e+00
 3.590996693027055e-01	 1.265066974533483e+00	 1.184518624065325e+00
 3.295142394221147e-01	 1.270921638882720e+00	 1.015490466315693e+00
 2.998023230222043e-01	 1.276198838767993e+00	 8.623282820480145e-01
 5.951651090848594e-01	 1.209425314018505e+00	 3.168273998384994e+00
 5.670492285028373e-01	 1.220350751138875e+00	 2.886294649996697e+00
 5.386328915499144e-01	 1.230625275490343e+00	 2.615247970491328e+00
 5.099378899836980e-01	 1.240254292615020e+00	 2.356082362211379e+00
 4.809860663514815e-01	 1.249244142632999e+00	 2.109656895453376e+00
 4.517992548790164e-01	 1.257602061741100e+00	 1.876741090816119e+00
 4.223992240759929e-01	 1.265336141262610e+00	 1.658015534330340e+00
 3.928076213160800e-01	 1.272455284556779e+00	 1.454073255312335e+00
 3.630459196247389e-01	 1.278969162100207e+00	 1.265421790793822e+00
 3.331353668823325e-01	 1.284888165052573e+00	 1.092485856376066e+00
 3.030969376236582e-01	 1.290223357616614e+00	 9.356105413081437e-01
 6.016344543676049e-01	 1.222571565088503e+00	 3.270249409037646e+00
 5.732129588616812e-01	 1.233615759884870e+00	 2.986889685058557e+00
 5.444877410743385e-01	 1.244001966599343e+00	 2.713848115976008e+00
 5.154808296359519e-01	 1.253735649531359e+00	 2.452161614636681e+00
 4.862143045186587e-01	 1.262823217717048e+00	 2.202782846703549e+00
 4.567102372826002e-01	 1.271271986009470e+00	 1.966578973362400e+00
 4.269906330575337e-01	 1.279090133683234e+00	 1.744331246353719e+00
 3.970773745204668e-01	 1.286286660875608e+00	 1.536735397745509e+00
 3.669921681050630e-01	 1.292871343179647e+00	 1.344402759248060e+00
 3.367564926525978e-01	 1.298854684705190e+00	 1.167862040249519e+00
 3.063915506875612e-01	 1.304247869921001e+00	 1.007561690057123e+00
 6.081037951216300e-01	 1.235717806956221e+00	 3.368324613489686e+00
 5.793766849057363e-01	 1.246880759345453e+00	 3.083798217999125e+00
 5.503425865001976e-01	 1.257378648344766e+00	 2.809005351814398e+00
 5.210237654079908e-01	 1.267216997010882e+00	 2.545066202419733e+00
 4.914425390259290e-01	 1.276402283295917e+00	 2.293021570725966e+00
 4.616212162483762e-01	 1.284941900709110e+00	 2.053830626314342e+00
 4.315820388249896e-01	 1.292844116476330e+00	 1.828369533360715e+00
 4.013471247359497e-01	 1.300118027512793e+00	 1.617430901540190e+00
 3.709384138229581e-01	 1.306773514527931e+00	 1.421724007139499e+00
 3.403776158880399e-01	 1.312821194581663e+00	 1.241875722451922e+00
 3.096861614452166e-01	 1.318272372408692e+00	 1.078432086264519e+00
 6.145731298375836e-01	 1.248864036554340e+00	 3.462754104715689e+00
 5.855404051969570e-01	 1.260145746425586e+00	 3.177279997863727e+00
 5.561974264615117e-01	 1.270755317605502e+00	 2.900982733382181e+00
 5.265666960066031e-01	 1.280698331908039e+00	 2.635060700629133e+00
 4.966707686534990e-01	 1.289981336201229e+00	 2.380637544810739e+00
 4.665321906305637e-01	 1.298611802650422e+00	 2.138758985556835e+00
 4.361734403071331e-01	 1.306598086432659e+00	 1.910390523384413e+00
 4.056168709663396e-01	 1.313949381241011e+00	 1.696415999651303e+00
 3.748846558577049e-01	 1.320675672901190e+00	 1.497636965150371e+00
 3.439987357437878e-01	 1.326787691423086e+00	 1.314772803885611e+00
 3.129807691279275e-01	 1.332296861807227e+00	 1.148461551814417e+00
 6.210424570061129e-01	 1.262010250815542e+00	 3.553781772847624e+00
 5.917041182972975e-01	 1.273410718030232e+00	 3.267583952375964e+00
 5.620522595922993e-01	 1.284131971260440e+00	 2.990032357478186e+00
 5.321096201385771e-01	 1.294179651077275e+00	 2.722398662928438e+00
 5.018989921815754e-01	 1.303560373264609e+00	 2.465884229390395e+00
 4.714431592833819e-01	 1.312281688643805e+00	 2.221616034795522e+00
 4.407648364327355e-01	 1.320352040342977e+00	 1.990643509703116e+00
 4.098866122154466e-01	 1.327780718832936e+00	 1.773936252980412e+00
 3.788308932885837e-01	 1.334577815055549e+00	 1.572382592384792e+00
 3.476198513749703e-01	 1.340754171970550e+00	 1.386788944634331e+00
 3.162753729669972e-01	 1.346321334844147e+00	 1.217879921386925e+00
 6.275117751178659e-01	 1.275156446672509e+00	 3.641641451604802e+00
 5.978678227687122e-01	 1.286675671064355e+00	 3.354948745655118e+00
 5.679070845265799e-01	 1.297508606188468e+00	 3.076395927143075e+00
 5.376525365107008e-01	 1.307660951373040e+00	 2.807323189659115e+00
 5.071272083903645e-01	 1.317139391317681e+00	 2.549004635914640e+00
 4.763541210610505e-01	 1.325951555499662e+00	 2.302643370123480e+00
 4.453562261305695e-01	 1.334105974998043e+00	 2.069367509379117e+00
 4.141563474870814e-01	 1.341612037061243e+00	 1.850227100552167e+00
 3.827771251948752e-01	 1.348479937747140e+00	 1.646191916234067e+00
 3.512409619367163e-01	 1.354720632965146e+00	 1.458150091955846e+00
 3.195699721937289e-01	 1.360345788246990e+00	 1.286907557398080e+00
 6.339810826634908e-01	 1.288302621057924e+00	 3.726557431277874e+00
 6.040315171731551e-01	 1.299940602432917e+00	 3.439603301796983e+00
 5.737618998983728e-01	 1.310885219268478e+00	 3.160305281906418e+00
 5.431954438297628e-01	 1.321142229649781e+00	 2.890067461152760e+00
 5.123554160600733e-01	 1.330718387192070e+00	 2.630231859966838e+00
 4.812650748177888e-01	 1.339621400028392e+00	 2.382072730031190e+00
 4.499476083294071e-01	 1.347859887188614e+00	 2.146791787610619e+00
 4.184260757850540e-01	 1.355443332698608e+00	 1.925514376015060e+00
 3.867233506558597e-01	 1.362382037732089e+00	 1.719286539198199e+00
 3.548620665841549e-01	 1.368687071147968e+00	 1.529072975956620e+00
 3.228645660394259e-01	 1.374370218743297e+00	 1.355755833420768e+00
 6.404503781336349e-01	 1.301448770904468e+00	 3.808744940630918e+00
 6.101952000725803e-01	 1.313205509040881e+00	 3.521767296730452e+00
 5.796167043416972e-01	 1.324261807379358e+00	 3.241982895906091e+00
 5.487383408025510e-01	 1.334623482761947e+00	 2.970855238729539e+00
 5.175836139709077e-01	 1.344297357719399e+00	 2.709789582078677e+00
 4.861760194078159e-01	 1.353291219040396e+00	 2.460126493304308e+00
 4.545389819580204e-01	 1.361613773705451e+00	 2.223136350312262e+00
 4.226957961131751e-01	 1.369274602517706e+00	 2.000014792847573e+00
 3.906695687508178e-01	 1.376284111766524e+00	 1.791879114998609e+00
 3.584831644724150e-01	 1.382653483260108e+00	 1.599765575233975e+00
 3.261591537353913e-01	 1.388394623060607e+00	 1.424627588315257e+00
 6.469196600189466e-01	 1.314594893144823e+00	 3.888410599897198e+00
 6.163588700289421e-01	 1.326470387793212e+00	 3.601651620570976e+00
 5.854714964905722e-01	 1.337638367399996e+00	 3.321642346128235e+00
 5.542812261358540e-01	 1.348104707563986e+00	 3.049901335644678e+00
 5.228118009030747e-01	 1.357876299731294e+00	 2.787892538503792e+00
 4.910869536853514e-01	 1.366961009346076e+00	 2.537018147054271e+00
 4.591303459451811e-01	 1.375367631339310e+00	 2.298612407149704e+00
 4.269655074752550e-01	 1.383105843291213e+00	 2.073936400459576e+00
 3.946157785590299e-01	 1.390186156606576e+00	 1.864173796132009e+00
 3.621042547566256e-01	 1.396619866042657e+00	 1.670427554586537e+00
 3.294537345129284e-01	 1.402418997926461e+00	 1.493717553119044e+00
 2.965077076518963e-01	 1.262174316647596e+00	 7.874534327579235e-01
 2.670153521752661e-01	 1.266834146772720e+00	 6.548992392619337e-01
 2.374379815785563e-01	 1.270946214663118e+00	 5.393955598039328e-01
 2.077950911590201e-01	 1.274523035088650e+00	 4.401744781988950e-01
 1.781057461811192e-01	 1.277577589043705e+00	 3.563931209211970e-01
 1.483885491539033e-01	 1.280123275467486e+00	 2.871462209388498e-01
 1.186616101822315e-01	 1.282173863421045e+00	 2.314781502705971e-01
 8.894252039400018e-02	 1.283743444944866e+00	 1.883943306631031e-01
 5.924832842448790e-02	 1.284846388803535e+00	 1.568719507484779e-01
 2.959551991936728e-02	 1.285497295306093e+00	 1.358699359756841e-01
 0.000000000000000e+00	 1.285710952372222e+00	 1.243381342639898e-01
 2.998023230222043e-01	 1.276198838767993e+00	 8.623282820480145e-01
 2.699822662242061e-01	 1.280910446123660e+00	 7.259360647339708e-01
 2.400762496692715e-01	 1.285068204839977e+00	 6.067067038351894e-01
 2.101039852746391e-01	 1.288684768743407e+00	 5.039572900096358e-01
 1.800847501464906e-01	 1.291773263065350e+00	 4.169282158809970e-01
 1.500373534937380e-01	 1.294347235625973e+00	 3.447952771626650e-01
 1.199801066498031e-01	 1.296420608479858e+00	 2.866813000380295e-01
 8.993079620458681e-02	 1.298007630249775e+00	 2.416672037218208e-01
 5.990666022752165e-02	 1.299122829357391e+00	 2.088024253225602e-01
 2.992436754283312e-02	 1.299780968341605e+00	 1.871146514053119e-01
 0.000000000000000e+00	 1.299996999436575e+00	 1.756188167628663e-01
 3.030969376236582e-01	 1.290223357616614e+00	 9.356105413081437e-01
 2.729491795807888e-01	 1.294986742190813e+00	 7.956580524304619e-01
 2.427145171443394e-01	 1.299190191722442e+00	 6.729627239563822e-01
 2.124128788514845e-01	 1.302846499094541e+00	 5.669231644214998e-01
 1.820637536500774e-01	 1.305968933775486e+00	 4.768597097959077e-01
 1.516861574488442e-01	 1.308571192466371e+00	 4.020260719680182e-01
 1.212986028097239e-01	 1.310667350215280e+00	 3.416205686695373e-01
 9.091907178457713e-02	 1.312271812227235e+00	 2.947968434163337e-01
 6.056499187694677e-02	 1.313399266580941e+00	 2.606740014872593e-01
 3.025321508956925e-02	 1.314064638045126e+00	 2.383461045990318e-01
 0.000000000000000e+00	 1.314283043168385e+00	 2.268909825125747e-01
 3.063915506875612e-01	 1.304247869921001e+00	 1.007561690057120e+00
 2.759160915527708e-01	 1.309063031689621e+00	 8.643198143641455e-01
 2.453527833881924e-01	 1.313312172015283e+00	 7.384114268509026e-01
 2.147217713508357e-01	 1.317008222837535e+00	 6.293132646950268e-01
 1.840427562301275e-01	 1.320164597861665e+00	 5.364223808611739e-01
 1.533349606345122e-01	 1.322795142669631e+00	 4.590673496795012e-01
 1.226170983543528e-01	 1.324914085302944e+00	 3.965191067592948e-01
 9.190734690337890e-02	 1.326535987548803e+00	 3.480013315822761e-01
 6.122332321915580e-02	 1.327675697142885e+00	 3.127002978390379e-01
 3.058206248284614e-02	 1.328348301083665e+00	 2.897741325775351e-01
 0.000000000000000e+00	 1.328569080234105e+00	 2.783614402868688e-01
 3.096861614452166e-01	 1.318272372408692e+00	 1.078432086264518e+00
 2.788830014479088e-01	 1.323139311335524e+00	 9.321651334895225e-01
 2.479910477852629e-01	 1.327434142423264e+00	 8.032900799569964e-01
 2.170306622339722e-01	 1.331169936667870e+00	 6.913584977363452e-01
 1.860217574248893e-01	 1.334360252011446e+00	 5.958410227813664e-01
 1.549837626660326e-01	 1.337019082916703e+00	 5.161381270177408e-01
 1.239355929760488e-01	 1.339160810418477e+00	 4.515905754220015e-01
 9.289562133039975e-02	 1.340800152886037e+00	 4.014894763284969e-01
 6.188165410054127e-02	 1.341952117711918e+00	 3.650858492015603e-01
 3.091090964593424e-02	 1.342631954124233e+00	 3.415996495040061e-01
 0.000000000000000e+00	 1.342855107300192e+00	 3.302282048298126e-01
 3.129807691279275e-01	 1.332296861807227e+00	 1.148461551814414e+00
 2.818499085739596e-01	 1.337215577843965e+00	 9.994275337916065e-01
 2.506293097199830e-01	 1.341556099651152e+00	 8.678259663205790e-01
 2.193395509621732e-01	 1.345331637281030e+00	 7.532800540764346e-01
 1.880007567726109e-01	 1.348555892912382e+00	 6.553309704550261e-01
 1.566325631586960e-01	 1.351243009888536e+00	 5.734482052747343e-01
 1.252540863671707e-01	 1.353407522237509e+00	 5.070396459447875e-01
 9.388389483504743e-02	 1.355064304910496e+00	 4.554613003407555e-01
 6.253998436749579e-02	 1.356228524956741e+00	 4.180265849363032e-01
 3.123975650210397e-02	 1.356915593833839e+00	 3.940151165276282e-01
 0.000000000000000e+00	 1.357141121033102e+00	 3.826809599184016e-01
 3.162753729669972e-01	 1.346321334844147e+00	 1.217879921386927e+00
 2.848168122386797e-01	 1.351291827930385e+00	 1.066330814753579e+00
 2.532675685767853e-01	 1.355678040403714e+00	 9.322369047790147e-01
 2.216484369967182e-01	 1.359493321372498e+00	 8.152899141113283e-01
 1.899797538115407e-01	 1.362751517252028e+00	 7.150985928126352e-01
 1.582813617277927e-01	 1.365466920266081e+00	 6.311986504878810e-01
 1.265725782200774e-01	 1.367654217435671e+00	 5.630624682198100e-01
 9.487216718672974e-02	 1.369328440293738e+00	 5.101084986747790e-01
 6.319831386641184e-02	 1.370504915546047e+00	 4.717102773670556e-01
 3.156860297462580e-02	 1.371199216879492e+00	 4.472049822699344e-01
 0.000000000000000e+00	 1.371427118099289e+00	 4.359014924917552e-01
 3.195699721937289e-01	 1.360345788246990e+00	 1.286907557398080e+00
 2.877837117498259e-01	 1.365368058310224e+00	 1.133089552773185e+00
 2.559058237401016e-01	 1.369799961385716e+00	 9.967317379774452e-01
 2.239573197988864e-01	 1.373654985637755e+00	 8.775913230362813e-01
 1.919587480799268e-01	 1.376947121717941e+00	 7.753417551784276e-01
 1.599301579886132e-01	 1.379690810730285e+00	 6.895822439194896e-01
 1.278910682271278e-01	 1.381900892688592e+00	 6.198471102091558e-01
 9.586043815485427e-02	 1.383592555707320e+00	 5.656148682397011e-01
 6.385664244368201e-02	 1.384781286148536e+00	 5.263169624738271e-01
 3.189744898677018e-02	 1.385482819928203e+00	 5.013460960717619e-01
 0.000000000000000e+00	 1.385713095165209e+00	 4.900640999339962e-01
 3.228645660394259e-01	 1.374370218743297e+00	 1.355755833420768e+00
 2.907506064151547e-01	 1.379444265698925e+00	 1.199909571889110e+00
 2.585440745943647e-01	 1.383921859301924e+00	 1.061510790514420e+00
 2.262661988299575e-01	 1.387816626772285e+00	 9.403792367109065e-01
 1.939377391160176e-01	 1.391142702997676e+00	 8.362502533312559e-01
 1.615789515564478e-01	 1.393914677962101e+00	 7.487839049638678e-01
 1.292095560806810e-01	 1.396147544671901e+00	 6.775739705109471e-01
 9.684870750882889e-02	 1.397856647822801e+00	 6.221567109938049e-01
 6.451496994569883e-02	 1.399057633432906e+00	 5.820193348377800e-01
 3.222629446180756e-02	 1.399766399646979e+00	 5.566080959464437e-01
 0.000000000000000e+00	 1.399999048897318e+00	 5.453359724283537e-01
 3.261591537353913e-01	 1.388394623060607e+00	 1.424627588315257e+00
 2.937174955424229e-01	 1.393520446811928e+00	 1.266988385985145e+00
 2.611823205240066e-01	 1.398043730857107e+00	 1.126766299328509e+00
 2.285750735512107e-01	 1.401978241471570e+00	 1.003840740508373e+00
 1.959167264580612e-01	 1.405338257778787e+00	 8.980062212664022e-01
 1.632277420465874e-01	 1.408138518642477e+00	 8.089810884301400e-01
 1.305280414730955e-01	 1.410394170061229e+00	 7.364161659279631e-01
 9.783697501806117e-02	 1.412120713311740e+00	 6.799032127106013e-01
 6.517329621885488e-02	 1.413333954067853e+00	 6.389831186553536e-01
 3.255513932300839e-02	 1.414049952702832e+00	 6.131537730264462e-01
 0.000000000000000e+00	 1.414284975962072e+00	 6.018775521440736e-01
 3.294537345129284e-01	 1.402418997926461e+00	 1.493717553119046e+00
 2.966843784393872e-01	 1.407596598364675e+00	 1.334515614469498e+00
 2.638205609134598e-01	 1.412165572756028e+00	 1.192682818268191e+00
 2.308839434239252e-01	 1.416139826431092e+00	 1.068155443041138e+00
 1.978957096443058e-01	 1.419533782748832e+00	 9.607845144973115e-01
 1.648765290743220e-01	 1.422362329452364e+00	 8.703441579946871e-01
 1.318465240967305e-01	 1.424640765532204e+00	 7.965398957884298e-01
 9.882524045195897e-02	 1.426384748845694e+00	 7.390167990245071e-01
 6.583162110954265e-02	 1.427610244722075e+00	 6.973674164980217e-01
 3.288398349364309e-02	 1.428333475762771e+00	 6.711394141492650e-01
 0.000000000000000e+00	 1.428570873025926e+00	 6.598428708780930e-01
 1.428570873025926e+00	 0.000000000000000e+00	 1.213053381052178e+01
 1.428333475762771e+00	 3.288398349364353e-02	 1.211592671998103e+01
 1.427610244722076e+00	 6.583162110954309e-02	 1.209725682569470e+01
 1.426384748845693e+00	 9.882524045195930e-02	 1.207394909115406e+01
 1.424640765532204e+00	 1.318465240967308e-01	 1.204543832613940e+01
 1.422362329452363e+00	 1.648765290743223e-01	 1.201117422813496e+01
 1.419533782748831e+00	 1.978957096443060e-01	 1.197062678521960e+01
 1.416139826431091e+00	 2.308839434239253e-01	 1.192329201293776e+01
 1.412165572756028e+00	 2.638205609134598e-01	 1.186869798895033e+01
 1.407596598364675e+00	 2.966843784393872e-01	 1.180641114006409e+01
 1.402418997926461e+00	 3.294537345129283e-01	 1.173604272669071e+01
 1.442856738422074e+00	 0.000000000000000e+00	 1.204666319078001e+01
 1.442616967160266e+00	 3.321282693534739e-02	 1.203257920004681e+01
 1.441886503729889e+00	 6.648994454095894e-02	 1.201463921093373e+01
 1.440648752760408e+00	 9.981350369522651e-02	 1.199230177926948e+01
 1.438887329422610e+00	 1.331650037977660e-01	 1.196503447981891e+01
 1.436586108732203e+00	 1.665253124472980e-01	 1.193231863743342e+01
 1.433729276251555e+00	 1.998746884438770e-01	 1.189365440024721e+01
 1.430301379998563e+00	 2.331928081787428e-01	 1.184856612937468e+01
 1.426287383351045e+00	 2.664587954549431e-01	 1.179660807137518e+01
 1.421672718714860e+00	 2.996512547599297e-01	 1.173737027108824e+01
 1.416443341704605e+00	 3.327483079876941e-01	 1.167048467344534e+01
 1.457142577150667e+00	 0.000000000000000e+00	 1.196818912282308e+01
 1.456900431894637e+00	 3.354166976321469e-02	 1.195462008910597e+01
 1.456162736088080e+00	 6.714826674351429e-02	 1.193738957154925e+01
 1.454912730048382e+00	 1.008017650937523e-01	 1.191598863239932e+01
 1.453133866718838e+00	 1.344834810376646e-01	 1.188991654870599e+01
 1.450809861460411e+00	 1.681740927425823e-01	 1.185868524238604e+01
 1.447924743255468e+00	 2.018536635494074e-01	 1.182182403346122e+01
 1.444462907130610e+00	 2.355016686237530e-01	 1.177888469282211e+01
 1.440409167584866e+00	 2.690970250718210e-01	 1.172944676318036e+01
 1.435748812789194e+00	 3.026181255424343e-01	 1.167312310873167e+01
 1.430467659303615e+00	 3.360428753127599e-01	 1.160956564559071e+01
 1.471428395878593e+00	 0.000000000000000e+00	 1.189480975709815e+01
 1.471183876631666e+00	 3.387051213070462e-02	 1.188174522950498e+01
 1.470438948459055e+00	 6.780658802442420e-02	 1.186520193698179e+01
 1.469176687366300e+00	 1.017900251087220e-01	 1.184470239022825e+01
 1.467380384069432e+00	 1.358019564317108e-01	 1.181977653315704e+01
 1.465033594274894e+00	 1.698228707295979e-01	 1.178996588081668e+01
 1.462120190385275e+00	 2.038326358844076e-01	 1.175482796216249e+01
 1.458624414436090e+00	 2.378105258364077e-01	 1.171394104586851e+01
 1.454530932047793e+00	 2.717352509952452e-01	 1.166690912017127e+01
 1.449824887156638e+00	 3.055849921714104e-01	 1.161336709010420e+01
 1.444491957268275e+00	 3.393374380255506e-01	 1.155298614754067e+01
 1.485714201272741e+00	 0.000000000000000e+00	 1.182623485938152e+01
 1.485467308037133e+00	 3.419935419127627e-02	 1.181366216754615e+01
 1.484715147505218e+00	 6.846490869090381e-02	 1.179778211020777e+01
 1.483440631370847e+00	 1.027782842013209e-01	 1.177814761543472e+01
 1.481626888122938e+00	 1.371204305951887e-01	 1.175431828480834e+01
 1.479257313813562e+00	 1.714716471777679e-01	 1.172586424792908e+01
 1.476315624265676e+00	 2.058116063723873e-01	 1.169237030397547e+01
 1.472785908523857e+00	 2.401193808941586e-01	 1.165344033029754e+01
 1.468652683330120e+00	 2.743734744563666e-01	 1.160870193129718e+01
 1.463900948386158e+00	 3.085518560313680e-01	 1.155781129370969e+01
 1.458516242143368e+00	 3.426319976634912e-01	 1.150045820696546e+01
 1.500000000000000e+00	 0.000000000000000e+00	 1.176218525756933e+01
 1.499750732776819e+00	 3.452819609838880e-02	 1.175008959605667e+01
 1.498991339888977e+00	 6.912322905016832e-02	 1.173484710699461e+01
 1.497704568718708e+00	 1.037665428327345e-01	 1.171604013059112e+01
 1.495873385527899e+00	 1.384389041433825e-01	 1.169325694213049e+01
 1.493481026714322e+00	 1.731204228565149e-01	 1.166609533157287e+01
 1.490511051521376e+00	 2.077905759368570e-01	 1.163416645292946e+01
 1.486947396002769e+00	 2.424282348744578e-01	 1.159709892513203e+01
 1.482774428022150e+00	 2.770116966863368e-01	 1.155454315984581e+01
 1.477977003046713e+00	 3.115187185068158e-01	 1.150617588501607e+01
 1.472540520473678e+00	 3.459265557640069e-01	 1.145170482599529e+01
 1.514285798727260e+00	 0.000000000000000e+00	 1.170239231980885e+01
 1.514034157516504e+00	 3.485703800550132e-02	 1.169075682853732e+01
 1.513267532272734e+00	 6.978154940943283e-02	 1.167612462692330e+01
 1.511968506066570e+00	 1.047548014641481e-01	 1.165810648696486e+01
 1.510119882932860e+00	 1.397573776915763e-01	 1.163631839795978e+01
 1.507704739615082e+00	 1.747691985352620e-01	 1.161038487950283e+01
 1.504706478777075e+00	 2.097695455013266e-01	 1.157994254748701e+01
 1.501108883481681e+00	 2.447370888547570e-01	 1.154464391651394e+01
 1.496896172714179e+00	 2.796499189163070e-01	 1.150416141629542e+01
 1.492053057707269e+00	 3.144855809822638e-01	 1.145819159343518e+01
 1.486564798803988e+00	 3.492211138645225e-01	 1.140645946351418e+01
 1.528571604121408e+00	 0.000000000000000e+00	 1.164659746191803e+01
 1.528317588921971e+00	 3.518588006607298e-02	 1.163540330282314e+01
 1.527543731318899e+00	 7.043987007591246e-02	 1.162135255409824e+01
 1.526232450071117e+00	 1.057430605567471e-01	 1.160408346313138e+01
 1.524366386986366e+00	 1.410758518550542e-01	 1.158323879691294e+01
 1.521928459153750e+00	 1.764179749834320e-01	 1.155846889653692e+01
 1.518901912657477e+00	 2.117485159893064e-01	 1.152943496842786e+01
 1.515270377569448e+00	 2.470459439125080e-01	 1.149581259733577e+01
 1.511017923996508e+00	 2.822881423774285e-01	 1.145729546075155e+01
 1.506129118936787e+00	 3.174524448422210e-01	 1.141359921865547e+01
 1.500589083679082e+00	 3.525156735024633e-01	 1.136446554650864e+01
 1.542857422849333e+00	 0.000000000000000e+00	 1.159455168219370e+01
 1.542601033659000e+00	 3.551472243356290e-02	 1.158377811234157e+01
 1.541819943689873e+00	 7.109819135682234e-02	 1.157027848561875e+01
 1.540496407389035e+00	 1.067313205717167e-01	 1.155371759146540e+01
 1.538612904336961e+00	 1.423943272491004e-01	 1.153376406074660e+01
 1.536152191968234e+00	 1.780667529704477e-01	 1.151009316967317e+01
 1.533097359787283e+00	 2.137274883243064e-01	 1.148238986465149e+01
 1.529431884874928e+00	 2.493548011251626e-01	 1.145035199469355e+01
 1.525139688459433e+00	 2.849263683008526e-01	 1.141369373304939e+01
 1.520205193304232e+00	 3.204193114711973e-01	 1.137214916442371e+01
 1.514613381643741e+00	 3.558102362152540e-01	 1.132547600858654e+01
 1.557143261577926e+00	 0.000000000000000e+00	 1.154601512184781e+01
 1.556884498393372e+00	 3.584356526143021e-02	 1.153563956319430e+01
 1.556096176048064e+00	 7.175651355937768e-02	 1.152265928602776e+01
 1.554760384677008e+00	 1.077195819702425e-01	 1.150676471071849e+01
 1.552859441633188e+00	 1.437128044889990e-01	 1.148764943986552e+01
 1.550375944696441e+00	 1.797155332657319e-01	 1.146501281936875e+01
 1.547292826791196e+00	 2.157064634298368e-01	 1.143856270510393e+01
 1.543593412006975e+00	 2.516636615701728e-01	 1.140801842337318e+01
 1.539261472693255e+00	 2.875645979177306e-01	 1.137311390874342e+01
 1.534281287378566e+00	 3.233861822537020e-01	 1.133360099801140e+01
 1.528637699242752e+00	 3.591048035403198e-01	 1.128925285391946e+01
 1.571429126974074e+00	 0.000000000000000e+00	 1.150075664943962e+01
 1.571167989790867e+00	 3.617240870313405e-02	 1.149075475541818e+01
 1.570372435055877e+00	 7.241483699079355e-02	 1.147826066608329e+01
 1.569024388591724e+00	 1.087078452135097e-01	 1.146298954302153e+01
 1.567106005523594e+00	 1.450312841900342e-01	 1.144465908931407e+01
 1.564599723976281e+00	 1.813643166387076e-01	 1.142299187531486e+01
 1.561488320293920e+00	 2.176854422294079e-01	 1.139771785516512e+01
 1.557754965574446e+00	 2.539725263249902e-01	 1.136857706371205e+01
 1.553383283288272e+00	 2.902028324592137e-01	 1.133532247933586e+01
 1.548357407728751e+00	 3.263530585742443e-01	 1.129772303373004e+01
 1.542662043020896e+00	 3.623993770150854e-01	 1.125556674498978e+01
 1.402418997926461e+00	 3.294537345129283e-01	 1.173604272669071e+01
 1.396619866042658e+00	 3.621042547566253e-01	 1.165991318918352e+01
 1.390186156606576e+00	 3.946157785590295e-01	 1.158057330211167e+01
 1.383105843291214e+00	 4.269655074752547e-01	 1.149801503766082e+01
 1.375367631339310e+00	 4.591303459451807e-01	 1.141220425630433e+01
 1.366961009346076e+00	 4.910869536853510e-01	 1.132307821930380e+01
 1.357876299731293e+00	 5.228118009030744e-01	 1.123054327067648e+01
 1.348104707563986e+00	 5.542812261358537e-01	 1.113447273802639e+01
 1.337638367399997e+00	 5.854714964905721e-01	 1.103470510230358e+01
 1.326470387793212e+00	 6.163588700289419e-01	 1.093104248614814e+01
 1.314594893144823e+00	 6.469196600189466e-01	 1.082324950887893e+01
 1.416443341704605e+00	 3.327483079876941e-01	 1.167048467344534e+01
 1.410586217866144e+00	 3.657253370143579e-01	 1.159807871646135e+01
 1.404088170630291e+00	 3.985619796201447e-01	 1.152250698316750e+01
 1.396937053405456e+00	 4.312352093732099e-01	 1.144377311073683e+01
 1.389121458485565e+00	 4.637216997552888e-01	 1.136185310323257e+01
 1.380630769350629e+00	 4.959978770775202e-01	 1.127669265207734e+01
 1.371455211643566e+00	 5.280399762466951e-01	 1.118820462946892e+01
 1.361585902483125e+00	 5.598240991830850e-01	 1.109626680719151e+01
 1.351014897769846e+00	 5.913262756620284e-01	 1.100071985411770e+01
 1.339735237142398e+00	 6.225225263232392e-01	 1.090136566541264e+01
 1.327740986245340e+00	 6.533889275647720e-01	 1.079796607491753e+01
 1.430467659303615e+00	 3.360428753127599e-01	 1.160956564559071e+01
 1.424552543618833e+00	 3.693464125129539e-01	 1.154071466350151e+01
 1.417990158703402e+00	 4.025081733152876e-01	 1.146873411911101e+01
 1.410768237701365e+00	 4.355049033013803e-01	 1.139363835829449e+01
 1.402875259958045e+00	 4.683130449952526e-01	 1.131541269859101e+01
 1.394300503838440e+00	 5.009087913030714e-01	 1.123401057360667e+01
 1.385034098208786e+00	 5.332681418315466e-01	 1.114935085349497e+01
 1.375067072237715e+00	 5.653669618841587e-01	 1.106131539676450e+01
 1.364391403170606e+00	 5.971810439051404e-01	 1.096974688967591e+01
 1.353000061731035e+00	 6.286861711126494e-01	 1.087444702932296e+01
 1.340887054807036e+00	 6.598581830352498e-01	 1.077517510501547e+01
 1.444491957268275e+00	 3.393374380255506e-01	 1.155298614754067e+01
 1.438518849818423e+00	 3.729674829421977e-01	 1.148752527698909e+01
 1.431892127313559e+00	 4.064543614859512e-01	 1.141896337665710e+01
 1.424599402633524e+00	 4.397745912522124e-01	 1.134732457923710e+01
 1.416629042175190e+00	 4.729043838076080e-01	 1.127260271750526e+01
 1.407970219188693e+00	 5.058196986536592e-01	 1.119475830825238e+01
 1.398612965763713e+00	 5.384963000973219e-01	 1.111371571507319e+01
 1.388548223118887e+00	 5.709098168256141e-01	 1.102936054781996e+01
 1.377767889844539e+00	 6.030358039519947e-01	 1.094153735769089e+01
 1.366264867749247e+00	 6.348498072733942e-01	 1.085004768686401e+01
 1.354033104964594e+00	 6.663274294492167e-01	 1.075464853016613e+01
 1.458516242143368e+00	 3.426319976634912e-01	 1.150045820696546e+01
 1.452485142982614e+00	 3.765885499918734e-01	 1.143822618276889e+01
 1.445794082948414e+00	 4.104005459736285e-01	 1.137291463152205e+01
 1.438430554656515e+00	 4.440442752181522e-01	 1.130455658392693e+01
 1.430382811555445e+00	 4.774957183348914e-01	 1.123315362040814e+01
 1.421639921780571e+00	 5.107306014209381e-01	 1.115867270980691e+01
 1.412191820645105e+00	 5.437244534837126e-01	 1.108104322936619e+01
 1.402029361417770e+00	 5.764526665939903e-01	 1.100015422612726e+01
 1.391144364033907e+00	 6.088905585346770e-01	 1.091585198116314e+01
 1.379529661387155e+00	 6.410134376816954e-01	 1.082793793811443e+01
 1.367179142852703e+00	 6.727966698255098e-01	 1.073616705612412e+01
 1.472540520473678e+00	 3.459265557640069e-01	 1.145170482599529e+01
 1.466451429629105e+00	 3.802096153517646e-01	 1.139254384391939e+01
 1.459696032095616e+00	 4.143467286198128e-01	 1.133031843460958e+01
 1.452261700224921e+00	 4.483139571916458e-01	 1.126506966978848e+01
 1.444136574517253e+00	 4.820870507196391e-01	 1.119680613942333e+01
 1.435309617993256e+00	 5.156415018965624e-01	 1.112550066007495e+01
 1.425770669189721e+00	 5.489526044304112e-01	 1.105108716662142e+01
 1.415510493425496e+00	 5.819955137758276e-01	 1.097345784955556e+01
 1.404520831980972e+00	 6.147453103852731e-01	 1.089246060148752e+01
 1.392794448834883e+00	 6.471770652137749e-01	 1.080789683661680e+01
 1.380325174606045e+00	 6.792659071829659e-01	 1.071951974561810e+01
 1.486564798803988e+00	 3.492211138645225e-01	 1.140645946351418e+01
 1.480417716275596e+00	 3.838306807116561e-01	 1.135021504952784e+01
 1.473597981242819e+00	 4.182929112659970e-01	 1.129091550843882e+01
 1.466092845793325e+00	 4.525836391651394e-01	 1.122860912661993e+01
 1.457890337479054e+00	 4.866783831043864e-01	 1.116331079384653e+01
 1.448979314205931e+00	 5.205524023721870e-01	 1.109499859586048e+01
 1.439349517734319e+00	 5.541807553771096e-01	 1.102361059204461e+01
 1.428991625433194e+00	 5.875383609576647e-01	 1.094904184225244e+01
 1.417897299927996e+00	 6.206000622358694e-01	 1.087114174838701e+01
 1.406059236282551e+00	 6.533406927458544e-01	 1.078971177654028e+01
 1.393471206359307e+00	 6.857351445404221e-01	 1.070450362423198e+01
 1.500589083679082e+00	 3.525156735024633e-01	 1.136446554650864e+01
 1.494384009439786e+00	 3.874517477613316e-01	 1.131098643215648e+01
 1.487499936877670e+00	 4.222390957536742e-01	 1.125445627183359e+01
 1.479923997816310e+00	 4.568533231310791e-01	 1.119492976966767e+01
 1.471644106859294e+00	 4.912697176316699e-01	 1.113242743281886e+01
 1.462649016797778e+00	 5.254633051394657e-01	 1.106693206250022e+01
 1.452928372615660e+00	 5.594089087635005e-01	 1.099838543149644e+01
 1.442472763731995e+00	 5.930812107260414e-01	 1.092668521384292e+01
 1.431273774117241e+00	 6.264548168185513e-01	 1.085168223398266e+01
 1.419324029920284e+00	 6.595043231541553e-01	 1.077317810301279e+01
 1.406617244247173e+00	 6.922043849167152e-01	 1.069092330840493e+01
 1.514613381643741e+00	 3.558102362152540e-01	 1.132547600858654e+01
 1.508350315639376e+00	 3.910728181905754e-01	 1.127461401213865e+01
 1.501401905487825e+00	 4.261852839243379e-01	 1.122070039104016e+01
 1.493755162748458e+00	 4.611230110819112e-01	 1.116379549866273e+01
 1.485397889076415e+00	 4.958610564440254e-01	 1.110392480342851e+01
 1.476318732147982e+00	 5.303742124900537e-01	 1.104107529222163e+01
 1.466507240170501e+00	 5.646370670292757e-01	 1.097519206133743e+01
 1.455953914613030e+00	 5.986240656674965e-01	 1.090617516202595e+01
 1.444650260790970e+00	 6.323095768654057e-01	 1.083387676943433e+01
 1.432588835938203e+00	 6.656679593149002e-01	 1.075809874411941e+01
 1.419763294404329e+00	 6.986736313306823e-01	 1.067859065411540e+01
 1.528637699242752e+00	 3.591048035403198e-01	 1.128925285391946e+01
 1.522316641392064e+00	 3.946938936891715e-01	 1.124086276698032e+01
 1.515303893560931e+00	 4.301314776194807e-01	 1.118941635557452e+01
 1.507586347044352e+00	 4.653927050100816e-01	 1.113497888115069e+01
 1.499151690548858e+00	 5.004524016839892e-01	 1.107758014260650e+01
 1.489988466635725e+00	 5.352851267156048e-01	 1.101721080572968e+01
 1.480086126735601e+00	 5.698652326141274e-01	 1.095381892086889e+01
 1.469435084367429e+00	 6.041669283685701e-01	 1.088730669706443e+01
 1.458026766191443e+00	 6.381643451085179e-01	 1.081752760270103e+01
 1.445853660526431e+00	 6.718316041043105e-01	 1.074428386317455e+01
 1.432909362965459e+00	 7.051428868011598e-01	 1.066732442491970e+01
 1.542662043020896e+00	 3.623993770150854e-01	 1.125556674498978e+01
 1.536282993215550e+00	 3.983149759469040e-01	 1.120950622426814e+01
 1.529205907584642e+00	 4.340776786805960e-01	 1.116038107722428e+01
 1.521417557158576e+00	 4.696624069080367e-01	 1.110826075856766e+01
 1.512905517695068e+00	 5.050437554940970e-01	 1.105317879130079e+01
 1.503658226640188e+00	 5.401960501077737e-01	 1.099512903554335e+01
 1.493665038647719e+00	 5.750934079577475e-01	 1.093406214593077e+01
 1.482916279286322e+00	 6.097098014158012e-01	 1.086988228677443e+01
 1.471403296560924e+00	 6.440191242799742e-01	 1.080244417607613e+01
 1.459118509875090e+00	 6.779952603986078e-01	 1.073155052997678e+01
 1.446055456065250e+00	 7.116121543469853e-01	 1.065694997811237e+01
 1.314594893144823e+00	 6.469196600189466e-01	 1.082324950887893e+01
 1.302006157726207e+00	 6.771324014091545e-01	 1.070912463557652e+01
 1.288701263618528e+00	 7.069715536127238e-01	 1.058684059177868e+01
 1.274677610405123e+00	 7.364139816884141e-01	 1.045665355717412e+01
 1.259933748325849e+00	 7.654368751281202e-01	 1.031879266799365e+01
 1.244469402142706e+00	 7.940178164717294e-01	 1.017345664328042e+01
 1.228285490601410e+00	 8.221348496568718e-01	 1.002081072689754e+01
 1.211384141277094e+00	 8.497665476991278e-01	 9.860984008889842e+00
 1.193768700623030e+00	 8.768920792936009e-01	 9.694067185305212e+00
 1.175443739074679e+00	 9.034912739280352e-01	 9.520110809374433e+00
 1.156415051097081e+00	 9.295446851010828e-01	 9.339124079130816e+00
 1.327740986245340e+00	 6.533889275647720e-01	 1.079796607491753e+01
 1.315026362092133e+00	 6.839037996823172e-01	 1.068830079883925e+01
 1.301588417584430e+00	 7.140413466803667e-01	 1.057050896613018e+01
 1.287424526301110e+00	 7.437782022657358e-01	 1.044482049479942e+01
 1.272533223984267e+00	 7.730913278227418e-01	 1.031143823903674e+01
 1.256914232643484e+00	 8.019580817142202e-01	 1.017053483245881e+01
 1.240568480212031e+00	 8.303562883147737e-01	 1.002224985261629e+01
 1.223498115541023e+00	 8.582643063677963e-01	 9.866687367482607e+00
 1.205706518548623e+00	 8.856610962530627e-01	 9.703913919945331e+00
 1.187198305375145e+00	 9.125262857509887e-01	 9.533956999984582e+00
 1.167979328430909e+00	 9.388402338930860e-01	 9.356804046344452e+00
 1.340887054807036e+00	 6.598581830352498e-01	 1.077517510501547e+01
 1.328046542154254e+00	 6.906751853161535e-01	 1.066969855869386e+01
 1.314475547494891e+00	 7.211111265516637e-01	 1.055612957785082e+01
 1.300171418403419e+00	 7.511424090970864e-01	 1.043467249704764e+01
 1.285132676124198e+00	 7.807457662295900e-01	 1.030550464368590e+01
 1.269359039914403e+00	 8.098983321353761e-01	 1.016877339585093e+01
 1.252851446894847e+00	 8.385777116264355e-01	 1.002459356594460e+01
 1.235612067192585e+00	 8.667620491743747e-01	 9.873045167925380e+00
 1.217644314190617e+00	 8.944300968440329e-01	 9.714171621100220e+00
 1.198952849734027e+00	 9.215612807088772e-01	 9.547978436967771e+00
 1.179543584178313e+00	 9.481357653336441e-01	 9.374432427692884e+00
 1.354033104964594e+00	 6.663274294492167e-01	 1.075464853016613e+01
 1.341066703988496e+00	 6.974465614704949e-01	 1.065310116819644e+01
 1.327362659363738e+00	 7.281808965257016e-01	 1.054349713191430e+01
 1.312918292660426e+00	 7.585066056189583e-01	 1.042601584483040e+01
 1.297732110625212e+00	 7.884001939206060e-01	 1.030080985584566e+01
 1.281803829762870e+00	 8.178385714405283e-01	 1.016800210933954e+01
 1.265134396381741e+00	 8.467991234284111e-01	 1.002768354459501e+01
 1.247726001884798e+00	 8.752597800843780e-01	 9.879911079465437e+00
 1.229582093119834e+00	 9.031990851586249e-01	 9.724706028161823e+00
 1.210707377636641e+00	 9.305962630179525e-01	 9.562052996503345e+00
 1.191107823735815e+00	 9.574312837605971e-01	 9.391899290033358e+00
 1.367179142852703e+00	 6.727966698255098e-01	 1.073616705612412e+01
 1.354086853670782e+00	 7.042179313051731e-01	 1.063830021960397e+01
 1.340249759204795e+00	 7.352506599015664e-01	 1.053241423194618e+01
 1.325665155020511e+00	 7.658707952678440e-01	 1.041866427239839e+01
 1.310331533366881e+00	 7.960546144677322e-01	 1.029717885295082e+01
 1.294248607996289e+00	 8.257788033350082e-01	 1.016805729834338e+01
 1.277417334404598e+00	 8.550205275572582e-01	 1.003136755798689e+01
 1.259839925270682e+00	 8.837575030633226e-01	 9.887144401782489e+00
 1.241519860907095e+00	 9.119680652889500e-01	 9.735388046660692e+00
 1.222461894568301e+00	 9.396312368944653e-01	 9.576063254054899e+00
 1.202672052499939e+00	 9.667267935117863e-01	 9.409098930581527e+00
 1.380325174606045e+00	 6.792659071829659e-01	 1.071951974561810e+01
 1.367106997277037e+00	 7.109892979800194e-01	 1.062509524734585e+01
 1.353136853031889e+00	 7.423204199783444e-01	 1.052269100419201e+01
 1.338412011432047e+00	 7.732349814802353e-01	 1.041243861253293e+01
 1.322930950228776e+00	 8.037090314429114e-01	 1.029444328259584e+01
 1.306693380422067e+00	 8.337190315241463e-01	 1.016878152608346e+01
 1.289700266695305e+00	 8.632419278495311e-01	 1.003549917733226e+01
 1.271953843003254e+00	 8.922552220767233e-01	 9.894609797057869e+00
 1.253457623123223e+00	 9.207370413271208e-01	 9.746093502461912e+00
 1.234216406014319e+00	 9.486662065546664e-01	 9.589896260814513e+00
 1.214236275867208e+00	 9.760222989250513e-01	 9.425929675701861e+00
 1.393471206359307e+00	 6.857351445404221e-01	 1.070450362423198e+01
 1.380127140883184e+00	 7.177606646548657e-01	 1.061329335348786e+01
 1.366023946858845e+00	 7.493901800551216e-01	 1.051414474278830e+01
 1.351158867843413e+00	 7.805991676926244e-01	 1.040716646183821e+01
 1.335530367090467e+00	 8.113634484180853e-01	 1.029244114805021e+01
 1.319138152847608e+00	 8.416592597132743e-01	 1.017002329950972e+01
 1.301983198985745e+00	 8.714633281417865e-01	 1.003993750214579e+01
 1.284067760735535e+00	 9.007529410900955e-01	 9.902177037222513e+00
 1.265395385339038e+00	 9.295060173652493e-01	 9.756702909886432e+00
 1.245970917460011e+00	 9.577011762148074e-01	 9.603443332811819e+00
 1.225800499234146e+00	 9.853178043382338e-01	 9.442293691097102e+00
 1.406617244247173e+00	 6.922043849167152e-01	 1.069092330840493e+01
 1.393147290565148e+00	 7.245320344895437e-01	 1.060270885421595e+01
 1.378911046699490e+00	 7.564599434309848e-01	 1.050659957494172e+01
 1.363905730202986e+00	 7.879633573415036e-01	 1.040268186481796e+01
 1.348129789831525e+00	 8.190178689651958e-01	 1.029101651142345e+01
 1.331582931080320e+00	 8.495994916077230e-01	 1.017163679173167e+01
 1.314266137007805e+00	 8.796847322705800e-01	 1.004454690210376e+01
 1.296181684120543e+00	 9.092506640689551e-01	 9.909720765389963e+00
 1.277333153125360e+00	 9.382749974954472e-01	 9.767101252845716e+00
 1.257725434390691e+00	 9.667361500911392e-01	 9.616599851858750e+00
 1.237364727997274e+00	 9.946133140891735e-01	 9.458096802650193e+00
 1.419763294404329e+00	 6.986736313306823e-01	 1.067859065411540e+01
 1.406167452398852e+00	 7.313034106438844e-01	 1.059316294597618e+01
 1.391798158567646e+00	 7.635297134050192e-01	 1.049988614472505e+01
 1.376652604459141e+00	 7.953275538633646e-01	 1.039882501551824e+01
 1.360729224331522e+00	 8.266722966561857e-01	 1.029001921333471e+01
 1.344027720927606e+00	 8.575397309128240e-01	 1.017348157988257e+01
 1.326549086493368e+00	 8.879061440724667e-01	 1.004919677325604e+01
 1.308295618811295e+00	 9.177483949788170e-01	 9.917120270554083e+00
 1.289270932053014e+00	 9.470439858098275e-01	 9.777177778146022e+00
 1.269479962291672e+00	 9.757711323999124e-01	 9.629265077562113e+00
 1.248928967553118e+00	 1.003908832515712e+00	 9.473248327227818e+00
 1.432909362965459e+00	 7.051428868011598e-01	 1.066732442491970e+01
 1.419187632460221e+00	 7.380747962777202e-01	 1.058448339000763e+01
 1.404685288477143e+00	 7.705994932763116e-01	 1.049384131429315e+01
 1.389399496560257e+00	 8.026917606947001e-01	 1.039544197560706e+01
 1.373328676470027e+00	 8.343267350629970e-01	 1.028930460802623e+01
 1.356472528196873e+00	 8.654799813339080e-01	 1.017542239742491e+01
 1.338832053174321e+00	 8.961275673840037e-01	 1.005376130766882e+01
 1.320409570460812e+00	 9.262461377851972e-01	 9.924259274699164e+00
 1.301208727692818e+00	 9.558129864005016e-01	 9.786825800179603e+00
 1.281234506648269e+00	 9.848061273573786e-01	 9.641341969692762e+00
 1.260493223298199e+00	 1.013204363955689e+00	 9.487660912805197e+00
 1.446055456065250e+00	 7.116121543469853e-01	 1.065694997811237e+01
 1.432207836825179e+00	 7.448461945508820e-01	 1.057650421409663e+01
 1.417572442441803e+00	 7.776692863439487e-01	 1.048830788140991e+01
 1.402146412454711e+00	 8.100559812720015e-01	 1.039238440784417e+01
 1.385928152126612e+00	 8.419811877575717e-01	 1.028873331293698e+01
 1.368917358695528e+00	 8.734202465763066e-01	 1.017732889997777e+01
 1.351115042782549e+00	 9.043490060417461e-01	 1.005811927564261e+01
 1.332523544722111e+00	 9.347438964536106e-01	 9.931025731531554e+00
 1.313146545615595e+00	 9.645820033595822e-01	 9.795942516277975e+00
 1.292989072945795e+00	 9.938411391797882e-01	 9.652737020251502e+00
 1.272057500629041e+00	 1.022499912746946e+00	 9.501250387318439e+00
 1.156415051097081e+00	 9.295446851010828e-01	 9.339124079130816e+00
 1.136689647123178e+00	 9.550336534767583e-01	 9.147429300859992e+00
 1.116275734373034e+00	 9.799403718027949e-01	 8.941896473320112e+00
 1.095182710406913e+00	 1.004247933371997e+00	 8.723391968031365e+00
 1.073421145629011e+00	 1.027940381546648e+00	 8.492867370877171e+00
 1.051002757783851e+00	 1.051002757783852e+00	 8.251353352910858e+00
 1.027940381546647e+00	 1.073421145629011e+00	 7.999952622030523e+00
 1.004247933371997e+00	 1.095182710406913e+00	 7.739832050951394e+00
 9.799403718027947e-01	 1.116275734373035e+00	 7.472214092783878e+00
 9.550336534767578e-01	 1.136689647123179e+00	 7.198367608855759e+00
 9.295446851010828e-01	 1.156415051097081e+00	 6.919598243808195e+00
 1.167979328430909e+00	 9.388402338930860e-01	 9.356804046344452e+00
 1.148056668253955e+00	 9.645840947479684e-01	 9.168956269954950e+00
 1.127438614137450e+00	 9.897398829888864e-01	 8.967438360818178e+00
 1.106134657618302e+00	 1.014290522839711e+00	 8.753058167509320e+00
 1.084155474805915e+00	 1.038219898094590e+00	 8.526707045114216e+00
 1.061512900623551e+00	 1.061512900623551e+00	 8.289354186006445e+00
 1.038219898094590e+00	 1.084155474805915e+00	 8.042040049498883e+00
 1.014290522839711e+00	 1.106134657618302e+00	 7.785868978956745e+00
 9.897398829888857e-01	 1.127438614137450e+00	 7.522001110588674e+00
 9.645840947479679e-01	 1.148056668253955e+00	 7.251643691377847e+00
 9.388402338930860e-01	 1.167979328430909e+00	 6.976041934092323e+00
 1.179543584178313e+00	 9.481357653336441e-01	 9.374432427692884e+00
 1.159423668166479e+00	 9.741345181918949e-01	 9.190208295251560e+00
 1.138601473064650e+00	 9.995393758827325e-01	 8.992480940562629e+00
 1.117086584386196e+00	 1.024333093561410e+00	 8.782002295955170e+00
 1.094889783945534e+00	 1.048499395454237e+00	 8.559606133439210e+00
 1.072023023844444e+00	 1.072023023844445e+00	 8.326202834662013e+00
 1.048499395454236e+00	 1.094889783945534e+00	 8.082773277328453e+00
 1.024333093561409e+00	 1.117086584386196e+00	 7.830361920134695e+00
 9.995393758827319e-01	 1.138601473064650e+00	 7.570069183650595e+00
 9.741345181918943e-01	 1.159423668166480e+00	 7.303043237743100e+00
 9.481357653336442e-01	 1.179543584178313e+00	 7.030471316684478e+00
 1.191107823735815e+00	 9.574312837605971e-01	 9.391899290033358e+00
 1.170790652165233e+00	 9.836849282653308e-01	 9.211087769003020e+00
 1.149764316363858e+00	 1.009338855057359e+00	 9.016939118031242e+00
 1.128038495821394e+00	 1.034375650223553e+00	 8.810151903729283e+00
 1.105624078057122e+00	 1.058778878422611e+00	 8.591504905149373e+00
 1.082533132351175e+00	 1.082533132351175e+00	 8.361852302542340e+00
 1.058778878422611e+00	 1.105624078057122e+00	 8.122117999764820e+00
 1.034375650223553e+00	 1.128038495821395e+00	 7.873289156148974e+00
 1.009338855057359e+00	 1.149764316363859e+00	 7.616409018791174e+00
 9.836849282653305e-01	 1.170790652165234e+00	 7.352569159283764e+00
 9.574312837605973e-01	 1.191107823735815e+00	 7.082901229527742e+00
 1.202672052499939e+00	 9.667267935117863e-01	 9.409098930581527e+00
 1.182157625554698e+00	 9.932353294250700e-01	 9.231500839708790e+00
 1.160927149244302e+00	 1.019138325085792e+00	 9.040731073601206e+00
 1.138990397034699e+00	 1.044418197512602e+00	 8.837437329668177e+00
 1.116358362149933e+00	 1.069058351796734e+00	 8.622345928732489e+00
 1.093043231048384e+00	 1.093043231048384e+00	 8.396257402607567e+00
 1.069058351796734e+00	 1.116358362149933e+00	 8.160041232120236e+00
 1.044418197512602e+00	 1.138990397034699e+00	 7.914629805449620e+00
 1.019138325085792e+00	 1.160927149244302e+00	 7.661011681557775e+00
 9.932353294250695e-01	 1.182157625554698e+00	 7.400224256461677e+00
 9.667267935117863e-01	 1.202672052499939e+00	 7.133345940763181e+00
 1.214236275867208e+00	 9.760222989250513e-01	 9.425929675701861e+00
 1.193524593639354e+00	 1.002785726127905e+00	 9.251357233497860e+00
 1.172089976915204e+00	 1.028937790541059e+00	 9.063778106869105e+00
 1.149942293136908e+00	 1.054460740115017e+00	 8.863791568582613e+00
 1.127092641233221e+00	 1.079337820373628e+00	 8.652073962678204e+00
 1.103553324840712e+00	 1.103553324840712e+00	 8.429374671265627e+00
 1.079337820373628e+00	 1.127092641233221e+00	 8.196511248186205e+00
 1.054460740115017e+00	 1.149942293136908e+00	 7.954363783756188e+00
 1.028937790541058e+00	 1.172089976915205e+00	 7.703868579479199e+00
 1.002785726127905e+00	 1.193524593639354e+00	 7.446011224490682e+00
 9.760222989250517e-01	 1.214236275867209e+00	 7.181819176209029e+00
 1.225800499234146e+00	 9.853178043382338e-01	 9.442293691097102e+00
 1.204891561723683e+00	 1.012336122830632e+00	 9.270570085630933e+00
 1.183252804585793e+00	 1.038737255996183e+00	 9.086004489790717e+00
 1.160894189238823e+00	 1.064503282717258e+00	 8.889150146262065e+00
 1.137826920316240e+00	 1.089617288950315e+00	 8.680635852475044e+00
 1.114063418632800e+00	 1.114063418632800e+00	 8.461162287388079e+00
 1.089617288950315e+00	 1.137826920316241e+00	 8.231497521191821e+00
 1.064503282717258e+00	 1.160894189238823e+00	 7.992471766779538e+00
 1.038737255996183e+00	 1.183252804585794e+00	 7.744971446269620e+00
 1.012336122830631e+00	 1.204891561723683e+00	 7.489932658640654e+00
 9.853178043382338e-01	 1.225800499234146e+00	 7.228334145283227e+00
 1.237364727997274e+00	 9.946133140891735e-01	 9.458096802650193e+00
 1.216258535112166e+00	 1.021886523990040e+00	 9.289055781459213e+00
 1.194415637465293e+00	 1.048536726024194e+00	 9.107337328062705e+00
 1.171846090451243e+00	 1.074545830005786e+00	 8.913451001494257e+00
 1.148561204408244e+00	 1.099896762323818e+00	 8.707980433388157e+00
 1.124573517329290e+00	 1.124573517329291e+00	 8.491579995870811e+00
 1.099896762323817e+00	 1.148561204408244e+00	 8.264970668075660e+00
 1.074545830005786e+00	 1.171846090451244e+00	 8.028935155035725e+00
 1.048536726024194e+00	 1.194415637465293e+00	 7.784312326919247e+00
 1.021886523990040e+00	 1.216258535112166e+00	 7.531991059243826e+00
 9.946133140891735e-01	 1.237364727997274e+00	 7.272903565471019e+00
 1.248928967553118e+00	 1.003908832515712e+00	 9.473248327227818e+00
 1.227625519109282e+00	 1.031436934062925e+00	 9.306733806225946e+00
 1.205578480762928e+00	 1.058336205198116e+00	 9.127706430211866e+00
 1.182798001884969e+00	 1.084588386667060e+00	 8.936634374644633e+00
 1.159295498518487e+00	 1.110176245291156e+00	 8.734058438642878e+00
 1.135083625834824e+00	 1.135083625834825e+00	 8.520589035445093e+00
 1.110176245291155e+00	 1.159295498518488e+00	 8.296902396856177e+00
 1.084588386667060e+00	 1.182798001884970e+00	 8.063736040616455e+00
 1.058336205198115e+00	 1.205578480762929e+00	 7.821883563613824e+00
 1.031436934062925e+00	 1.227625519109283e+00	 7.572188836422626e+00
 1.003908832515712e+00	 1.248928967553118e+00	 7.315539685432118e+00
 1.260493223298199e+00	 1.013204363955689e+00	 9.487660912805197e+00
 1.238992519019514e+00	 1.040987357506080e+00	 9.323526603142881e+00
 1.216741339687926e+00	 1.068135698090975e+00	 9.147044183896432e+00
 1.193749928650801e+00	 1.094630957387542e+00	 8.958642702374028e+00
 1.170029807656223e+00	 1.120455742649354e+00	 8.758822412666527e+00
 1.145593749054043e+00	 1.145593749054043e+00	 8.548152070465449e+00
 1.120455742649353e+00	 1.170029807656223e+00	 8.327265456901587e+00
 1.094630957387542e+00	 1.193749928650801e+00	 8.096857175790024e+00
 1.068135698090974e+00	 1.216741339687926e+00	 7.857677782429759e+00
 1.040987357506080e+00	 1.238992519019515e+00	 7.610528314557108e+00
 1.013204363955689e+00	 1.260493223298199e+00	 7.356254306834794e+00
 1.272057500629041e+00	 1.022499912746946e+00	 9.501250387318439e+00
 1.250359540147344e+00	 1.050537798776298e+00	 9.339359439214125e+00
 1.227904219449511e+00	 1.077935209275797e+00	 9.165285438960019e+00
 1.204701875859538e+00	 1.104673546853691e+00	 8.979420518103897e+00
 1.180764136830705e+00	 1.130735259195432e+00	 8.782226629066265e+00
 1.156103891891588e+00	 1.156103891891588e+00	 8.574233126421317e+00
 1.130735259195432e+00	 1.180764136830706e+00	 8.356033591914459e+00
 1.104673546853691e+00	 1.204701875859538e+00	 8.128281943316370e+00
 1.077935209275797e+00	 1.227904219449511e+00	 7.891687880755693e+00
 1.050537798776297e+00	 1.250359540147344e+00	 7.647011736508424e+00
 1.022499912746946e+00	 1.272057500629041e+00	 7.395058804998047e+00
 9.295446851010828e-01	 1.156415051097081e+00	 6.919598243808195e+00
 9.034912739280351e-01	 1.175443739074679e+00	 6.633528895517703e+00
 8.768920792936006e-01	 1.193768700623031e+00	 6.338145353392688e+00
 8.497665476991274e-01	 1.211384141277095e+00	 6.035397633538759e+00
 8.221348496568712e-01	 1.228285490601410e+00	 5.727326705059573e+00
 7.940178164717289e-01	 1.244469402142706e+00	 5.416047009730077e+00
 7.654368751281195e-01	 1.259933748325849e+00	 5.103728581276069e+00
 7.364139816884138e-01	 1.274677610405123e+00	 4.792579031243757e+00
 7.069715536127235e-01	 1.288701263618529e+00	 4.484825660434486e+00
 6.771324014091542e-01	 1.302006157726207e+00	 4.182697941469097e+00
 6.469196600189466e-01	 1.314594893144823e+00	 3.888410599897198e+00
 9.388402338930860e-01	 1.167979328430909e+00	 6.976041934092323e+00
 9.125262857509882e-01	 1.187198305375145e+00	 6.692925842586877e+00
 8.856610962530621e-01	 1.205706518548624e+00	 6.400400956665550e+00
 8.582643063677960e-01	 1.223498115541023e+00	 6.100377577023524e+00
 8.303562883147731e-01	 1.240568480212031e+00	 5.794857944729083e+00
 8.019580817142199e-01	 1.256914232643485e+00	 5.485919008688160e+00
 7.730913278227416e-01	 1.272533223984267e+00	 5.175694772827458e+00
 7.437782022657355e-01	 1.287424526301110e+00	 4.866358487647849e+00
 7.140413466803662e-01	 1.301588417584430e+00	 4.560104943276468e+00
 6.839037996823167e-01	 1.315026362092133e+00	 4.259133108234680e+00
 6.533889275647721e-01	 1.327740986245340e+00	 3.965629340494269e+00
 9.481357653336442e-01	 1.179543584178313e+00	 7.030471316684478e+00
 9.215612807088770e-01	 1.198952849734028e+00	 6.750190342273118e+00
 8.944300968440325e-01	 1.217644314190618e+00	 6.460423883929718e+00
 8.667620491743738e-01	 1.235612067192585e+00	 6.163042455073594e+00
 8.385777116264349e-01	 1.252851446894847e+00	 5.860009299415040e+00
 8.098983321353757e-01	 1.269359039914404e+00	 5.553363414249075e+00
 7.807457662295895e-01	 1.285132676124198e+00	 5.245202135504508e+00
 7.511424090970859e-01	 1.300171418403419e+00	 4.937663546646245e+00
 7.211111265516633e-01	 1.314475547494891e+00	 4.632908966468566e+00
 6.906751853161528e-01	 1.328046542154255e+00	 4.333105758393522e+00
 6.598581830352498e-01	 1.340887054807035e+00	 4.040410686734522e+00
 9.574312837605973e-01	 1.191107823735815e+00	 7.082901229527742e+00
 9.305962630179522e-01	 1.210707377636642e+00	 6.805348642087671e+00
 9.031990851586242e-01	 1.229582093119834e+00	 6.518251080935187e+00
 8.752597800843774e-01	 1.247726001884798e+00	 6.223439214346407e+00
 8.467991234284110e-01	 1.265134396381741e+00	 5.922837037052486e+00
 8.178385714405275e-01	 1.281803829762870e+00	 5.618445157218366e+00
 7.884001939206055e-01	 1.297732110625213e+00	 5.312323629106730e+00
 7.585066056189579e-01	 1.312918292660427e+00	 5.006574590754287e+00
 7.281808965257009e-01	 1.327362659363738e+00	 4.703324959369661e+00
 6.974465614704943e-01	 1.341066703988496e+00	 4.404709425207772e+00
 6.663274294492167e-01	 1.354033104964595e+00	 4.112853968010175e+00
 9.667267935117863e-01	 1.202672052499939e+00	 7.133345940763181e+00
 9.396312368944647e-01	 1.222461894568301e+00	 6.858425980666988e+00
 9.119680652889495e-01	 1.241519860907096e+00	 6.573918072814166e+00
 8.837575030633220e-01	 1.259839925270682e+00	 6.281612995932120e+00
 8.550205275572574e-01	 1.277417334404598e+00	 5.983395261175307e+00
 8.257788033350074e-01	 1.294248607996289e+00	 5.681226670468783e+00
 7.960546144677318e-01	 1.310331533366881e+00	 5.377129406331152e+00
 7.658707952678434e-01	 1.325665155020511e+00	 5.073168909519991e+00
 7.352506599015661e-01	 1.340249759204795e+00	 4.771436794644907e+00
 7.042179313051726e-01	 1.354086853670782e+00	 4.474034042396179e+00
 6.727966698255098e-01	 1.367179142852703e+00	 4.183054690848472e+00
 9.760222989250517e-01	 1.214236275867209e+00	 7.181819176209029e+00
 9.486662065546658e-01	 1.234216406014319e+00	 6.909446636160431e+00
 9.207370413271203e-01	 1.253457623123224e+00	 6.627459032073375e+00
 8.922552220767228e-01	 1.271953843003255e+00	 6.337607221672336e+00
 8.632419278495306e-01	 1.289700266695305e+00	 6.041736014315213e+00
 8.337190315241457e-01	 1.306693380422067e+00	 5.741768008212405e+00
 8.037090314429112e-01	 1.322930950228776e+00	 5.439686946755783e+00
 7.732349814802350e-01	 1.338412011432048e+00	 5.137520847106407e+00
 7.423204199783441e-01	 1.353136853031890e+00	 4.837325148391691e+00
 7.109892979800190e-01	 1.367106997277037e+00	 4.541166115807497e+00
 6.792659071829658e-01	 1.380325174606045e+00	 4.251104721201404e+00
 9.853178043382338e-01	 1.225800499234146e+00	 7.228334145283227e+00
 9.577011762148071e-01	 1.245970917460012e+00	 6.958433971876781e+00
 9.295060173652488e-01	 1.265395385339038e+00	 6.678906842734440e+00
 9.007529410900951e-01	 1.284067760735536e+00	 6.391463675588488e+00
 8.714633281417857e-01	 1.301983198985745e+00	 6.097909375542905e+00
 8.416592597132739e-01	 1.319138152847608e+00	 5.800126958515854e+00
 8.113634484180847e-01	 1.335530367090467e+00	 5.500061183232248e+00
 7.805991676926241e-01	 1.351158867843414e+00	 5.199701941513304e+00
 7.493901800551211e-01	 1.366023946858846e+00	 4.901067651193908e+00
 7.177606646548652e-01	 1.380127140883184e+00	 4.606188885368157e+00
 6.857351445404221e-01	 1.393471206359307e+00	 4.317092456408135e+00
 9.946133140891735e-01	 1.237364727997274e+00	 7.272903565471019e+00
 9.667361500911388e-01	 1.257725434390691e+00	 7.005410479368892e+00
 9.382749974954470e-01	 1.277333153125361e+00	 6.728293160874657e+00
 9.092506640689543e-01	 1.296181684120542e+00	 6.443222580740452e+00
 8.796847322705793e-01	 1.314266137007804e+00	 6.151963552534935e+00
 8.495994916077225e-01	 1.331582931080320e+00	 5.856359149500800e+00
 8.190178689651954e-01	 1.348129789831525e+00	 5.558314621185053e+00
 7.879633573415030e-01	 1.363905730202985e+00	 5.259781055985451e+00
 7.564599434309841e-01	 1.378911046699490e+00	 4.962739030698787e+00
 7.245320344895431e-01	 1.393147290565148e+00	 4.669182477941231e+00
 6.922043849167152e-01	 1.406617244247173e+00	 4.381102987506878e+00
 1.003908832515712e+00	 1.248928967553118e+00	 7.315539685432118e+00
 9.757711323999120e-01	 1.269479962291672e+00	 7.050397819122761e+00
 9.470439858098268e-01	 1.289270932053014e+00	 6.775648471801482e+00
 9.177483949788166e-01	 1.308295618811296e+00	 6.492922671811518e+00
 8.879061440724666e-01	 1.326549086493368e+00	 6.203944968521704e+00
 8.575397309128235e-01	 1.344027720927606e+00	 5.910518149639531e+00
 8.266722966561850e-01	 1.360729224331522e+00	 5.614507451277722e+00
 7.953275538633642e-01	 1.376652604459141e+00	 5.317824503114092e+00
 7.635297134050186e-01	 1.391798158567647e+00	 5.022411246266187e+00
 7.313034106438838e-01	 1.406167452398852e+00	 4.730224051685942e+00
 6.986736313306823e-01	 1.419763294404329e+00	 4.443218252521509e+00
 1.013204363955689e+00	 1.260493223298199e+00	 7.356254306834794e+00
 9.848061273573779e-01	 1.281234506648269e+00	 7.093416859004908e+00
 9.558129864005016e-01	 1.301208727692819e+00	 6.821002144077143e+00
 9.262461377851967e-01	 1.320409570460812e+00	 6.540601263694513e+00
 8.961275673840033e-01	 1.338832053174322e+00	 6.253898344444971e+00
 8.654799813339078e-01	 1.356472528196874e+00	 5.962655562525077e+00
 8.343267350629964e-01	 1.373328676470027e+00	 5.668697655871776e+00
 8.026917606946993e-01	 1.389399496560258e+00	 5.373896162101860e+00
 7.705994932763115e-01	 1.404685288477143e+00	 5.080153616199738e+00
 7.380747962777198e-01	 1.419187632460222e+00	 4.789387932464230e+00
 7.051428868011599e-01	 1.432909362965459e+00	 4.503517181303582e+00
 1.022499912746946e+00	 1.272057500629041e+00	 7.395058804998047e+00
 9.938411391797880e-01	 1.292989072945795e+00	 7.134487710610896e+00
 9.645820033595817e-01	 1.313146545615596e+00	 6.864382480594042e+00
 9.347438964536103e-01	 1.332523544722111e+00	 6.586294316333918e+00
 9.043490060417456e-01	 1.351115042782550e+00	 6.301866776630696e+00
 8.734202465763062e-01	 1.368917358695529e+00	 6.012821116467761e+00
 8.419811877575710e-01	 1.385928152126612e+00	 5.720941109674110e+00
 8.100559812720007e-01	 1.402146412454711e+00	 5.428057589625682e+00
 7.776692863439484e-01	 1.417572442441804e+00	 5.136032938032548e+00
 7.448461945508813e-01	 1.432207836825180e+00	 4.846745742800982e+00
 7.116121543469851e-01	 1.446055456065250e+00	 4.562075832467404e+00
 6.469196600189466e-01	 1.314594893144823e+00	 3.888410599897198e+00
 6.163588700289421e-01	 1.326470387793212e+00	 3.601651620570976e+00
 5.854714964905722e-01	 1.337638367399996e+00	 3.321642346128235e+00
 5.542812261358540e-01	 1.348104707563986e+00	 3.049901335644678e+00
 5.228118009030747e-01	 1.357876299731294e+00	 2.787892538503792e+00
 4.910869536853514e-01	 1.366961009346076e+00	 2.537018147054271e+00
 4.591303459451811e-01	 1.375367631339310e+00	 2.298612407149704e+00
 4.269655074752550e-01	 1.383105843291213e+00	 2.073936400459576e+00
 3.946157785590299e-01	 1.390186156606576e+00	 1.864173796132009e+00
 3.621042547566256e-01	 1.396619866042657e+00	 1.670427554586537e+00
 3.294537345129284e-01	 1.402418997926461e+00	 1.493717553119044e+00
 6.533889275647721e-01	 1.327740986245340e+00	 3.965629340494268e+00
 6.225225263232393e-01	 1.339735237142397e+00	 3.679231797132981e+00
 5.913262756620284e-01	 1.351014897769846e+00	 3.399161957759969e+00
 5.598240991830853e-01	 1.361585902483125e+00	 3.126989517879596e+00
 5.280399762466951e-01	 1.371455211643566e+00	 2.864233048345032e+00
 4.959978770775202e-01	 1.380630769350628e+00	 2.612352184651261e+00
 4.637216997552890e-01	 1.389121458485566e+00	 2.372740785043311e+00
 4.312352093732100e-01	 1.396937053405456e+00	 2.146721079508376e+00
 3.985619796201450e-01	 1.404088170630291e+00	 1.935538814431896e+00
 3.657253370143581e-01	 1.410586217866145e+00	 1.740359381854295e+00
 3.327483079876942e-01	 1.416443341704605e+00	 1.562264908106048e+00
 6.598581830352498e-01	 1.340887054807035e+00	 4.040410686734522e+00
 6.286861711126497e-01	 1.353000061731036e+00	 3.754418636115125e+00
 5.971810439051409e-01	 1.364391403170606e+00	 3.474356384453967e+00
 5.653669618841588e-01	 1.375067072237715e+00	 3.201841255294955e+00
 5.332681418315468e-01	 1.385034098208786e+00	 2.938442824460214e+00
 5.009087913030716e-01	 1.394300503838440e+00	 2.685674477786874e+00
 4.683130449952527e-01	 1.402875259958044e+00	 2.444985947527833e+00
 4.355049033013806e-01	 1.410768237701365e+00	 2.217756857337250e+00
 4.025081733152879e-01	 1.417990158703402e+00	 2.005291287538506e+00
 3.693464125129542e-01	 1.424552543618833e+00	 1.808813355542496e+00
 3.360428753127599e-01	 1.430467659303615e+00	 1.629463791105646e+00
 6.663274294492167e-01	 1.354033104964595e+00	 4.112853968010175e+00
 6.348498072733945e-01	 1.366264867749247e+00	 3.827316497439574e+00
 6.030358039519952e-01	 1.377767889844539e+00	 3.547334034975793e+00
 5.709098168256141e-01	 1.388548223118886e+00	 3.274568124100589e+00
 5.384963000973219e-01	 1.398612965763712e+00	 3.010635831681792e+00
 5.058196986536593e-01	 1.407970219188693e+00	 2.757100705208048e+00
 4.729043838076082e-01	 1.416629042175190e+00	 2.515464717483233e+00
 4.397745912522127e-01	 1.424599402633524e+00	 2.287161236230804e+00
 4.064543614859514e-01	 1.431892127313559e+00	 2.073549036950000e+00
 3.729674829421980e-01	 1.438518849818423e+00	 1.875907359595362e+00
 3.393374380255505e-01	 1.444491957268275e+00	 1.695431993507500e+00
 6.727966698255098e-01	 1.367179142852703e+00	 4.183054690848472e+00
 6.410134376816959e-01	 1.379529661387156e+00	 3.898025724291579e+00
 6.088905585346771e-01	 1.391144364033907e+00	 3.618199145245612e+00
 5.764526665939905e-01	 1.402029361417770e+00	 3.345277405459687e+00
 5.437244534837128e-01	 1.412191820645104e+00	 3.080921647557134e+00
 5.107306014209383e-01	 1.421639921780570e+00	 2.826742092097510e+00
 4.774957183348917e-01	 1.430382811555445e+00	 2.584289419870851e+00
 4.440442752181524e-01	 1.438430554656515e+00	 2.355047194086384e+00
 4.104005459736288e-01	 1.445794082948413e+00	 2.140425347173608e+00
 3.765885499918736e-01	 1.452485142982614e+00	 1.941754738251397e+00
 3.426319976634912e-01	 1.458516242143368e+00	 1.760282770256277e+00
 6.792659071829658e-01	 1.380325174606045e+00	 4.251104721201404e+00
 6.471770652137750e-01	 1.392794448834883e+00	 3.966642834621643e+00
 6.147453103852734e-01	 1.404520831980973e+00	 3.687051977252792e+00
 5.819955137758277e-01	 1.415510493425495e+00	 3.414072290199897e+00
 5.489526044304115e-01	 1.425770669189720e+00	 3.149405671428174e+00
 5.156415018965628e-01	 1.435309617993255e+00	 2.894705622285582e+00
 4.820870507196393e-01	 1.444136574517252e+00	 2.651568096033155e+00
 4.483139571916460e-01	 1.452261700224921e+00	 2.421523399949038e+00
 4.143467286198130e-01	 1.459696032095616e+00	 2.206029181837075e+00
 3.802096153517648e-01	 1.466451429629105e+00	 2.006464512260790e+00
 3.459265557640069e-01	 1.472540520473678e+00	 1.824125055891157e+00
 6.857351445404221e-01	 1.393471206359307e+00	 4.317092456408135e+00
 6.533406927458544e-01	 1.406059236282552e+00	 4.033260701798567e+00
 6.206000622358696e-01	 1.417897299927996e+00	 3.753989006701471e+00
 5.875383609576650e-01	 1.428991625433194e+00	 3.481052071926909e+00
 5.541807553771099e-01	 1.439349517734319e+00	 3.216189321666488e+00
 5.205524023721871e-01	 1.448979314205930e+00	 2.961094238439573e+00
 4.866783831043868e-01	 1.457890337479054e+00	 2.717404705852055e+00
 4.525836391651395e-01	 1.466092845793325e+00	 2.486694417336508e+00
 4.182929112659973e-01	 1.473597981242819e+00	 2.270465387556702e+00
 3.838306807116564e-01	 1.480417716275596e+00	 2.070141582853183e+00
 3.492211138645225e-01	 1.486564798803988e+00	 1.887063668346317e+00
 6.922043849167152e-01	 1.406617244247173e+00	 4.381102987506878e+00
 6.595043231541556e-01	 1.419324029920284e+00	 4.097968725123629e+00
 6.264548168185518e-01	 1.431273774117241e+00	 3.819103100125032e+00
 5.930812107260417e-01	 1.442472763731995e+00	 3.546312329300248e+00
 5.594089087635007e-01	 1.452928372615660e+00	 3.281370221839104e+00
 5.254633051394662e-01	 1.462649016797779e+00	 3.026007031018202e+00
 4.912697176316702e-01	 1.471644106859294e+00	 2.781899318562591e+00
 4.568533231310793e-01	 1.479923997816310e+00	 2.550660896152814e+00
 4.222390957536747e-01	 1.487499936877671e+00	 2.333834886364117e+00
 3.874517477613319e-01	 1.494384009439787e+00	 2.132886924258819e+00
 3.525156735024633e-01	 1.500589083679082e+00	 1.949199501313770e+00
 6.986736313306823e-01	 1.419763294404329e+00	 4.443218252521509e+00
 6.656679593149004e-01	 1.432588835938203e+00	 4.160852990864351e+00
 6.323095768654061e-01	 1.444650260790970e+00	 3.882483682152853e+00
 5.986240656674968e-01	 1.455953914613030e+00	 3.609945098174453e+00
 5.646370670292757e-01	 1.466507240170500e+00	 3.345042376522751e+00
 5.303742124900538e-01	 1.476318732147982e+00	 3.089539416719965e+00
 4.958610564440256e-01	 1.485397889076415e+00	 2.845148292956310e+00
 4.611230110819116e-01	 1.493755162748458e+00	 2.613519753931303e+00
 4.261852839243382e-01	 1.501401905487825e+00	 2.396234857433758e+00
 3.910728181905756e-01	 1.508350315639376e+00	 2.194797765524914e+00
 3.558102362152539e-01	 1.514613381643741e+00	 2.010629705910415e+00
 7.051428868011599e-01	 1.432909362965459e+00	 4.503517181303581e+00
 6.718316041043106e-01	 1.445853660526430e+00	 4.221996424416105e+00
 6.381643451085180e-01	 1.458026766191443e+00	 3.944216893561689e+00
 6.041669283685706e-01	 1.469435084367429e+00	 3.672039034255987e+00
 5.698652326141274e-01	 1.480086126735601e+00	 3.407296337432987e+00
 5.352851267156051e-01	 1.489988466635725e+00	 3.151783307100152e+00
 5.004524016839894e-01	 1.499151690548859e+00	 2.907244447657412e+00
 4.653927050100819e-01	 1.507586347044352e+00	 2.675364347092584e+00
 4.301314776194810e-01	 1.515303893560932e+00	 2.457758908798262e+00
 3.946938936891718e-01	 1.522316641392064e+00	 2.255967762315454e+00
 3.591048035403197e-01	 1.528637699242752e+00	 2.071447862336720e+00
 7.116121543469851e-01	 1.446055456065250e+00	 4.562075832467404e+00
 6.779952603986081e-01	 1.459118509875090e+00	 4.281478934157558e+00
 6.440191242799743e-01	 1.471403296560924e+00	 4.004385740699330e+00
 6.097098014158014e-01	 1.482916279286323e+00	 3.732679566881469e+00
 5.750934079577478e-01	 1.493665038647719e+00	 3.468219360483602e+00
 5.401960501077742e-01	 1.503658226640188e+00	 3.212827267983427e+00
 5.050437554940973e-01	 1.512905517695068e+00	 2.968277222103189e+00
 4.696624069080371e-01	 1.521417557158576e+00	 2.736284632853699e+00
 4.340776786805963e-01	 1.529205907584642e+00	 2.518497239690704e+00
 3.983149759469042e-01	 1.536282993215550e+00	 2.316487159332589e+00
 3.623993770150853e-01	 1.542662043020896e+00	 2.131744142164782e+00
 3.294537345129284e-01	 1.402418997926461e+00	 1.493717553119046e+00
 2.966843784393872e-01	 1.407596598364675e+00	 1.334515614469498e+00
 2.638205609134598e-01	 1.412165572756028e+00	 1.192682818268191e+00
 2.308839434239252e-01	 1.416139826431092e+00	 1.068155443041138e+00
 1.978957096443058e-01	 1.419533782748832e+00	 9.607845144973115e-01
 1.648765290743220e-01	 1.422362329452364e+00	 8.703441579946871e-01
 1.318465240967305e-01	 1.424640765532204e+00	 7.965398957884298e-01
 9.882524045195897e-02	 1.426384748845694e+00	 7.390167990245071e-01
 6.583162110954265e-02	 1.427610244722075e+00	 6.973674164980217e-01
 3.288398349364309e-02	 1.428333475762771e+00	 6.711394141492650e-01
 0.000000000000000e+00	 1.428570873025926e+00	 6.598428708780930e-01
 3.327483079876942e-01	 1.416443341704605e+00	 1.562264908106050e+00
 2.996512547599297e-01	 1.421672718714860e+00	 1.401676296457588e+00
 2.664587954549430e-01	 1.426287383351045e+00	 1.258399068974854e+00
 2.331928081787427e-01	 1.430301379998563e+00	 1.132424113348635e+00
 1.998746884438768e-01	 1.433729276251555e+00	 1.023656790968422e+00
 1.665253124472977e-01	 1.436586108732203e+00	 9.319249154401574e-01
 1.331650037977657e-01	 1.438887329422610e+00	 8.569867126781381e-01
 9.981350369522612e-02	 1.440648752760408e+00	 7.985386731408106e-01
 6.648994454095852e-02	 1.441886503729888e+00	 7.562232182360102e-01
 3.321282693534693e-02	 1.442616967160266e+00	 7.296361143392289e-01
 0.000000000000000e+00	 1.442856738422074e+00	 7.183335790198537e-01
 3.360428753127599e-01	 1.430467659303615e+00	 1.629463791105646e+00
 3.026181255424344e-01	 1.435748812789194e+00	 1.467613499023461e+00
 2.690970250718209e-01	 1.440409167584866e+00	 1.323014582032221e+00
 2.355016686237529e-01	 1.444462907130611e+00	 1.195710807343111e+00
 2.018536635494072e-01	 1.447924743255469e+00	 1.085660158316197e+00
 1.681740927425821e-01	 1.450809861460411e+00	 9.927424494293955e-01
 1.344834810376643e-01	 1.453133866718838e+00	 9.167669585835510e-01
 1.008017650937519e-01	 1.454912730048382e+00	 8.574799879080366e-01
 6.714826674351385e-02	 1.456162736088079e+00	 8.145722750953737e-01
 3.354166976321423e-02	 1.456900431894637e+00	 7.876861881964168e-01
 0.000000000000000e+00	 1.457142577150667e+00	 7.764226475100553e-01
 3.393374380255505e-01	 1.444491957268275e+00	 1.695431993507499e+00
 3.055849921714104e-01	 1.449824887156639e+00	 1.532444671215618e+00
 2.717352509952450e-01	 1.454530932047792e+00	 1.386646086031806e+00
 2.378105258364076e-01	 1.458624414436090e+00	 1.258131205112866e+00
 2.038326358844074e-01	 1.462120190385275e+00	 1.146908970150483e+00
 1.698228707295977e-01	 1.465033594274894e+00	 1.052909558892284e+00
 1.358019564317105e-01	 1.467380384069432e+00	 9.759916987622361e-01
 1.017900251087216e-01	 1.469176687366300e+00	 9.159499443196335e-01
 6.780658802442376e-02	 1.470438948459054e+00	 8.725218405915625e-01
 3.387051213070415e-02	 1.471183876631666e+00	 8.453949047102063e-01
 0.000000000000000e+00	 1.471428395878593e+00	 8.342133685562687e-01
 3.426319976634912e-01	 1.458516242143368e+00	 1.760282770256277e+00
 3.085518560313680e-01	 1.463900948386158e+00	 1.596282738521940e+00
 2.743734744563665e-01	 1.468652683330121e+00	 1.449405813449164e+00
 2.401193808941584e-01	 1.472785908523857e+00	 1.319796530708697e+00
 2.058116063723871e-01	 1.476315624265677e+00	 1.207513174827423e+00
 1.714716471777676e-01	 1.479257313813562e+00	 1.112534697079436e+00
 1.371204305951884e-01	 1.481626888122938e+00	 1.034767719262698e+00
 1.027782842013206e-01	 1.483440631370847e+00	 9.740535356636257e-01
 6.846490869090337e-02	 1.484715147505218e+00	 9.301750352476386e-01
 3.419935419127582e-02	 1.485467308037133e+00	 9.028634760234762e-01
 0.000000000000000e+00	 1.485714201272741e+00	 8.918050533742685e-01
 3.459265557640069e-01	 1.472540520473678e+00	 1.824125055891156e+00
 3.115187185068158e-01	 1.477977003046713e+00	 1.659236318274318e+00
 2.770116966863367e-01	 1.482774428022150e+00	 1.511401714721786e+00
 2.424282348744576e-01	 1.486947396002769e+00	 1.380813764293978e+00
 2.077905759368567e-01	 1.490511051521376e+00	 1.267578525164271e+00
 1.731204228565147e-01	 1.493481026714322e+00	 1.171722178423451e+00
 1.384389041433821e-01	 1.495873385527899e+00	 1.093197730605849e+00
 1.037665428327341e-01	 1.497704568718708e+00	 1.031891747785789e+00
 6.912322905016788e-02	 1.498991339888976e+00	 9.876310432884292e-01
 3.452819609838832e-02	 1.499750732776819e+00	 9.601892504912641e-01
 0.000000000000000e+00	 1.500000000000000e+00	 9.492932216269747e-01
 3.492211138645225e-01	 1.486564798803988e+00	 1.887063668346317e+00
 3.144855809822637e-01	 1.492053057707269e+00	 1.721409922850432e+00
 2.796499189163069e-01	 1.496896172714180e+00	 1.572737660199003e+00
 2.447370888547568e-01	 1.501108883481681e+00	 1.441285842276415e+00
 2.097695455013264e-01	 1.504706478777075e+00	 1.327206776272654e+00
 1.747691985352618e-01	 1.507704739615082e+00	 1.230572373681226e+00
 1.397573776915759e-01	 1.510119882932860e+00	 1.151380559927432e+00
 1.047548014641477e-01	 1.511968506066570e+00	 1.089561748007844e+00
 6.978154940943238e-02	 1.513267532272735e+00	 1.044985298191680e+00
 3.485703800550086e-02	 1.514034157516504e+00	 1.017465894802234e+00
 0.000000000000000e+00	 1.514285798727260e+00	 1.006769780131142e+00
 3.525156735024633e-01	 1.500589083679082e+00	 1.949199501313768e+00
 3.174524448422210e-01	 1.506129118936787e+00	 1.782904151471320e+00
 2.822881423774284e-01	 1.511017923996508e+00	 1.633513630757971e+00
 2.470459439125078e-01	 1.515270377569448e+00	 1.501311846207830e+00
 2.117485159893061e-01	 1.518901912657477e+00	 1.386495872289752e+00
 1.764179749834317e-01	 1.521928459153749e+00	 1.289181894124481e+00
 1.410758518550538e-01	 1.524366386986366e+00	 1.209411332337084e+00
 1.057430605567467e-01	 1.526232450071117e+00	 1.147157063443035e+00
 7.043987007591201e-02	 1.527543731318899e+00	 1.102329657825797e+00
 3.518588006607250e-02	 1.528317588921971e+00	 1.074783565879217e+00
 0.000000000000000e+00	 1.528571604121408e+00	 1.064323191534826e+00
 3.558102362152539e-01	 1.514613381643741e+00	 2.010629705910413e+00
 3.204193114711973e-01	 1.520205193304232e+00	 1.843815871334817e+00
 2.849263683008524e-01	 1.525139688459433e+00	 1.693825897820995e+00
 2.493548011251625e-01	 1.529431884874928e+00	 1.560987181180924e+00
 2.137274883243062e-01	 1.533097359787283e+00	 1.445540122726511e+00
 1.780667529704474e-01	 1.536152191968234e+00	 1.347643765488790e+00
 1.423943272491001e-01	 1.538612904336961e+00	 1.267381642193475e+00
 1.067313205717163e-01	 1.540496407389035e+00	 1.204767749397073e+00
 7.109819135682192e-02	 1.541819943689873e+00	 1.159752569849280e+00
 3.551472243356241e-02	 1.542601033659000e+00	 1.132229073221785e+00
 0.000000000000000e+00	 1.542857422849333e+00	 1.122038633615885e+00
 3.591048035403197e-01	 1.528637699242752e+00	 2.071447862336719e+00
 3.233861822537019e-01	 1.534281287378566e+00	 1.904238388769823e+00
 2.875645979177304e-01	 1.539261472693255e+00	 1.753767193455724e+00
 2.516636615701727e-01	 1.543593412006975e+00	 1.620403744397601e+00
 2.157064634298367e-01	 1.547292826791197e+00	 1.504430369100659e+00
 1.797155332657316e-01	 1.550375944696441e+00	 1.406047592339766e+00
 1.437128044889987e-01	 1.552859441633188e+00	 1.325379714943486e+00
 1.077195819702421e-01	 1.554760384677008e+00	 1.262480548491646e+00
 7.175651355937723e-02	 1.556096176048064e+00	 1.217339227998489e+00
 3.584356526142972e-02	 1.556884498393372e+00	 1.189886032304928e+00
 0.000000000000000e+00	 1.557143261577926e+00	 1.179998149804827e+00
 3.623993770150853e-01	 1.542662043020896e+00	 2.131744142164782e+00
 3.263530585742443e-01	 1.548357407728751e+00	 1.964261611047366e+00
 2.902028324592135e-01	 1.553383283288272e+00	 1.813426871189159e+00
 2.539725263249901e-01	 1.557754965574446e+00	 1.679650084535577e+00
 2.176854422294076e-01	 1.561488320293919e+00	 1.563254142473315e+00
 1.813643166387074e-01	 1.564599723976281e+00	 1.464479713466215e+00
 1.450312841900338e-01	 1.567106005523594e+00	 1.383490560127157e+00
 1.087078452135093e-01	 1.569024388591723e+00	 1.320379041101378e+00
 7.241483699079308e-02	 1.570372435055877e+00	 1.275171719843387e+00
 3.617240870313355e-02	 1.571167989790866e+00	 1.247835009604086e+00
 0.000000000000000e+00	 1.571429126974074e+00	 1.238280791490253e+00
 1.571429126974074e+00	 0.000000000000000e+00	 1.150075664943962e+01
 1.571167989790867e+00	 3.617240870313405e-02	 1.149075475541818e+01
 1.570372435055877e+00	 7.241483699079355e-02	 1.147826066608329e+01
 1.569024388591724e+00	 1.087078452135097e-01	 1.146298954302153e+01
 1.567106005523594e+00	 1.450312841900342e-01	 1.144465908931407e+01
 1.564599723976281e+00	 1.813643166387076e-01	 1.142299187531486e+01
 1.561488320293920e+00	 2.176854422294079e-01	 1.139771785516512e+01
 1.557754965574446e+00	 2.539725263249902e-01	 1.136857706371205e+01
 1.553383283288272e+00	 2.902028324592137e-01	 1.133532247933586e+01
 1.548357407728751e+00	 3.263530585742443e-01	 1.129772303373004e+01
 1.542662043020896e+00	 3.623993770150854e-01	 1.125556674498978e+01
 1.585715024037928e+00	 0.000000000000000e+00	 1.145890803392810e+01
 1.585451512850806e+00	 3.650125287376479e-02	 1.144925970131802e+01
 1.584648725710099e+00	 7.307316188147503e-02	 1.143722245921032e+01
 1.583288424125677e+00	 1.096961106474002e-01	 1.142253538621499e+01
 1.581352600994570e+00	 1.463497668136621e-01	 1.140493951095363e+01
 1.578823534786167e+00	 1.830131036664365e-01	 1.138417991295120e+01
 1.575683845263964e+00	 2.196644254156486e-01	 1.136000799980316e+01
 1.571916550533969e+00	 2.562813961977032e-01	 1.133218395169200e+01
 1.567505125187193e+00	 2.928410728486677e-01	 1.130047932054454e+01
 1.562433559281498e+00	 3.293199414712119e-01	 1.126467976706029e+01
 1.556686417886749e+00	 3.656939577926278e-01	 1.122458791456040e+01
 1.600000951102682e+00	 0.000000000000000e+00	 1.142063466191292e+01
 1.599735065906658e+00	 3.683009773493779e-02	 1.141132334261265e+01
 1.598925046345046e+00	 7.373148815458680e-02	 1.139971697953895e+01
 1.597552489614615e+00	 1.106843781565817e-01	 1.138557781355337e+01
 1.595599226383898e+00	 1.476682522060276e-01	 1.136866952342639e+01
 1.593047375466544e+00	 1.846618941565351e-01	 1.134875911502136e+01
 1.589879400045076e+00	 2.216434127576645e-01	 1.132561897264272e+01
 1.586078165233253e+00	 2.585902709189449e-01	 1.129902906489850e+01
 1.581626996742376e+00	 2.954793187783158e-01	 1.126877929400499e+01
 1.576509740394501e+00	 3.322868305985031e-01	 1.123467197378034e+01
 1.570710822204060e+00	 3.689885454886305e-01	 1.119652441768237e+01
 1.614286904834791e+00	 0.000000000000000e+00	 1.138576676456069e+01
 1.614018645625435e+00	 3.715894320989962e-02	 1.137677323078711e+01
 1.613201393629416e+00	 7.438981565648350e-02	 1.136556980771940e+01
 1.611816581730097e+00	 1.116726475104183e-01	 1.135194116966526e+01
 1.609845878367207e+00	 1.489867400594473e-01	 1.133567299466392e+01
 1.607271242698359e+00	 1.863106877242590e-01	 1.131655365485362e+01
 1.604074981324810e+00	 2.236224037936801e-01	 1.129437605523013e+01
 1.600239806367783e+00	 2.608991499499849e-01	 1.126893961429348e+01
 1.595748894658584e+00	 2.981175696325953e-01	 1.124005237700034e+01
 1.590585947783202e+00	 3.352537252638942e-01	 1.120753324711807e+01
 1.584735252700366e+00	 3.722831393344285e-01	 1.117121432255706e+01
 1.628572881900711e+00	 0.000000000000000e+00	 1.135414052804632e+01
 1.628302248674145e+00	 3.748778922189691e-02	 1.134544296632616e+01
 1.627477764231905e+00	 7.504814423351969e-02	 1.133461264251973e+01
 1.626080697143679e+00	 1.126609184782742e-01	 1.132145596063111e+01
 1.624092553620127e+00	 1.503052300662380e-01	 1.130577997074010e+01
 1.621495133162564e+00	 1.879594839848635e-01	 1.128739387316731e+01
 1.618270585790724e+00	 2.256013980619200e-01	 1.126611065758309e+01
 1.614401470633040e+00	 2.632080327520929e-01	 1.124174887157835e+01
 1.609870815640586e+00	 3.007558247959439e-01	 1.121413451045885e+01
 1.604662178163042e+00	 3.382206247751619e-01	 1.118310301704452e+01
 1.598759706103210e+00	 3.755777385613570e-01	 1.114850137709060e+01
 1.642858878966899e+00	 0.000000000000000e+00	 1.132559783468414e+01
 1.642585871719799e+00	 3.781663569417622e-02	 1.131717193576008e+01
 1.641754154821212e+00	 7.570647373205003e-02	 1.130668303486707e+01
 1.640344832526921e+00	 1.136491908295135e-01	 1.129395858614063e+01
 1.638339248818290e+00	 1.516237219187165e-01	 1.127882640730273e+01
 1.635719043540108e+00	 1.896082825536043e-01	 1.126111600997117e+01
 1.632466210130369e+00	 2.275803951006085e-01	 1.124066005178018e+01
 1.628563154724508e+00	 2.655169187865385e-01	 1.121729590572684e+01
 1.623992756393148e+00	 3.033940836527993e-01	 1.119086733970620e+01
 1.618738428249461e+00	 3.411875284400820e-01	 1.116122629654120e+01
 1.612784179140129e+00	 3.788723424007510e-01	 1.112823476198591e+01
 1.657144892699808e+00	 0.000000000000000e+00	 1.129998601744130e+01
 1.656869511429405e+00	 3.814548254998415e-02	 1.129180506230369e+01
 1.656030562066033e+00	 7.636480399842913e-02	 1.128162413563772e+01
 1.654608984551380e+00	 1.146374643335004e-01	 1.126929108549648e+01
 1.652585960637322e+00	 1.529422153091996e-01	 1.125465391488887e+01
 1.649942970511941e+00	 1.912570830457367e-01	 1.123756195032139e+01
 1.646661851031305e+00	 2.295593944479705e-01	 1.121786711932250e+01
 1.642724855337668e+00	 2.678258075145912e-01	 1.119542533313779e+01
 1.638114713621036e+00	 3.060323455875986e-01	 1.117009796861968e+01
 1.632814694757902e+00	 3.441544355664312e-01	 1.114175344098409e+01
 1.626808668538664e+00	 3.821669500839458e-01	 1.111026885659886e+01
 1.671430919765895e+00	 0.000000000000000e+00	 1.127715762703334e+01
 1.671153164469973e+00	 3.847432971256731e-02	 1.126919256927628e+01
 1.670306982635067e+00	 7.702313487901155e-02	 1.125928445637381e+01
 1.668873149888615e+00	 1.156257387595990e-01	 1.124730089663613e+01
 1.666832685752855e+00	 1.542607099300041e-01	 1.123310951729372e+01
 1.664166910759013e+00	 1.929058850765161e-01	 1.121657898311056e+01
 1.660857505181086e+00	 2.315383956422302e-01	 1.119758011144411e+01
 1.656886569168004e+00	 2.701346983975205e-01	 1.117598708059360e+01
 1.652236684029017e+00	 3.086706099847796e-01	 1.115167872638284e+01
 1.646890974403806e+00	 3.471213454619858e-01	 1.112453991986024e+01
 1.640833171026356e+00	 3.854615608422766e-01	 1.109446301679512e+01
 1.685716956831615e+00	 0.000000000000000e+00	 1.125697021085572e+01
 1.685436827508512e+00	 3.880317710517230e-02	 1.124918975554424e+01
 1.684583413197011e+00	 7.768146622015194e-02	 1.123951764216043e+01
 1.683137325210183e+00	 1.166140138771735e-01	 1.122784062740019e+01
 1.681079420840518e+00	 1.555792054734467e-01	 1.121404542221908e+01
 1.678390860962274e+00	 1.945546882611981e-01	 1.119801957211474e+01
 1.675053169267265e+00	 2.335173982216121e-01	 1.117965242160317e+01
 1.671048292910997e+00	 2.724435908965961e-01	 1.115883616026501e+01
 1.666358664321857e+00	 3.113088762287799e-01	 1.113546694609362e+01
 1.660967263902613e+00	 3.500882574345220e-01	 1.110944610008553e+01
 1.654857683330742e+00	 3.887561739070783e-01	 1.108068136409616e+01
 1.700003000563425e+00	 0.000000000000000e+00	 1.123928610305576e+01
 1.699720497212033e+00	 3.913202465104567e-02	 1.123165678227991e+01
 1.698859850420562e+00	 7.833979786820486e-02	 1.122218225594794e+01
 1.697401507187642e+00	 1.176022894555880e-01	 1.121076783832716e+01
 1.695326162575941e+00	 1.568977016318442e-01	 1.119731880347950e+01
 1.692614817802672e+00	 1.962034922150380e-01	 1.118174113857816e+01
 1.689248839977401e+00	 2.354964017243409e-01	 1.116394236943811e+01
 1.685210023262131e+00	 2.747524844730876e-01	 1.114383245605400e+01
 1.680480651204323e+00	 3.139471437040368e-01	 1.112132475452903e+01
 1.675043559969767e+00	 3.530551707918165e-01	 1.109633704024167e+01
 1.668882202179363e+00	 3.920507885096862e-01	 1.106879258545092e+01
 1.714289047627778e+00	 0.000000000000000e+00	 1.122397222509518e+01
 1.714004170247544e+00	 3.946087227343405e-02	 1.121645847037666e+01
 1.713136290974417e+00	 7.899812966952499e-02	 1.120714157365245e+01
 1.711665692492551e+00	 1.185905652642067e-01	 1.119594483630251e+01
 1.709572907634753e+00	 1.582161980975134e-01	 1.118279159409219e+01
 1.706838777961159e+00	 1.978522965532914e-01	 1.116760585466286e+01
 1.703444513999047e+00	 2.374754056886410e-01	 1.115031299552000e+01
 1.699371756916888e+00	 2.770613785882647e-01	 1.113084052061384e+01
 1.694602641381181e+00	 3.165854117949879e-01	 1.110911887241587e+01
 1.689119859320706e+00	 3.560220848416451e-01	 1.108508229509585e+01
 1.682906724299760e+00	 3.953454038814352e-01	 1.105866974301337e+01
 1.542662043020896e+00	 3.623993770150854e-01	 1.125556674498978e+01
 1.536282993215550e+00	 3.983149759469040e-01	 1.120950622426814e+01
 1.529205907584642e+00	 4.340776786805960e-01	 1.116038107722428e+01
 1.521417557158576e+00	 4.696624069080367e-01	 1.110826075856766e+01
 1.512905517695068e+00	 5.050437554940970e-01	 1.105317879130079e+01
 1.503658226640188e+00	 5.401960501077737e-01	 1.099512903554335e+01
 1.493665038647719e+00	 5.750934079577475e-01	 1.093406214593077e+01
 1.482916279286322e+00	 6.097098014158012e-01	 1.086988228677443e+01
 1.471403296560924e+00	 6.440191242799742e-01	 1.080244417607613e+01
 1.459118509875090e+00	 6.779952603986078e-01	 1.073155052997678e+01
 1.446055456065250e+00	 7.116121543469853e-01	 1.065694997811237e+01
 1.556686417886749e+00	 3.656939577926278e-01	 1.122458791456040e+01
 1.550249375998099e+00	 4.019360662311212e-01	 1.118072172000259e+01
 1.543107952424686e+00	 4.380238884888155e-01	 1.113378048614306e+01
 1.535248797932060e+00	 4.739321182701246e-01	 1.108383729195504e+01
 1.526659375328873e+00	 5.096351194812659e-01	 1.103092886470506e+01
 1.517328016945761e+00	 5.451069843853168e-01	 1.097505179570890e+01
 1.507243980659426e+00	 5.803215948899214e-01	 1.091615894495739e+01
 1.496397504088063e+00	 6.152526867491098e-01	 1.085415610464594e+01
 1.484779856581116e+00	 6.498739164288541e-01	 1.078889899361202e+01
 1.472383388626781e+00	 6.841589303549737e-01	 1.072019065522375e+01
 1.459201578304726e+00	 7.180814362322998e-01	 1.064777933019129e+01
 1.570710822204060e+00	 3.689885454886305e-01	 1.119652441768237e+01
 1.564215788110238e+00	 4.055571641194287e-01	 1.115472588651242e+01
 1.557010026459114e+00	 4.419701065838270e-01	 1.110984089431996e+01
 1.549080067751132e+00	 4.782018385983015e-01	 1.106194571098688e+01
 1.540413261845648e+00	 5.142264931099342e-01	 1.101107982611949e+01
 1.530997835957645e+00	 5.500179289753961e-01	 1.095724211364929e+01
 1.520822951186545e+00	 5.855497928008031e-01	 1.090038718584485e+01
 1.509878757199894e+00	 6.207955837219393e-01	 1.084042200760634e+01
 1.498156444691492e+00	 6.557287208722125e-01	 1.077720284394577e+01
 1.485648295234026e+00	 6.903226132544257e-01	 1.071053261414128e+01
 1.472347728150277e+00	 7.245507317024646e-01	 1.064015872501173e+01
 1.584735252700366e+00	 3.722831393344285e-01	 1.117121432255706e+01
 1.578182226293059e+00	 4.091782687669958e-01	 1.113136165724678e+01
 1.570912126444055e+00	 4.459163320449563e-01	 1.108841002466885e+01
 1.562911363388469e+00	 4.824715668964256e-01	 1.104243846235096e+01
 1.554167174036154e+00	 5.188178753089214e-01	 1.099348879085797e+01
 1.544667680486245e+00	 5.549288827322758e-01	 1.094156172912850e+01
 1.534401947060710e+00	 5.907780004706400e-01	 1.088661320000270e+01
 1.523360035476277e+00	 6.263384910411125e-01	 1.082855089764306e+01
 1.511533057770965e+00	 6.615835362440975e-01	 1.076723119063637e+01
 1.498913226601820e+00	 6.964863076589417e-01	 1.070245643519242e+01
 1.485493902534635e+00	 7.310200392481445e-01	 1.063397277183672e+01
 1.598759706103210e+00	 3.755777385613570e-01	 1.114850137709060e+01
 1.592148687287654e+00	 4.127993793289919e-01	 1.111047747463176e+01
 1.584814249135637e+00	 4.498625639515296e-01	 1.106934094101538e+01
 1.576742681616749e+00	 4.867413021683550e-01	 1.102517316789009e+01
 1.567921108691154e+00	 5.234092650070474e-01	 1.097801788557144e+01
 1.558337547341971e+00	 5.598398445102201e-01	 1.092787723098314e+01
 1.547980965113555e+00	 5.960062166796786e-01	 1.087470800680342e+01
 1.536841335771679e+00	 6.318814074134527e-01	 1.081841820433958e+01
 1.524909692698449e+00	 6.674383611785578e-01	 1.075886386479144e+01
 1.512178179635163e+00	 7.026500121304985e-01	 1.069584635422778e+01
 1.498640098390529e+00	 7.374893573600056e-01	 1.062911012660111e+01
 1.612784179140129e+00	 3.788723424007510e-01	 1.112823476198591e+01
 1.606115167835117e+00	 4.164204949605868e-01	 1.109192705058237e+01
 1.598716391289989e+00	 4.538088013828732e-01	 1.105249181591279e+01
 1.590574019208646e+00	 4.910110434179482e-01	 1.101001239962146e+01
 1.581675062601407e+00	 5.280006611331310e-01	 1.096453403038614e+01
 1.572007433335227e+00	 5.647508131634927e-01	 1.091605984631215e+01
 1.561560002176714e+00	 6.012344402081660e-01	 1.086454710977305e+01
 1.550322654940563e+00	 6.374243315457835e-01	 1.080990368803451e+01
 1.538286346352859e+00	 6.732931943096417e-01	 1.075198487518069e+01
 1.525443151239054e+00	 7.088137252310736e-01	 1.069059063155812e+01
 1.511786312650691e+00	 7.439586845287128e-01	 1.062546331596722e+01
 1.626808668538664e+00	 3.821669500839458e-01	 1.111026885659886e+01
 1.620081664676538e+00	 4.200416148169498e-01	 1.107556913939481e+01
 1.612618549663240e+00	 4.577550434183133e-01	 1.103772571046060e+01
 1.604405372936839e+00	 4.952807896490632e-01	 1.099682346638634e+01
 1.595429032557675e+00	 5.325920626159918e-01	 1.095290873230445e+01
 1.585677335276421e+00	 5.696617875463581e-01	 1.090598524056433e+01
 1.575139055081823e+00	 6.064626698363499e-01	 1.085601030331786e+01
 1.563803989837394e+00	 6.429672621449282e-01	 1.080289125315651e+01
 1.551663015613107e+00	 6.791480342713972e-01	 1.074648222816568e+01
 1.538708138318490e+00	 7.149774455226444e-01	 1.068658137848339e+01
 1.524932542247848e+00	 7.504280192449314e-01	 1.062292857047578e+01
 1.640833171026356e+00	 3.854615608422766e-01	 1.109446301679512e+01
 1.634048174553012e+00	 4.236627380532504e-01	 1.106126732227888e+01
 1.626520721011518e+00	 4.617012891371760e-01	 1.102491036540844e+01
 1.618236739574002e+00	 4.995505398655581e-01	 1.098547821143491e+01
 1.609183015350721e+00	 5.371834683844493e-01	 1.094301788919458e+01
 1.599347249975960e+00	 5.745727665130803e-01	 1.089753332787225e+01
 1.588718120660515e+00	 6.116909043444767e-01	 1.084898148935692e+01
 1.577285337316637e+00	 6.485101979177099e-01	 1.079726877112641e+01
 1.565039697358108e+00	 6.850028796978732e-01	 1.074224775685884e+01
 1.551973137778469e+00	 7.211411715671885e-01	 1.068371439271297e+01
 1.538078784114736e+00	 7.568973599993275e-01	 1.062140566624872e+01
 1.654857683330742e+00	 3.887561739070783e-01	 1.108068136409616e+01
 1.648014694205628e+00	 4.272838638246583e-01	 1.104888980284051e+01
 1.640422902090953e+00	 4.656475376187876e-01	 1.101391800287575e+01
 1.632068115892814e+00	 5.038202930712914e-01	 1.097585282029753e+01
 1.622937007771303e+00	 5.417748773673225e-01	 1.093474160374151e+01
 1.613017174244250e+00	 5.794837489179233e-01	 1.089058809102478e+01
 1.602297195744425e+00	 6.169191425127935e-01	 1.084334850327344e+01
 1.590766694232754e+00	 6.540531375709525e-01	 1.079292791225945e+01
 1.578416388466777e+00	 6.908577292231182e-01	 1.073917695896458e+01
 1.565238146523991e+00	 7.273049019266826e-01	 1.068188900214954e+01
 1.551225035184080e+00	 7.633667052825658e-01	 1.062079777473647e+01
 1.668882202179363e+00	 3.920507885096862e-01	 1.106879258545092e+01
 1.661981220375480e+00	 4.309049912863429e-01	 1.103830921287021e+01
 1.654325089657674e+00	 4.695937879424743e-01	 1.100462513806364e+01
 1.645899498665951e+00	 5.080900482701213e-01	 1.096782763833823e+01
 1.636691006610186e+00	 5.463662884934315e-01	 1.092796400677345e+01
 1.626687104891698e+00	 5.843947336151508e-01	 1.088503741051183e+01
 1.615876277165188e+00	 6.221473831215475e-01	 1.083900294863672e+01
 1.604248057440212e+00	 6.595960798114789e-01	 1.078976398613834e+01
 1.591793085818026e+00	 6.967125814811796e-01	 1.073716884279199e+01
 1.578503161460054e+00	 7.334686351631050e-01	 1.068100791654536e+01
 1.564371292388615e+00	 7.698360535853119e-01	 1.062101132003686e+01
 1.682906724299760e+00	 3.953454038814352e-01	 1.105866974301337e+01
 1.675947749803660e+00	 4.345261195934738e-01	 1.102940242783717e+01
 1.668227280467807e+00	 4.735400391875617e-01	 1.099691240037582e+01
 1.659730884666089e+00	 5.123598044659057e-01	 1.096128699742525e+01
 1.650445008658129e+00	 5.509577006915951e-01	 1.092257308941714e+01
 1.640357038728711e+00	 5.893057194590274e-01	 1.088077290211215e+01
 1.629455361754438e+00	 6.273756249509855e-01	 1.083584004018380e+01
 1.617729423793474e+00	 6.651390233461127e-01	 1.078767578996348e+01
 1.605169786290770e+00	 7.025674351061066e-01	 1.073612578096280e+01
 1.591768179491655e+00	 7.396323698384317e-01	 1.068097708657153e+01
 1.577517552661069e+00	 7.763054033982315e-01	 1.062195584334433e+01
 1.446055456065250e+00	 7.116121543469853e-01	 1.065694997811237e+01
 1.432207836825179e+00	 7.448461945508820e-01	 1.057650421409663e+01
 1.417572442441803e+00	 7.776692863439487e-01	 1.048830788140991e+01
 1.402146412454711e+00	 8.100559812720015e-01	 1.039238440784417e+01
 1.385928152126612e+00	 8.419811877575717e-01	 1.028873331293698e+01
 1.368917358695528e+00	 8.734202465763066e-01	 1.017732889997777e+01
 1.351115042782549e+00	 9.043490060417461e-01	 1.005811927564261e+01
 1.332523544722111e+00	 9.347438964536106e-01	 9.931025731531554e+00
 1.313146545615595e+00	 9.645820033595822e-01	 9.795942516277975e+00
 1.292989072945795e+00	 9.938411391797882e-01	 9.652737020251502e+00
 1.272057500629041e+00	 1.022499912746946e+00	 9.501250387318439e+00
 1.459201578304726e+00	 7.180814362322998e-01	 1.064777933019129e+01
 1.445228070050683e+00	 7.516176078332568e-01	 1.056955763379282e+01
 1.430459624972012e+00	 7.847390950822563e-01	 1.048363799304386e+01
 1.414893356603801e+00	 8.174202181726493e-01	 1.039002404575798e+01
 1.398527655710973e+00	 8.496356574188768e-01	 1.028869621973438e+01
 1.381362216779143e+00	 8.813605294190271e-01	 1.017961061938422e+01
 1.363398059616986e+00	 9.125704629231188e-01	 1.006269823613789e+01
 1.344637545834977e+00	 9.432416739582017e-01	 9.937864513925156e+00
 1.325084389999482e+00	 9.733510397561601e-01	 9.804989295400242e+00
 1.304743665298257e+00	 1.002876171029337e+00	 9.663927167990543e+00
 1.283621803593056e+00	 1.031795482142871e+00	 9.514508221417870e+00
 1.472347728150277e+00	 7.245507317024646e-01	 1.064015872501173e+01
 1.458248330617824e+00	 7.583890353349527e-01	 1.056400765636943e+01
 1.443346834564395e+00	 7.918089186665238e-01	 1.048021316796114e+01
 1.427640327520521e+00	 8.247844705375758e-01	 1.038875958924036e+01
 1.411127185753312e+00	 8.572901431539766e-01	 1.028960879431487e+01
 1.393807100995965e+00	 8.893008289357811e-01	 1.018269928171633e+01
 1.375681102244761e+00	 9.207919370690237e-01	 1.006794557334442e+01
 1.356751572386259e+00	 9.517394693076289e-01	 9.945237960884381e+00
 1.337022259451874e+00	 9.821200945672420e-01	 9.814442622376513e+00
 1.316498282334426e+00	 1.011911221851995e+00	 9.675402125092202e+00
 1.295186130841210e+00	 1.041091071059036e+00	 9.527936323584431e+00
 1.485493902534635e+00	 7.310200392481445e-01	 1.063397277183672e+01
 1.471268615488724e+00	 7.651604754761316e-01	 1.055974354476589e+01
 1.456234068212133e+00	 7.988787554472803e-01	 1.047792743992390e+01
 1.440387322230788e+00	 8.321487366486009e-01	 1.038848995401685e+01
 1.423726739313953e+00	 8.649446431769593e-01	 1.029137493871465e+01
 1.406252008442408e+00	 8.972411432739574e-01	 1.018650387211240e+01
 1.387964167800051e+00	 9.290134265612310e-01	 1.007377544400949e+01
 1.368865621549567e+00	 9.602372805191779e-01	 9.953065480302094e+00
 1.348960151187484e+00	 9.908891657468134e-01	 9.824227226177021e+00
 1.328252921311766e+00	 1.020946289539680e+00	 9.687092001356314e+00
 1.306750479675358e+00	 1.050386677326566e+00	 9.541470233512584e+00
 1.498640098390529e+00	 7.374893573600056e-01	 1.062911012660111e+01
 1.484288921625506e+00	 7.719319266769569e-01	 1.055665844532358e+01
 1.469121322908410e+00	 8.059486037750556e-01	 1.047667855871836e+01
 1.453134337760516e+00	 8.395130147875444e-01	 1.038911760056184e+01
 1.436326313453225e+00	 8.725991557019142e-01	 1.029390192478454e+01
 1.418696936214885e+00	 9.051814705809439e-01	 1.019093656719709e+01
 1.400247253417037e+00	 9.372349294815117e-01	 1.008010501493530e+01
 1.380979690498518e+00	 9.687351056101363e-01	 9.961269305906260e+00
 1.360898062421025e+00	 9.996582512488599e-01	 9.834270474936393e+00
 1.340007579487740e+00	 1.029981371984304e+00	 9.698929356982964e+00
 1.318314847397356e+00	 1.059682298776580e+00	 9.555047750815078e+00
 1.511786312650691e+00	 7.439586845287128e-01	 1.062546331596722e+01
 1.497309245990293e+00	 7.787033873575906e-01	 1.055464921893511e+01
 1.482008595646407e+00	 8.130184620003784e-01	 1.047636782857651e+01
 1.465881371135623e+00	 8.468773032362267e-01	 1.039054837996196e+01
 1.448925905231452e+00	 8.802536789429295e-01	 1.029710024765398e+01
 1.431141881409813e+00	 9.131218090041288e-01	 1.019591259629352e+01
 1.412530356229895e+00	 9.454564439116367e-01	 1.008685433207402e+01
 1.393093776406722e+00	 9.772329425977901e-01	 9.969774374359451e+00
 1.372835990367206e+00	 1.008427349027368e+00	 9.844502261164051e+00
 1.351762254119812e+00	 1.039016467077784e+00	 9.710849095984997e+00
 1.329879231309057e+00	 1.068977933240202e+00	 9.568608836712295e+00
 1.524932542247848e+00	 7.504280192449314e-01	 1.062292857047578e+01
 1.510329585545209e+00	 7.854748559381955e-01	 1.055361628092255e+01
 1.494895883419309e+00	 8.200883284737793e-01	 1.047689995495057e+01
 1.478628419382025e+00	 8.542416002764679e-01	 1.039269138774750e+01
 1.461525511708960e+00	 8.879082111140940e-01	 1.030088348677011e+01
 1.443586841123604e+00	 9.210621566909006e-01	 1.020135010981013e+01
 1.424813473372803e+00	 9.536779679333758e-01	 1.009394619639031e+01
 1.405207876447794e+00	 9.857307894994263e-01	 9.978508208711723e+00
 1.384773932240742e+00	 1.017196457036321e+00	 9.854854892888726e+00
 1.363516942465446e+00	 1.048051572712035e+00	 9.722788365110521e+00
 1.341443628712318e+00	 1.078273578548551e+00	 9.582095520803811e+00
 1.538078784114736e+00	 7.568973599993275e-01	 1.062140566624872e+01
 1.523349937252375e+00	 7.922463308389349e-01	 1.055346344912243e+01
 1.507783183220298e+00	 8.271582015457860e-01	 1.047818289914096e+01
 1.491375479525636e+00	 8.616059041900879e-01	 1.039545882521558e+01
 1.474125129946076e+00	 8.955627504294971e-01	 1.030516817405936e+01
 1.456031812452673e+00	 9.290025117886478e-01	 1.020717005437309e+01
 1.437096601979941e+00	 9.618994996285009e-01	 1.010130604608608e+01
 1.417321987795348e+00	 9.942286443323317e-01	 9.987400807826955e+00
 1.396711885256342e+00	 1.025965573229707e+00	 9.865262990382201e+00
 1.375271641782104e+00	 1.057086686778972e+00	 9.734686457946090e+00
 1.353008036908993e+00	 1.087569232532751e+00	 9.595451812618263e+00
 1.551225035184080e+00	 7.633667052825658e-01	 1.062079777473647e+01
 1.536370298073917e+00	 7.990178104799711e-01	 1.055409779969103e+01
 1.520670492042556e+00	 8.342280795669296e-01	 1.048012774031193e+01
 1.504122548592373e+00	 8.689702132589067e-01	 1.039876586780079e+01
 1.486724757003127e+00	 9.032172951032263e-01	 1.030987366878884e+01
 1.468476792493434e+00	 9.369428724447580e-01	 1.021329605430455e+01
 1.449379739185485e+00	 9.701210370787814e-01	 1.010886184481067e+01
 1.429436107622995e+00	 1.002726505113793e+00	 9.996384541428483e+00
 1.408649846628719e+00	 1.034734695561511e+00	 9.875663388131528e+00
 1.387026349327250e+00	 1.066121807170510e+00	 9.746484723893245e+00
 1.364572453200936e+00	 1.096864893023922e+00	 9.608623617658251e+00
 1.564371292388615e+00	 7.698360535853119e-01	 1.062101132003686e+01
 1.549390664971957e+00	 8.057892932814672e-01	 1.055542953017597e+01
 1.533557806879267e+00	 8.412979608877380e-01	 1.048264854446060e+01
 1.516869623608153e+00	 8.763345257647448e-01	 1.040253054007903e+01
 1.499324389940438e+00	 9.108718433493710e-01	 1.031492203873385e+01
 1.480921778342302e+00	 9.448832368066197e-01	 1.021965429907350e+01
 1.461662882123616e+00	 9.783425783659890e-01	 1.011654397550443e+01
 1.441550233104349e+00	 1.011224369861097e+00	 1.000539405043377e+01
 1.420587813572585e+00	 1.043503821985717e+00	 9.885995041751160e+00
 1.398781062358348e+00	 1.075156931778564e+00	 9.758126481732056e+00
 1.376136874890005e+00	 1.106160557853187e+00	 9.621558657675898e+00
 1.577517552661069e+00	 7.763054033982315e-01	 1.062195584334433e+01
 1.562411034908616e+00	 8.125607776635853e-01	 1.055737182943066e+01
 1.546445124723613e+00	 8.483678438587413e-01	 1.048566223993411e+01
 1.529616701598890e+00	 8.836988399894217e-01	 1.040667359701779e+01
 1.511924025818336e+00	 9.185263933820198e-01	 1.032023794728384e+01
 1.493366767095691e+00	 9.528236030216212e-01	 1.022617343637096e+01
 1.473946027928508e+00	 9.865641215718935e-01	 1.012428513954725e+01
 1.453664361413024e+00	 1.019722236591529e+00	 1.001436615226952e+01
 1.432525783302651e+00	 1.052272950456313e+00	 9.896198939546903e+00
 1.410535778132862e+00	 1.084192058495051e+00	 9.769556937504102e+00
 1.387701299278052e+00	 1.115456224851666e+00	 9.634206394932555e+00
 1.272057500629041e+00	 1.022499912746946e+00	 9.501250387318439e+00
 1.250359540147344e+00	 1.050537798776298e+00	 9.339359439214125e+00
 1.227904219449511e+00	 1.077935209275797e+00	 9.165285438960019e+00
 1.204701875859538e+00	 1.104673546853691e+00	 8.979420518103897e+00
 1.180764136830705e+00	 1.130735259195432e+00	 8.782226629066265e+00
 1.156103891891588e+00	 1.156103891891588e+00	 8.574233126421317e+00
 1.130735259195432e+00	 1.180764136830706e+00	 8.356033591914459e+00
 1.104673546853691e+00	 1.204701875859538e+00	 8.128281943316370e+00
 1.077935209275797e+00	 1.227904219449511e+00	 7.891687880755693e+00
 1.050537798776297e+00	 1.250359540147344e+00	 7.647011736508424e+00
 1.022499912746946e+00	 1.272057500629041e+00	 7.395058804998047e+00
 1.283621803593056e+00	 1.031795482142871e+00	 9.514508221417870e+00
 1.261726586471149e+00	 1.060088261216182e+00	 9.354737200091513e+00
 1.239067123954619e+00	 1.087734742182361e+00	 9.182947127087687e+00
 1.215653847344298e+00	 1.114716158580364e+00	 8.999495061681285e+00
 1.191498489798890e+00	 1.141014798527169e+00	 8.804806537217365e+00
 1.166614058025953e+00	 1.166614058025953e+00	 8.599373414063649e+00
 1.141014798527169e+00	 1.191498489798890e+00	 8.383750990593061e+00
 1.114716158580364e+00	 1.215653847344298e+00	 8.158554408229465e+00
 1.087734742182360e+00	 1.239067123954620e+00	 7.924454399917398e+00
 1.060088261216181e+00	 1.261726586471148e+00	 7.682172443596988e+00
 1.031795482142871e+00	 1.283621803593056e+00	 7.432475393029526e+00
 1.295186130841210e+00	 1.041091071059036e+00	 9.527936323584431e+00
 1.273093656664901e+00	 1.069638743711571e+00	 9.370172892865572e+00
 1.250230051901031e+00	 1.097534295667453e+00	 9.200552022887022e+00
 1.226605841827457e+00	 1.124758791395993e+00	 9.019397183660502e+00
 1.202232865308533e+00	 1.151294359445364e+00	 8.827099019548676e+00
 1.177124246231041e+00	 1.177124246231041e+00	 8.624113462137508e+00
 1.151294359445364e+00	 1.202232865308534e+00	 8.410959114906932e+00
 1.124758791395993e+00	 1.226605841827457e+00	 8.188213941841919e+00
 1.097534295667452e+00	 1.250230051901031e+00	 7.956511305245994e+00
 1.069638743711570e+00	 1.273093656664901e+00	 7.716535410128664e+00
 1.041091071059036e+00	 1.295186130841210e+00	 7.469016223288774e+00
 1.306750479675358e+00	 1.050386677326566e+00	 9.541470233512584e+00
 1.284460748076471e+00	 1.079189244034114e+00	 9.385607612827213e+00
 1.261393000684236e+00	 1.107333867444610e+00	 9.218046968684545e+00
 1.237557856753712e+00	 1.134801442957407e+00	 9.039079636394606e+00
 1.212967260855094e+00	 1.161573939551575e+00	 8.849062871703270e+00
 1.187634454054607e+00	 1.187634454054607e+00	 8.648418212039118e+00
 1.161573939551575e+00	 1.212967260855095e+00	 8.437629122814933e+00
 1.134801442957407e+00	 1.237557856753713e+00	 8.217237957206866e+00
 1.107333867444610e+00	 1.261393000684237e+00	 7.987842270754976e+00
 1.079189244034114e+00	 1.284460748076472e+00	 7.750090544129300e+00
 1.050386677326566e+00	 1.306750479675358e+00	 7.504677378143248e+00
 1.318314847397356e+00	 1.059682298776580e+00	 9.555047750815078e+00
 1.295827858053730e+00	 1.088739759955460e+00	 9.400984520298852e+00
 1.272555967699726e+00	 1.117133455227372e+00	 9.235380670242153e+00
 1.248509889567757e+00	 1.144844110921433e+00	 9.058496828364721e+00
 1.223701673934031e+00	 1.171853536447356e+00	 8.870658333477081e+00
 1.198144679044406e+00	 1.198144679044407e+00	 8.672253833755430e+00
 1.171853536447356e+00	 1.223701673934032e+00	 8.463733182828214e+00
 1.144844110921433e+00	 1.248509889567758e+00	 8.245604658547846e+00
 1.117133455227372e+00	 1.272555967699726e+00	 8.018431542048887e+00
 1.088739759955460e+00	 1.295827858053730e+00	 7.782828106590529e+00
 1.059682298776580e+00	 1.318314847397355e+00	 7.539455076403279e+00
 1.329879231309057e+00	 1.068977933240202e+00	 9.568608836712295e+00
 1.307194983944547e+00	 1.098290289247258e+00	 9.416248750792317e+00
 1.283718950342991e+00	 1.126933056729275e+00	 9.252503615675124e+00
 1.259461937714286e+00	 1.154886792944901e+00	 9.077604752106765e+00
 1.234436102040804e+00	 1.182133147734263e+00	 8.891847025957441e+00
 1.208654918748195e+00	 1.208654918748196e+00	 8.695587672370520e+00
 1.182133147734263e+00	 1.234436102040805e+00	 8.489244429992675e+00
 1.154886792944901e+00	 1.259461937714287e+00	 8.273293006775903e+00
 1.126933056729275e+00	 1.283718950342991e+00	 8.048263911384272e+00
 1.098290289247258e+00	 1.307194983944547e+00	 7.814738696033624e+00
 1.068977933240202e+00	 1.329879231309057e+00	 7.573345667297966e+00
 1.341443628712318e+00	 1.078273578548551e+00	 9.582095520803811e+00
 1.318562123096792e+00	 1.107840829681157e+00	 9.431347329811071e+00
 1.294881946009521e+00	 1.136732669663859e+00	 9.269367998561826e+00
 1.270413998637995e+00	 1.164929486684639e+00	 9.096360915863942e+00
 1.245170542670870e+00	 1.192412771013853e+00	 8.912591891911170e+00
 1.219165170713729e+00	 1.219165170713729e+00	 8.718388197337472e+00
 1.192412771013853e+00	 1.245170542670870e+00	 8.514136924146792e+00
 1.164929486684638e+00	 1.270413998637995e+00	 8.300282686789251e+00
 1.136732669663859e+00	 1.294881946009521e+00	 8.077324694019811e+00
 1.107840829681157e+00	 1.318562123096793e+00	 7.845813233871318e+00
 1.078273578548551e+00	 1.341443628712317e+00	 7.606345624762499e+00
 1.353008036908993e+00	 1.087569232532751e+00	 9.595451812618263e+00
 1.329929272858337e+00	 1.117391379028806e+00	 9.446229092019212e+00
 1.306044952094807e+00	 1.146532291744662e+00	 9.285927644994203e+00
 1.281366069783578e+00	 1.174972189797474e+00	 9.114724278742449e+00
 1.255904993319687e+00	 1.202692403887681e+00	 8.932857139227977e+00
 1.229675432488762e+00	 1.229675432488763e+00	 8.740624954350119e+00
 1.202692403887681e+00	 1.255904993319688e+00	 8.538385610318944e+00
 1.174972189797473e+00	 1.281366069783578e+00	 8.326554076449087e+00
 1.146532291744661e+00	 1.306044952094807e+00	 8.105599705778673e+00
 1.117391379028805e+00	 1.329929272858337e+00	 7.876042950519794e+00
 1.087569232532751e+00	 1.353008036908992e+00	 7.638451542018328e+00
 1.364572453200936e+00	 1.096864893023922e+00	 9.608623617658251e+00
 1.341296430577051e+00	 1.126941935061853e+00	 9.460844604518240e+00
 1.317207965994339e+00	 1.156331920685220e+00	 9.302137944335675e+00
 1.292318148595728e+00	 1.185014899940235e+00	 9.132655189162408e+00
 1.266639451482715e+00	 1.212972043957304e+00	 8.952608187238194e+00
 1.240185701621051e+00	 1.240185701621051e+00	 8.762268519660728e+00
 1.212972043957304e+00	 1.266639451482715e+00	 8.561966281137300e+00
 1.185014899940234e+00	 1.292318148595729e+00	 8.352088217132012e+00
 1.156331920685220e+00	 1.317207965994339e+00	 8.133075241751156e+00
 1.126941935061853e+00	 1.341296430577051e+00	 7.905419372216656e+00
 1.096864893023922e+00	 1.364572453200936e+00	 7.669660126428772e+00
 1.376136874890005e+00	 1.106160557853187e+00	 9.621558657675898e+00
 1.352663593600802e+00	 1.136492495551947e+00	 9.475146093990132e+00
 1.328370985103609e+00	 1.166131554199074e+00	 9.317955783468175e+00
 1.303270232519143e+00	 1.195057614769750e+00	 9.150115326410557e+00
 1.277373914655412e+00	 1.223251688824277e+00	 8.971811615735536e+00
 1.250695975658350e+00	 1.250695975658350e+00	 8.783290456699712e+00
 1.223251688824276e+00	 1.277373914655412e+00	 8.584855541134088e+00
 1.195057614769750e+00	 1.303270232519143e+00	 8.376866785766259e+00
 1.166131554199074e+00	 1.328370985103609e+00	 8.159738056070392e+00
 1.136492495551947e+00	 1.352663593600803e+00	 7.933934308502939e+00
 1.106160557853187e+00	 1.376136874890005e+00	 7.699968194613777e+00
 1.387701299278052e+00	 1.115456224851666e+00	 9.634206394932555e+00
 1.364030759277465e+00	 1.146043058270738e+00	 9.489087377481303e+00
 1.339534006818105e+00	 1.175931189999760e+00	 9.333339484325215e+00
 1.314222318998515e+00	 1.205100331942848e+00	 9.167067645113606e+00
 1.288108380333235e+00	 1.233531336090155e+00	 8.990435116547463e+00
 1.261206252148415e+00	 1.261206252148416e+00	 8.803663274863233e+00
 1.233531336090155e+00	 1.288108380333236e+00	 8.607030772833500e+00
 1.205100331942847e+00	 1.314222318998515e+00	 8.400872068265569e+00
 1.175931189999759e+00	 1.339534006818105e+00	 8.185575342698971e+00
 1.146043058270737e+00	 1.364030759277465e+00	 7.961579840330918e+00
 1.115456224851666e+00	 1.387701299278052e+00	 7.729372667808936e+00
 1.022499912746946e+00	 1.272057500629041e+00	 7.395058804998047e+00
 9.938411391797880e-01	 1.292989072945795e+00	 7.134487710610896e+00
 9.645820033595817e-01	 1.313146545615596e+00	 6.864382480594042e+00
 9.347438964536103e-01	 1.332523544722111e+00	 6.586294316333918e+00
 9.043490060417456e-01	 1.351115042782550e+00	 6.301866776630696e+00
 8.734202465763062e-01	 1.368917358695529e+00	 6.012821116467761e+00
 8.419811877575710e-01	 1.385928152126612e+00	 5.720941109674110e+00
 8.100559812720007e-01	 1.402146412454711e+00	 5.428057589625682e+00
 7.776692863439484e-01	 1.417572442441804e+00	 5.136032938032548e+00
 7.448461945508813e-01	 1.432207836825180e+00	 4.846745742800982e+00
 7.116121543469851e-01	 1.446055456065250e+00	 4.562075832467404e+00
 1.031795482142871e+00	 1.283621803593056e+00	 7.432475393029526e+00
 1.002876171029337e+00	 1.304743665298257e+00	 7.174117227860847e+00
 9.733510397561598e-01	 1.325084389999482e+00	 6.906276743403833e+00
 9.432416739582011e-01	 1.344637545834978e+00	 6.630465501398576e+00
 9.125704629231184e-01	 1.363398059616986e+00	 6.348286600210995e+00
 8.813605294190264e-01	 1.381362216779144e+00	 6.061420331982529e+00
 8.496356574188763e-01	 1.398527655710974e+00	 5.771609321724864e+00
 8.174202181726491e-01	 1.414893356603802e+00	 5.480643378159160e+00
 7.847390950822557e-01	 1.430459624972012e+00	 5.190344282279222e+00
 7.516176078332562e-01	 1.445228070050684e+00	 4.902550730916427e+00
 7.180814362322998e-01	 1.459201578304726e+00	 4.619103639512328e+00
 1.041091071059036e+00	 1.295186130841210e+00	 7.469016223288774e+00
 1.011911221851995e+00	 1.316498282334426e+00	 7.212800604525279e+00
 9.821200945672417e-01	 1.337022259451875e+00	 6.947159016145696e+00
 9.517394693076283e-01	 1.356751572386259e+00	 6.673563865065734e+00
 9.207919370690233e-01	 1.375681102244761e+00	 6.393578138726012e+00
 8.893008289357806e-01	 1.393807100995965e+00	 6.108841382485707e+00
 8.572901431539762e-01	 1.411127185753312e+00	 5.821055158557302e+00
 8.247844705375753e-01	 1.427640327520522e+00	 5.531968211821439e+00
 7.918089186665234e-01	 1.443346834564396e+00	 5.243361564299017e+00
 7.583890353349521e-01	 1.458248330617824e+00	 4.957033751695142e+00
 7.245507317024646e-01	 1.472347728150277e+00	 4.674786402763152e+00
 1.050386677326566e+00	 1.306750479675358e+00	 7.504677378143248e+00
 1.020946289539679e+00	 1.328252921311766e+00	 7.250539859886283e+00
 9.908891657468131e-01	 1.348960151187485e+00	 6.987036857427363e+00
 9.602372805191773e-01	 1.368865621549567e+00	 6.715602103309086e+00
 9.290134265612304e-01	 1.387964167800052e+00	 6.437758821509648e+00
 8.972411432739568e-01	 1.406252008442408e+00	 6.155106026912836e+00
 8.649446431769587e-01	 1.423726739313954e+00	 5.869304307436904e+00
 8.321487366486005e-01	 1.440387322230788e+00	 5.582061309588733e+00
 7.988787554472800e-01	 1.456234068212134e+00	 5.295117144884745e+00
 7.651604754761312e-01	 1.471268615488724e+00	 5.010229926538974e+00
 7.310200392481446e-01	 1.485493902534635e+00	 4.729161633546646e+00
 1.059682298776580e+00	 1.318314847397355e+00	 7.539455076403279e+00
 1.029981371984303e+00	 1.340007579487740e+00	 7.287336941486652e+00
 9.996582512488599e-01	 1.360898062421025e+00	 7.025917559896082e+00
 9.687351056101354e-01	 1.380979690498518e+00	 6.756592466034297e+00
 9.372349294815112e-01	 1.400247253417037e+00	 6.480845465904103e+00
 9.051814705809433e-01	 1.418696936214885e+00	 6.200235260457703e+00
 8.725991557019135e-01	 1.436326313453225e+00	 5.916381554222139e+00
 8.395130147875441e-01	 1.453134337760517e+00	 5.630950865284925e+00
 8.059486037750551e-01	 1.469121322908410e+00	 5.345642249613149e+00
 7.719319266769559e-01	 1.484288921625506e+00	 5.062173144944969e+00
 7.374893573600056e-01	 1.498640098390529e+00	 4.782265527599725e+00
 1.068977933240202e+00	 1.329879231309057e+00	 7.573345667297966e+00
 1.039016467077783e+00	 1.351762254119812e+00	 7.323193728155671e+00
 1.008427349027367e+00	 1.372835990367206e+00	 7.063808161708268e+00
 9.772329425977898e-01	 1.393093776406722e+00	 6.796546776379170e+00
 9.454564439116363e-01	 1.412530356229895e+00	 6.522854303774555e+00
 9.131218090041283e-01	 1.431141881409813e+00	 6.244249347685850e+00
 8.802536789429289e-01	 1.448925905231452e+00	 5.962310822465075e+00
 8.468773032362263e-01	 1.465881371135624e+00	 5.678664092064191e+00
 8.130184620003781e-01	 1.482008595646407e+00	 5.394967018115558e+00
 7.787033873575901e-01	 1.497309245990293e+00	 5.112896117982904e+00
 7.439586845287128e-01	 1.511786312650691e+00	 4.834133022188696e+00
 1.078273578548551e+00	 1.341443628712317e+00	 7.606345624762499e+00
 1.048051572712034e+00	 1.363516942465446e+00	 7.358112032878894e+00
 1.017196457036321e+00	 1.384773932240742e+00	 7.100715457406392e+00
 9.857307894994257e-01	 1.405207876447794e+00	 6.835476449016266e+00
 9.536779679333754e-01	 1.424813473372804e+00	 6.563801006653122e+00
 9.210621566909001e-01	 1.443586841123604e+00	 6.287167853936440e+00
 8.879082111140938e-01	 1.461525511708960e+00	 6.007115210490639e+00
 8.542416002764672e-01	 1.478628419382025e+00	 5.725227264594484e+00
 8.200883284737788e-01	 1.494895883419310e+00	 5.443120550801739e+00
 7.854748559381950e-01	 1.510329585545209e+00	 5.162430429008348e+00
 7.504280192449314e-01	 1.524932542247848e+00	 4.884797850275790e+00
 1.087569232532751e+00	 1.353008036908992e+00	 7.638451542018328e+00
 1.057086686778971e+00	 1.375271641782104e+00	 7.392093605520529e+00
 1.025965573229707e+00	 1.396711885256342e+00	 7.136646008238008e+00
 9.942286443323313e-01	 1.417321987795348e+00	 6.873392507517366e+00
 9.618994996285004e-01	 1.437096601979941e+00	 6.603700709594477e+00
 9.290025117886472e-01	 1.456031812452673e+00	 6.329009675114543e+00
 8.955627504294964e-01	 1.474125129946077e+00	 6.050817026575375e+00
 8.616059041900874e-01	 1.491375479525636e+00	 5.770665759078689e+00
 8.271582015457856e-01	 1.507783183220298e+00	 5.490130953188543e+00
 7.922463308389345e-01	 1.523349937252376e+00	 5.210806581776305e+00
 7.568973599993274e-01	 1.538078784114736e+00	 4.934292591909426e+00
 1.096864893023922e+00	 1.364572453200936e+00	 7.669660126428772e+00
 1.066121807170509e+00	 1.387026349327251e+00	 7.425140135407664e+00
 1.034734695561510e+00	 1.408649846628719e+00	 7.171606151950828e+00
 1.002726505113793e+00	 1.429436107622995e+00	 6.910305600835445e+00
 9.701210370787809e-01	 1.449379739185485e+00	 6.642568033818651e+00
 9.369428724447576e-01	 1.468476792493435e+00	 6.369793065969289e+00
 9.032172951032259e-01	 1.486724757003127e+00	 6.093437822338496e+00
 8.689702132589063e-01	 1.504122548592373e+00	 5.815004091241978e+00
 8.342280795669288e-01	 1.520670492042557e+00	 5.536025377976274e+00
 7.990178104799709e-01	 1.536370298073918e+00	 5.258054046109978e+00
 7.633667052825658e-01	 1.551225035184081e+00	 4.982648723002912e+00
 1.106160557853187e+00	 1.376136874890005e+00	 7.699968194613777e+00
 1.075156931778564e+00	 1.398781062358349e+00	 7.457253253784174e+00
 1.043503821985717e+00	 1.420587813572585e+00	 7.205602012093840e+00
 1.011224369861096e+00	 1.441550233104349e+00	 6.946226018956192e+00
 9.783425783659885e-01	 1.461662882123616e+00	 6.680417108213225e+00
 9.448832368066190e-01	 1.480921778342302e+00	 6.409535666947403e+00
 9.108718433493705e-01	 1.499324389940438e+00	 6.134998424450246e+00
 8.763345257647444e-01	 1.516869623608153e+00	 5.858265952404979e+00
 8.412979608877375e-01	 1.533557806879267e+00	 5.580830065004356e+00
 8.057892932814669e-01	 1.549390664971957e+00	 5.304201301267979e+00
 7.698360535853118e-01	 1.564371292388615e+00	 5.029896661655034e+00
 1.115456224851666e+00	 1.387701299278052e+00	 7.729372667808936e+00
 1.084192058495050e+00	 1.410535778132863e+00	 7.488434536141996e+00
 1.052272950456312e+00	 1.432525783302652e+00	 7.238639506853827e+00
 1.019722236591529e+00	 1.453664361413024e+00	 6.981163707767228e+00
 9.865641215718933e-01	 1.473946027928509e+00	 6.717261589760662e+00
 9.528236030216204e-01	 1.493366767095692e+00	 6.448254529704320e+00
 9.185263933820192e-01	 1.511924025818336e+00	 6.175518964755768e+00
 8.836988399894211e-01	 1.529616701598891e+00	 5.900474243754125e+00
 8.483678438587410e-01	 1.546445124723613e+00	 5.624570379210551e+00
 8.125607776635847e-01	 1.562411034908617e+00	 5.349275877144516e+00
 7.763054033982313e-01	 1.577517552661069e+00	 5.076065812155814e+00
 7.116121543469851e-01	 1.446055456065250e+00	 4.562075832467404e+00
 6.779952603986081e-01	 1.459118509875090e+00	 4.281478934157558e+00
 6.440191242799743e-01	 1.471403296560924e+00	 4.004385740699330e+00
 6.097098014158014e-01	 1.482916279286323e+00	 3.732679566881469e+00
 5.750934079577478e-01	 1.493665038647719e+00	 3.468219360483602e+00
 5.401960501077742e-01	 1.503658226640188e+00	 3.212827267983427e+00
 5.050437554940973e-01	 1.512905517695068e+00	 2.968277222103189e+00
 4.696624069080371e-01	 1.521417557158576e+00	 2.736284632853699e+00
 4.340776786805963e-01	 1.529205907584642e+00	 2.518497239690704e+00
 3.983149759469042e-01	 1.536282993215550e+00	 2.316487159332589e+00
 3.623993770150853e-01	 1.542662043020896e+00	 2.131744142164782e+00
 7.180814362322998e-01	 1.459201578304726e+00	 4.619103639512328e+00
 6.841589303549738e-01	 1.472383388626782e+00	 4.339464272641209e+00
 6.498739164288544e-01	 1.484779856581117e+00	 4.063106558553461e+00
 6.152526867491104e-01	 1.496397504088063e+00	 3.791934239808934e+00
 5.803215948899217e-01	 1.507243980659427e+00	 3.527829235743235e+00
 5.451069843853170e-01	 1.517328016945761e+00	 3.272638826476909e+00
 5.096351194812663e-01	 1.526659375328873e+00	 3.028163859971992e+00
 4.739321182701249e-01	 1.535248797932060e+00	 2.796148069054936e+00
 4.380238884888158e-01	 1.543107952424687e+00	 2.578268560737107e+00
 4.019360662311215e-01	 1.550249375998100e+00	 2.376127516506346e+00
 3.656939577926278e-01	 1.556686417886749e+00	 2.191245120021133e+00
 7.245507317024646e-01	 1.472347728150277e+00	 4.674786402763152e+00
 6.903226132544259e-01	 1.485648295234026e+00	 4.396091477467222e+00
 6.557287208722129e-01	 1.498156444691492e+00	 4.120470199502699e+00
 6.207955837219395e-01	 1.509878757199893e+00	 3.849844644244907e+00
 5.855497928008034e-01	 1.520822951186545e+00	 3.586117610843587e+00
 5.500179289753964e-01	 1.530997835957644e+00	 3.331159438690960e+00
 5.142264931099344e-01	 1.540413261845647e+00	 3.086795847083693e+00
 4.782018385983018e-01	 1.549080067751132e+00	 2.854796890164687e+00
 4.419701065838273e-01	 1.557010026459114e+00	 2.636867094123341e+00
 4.055571641194289e-01	 1.564215788110238e+00	 2.434636819411404e+00
 3.689885454886305e-01	 1.570710822204060e+00	 2.249654867890866e+00
 7.310200392481446e-01	 1.485493902534635e+00	 4.729161633546647e+00
 6.964863076589421e-01	 1.498913226601821e+00	 4.451400125483706e+00
 6.615835362440979e-01	 1.511533057770965e+00	 4.176518052704566e+00
 6.263384910411126e-01	 1.523360035476277e+00	 3.906453777225284e+00
 5.907780004706401e-01	 1.534401947060710e+00	 3.643128934883709e+00
 5.549288827322761e-01	 1.544667680486245e+00	 3.388434898134913e+00
 5.188178753089218e-01	 1.554167174036154e+00	 3.144220261147984e+00
 4.824715668964258e-01	 1.562911363388469e+00	 2.912279444362815e+00
 4.459163320449566e-01	 1.570912126444055e+00	 2.694342490067834e+00
 4.091782687669960e-01	 1.578182226293059e+00	 2.492066095795982e+00
 3.722831393344285e-01	 1.584735252700366e+00	 2.307025908924011e+00
 7.374893573600056e-01	 1.498640098390529e+00	 4.782265527599725e+00
 7.026500121304988e-01	 1.512178179635163e+00	 4.505428405641270e+00
 6.674383611785580e-01	 1.524909692698449e+00	 4.231290055989543e+00
 6.318814074134532e-01	 1.536841335771679e+00	 3.961803128195582e+00
 5.960062166796790e-01	 1.547980965113555e+00	 3.698906098568433e+00
 5.598398445102205e-01	 1.558337547341970e+00	 3.444509392889533e+00
 5.234092650070477e-01	 1.567921108691153e+00	 3.200482529515962e+00
 4.867413021683554e-01	 1.576742681616749e+00	 2.968642385013988e+00
 4.498625639515298e-01	 1.584814249135637e+00	 2.750742658400614e+00
 4.127993793289922e-01	 1.592148687287655e+00	 2.548464584789779e+00
 3.755777385613569e-01	 1.598759706103210e+00	 2.363408925277419e+00
 7.439586845287128e-01	 1.511786312650691e+00	 4.834133022188696e+00
 7.088137252310740e-01	 1.525443151239054e+00	 4.558213179259716e+00
 6.732931943096422e-01	 1.538286346352859e+00	 4.284824758890021e+00
 6.374243315457838e-01	 1.550322654940563e+00	 4.015932744490577e+00
 6.012344402081665e-01	 1.561560002176714e+00	 3.753490501901823e+00
 5.647508131634932e-01	 1.572007433335227e+00	 3.499425575350320e+00
 5.280006611331313e-01	 1.581675062601407e+00	 3.255626500881843e+00
 4.910110434179485e-01	 1.590574019208646e+00	 3.023930744307096e+00
 4.538088013828737e-01	 1.598716391289989e+00	 2.806113844189684e+00
 4.164204949605870e-01	 1.606115167835117e+00	 2.603879814631708e+00
 3.788723424007510e-01	 1.612784179140129e+00	 2.418852838124272e+00
 7.504280192449314e-01	 1.524932542247848e+00	 4.884797850275790e+00
 7.149774455226450e-01	 1.538708138318490e+00	 4.609790037179510e+00
 6.791480342713977e-01	 1.551663015613107e+00	 4.337159382410696e+00
 6.429672621449286e-01	 1.563803989837395e+00	 4.068881293428740e+00
 6.064626698363502e-01	 1.575139055081823e+00	 3.806922118380835e+00
 5.696617875463584e-01	 1.585677335276421e+00	 3.553224628365168e+00
 5.325920626159921e-01	 1.595429032557675e+00	 3.309694513278127e+00
 4.952807896490634e-01	 1.604405372936839e+00	 3.078188003088508e+00
 4.577550434183135e-01	 1.612618549663240e+00	 2.860500699457457e+00
 4.200416148169501e-01	 1.620081664676538e+00	 2.658357676379751e+00
 3.821669500839457e-01	 1.626808668538665e+00	 2.473404883527570e+00
 7.568973599993274e-01	 1.538078784114736e+00	 4.934292591909424e+00
 7.211411715671887e-01	 1.551973137778469e+00	 4.660193353983813e+00
 6.850028796978735e-01	 1.565039697358109e+00	 4.388329875735819e+00
 6.485101979177100e-01	 1.577285337316637e+00	 4.120686121224562e+00
 6.116909043444768e-01	 1.588718120660515e+00	 3.859239555899112e+00
 5.745727665130806e-01	 1.599347249975960e+00	 3.605946327982533e+00
 5.371834683844495e-01	 1.609183015350720e+00	 3.362727458585711e+00
 4.995505398655584e-01	 1.618236739574002e+00	 3.131456157115338e+00
 4.617012891371763e-01	 1.626520721011518e+00	 2.913946351221589e+00
 4.236627380532507e-01	 1.634048174553011e+00	 2.711942493842691e+00
 3.854615608422766e-01	 1.640833171026356e+00	 2.527110684424930e+00
 7.633667052825658e-01	 1.551225035184081e+00	 4.982648723002912e+00
 7.273049019266828e-01	 1.565238146523991e+00	 4.709456339465250e+00
 6.908577292231181e-01	 1.578416388466777e+00	 4.438370970054359e+00
 6.540531375709528e-01	 1.590766694232754e+00	 4.171383308906515e+00
 6.169191425127937e-01	 1.602297195744425e+00	 3.910480114555591e+00
 5.794837489179234e-01	 1.613017174244251e+00	 3.657629103010546e+00
 5.417748773673230e-01	 1.622937007771304e+00	 3.414764843765707e+00
 5.038202930712917e-01	 1.632068115892814e+00	 3.183775779942601e+00
 4.656475376187880e-01	 1.640422902090953e+00	 2.966492466078164e+00
 4.272838638246586e-01	 1.648014694205628e+00	 2.764677089958073e+00
 3.887561739070783e-01	 1.654857683330742e+00	 2.580014318954881e+00
 7.698360535853118e-01	 1.564371292388615e+00	 5.029896661655034e+00
 7.334686351631050e-01	 1.578503161460053e+00	 4.757611087498720e+00
 6.967125814811799e-01	 1.591793085818026e+00	 4.487316229672864e+00
 6.595960798114791e-01	 1.604248057440212e+00	 4.221007725417545e+00
 6.221473831215476e-01	 1.615876277165188e+00	 3.960679841549802e+00
 5.843947336151513e-01	 1.626687104891698e+00	 3.708310091574985e+00
 5.463662884934321e-01	 1.636691006610186e+00	 3.465844849005424e+00
 5.080900482701216e-01	 1.645899498665951e+00	 3.235186082640519e+00
 4.695937879424745e-01	 1.654325089657673e+00	 3.018179311530114e+00
 4.309049912863432e-01	 1.661981220375480e+00	 2.816602849825216e+00
 3.920507885096861e-01	 1.668882202179363e+00	 2.632158385340278e+00
 7.763054033982313e-01	 1.577517552661069e+00	 5.076065812155814e+00
 7.396323698384324e-01	 1.591768179491655e+00	 4.804688622472331e+00
 7.025674351061071e-01	 1.605169786290770e+00	 4.535198100574201e+00
 6.651390233461130e-01	 1.617729423793473e+00	 4.269593078061592e+00
 6.273756249509856e-01	 1.629455361754438e+00	 4.009873583334327e+00
 5.893057194590278e-01	 1.640357038728711e+00	 3.758025194850653e+00
 5.509577006915954e-01	 1.650445008658129e+00	 3.516004382958832e+00
 5.123598044659060e-01	 1.659730884666089e+00	 3.285724970528192e+00
 4.735400391875621e-01	 1.668227280467808e+00	 3.069045814251137e+00
 4.345261195934739e-01	 1.675947749803660e+00	 2.867759780588176e+00
 3.953454038814352e-01	 1.682906724299760e+00	 2.683584063529269e+00
 3.623993770150853e-01	 1.542662043020896e+00	 2.131744142164782e+00
 3.263530585742443e-01	 1.548357407728751e+00	 1.964261611047366e+00
 2.902028324592135e-01	 1.553383283288272e+00	 1.813426871189159e+00
 2.539725263249901e-01	 1.557754965574446e+00	 1.679650084535577e+00
 2.176854422294076e-01	 1.561488320293919e+00	 1.563254142473315e+00
 1.813643166387074e-01	 1.564599723976281e+00	 1.464479713466215e+00
 1.450312841900338e-01	 1.567106005523594e+00	 1.383490560127157e+00
 1.087078452135093e-01	 1.569024388591723e+00	 1.320379041101378e+00
 7.241483699079308e-02	 1.570372435055877e+00	 1.275171719843387e+00
 3.617240870313355e-02	 1.571167989790866e+00	 1.247835009604086e+00
 0.000000000000000e+00	 1.571429126974074e+00	 1.238280791490253e+00
 3.656939577926278e-01	 1.556686417886749e+00	 2.191245120021132e+00
 3.293199414712120e-01	 1.562433559281498e+00	 2.023569876230298e+00
 2.928410728486677e-01	 1.567505125187194e+00	 1.872451030335109e+00
 2.562813961977030e-01	 1.571916550533969e+00	 1.738339579738644e+00
 2.196644254156484e-01	 1.575683845263964e+00	 1.621599073426968e+00
 1.830131036664362e-01	 1.578823534786167e+00	 1.522510371440161e+00
 1.463497668136618e-01	 1.581352600994570e+00	 1.441276702556541e+00
 1.096961106473998e-01	 1.583288424125677e+00	 1.378028935986773e+00
 7.307316188147454e-02	 1.584648725710099e+00	 1.332830989109039e+00
 3.650125287376429e-02	 1.585451512850806e+00	 1.305685300101639e+00
 0.000000000000000e+00	 1.585715024037928e+00	 1.296538301516863e+00
 3.689885454886305e-01	 1.570710822204060e+00	 2.249654867890866e+00
 3.322868305985031e-01	 1.576509740394501e+00	 2.081826150442836e+00
 2.954793187783156e-01	 1.581626996742376e+00	 1.930465468005549e+00
 2.585902709189448e-01	 1.586078165233253e+00	 1.796066262867892e+00
 2.216434127576642e-01	 1.589879400045076e+00	 1.679034241623996e+00
 1.846618941565348e-01	 1.593047375466543e+00	 1.579691842216089e+00
 1.476682522060273e-01	 1.595599226383897e+00	 1.498283029499544e+00
 1.106843781565813e-01	 1.597552489614615e+00	 1.434978335439918e+00
 7.373148815458633e-02	 1.598925046345047e+00	 1.389880065808385e+00
 3.683009773493729e-02	 1.599735065906658e+00	 1.363027601646488e+00
 0.000000000000000e+00	 1.600000951102682e+00	 1.354402730602810e+00
 3.722831393344285e-01	 1.584735252700366e+00	 2.307025908924010e+00
 3.352537252638942e-01	 1.590585947783202e+00	 2.139084357362170e+00
 2.981175696325952e-01	 1.595748894658584e+00	 1.987525145322493e+00
 2.608991499499848e-01	 1.600239806367783e+00	 1.852885730001063e+00
 2.236224037936799e-01	 1.604074981324811e+00	 1.735615439284552e+00
 1.863106877242587e-01	 1.607271242698359e+00	 1.636079642071153e+00
 1.489867400594469e-01	 1.609845878367206e+00	 1.554564278929353e+00
 1.116726475104179e-01	 1.611816581730097e+00	 1.491280669415427e+00
 7.438981565648303e-02	 1.613201393629416e+00	 1.446370517637243e+00
 3.715894320989912e-02	 1.614018645625435e+00	 1.419911043631498e+00
 0.000000000000000e+00	 1.614286904834791e+00	 1.411920174589490e+00
 3.755777385613569e-01	 1.598759706103210e+00	 2.363408925277418e+00
 3.382206247751618e-01	 1.604662178163041e+00	 2.195396530618185e+00
 3.007558247959438e-01	 1.609870815640586e+00	 2.043683097041163e+00
 2.632080327520928e-01	 1.614401470633040e+00	 1.908851628650352e+00
 2.256013980619198e-01	 1.618270585790723e+00	 1.791396503264513e+00
 1.879594839848633e-01	 1.621495133162564e+00	 1.691727341690591e+00
 1.503052300662377e-01	 1.624092553620127e+00	 1.610173270636872e+00
 1.126609184782738e-01	 1.626080697143680e+00	 1.546987495695311e+00
 7.504814423351923e-02	 1.627477764231905e+00	 1.502352105593105e+00
 3.748778922189638e-02	 1.628302248674145e+00	 1.476383034457451e+00
 0.000000000000000e+00	 1.628572881900711e+00	 1.469135114941779e+00
 3.788723424007510e-01	 1.612784179140129e+00	 2.418852838124272e+00
 3.411875284400819e-01	 1.618738428249461e+00	 2.250812895940280e+00
 3.033940836527992e-01	 1.623992756393148e+00	 2.098990515279840e+00
 2.655169187865384e-01	 1.628563154724507e+00	 1.964015742462308e+00
 2.275803951006083e-01	 1.632466210130370e+00	 1.846429400055615e+00
 1.896082825536040e-01	 1.635719043540108e+00	 1.746686650748263e+00
 1.516237219187161e-01	 1.638339248818289e+00	 1.665160989624874e+00
 1.136491908295131e-01	 1.640344832526921e+00	 1.602148581289244e+00
 7.570647373204954e-02	 1.641754154821212e+00	 1.557872862535385e+00
 3.781663569417570e-02	 1.642585871719799e+00	 1.532489336375119e+00
 0.000000000000000e+00	 1.642858878966899e+00	 1.526090488963383e+00
 3.821669500839457e-01	 1.626808668538665e+00	 2.473404883527570e+00
 3.441544355664312e-01	 1.632814694757902e+00	 2.305381949057486e+00
 3.060323455875985e-01	 1.638114713621036e+00	 2.153496828921861e+00
 2.678258075145910e-01	 1.642724855337668e+00	 2.018428071539002e+00
 2.295593944479702e-01	 1.646661851031305e+00	 1.900764306391827e+00
 1.912570830457364e-01	 1.649942970511941e+00	 1.801007498114493e+00
 1.529422153091992e-01	 1.652585960637322e+00	 1.719576665191365e+00
 1.146374643335000e-01	 1.654608984551381e+00	 1.656811979626768e+00
 7.636480399842863e-02	 1.656030562066033e+00	 1.612979167684893e+00
 3.814548254998362e-02	 1.656869511429404e+00	 1.588274136458204e+00
 0.000000000000000e+00	 1.657144892699808e+00	 1.582827756382252e+00
 3.854615608422766e-01	 1.640833171026356e+00	 2.527110684424930e+00
 3.471213454619858e-01	 1.646890974403806e+00	 2.359150529605862e+00
 3.086706099847795e-01	 1.652236684029017e+00	 2.207249778947618e+00
 2.701346983975204e-01	 1.656886569168003e+00	 2.072136908642773e+00
 2.315383956422299e-01	 1.660857505181086e+00	 1.954449685723670e+00
 1.929058850765158e-01	 1.664166910759013e+00	 1.854738107953379e+00
 1.542607099300037e-01	 1.666832685752855e+00	 1.773467845959577e+00
 1.156257387595986e-01	 1.668873149888614e+00	 1.711024103793029e+00
 7.702313487901102e-02	 1.670306982635067e+00	 1.667715817304639e+00
 3.847432971256679e-02	 1.671153164469973e+00	 1.643780113938720e+00
 0.000000000000000e+00	 1.671430919765895e+00	 1.639386962523327e+00
 3.887561739070783e-01	 1.654857683330742e+00	 2.580014318954881e+00
 3.500882574345220e-01	 1.660967263902613e+00	 2.412163891280151e+00
 3.113088762287797e-01	 1.666358664321857e+00	 2.260295489938382e+00
 2.724435908965959e-01	 1.671048292910997e+00	 2.125188911527675e+00
 2.335173982216118e-01	 1.675053169267265e+00	 2.007532360806651e+00
 1.945546882611978e-01	 1.678390860962273e+00	 1.907925071952356e+00
 1.555792054734463e-01	 1.681079420840518e+00	 1.826880471094752e+00
 1.166140138771731e-01	 1.683137325210182e+00	 1.764829796042880e+00
 7.768146622015146e-02	 1.684583413197011e+00	 1.722126091788978e+00
 3.880317710517176e-02	 1.685436827508512e+00	 1.699048504120455e+00
 0.000000000000000e+00	 1.685716956831615e+00	 1.695806798270782e+00
 3.920507885096861e-01	 1.668882202179363e+00	 2.632158385340277e+00
 3.530551707918164e-01	 1.675043559969767e+00	 2.464465768450158e+00
 3.139471437040367e-01	 1.680480651204323e+00	 2.312678537976884e+00
 2.747524844730875e-01	 1.685210023262131e+00	 2.177629171626587e+00
 2.354964017243407e-01	 1.689248839977401e+00	 2.060057582631844e+00
 1.962034922150377e-01	 1.692614817802672e+00	 1.960613417912483e+00
 1.568977016318438e-01	 1.695326162575941e+00	 1.879858937932614e+00
 1.176022894555876e-01	 1.697401507187642e+00	 1.818272393811932e+00
 7.833979786820437e-02	 1.698859850420562e+00	 1.776251819371605e+00
 3.913202465104514e-02	 1.699720497212033e+00	 1.754119159071643e+00
 0.000000000000000e+00	 1.700003000563425e+00	 1.752124657008816e+00
 3.953454038814352e-01	 1.682906724299760e+00	 2.683584063529269e+00
 3.560220848416451e-01	 1.689119859320706e+00	 2.516098439448140e+00
 3.165854117949879e-01	 1.694602641381182e+00	 2.364442015154460e+00
 2.770613785882645e-01	 1.699371756916888e+00	 2.229501279305496e+00
 2.374754056886408e-01	 1.703444513999047e+00	 2.112069095911320e+00
 1.978522965532911e-01	 1.706838777961158e+00	 2.012846674910531e+00
 1.582161980975129e-01	 1.709572907634753e+00	 1.932446166227654e+00
 1.185905652642063e-01	 1.711665692492552e+00	 1.871393792428602e+00
 7.899812966952448e-02	 1.713136290974417e+00	 1.830133436650265e+00
 3.946087227343351e-02	 1.714004170247544e+00	 1.809030605284513e+00
 0.000000000000000e+00	 1.714289047627778e+00	 1.808376688716726e+00
 1.714289047627778e+00	 0.000000000000000e+00	 1.122397222509518e+01
 1.714004170247544e+00	 3.946087227343405e-02	 1.121645847037666e+01
 1.713136290974417e+00	 7.899812966952499e-02	 1.120714157365245e+01
 1.711665692492551e+00	 1.185905652642067e-01	 1.119594483630251e+01
 1.709572907634753e+00	 1.582161980975134e-01	 1.118279159409219e+01
 1.706838777961159e+00	 1.978522965532914e-01	 1.116760585466286e+01
 1.703444513999047e+00	 2.374754056886410e-01	 1.115031299552000e+01
 1.699371756916888e+00	 2.770613785882647e-01	 1.113084052061384e+01
 1.694602641381181e+00	 3.165854117949879e-01	 1.110911887241587e+01
 1.689119859320706e+00	 3.560220848416451e-01	 1.108508229509585e+01
 1.682906724299760e+00	 3.953454038814352e-01	 1.105866974301337e+01
 1.728574095521189e+00	 0.000000000000000e+00	 1.121101631561703e+01
 1.728286844278154e+00	 3.978969689590382e-02	 1.120362089318973e+01
 1.727411733029215e+00	 7.965641542658061e-02	 1.119444898709299e+01
 1.725928880155543e+00	 1.195787719521365e-01	 1.118344315048406e+01
 1.723818656271432e+00	 1.595346023467900e-01	 1.117054609287949e+01
 1.721061743291110e+00	 1.995009855734061e-01	 1.115570119271305e+01
 1.717639195170523e+00	 2.394542712406711e-01	 1.113885305735757e+01
 1.713532500095309e+00	 2.793701112187154e-01	 1.111994812900348e+01
 1.708723643861422e+00	 3.192234953648744e-01	 1.109893533383452e+01
 1.703195174170718e+00	 3.589887913849909e-01	 1.107576677090429e+01
 1.696930265540624e+00	 3.986397888273382e-01	 1.105039843600843e+01
 1.742859145080407e+00	 0.000000000000000e+00	 1.120040349317090e+01
 1.742569519974292e+00	 4.011852155654502e-02	 1.119317463692003e+01
 1.741687176748694e+00	 8.031470126013213e-02	 1.118416879417827e+01
 1.740192069481785e+00	 1.205669787550092e-01	 1.117335079300390e+01
 1.738064406569329e+00	 1.608530067495478e-01	 1.116068576513480e+01
 1.735284710279628e+00	 2.011496747855981e-01	 1.114613950470251e+01
 1.731833877997279e+00	 2.414331370233990e-01	 1.112967885851993e+01
 1.727693244925074e+00	 2.816788441184743e-01	 1.111127214674031e+01
 1.722844647988404e+00	 3.218615792426328e-01	 1.109088961203058e+01
 1.717270490662191e+00	 3.619554982746882e-01	 1.106850389468958e+01
 1.710953808416969e+00	 4.019341741579514e-01	 1.104409053038218e+01
 1.757144197972236e+00	 0.000000000000000e+00	 1.119200623924027e+01
 1.756852199002485e+00	 4.044734629376737e-02	 1.118500060337867e+01
 1.755962623798535e+00	 8.097298724705353e-02	 1.117618975486187e+01
 1.754455262135521e+00	 1.215551857881995e-01	 1.116556372331400e+01
 1.752310160190644e+00	 1.621714114596792e-01	 1.115311301306638e+01
 1.749507680586243e+00	 2.027983643822760e-01	 1.113882877957153e+01
 1.746028564135532e+00	 2.434120032677273e-01	 1.112270301869786e+01
 1.741853993058423e+00	 2.839875775568943e-01	 1.110472876821446e+01
 1.736965655409712e+00	 3.244996637360027e-01	 1.108490032047563e+01
 1.731345810437356e+00	 3.649222058567783e-01	 1.106321344498951e+01
 1.724977354564966e+00	 4.052285602575090e-01	 1.103966561921014e+01
 1.771429255863481e+00	 0.000000000000000e+00	 1.118570114923727e+01
 1.771134883029259e+00	 4.077617114598067e-02	 1.117898353653879e+01
 1.770238075844416e+00	 8.163127346421889e-02	 1.117040421764693e+01
 1.768718459780996e+00	 1.225433931670820e-01	 1.115998125706653e+01
 1.766555918797576e+00	 1.634898166310768e-01	 1.114773338715818e+01
 1.763730655870483e+00	 2.044470545558483e-01	 1.113367997423645e+01
 1.760223255241496e+00	 2.453908702045582e-01	 1.111784097610519e+01
 1.756014746147593e+00	 2.862963118033288e-01	 1.110023689095806e+01
 1.751086667772930e+00	 3.271377491527243e-01	 1.108088869768350e+01
 1.745421135138444e+00	 3.678889144773020e-01	 1.105981778773741e+01
 1.739000905620783e+00	 4.085229475102455e-01	 1.103704588888054e+01
 1.785714320420949e+00	 0.000000000000000e+00	 1.118136876795175e+01
 1.785417573721143e+00	 4.110499615159467e-02	 1.117501186885192e+01
 1.784513534552017e+00	 8.228955998850228e-02	 1.116670797604453e+01
 1.782981664082449e+00	 1.235316010070312e-01	 1.115650593186455e+01
 1.780801684052323e+00	 1.648082224176332e-01	 1.114445546023649e+01
 1.777953637791879e+00	 2.060957454987233e-01	 1.113060689486770e+01
 1.774417952971385e+00	 2.473697380647936e-01	 1.111501087473484e+01
 1.770175505844826e+00	 2.886050471271306e-01	 1.109771800751680e+01
 1.765207686725639e+00	 3.297758358005370e-01	 1.107877850220640e+01
 1.759496466407687e+00	 3.708556244823006e-01	 1.105824177276484e+01
 1.753024463220587e+00	 4.118173363003946e-01	 1.103615601536138e+01
 1.799999393311444e+00	 0.000000000000000e+00	 1.117889343283777e+01
 1.799700272744663e+00	 4.143382134901918e-02	 1.117297757488429e+01
 1.798789001587018e+00	 8.294784689677770e-02	 1.116500013186907e+01
 1.797244876704124e+00	 1.245198094234218e-01	 1.115504337940691e+01
 1.795047457617085e+00	 1.661266289732409e-01	 1.114319070753460e+01
 1.792176628009957e+00	 2.077444374033096e-01	 1.112952608382256e+01
 1.788612658981417e+00	 2.493486070793360e-01	 1.111413345698478e+01
 1.784336273802357e+00	 2.909137837976530e-01	 1.109709610247165e+01
 1.779328713915424e+00	 3.324139239871812e-01	 1.107849591263237e+01
 1.773571805887316e+00	 3.738223362178146e-01	 1.105841263523394e+01
 1.767048029000547e+00	 4.151117270121904e-01	 1.103692306540815e+01
 1.814284476201773e+00	 0.000000000000000e+00	 1.117816312470550e+01
 1.813982981766347e+00	 4.176264677666395e-02	 1.117277603186955e+01
 1.813064478615097e+00	 8.360613426591922e-02	 1.116518296499342e+01
 1.811508099310267e+00	 1.255080185316283e-01	 1.115550220367503e+01
 1.809293241154060e+00	 1.674450364517926e-01	 1.114385339242509e+01
 1.806399628184248e+00	 2.093931304620157e-01	 1.113035671192067e+01
 1.802807374927804e+00	 2.513274774790874e-01	 1.111513196135792e+01
 1.798497051672427e+00	 2.932225220842489e-01	 1.109829755432655e+01
 1.793449750989868e+00	 3.350520140203967e-01	 1.107996943230812e+01
 1.787647155219565e+00	 3.767890500298854e-01	 1.106025990172748e+01
 1.781071604596829e+00	 4.184061200298669e-01	 1.103927640244009e+01
 1.828569570758740e+00	 0.000000000000000e+00	 1.117906932541348e+01
 1.828265702452721e+00	 4.209147247293873e-02	 1.117430588679935e+01
 1.827339967301935e+00	 8.426442217280079e-02	 1.116716180921069e+01
 1.825771333565118e+00	 1.264962284470254e-01	 1.115779386483069e+01
 1.823539036325449e+00	 1.687634450071806e-01	 1.114636045750944e+01
 1.820622639974282e+00	 2.110418248672499e-01	 1.113302047577037e+01
 1.817002102466761e+00	 2.533063494949500e-01	 1.111793202495831e+01
 1.812657841107275e+00	 2.955312622562716e-01	 1.110125104199641e+01
 1.807570799596554e+00	 3.376901062079237e-01	 1.108312979852919e+01
 1.801722516046665e+00	 3.797557662645540e-01	 1.106371530074188e+01
 1.795095191645604e+00	 4.217005157376583e-01	 1.104314759682928e+01
 1.842854678649152e+00	 0.000000000000000e+00	 1.118150688218123e+01
 1.842548436470314e+00	 4.242029847625331e-02	 1.117746892969718e+01
 1.841615469313211e+00	 8.492271069429662e-02	 1.117084493387107e+01
 1.840034581132922e+00	 1.274844392849876e-01	 1.116183256851527e+01
 1.837784844793450e+00	 1.700818547932978e-01	 1.115063142077447e+01
 1.834845665039586e+00	 2.126905208114208e-01	 1.113744149987155e+01
 1.831196843254505e+00	 2.552852233578261e-01	 1.112246159052343e+01
 1.826818643759138e+00	 2.978400045830740e-01	 1.110588745564514e+01
 1.821691861383066e+00	 3.403282008575017e-01	 1.108790989595452e+01
 1.815797890010847e+00	 3.827224852678610e-01	 1.106871267734429e+01
 1.809118791783039e+00	 4.249949145197988e-01	 1.104847034036331e+01
 1.857139801539814e+00	 0.000000000000000e+00	 1.118537387816574e+01
 1.856831185485652e+00	 4.274912482501749e-02	 1.118216997274234e+01
 1.855890986314602e+00	 8.558099990728060e-02	 1.117614343098285e+01
 1.854297843677920e+00	 1.284726511608895e-01	 1.116753516025922e+01
 1.852030668220261e+00	 1.714002659640365e-01	 1.115658827654240e+01
 1.849068705039691e+00	 2.143392184869368e-01	 1.114354624323774e+01
 1.845391598947249e+00	 2.572640992986178e-01	 1.112865081774812e+01
 1.840979461280257e+00	 3.001487493340095e-01	 1.111213981163998e+01
 1.835812937996986e+00	 3.429662982768709e-01	 1.109424467401823e+01
 1.829873278754343e+00	 3.856892073858478e-01	 1.107518791176933e+01
 1.823142406645302e+00	 4.282893167605222e-01	 1.105518036465668e+01
 1.682906724299760e+00	 3.953454038814352e-01	 1.105866974301337e+01
 1.675947749803660e+00	 4.345261195934738e-01	 1.102940242783717e+01
 1.668227280467807e+00	 4.735400391875617e-01	 1.099691240037582e+01
 1.659730884666089e+00	 5.123598044659057e-01	 1.096128699742525e+01
 1.650445008658129e+00	 5.509577006915951e-01	 1.092257308941714e+01
 1.640357038728711e+00	 5.893057194590274e-01	 1.088077290211215e+01
 1.629455361754438e+00	 6.273756249509855e-01	 1.083584004018380e+01
 1.617729423793474e+00	 6.651390233461127e-01	 1.078767578996348e+01
 1.605169786290770e+00	 7.025674351061066e-01	 1.073612578096280e+01
 1.591768179491655e+00	 7.396323698384317e-01	 1.068097708657153e+01
 1.577517552661069e+00	 7.763054033982315e-01	 1.062195584334433e+01
 1.696930265540624e+00	 3.986397888273382e-01	 1.105039843600843e+01
 1.689913302408431e+00	 4.381469946384857e-01	 1.102225821749582e+01
 1.682128498954506e+00	 4.774860144314484e-01	 1.099087387987479e+01
 1.673561303295025e+00	 5.166292620345447e-01	 1.095633206221389e+01
 1.664198048747260e+00	 5.555487917659617e-01	 1.091867847212669e+01
 1.654026016486803e+00	 5.942163618280745e-01	 1.087791367833145e+01
 1.643033496618929e+00	 6.326035011166402e-01	 1.083398910769287e+01
 1.631209847256555e+00	 6.706815792066391e-01	 1.078680332469823e+01
 1.618545551193824e+00	 7.084218792418324e-01	 1.073619867367874e+01
 1.605032269764788e+00	 7.457956734213033e-01	 1.068195836486550e+01
 1.590662893481110e+00	 7.827743007438482e-01	 1.062380408436648e+01
 1.710953808416969e+00	 4.019341741579514e-01	 1.104409053038218e+01
 1.703878856642000e+00	 4.417678701064068e-01	 1.101698878386429e+01
 1.696029719062592e+00	 4.814319901362581e-01	 1.098662449364826e+01
 1.687391723537195e+00	 5.208987201019111e-01	 1.095308246416734e+01
 1.677951090440714e+00	 5.601398833766248e-01	 1.091640614209208e+01
 1.667694995839533e+00	 5.991270047707271e-01	 1.087659339277763e+01
 1.656611633067583e+00	 6.378313778929233e-01	 1.083359248415393e+01
 1.644690272292521e+00	 6.762241357145047e-01	 1.078729835653045e+01
 1.631921317657670e+00	 7.142763240612714e-01	 1.073754925913842e+01
 1.618296361585791e+00	 7.519589777238973e-01	 1.068412383499300e+01
 1.603808235835264e+00	 7.892431988448088e-01	 1.062673873462189e+01
 1.724977354564966e+00	 4.052285602575090e-01	 1.103966561921014e+01
 1.717844414133743e+00	 4.453887464195300e-01	 1.101351295930118e+01
 1.709930942413911e+00	 4.853779667621866e-01	 1.098408259697045e+01
 1.701222147006159e+00	 5.251681791659193e-01	 1.095145639578292e+01
 1.691704135342993e+00	 5.647309760590074e-01	 1.091567447345918e+01
 1.681363978381567e+00	 6.040376488596787e-01	 1.087673097499791e+01
 1.670189772684441e+00	 6.430592558895325e-01	 1.083457005656167e+01
 1.658170700473988e+00	 6.817666935161188e-01	 1.078908215895677e+01
 1.645297087242689e+00	 7.201307702472223e-01	 1.074010065186322e+01
 1.631560456501998e+00	 7.581222834650542e-01	 1.068739893069442e+01
 1.616953581256991e+00	 7.957120984556170e-01	 1.063068804688354e+01
 1.739000905620783e+00	 4.085229475102455e-01	 1.103704588888054e+01
 1.731809976513040e+00	 4.490096240001489e-01	 1.101175219395015e+01
 1.723832170630307e+00	 4.893239447694294e-01	 1.098316917822424e+01
 1.715052575315472e+00	 5.294376397244838e-01	 1.095137468785284e+01
 1.705457185058600e+00	 5.693220703485321e-01	 1.091640447274708e+01
 1.695032965707572e+00	 6.089482946676218e-01	 1.087824796893790e+01
 1.683767917053543e+00	 6.482871357161656e-01	 1.083684429536921e+01
 1.671651133373571e+00	 6.873092532578903e-01	 1.079207854415687e+01
 1.658672861509265e+00	 7.259852184824843e-01	 1.074377844562591e+01
 1.644824556060741e+00	 7.642855913636147e-01	 1.069171149011047e+01
 1.630098931279753e+00	 8.021810003307787e-01	 1.063558258735755e+01
 1.753024463220587e+00	 4.118173363003946e-01	 1.103615601536138e+01
 1.745775545409268e+00	 4.526305032705572e-01	 1.101163045102912e+01
 1.737733405333627e+00	 4.932699246181824e-01	 1.098380775357826e+01
 1.728883010078692e+00	 5.337071022755192e-01	 1.095276070393465e+01
 1.719210241192034e+00	 5.739131667806220e-01	 1.091851967355601e+01
 1.708701959412214e+00	 6.138589427672492e-01	 1.088106842836914e+01
 1.697346067758932e+00	 6.535150179825200e-01	 1.084034015115410e+01
 1.685131572563887e+00	 6.928518155862283e-01	 1.079621376145123e+01
 1.672048642017779e+00	 7.318396694498565e-01	 1.074851061428634e+01
 1.658088661809354e+00	 7.704489021384190e-01	 1.069699165961280e+01
 1.643244287437012e+00	 8.086499052247982e-01	 1.064135514315329e+01
 1.767048029000547e+00	 4.151117270121904e-01	 1.103692306540815e+01
 1.759741122451803e+00	 4.562513846530477e-01	 1.101307410710658e+01
 1.751634648145715e+00	 4.972159067686412e-01	 1.098592426668029e+01
 1.742713452909377e+00	 5.379765673169402e-01	 1.095554023984780e+01
 1.732963305347800e+00	 5.785042658906993e-01	 1.092194603629030e+01
 1.722370961090161e+00	 6.187695937312541e-01	 1.088511881729755e+01
 1.710924226384649e+00	 6.587429032982933e-01	 1.084498495620594e+01
 1.698612019617552e+00	 6.983943811475415e-01	 1.080141640059522e+01
 1.685424430328613e+00	 7.376941238321379e-01	 1.075422741735036e+01
 1.671352775295170e+00	 7.766122165083076e-01	 1.070317180221513e+01
 1.656389651262230e+00	 8.151188138921801e-01	 1.064794063416079e+01
 1.781071604596829e+00	 4.184061200298669e-01	 1.103927640244009e+01
 1.773706709270024e+00	 4.598722685699136e-01	 1.101601185709045e+01
 1.765535900688415e+00	 5.011618916810018e-01	 1.098944699309072e+01
 1.756543905421082e+00	 5.422460353466612e-01	 1.095964142791958e+01
 1.746716379130398e+00	 5.830953682141868e-01	 1.092661185261982e+01
 1.736039972336078e+00	 6.236802481323294e-01	 1.089032791507786e+01
 1.724502394514734e+00	 6.639707922731830e-01	 1.085070833076458e+01
 1.712092476107182e+00	 7.039369505882386e-01	 1.080761729964295e+01
 1.698800228002152e+00	 7.435485823121282e-01	 1.076086130999146e+01
 1.684616898065521e+00	 7.827755351921205e-01	 1.071018641031229e+01
 1.669535024288868e+00	 8.215877270874299e-01	 1.065527602909222e+01
 1.795095191645604e+00	 4.217005157376583e-01	 1.104314759682928e+01
 1.787672307493307e+00	 4.634931554434489e-01	 1.102037462367146e+01
 1.779437164583574e+00	 5.051078798154593e-01	 1.099430644919659e+01
 1.770374369227367e+00	 5.465155068625966e-01	 1.096499464572040e+01
 1.760469464144329e+00	 5.876864742865074e-01	 1.093244765442081e+01
 1.749708994744631e+00	 6.285909065431676e-01	 1.089662672597690e+01
 1.738080573733230e+00	 6.691986855168867e-01	 1.085744209365411e+01
 1.725572943605393e+00	 7.094795245547292e-01	 1.081474945713097e+01
 1.712176036598775e+00	 7.494030455726258e-01	 1.076834685729101e+01
 1.697881031667741e+00	 7.889388589086984e-01	 1.071797202251059e+01
 1.682680408050388e+00	 8.280566455650521e-01	 1.066330026545986e+01
 1.809118791783039e+00	 4.249949145197988e-01	 1.104847034036331e+01
 1.801637918751031e+00	 4.671140456959464e-01	 1.102609547097945e+01
 1.793338441453034e+00	 5.090538716322103e-01	 1.100043530536307e+01
 1.784204845941787e+00	 5.507849823626610e-01	 1.097153242904487e+01
 1.774222561994096e+00	 5.922775846430840e-01	 1.093938612695290e+01
 1.763378029910488e+00	 6.335015695364624e-01	 1.090394839294401e+01
 1.751658765624176e+00	 6.744265836391019e-01	 1.086512017707462e+01
 1.739053423684801e+00	 7.150221036934215e-01	 1.082274794834734e+01
 1.725551857678869e+00	 7.552575142964307e-01	 1.077662065246828e+01
 1.711145177649163e+00	 7.951021883768816e-01	 1.072646714432731e+01
 1.695825804080252e+00	 8.345255700795510e-01	 1.067195417327676e+01
 1.823142406645302e+00	 4.282893167605222e-01	 1.105518036465668e+01
 1.815603544672573e+00	 4.707349397496997e-01	 1.103310952222549e+01
 1.807239732918643e+00	 5.129998675914498e-01	 1.100776830309431e+01
 1.798035337177901e+00	 5.550544623447690e-01	 1.097918938891009e+01
 1.787975674284199e+00	 5.968686998193390e-01	 1.094736202604416e+01
 1.777047079428317e+00	 6.384122376849063e-01	 1.091222811536228e+01
 1.765236971771615e+00	 6.796544872495263e-01	 1.087367854532722e+01
 1.752533917918022e+00	 7.205646886507250e-01	 1.083154984546600e+01
 1.738927692802811e+00	 7.611119891663414e-01	 1.078562123888517e+01
 1.724409337557121e+00	 8.012655243155106e-01	 1.073561217255103e+01
 1.708971213911921e+00	 8.409945013854322e-01	 1.068118040227973e+01
 1.577517552661069e+00	 7.763054033982315e-01	 1.062195584334433e+01
 1.562411034908616e+00	 8.125607776635853e-01	 1.055737182943066e+01
 1.546445124723613e+00	 8.483678438587413e-01	 1.048566223993411e+01
 1.529616701598890e+00	 8.836988399894217e-01	 1.040667359701779e+01
 1.511924025818336e+00	 9.185263933820198e-01	 1.032023794728384e+01
 1.493366767095691e+00	 9.528236030216212e-01	 1.022617343637096e+01
 1.473946027928508e+00	 9.865641215718935e-01	 1.012428513954725e+01
 1.453664361413024e+00	 1.019722236591529e+00	 1.001436615226952e+01
 1.432525783302651e+00	 1.052272950456313e+00	 9.896198939546903e+00
 1.410535778132862e+00	 1.084192058495051e+00	 9.769556937504102e+00
 1.387701299278052e+00	 1.115456224851666e+00	 9.634206394932555e+00
 1.590662893481110e+00	 7.827743007438482e-01	 1.062380408436648e+01
 1.575430494197757e+00	 8.193317884469776e-01	 1.056010817789985e+01
 1.559331541226210e+00	 8.554372323608842e-01	 1.048936284934686e+01
 1.542362888056345e+00	 8.910626391525762e-01	 1.041139936271409e+01
 1.524522780475129e+00	 9.261804080539138e-01	 1.032603571779995e+01
 1.505810885444059e+00	 9.607634138857474e-01	 1.023307740514804e+01
 1.486228314647727e+00	 9.947850897612733e-01	 1.013231840613845e+01
 1.465777642457148e+00	 1.028219508979247e+00	 1.002354243911496e+01
 1.444462918088727e+00	 1.061041465612036e+00	 9.906524447430067e+00
 1.422289671780186e+00	 1.093226553292651e+00	 9.781032320041444e+00
 1.399264914847900e+00	 1.124751241708993e+00	 9.646828829956505e+00
 1.603808235835264e+00	 7.892431988448088e-01	 1.062673873462189e+01
 1.588449955006404e+00	 8.261028000209216e-01	 1.056383186017604e+01
 1.572217959232855e+00	 8.625066216883476e-01	 1.049395398025669e+01
 1.555109076001540e+00	 8.984264391753550e-01	 1.041692145267351e+01
 1.537121536602497e+00	 9.338344236192464e-01	 1.033253859507884e+01
 1.518255005244984e+00	 9.687032256766132e-01	 1.024059861800198e+01
 1.498510602800634e+00	 1.003006058910155e+00	 1.014088479190961e+01
 1.477890924915242e+00	 1.036716782358670e+00	 1.003317184613894e+01
 1.456400054268210e+00	 1.069809981791085e+00	 9.917227592656499e+00
 1.434043566799518e+00	 1.102261049144593e+00	 9.792814762546794e+00
 1.410828531767526e+00	 1.134046259651052e+00	 9.659693038073847e+00
 1.616953581256991e+00	 7.957120984556170e-01	 1.063068804688354e+01
 1.601469418853318e+00	 8.328738131751846e-01	 1.056847419030948e+01
 1.585104380246781e+00	 8.695760126657284e-01	 1.049936997528869e+01
 1.567855266921338e+00	 9.057902409167240e-01	 1.042317719999554e+01
 1.549720295670102e+00	 9.414884409708640e-01	 1.033968685936051e+01
 1.530699127950089e+00	 9.766430393204287e-01	 1.024868025396088e+01
 1.510792893819975e+00	 1.011227029977573e+00	 1.014993032157157e+01
 1.490004210200340e+00	 1.045214057721086e+00	 1.004320318619163e+01
 1.468337193233596e+00	 1.078578500016408e+00	 9.928259914596682e+00
 1.445797464561987e+00	 1.111295547104869e+00	 9.804858465624548e+00
 1.422392151385875e+00	 1.143341279762238e+00	 9.672755812619251e+00
 1.630098931279753e+00	 8.021810003307787e-01	 1.063558258735755e+01
 1.614488887257262e+00	 8.396448286995342e-01	 1.057396869700842e+01
 1.597990805771218e+00	 8.766454061176232e-01	 1.050554729401170e+01
 1.580601462302604e+00	 9.131540452356487e-01	 1.043010595824432e+01
 1.562319059147608e+00	 9.491424610016120e-01	 1.034742271627436e+01
 1.543143255010995e+00	 9.845828557434052e-01	 1.025726732393287e+01
 1.523075189138495e+00	 1.019448003922562e+00	 1.015940275992490e+01
 1.502117499725479e+00	 1.053711336057785e+00	 1.005358692228448e+01
 1.480274336377378e+00	 1.087347021310958e+00	 9.939574514847260e+00
 1.457551366438721e+00	 1.120330048227474e+00	 9.817119106281247e+00
 1.433955775051891e+00	 1.152636303126949e+00	 9.685975339720033e+00
 1.643244287437012e+00	 8.086499052247982e-01	 1.064135514315329e+01
 1.627508361736999e+00	 8.464158473837371e-01	 1.058025103506122e+01
 1.610877237309396e+00	 8.837148028686295e-01	 1.051242442827007e+01
 1.593347663632206e+00	 9.205178529910945e-01	 1.043764902064059e+01
 1.574917828504675e+00	 9.567964846043375e-01	 1.035569021983543e+01
 1.555587387879325e+00	 9.925226758717542e-01	 1.026630659744394e+01
 1.535357490188940e+00	 1.027668981704154e+00	 1.016925154227042e+01
 1.514230794903695e+00	 1.062208618360056e+00	 1.006427510159926e+01
 1.492211485092054e+00	 1.096115546697684e+00	 9.951125994758650e+00
 1.469305273800852e+00	 1.129364553566402e+00	 9.829553778887441e+00
 1.445519404114519e+00	 1.161931330829578e+00	 9.699311142603715e+00
 1.656389651262230e+00	 8.151188138921801e-01	 1.064794063416079e+01
 1.640527843811289e+00	 8.531868700175608e-01	 1.058725890097753e+01
 1.623763676364548e+00	 8.907842037433427e-01	 1.051994182154819e+01
 1.606093872397005e+00	 9.278816650420267e-01	 1.044574954310265e+01
 1.587516605210965e+00	 9.644505126718853e-01	 1.036443519910821e+01
 1.568031528006701e+00	 1.000462500631687e+00	 1.027574653286502e+01
 1.547639798404058e+00	 1.035889964281385e+00	 1.017942770813433e+01
 1.526344097148023e+00	 1.070705905619187e+00	 1.007522129264011e+01
 1.504148640770117e+00	 1.104884077199536e+00	 9.962870395938204e+00
 1.481059188019506e+00	 1.138399064175646e+00	 9.842120938951485e+00
 1.457083039922703e+00	 1.171226363954524e+00	 9.712724028558100e+00
 1.669535024288868e+00	 8.215877270874299e-01	 1.065527602909222e+01
 1.653547334998897e+00	 8.599578973907720e-01	 1.059493195261565e+01
 1.636650124439903e+00	 8.978536095663603e-01	 1.052804179214529e+01
 1.618840090083870e+00	 9.352454822474111e-01	 1.045435247092387e+01
 1.600115390736142e+00	 9.721045460971018e-01	 1.037360518833597e+01
 1.580475676844747e+00	 1.008402330949414e+00	 1.028553721093634e+01
 1.559922115216593e+00	 1.044110952613289e+00	 1.018988383812507e+01
 1.538457407871499e+00	 1.079203198826468e+00	 1.008638052535541e+01
 1.516085804804064e+00	 1.113652613839465e+00	 9.974765143564857e+00
 1.492813110465814e+00	 1.147433581109201e+00	 9.854780349550310e+00
 1.468646683825388e+00	 1.180521403586180e+00	 9.726176038397742e+00
 1.682680408050388e+00	 8.280566455650521e-01	 1.066330026545986e+01
 1.666566836818583e+00	 8.667289302931382e-01	 1.060321173257824e+01
 1.649536583038693e+00	 9.049230211622783e-01	 1.053666845995232e+01
 1.631586318179661e+00	 9.426093054662129e-01	 1.046340446888791e+01
 1.612714186549867e+00	 9.797585857728328e-01	 1.038314936034586e+01
 1.592919835845084e+00	 1.016342167751147e+00	 1.029563027140834e+01
 1.572204442059292e+00	 1.052331947658898e+00	 1.020057399375064e+01
 1.550570728487159e+00	 1.087700498973188e+00	 1.009770923406720e+01
 1.528022978586386e+00	 1.122421157640422e+00	 9.986768992361478e+00
 1.504567042510903e+00	 1.156468105421060e+00	 9.867493030271762e+00
 1.480210337171517e+00	 1.189816450808942e+00	 9.739630398299683e+00
 1.695825804080252e+00	 8.345255700795510e-01	 1.067195417327676e+01
 1.679586350789110e+00	 8.734999695144262e-01	 1.061204159517180e+01
 1.662423053664149e+00	 9.119924393556940e-01	 1.054576767663517e+01
 1.644332558171247e+00	 9.499731355573974e-01	 1.047285385463519e+01
 1.625312994121802e+00	 9.874126325919251e-01	 1.039301846305231e+01
 1.605364006459333e+00	 1.024282011963096e+00	 1.030597885263025e+01
 1.584486780364901e+00	 1.060552950377249e+00	 1.021145366003575e+01
 1.562684060408038e+00	 1.096197807050635e+00	 1.010916520305540e+01
 1.539960163509583e+00	 1.131189709625357e+00	 9.998841975080637e+00
 1.516320985525905e+00	 1.165502638165219e+00	 9.880221208532220e+00
 1.491774001310037e+00	 1.199111506707208e+00	 9.753051473879850e+00
 1.708971213911921e+00	 8.409945013854322e-01	 1.068118040227973e+01
 1.692605878429240e+00	 8.802710158444028e-01	 1.062136663673789e+01
 1.675309537819501e+00	 9.190618649712039e-01	 1.055528695904101e+01
 1.657078811545492e+00	 9.573369733799312e-01	 1.048265053510534e+01
 1.637911814921611e+00	 9.950666874472247e-01	 1.040316475889147e+01
 1.617808190139119e+00	 1.032221864511473e+00	 1.031653753392743e+01
 1.596769131566166e+00	 1.068773961727374e+00	 1.022247969078798e+01
 1.574797405047172e+00	 1.104695124050099e+00	 1.012070751465425e+01
 1.551897360966147e+00	 1.139958270817221e+00	 1.001094535336855e+01
 1.528074940881947e+00	 1.174537180395669e+00	 9.892928273141617e+00
 1.503337677589890e+00	 1.208406572365371e+00	 9.766404726389517e+00
 1.387701299278052e+00	 1.115456224851666e+00	 9.634206394932555e+00
 1.364030759277465e+00	 1.146043058270738e+00	 9.489087377481303e+00
 1.339534006818105e+00	 1.175931189999760e+00	 9.333339484325215e+00
 1.314222318998515e+00	 1.205100331942848e+00	 9.167067645113606e+00
 1.288108380333235e+00	 1.233531336090155e+00	 8.990435116547463e+00
 1.261206252148415e+00	 1.261206252148416e+00	 8.803663274863233e+00
 1.233531336090155e+00	 1.288108380333236e+00	 8.607030772833504e+00
 1.205100331942847e+00	 1.314222318998515e+00	 8.400872068265569e+00
 1.175931189999759e+00	 1.339534006818105e+00	 8.185575342698975e+00
 1.146043058270737e+00	 1.364030759277465e+00	 7.961579840330918e+00
 1.115456224851666e+00	 1.387701299278052e+00	 7.729372667808936e+00
 1.399264914847900e+00	 1.124751241708993e+00	 9.646828829956505e+00
 1.375397129932205e+00	 1.155592953020909e+00	 9.502935035666209e+00
 1.350696247788508e+00	 1.185730140411611e+00	 9.348558988755450e+00
 1.325173639486599e+00	 1.215142346725971e+00	 9.183784152566849e+00
 1.298842095240169e+00	 1.243810264395152e+00	 9.008751400987663e+00
 1.271715793547383e+00	 1.271715793547383e+00	 8.823658974013606e+00
 1.243810264395151e+00	 1.298842095240169e+00	 8.628761807264206e+00
 1.215142346725971e+00	 1.325173639486600e+00	 8.424370239988411e+00
 1.185730140411611e+00	 1.350696247788508e+00	 8.210848117675830e+00
 1.155592953020908e+00	 1.375397129932205e+00	 7.988610316635278e+00
 1.124751241708993e+00	 1.399264914847900e+00	 7.758119728491666e+00
 1.410828531767526e+00	 1.134046259651052e+00	 9.659693038073847e+00
 1.386763501913673e+00	 1.165142848885558e+00	 9.516959893680802e+00
 1.361858490061780e+00	 1.195529091967020e+00	 9.363887720169881e+00
 1.336124961252898e+00	 1.225184362681042e+00	 9.200539639793439e+00
 1.309575811399881e+00	 1.254089193899776e+00	 9.027035328575600e+00
 1.282225336172927e+00	 1.282225336172928e+00	 8.843551125892777e+00
 1.254089193899775e+00	 1.309575811399881e+00	 8.650319526744005e+00
 1.225184362681042e+00	 1.336124961252899e+00	 8.447628058946448e+00
 1.195529091967019e+00	 1.361858490061780e+00	 8.235817558937262e+00
 1.165142848885558e+00	 1.386763501913674e+00	 8.015279871034121e+00
 1.134046259651052e+00	 1.410828531767526e+00	 7.786455005581733e+00
 1.422392151385875e+00	 1.143341279762238e+00	 9.672755812619251e+00
 1.398129876547819e+00	 1.174692746978819e+00	 9.531121414289219e+00
 1.373020734940072e+00	 1.205328045809172e+00	 9.379288021834554e+00
 1.347076285574974e+00	 1.235226380979596e+00	 9.217299521468366e+00
 1.320309530064563e+00	 1.264368125803190e+00	 9.045255554821264e+00
 1.292734881251103e+00	 1.292734881251103e+00	 8.863311773617738e+00
 1.264368125803190e+00	 1.320309530064563e+00	 8.671679485098043e+00
 1.235226380979596e+00	 1.347076285574974e+00	 8.470624688254309e+00
 1.205328045809172e+00	 1.373020734940072e+00	 8.260466512276251e+00
 1.174692746978818e+00	 1.398129876547820e+00	 8.041575079706531e+00
 1.143341279762238e+00	 1.422392151385875e+00	 7.814368827368823e+00
 1.433955775051891e+00	 1.152636303126949e+00	 9.685975339720033e+00
 1.409496255160591e+00	 1.184242648414825e+00	 9.545380366968905e+00
 1.384182983725537e+00	 1.215127003081255e+00	 9.394723450844328e+00
 1.358027613730387e+00	 1.245268402793169e+00	 9.234030327055752e+00
 1.331043252486407e+00	 1.274647061304560e+00	 9.063381745521038e+00
 1.303244430007965e+00	 1.303244430007966e+00	 8.882913861356258e+00
 1.274647061304560e+00	 1.331043252486408e+00	 8.692818023996574e+00
 1.245268402793168e+00	 1.358027613730388e+00	 8.493339962486022e+00
 1.215127003081255e+00	 1.384182983725537e+00	 8.284778376191529e+00
 1.184242648414824e+00	 1.409496255160592e+00	 8.067482951243056e+00
 1.152636303126949e+00	 1.433955775051891e+00	 7.841851833556731e+00
 1.445519404114519e+00	 1.161931330829578e+00	 9.699311142603715e+00
 1.420862639077938e+00	 1.193792554307709e+00	 9.559698775662545e+00
 1.395345237720325e+00	 1.224925964926454e+00	 9.410158729591483e+00
 1.368978946996702e+00	 1.255310429293297e+00	 9.250699656240243e+00
 1.341776979917606e+00	 1.284926001603051e+00	 9.081384536370578e+00
 1.313753983669569e+00	 1.313753983669570e+00	 8.902331198310362e+00
 1.284926001603050e+00	 1.341776979917607e+00	 8.713712241467711e+00
 1.255310429293297e+00	 1.368978946996703e+00	 8.515754360844259e+00
 1.224925964926455e+00	 1.395345237720325e+00	 8.308737079807781e+00
 1.193792554307708e+00	 1.420862639077939e+00	 8.092990909378502e+00
 1.161931330829579e+00	 1.445519404114519e+00	 7.868894962836557e+00
 1.457083039922703e+00	 1.171226363954524e+00	 9.712724028558100e+00
 1.432229029625809e+00	 1.203342465771605e+00	 9.574039869018586e+00
 1.406507498226588e+00	 1.234724932487957e+00	 9.425559699545893e+00
 1.379930286651479e+00	 1.265352461651516e+00	 9.267276136481396e+00
 1.352510713610353e+00	 1.295204947897826e+00	 9.099235494501213e+00
 1.324263543461969e+00	 1.324263543461970e+00	 8.921538424415221e+00
 1.295204947897825e+00	 1.352510713610354e+00	 8.734339961909933e+00
 1.265352461651516e+00	 1.379930286651479e+00	 8.537848981607583e+00
 1.234724932487956e+00	 1.406507498226588e+00	 8.332327061847513e+00
 1.203342465771604e+00	 1.432229029625810e+00	 8.118086776547003e+00
 1.171226363954523e+00	 1.457083039922703e+00	 7.895489441051581e+00
 1.468646683825388e+00	 1.180521403586180e+00	 9.726176038397742e+00
 1.443595428130154e+00	 1.212892383920647e+00	 9.588368032983036e+00
 1.417669766546477e+00	 1.244523906908949e+00	 9.440893277219203e+00
 1.390881633972279e+00	 1.275394501039364e+00	 9.283729382573561e+00
 1.363244454816839e+00	 1.305483901388050e+00	 9.116907081834059e+00
 1.334773110611222e+00	 1.334773110611222e+00	 8.940510977659006e+00
 1.305483901388049e+00	 1.363244454816840e+00	 8.754679707521740e+00
 1.275394501039363e+00	 1.390881633972279e+00	 8.559605517784984e+00
 1.244523906908948e+00	 1.417669766546476e+00	 8.355533250596661e+00
 1.212892383920646e+00	 1.443595428130154e+00	 8.142758758214267e+00
 1.180521403586179e+00	 1.468646683825388e+00	 7.921626769921533e+00
 1.480210337171517e+00	 1.189816450808942e+00	 9.739630398299683e+00
 1.454961835916920e+00	 1.222442309868967e+00	 9.602648765614063e+00
 1.428832043982143e+00	 1.254322889332617e+00	 9.456127412193720e+00
 1.401832990236666e+00	 1.285436548628375e+00	 9.300029958101998e+00
 1.373978204789257e+00	 1.315762863272888e+00	 9.134372620152142e+00
 1.345282686343380e+00	 1.345282686343381e+00	 8.959225062934809e+00
 1.315762863272887e+00	 1.373978204789257e+00	 8.774710671070686e+00
 1.285436548628374e+00	 1.401832990236666e+00	 8.581006233912063e+00
 1.254322889332617e+00	 1.428832043982143e+00	 8.378341044809440e+00
 1.222442309868966e+00	 1.454961835916921e+00	 8.166995427944375e+00
 1.189816450808942e+00	 1.480210337171518e+00	 7.947298716295489e+00
 1.491774001310037e+00	 1.199111506707208e+00	 9.753051473879850e+00
 1.466328254312057e+00	 1.231992244730699e+00	 9.616848633998675e+00
 1.439994331835738e+00	 1.264121880902148e+00	 9.471231047103773e+00
 1.412784356722201e+00	 1.295478605590086e+00	 9.316149338692028e+00
 1.384711964779798e+00	 1.326041834751505e+00	 9.151606257797502e+00
 1.355792271884501e+00	 1.355792271884501e+00	 8.977657622341797e+00
 1.326041834751504e+00	 1.384711964779799e+00	 8.794412689929299e+00
 1.295478605590085e+00	 1.412784356722201e+00	 8.602033943926568e+00
 1.264121880902147e+00	 1.439994331835739e+00	 8.400736295501531e+00
 1.231992244730698e+00	 1.466328254312057e+00	 8.190785713161326e+00
 1.199111506707207e+00	 1.491774001310037e+00	 7.972497301904701e+00
 1.503337677589890e+00	 1.208406572365371e+00	 9.766404726389517e+00
 1.477694684641512e+00	 1.241542189619976e+00	 9.630935233158283e+00
 1.451156631409414e+00	 1.273920882760728e+00	 9.486174079464577e+00
 1.423735734706447e+00	 1.305520673096032e+00	 9.332059876954709e+00
 1.395445736040656e+00	 1.336320817023064e+00	 9.168582937905652e+00
 1.366301868460640e+00	 1.366301868460640e+00	 8.995786306857203e+00
 1.336320817023063e+00	 1.395445736040656e+00	 8.813766221309631e+00
 1.305520673096032e+00	 1.423735734706447e+00	 8.622671990065312e+00
 1.273920882760727e+00	 1.451156631409415e+00	 8.422705288583860e+00
 1.241542189619975e+00	 1.477694684641513e+00	 8.214118881567837e+00
 1.208406572365371e+00	 1.503337677589890e+00	 7.997214793588528e+00
 1.115456224851666e+00	 1.387701299278052e+00	 7.729372667808936e+00
 1.084192058495050e+00	 1.410535778132863e+00	 7.488434536141998e+00
 1.052272950456312e+00	 1.432525783302652e+00	 7.238639506853828e+00
 1.019722236591529e+00	 1.453664361413024e+00	 6.981163707767228e+00
 9.865641215718933e-01	 1.473946027928509e+00	 6.717261589760662e+00
 9.528236030216204e-01	 1.493366767095692e+00	 6.448254529704320e+00
 9.185263933820192e-01	 1.511924025818336e+00	 6.175518964755766e+00
 8.836988399894211e-01	 1.529616701598891e+00	 5.900474243754125e+00
 8.483678438587410e-01	 1.546445124723613e+00	 5.624570379210551e+00
 8.125607776635847e-01	 1.562411034908617e+00	 5.349275877144516e+00
 7.763054033982313e-01	 1.577517552661069e+00	 5.076065812155814e+00
 1.124751241708993e+00	 1.399264914847900e+00	 7.758119728491666e+00
 1.093226553292651e+00	 1.422289671780187e+00	 7.518920460177206e+00
 1.061041465612035e+00	 1.444462918088727e+00	 7.270944021631209e+00
 1.028219508979247e+00	 1.465777642457148e+00	 7.015331904103048e+00
 9.947850897612730e-01	 1.486228314647728e+00	 6.753301877032312e+00
 9.607634138857468e-01	 1.505810885444059e+00	 6.486136922554973e+00
 9.261804080539133e-01	 1.524522780475130e+00	 6.215173713697434e+00
 8.910626391525756e-01	 1.542362888056346e+00	 5.941790816651670e+00
 8.554372323608835e-01	 1.559331541226210e+00	 5.667396795360320e+00
 8.193317884469768e-01	 1.575430494197757e+00	 5.393418390582749e+00
 7.827743007438484e-01	 1.590662893481111e+00	 5.121288936049170e+00
 1.134046259651052e+00	 1.410828531767526e+00	 7.786455005581733e+00
 1.102261049144592e+00	 1.434043566799519e+00	 7.548946729664235e+00
 1.069809981791084e+00	 1.456400054268210e+00	 7.302740136957373e+00
 1.036716782358669e+00	 1.477890924915242e+00	 7.048943181643040e+00
 1.003006058910155e+00	 1.498510602800635e+00	 6.788738001865871e+00
 9.687032256766124e-01	 1.518255005244984e+00	 6.523370179212227e+00
 9.338344236192458e-01	 1.537121536602498e+00	 6.254137555077421e+00
 8.984264391753546e-01	 1.555109076001540e+00	 5.982378779015728e+00
 8.625066216883469e-01	 1.572217959232856e+00	 5.709461762060293e+00
 8.261028000209207e-01	 1.588449955006404e+00	 5.436772202115552e+00
 7.892431988448086e-01	 1.603808235835264e+00	 5.165702339237235e+00
 1.143341279762238e+00	 1.422392151385875e+00	 7.814368827368823e+00
 1.111295547104868e+00	 1.445797464561987e+00	 7.578507416303381e+00
 1.078578500016408e+00	 1.468337193233596e+00	 7.334025632359675e+00
 1.045214057721085e+00	 1.490004210200339e+00	 7.081998971582280e+00
 1.011227029977573e+00	 1.510792893819975e+00	 6.823574970781077e+00
 9.766430393204278e-01	 1.530699127950088e+00	 6.559962785519982e+00
 9.414884409708635e-01	 1.549720295670103e+00	 6.292422339057721e+00
 9.057902409167238e-01	 1.567855266921338e+00	 6.022253212081464e+00
 8.695760126657278e-01	 1.585104380246782e+00	 5.750783441005428e+00
 8.328738131751842e-01	 1.601469418853318e+00	 5.479358386876791e+00
 7.957120984556170e-01	 1.616953581256991e+00	 5.209329827903845e+00
 1.152636303126949e+00	 1.433955775051891e+00	 7.841851833556731e+00
 1.120330048227473e+00	 1.457551366438722e+00	 7.607596782489029e+00
 1.087347021310957e+00	 1.480274336377378e+00	 7.364798358482906e+00
 1.053711336057784e+00	 1.502117499725479e+00	 7.114500658463450e+00
 1.019448003922562e+00	 1.523075189138495e+00	 6.857817628332954e+00
 9.845828557434048e-01	 1.543143255010995e+00	 6.595922953136399e+00
 9.491424610016117e-01	 1.562319059147609e+00	 6.330039533097687e+00
 9.131540452356479e-01	 1.580601462302605e+00	 6.061428710156847e+00
 8.766454061176228e-01	 1.597990805771218e+00	 5.791379407591299e+00
 8.396448286995335e-01	 1.614488887257262e+00	 5.521197339710826e+00
 8.021810003307788e-01	 1.630098931279753e+00	 5.252194439830841e+00
 1.161931330829579e+00	 1.445519404114519e+00	 7.868894962836557e+00
 1.129364553566401e+00	 1.469305273800852e+00	 7.636209273711744e+00
 1.096115546697683e+00	 1.492211485092054e+00	 7.395056234274682e+00
 1.062208618360055e+00	 1.514230794903695e+00	 7.146449582073096e+00
 1.027668981704154e+00	 1.535357490188941e+00	 6.891470663620330e+00
 9.925226758717538e-01	 1.555587387879325e+00	 6.631258630530836e+00
 9.567964846043366e-01	 1.574917828504675e+00	 6.367000237290939e+00
 9.205178529910941e-01	 1.593347663632206e+00	 6.099919400127613e+00
 8.837148028686287e-01	 1.610877237309397e+00	 5.831266674393117e+00
 8.464158473837365e-01	 1.627508361736999e+00	 5.562308802409754e+00
 8.086499052247982e-01	 1.643244287437012e+00	 5.294318475158180e+00
 1.171226363954523e+00	 1.457083039922703e+00	 7.895489441051581e+00
 1.138399064175645e+00	 1.481059188019506e+00	 7.664339511322416e+00
 1.104884077199535e+00	 1.504148640770118e+00	 7.424797244304975e+00
 1.070705905619187e+00	 1.526344097148023e+00	 7.177847039247460e+00
 1.035889964281384e+00	 1.547639798404058e+00	 6.924538616484305e+00
 1.000462500631686e+00	 1.568031528006702e+00	 6.665977513456951e+00
 9.644505126718846e-01	 1.587516605210966e+00	 6.403315198971919e+00
 9.278816650420263e-01	 1.606093872397006e+00	 6.137738960033481e+00
 8.907842037433419e-01	 1.623763676364548e+00	 5.870461713526407e+00
 8.531868700175602e-01	 1.640527843811290e+00	 5.602711889653287e+00
 8.151188138921801e-01	 1.656389651262230e+00	 5.335723525679095e+00
 1.180521403586179e+00	 1.468646683825388e+00	 7.921626769921533e+00
 1.147433581109200e+00	 1.492813110465814e+00	 7.691982285638200e+00
 1.113652613839465e+00	 1.516085804804064e+00	 7.454019436212224e+00
 1.079203198826468e+00	 1.538457407871499e+00	 7.208694285592992e+00
 1.044110952613288e+00	 1.559922115216593e+00	 6.957025883413851e+00
 1.008402330949413e+00	 1.580475676844747e+00	 6.700087054930929e+00
 9.721045460971011e-01	 1.600115390736142e+00	 6.438994826632097e+00
 9.352454822474106e-01	 1.618840090083870e+00	 6.174900636766427e+00
 8.978536095663595e-01	 1.636650124439903e+00	 5.908980477950856e+00
 8.599578973907713e-01	 1.653547334998898e+00	 5.642425113722940e+00
 8.215877270874299e-01	 1.669535024288868e+00	 5.376430502750797e+00
 1.189816450808942e+00	 1.480210337171518e+00	 7.947298716295489e+00
 1.156468105421060e+00	 1.504567042510904e+00	 7.719132549371814e+00
 1.122421157640422e+00	 1.528022978586387e+00	 7.482720918269145e+00
 1.087700498973187e+00	 1.550570728487159e+00	 7.238992537126263e+00
 1.052331947658898e+00	 1.572204442059292e+00	 6.988936723174438e+00
 1.016342167751146e+00	 1.592919835845083e+00	 6.733594474741901e+00
 9.797585857728321e-01	 1.612714186549867e+00	 6.474049203183688e+00
 9.426093054662122e-01	 1.631586318179662e+00	 6.211417262939062e+00
 9.049230211622777e-01	 1.649536583038693e+00	 5.946838421775521e+00
 8.667289302931375e-01	 1.666566836818584e+00	 5.681466408057407e+00
 8.280566455650521e-01	 1.682680408050388e+00	 5.416459663896648e+00
 1.199111506707207e+00	 1.491774001310037e+00	 7.972497301904701e+00
 1.165502638165218e+00	 1.516320985525906e+00	 7.745785411366391e+00
 1.131189709625356e+00	 1.539960163509583e+00	 7.510899857061938e+00
 1.096197807050634e+00	 1.562684060408039e+00	 7.268742971837536e+00
 1.060552950377248e+00	 1.584486780364901e+00	 7.020275262174883e+00
 1.024282011963095e+00	 1.605364006459333e+00	 6.766506768519855e+00
 9.874126325919247e-01	 1.625312994121803e+00	 6.508488098606531e+00
 9.499731355573968e-01	 1.644332558171248e+00	 6.247301272968542e+00
 9.119924393556934e-01	 1.662423053664148e+00	 5.984050519619338e+00
 8.734999695144252e-01	 1.679586350789110e+00	 5.719853149712133e+00
 8.345255700795510e-01	 1.695825804080252e+00	 5.455830638170748e+00
 1.208406572365371e+00	 1.503337677589890e+00	 7.997214793588528e+00
 1.174537180395669e+00	 1.528074940881948e+00	 7.771936130619631e+00
 1.139958270817220e+00	 1.551897360966147e+00	 7.538554475276470e+00
 1.104695124050098e+00	 1.574797405047172e+00	 7.297946731182117e+00
 1.068773961727374e+00	 1.596769131566166e+00	 7.051045499586447e+00
 1.032221864511472e+00	 1.617808190139118e+00	 6.798830716385013e+00
 9.950666874472238e-01	 1.637911814921611e+00	 6.542320982010821e+00
 9.573369733799303e-01	 1.657078811545492e+00	 6.282564718417651e+00
 9.190618649712032e-01	 1.675309537819501e+00	 6.020631285077910e+00
 8.802710158444024e-01	 1.692605878429240e+00	 5.757602180782114e+00
 8.409945013854322e-01	 1.708971213911920e+00	 5.494562450351632e+00
 7.763054033982313e-01	 1.577517552661069e+00	 5.076065812155814e+00
 7.396323698384324e-01	 1.591768179491655e+00	 4.804688622472331e+00
 7.025674351061071e-01	 1.605169786290770e+00	 4.535198100574201e+00
 6.651390233461130e-01	 1.617729423793473e+00	 4.269593078061592e+00
 6.273756249509856e-01	 1.629455361754438e+00	 4.009873583334327e+00
 5.893057194590278e-01	 1.640357038728711e+00	 3.758025194850654e+00
 5.509577006915954e-01	 1.650445008658129e+00	 3.516004382958832e+00
 5.123598044659060e-01	 1.659730884666089e+00	 3.285724970528189e+00
 4.735400391875621e-01	 1.668227280467808e+00	 3.069045814251136e+00
 4.345261195934739e-01	 1.675947749803660e+00	 2.867759780588176e+00
 3.953454038814352e-01	 1.682906724299760e+00	 2.683584063529269e+00
 7.827743007438484e-01	 1.590662893481111e+00	 5.121288936049170e+00
 7.457956734213037e-01	 1.605032269764788e+00	 4.850816013272160e+00
 7.084218792418324e-01	 1.618545551193824e+00	 4.582139231099553e+00
 6.706815792066391e-01	 1.631209847256555e+00	 4.317257706835461e+00
 6.326035011166404e-01	 1.643033496618929e+00	 4.058174240236342e+00
 5.942163618280748e-01	 1.654026016486803e+00	 3.806879431281004e+00
 5.555487917659618e-01	 1.664198048747260e+00	 3.565336777760622e+00
 5.166292620345450e-01	 1.673561303295024e+00	 3.335468887097919e+00
 4.774860144314489e-01	 1.682128498954505e+00	 3.119144908171513e+00
 4.381469946384860e-01	 1.689913302408431e+00	 2.918169260690559e+00
 3.986397888273381e-01	 1.696930265540623e+00	 2.734271712489265e+00
 7.892431988448086e-01	 1.603808235835264e+00	 5.165702339237235e+00
 7.519589777238975e-01	 1.618296361585791e+00	 4.896124357996653e+00
 7.142763240612719e-01	 1.631921317657671e+00	 4.628266166627791e+00
 6.762241357145049e-01	 1.644690272292521e+00	 4.364123147639898e+00
 6.378313778929237e-01	 1.656611633067583e+00	 4.105696688658444e+00
 5.991270047707274e-01	 1.667694995839532e+00	 3.854978108871720e+00
 5.601398833766249e-01	 1.677951090440714e+00	 3.613933555227426e+00
 5.208987201019113e-01	 1.687391723537195e+00	 3.384490006476412e+00
 4.814319901362585e-01	 1.696029719062592e+00	 3.168522494319568e+00
 4.417678701064070e-01	 1.703878856641999e+00	 2.967842622421028e+00
 4.019341741579514e-01	 1.710953808416969e+00	 2.784188436574532e+00
 7.957120984556170e-01	 1.616953581256991e+00	 5.209329827903845e+00
 7.581222834650545e-01	 1.631560456501998e+00	 4.940639527187948e+00
 7.201307702472227e-01	 1.645297087242690e+00	 4.673605770338808e+00
 6.817666935161193e-01	 1.658170700473988e+00	 4.410216290805458e+00
 6.430592558895327e-01	 1.670189772684440e+00	 4.152466989391691e+00
 6.040376488596789e-01	 1.681363978381566e+00	 3.902345712725657e+00
 5.647309760590077e-01	 1.691704135342993e+00	 3.661816990124731e+00
 5.251681791659194e-01	 1.701222147006158e+00	 3.432807870153749e+00
 4.853779667621870e-01	 1.709930942413911e+00	 3.217194969192883e+00
 4.453887464195303e-01	 1.717844414133743e+00	 3.016792815649343e+00
 4.052285602575090e-01	 1.724977354564966e+00	 2.833343545738269e+00
 8.021810003307788e-01	 1.630098931279753e+00	 5.252194439830841e+00
 7.642855913636152e-01	 1.644824556060741e+00	 4.984386556373426e+00
 7.259852184824847e-01	 1.658672861509265e+00	 4.718184038350533e+00
 6.873092532578907e-01	 1.671651133373571e+00	 4.455563158694873e+00
 6.482871357161660e-01	 1.683767917053543e+00	 4.198510361987333e+00
 6.089482946676221e-01	 1.695032965707572e+00	 3.949005937504326e+00
 5.693220703485324e-01	 1.705457185058600e+00	 3.709008638051574e+00
 5.294376397244840e-01	 1.715052575315472e+00	 3.480441388603452e+00
 4.893239447694297e-01	 1.723832170630307e+00	 3.265178199712444e+00
 4.490096240001493e-01	 1.731809976513040e+00	 3.065032371849561e+00
 4.085229475102454e-01	 1.739000905620783e+00	 2.881746048967722e+00
 8.086499052247982e-01	 1.643244287437012e+00	 5.294318475158180e+00
 7.704489021384195e-01	 1.658088661809354e+00	 5.027389679488429e+00
 7.318396694498567e-01	 1.672048642017778e+00	 4.762026134421860e+00
 6.928518155862287e-01	 1.685131572563887e+00	 4.500188940440143e+00
 6.535150179825203e-01	 1.697346067758932e+00	 4.243851218422883e+00
 6.138589427672496e-01	 1.708701959412215e+00	 3.994981719060399e+00
 5.739131667806222e-01	 1.719210241192035e+00	 3.755529364220324e+00
 5.337071022755197e-01	 1.728883010078692e+00	 3.527408866535147e+00
 4.932699246181828e-01	 1.737733405333628e+00	 3.312487544416593e+00
 4.526305032705575e-01	 1.745775545409268e+00	 3.112573420846963e+00
 4.118173363003946e-01	 1.753024463220587e+00	 2.929404666334348e+00
 8.151188138921801e-01	 1.656389651262230e+00	 5.335723525679095e+00
 7.766122165083079e-01	 1.671352775295169e+00	 5.069672360707362e+00
 7.376941238321383e-01	 1.685424430328613e+00	 4.805156423002590e+00
 6.983943811475419e-01	 1.698612019617553e+00	 4.544118025025154e+00
 6.587429032982937e-01	 1.710924226384649e+00	 4.288513195164605e+00
 6.187695937312543e-01	 1.722370961090161e+00	 4.040295264563258e+00
 5.785042658906995e-01	 1.732963305347800e+00	 3.801399370865719e+00
 5.379765673169407e-01	 1.742713452909376e+00	 3.573728026944263e+00
 4.972159067686416e-01	 1.751634648145715e+00	 3.359137873646007e+00
 4.562513846530479e-01	 1.759741122451803e+00	 3.159427706766894e+00
 4.151117270121904e-01	 1.767048029000546e+00	 2.976327840469660e+00
 8.215877270874299e-01	 1.669535024288868e+00	 5.376430502750797e+00
 7.827755351921207e-01	 1.684616898065521e+00	 5.111257324770534e+00
 7.435485823121284e-01	 1.698800228002152e+00	 4.847598500721647e+00
 7.039369505882389e-01	 1.712092476107183e+00	 4.587374032805034e+00
 6.639707922731833e-01	 1.724502394514735e+00	 4.332519183715169e+00
 6.236802481323296e-01	 1.736039972336078e+00	 4.084968081201164e+00
 5.830953682141872e-01	 1.746716379130398e+00	 3.846638223358566e+00
 5.422460353466614e-01	 1.756543905421082e+00	 3.619416034025462e+00
 5.011618916810020e-01	 1.765535900688415e+00	 3.405143588774434e+00
 4.598722685699141e-01	 1.773706709270024e+00	 3.205606603230466e+00
 4.184061200298669e-01	 1.781071604596829e+00	 3.022523747499052e+00
 8.280566455650521e-01	 1.682680408050388e+00	 5.416459663896649e+00
 7.889388589086984e-01	 1.697881031667741e+00	 5.152166585889156e+00
 7.494030455726264e-01	 1.712176036598776e+00	 4.889375226399167e+00
 7.094795245547295e-01	 1.725572943605394e+00	 4.629979845547695e+00
 6.691986855168869e-01	 1.738080573733230e+00	 4.375891359728755e+00
 6.285909065431682e-01	 1.749708994744632e+00	 4.129021003537757e+00
 5.876864742865079e-01	 1.760469464144329e+00	 3.891264875095285e+00
 5.465155068625969e-01	 1.770374369227367e+00	 3.664489515011532e+00
 5.051078798154598e-01	 1.779437164583574e+00	 3.450518640537994e+00
 4.634931554434493e-01	 1.787672307493307e+00	 3.251121127837246e+00
 4.217005157376584e-01	 1.795095191645604e+00	 3.068000307462832e+00
 8.345255700795510e-01	 1.695825804080252e+00	 5.455830638170748e+00
 7.951021883768820e-01	 1.711145177649163e+00	 5.192421475305528e+00
 7.552575142964307e-01	 1.725551857678868e+00	 4.930508749661994e+00
 7.150221036934218e-01	 1.739053423684801e+00	 4.671957635077705e+00
 6.744265836391021e-01	 1.751658765624176e+00	 4.418651210771880e+00
 6.335015695364629e-01	 1.763378029910489e+00	 4.172474219595669e+00
 5.922775846430843e-01	 1.774222561994095e+00	 3.935297691229434e+00
 5.507849823626615e-01	 1.784204845941787e+00	 3.708964580996536e+00
 5.090538716322107e-01	 1.793338441453034e+00	 3.495276546511700e+00
 4.671140456959468e-01	 1.801637918751031e+00	 3.295981955974684e+00
 4.249949145197989e-01	 1.809118791783039e+00	 3.112765194252510e+00
 8.409945013854322e-01	 1.708971213911920e+00	 5.494562450351632e+00
 8.012655243155109e-01	 1.724409337557121e+00	 5.232042667581059e+00
 7.611119891663416e-01	 1.738927692802811e+00	 4.971020538238482e+00
 7.205646886507253e-01	 1.752533917918023e+00	 4.713328890598056e+00
 6.796544872495266e-01	 1.765236971771615e+00	 4.460819562802522e+00
 6.384122376849063e-01	 1.777047079428316e+00	 4.215347295736256e+00
 5.968686998193392e-01	 1.787975674284199e+00	 3.978754471307771e+00
 5.550544623447694e-01	 1.798035337177901e+00	 3.752856846797478e+00
 5.129998675914502e-01	 1.807239732918643e+00	 3.539430407779210e+00
 4.707349397497000e-01	 1.815603544672573e+00	 3.340199433989656e+00
 4.282893167605222e-01	 1.823142406645302e+00	 3.156825845088497e+00
 3.953454038814352e-01	 1.682906724299760e+00	 2.683584063529269e+00
 3.560220848416451e-01	 1.689119859320706e+00	 2.516098439448140e+00
 3.165854117949879e-01	 1.694602641381182e+00	 2.364442015154460e+00
 2.770613785882645e-01	 1.699371756916888e+00	 2.229501279305495e+00
 2.374754056886408e-01	 1.703444513999047e+00	 2.112069095911320e+00
 1.978522965532911e-01	 1.706838777961158e+00	 2.012846674910531e+00
 1.582161980975129e-01	 1.709572907634753e+00	 1.932446166227654e+00
 1.185905652642063e-01	 1.711665692492552e+00	 1.871393792428604e+00
 7.899812966952448e-02	 1.713136290974417e+00	 1.830133436650266e+00
 3.946087227343351e-02	 1.714004170247544e+00	 1.809030605284513e+00
 0.000000000000000e+00	 1.714289047627778e+00	 1.808376688716726e+00
 3.986397888273381e-01	 1.696930265540623e+00	 2.734271712489264e+00
 3.589887913849910e-01	 1.703195174170719e+00	 2.566991877353567e+00
 3.192234953648744e-01	 1.708723643861422e+00	 2.415461864152378e+00
 2.793701112187151e-01	 1.713532500095309e+00	 2.280630599721078e+00
 2.394542712406707e-01	 1.717639195170523e+00	 2.163352285938135e+00
 1.995009855734057e-01	 1.721061743291110e+00	 2.064387975234703e+00
 1.595346023467897e-01	 1.723818656271432e+00	 1.984407818184006e+00
 1.195787719521360e-01	 1.725928880155542e+00	 1.923993897952509e+00
 7.965641542658011e-02	 1.727411733029215e+00	 1.883643567282687e+00
 3.978969689590328e-02	 1.728286844278154e+00	 1.863773205904270e+00
 0.000000000000000e+00	 1.728574095521189e+00	 1.864722319613483e+00
 4.019341741579514e-01	 1.710953808416969e+00	 2.784188436574532e+00
 3.619554982746881e-01	 1.717270490662191e+00	 2.617060535032661e+00
 3.218615792426328e-01	 1.722844647988404e+00	 2.465598109795790e+00
 2.816788441184740e-01	 1.727693244925074e+00	 2.330827785365811e+00
 2.414331370233987e-01	 1.731833877997279e+00	 2.213680370581959e+00
 2.011496747855978e-01	 1.735284710279628e+00	 2.114991909898195e+00
 1.608530067495474e-01	 1.738064406569329e+00	 2.035505467457915e+00
 1.205669787550088e-01	 1.740192069481785e+00	 1.975873558721017e+00
 8.031470126013159e-02	 1.741687176748694e+00	 1.936661144394352e+00
 4.011852155654447e-02	 1.742569519974292e+00	 1.918349102877451e+00
 0.000000000000000e+00	 1.742859145080407e+00	 1.921338100131663e+00
 4.052285602575090e-01	 1.724977354564966e+00	 2.833343545738269e+00
 3.649222058567783e-01	 1.731345810437356e+00	 2.666311404315540e+00
 3.244996637360026e-01	 1.736965655409712e+00	 2.514857904229142e+00
 2.839875775568942e-01	 1.741853993058424e+00	 2.380102198591256e+00
 2.434120032677271e-01	 1.746028564135532e+00	 2.263066549693659e+00
 2.027983643822757e-01	 1.749507680586244e+00	 2.164676728842023e+00
 1.621714114596788e-01	 1.752310160190644e+00	 2.085763221600571e+00
 1.215551857881991e-01	 1.754455262135521e+00	 2.027063153481648e+00
 8.097298724705299e-02	 1.755962623798535e+00	 1.989222850007165e+00
 4.044734629376683e-02	 1.756852199002485e+00	 1.972800945571945e+00
 0.000000000000000e+00	 1.757144197972236e+00	 1.978271957425474e+00
 4.085229475102454e-01	 1.739000905620783e+00	 2.881746048967722e+00
 3.678889144773020e-01	 1.745421135138444e+00	 2.714751250873396e+00
 3.271377491527241e-01	 1.751086667772930e+00	 2.563248168302277e+00
 2.862963118033286e-01	 1.756014746147594e+00	 2.428462899186341e+00
 2.453908702045579e-01	 1.760223255241496e+00	 2.311523596779249e+00
 2.044470545558480e-01	 1.763730655870484e+00	 2.213460092730199e+00
 1.634898166310764e-01	 1.766555918797576e+00	 2.135204409857468e+00
 1.225433931670815e-01	 1.768718459780995e+00	 2.077592080245771e+00
 8.163127346421838e-02	 1.770238075844416e+00	 2.041364181868416e+00
 4.077617114598011e-02	 1.771134883029259e+00	 2.027170006293760e+00
 0.000000000000000e+00	 1.771429255863481e+00	 2.035570270947447e+00
 4.118173363003946e-01	 1.753024463220587e+00	 2.929404666334348e+00
 3.708556244823005e-01	 1.759496466407687e+00	 2.762386623277049e+00
 3.297758358005368e-01	 1.765207686725638e+00	 2.610775600835303e+00
 2.886050471271304e-01	 1.770175505844825e+00	 2.475918656493223e+00
 2.473697380647935e-01	 1.774417952971386e+00	 2.359063876067023e+00
 2.060957454987230e-01	 1.777953637791879e+00	 2.261359096532740e+00
 1.648082224176328e-01	 1.780801684052323e+00	 2.183851614309335e+00
 1.235316010070308e-01	 1.782981664082448e+00	 2.127488795521058e+00
 8.228955998850176e-02	 1.784513534552017e+00	 2.093119500817116e+00
 4.110499615159411e-02	 1.785417573721143e+00	 2.081496235354331e+00
 0.000000000000000e+00	 1.785714320420949e+00	 2.093277934327589e+00
 4.151117270121904e-01	 1.767048029000546e+00	 2.976327840469660e+00
 3.738223362178146e-01	 1.773571805887316e+00	 2.809223861624107e+00
 3.324139239871811e-01	 1.779328713915424e+00	 2.657446687442217e+00
 2.909137837976528e-01	 1.784336273802357e+00	 2.522477960946601e+00
 2.493486070793357e-01	 1.788612658981417e+00	 2.405699358761788e+00
 2.077444374033094e-01	 1.792176628009957e+00	 2.308390291985048e+00
 1.661266289732406e-01	 1.795047457617085e+00	 2.231726699529477e+00
 1.245198094234214e-01	 1.797244876704125e+00	 2.176780851675695e+00
 8.294784689677716e-02	 1.798789001587017e+00	 2.144522075894341e+00
 4.143382134901862e-02	 1.799700272744663e+00	 2.135818313515221e+00
 0.000000000000000e+00	 1.799999393311444e+00	 2.151438414305204e+00
 4.184061200298669e-01	 1.781071604596829e+00	 3.022523747499052e+00
 3.767890500298854e-01	 1.787647155219566e+00	 2.855269105758381e+00
 3.350520140203967e-01	 1.793449750989868e+00	 2.703267708937799e+00
 2.932225220842488e-01	 1.798497051672427e+00	 2.568149035067485e+00
 2.513274774790871e-01	 1.802807374927803e+00	 2.451441638530987e+00
 2.093931304620154e-01	 1.806399628184248e+00	 2.354569708986274e+00
 1.674450364517922e-01	 1.809293241154060e+00	 2.278850840839951e+00
 1.255080185316279e-01	 1.811508099310267e+00	 2.225494932536712e+00
 8.360613426591867e-02	 1.813064478615097e+00	 2.195604127322150e+00
 4.176264677666337e-02	 1.813982981766347e+00	 2.190173701954217e+00
 0.000000000000000e+00	 1.814284476201773e+00	 2.210093806876217e+00
 4.217005157376584e-01	 1.795095191645604e+00	 3.068000307462831e+00
 3.797557662645539e-01	 1.801722516046665e+00	 2.900528303104134e+00
 3.376901062079234e-01	 1.807570799596554e+00	 2.748244749349895e+00
 2.955312622562715e-01	 1.812657841107276e+00	 2.612939843941479e+00
 2.533063494949497e-01	 1.817002102466761e+00	 2.496301946264849e+00
 2.110418248672496e-01	 1.820622639974282e+00	 2.399912875994492e+00
 1.687634450071802e-01	 1.823539036325449e+00	 2.325244551242766e+00
 1.264962284470250e-01	 1.825771333565119e+00	 2.273656887319300e+00
 8.426442217280029e-02	 1.827339967301935e+00	 2.246396867467052e+00
 4.209147247293815e-02	 1.828265702452721e+00	 2.244598689889234e+00
 0.000000000000000e+00	 1.828569570758740e+00	 2.269284890807674e+00
 4.249949145197989e-01	 1.809118791783039e+00	 3.112765194252510e+00
 3.827224852678611e-01	 1.815797890010847e+00	 2.945007216135614e+00
 3.403282008575016e-01	 1.821691861383066e+00	 2.792383703559520e+00
 2.978400045830739e-01	 1.826818643759138e+00	 2.656858105209821e+00
 2.552852233578258e-01	 1.831196843254504e+00	 2.540291164149748e+00
 2.126905208114204e-01	 1.834845665039586e+00	 2.444434839472631e+00
 1.700818547932973e-01	 1.837784844793450e+00	 2.370927707098501e+00
 1.274844392849872e-01	 1.840034581132922e+00	 2.321291762977908e+00
 8.492271069429605e-02	 1.841615469313210e+00	 2.296930539898326e+00
 4.242029847625274e-02	 1.842548436470314e+00	 2.299128439986096e+00
 0.000000000000000e+00	 1.842854678649152e+00	 2.329051178662955e+00
 4.282893167605222e-01	 1.823142406645302e+00	 3.156825845088497e+00
 3.856892073858478e-01	 1.829873278754343e+00	 2.988711429501782e+00
 3.429662982768709e-01	 1.835812937996986e+00	 2.835690284587685e+00
 3.001487493340093e-01	 1.840979461280257e+00	 2.699911298598979e+00
 2.572640992986176e-01	 1.845391598947249e+00	 2.583419839091947e+00
 2.143392184869364e-01	 1.849068705039692e+00	 2.488150182437203e+00
 1.714002659640361e-01	 1.852030668220261e+00	 2.415919572619004e+00
 1.284726511608891e-01	 1.854297843677920e+00	 2.368423835063695e+00
 8.558099990728006e-02	 1.855890986314603e+00	 2.347234456642662e+00
 4.274912482501691e-02	 1.856831185485652e+00	 2.353797031670688e+00
 0.000000000000000e+00	 1.857139801539814e+00	 2.389430965471260e+00
 1.857139801539814e+00	 0.000000000000000e+00	 1.118537387816574e+01
 1.856831185485652e+00	 4.274912482501749e-02	 1.118216997274234e+01
 1.855890986314602e+00	 8.558099990728060e-02	 1.117614343098285e+01
 1.854297843677920e+00	 1.284726511608895e-01	 1.116753516025922e+01
 1.852030668220261e+00	 1.714002659640365e-01	 1.115658827654240e+01
 1.849068705039691e+00	 2.143392184869368e-01	 1.114354624323774e+01
 1.845391598947249e+00	 2.572640992986178e-01	 1.112865081774812e+01
 1.840979461280257e+00	 3.001487493340095e-01	 1.111213981163998e+01
 1.835812937996986e+00	 3.429662982768709e-01	 1.109424467401823e+01
 1.829873278754343e+00	 3.856892073858478e-01	 1.107518791176933e+01
 1.823142406645302e+00	 4.282893167605222e-01	 1.105518036465668e+01
 1.871425938885499e+00	 0.000000000000000e+00	 1.119066874593475e+01
 1.871114948787420e+00	 4.307797452551081e-02	 1.118843463601793e+01
 1.870167517088809e+00	 8.623933586883083e-02	 1.118309443687073e+01
 1.868562119125425e+00	 1.294609332147644e-01	 1.117493977775650e+01
 1.866277503311067e+00	 1.727187707617287e-01	 1.116426423864609e+01
 1.863292755085735e+00	 2.159880332445210e-01	 1.115136098054355e+01
 1.859587362677221e+00	 2.592431157688597e-01	 1.113652013991856e+01
 1.855141284428371e+00	 3.024576580397680e-01	 1.112002599554444e+01
 1.849935017415582e+00	 3.456045830397631e-01	 1.110215392074536e+01
 1.843949667057868e+00	 3.886561401843552e-01	 1.108316713915080e+01
 1.837167017390747e+00	 4.315839529516940e-01	 1.106331330747262e+01
 1.885712081233184e+00	 0.000000000000000e+00	 1.119726486274669e+01
 1.885398717090345e+00	 4.340682434133453e-02	 1.119621054347175e+01
 1.884444052861604e+00	 8.689767206117580e-02	 1.119169827055879e+01
 1.882826399567176e+00	 1.304492156149813e-01	 1.118408276378723e+01
 1.880524343389939e+00	 1.740372760213404e-01	 1.117371932503263e+01
 1.877516810111782e+00	 2.176368485795780e-01	 1.116096071111757e+01
 1.873783131377193e+00	 2.612221329320474e-01	 1.114615371640440e+01
 1.869303112534495e+00	 3.047665675538066e-01	 1.112963547806372e+01
 1.864057101778160e+00	 3.482428687260726e-01	 1.111172952304982e+01
 1.858026060289259e+00	 3.916230740211588e-01	 1.109274158237357e+01
 1.851191633045813e+00	 4.348785902957209e-01	 1.107295520519301e+01
 1.899998216915481e+00	 0.000000000000000e+00	 1.120488248960415e+01
 1.899682478728979e+00	 4.373567400390595e-02	 1.120529356120661e+01
 1.898720581973453e+00	 8.755600794664044e-02	 1.120181730078628e+01
 1.897090673353649e+00	 1.314374975544066e-01	 1.119488341796921e+01
 1.894771176821610e+00	 1.753557806660619e-01	 1.118491973743889e+01
 1.891740858501185e+00	 2.192856631455580e-01	 1.117234806940239e+01
 1.887978893453634e+00	 2.632011491719851e-01	 1.115757972493316e+01
 1.883464934032833e+00	 3.070754759905426e-01	 1.114101069594662e+01
 1.878179179551402e+00	 3.508811531812545e-01	 1.112301652746806e+01
 1.872102446952540e+00	 3.945900064733498e-01	 1.110394691829415e+01
 1.865216242156835e+00	 4.381732261021032e-01	 1.108412009500396e+01
 1.914284334264999e+00	 0.000000000000000e+00	 1.121325023502783e+01
 1.913966222037872e+00	 4.406452324464238e-02	 1.121548564656763e+01
 1.912997092764816e+00	 8.821434298754971e-02	 1.121331800269395e+01
 1.911354928835323e+00	 1.324257782259066e-01	 1.120726344699965e+01
 1.909017991970809e+00	 1.766742836190831e-01	 1.119783268458850e+01
 1.905964888637292e+00	 2.209344755959106e-01	 1.118552560918038e+01
 1.902174637313011e+00	 2.651801628724775e-01	 1.117082549996243e+01
 1.897626737357590e+00	 3.093843814643931e-01	 1.115419281693026e+01
 1.892301239201991e+00	 3.535194342507644e-01	 1.113605863357907e+01
 1.886178815551731e+00	 3.975569351180192e-01	 1.111681775654009e+01
 1.879240833270147e+00	 4.414678576803407e-01	 1.109682159294420e+01
 1.928570421614352e+00	 0.000000000000000e+00	 1.122210474584458e+01
 1.928249935351575e+00	 4.439337179496115e-02	 1.122659462253772e+01
 1.927273573576156e+00	 8.887267664622857e-02	 1.122607080576181e+01
 1.925619154362675e+00	 1.334140568223477e-01	 1.122114687555019e+01
 1.923264777202266e+00	 1.779927838035942e-01	 1.121242634495383e+01
 1.920188888903455e+00	 2.225832845840858e-01	 1.120049580662464e+01
 1.916370351361791e+00	 2.671591724173291e-01	 1.118591756397712e+01
 1.911788510942970e+00	 3.116932820897748e-01	 1.116922178680423e+01
 1.906423269196610e+00	 3.561577097800575e-01	 1.115089824395194e+01
 1.900255154590854e+00	 4.005238575322578e-01	 1.113138767909223e+01
 1.893265394932085e+00	 4.447624823399337e-01	 1.111107290955184e+01
 1.942856467296148e+00	 0.000000000000000e+00	 1.123119041158646e+01
 1.942533607004642e+00	 4.472221938627953e-02	 1.123843396206404e+01
 1.941550012747933e+00	 8.953100838500189e-02	 1.123994994844028e+01
 1.939883338286183e+00	 1.344023325365960e-01	 1.123645996108409e+01
 1.937511520880712e+00	 1.793112801427852e-01	 1.122866983115704e+01
 1.934412847683026e+00	 2.242320887635338e-01	 1.121726106321565e+01
 1.930566024006441e+00	 2.691381761903444e-01	 1.120288165740915e+01
 1.925950243223175e+00	 3.140021759811051e-01	 1.118613637440296e+01
 1.920545258001943e+00	 3.587959776145891e-01	 1.116757651189480e+01
 1.914331452573932e+00	 4.034907712931571e-01	 1.114768927812456e+01
 1.907289915688981e+00	 4.480570973903820e-01	 1.112688686482224e+01
 1.957142459643000e+00	 0.000000000000000e+00	 1.124025908180703e+01
 1.956817225331620e+00	 4.505106575001486e-02	 1.125082258180882e+01
 1.955826398620612e+00	 9.018933766619465e-02	 1.125483333913374e+01
 1.954147468956323e+00	 1.353906045615179e-01	 1.125313111239580e+01
 1.951758211370878e+00	 1.806297715598461e-01	 1.124653315592673e+01
 1.948636753359356e+00	 2.258808867877044e-01	 1.123582370853039e+01
 1.944761643653427e+00	 2.711171725753280e-01	 1.122174276724957e+01
 1.940111922632410e+00	 3.163110612528009e-01	 1.120497421463206e+01
 1.934667194084671e+00	 3.614342355998145e-01	 1.118613338711719e+01
 1.928407698004987e+00	 4.064576739778080e-01	 1.116575419219055e+01
 1.921314384087171e+00	 4.513517001411860e-01	 1.114427590251221e+01
 1.971428386987518e+00	 0.000000000000000e+00	 1.124906979566091e+01
 1.971100778667064e+00	 4.537991061758444e-02	 1.126358464484769e+01
 1.970102719534652e+00	 9.084766395213176e-02	 1.127060242321480e+01
 1.968411534723574e+00	 1.363788720899798e-01	 1.127109081168438e+01
 1.966004837037493e+00	 1.819482569779670e-01	 1.126598719953147e+01
 1.962860594315794e+00	 2.275296773100474e-01	 1.125618600291045e+01
 1.958957198709218e+00	 2.730961599560843e-01	 1.124252515441939e+01
 1.954273537604879e+00	 3.186199360192795e-01	 1.122577184962795e+01
 1.948789065911478e+00	 3.640724815811890e-01	 1.120660765941139e+01
 1.942483879388040e+00	 4.094245631633016e-01	 1.118561314083951e+01
 1.935338788672990e+00	 4.546462879018455e-01	 1.116325210382371e+01
 1.985714237662315e+00	 0.000000000000000e+00	 1.125738852313067e+01
 1.985384255345523e+00	 4.570875372040557e-02	 1.127654937186593e+01
 1.984378963830518e+00	 9.150598670513820e-02	 1.128714205576641e+01
 1.982675523938412e+00	 1.373671343148479e-01	 1.129027153998322e+01
 1.980251386245289e+00	 1.832667353203382e-01	 1.128700367861586e+01
 1.977084358935692e+00	 2.291784589840129e-01	 1.127835014001523e+01
 1.973152677580279e+00	 2.750751367164180e-01	 1.126525237996157e+01
 1.968435076574785e+00	 3.209287983949576e-01	 1.124856476814472e+01
 1.962910861949046e+00	 3.667107134041679e-01	 1.122903700045246e+01
 1.956559985227112e+00	 4.123914364267289e-01	 1.120729595774205e+01
 1.949363117992771e+00	 4.579408579818608e-01	 1.118382720049808e+01
 2.000000000000000e+00	 0.000000000000000e+00	 1.126498791731964e+01
 1.999667643701550e+00	 4.603759478989555e-02	 1.128955086042869e+01
 1.998655119848670e+00	 9.216430538753885e-02	 1.130434037976594e+01
 1.996939424951317e+00	 1.383553904289885e-01	 1.131060770577877e+01
 1.994497847358994e+00	 1.845852055101493e-01	 1.130955511636938e+01
 1.991308035602400e+00	 2.308272304630508e-01	 1.130231824926579e+01
 1.987348068673079e+00	 2.770541012401335e-01	 1.128994733011283e+01
 1.982596527976333e+00	 3.232376464942529e-01	 1.127338744325667e+01
 1.977032570664059e+00	 3.693489289142068e-01	 1.125345800381054e+01
 1.970636004026227e+00	 4.153582913451809e-01	 1.123083162239896e+01
 1.963387360592848e+00	 4.612354076907317e-01	 1.120601258735035e+01
 1.823142406645302e+00	 4.282893167605222e-01	 1.105518036465668e+01
 1.815603544672573e+00	 4.707349397496997e-01	 1.103310952222549e+01
 1.807239732918643e+00	 5.129998675914498e-01	 1.100776830309431e+01
 1.798035337177901e+00	 5.550544623447690e-01	 1.097918938891009e+01
 1.787975674284199e+00	 5.968686998193390e-01	 1.094736202604416e+01
 1.777047079428317e+00	 6.384122376849063e-01	 1.091222811536228e+01
 1.765236971771615e+00	 6.796544872495263e-01	 1.087367854532722e+01
 1.752533917918022e+00	 7.205646886507250e-01	 1.083154984546600e+01
 1.738927692802811e+00	 7.611119891663414e-01	 1.078562123888517e+01
 1.724409337557121e+00	 8.012655243155106e-01	 1.073561217255103e+01
 1.708971213911921e+00	 8.409945013854322e-01	 1.068118040227973e+01
 1.837167017390747e+00	 4.315839529516940e-01	 1.106331330747262e+01
 1.829570162359090e+00	 4.743560909394626e-01	 1.104146454793393e+01
 1.821142011580398e+00	 5.169461437735805e-01	 1.101636756759425e+01
 1.811866810582170e+00	 5.593242455217806e-01	 1.098804229338985e+01
 1.801729763247288e+00	 6.014601410312405e-01	 1.095646544064241e+01
 1.790717099649317e+00	 6.433232545618968e-01	 1.092156673836672e+01
 1.778816142170903e+00	 6.848827621168463e-01	 1.088322540282665e+01
 1.766015369464010e+00	 7.261076672119187e-01	 1.084126693480989e+01
 1.752304477807102e+00	 7.669668797889304e-01	 1.079546031754219e+01
 1.737674439414772e+00	 8.074292979405400e-01	 1.074551569201387e+01
 1.722117557260229e+00	 8.474638920795502e-01	 1.069108258456219e+01
 1.851191633045813e+00	 4.348785902957209e-01	 1.107295520519301e+01
 1.843536784934809e+00	 4.779772433962460e-01	 1.105124120140363e+01
 1.835044295108718e+00	 5.208924213364344e-01	 1.102631276179917e+01
 1.825698288828111e+00	 5.635940301926754e-01	 1.099817236090229e+01
 1.815483857024859e+00	 6.060515838495604e-01	 1.096678015961929e+01
 1.804387124655278e+00	 6.482342731571334e-01	 1.093205046425070e+01
 1.792395317323264e+00	 6.901110388134489e-01	 1.089384843701437e+01
 1.779496825728795e+00	 7.316506477125575e-01	 1.085198713043577e+01
 1.765681267493491e+00	 7.728217724601689e-01	 1.080622491911971e+01
 1.750939545915385e+00	 8.135930737223795e-01	 1.075626340202611e+01
 1.735263905209901e+00	 8.539332850375116e-01	 1.070174584625815e+01
 1.865216242156835e+00	 4.381732261021032e-01	 1.108412009500396e+01
 1.857503400993457e+00	 4.815983941629300e-01	 1.106242731055444e+01
 1.848946572149907e+00	 5.248386970574064e-01	 1.103756890720483e+01
 1.839529760619886e+00	 5.678638128706813e-01	 1.100952535797495e+01
 1.829237944384306e+00	 6.106430245248657e-01	 1.097823638310323e+01
 1.818057143282288e+00	 6.531452894602179e-01	 1.094359773917167e+01
 1.805974486139023e+00	 6.953393130698571e-01	 1.090545826135559e+01
 1.792978275702542e+00	 7.371936256261624e-01	 1.086361722650464e+01
 1.779058050937662e+00	 7.786766623988440e-01	 1.081782210554437e+01
 1.764204646225886e+00	 8.197568466275468e-01	 1.076776677299082e+01
 1.748410247024885e+00	 8.604026749762184e-01	 1.071309023904353e+01
 1.879240833270147e+00	 4.414678576803407e-01	 1.109682159294420e+01
 1.871469999128758e+00	 4.852195402823947e-01	 1.107501106471397e+01
 1.862848831350267e+00	 5.287849677138905e-01	 1.105010206772777e+01
 1.853361214661657e+00	 5.721335900690259e-01	 1.102204866856538e+01
 1.842992014093027e+00	 6.152344593077239e-01	 1.099076639354305e+01
 1.831727144366439e+00	 6.580562994607521e-01	 1.095612944266387e+01
 1.819553637528504e+00	 7.005675806165934e-01	 1.091796815665158e+01
 1.806459708375416e+00	 7.427365964262533e-01	 1.087606679861755e+01
 1.792434817215295e+00	 7.845315448237445e-01	 1.083016171222890e+01
 1.777469729513201e+00	 8.259206116225587e-01	 1.077993991718646e+01
 1.761556571969129e+00	 8.668720566125698e-01	 1.072503820025330e+01
 1.893265394932085e+00	 4.447624823399337e-01	 1.111107290955184e+01
 1.885436567934439e+00	 4.888406787975204e-01	 1.108898100127442e+01
 1.876751061356101e+00	 5.327312300832813e-01	 1.106387931113514e+01
 1.867192639657584e+00	 5.764033583009371e-01	 1.103569123419112e+01
 1.856746054918420e+00	 6.198258844487023e-01	 1.100430447861709e+01
 1.845397116743821e+00	 6.629672991483387e-01	 1.096956879754219e+01
 1.833132760402026e+00	 7.057958371841795e-01	 1.093129397227471e+01
 1.819941112737581e+00	 7.482795555863506e-01	 1.088924810081993e+01
 1.805811555402071e+00	 7.903864149536577e-01	 1.084315624536531e+01
 1.790734784944258e+00	 8.320843636739326e-01	 1.079269949092805e+01
 1.774702869306581e+00	 8.733414246634675e-01	 1.073751446452504e+01
 1.907289915688981e+00	 4.480570973903820e-01	 1.112688686482224e+01
 1.899403096004228e+00	 4.924618067511872e-01	 1.110432599293684e+01
 1.890653250813712e+00	 5.366774809429736e-01	 1.107886867217235e+01
 1.881024024311834e+00	 5.806731140796429e-01	 1.105040349669508e+01
 1.870500055627877e+00	 6.244172961983684e-01	 1.101878685753562e+01
 1.859067049250523e+00	 6.678782845125785e-01	 1.098384128377198e+01
 1.846711843669914e+00	 7.110240785031383e-01	 1.094535403175092e+01
 1.833422477779206e+00	 7.538224985799745e-01	 1.090307596713960e+01
 1.819188254573673e+00	 7.962412680073720e-01	 1.085672078373918e+01
 1.803999801685983e+00	 8.382480977481868e-01	 1.080596460103506e+01
 1.787849128301191e+00	 8.798107738458119e-01	 1.075044597933189e+01
 1.921314384087171e+00	 4.513517001411860e-01	 1.114427590251221e+01
 1.913369571931849e+00	 4.960829211862750e-01	 1.112103523551267e+01
 1.904555388369401e+00	 5.406237170703617e-01	 1.109503911730195e+01
 1.894855357328564e+00	 5.849428539183713e-01	 1.106613734351208e+01
 1.884254004988798e+00	 6.290086908072895e-01	 1.103415161056373e+01
 1.872736930722637e+00	 6.727892515430747e-01	 1.099887455610262e+01
 1.860290876242493e+00	 7.162523003039925e-01	 1.096006904246814e+01
 1.846903792490453e+00	 7.593654208806461e-01	 1.091746771742738e+01
 1.832564903805781e+00	 8.020960992036745e-01	 1.087077288483440e+01
 1.817264768905303e+00	 8.444118088118374e-01	 1.081965671538651e+01
 1.800995338216907e+00	 8.862800988765028e-01	 1.076376182420656e+01
 1.935338788672990e+00	 4.546462879018455e-01	 1.116325210382371e+01
 1.927335984311028e+00	 4.997040191456642e-01	 1.113909823625446e+01
 1.918457462669473e+00	 5.445699352428400e-01	 1.111236051097222e+01
 1.908686627411940e+00	 5.892125743303499e-01	 1.108284605530965e+01
 1.898007891768577e+00	 6.336000645260323e-01	 1.105033861160175e+01
 1.886406749996252e+00	 6.777001962294286e-01	 1.101459836527419e+01
 1.873869847030084e+00	 7.214804983172646e-01	 1.097536200930171e+01
 1.860385045861490e+00	 7.649083179618846e-01	 1.093234306728264e+01
 1.845941492174076e+00	 8.079509037613540e-01	 1.088523249501137e+01
 1.830529675769143e+00	 8.505754918314030e-01	 1.083369957735638e+01
 1.814141488317677e+00	 8.927493944724415e-01	 1.077739313346962e+01
 1.949363117992771e+00	 4.579408579818608e-01	 1.118382720049808e+01
 1.941302321735491e+00	 5.033250976722348e-01	 1.115850480268923e+01
 1.932359462360228e+00	 5.485161322378032e-01	 1.113080358333851e+01
 1.922517823266122e+00	 5.934822718288065e-01	 1.110048425588407e+01
 1.911761704734611e+00	 6.381914136051650e-01	 1.106728946366934e+01
 1.900076495907460e+00	 6.826111145612423e-01	 1.103094448261807e+01
 1.887448744943010e+00	 7.267086682734761e-01	 1.099115815196010e+01
 1.873866226882480e+00	 7.704511852972111e-01	 1.094762404185830e+01
 1.859318008754241e+00	 8.138056768991979e-01	 1.090002186355386e+01
 1.843794511444432e+00	 8.567391417734002e-01	 1.084801912393434e+01
 1.827287567867451e+00	 8.992186553505289e-01	 1.079127302228576e+01
 1.963387360592848e+00	 4.612354076907317e-01	 1.120601258735035e+01
 1.955268572798965e+00	 5.069461538088669e-01	 1.117924503192931e+01
 1.946261376087971e+00	 5.524623048326455e-01	 1.115033989936502e+01
 1.936348933595271e+00	 5.977519429269690e-01	 1.111900786419910e+01
 1.925515432654296e+00	 6.427827342952540e-01	 1.108494743714864e+01
 1.913746157292350e+00	 6.875220025281178e-01	 1.104784662788163e+01
 1.901027558891593e+00	 7.319368059031507e-01	 1.100738482586511e+01
 1.887347324543591e+00	 7.759940183601458e-01	 1.096323489335198e+01
 1.872694442621957e+00	 8.196604138359943e-01	 1.091506546039160e+01
 1.857059265098094e+00	 8.629027536043464e-01	 1.086254340734803e+01
 1.840433566130177e+00	 9.056878762276653e-01	 1.080533651588252e+01
 1.708971213911921e+00	 8.409945013854322e-01	 1.068118040227973e+01
 1.692605878429240e+00	 8.802710158444028e-01	 1.062136663673789e+01
 1.675309537819501e+00	 9.190618649712039e-01	 1.055528695904101e+01
 1.657078811545492e+00	 9.573369733799312e-01	 1.048265053510534e+01
 1.637911814921611e+00	 9.950666874472247e-01	 1.040316475889147e+01
 1.617808190139119e+00	 1.032221864511473e+00	 1.031653753392743e+01
 1.596769131566166e+00	 1.068773961727374e+00	 1.022247969078798e+01
 1.574797405047172e+00	 1.104695124050099e+00	 1.012070751465425e+01
 1.551897360966147e+00	 1.139958270817221e+00	 1.001094535336855e+01
 1.528074940881947e+00	 1.174537180395669e+00	 9.892928273141617e+00
 1.503337677589890e+00	 1.208406572365371e+00	 9.766404726389517e+00
 1.722117557260229e+00	 8.474638920795502e-01	 1.069108258456219e+01
 1.705626330646489e+00	 8.870425430173238e-01	 1.063128466198909e+01
 1.688196937103913e+00	 9.261317926190925e-01	 1.056531783489647e+01
 1.669825970090350e+00	 9.647013341425724e-01	 1.049288008191715e+01
 1.650511530422169e+00	 1.002721285852451e+00	 1.041366887630190e+01
 1.630253257538177e+00	 1.040162280905763e+00	 1.032738361686313e+01
 1.609052354994264e+00	 1.076995556889963e+00	 1.023372818215558e+01
 1.586911609911249e+00	 1.113193044483923e+00	 1.013241357931035e+01
 1.563835406138682e+00	 1.148727454705887e+00	 1.002316065539414e+01
 1.539829730941159e+00	 1.183572364211581e+00	 9.905702836144405e+00
 1.514902175060389e+00	 1.217702298110054e+00	 9.779788854554919e+00
 1.735263905209901e+00	 8.539332850375116e-01	 1.070174584625815e+01
 1.718646787421024e+00	 8.938140725599182e-01	 1.064188042904768e+01
 1.701084340899041e+00	 9.332017227411900e-01	 1.057594379414409e+01
 1.682573133096854e+00	 9.720656974825775e-01	 1.050362456770074e+01
 1.663111250332794e+00	 1.010375886936732e+00	 1.042461199604518e+01
 1.642698329293209e+00	 1.048102700079252e+00	 1.033859850386152e+01
 1.621335582721734e+00	 1.085217154930274e+00	 1.024528236400036e+01
 1.599025819015587e+00	 1.121690967892286e+00	 1.014437044799670e+01
 1.575773455489876e+00	 1.157496641664130e+00	 1.003558102298762e+01
 1.551584525114940e+00	 1.192607551190254e+00	 9.918646557917823e+00
 1.526466676578907e+00	 1.226998027108758e+00	 9.793316499821005e+00
 1.748410247024885e+00	 8.604026749762184e-01	 1.071309023904353e+01
 1.731667238119636e+00	 9.005855989422995e-01	 1.065308434261630e+01
 1.713971738680369e+00	 9.402716495638588e-01	 1.058710492878166e+01
 1.695320290155044e+00	 9.794300573857910e-01	 1.051483307090304e+01
 1.675710964363958e+00	 1.018030484448819e+00	 1.043595145035161e+01
 1.655143395241000e+00	 1.056043115547207e+00	 1.035014702012241e+01
 1.633618804717539e+00	 1.093438749133876e+00	 1.025711376955630e+01
 1.611140022467182e+00	 1.130188887335035e+00	 1.015655555727795e+01
 1.587711499270573e+00	 1.166265824530218e+00	 1.004818897621866e+01
 1.563339313803775e+00	 1.201642733952688e+00	 9.931746211987926e+00
 1.538031172701298e+00	 1.236293751769691e+00	 9.806977854006213e+00
 1.761556571969129e+00	 8.668720566125698e-01	 1.072503820025330e+01
 1.744687672109121e+00	 9.073571166345787e-01	 1.066482888392500e+01
 1.726859119923383e+00	 9.473415673134628e-01	 1.059874311806178e+01
 1.708067430854960e+00	 9.867944078380598e-01	 1.052645618886806e+01
 1.688310662226134e+00	 1.025685072137461e+00	 1.044764584386257e+01
 1.667588445218332e+00	 1.063983520824892e+00	 1.036199503948915e+01
 1.645902010950641e+00	 1.101660332786341e+00	 1.026919478037768e+01
 1.623254210373027e+00	 1.138686795872015e+00	 1.016894701575534e+01
 1.599649527731620e+00	 1.175034996142415e+00	 1.006096755540507e+01
 1.575094087408144e+00	 1.210677905119885e+00	 9.944988965144187e+00
 1.549595653983415e+00	 1.245589464501062e+00	 9.820763400166800e+00
 1.774702869306581e+00	 8.733414246634675e-01	 1.073751446452504e+01
 1.757708078756272e+00	 9.141286201068685e-01	 1.067704853381652e+01
 1.739746474103564e+00	 9.544114702163639e-01	 1.061080196228274e+01
 1.720814544786643e+00	 9.941587428252298e-01	 1.053844598155828e+01
 1.700910333629795e+00	 1.033339643751411e+00	 1.045965500647227e+01
 1.680033469061990e+00	 1.071923909427571e+00	 1.037410944556951e+01
 1.658185191390005e+00	 1.109881899173237e+00	 1.028149859487124e+01
 1.635368372840116e+00	 1.147184686563073e+00	 1.018152357912039e+01
 1.611587531123863e+00	 1.183804149338989e+00	 1.007390030178146e+01
 1.586848836328530e+00	 1.219713057312842e+00	 9.958362362805619e+00
 1.561160110981111e+00	 1.254885157711081e+00	 9.834663901736810e+00
 1.787849128301191e+00	 8.798107738458119e-01	 1.075044597933189e+01
 1.770728447427880e+00	 9.209001038292814e-01	 1.068967969921735e+01
 1.752633790696398e+00	 9.614813524989267e-01	 1.062322671949384e+01
 1.733561621540131e+00	 1.001523056333147e+00	 1.055075591775342e+01
 1.713509968285415e+00	 1.040994193039420e+00	 1.047193994824545e+01
 1.692478456608756e+00	 1.079864274870510e+00	 1.038645809456801e+01
 1.670468336004593e+00	 1.118103441580136e+00	 1.029399919821350e+01
 1.647482499975440e+00	 1.155682552468055e+00	 1.019426462630662e+01
 1.623525499698146e+00	 1.192573276958207e+00	 1.008697123901901e+01
 1.598603550965414e+00	 1.228748183152560e+00	 9.971854315031011e+00
 1.572724534250239e+00	 1.264180823807955e+00	 9.848670392146127e+00
 1.800995338216907e+00	 8.862800988765028e-01	 1.076376182420656e+01
 1.783748767490742e+00	 9.276715622719288e-01	 1.070266064282179e+01
 1.765521059177368e+00	 9.685512083875137e-01	 1.063596424496649e+01
 1.746308650705469e+00	 1.008887342347659e+00	 1.056334082360004e+01
 1.726109555903467e+00	 1.048648713750238e+00	 1.048446281630491e+01
 1.704923397695415e+00	 1.087804610668973e+00	 1.039900977974243e+01
 1.682751434763369e+00	 1.126324953292607e+00	 1.030667133358265e+01
 1.659596581885995e+00	 1.164180386646806e+00	 1.020715013668352e+01
 1.635463423705317e+00	 1.201342371838334e+00	 1.010016485555267e+01
 1.610358221719277e+00	 1.237783275260038e+00	 9.985453083140449e+00
 1.584288914346650e+00	 1.273476455199893e+00	 9.862774164892214e+00
 1.814141488317677e+00	 8.927493944724415e-01	 1.077739313346962e+01
 1.796769028311650e+00	 9.344429899049237e-01	 1.071593141582656e+01
 1.778408269021958e+00	 9.756210321084881e-01	 1.064896293329133e+01
 1.759055621872693e+00	 1.016251594854609e+00	 1.057615683339342e+01
 1.738709086194424e+00	 1.056303199632616e+00	 1.049718685358956e+01
 1.717368282158750e+00	 1.095744910338224e+00	 1.041173419740224e+01
 1.695034477635295e+00	 1.134546427596219e+00	 1.031949047463851e+01
 1.671710608678773e+00	 1.172678182159173e+00	 1.022016066823982e+01
 1.647401293396220e+00	 1.210111426817637e+00	 1.011346608767507e+01
 1.622112838990602e+00	 1.246818326256276e+00	 9.999147266917328e+00
 1.595853241826199e+00	 1.282772044295103e+00	 9.876966764042553e+00
 1.827287567867451e+00	 8.992186553505289e-01	 1.079127302228576e+01
 1.809789219257397e+00	 9.412143811983774e-01	 1.072943379356252e+01
 1.791295409705652e+00	 9.826908178882128e-01	 1.066217266296920e+01
 1.771802524631845e+00	 1.023615807839846e+00	 1.058916134247914e+01
 1.751308548868758e+00	 1.063957644435306e+00	 1.051007635938866e+01
 1.729813099835545e+00	 1.103685167393529e+00	 1.042460191437153e+01
 1.707317454589336e+00	 1.142767857776545e+00	 1.033243279918776e+01
 1.683824570460768e+00	 1.181175932065001e+00	 1.023327733670643e+01
 1.659339099021701e+00	 1.218880434734381e+00	 1.012686030335865e+01
 1.633867393179869e+00	 1.255853328762274e+00	 1.001292579236151e+01
 1.607417507244739e+00	 1.292067583501795e+00	 9.891239975146124e+00
 1.840433566130177e+00	 9.056878762276653e-01	 1.080533651588252e+01
 1.822809329694776e+00	 9.479857306224022e-01	 1.074311121387912e+01
 1.804182470703934e+00	 9.897605599530511e-01	 1.067554474337158e+01
 1.784549348572964e+00	 1.030979975289214e+00	 1.060231296216882e+01
 1.763907933636944e+00	 1.071612041907058e+00	 1.052309665156386e+01
 1.742257840562584e+00	 1.111625375350152e+00	 1.043758433684334e+01
 1.719600355594455e+00	 1.150989237119153e+00	 1.034547516397530e+01
 1.695938457338973e+00	 1.189673629424137e+00	 1.024648179557219e+01
 1.671276830832606e+00	 1.227649388426834e+00	 1.014033328676953e+01
 1.645621874687561e+00	 1.264888275399031e+00	 1.002677789996621e+01
 1.618981701158121e+00	 1.301363065228178e+00	 9.905585816533584e+00
 1.503337677589890e+00	 1.208406572365371e+00	 9.766404726389517e+00
 1.477694684641512e+00	 1.241542189619976e+00	 9.630935233158283e+00
 1.451156631409414e+00	 1.273920882760728e+00	 9.486174079464577e+00
 1.423735734706447e+00	 1.305520673096032e+00	 9.332059876954709e+00
 1.395445736040656e+00	 1.336320817023064e+00	 9.168582937905652e+00
 1.366301868460640e+00	 1.366301868460640e+00	 8.995786306857203e+00
 1.336320817023063e+00	 1.395445736040656e+00	 8.813766221309631e+00
 1.305520673096032e+00	 1.423735734706447e+00	 8.622671990065312e+00
 1.273920882760727e+00	 1.451156631409415e+00	 8.422705288583860e+00
 1.241542189619975e+00	 1.477694684641513e+00	 8.214118881567837e+00
 1.208406572365371e+00	 1.503337677589890e+00	 7.997214793588528e+00
 1.514902175060389e+00	 1.217702298110054e+00	 9.779788854554919e+00
 1.489061922154348e+00	 1.251092812695976e+00	 9.645020293639075e+00
 1.462319723670283e+00	 1.283720580492737e+00	 9.501083820079595e+00
 1.434687890399449e+00	 1.315563453736617e+00	 9.347906288769561e+00
 1.406180269557087e+00	 1.346600529253643e+00	 9.185465679234968e+00
 1.376812211372734e+00	 1.376812211372734e+00	 9.013792211522698e+00
 1.346600529253642e+00	 1.406180269557087e+00	 8.832968896763036e+00
 1.315563453736616e+00	 1.434687890399449e+00	 8.643131509735555e+00
 1.283720580492737e+00	 1.462319723670283e+00	 8.444467981473283e+00
 1.251092812695975e+00	 1.489061922154348e+00	 8.237217220733683e+00
 1.217702298110054e+00	 1.514902175060389e+00	 8.021667383735220e+00
 1.526466676578907e+00	 1.226998027108758e+00	 9.793316499821005e+00
 1.500429163646209e+00	 1.260643439115263e+00	 9.659229684005524e+00
 1.473482819838770e+00	 1.293520281655245e+00	 9.516101064702202e+00
 1.445640049926278e+00	 1.325606237892797e+00	 9.363845292404893e+00
 1.416914806831205e+00	 1.356880245082748e+00	 9.202427215218989e+00
 1.387322557964068e+00	 1.387322557964069e+00	 9.031863082871011e+00
 1.356880245082748e+00	 1.416914806831205e+00	 8.852221195519672e+00
 1.325606237892796e+00	 1.445640049926279e+00	 8.663621983348461e+00
 1.293520281655244e+00	 1.473482819838770e+00	 8.466237513452334e+00
 1.260643439115263e+00	 1.500429163646209e+00	 8.260290431187830e+00
 1.226998027108757e+00	 1.526466676578907e+00	 8.046052353626983e+00
 1.538031172701298e+00	 1.236293751769691e+00	 9.806977854006213e+00
 1.511796399834000e+00	 1.270194061077886e+00	 9.673556066005261e+00
 1.484645910798441e+00	 1.303319978244912e+00	 9.531219887382363e+00
 1.456592204342702e+00	 1.335649017362756e+00	 9.379871326496074e+00
 1.427649339096438e+00	 1.367159956115121e+00	 9.219461318196654e+00
 1.397832899651095e+00	 1.397832899651095e+00	 9.049991019767930e+00
 1.367159956115120e+00	 1.427649339096439e+00	 8.871512566241892e+00
 1.335649017362756e+00	 1.456592204342703e+00	 8.684129269618472e+00
 1.303319978244911e+00	 1.484645910798441e+00	 8.487995256797191e+00
 1.270194061077885e+00	 1.511796399834000e+00	 8.283314551462826e+00
 1.236293751769691e+00	 1.538031172701298e+00	 8.070339615465361e+00
 1.549595653983415e+00	 1.245589464501062e+00	 9.820763400166800e+00
 1.523163621434620e+00	 1.279744670783892e+00	 9.687992318938104e+00
 1.495808987432858e+00	 1.313119662258399e+00	 9.546434537637582e+00
 1.467544344704487e+00	 1.345691783944678e+00	 9.395978994362521e+00
 1.438383857586212e+00	 1.377439653955503e+00	 9.236561945200418e+00
 1.408343227850264e+00	 1.408343227850265e+00	 9.068168355860220e+00
 1.377439653955501e+00	 1.438383857586212e+00	 8.890832771620110e+00
 1.345691783944678e+00	 1.467544344704487e+00	 8.704639648580052e+00
 1.313119662258398e+00	 1.495808987432858e+00	 8.509723139137066e+00
 1.279744670783891e+00	 1.523163621434620e+00	 8.306266334736126e+00
 1.245589464501063e+00	 1.549595653983416e+00	 8.094499978999000e+00
 1.561160110981111e+00	 1.254885157711081e+00	 9.834663901736810e+00
 1.534530819164973e+00	 1.289295260433329e+00	 9.702531531521236e+00
 1.506972040625587e+00	 1.322919325692369e+00	 9.561739433873178e+00
 1.478496462067399e+00	 1.355734529436747e+00	 9.412163057824326e+00
 1.449118353533953e+00	 1.387719330208632e+00	 9.253723231029046e+00
 1.418853533978028e+00	 1.418853533978028e+00	 9.086387650790398e+00
 1.387719330208631e+00	 1.449118353533954e+00	 8.910171876649603e+00
 1.355734529436746e+00	 1.478496462067399e+00	 8.725139805887034e+00
 1.322919325692368e+00	 1.506972040625587e+00	 8.531403622784781e+00
 1.289295260433328e+00	 1.534530819164974e+00	 8.329123222255141e+00
 1.254885157711081e+00	 1.561160110981111e+00	 8.118505118166553e+00
 1.572724534250239e+00	 1.264180823807955e+00	 9.848670392146127e+00
 1.545897983741961e+00	 1.298845822226245e+00	 9.717166994112350e+00
 1.518135061260190e+00	 1.332718960543483e+00	 9.577129157092255e+00
 1.489448547487204e+00	 1.365777245637144e+00	 9.428418431291060e+00
 1.459852818173088e+00	 1.397998976479250e+00	 9.270939481625181e+00
 1.429363809450838e+00	 1.429363809450839e+00	 9.104641681798338e+00
 1.397998976479250e+00	 1.459852818173088e+00	 8.929520237423283e+00
 1.365777245637144e+00	 1.489448547487205e+00	 8.745616817803187e+00
 1.332718960543482e+00	 1.518135061260191e+00	 8.553019684977359e+00
 1.298845822226245e+00	 1.545897983741961e+00	 8.351863317931905e+00
 1.264180823807955e+00	 1.572724534250238e+00	 8.142327539207919e+00
 1.584288914346650e+00	 1.273476455199893e+00	 9.862774164892214e+00
 1.557265105882484e+00	 1.308396348362689e+00	 9.731892191272673e+00
 1.529298040220234e+00	 1.342518558808402e+00	 9.592598444880501e+00
 1.500400592019669e+00	 1.375819924344055e+00	 9.444740176108898e+00
 1.470587242737042e+00	 1.408278584372098e+00	 9.288205167742488e+00
 1.439874045685145e+00	 1.439874045685146e+00	 9.122923435689868e+00
 1.408278584372098e+00	 1.470587242737043e+00	 8.948868490414304e+00
 1.375819924344054e+00	 1.500400592019670e+00	 8.766058136848654e+00
 1.342518558808402e+00	 1.529298040220234e+00	 8.574554798979998e+00
 1.308396348362688e+00	 1.557265105882484e+00	 8.374465364048111e+00
 1.273476455199893e+00	 1.584288914346650e+00	 8.165940550169001e+00
 1.595853241826199e+00	 1.282772044295103e+00	 9.876966764042553e+00
 1.568632176303445e+00	 1.317946831042709e+00	 9.746700794652638e+00
 1.540460968389281e+00	 1.352318112483789e+00	 9.608142185651932e+00
 1.511352586720562e+00	 1.385862557355662e+00	 9.461123495152975e+00
 1.481321618459244e+00	 1.418558145491916e+00	 9.305514918887338e+00
 1.450384234097401e+00	 1.450384234097401e+00	 9.141226101153773e+00
 1.418558145491915e+00	 1.481321618459244e+00	 8.968207542223544e+00
 1.385862557355662e+00	 1.511352586720562e+00	 8.786451578069030e+00
 1.352318112483789e+00	 1.540460968389282e+00	 8.595992916009649e+00
 1.317946831042709e+00	 1.568632176303445e+00	 8.396908718013972e+00
 1.282772044295103e+00	 1.595853241826199e+00	 8.189318231729306e+00
 1.607417507244739e+00	 1.292067583501795e+00	 9.891239975146124e+00
 1.579999185721744e+00	 1.327497262466353e+00	 9.761586656183972e+00
 1.551623836650896e+00	 1.362117613566305e+00	 9.623755413142527e+00
 1.522304522645647e+00	 1.395905136470149e+00	 9.477563727652671e+00
 1.492055936573117e+00	 1.428837651443444e+00	 9.322863517521554e+00
 1.460894366104057e+00	 1.460894366104057e+00	 9.159543061409652e+00
 1.428837651443443e+00	 1.492055936573118e+00	 8.987528559768652e+00
 1.395905136470148e+00	 1.522304522645648e+00	 8.806785305895964e+00
 1.362117613566304e+00	 1.551623836650896e+00	 8.617318447937489e+00
 1.327497262466353e+00	 1.579999185721745e+00	 8.419173330128189e+00
 1.292067583501795e+00	 1.607417507244739e+00	 8.212435409286256e+00
 1.618981701158121e+00	 1.301363065228178e+00	 9.905585816533584e+00
 1.591366124854286e+00	 1.337047634833670e+00	 9.776543801562905e+00
 1.562786635888641e+00	 1.371917054052611e+00	 9.639433301139235e+00
 1.533256390850693e+00	 1.405947653485699e+00	 9.494056344238135e+00
 1.502790188312090e+00	 1.439117093831422e+00	 9.340245893513107e+00
 1.471404433121564e+00	 1.471404433121565e+00	 9.177867887170345e+00
 1.439117093831422e+00	 1.502790188312090e+00	 9.006822960892839e+00
 1.405947653485699e+00	 1.533256390850694e+00	 8.827047821569490e+00
 1.371917054052610e+00	 1.562786635888642e+00	 8.638516250730833e+00
 1.337047634833670e+00	 1.591366124854286e+00	 8.441239722288982e+00
 1.301363065228178e+00	 1.618981701158121e+00	 8.235267626233092e+00
 1.208406572365371e+00	 1.503337677589890e+00	 7.997214793588528e+00
 1.174537180395669e+00	 1.528074940881948e+00	 7.771936130619631e+00
 1.139958270817220e+00	 1.551897360966147e+00	 7.538554475276470e+00
 1.104695124050098e+00	 1.574797405047172e+00	 7.297946731182117e+00
 1.068773961727374e+00	 1.596769131566166e+00	 7.051045499586447e+00
 1.032221864511472e+00	 1.617808190139118e+00	 6.798830716385013e+00
 9.950666874472238e-01	 1.637911814921611e+00	 6.542320982010823e+00
 9.573369733799303e-01	 1.657078811545492e+00	 6.282564718417651e+00
 9.190618649712032e-01	 1.675309537819501e+00	 6.020631285077910e+00
 8.802710158444024e-01	 1.692605878429240e+00	 5.757602180782113e+00
 8.409945013854322e-01	 1.708971213911920e+00	 5.494562450351632e+00
 1.217702298110054e+00	 1.514902175060389e+00	 8.021667383735220e+00
 1.183572364211580e+00	 1.539829730941159e+00	 7.797785165620954e+00
 1.148727454705886e+00	 1.563835406138682e+00	 7.565860721675772e+00
 1.113193044483922e+00	 1.586911609911249e+00	 7.326747957010360e+00
 1.076995556889963e+00	 1.609052354994264e+00	 7.081354445770569e+00
 1.040162280905762e+00	 1.630253257538177e+00	 6.830633307061005e+00
 1.002721285852451e+00	 1.650511530422170e+00	 6.575574789654153e+00
 9.647013341425719e-01	 1.669825970090350e+00	 6.317197695495061e+00
 9.261317926190918e-01	 1.688196937103913e+00	 6.056540769658961e+00
 8.870425430173231e-01	 1.705626330646489e+00	 5.794654179327537e+00
 8.474638920795503e-01	 1.722117557260229e+00	 5.532591196809161e+00
 1.226998027108757e+00	 1.526466676578907e+00	 8.046052353626983e+00
 1.192607551190254e+00	 1.551584525114940e+00	 7.823508576260594e+00
 1.157496641664129e+00	 1.575773455489876e+00	 7.592966815908222e+00
 1.121690967892286e+00	 1.599025819015588e+00	 7.355261827296339e+00
 1.085217154930273e+00	 1.621335582721735e+00	 7.111280934830361e+00
 1.048102700079251e+00	 1.642698329293210e+00	 6.861956078276862e+00
 1.010375886936732e+00	 1.663111250332794e+00	 6.608255574500045e+00
 9.720656974825767e-01	 1.682573133096854e+00	 6.351175722530518e+00
 9.332017227411892e-01	 1.701084340899041e+00	 6.091732376910233e+00
 8.938140725599177e-01	 1.718646787421024e+00	 5.830952609242679e+00
 8.539332850375116e-01	 1.735263905209901e+00	 5.569866570469324e+00
 1.236293751769691e+00	 1.538031172701298e+00	 8.070339615465361e+00
 1.201642733952688e+00	 1.563339313803775e+00	 7.849071378588910e+00
 1.166265824530217e+00	 1.587711499270573e+00	 7.619836027518392e+00
 1.130188887335034e+00	 1.611140022467182e+00	 7.383452904141602e+00
 1.093438749133876e+00	 1.633618804717538e+00	 7.140793731880235e+00
 1.056043115547206e+00	 1.655143395241000e+00	 6.892774763302300e+00
 1.018030484448818e+00	 1.675710964363958e+00	 6.640348642548062e+00
 9.794300573857903e-01	 1.695320290155044e+00	 6.384496108568093e+00
 9.402716495638580e-01	 1.713971738680371e+00	 6.126217662929298e+00
 9.005855989422986e-01	 1.731667238119637e+00	 5.866525321040952e+00
 8.604026749762183e-01	 1.748410247024885e+00	 5.606434558374380e+00
 1.245589464501063e+00	 1.549595653983416e+00	 8.094499978999000e+00
 1.210677905119885e+00	 1.575094087408144e+00	 7.874439632321915e+00
 1.175034996142414e+00	 1.599649527731621e+00	 7.646432721760760e+00
 1.138686795872015e+00	 1.623254210373027e+00	 7.411286806645222e+00
 1.101660332786340e+00	 1.645902010950641e+00	 7.169862533422965e+00
 1.063983520824891e+00	 1.667588445218332e+00	 6.923065818652229e+00
 1.025685072137460e+00	 1.688310662226134e+00	 6.671839737187531e+00
 9.867944078380592e-01	 1.708067430854960e+00	 6.417156241707499e+00
 9.473415673134616e-01	 1.726859119923383e+00	 6.160007837652573e+00
 9.073571166345781e-01	 1.744687672109121e+00	 5.901399332882611e+00
 8.668720566125701e-01	 1.761556571969129e+00	 5.642339774212069e+00
 1.254885157711081e+00	 1.561160110981111e+00	 8.118505118166553e+00
 1.219713057312841e+00	 1.586848836328531e+00	 7.899580402062321e+00
 1.183804149338989e+00	 1.611587531123863e+00	 7.672722318881682e+00
 1.147184686563072e+00	 1.635368372840115e+00	 7.438730171606970e+00
 1.109881899173236e+00	 1.658185191390005e+00	 7.198457932692452e+00
 1.071923909427571e+00	 1.680033469061990e+00	 6.952806397126556e+00
 1.033339643751411e+00	 1.700910333629796e+00	 6.702715022814424e+00
 9.941587428252290e-01	 1.720814544786643e+00	 6.449153585985615e+00
 9.544114702163635e-01	 1.739746474103565e+00	 6.193113777483283e+00
 9.141286201068681e-01	 1.757708078756272e+00	 5.935600861213137e+00
 8.733414246634674e-01	 1.774702869306581e+00	 5.677625509001903e+00
 1.264180823807955e+00	 1.572724534250238e+00	 8.142327539207919e+00
 1.228748183152559e+00	 1.598603550965414e+00	 7.924461720227685e+00
 1.192573276958206e+00	 1.623525499698147e+00	 7.698671255193618e+00
 1.155682552468054e+00	 1.647482499975440e+00	 7.465750615960291e+00
 1.118103441580135e+00	 1.670468336004593e+00	 7.226551386521805e+00
 1.079864274870509e+00	 1.692478456608757e+00	 6.981974322036601e+00
 1.040994193039419e+00	 1.713509968285416e+00	 6.732961069169482e+00
 1.001523056333147e+00	 1.733561621540132e+00	 6.480485678395468e+00
 9.614813524989264e-01	 1.752633790696398e+00	 6.225546037363398e+00
 9.209001038292806e-01	 1.770728447427881e+00	 5.969155350052906e+00
 8.798107738458119e-01	 1.787849128301191e+00	 5.712333779549985e+00
 1.273476455199893e+00	 1.584288914346650e+00	 8.165940550169001e+00
 1.237783275260037e+00	 1.610358221719277e+00	 7.949052551598491e+00
 1.201342371838334e+00	 1.635463423705318e+00	 7.724246945850432e+00
 1.164180386646805e+00	 1.659596581885995e+00	 7.492316700846740e+00
 1.126324953292606e+00	 1.682751434763369e+00	 7.254115183659395e+00
 1.087804610668972e+00	 1.704923397695415e+00	 7.010548062557884e+00
 1.048648713750237e+00	 1.726109555903467e+00	 6.762564836360679e+00
 1.008887342347658e+00	 1.746308650705469e+00	 6.511150126035316e+00
 9.685512083875132e-01	 1.765521059177368e+00	 6.257314862318318e+00
 9.276715622719285e-01	 1.783748767490743e+00	 6.002087499007053e+00
 8.862800988765027e-01	 1.800995338216907e+00	 5.746505374786668e+00
 1.282772044295103e+00	 1.595853241826199e+00	 8.189318231729306e+00
 1.246818326256276e+00	 1.622112838990602e+00	 7.973322759404097e+00
 1.210111426817636e+00	 1.647401293396220e+00	 7.749417749237473e+00
 1.172678182159172e+00	 1.671710608678773e+00	 7.518397897249190e+00
 1.134546427596219e+00	 1.695034477635296e+00	 7.281122414459203e+00
 1.095744910338224e+00	 1.717368282158750e+00	 7.038506710151918e+00
 1.056303199632615e+00	 1.738709086194423e+00	 6.791513660535347e+00
 1.016251594854609e+00	 1.759055621872693e+00	 6.541144603381486e+00
 9.756210321084874e-01	 1.778408269021958e+00	 6.288430198500384e+00
 9.344429899049229e-01	 1.796769028311650e+00	 6.034421290060079e+00
 8.927493944724416e-01	 1.814141488317677e+00	 5.780179900093874e+00
 1.292067583501795e+00	 1.607417507244739e+00	 8.212435409286256e+00
 1.255853328762274e+00	 1.633867393179869e+00	 7.997243072869720e+00
 1.218880434734381e+00	 1.659339099021702e+00	 7.774152932895619e+00
 1.181175932065001e+00	 1.683824570460768e+00	 7.543964553104938e+00
 1.142767857776545e+00	 1.707317454589337e+00	 7.307546941876955e+00
 1.103685167393528e+00	 1.729813099835545e+00	 7.065829956003860e+00
 1.063957644435305e+00	 1.751308548868758e+00	 6.819795240169710e+00
 1.023615807839845e+00	 1.771802524631845e+00	 6.570466849678865e+00
 9.826908178882120e-01	 1.791295409705652e+00	 6.318901703757022e+00
 9.412143811983766e-01	 1.809789219257397e+00	 6.066180013216458e+00
 8.992186553505291e-01	 1.827287567867451e+00	 5.813395819723162e+00
 1.301363065228178e+00	 1.618981701158121e+00	 8.235267626233092e+00
 1.264888275399030e+00	 1.645621874687561e+00	 8.020785056150787e+00
 1.227649388426834e+00	 1.671276830832607e+00	 7.798422640902185e+00
 1.189673629424137e+00	 1.695938457338974e+00	 7.568987861825551e+00
 1.150989237119153e+00	 1.719600355594456e+00	 7.333363373706206e+00
 1.111625375350151e+00	 1.742257840562584e+00	 7.092498069424726e+00
 1.071612041907057e+00	 1.763907933636944e+00	 6.847397622944274e+00
 1.030979975289214e+00	 1.784549348572964e+00	 6.599114666442368e+00
 9.897605599530503e-01	 1.804182470703934e+00	 6.348738757746689e+00
 9.479857306224013e-01	 1.822809329694776e+00	 6.097386291044639e+00
 9.056878762276651e-01	 1.840433566130176e+00	 5.846190497399920e+00
 8.409945013854322e-01	 1.708971213911920e+00	 5.494562450351632e+00
 8.012655243155109e-01	 1.724409337557121e+00	 5.232042667581059e+00
 7.611119891663416e-01	 1.738927692802811e+00	 4.971020538238482e+00
 7.205646886507253e-01	 1.752533917918023e+00	 4.713328890598056e+00
 6.796544872495266e-01	 1.765236971771615e+00	 4.460819562802524e+00
 6.384122376849063e-01	 1.777047079428316e+00	 4.215347295736257e+00
 5.968686998193392e-01	 1.787975674284199e+00	 3.978754471307771e+00
 5.550544623447694e-01	 1.798035337177901e+00	 3.752856846797480e+00
 5.129998675914502e-01	 1.807239732918643e+00	 3.539430407779209e+00
 4.707349397497000e-01	 1.815603544672573e+00	 3.340199433989657e+00
 4.282893167605222e-01	 1.823142406645302e+00	 3.156825845088497e+00
 8.474638920795503e-01	 1.722117557260229e+00	 5.532591196809163e+00
 8.074292979405404e-01	 1.737674439414771e+00	 5.270978712589206e+00
 7.669668797889307e-01	 1.752304477807102e+00	 5.010886598982689e+00
 7.261076672119189e-01	 1.766015369464010e+00	 4.754109328942807e+00
 6.848827621168465e-01	 1.778816142170903e+00	 4.502460590695633e+00
 6.433232545618970e-01	 1.790717099649317e+00	 4.257757432588106e+00
 6.014601410312407e-01	 1.801729763247288e+00	 4.021805235495012e+00
 5.593242455217809e-01	 1.811866810582170e+00	 3.796383661649736e+00
 5.169461437735808e-01	 1.821142011580397e+00	 3.583233701066047e+00
 4.743560909394629e-01	 1.829570162359090e+00	 3.384045909020102e+00
 4.315839529516940e-01	 1.837167017390746e+00	 3.200449901043897e+00
 8.539332850375116e-01	 1.735263905209901e+00	 5.569866570469324e+00
 8.135930737223799e-01	 1.750939545915384e+00	 5.309201183905476e+00
 7.728217724601693e-01	 1.765681267493491e+00	 5.050111431690574e+00
 7.316506477125579e-01	 1.779496825728795e+00	 4.794344830645197e+00
 6.901110388134490e-01	 1.792395317323264e+00	 4.543666681269595e+00
 6.482342731571338e-01	 1.804387124655278e+00	 4.299844658971597e+00
 6.060515838495607e-01	 1.815483857024858e+00	 4.064634219445120e+00
 5.635940301926756e-01	 1.825698288828111e+00	 3.839764962187928e+00
 5.208924213364347e-01	 1.835044295108718e+00	 3.626928069122323e+00
 4.779772433962463e-01	 1.843536784934809e+00	 3.427764908284955e+00
 4.348785902957209e-01	 1.851191633045813e+00	 3.243856866237748e+00
 8.604026749762183e-01	 1.748410247024885e+00	 5.606434558374378e+00
 8.197568466275470e-01	 1.764204646225886e+00	 5.346771649342407e+00
 7.786766623988444e-01	 1.779058050937662e+00	 5.088765565025202e+00
 7.371936256261629e-01	 1.792978275702541e+00	 4.834108573131074e+00
 6.953393130698574e-01	 1.805974486139023e+00	 4.584507682879744e+00
 6.531452894602180e-01	 1.818057143282288e+00	 4.341669873490934e+00
 6.106430245248660e-01	 1.829237944384306e+00	 4.107288127850930e+00
 5.678638128706814e-01	 1.839529760619885e+00	 3.883028407425904e+00
 5.248386970574066e-01	 1.848946572149907e+00	 3.670517678364158e+00
 4.815983941629303e-01	 1.857503400993456e+00	 3.471333072685407e+00
 4.381732261021031e-01	 1.865216242156835e+00	 3.286992243135073e+00
 8.668720566125701e-01	 1.761556571969129e+00	 5.642339774212070e+00
 8.259206116225591e-01	 1.777469729513201e+00	 5.383749838861641e+00
 7.845315448237447e-01	 1.792434817215295e+00	 5.126917423105482e+00
 7.427365964262537e-01	 1.806459708375415e+00	 4.873471551154960e+00
 7.005675806165935e-01	 1.819553637528503e+00	 4.625051361614901e+00
 6.580562994607525e-01	 1.831727144366439e+00	 4.383292160696669e+00
 6.152344593077244e-01	 1.842992014093028e+00	 4.149812276062645e+00
 5.721335900690260e-01	 1.853361214661656e+00	 3.926200836456637e+00
 5.287849677138907e-01	 1.862848831350267e+00	 3.714006577255161e+00
 4.852195402823951e-01	 1.871469999128757e+00	 3.514727747245177e+00
 4.414678576803406e-01	 1.879240833270148e+00	 3.329803167883355e+00
 8.733414246634674e-01	 1.774702869306581e+00	 5.677625509001901e+00
 8.320843636739330e-01	 1.790734784944258e+00	 5.420193712481664e+00
 7.903864149536578e-01	 1.805811555402070e+00	 5.164633403314911e+00
 7.482795555863507e-01	 1.819941112737581e+00	 4.912502657530061e+00
 7.057958371841797e-01	 1.833132760402026e+00	 4.665363478339058e+00
 6.629672991483389e-01	 1.845397116743820e+00	 4.424768858222960e+00
 6.198258844487028e-01	 1.856746054918419e+00	 4.192250641522900e+00
 5.764033583009375e-01	 1.867192639657585e+00	 3.969308298820200e+00
 5.327312300832817e-01	 1.876751061356101e+00	 3.757398700690934e+00
 4.888406787975209e-01	 1.885436567934440e+00	 3.557926955051963e+00
 4.447624823399336e-01	 1.893265394932085e+00	 3.372238349817007e+00
 8.798107738458119e-01	 1.787849128301191e+00	 5.712333779549985e+00
 8.382480977481868e-01	 1.803999801685982e+00	 5.456159525196439e+00
 7.962412680073720e-01	 1.819188254573673e+00	 5.201977950685832e+00
 7.538224985799749e-01	 1.833422477779206e+00	 4.951268760305288e+00
 7.110240785031388e-01	 1.846711843669915e+00	 4.705507862341498e+00
 6.678782845125789e-01	 1.859067049250523e+00	 4.466155620970023e+00
 6.244172961983688e-01	 1.870500055627877e+00	 4.234645912937665e+00
 5.806731140796434e-01	 1.881024024311833e+00	 4.012376083535110e+00
 5.366774809429741e-01	 1.890653250813712e+00	 3.800697874189661e+00
 4.924618067511876e-01	 1.899403096004228e+00	 3.600909372345950e+00
 4.480570973903820e-01	 1.907289915688981e+00	 3.414248013624674e+00
 8.862800988765027e-01	 1.800995338216907e+00	 5.746505374786668e+00
 8.444118088118379e-01	 1.817264768905302e+00	 5.491701889056950e+00
 8.020960992036750e-01	 1.832564903805781e+00	 5.239013629032646e+00
 7.593654208806463e-01	 1.846903792490453e+00	 4.989834776569258e+00
 7.162523003039928e-01	 1.860290876242493e+00	 4.745546481768722e+00
 6.727892515430750e-01	 1.872736930722637e+00	 4.507506482481988e+00
 6.290086908072897e-01	 1.884254004988797e+00	 4.277039537298862e+00
 5.849428539183718e-01	 1.894855357328564e+00	 4.055428746860954e+00
 5.406237170703621e-01	 1.904555388369402e+00	 3.843907817901055e+00
 4.960829211862753e-01	 1.913369571931849e+00	 3.643654304697036e+00
 4.513517001411860e-01	 1.921314384087171e+00	 3.455783844044095e+00
 8.927493944724416e-01	 1.814141488317677e+00	 5.780179900093874e+00
 8.505754918314032e-01	 1.830529675769143e+00	 5.526873832559964e+00
 8.079509037613544e-01	 1.845941492174077e+00	 5.275801188999615e+00
 7.649083179618851e-01	 1.860385045861490e+00	 5.028263743052824e+00
 7.214804983172648e-01	 1.873869847030084e+00	 4.785539511000943e+00
 6.777001962294289e-01	 1.886406749996252e+00	 4.548873913661780e+00
 6.336000645260328e-01	 1.898007891768577e+00	 4.319471764866694e+00
 5.892125743303502e-01	 1.908686627411939e+00	 4.098490138856989e+00
 5.445699352428404e-01	 1.918457462669473e+00	 3.887032150439918e+00
 4.997040191456646e-01	 1.927335984311028e+00	 3.686141664215698e+00
 4.546462879018455e-01	 1.935338788672990e+00	 3.496798932956090e+00
 8.992186553505291e-01	 1.827287567867451e+00	 5.813395819723161e+00
 8.567391417734005e-01	 1.843794511444431e+00	 5.561726857478259e+00
 8.138056768991981e-01	 1.859318008754242e+00	 5.312399633177401e+00
 7.704511852972115e-01	 1.873866226882480e+00	 5.066616883690745e+00
 7.267086682734767e-01	 1.887448744943010e+00	 4.825545395126696e+00
 6.826111145612430e-01	 1.900076495907461e+00	 4.590308878957464e+00
 6.381914136051653e-01	 1.911761704734611e+00	 4.361981692215053e+00
 5.934822718288069e-01	 1.922517823266122e+00	 4.141583428796723e+00
 5.485161322378036e-01	 1.932359462360229e+00	 3.930074392556271e+00
 5.033250976722351e-01	 1.941302321735491e+00	 3.728351947745635e+00
 4.579408579818608e-01	 1.949363117992770e+00	 3.537247728757510e+00
 9.056878762276651e-01	 1.840433566130176e+00	 5.846190497399920e+00
 8.629027536043467e-01	 1.857059265098094e+00	 5.596310993261119e+00
 8.196604138359946e-01	 1.872694442621957e+00	 5.348866278435578e+00
 7.759940183601461e-01	 1.887347324543590e+00	 5.104953674294032e+00
 7.319368059031509e-01	 1.901027558891593e+00	 4.865620911660118e+00
 6.875220025281183e-01	 1.913746157292350e+00	 4.631860890145813e+00
 6.427827342952547e-01	 1.925515432654296e+00	 4.404607303435751e+00
 5.977519429269694e-01	 1.936348933595271e+00	 4.184731129495487e+00
 5.524623048326459e-01	 1.946261376087971e+00	 3.973037970646946e+00
 5.069461538088672e-01	 1.955268572798964e+00	 3.770266215988396e+00
 4.612354076907317e-01	 1.963387360592848e+00	 3.577085987898987e+00
 4.282893167605222e-01	 1.823142406645302e+00	 3.156825845088497e+00
 3.856892073858478e-01	 1.829873278754343e+00	 2.988711429501782e+00
 3.429662982768709e-01	 1.835812937996986e+00	 2.835690284587685e+00
 3.001487493340093e-01	 1.840979461280257e+00	 2.699911298598979e+00
 2.572640992986176e-01	 1.845391598947249e+00	 2.583419839091946e+00
 2.143392184869364e-01	 1.849068705039692e+00	 2.488150182437203e+00
 1.714002659640361e-01	 1.852030668220261e+00	 2.415919572619004e+00
 1.284726511608891e-01	 1.854297843677920e+00	 2.368423835063695e+00
 8.558099990728006e-02	 1.855890986314603e+00	 2.347234456642659e+00
 4.274912482501691e-02	 1.856831185485652e+00	 2.353797031670690e+00
 0.000000000000000e+00	 1.857139801539814e+00	 2.389430965471260e+00
 4.315839529516940e-01	 1.837167017390746e+00	 3.200449901043896e+00
 3.886561401843551e-01	 1.843949667057867e+00	 3.031877991878227e+00
 3.456045830397630e-01	 1.849935017415582e+00	 2.878349829912525e+00
 3.024576580397679e-01	 1.855141284428371e+00	 2.742217055718228e+00
 2.592431157688595e-01	 1.859587362677220e+00	 2.625728205334094e+00
 2.159880332445207e-01	 1.863292755085735e+00	 2.531019370748155e+00
 1.727187707617282e-01	 1.866277503311066e+00	 2.460106654014903e+00
 1.294609332147639e-01	 1.868562119125425e+00	 2.414880345131010e+00
 8.623933586883026e-02	 1.870167517088808e+00	 2.397100736227394e+00
 4.307797452551022e-02	 1.871114948787420e+00	 2.408395470667132e+00
 0.000000000000000e+00	 1.871425938885499e+00	 2.450258315089645e+00
 4.348785902957209e-01	 1.851191633045813e+00	 3.243856866237748e+00
 3.916230740211588e-01	 1.858026060289259e+00	 3.074679634737605e+00
 3.482428687260724e-01	 1.864057101778160e+00	 2.920475393701444e+00
 3.047665675538065e-01	 1.869303112534495e+00	 2.783820600952082e+00
 2.612221329320471e-01	 1.873783131377193e+00	 2.667191415641239e+00
 2.176368485795777e-01	 1.877516810111782e+00	 2.572952154981434e+00
 1.740372760213400e-01	 1.880524343389939e+00	 2.503345726679702e+00
 1.304492156149808e-01	 1.882826399567176e+00	 2.460485975049410e+00
 8.689767206117521e-02	 1.884444052861604e+00	 2.446351857549579e+00
 4.340682434133394e-02	 1.885398717090345e+00	 2.462783351233812e+00
 0.000000000000000e+00	 1.885712081233184e+00	 2.511478975124540e+00
 4.381732261021031e-01	 1.865216242156835e+00	 3.286992243135073e+00
 3.945900064733499e-01	 1.872102446952540e+00	 3.117036287866067e+00
 3.508811531812543e-01	 1.878179179551401e+00	 2.961975260687682e+00
 3.070754759905426e-01	 1.883464934032833e+00	 2.824631668515196e+00
 2.632011491719848e-01	 1.887978893453635e+00	 2.707732889353841e+00
 2.192856631455576e-01	 1.891740858501185e+00	 2.613896997456171e+00
 1.753557806660615e-01	 1.894771176821610e+00	 2.545620763565166e+00
 1.314374975544061e-01	 1.897090673353649e+00	 2.505269779510267e+00
 8.755600794663987e-02	 1.898720581973453e+00	 2.495070630853598e+00
 4.373567400390536e-02	 1.899682478728979e+00	 2.517105020066158e+00
 0.000000000000000e+00	 1.899998216915481e+00	 2.573305725728673e+00
 4.414678576803406e-01	 1.879240833270148e+00	 3.329803167883354e+00
 3.975569351180192e-01	 1.886178815551730e+00	 3.158870277732988e+00
 3.535194342507643e-01	 1.892301239201991e+00	 3.002760459222614e+00
 3.093843814643928e-01	 1.897626737357590e+00	 2.864562692134387e+00
 2.651801628724773e-01	 1.902174637313011e+00	 2.747278335985681e+00
 2.209344755959103e-01	 1.905964888637292e+00	 2.653803902473388e+00
 1.766742836190827e-01	 1.909017991970809e+00	 2.586916219318561e+00
 1.324257782259062e-01	 1.911354928835323e+00	 2.549259949471602e+00
 8.821434298754918e-02	 1.912997092764816e+00	 2.543337399055110e+00
 4.406452324464179e-02	 1.913966222037871e+00	 2.571500521616526e+00
 0.000000000000000e+00	 1.914284334264999e+00	 2.635945005153709e+00
 4.447624823399336e-01	 1.893265394932085e+00	 3.372238349817007e+00
 4.005238575322579e-01	 1.900255154590855e+00	 3.200106238715217e+00
 3.561577097800574e-01	 1.906423269196610e+00	 3.042744659623232e+00
 3.116932820897747e-01	 1.911788510942969e+00	 2.903528705001501e+00
 2.671591724173288e-01	 1.916370351361791e+00	 2.785755670312211e+00
 2.225832845840856e-01	 1.920188888903456e+00	 2.692624359099042e+00
 1.779927838035937e-01	 1.923264777202266e+00	 2.627217012334466e+00
 1.334140568223472e-01	 1.925619154362675e+00	 2.592483844059020e+00
 8.887267664622797e-02	 1.927273573576155e+00	 2.591230129079996e+00
 4.439337179496055e-02	 1.928249935351575e+00	 2.626105757469654e+00
 0.000000000000000e+00	 1.928570421614352e+00	 2.699597144784589e+00
 4.480570973903820e-01	 1.907289915688981e+00	 3.414248013624675e+00
 4.034907712931571e-01	 1.914331452573932e+00	 3.240671028229082e+00
 3.587959776145891e-01	 1.920545258001943e+00	 3.081844076994429e+00
 3.140021759811049e-01	 1.925950243223175e+00	 2.941447244130189e+00
 2.691381761903441e-01	 1.930566024006441e+00	 2.823094931197176e+00
 2.242320887635335e-01	 1.934412847683027e+00	 2.730311286466343e+00
 1.793112801427847e-01	 1.937511520880713e+00	 2.666508507596489e+00
 1.344023325365955e-01	 1.939883338286182e+00	 2.634968021063067e+00
 8.953100838500133e-02	 1.941550012747933e+00	 2.638824499182169e+00
 4.472221938627893e-02	 1.942533607004641e+00	 2.681052638703237e+00
 0.000000000000000e+00	 1.942856467296148e+00	 2.764456593827603e+00
 4.513517001411860e-01	 1.921314384087171e+00	 3.455783844044095e+00
 4.064576739778081e-01	 1.928407698004986e+00	 3.280493645570973e+00
 3.614342355998144e-01	 1.934667194084671e+00	 3.119977378298379e+00
 3.163110612528008e-01	 1.940111922632410e+00	 2.978238258892155e+00
 2.711171725753277e-01	 1.944761643653427e+00	 2.859228203965932e+00
 2.258808867877040e-01	 1.948636753359356e+00	 2.766818981467924e+00
 1.806297715598457e-01	 1.951758211370878e+00	 2.704776500268967e+00
 1.353906045615175e-01	 1.954147468956323e+00	 2.676738266103113e+00
 9.018933766619409e-02	 1.955826398620612e+00	 2.686193982446249e+00
 4.505106575001425e-02	 1.956817225331620e+00	 2.736469231590064e+00
 0.000000000000000e+00	 1.957142459643000e+00	 2.830712134180325e+00
 4.546462879018455e-01	 1.935338788672990e+00	 3.496798932956090e+00
 4.094245631633016e-01	 1.942483879388039e+00	 3.319505154279188e+00
 3.640724815811889e-01	 1.948789065911478e+00	 3.157065593454670e+00
 3.186199360192792e-01	 1.954273537604879e+00	 3.013824023521440e+00
 2.730961599560841e-01	 1.958957198709218e+00	 2.894089546146652e+00
 2.275296773100471e-01	 1.962860594315794e+00	 2.802103068716978e+00
 1.819482569779667e-01	 1.966004837037493e+00	 2.742007200000216e+00
 1.363788720899793e-01	 1.968411534723574e+00	 2.717819620527054e+00
 9.084766395213119e-02	 1.970102719534653e+00	 2.733409926667294e+00
 4.537991061758383e-02	 1.971100778667064e+00	 2.792479896980183e+00
 0.000000000000000e+00	 1.971428386987518e+00	 2.898547085980230e+00
 4.579408579818608e-01	 1.949363117992770e+00	 3.537247728757510e+00
 4.123914364267289e-01	 1.956559985227112e+00	 3.357638607839780e+00
 3.667107134041679e-01	 1.962910861949047e+00	 3.193032030270343e+00
 3.209287983949575e-01	 1.968435076574785e+00	 3.048129053387423e+00
 2.750751367164178e-01	 1.973152677580279e+00	 2.927614916409922e+00
 2.291784589840126e-01	 1.977084358935692e+00	 2.836120452664503e+00
 1.832667353203377e-01	 1.980251386245289e+00	 2.778187215902469e+00
 1.373671343148474e-01	 1.982675523938413e+00	 2.758236408108387e+00
 9.150598670513761e-02	 1.984378963830518e+00	 2.780541630791074e+00
 4.570875372040495e-02	 1.985384255345523e+00	 2.849205423678825e+00
 0.000000000000000e+00	 1.985714237662315e+00	 2.968139504300304e+00
 4.612354076907317e-01	 1.963387360592848e+00	 3.577085987898987e+00
 4.153582913451808e-01	 1.970636004026227e+00	 3.394828978568913e+00
 3.693489289142067e-01	 1.977032570664059e+00	 3.227802193007403e+00
 3.232376464942527e-01	 1.982596527976333e+00	 3.081080024848035e+00
 2.770541012401332e-01	 1.987348068673079e+00	 2.959742106547098e+00
 2.308272304630504e-01	 1.991308035602400e+00	 2.868829271763525e+00
 1.845852055101490e-01	 1.994497847358994e+00	 2.813303542173595e+00
 1.383553904289880e-01	 1.996939424951316e+00	 2.798012260602636e+00
 9.216430538753825e-02	 1.998655119848669e+00	 2.827656418084089e+00
 4.603759478989493e-02	 1.999667643701550e+00	 2.906763156121665e+00
 0.000000000000000e+00	 2.000000000000000e+00	 3.039662367432959e+00
