patch_n	x	y	stress_yy
0	 0.000000000000000e+00	 0.000000000000000e+00	 1.101909723076923e+01
0	 0.000000000000000e+00	 6.250000000000000e-01	 1.089687846153846e+01
0	 0.000000000000000e+00	 1.250000000000000e+00	 1.076986283076923e+01
0	 0.000000000000000e+00	 1.875000000000000e+00	 1.063805033846154e+01
0	 0.000000000000000e+00	 2.500000000000000e+00	 1.050144098461538e+01
0	 0.000000000000000e+00	 3.125000000000000e+00	 1.036003476923077e+01
0	 0.000000000000000e+00	 3.750000000000000e+00	 1.021383169230769e+01
0	 0.000000000000000e+00	 4.375000000000000e+00	 1.006283175384615e+01
0	 0.000000000000000e+00	 5.000000000000000e+00	 9.907034953846154e+00
0	 0.000000000000000e+00	 5.624999999999999e+00	 9.746441292307690e+00
0	 0.000000000000000e+00	 6.250000000000000e+00	 9.581050769230767e+00
0	 6.250000000000000e-01	 0.000000000000000e+00	 1.085144502769231e+01
0	 6.250000000000001e-01	 6.250000000000001e-01	 1.075182891553846e+01
0	 6.250000000000000e-01	 1.250000000000000e+00	 1.064820023507692e+01
0	 6.249999999999999e-01	 1.875000000000000e+00	 1.054055898630769e+01
0	 6.249999999999999e-01	 2.500000000000000e+00	 1.042890516923077e+01
0	 6.250000000000000e-01	 3.125000000000000e+00	 1.031323878384615e+01
0	 6.249999999999999e-01	 3.749999999999999e+00	 1.019355983015384e+01
0	 6.250000000000000e-01	 4.375000000000001e+00	 1.006986830815384e+01
0	 6.250000000000000e-01	 4.999999999999999e+00	 9.942164217846150e+00
0	 6.250000000000000e-01	 5.624999999999999e+00	 9.810447559230767e+00
0	 6.250000000000000e-01	 6.250000000000000e+00	 9.674718332307688e+00
0	 1.250000000000000e+00	 0.000000000000000e+00	 1.070089272615384e+01
0	 1.250000000000000e+00	 6.250000000000001e-01	 1.062106943661538e+01
0	 1.250000000000000e+00	 1.249999999999999e+00	 1.053801787200000e+01
0	 1.250000000000000e+00	 1.875000000000000e+00	 1.045173803230769e+01
0	 1.250000000000000e+00	 2.500000000000001e+00	 1.036222991753846e+01
0	 1.250000000000000e+00	 3.125000000000000e+00	 1.026949352769231e+01
0	 1.250000000000000e+00	 3.749999999999999e+00	 1.017352886276923e+01
0	 1.250000000000000e+00	 4.375000000000001e+00	 1.007433592276923e+01
0	 1.250000000000000e+00	 4.999999999999999e+00	 9.971914707692306e+00
0	 1.250000000000000e+00	 5.624999999999999e+00	 9.866265217538457e+00
0	 1.250000000000000e+00	 6.250000000000000e+00	 9.757387452307691e+00
0	 1.875000000000000e+00	 0.000000000000000e+00	 1.056744032615384e+01
0	 1.875000000000000e+00	 6.249999999999999e-01	 1.050460002476923e+01
0	 1.875000000000001e+00	 1.250000000000000e+00	 1.043931574153846e+01
0	 1.875000000000000e+00	 1.875000000000000e+00	 1.037158747646154e+01
0	 1.875000000000000e+00	 2.500000000000000e+00	 1.030141522953846e+01
0	 1.875000000000000e+00	 3.125000000000000e+00	 1.022879900076923e+01
0	 1.875000000000000e+00	 3.750000000000000e+00	 1.015373879015384e+01
0	 1.875000000000000e+00	 4.375000000000001e+00	 1.007623459769231e+01
0	 1.875000000000000e+00	 4.999999999999998e+00	 9.996286423384614e+00
0	 1.875000000000000e+00	 5.624999999999999e+00	 9.913894267230770e+00
0	 1.875000000000000e+00	 6.250000000000001e+00	 9.829058129230772e+00
0	 2.500000000000000e+00	 0.000000000000000e+00	 1.045108782769231e+01
0	 2.500000000000000e+00	 6.250000000000000e-01	 1.040242068000000e+01
0	 2.500000000000000e+00	 1.250000000000000e+00	 1.035209384369230e+01
0	 2.500000000000000e+00	 1.875000000000000e+00	 1.030010731876923e+01
0	 2.500000000000000e+00	 2.500000000000000e+00	 1.024646110523077e+01
0	 2.500000000000000e+00	 3.125000000000000e+00	 1.019115520307692e+01
0	 2.500000000000001e+00	 3.750000000000001e+00	 1.013418961230769e+01
0	 2.500000000000000e+00	 4.375000000000000e+00	 1.007556433292308e+01
0	 2.500000000000000e+00	 5.000000000000000e+00	 1.001527936492307e+01
0	 2.500000000000000e+00	 5.624999999999998e+00	 9.953334708307692e+00
0	 2.500000000000000e+00	 6.250000000000000e+00	 9.889730363076922e+00
0	 3.125000000000000e+00	 0.000000000000000e+00	 1.035183523076923e+01
0	 3.125000000000000e+00	 6.250000000000000e-01	 1.031453140230769e+01
0	 3.125000000000000e+00	 1.250000000000000e+00	 1.027635217846154e+01
0	 3.125000000000000e+00	 1.875000000000000e+00	 1.023729755923076e+01
0	 3.125000000000000e+00	 2.500000000000000e+00	 1.019736754461538e+01
0	 3.125000000000000e+00	 3.125000000000000e+00	 1.015656213461538e+01
0	 3.125000000000000e+00	 3.750000000000000e+00	 1.011488132923077e+01
0	 3.125000000000000e+00	 4.375000000000000e+00	 1.007232512846154e+01
0	 3.125000000000000e+00	 5.000000000000000e+00	 1.002889353230769e+01
0	 3.125000000000000e+00	 5.625000000000000e+00	 9.984586540769229e+00
0	 3.125000000000000e+00	 6.250000000000000e+00	 9.939404153846155e+00
0	 3.750000000000000e+00	 0.000000000000000e+00	 1.026968253538462e+01
0	 3.749999999999999e+00	 6.249999999999999e-01	 1.024093219169230e+01
0	 3.749999999999999e+00	 1.250000000000000e+00	 1.021209074584615e+01
0	 3.750000000000000e+00	 1.875000000000000e+00	 1.018315819784615e+01
0	 3.750000000000001e+00	 2.500000000000001e+00	 1.015413454769231e+01
0	 3.750000000000000e+00	 3.125000000000000e+00	 1.012501979538462e+01
0	 3.749999999999999e+00	 3.749999999999999e+00	 1.009581394092307e+01
0	 3.750000000000000e+00	 4.374999999999999e+00	 1.006651698430770e+01
0	 3.749999999999999e+00	 4.999999999999999e+00	 1.003712892553846e+01
0	 3.750000000000000e+00	 5.624999999999999e+00	 1.000764976461538e+01
0	 3.750000000000000e+00	 6.250000000000001e+00	 9.978079501538462e+00
0	 4.375000000000000e+00	 0.000000000000000e+00	 1.020462974153846e+01
0	 4.374999999999999e+00	 6.249999999999999e-01	 1.018162304815384e+01
0	 4.375000000000000e+00	 1.250000000000000e+00	 1.015930954584615e+01
0	 4.375000000000001e+00	 1.875000000000000e+00	 1.013768923461538e+01
0	 4.375000000000000e+00	 2.500000000000000e+00	 1.011676211446153e+01
0	 4.375000000000000e+00	 3.125000000000000e+00	 1.009652818538461e+01
0	 4.374999999999999e+00	 3.750000000000000e+00	 1.007698744738462e+01
0	 4.375000000000000e+00	 4.375000000000000e+00	 1.005813990046154e+01
0	 4.374999999999999e+00	 4.999999999999999e+00	 1.003998554461538e+01
0	 4.375000000000000e+00	 5.625000000000000e+00	 1.002252437984615e+01
0	 4.375000000000000e+00	 6.250000000000000e+00	 1.000575640615385e+01
0	 5.000000000000000e+00	 0.000000000000000e+00	 1.015667684923076e+01
0	 4.999999999999998e+00	 6.250000000000000e-01	 1.013660397169231e+01
0	 4.999999999999999e+00	 1.250000000000000e+00	 1.011800857846154e+01
0	 4.999999999999999e+00	 1.875000000000000e+00	 1.010089066953846e+01
0	 4.999999999999999e+00	 2.500000000000000e+00	 1.008525024492307e+01
0	 5.000000000000000e+00	 3.125000000000000e+00	 1.007108730461538e+01
0	 4.999999999999998e+00	 3.750000000000000e+00	 1.005840184861538e+01
0	 4.999999999999999e+00	 4.374999999999999e+00	 1.004719387692307e+01
0	 5.000000000000000e+00	 5.000000000000000e+00	 1.003746338953846e+01
0	 5.000000000000000e+00	 5.624999999999999e+00	 1.002921038646154e+01
0	 5.000000000000000e+00	 6.250000000000001e+00	 1.002243486769231e+01
0	 5.624999999999999e+00	 0.000000000000000e+00	 1.012582385846154e+01
0	 5.624999999999999e+00	 6.250000000000000e-01	 1.010587496230769e+01
0	 5.625000000000000e+00	 1.250000000000000e+00	 1.008818784369231e+01
0	 5.624999999999999e+00	 1.875000000000000e+00	 1.007276250261538e+01
0	 5.624999999999999e+00	 2.500000000000000e+00	 1.005959893907692e+01
0	 5.625000000000000e+00	 3.125000000000000e+00	 1.004869715307692e+01
0	 5.625000000000001e+00	 3.750000000000000e+00	 1.004005714461538e+01
0	 5.625000000000000e+00	 4.375000000000000e+00	 1.003367891369231e+01
0	 5.624999999999999e+00	 4.999999999999999e+00	 1.002956246030769e+01
0	 5.624999999999999e+00	 5.624999999999999e+00	 1.002770778446154e+01
0	 5.625000000000000e+00	 6.250000000000000e+00	 1.002811488615385e+01
0	 6.250000000000000e+00	 0.000000000000000e+00	 1.011207076923077e+01
0	 6.250000000000000e+00	 6.250000000000000e-01	 1.008943602000000e+01
0	 6.250000000000000e+00	 1.250000000000000e+00	 1.006984734153846e+01
0	 6.250000000000000e+00	 1.875000000000000e+00	 1.005330473384615e+01
0	 6.250000000000000e+00	 2.500000000000000e+00	 1.003980819692308e+01
0	 6.250000000000000e+00	 3.125000000000000e+00	 1.002935773076923e+01
0	 6.250000000000000e+00	 3.750000000000000e+00	 1.002195333538461e+01
0	 6.250000000000000e+00	 4.375000000000000e+00	 1.001759501076923e+01
0	 6.250000000000001e+00	 5.000000000000000e+00	 1.001628275692308e+01
0	 6.250000000000000e+00	 5.624999999999999e+00	 1.001801657384615e+01
0	 6.250000000000000e+00	 6.250000000000000e+00	 1.002279646153846e+01
0	 0.000000000000000e+00	 6.250000000000000e+00	 9.581050769230767e+00
0	 0.000000000000000e+00	 6.875000000000001e+00	 9.626114547692307e+00
0	 0.000000000000000e+00	 7.500000000000003e+00	 9.671546559999998e+00
0	 0.000000000000000e+00	 8.125000000000004e+00	 9.717346806153849e+00
0	 0.000000000000000e+00	 8.750000000000002e+00	 9.763515286153845e+00
0	 0.000000000000000e+00	 9.375000000000004e+00	 9.810052000000002e+00
0	 0.000000000000000e+00	 1.000000000000000e+01	 9.856956947692307e+00
0	 0.000000000000000e+00	 1.062500000000000e+01	 9.904230129230770e+00
0	 0.000000000000000e+00	 1.125000000000001e+01	 9.951871544615384e+00
0	 0.000000000000000e+00	 1.187500000000001e+01	 9.999881193846155e+00
0	 0.000000000000000e+00	 1.250000000000000e+01	 1.004825907692308e+01
0	 6.250000000000000e-01	 6.250000000000000e+00	 9.674718332307688e+00
0	 6.250000000000001e-01	 6.875000000000000e+00	 9.708919018615383e+00
0	 6.250000000000001e-01	 7.500000000000002e+00	 9.743387110153847e+00
0	 6.250000000000000e-01	 8.125000000000002e+00	 9.778122606923070e+00
0	 6.249999999999999e-01	 8.750000000000002e+00	 9.813125508923076e+00
0	 6.249999999999998e-01	 9.375000000000000e+00	 9.848395816153841e+00
0	 6.249999999999999e-01	 1.000000000000001e+01	 9.883933528615380e+00
0	 6.250000000000000e-01	 1.062500000000000e+01	 9.919738646307694e+00
0	 6.250000000000000e-01	 1.125000000000001e+01	 9.955811169230770e+00
0	 6.250000000000000e-01	 1.187500000000000e+01	 9.992151097384614e+00
0	 6.250000000000000e-01	 1.250000000000000e+01	 1.002875843076923e+01
0	 1.250000000000000e+00	 6.250000000000000e+00	 9.757387452307691e+00
0	 1.250000000000000e+00	 6.875000000000000e+00	 9.782097653846154e+00
0	 1.250000000000000e+00	 7.500000000000000e+00	 9.806974432000001e+00
0	 1.250000000000000e+00	 8.125000000000004e+00	 9.832017786769232e+00
0	 1.250000000000000e+00	 8.750000000000004e+00	 9.857227718153839e+00
0	 1.250000000000000e+00	 9.375000000000004e+00	 9.882604226153841e+00
0	 1.250000000000000e+00	 1.000000000000001e+01	 9.908147310769227e+00
0	 1.250000000000000e+00	 1.062500000000000e+01	 9.933856971999997e+00
0	 1.250000000000000e+00	 1.125000000000000e+01	 9.959733209846153e+00
0	 1.250000000000000e+00	 1.187500000000001e+01	 9.985776024307691e+00
0	 1.250000000000000e+00	 1.250000000000000e+01	 1.001198541538461e+01
0	 1.875000000000000e+00	 6.250000000000001e+00	 9.829058129230772e+00
0	 1.875000000000000e+00	 6.875000000000000e+00	 9.845650453384618e+00
0	 1.875000000000000e+00	 7.500000000000000e+00	 9.862308525538459e+00
0	 1.875000000000000e+00	 8.125000000000000e+00	 9.879032345692309e+00
0	 1.875000000000001e+00	 8.750000000000004e+00	 9.895821913846156e+00
0	 1.875000000000000e+00	 9.375000000000004e+00	 9.912677229999998e+00
0	 1.875000000000000e+00	 1.000000000000001e+01	 9.929598294153845e+00
0	 1.875000000000000e+00	 1.062500000000000e+01	 9.946585106307687e+00
0	 1.875000000000000e+00	 1.125000000000000e+01	 9.963637666461535e+00
0	 1.875000000000000e+00	 1.187500000000000e+01	 9.980755974615381e+00
0	 1.875000000000000e+00	 1.250000000000000e+01	 9.997940030769229e+00
0	 2.500000000000000e+00	 6.250000000000000e+00	 9.889730363076922e+00
0	 2.500000000000000e+00	 6.875000000000001e+00	 9.899577417230768e+00
0	 2.500000000000000e+00	 7.500000000000003e+00	 9.909389390769231e+00
0	 2.500000000000000e+00	 8.125000000000002e+00	 9.919166283692306e+00
0	 2.500000000000000e+00	 8.750000000000002e+00	 9.928908096000001e+00
0	 2.500000000000000e+00	 9.375000000000002e+00	 9.938614827692303e+00
0	 2.500000000000000e+00	 1.000000000000000e+01	 9.948286478769230e+00
0	 2.500000000000001e+00	 1.062500000000001e+01	 9.957923049230772e+00
0	 2.500000000000000e+00	 1.125000000000001e+01	 9.967524539076921e+00
0	 2.500000000000000e+00	 1.187500000000001e+01	 9.977090948307687e+00
0	 2.500000000000000e+00	 1.250000000000000e+01	 9.986622276923077e+00
0	 3.125000000000000e+00	 6.250000000000000e+00	 9.939404153846155e+00
0	 3.125000000000000e+00	 6.875000000000000e+00	 9.943878545384615e+00
0	 3.125000000000000e+00	 7.500000000000002e+00	 9.948217027692305e+00
0	 3.125000000000000e+00	 8.125000000000004e+00	 9.952419600769232e+00
0	 3.125000000000000e+00	 8.750000000000002e+00	 9.956486264615384e+00
0	 3.125000000000000e+00	 9.375000000000002e+00	 9.960417019230769e+00
0	 3.125000000000000e+00	 1.000000000000000e+01	 9.964211864615383e+00
0	 3.124999999999999e+00	 1.062500000000000e+01	 9.967870800769226e+00
0	 3.125000000000000e+00	 1.125000000000001e+01	 9.971393827692307e+00
0	 3.125000000000000e+00	 1.187500000000001e+01	 9.974780945384614e+00
0	 3.125000000000000e+00	 1.250000000000000e+01	 9.978032153846151e+00
0	 3.750000000000000e+00	 6.250000000000001e+00	 9.978079501538462e+00
0	 3.750000000000000e+00	 6.875000000000001e+00	 9.978553837846150e+00
0	 3.750000000000000e+00	 7.500000000000001e+00	 9.978791436307690e+00
0	 3.750000000000000e+00	 8.125000000000004e+00	 9.978792296923073e+00
0	 3.750000000000000e+00	 8.750000000000002e+00	 9.978556419692305e+00
0	 3.750000000000000e+00	 9.375000000000002e+00	 9.978083804615386e+00
0	 3.750000000000000e+00	 1.000000000000000e+01	 9.977374451692308e+00
0	 3.750000000000000e+00	 1.062500000000001e+01	 9.976428360923073e+00
0	 3.750000000000001e+00	 1.125000000000001e+01	 9.975245532307689e+00
0	 3.750000000000000e+00	 1.187500000000001e+01	 9.973825965846149e+00
0	 3.750000000000000e+00	 1.250000000000000e+01	 9.972169661538459e+00
0	 4.375000000000000e+00	 6.250000000000000e+00	 1.000575640615385e+01
0	 4.374999999999999e+00	 6.874999999999999e+00	 1.000360329461538e+01
0	 4.375000000000000e+00	 7.500000000000004e+00	 1.000111261661538e+01
0	 4.374999999999999e+00	 8.125000000000002e+00	 9.998284372153845e+00
0	 4.374999999999999e+00	 8.750000000000002e+00	 9.995118561230770e+00
0	 4.375000000000001e+00	 9.375000000000004e+00	 9.991615183846152e+00
0	 4.375000000000000e+00	 1.000000000000001e+01	 9.987774239999998e+00
0	 4.375000000000000e+00	 1.062500000000000e+01	 9.983595729692309e+00
0	 4.374999999999999e+00	 1.125000000000000e+01	 9.979079652923071e+00
0	 4.374999999999999e+00	 1.187500000000001e+01	 9.974226009692304e+00
0	 4.375000000000000e+00	 1.250000000000000e+01	 9.969034799999999e+00
0	 5.000000000000000e+00	 6.250000000000001e+00	 1.002243486769231e+01
0	 4.999999999999999e+00	 6.875000000000002e+00	 1.001902691569231e+01
0	 5.000000000000000e+00	 7.500000000000001e+00	 1.001518056861538e+01
0	 5.000000000000000e+00	 8.125000000000002e+00	 1.001089582646154e+01
0	 5.000000000000000e+00	 8.750000000000002e+00	 1.000617268923077e+01
0	 4.999999999999999e+00	 9.375000000000004e+00	 1.000101115692307e+01
0	 5.000000000000000e+00	 1.000000000000001e+01	 9.995411229538462e+00
0	 5.000000000000000e+00	 1.062500000000000e+01	 9.989372907076918e+00
0	 5.000000000000000e+00	 1.125000000000001e+01	 9.982896189538460e+00
0	 5.000000000000000e+00	 1.187500000000001e+01	 9.975981076923075e+00
0	 5.000000000000000e+00	 1.250000000000000e+01	 9.968627569230769e+00
0	 5.625000000000000e+00	 6.250000000000000e+00	 1.002811488615385e+01
0	 5.625000000000000e+00	 6.875000000000001e+00	 1.002482470107693e+01
0	 5.625000000000000e+00	 7.500000000000001e+00	 1.002099529230770e+01
0	 5.624999999999999e+00	 8.125000000000002e+00	 1.001662665984615e+01
0	 5.625000000000000e+00	 8.750000000000004e+00	 1.001171880369230e+01
0	 5.624999999999999e+00	 9.375000000000004e+00	 1.000627172384615e+01
0	 5.625000000000000e+00	 1.000000000000001e+01	 1.000028542030769e+01
0	 5.624999999999999e+00	 1.062500000000000e+01	 9.993759893076922e+00
0	 5.624999999999998e+00	 1.125000000000000e+01	 9.986695142153845e+00
0	 5.624999999999999e+00	 1.187500000000001e+01	 9.979091167538453e+00
0	 5.625000000000000e+00	 1.250000000000000e+01	 9.970947969230764e+00
0	 6.250000000000000e+00	 6.250000000000000e+00	 1.002279646153846e+01
0	 6.250000000000000e+00	 6.875000000000000e+00	 1.002099665076923e+01
0	 6.250000000000000e+00	 7.500000000000002e+00	 1.001855678769230e+01
0	 6.250000000000001e+00	 8.125000000000004e+00	 1.001547687230769e+01
0	 6.250000000000001e+00	 8.750000000000004e+00	 1.001175690461538e+01
0	 6.250000000000000e+00	 9.375000000000004e+00	 1.000739688461538e+01
0	 6.250000000000000e+00	 1.000000000000000e+01	 1.000239681230769e+01
0	 6.250000000000000e+00	 1.062500000000000e+01	 9.996756687692306e+00
0	 6.250000000000001e+00	 1.125000000000001e+01	 9.990476510769227e+00
0	 6.250000000000000e+00	 1.187500000000001e+01	 9.983556281538462e+00
0	 6.250000000000000e+00	 1.250000000000000e+01	 9.975995999999999e+00
0	 0.000000000000000e+00	 1.250000000000000e+01	 1.004825907692308e+01
0	 0.000000000000000e+00	 1.312500000000000e+01	 1.003789860307693e+01
0	 0.000000000000000e+00	 1.375000000000000e+01	 1.002791219692308e+01
0	 0.000000000000000e+00	 1.437500000000000e+01	 1.001829985846154e+01
0	 0.000000000000000e+00	 1.500000000000000e+01	 1.000906158769231e+01
0	 0.000000000000000e+00	 1.562500000000000e+01	 1.000019738461538e+01
0	 0.000000000000000e+00	 1.625000000000000e+01	 9.991707249230771e+00
0	 0.000000000000000e+00	 1.687500000000000e+01	 9.983591181538461e+00
0	 0.000000000000000e+00	 1.750000000000000e+01	 9.975849181538461e+00
0	 0.000000000000000e+00	 1.812500000000001e+01	 9.968481249230766e+00
0	 0.000000000000000e+00	 1.875000000000000e+01	 9.961487384615385e+00
0	 6.250000000000000e-01	 1.250000000000000e+01	 1.002875843076923e+01
0	 6.250000000000001e-01	 1.312500000000000e+01	 1.002123048876923e+01
0	 6.250000000000001e-01	 1.375000000000000e+01	 1.001402285353846e+01
0	 6.250000000000000e-01	 1.437500000000000e+01	 1.000713552507693e+01
0	 6.249999999999999e-01	 1.500000000000000e+01	 1.000056850338461e+01
0	 6.249999999999998e-01	 1.562500000000000e+01	 9.994321788461541e+00
0	 6.249999999999999e-01	 1.625000000000000e+01	 9.988395380307693e+00
0	 6.250000000000000e-01	 1.687500000000000e+01	 9.982789278923073e+00
0	 6.250000000000000e-01	 1.750000000000001e+01	 9.977503484307688e+00
0	 6.250000000000000e-01	 1.812500000000001e+01	 9.972537996461535e+00
0	 6.250000000000000e-01	 1.875000000000000e+01	 9.967892815384616e+00
0	 1.250000000000000e+00	 1.250000000000000e+01	 1.001198541538461e+01
0	 1.250000000000000e+00	 1.312500000000000e+01	 1.000695223907692e+01
0	 1.250000000000000e+00	 1.375000000000000e+01	 1.000218560861538e+01
0	 1.250000000000000e+00	 1.437500000000001e+01	 9.997685523999998e+00
0	 1.250000000000000e+00	 1.500000000000000e+01	 9.993451985230768e+00
0	 1.250000000000000e+00	 1.562500000000000e+01	 9.989484992307696e+00
0	 1.250000000000000e+00	 1.625000000000000e+01	 9.985784545230768e+00
0	 1.250000000000000e+00	 1.687500000000000e+01	 9.982350643999990e+00
0	 1.250000000000000e+00	 1.750000000000000e+01	 9.979183288615385e+00
0	 1.250000000000000e+00	 1.812500000000000e+01	 9.976282479076922e+00
0	 1.250000000000000e+00	 1.875000000000000e+01	 9.973648215384612e+00
0	 1.875000000000000e+00	 1.250000000000000e+01	 9.997940030769229e+00
0	 1.875000000000000e+00	 1.312500000000000e+01	 9.995063853999998e+00
0	 1.875000000000000e+00	 1.375000000000000e+01	 9.992400462153842e+00
0	 1.875000000000000e+00	 1.437500000000000e+01	 9.989949855230766e+00
0	 1.875000000000001e+00	 1.500000000000000e+01	 9.987712033230769e+00
0	 1.875000000000000e+00	 1.562500000000000e+01	 9.985686996153843e+00
0	 1.875000000000000e+00	 1.625000000000000e+01	 9.983874744000000e+00
0	 1.875000000000000e+00	 1.687500000000000e+01	 9.982275276769229e+00
0	 1.875000000000000e+00	 1.750000000000001e+01	 9.980888594461540e+00
0	 1.875000000000000e+00	 1.812500000000000e+01	 9.979714697076924e+00
0	 1.875000000000000e+00	 1.875000000000000e+01	 9.978753584615387e+00
0	 2.500000000000000e+00	 1.250000000000000e+01	 9.986622276923077e+00
0	 2.500000000000000e+00	 1.312500000000000e+01	 9.985565333538458e+00
0	 2.500000000000000e+00	 1.375000000000000e+01	 9.984667414153842e+00
0	 2.500000000000000e+00	 1.437500000000000e+01	 9.983928518769231e+00
0	 2.500000000000000e+00	 1.500000000000000e+01	 9.983348647384613e+00
0	 2.500000000000000e+00	 1.562500000000000e+01	 9.982927799999999e+00
0	 2.500000000000000e+00	 1.625000000000000e+01	 9.982665976615387e+00
0	 2.500000000000001e+00	 1.687500000000001e+01	 9.982563177230766e+00
0	 2.500000000000000e+00	 1.750000000000000e+01	 9.982619401846154e+00
0	 2.500000000000000e+00	 1.812500000000001e+01	 9.982834650461538e+00
0	 2.500000000000000e+00	 1.875000000000000e+01	 9.983208923076919e+00
0	 3.125000000000000e+00	 1.250000000000000e+01	 9.978032153846151e+00
0	 3.125000000000000e+00	 1.312500000000000e+01	 9.978456677692307e+00
0	 3.125000000000000e+00	 1.375000000000000e+01	 9.978986464615383e+00
0	 3.125000000000000e+00	 1.437500000000000e+01	 9.979621514615383e+00
0	 3.125000000000000e+00	 1.500000000000000e+01	 9.980361827692308e+00
0	 3.125000000000000e+00	 1.562500000000000e+01	 9.981207403846151e+00
0	 3.125000000000000e+00	 1.625000000000000e+01	 9.982158243076920e+00
0	 3.124999999999999e+00	 1.687500000000000e+01	 9.983214345384615e+00
0	 3.125000000000000e+00	 1.750000000000001e+01	 9.984375710769228e+00
0	 3.125000000000000e+00	 1.812500000000001e+01	 9.985642339230772e+00
0	 3.125000000000000e+00	 1.875000000000000e+01	 9.987014230769233e+00
0	 3.750000000000000e+00	 1.250000000000000e+01	 9.972169661538459e+00
0	 3.750000000000000e+00	 1.312500000000000e+01	 9.973737886461539e+00
0	 3.750000000000000e+00	 1.375000000000000e+01	 9.975357613538460e+00
0	 3.750000000000000e+00	 1.437500000000000e+01	 9.977028842769229e+00
0	 3.750000000000000e+00	 1.500000000000000e+01	 9.978751574153844e+00
0	 3.750000000000000e+00	 1.562500000000000e+01	 9.980525807692306e+00
0	 3.750000000000000e+00	 1.625000000000000e+01	 9.982351543384613e+00
0	 3.750000000000000e+00	 1.687500000000001e+01	 9.984228781230767e+00
0	 3.750000000000001e+00	 1.750000000000000e+01	 9.986157521230769e+00
0	 3.750000000000000e+00	 1.812500000000001e+01	 9.988137763384616e+00
0	 3.750000000000000e+00	 1.875000000000000e+01	 9.990169507692308e+00
0	 4.375000000000000e+00	 1.250000000000000e+01	 9.969034799999999e+00
0	 4.374999999999999e+00	 1.312500000000000e+01	 9.971408959846150e+00
0	 4.375000000000000e+00	 1.375000000000001e+01	 9.973780860923073e+00
0	 4.374999999999999e+00	 1.437500000000000e+01	 9.976150503230766e+00
0	 4.374999999999999e+00	 1.500000000000000e+01	 9.978517886769229e+00
0	 4.375000000000001e+00	 1.562500000000001e+01	 9.980883011538463e+00
0	 4.375000000000000e+00	 1.625000000000001e+01	 9.983245877538460e+00
0	 4.375000000000000e+00	 1.687500000000000e+01	 9.985606484769228e+00
0	 4.374999999999999e+00	 1.750000000000000e+01	 9.987964833230777e+00
0	 4.374999999999999e+00	 1.812500000000000e+01	 9.990320922923075e+00
0	 4.375000000000000e+00	 1.875000000000000e+01	 9.992674753846156e+00
0	 5.000000000000000e+00	 1.250000000000000e+01	 9.968627569230769e+00
0	 4.999999999999999e+00	 1.312500000000000e+01	 9.971469897846150e+00
0	 5.000000000000000e+00	 1.375000000000000e+01	 9.974256206769228e+00
0	 5.000000000000000e+00	 1.437500000000000e+01	 9.976986496000000e+00
0	 5.000000000000000e+00	 1.500000000000000e+01	 9.979660765538460e+00
0	 4.999999999999999e+00	 1.562500000000000e+01	 9.982279015384616e+00
0	 5.000000000000000e+00	 1.625000000000000e+01	 9.984841245538464e+00
0	 5.000000000000000e+00	 1.687500000000001e+01	 9.987347455999998e+00
0	 5.000000000000000e+00	 1.750000000000000e+01	 9.989797646769231e+00
0	 5.000000000000000e+00	 1.812500000000001e+01	 9.992191817846154e+00
0	 5.000000000000000e+00	 1.875000000000000e+01	 9.994529969230772e+00
0	 5.625000000000000e+00	 1.250000000000000e+01	 9.970947969230764e+00
0	 5.625000000000000e+00	 1.312500000000000e+01	 9.973920700461537e+00
0	 5.625000000000000e+00	 1.375000000000000e+01	 9.976783651076918e+00
0	 5.624999999999999e+00	 1.437500000000000e+01	 9.979536821076925e+00
0	 5.625000000000000e+00	 1.500000000000000e+01	 9.982180210461538e+00
0	 5.624999999999999e+00	 1.562500000000000e+01	 9.984713819230766e+00
0	 5.625000000000000e+00	 1.625000000000001e+01	 9.987137647384616e+00
0	 5.624999999999999e+00	 1.687500000000000e+01	 9.989451694923074e+00
0	 5.624999999999998e+00	 1.750000000000000e+01	 9.991655961846156e+00
0	 5.624999999999999e+00	 1.812500000000001e+01	 9.993750448153847e+00
0	 5.625000000000000e+00	 1.875000000000000e+01	 9.995735153846155e+00
0	 6.250000000000000e+00	 1.250000000000000e+01	 9.975995999999999e+00
0	 6.250000000000000e+00	 1.312500000000000e+01	 9.978761367692309e+00
0	 6.250000000000000e+00	 1.375000000000000e+01	 9.981363193846153e+00
0	 6.250000000000001e+00	 1.437500000000000e+01	 9.983801478461535e+00
0	 6.250000000000001e+00	 1.500000000000000e+01	 9.986076221538461e+00
0	 6.250000000000000e+00	 1.562500000000000e+01	 9.988187423076925e+00
0	 6.250000000000000e+00	 1.625000000000000e+01	 9.990135083076922e+00
0	 6.250000000000000e+00	 1.687500000000000e+01	 9.991919201538465e+00
0	 6.250000000000001e+00	 1.750000000000001e+01	 9.993539778461539e+00
0	 6.250000000000000e+00	 1.812500000000001e+01	 9.994996813846154e+00
0	 6.250000000000000e+00	 1.875000000000000e+01	 9.996290307692309e+00
0	 0.000000000000000e+00	 1.875000000000000e+01	 9.961487384615385e+00
0	 0.000000000000000e+00	 1.937500000000000e+01	 9.966009633846157e+00
0	 0.000000000000000e+00	 2.000000000000000e+01	 9.970362719999995e+00
0	 0.000000000000000e+00	 2.062500000000001e+01	 9.974546643076923e+00
0	 0.000000000000000e+00	 2.125000000000000e+01	 9.978561403076920e+00
0	 0.000000000000000e+00	 2.187500000000000e+01	 9.982406999999995e+00
0	 0.000000000000000e+00	 2.250000000000000e+01	 9.986083433846149e+00
0	 0.000000000000000e+00	 2.312500000000001e+01	 9.989590704615383e+00
0	 0.000000000000000e+00	 2.375000000000001e+01	 9.992928812307692e+00
0	 0.000000000000000e+00	 2.437500000000001e+01	 9.996097756923074e+00
0	 0.000000000000000e+00	 2.500000000000000e+01	 9.999097538461534e+00
0	 6.250000000000000e-01	 1.875000000000000e+01	 9.967892815384616e+00
0	 6.250000000000001e-01	 1.937500000000000e+01	 9.971451284000000e+00
0	 6.250000000000001e-01	 2.000000000000000e+01	 9.974867600615383e+00
0	 6.250000000000000e-01	 2.062500000000000e+01	 9.978141765230774e+00
0	 6.249999999999999e-01	 2.125000000000001e+01	 9.981273777846155e+00
0	 6.249999999999998e-01	 2.187500000000000e+01	 9.984263638461531e+00
0	 6.249999999999999e-01	 2.250000000000000e+01	 9.987111347076915e+00
0	 6.250000000000000e-01	 2.312500000000000e+01	 9.989816903692301e+00
0	 6.250000000000000e-01	 2.375000000000000e+01	 9.992380308307691e+00
0	 6.250000000000000e-01	 2.437500000000001e+01	 9.994801560923074e+00
0	 6.250000000000000e-01	 2.500000000000000e+01	 9.997080661538462e+00
0	 1.250000000000000e+00	 1.875000000000000e+01	 9.973648215384612e+00
0	 1.250000000000000e+00	 1.937500000000000e+01	 9.976340214153844e+00
0	 1.250000000000000e+00	 2.000000000000000e+01	 9.978917071999994e+00
0	 1.250000000000000e+00	 2.062500000000000e+01	 9.981378788923077e+00
0	 1.250000000000000e+00	 2.125000000000000e+01	 9.983725364923071e+00
0	 1.250000000000000e+00	 2.187500000000000e+01	 9.985956799999997e+00
0	 1.250000000000000e+00	 2.250000000000001e+01	 9.988073094153842e+00
0	 1.250000000000000e+00	 2.312500000000001e+01	 9.990074247384612e+00
0	 1.250000000000000e+00	 2.375000000000001e+01	 9.991960259692306e+00
0	 1.250000000000000e+00	 2.437500000000000e+01	 9.993731131076915e+00
0	 1.250000000000000e+00	 2.500000000000000e+01	 9.995386861538460e+00
0	 1.875000000000000e+00	 1.875000000000000e+01	 9.978753584615387e+00
0	 1.875000000000000e+00	 1.937500000000000e+01	 9.980676424307694e+00
0	 1.875000000000000e+00	 2.000000000000000e+01	 9.982511134153844e+00
0	 1.875000000000000e+00	 2.062500000000000e+01	 9.984257714153848e+00
0	 1.875000000000001e+00	 2.125000000000000e+01	 9.985916164307692e+00
0	 1.875000000000000e+00	 2.187500000000001e+01	 9.987486484615379e+00
0	 1.875000000000000e+00	 2.250000000000000e+01	 9.988968675076919e+00
0	 1.875000000000000e+00	 2.312500000000000e+01	 9.990362735692312e+00
0	 1.875000000000000e+00	 2.375000000000001e+01	 9.991668666461539e+00
0	 1.875000000000000e+00	 2.437500000000000e+01	 9.992886467384613e+00
0	 1.875000000000000e+00	 2.500000000000000e+01	 9.994016138461532e+00
0	 2.500000000000000e+00	 1.875000000000000e+01	 9.983208923076919e+00
0	 2.500000000000000e+00	 1.937500000000000e+01	 9.984459914461535e+00
0	 2.500000000000000e+00	 2.000000000000000e+01	 9.985649787076925e+00
0	 2.500000000000000e+00	 2.062500000000000e+01	 9.986778540923074e+00
0	 2.500000000000000e+00	 2.125000000000001e+01	 9.987846176000001e+00
0	 2.500000000000000e+00	 2.187500000000000e+01	 9.988852692307695e+00
0	 2.500000000000000e+00	 2.250000000000000e+01	 9.989798089846154e+00
0	 2.500000000000001e+00	 2.312500000000001e+01	 9.990682368615376e+00
0	 2.500000000000000e+00	 2.375000000000001e+01	 9.991505528615383e+00
0	 2.500000000000000e+00	 2.437500000000001e+01	 9.992267569846152e+00
0	 2.500000000000000e+00	 2.500000000000000e+01	 9.992968492307691e+00
0	 3.125000000000000e+00	 1.875000000000000e+01	 9.987014230769233e+00
0	 3.125000000000000e+00	 1.937500000000000e+01	 9.987690684615387e+00
0	 3.125000000000000e+00	 2.000000000000000e+01	 9.988333030769226e+00
0	 3.125000000000000e+00	 2.062500000000000e+01	 9.988941269230768e+00
0	 3.125000000000000e+00	 2.125000000000000e+01	 9.989515400000000e+00
0	 3.125000000000000e+00	 2.187500000000000e+01	 9.990055423076923e+00
0	 3.125000000000000e+00	 2.250000000000000e+01	 9.990561338461537e+00
0	 3.124999999999999e+00	 2.312500000000000e+01	 9.991033146153846e+00
0	 3.125000000000000e+00	 2.375000000000001e+01	 9.991470846153844e+00
0	 3.125000000000000e+00	 2.437500000000001e+01	 9.991874438461538e+00
0	 3.125000000000000e+00	 2.500000000000000e+01	 9.992243923076920e+00
0	 3.750000000000000e+00	 1.875000000000000e+01	 9.990169507692308e+00
0	 3.750000000000000e+00	 1.937500000000001e+01	 9.990368734769232e+00
0	 3.750000000000000e+00	 2.000000000000000e+01	 9.990560865230771e+00
0	 3.750000000000000e+00	 2.062500000000000e+01	 9.990745899076925e+00
0	 3.750000000000000e+00	 2.125000000000000e+01	 9.990923836307687e+00
0	 3.750000000000000e+00	 2.187500000000000e+01	 9.991094676923078e+00
0	 3.750000000000000e+00	 2.250000000000000e+01	 9.991258420923074e+00
0	 3.750000000000000e+00	 2.312500000000000e+01	 9.991415068307694e+00
0	 3.750000000000001e+00	 2.375000000000000e+01	 9.991564619076920e+00
0	 3.750000000000000e+00	 2.437500000000001e+01	 9.991707073230774e+00
0	 3.750000000000000e+00	 2.500000000000000e+01	 9.991842430769230e+00
0	 4.375000000000000e+00	 1.875000000000000e+01	 9.992674753846156e+00
0	 4.374999999999999e+00	 1.937500000000000e+01	 9.992494064923079e+00
0	 4.375000000000000e+00	 2.000000000000000e+01	 9.992333290461538e+00
0	 4.374999999999999e+00	 2.062500000000000e+01	 9.992192430461538e+00
0	 4.374999999999999e+00	 2.125000000000000e+01	 9.992071484923077e+00
0	 4.375000000000001e+00	 2.187500000000001e+01	 9.991970453846157e+00
0	 4.375000000000000e+00	 2.250000000000001e+01	 9.991889337230766e+00
0	 4.375000000000000e+00	 2.312500000000000e+01	 9.991828135076926e+00
0	 4.374999999999999e+00	 2.375000000000000e+01	 9.991786847384621e+00
0	 4.374999999999999e+00	 2.437500000000000e+01	 9.991765474153839e+00
0	 4.375000000000000e+00	 2.500000000000000e+01	 9.991764015384613e+00
0	 5.000000000000000e+00	 1.875000000000000e+01	 9.994529969230772e+00
0	 4.999999999999999e+00	 1.937500000000000e+01	 9.994066675076921e+00
0	 5.000000000000000e+00	 2.000000000000000e+01	 9.993650306461543e+00
0	 5.000000000000000e+00	 2.062500000000000e+01	 9.993280863384614e+00
0	 5.000000000000000e+00	 2.125000000000000e+01	 9.992958345846152e+00
0	 4.999999999999999e+00	 2.187500000000000e+01	 9.992682753846154e+00
0	 5.000000000000000e+00	 2.250000000000001e+01	 9.992454087384619e+00
0	 5.000000000000000e+00	 2.312500000000001e+01	 9.992272346461540e+00
0	 5.000000000000000e+00	 2.375000000000001e+01	 9.992137531076921e+00
0	 5.000000000000000e+00	 2.437500000000001e+01	 9.992049641230768e+00
0	 5.000000000000000e+00	 2.500000000000001e+01	 9.992008676923081e+00
0	 5.625000000000000e+00	 1.875000000000000e+01	 9.995735153846155e+00
0	 5.625000000000000e+00	 1.937500000000000e+01	 9.995086565230775e+00
0	 5.625000000000000e+00	 2.000000000000000e+01	 9.994511913230767e+00
0	 5.624999999999999e+00	 2.062500000000000e+01	 9.994011197846161e+00
0	 5.625000000000000e+00	 2.125000000000000e+01	 9.993584419076925e+00
0	 5.624999999999999e+00	 2.187500000000000e+01	 9.993231576923078e+00
0	 5.625000000000000e+00	 2.250000000000001e+01	 9.992952671384618e+00
0	 5.624999999999999e+00	 2.312500000000000e+01	 9.992747702461539e+00
0	 5.624999999999998e+00	 2.375000000000000e+01	 9.992616670153849e+00
0	 5.624999999999999e+00	 2.437500000000001e+01	 9.992559574461541e+00
0	 5.625000000000000e+00	 2.500000000000000e+01	 9.992576415384612e+00
0	 6.250000000000000e+00	 1.875000000000000e+01	 9.996290307692309e+00
0	 6.250000000000000e+00	 1.937500000000000e+01	 9.995553735384613e+00
0	 6.250000000000000e+00	 2.000000000000000e+01	 9.994918110769225e+00
0	 6.250000000000001e+00	 2.062500000000000e+01	 9.994383433846156e+00
0	 6.250000000000001e+00	 2.125000000000000e+01	 9.993949704615384e+00
0	 6.250000000000000e+00	 2.187500000000000e+01	 9.993616923076925e+00
0	 6.250000000000000e+00	 2.250000000000000e+01	 9.993385089230770e+00
0	 6.250000000000000e+00	 2.312500000000001e+01	 9.993254203076923e+00
0	 6.250000000000001e+00	 2.375000000000001e+01	 9.993224264615382e+00
0	 6.250000000000000e+00	 2.437500000000001e+01	 9.993295273846154e+00
0	 6.250000000000000e+00	 2.500000000000000e+01	 9.993467230769228e+00
0	 0.000000000000000e+00	 2.500000000000000e+01	 9.999097538461534e+00
0	 0.000000000000000e+00	 2.562500000000000e+01	 9.998216144615379e+00
0	 0.000000000000000e+00	 2.625000000000000e+01	 9.997439409230763e+00
0	 0.000000000000000e+00	 2.687499999999999e+01	 9.996767332307689e+00
0	 0.000000000000000e+00	 2.749999999999999e+01	 9.996199913846151e+00
0	 0.000000000000000e+00	 2.812499999999999e+01	 9.995737153846148e+00
0	 0.000000000000000e+00	 2.874999999999999e+01	 9.995379052307690e+00
0	 0.000000000000000e+00	 2.937499999999999e+01	 9.995125609230769e+00
0	 0.000000000000000e+00	 2.999999999999998e+01	 9.994976824615373e+00
0	 0.000000000000000e+00	 3.062499999999998e+01	 9.994932698461531e+00
0	 0.000000000000000e+00	 3.125000000000000e+01	 9.994993230769229e+00
0	 6.250000000000000e-01	 2.500000000000000e+01	 9.997080661538462e+00
0	 6.250000000000000e-01	 2.562499999999999e+01	 9.996512786769221e+00
0	 6.249999999999999e-01	 2.624999999999999e+01	 9.996033433230764e+00
0	 6.249999999999999e-01	 2.687499999999999e+01	 9.995642600923070e+00
0	 6.249999999999999e-01	 2.749999999999998e+01	 9.995340289846149e+00
0	 6.249999999999998e-01	 2.812499999999998e+01	 9.995126499999987e+00
0	 6.250000000000000e-01	 2.874999999999999e+01	 9.995001231384606e+00
0	 6.249999999999999e-01	 2.937499999999998e+01	 9.994964483999995e+00
0	 6.250000000000000e-01	 2.999999999999999e+01	 9.995016257846148e+00
0	 6.249999999999999e-01	 3.062499999999998e+01	 9.995156552923078e+00
0	 6.250000000000000e-01	 3.125000000000000e+01	 9.995385369230766e+00
0	 1.250000000000000e+00	 2.500000000000000e+01	 9.995386861538460e+00
0	 1.250000000000000e+00	 2.562499999999999e+01	 9.995097312000000e+00
0	 1.250000000000000e+00	 2.624999999999999e+01	 9.994880146461529e+00
0	 1.250000000000000e+00	 2.687499999999999e+01	 9.994735364923072e+00
0	 1.250000000000000e+00	 2.749999999999999e+01	 9.994662967384610e+00
0	 1.250000000000000e+00	 2.812499999999999e+01	 9.994662953846152e+00
0	 1.250000000000000e+00	 2.874999999999998e+01	 9.994735324307692e+00
0	 1.250000000000000e+00	 2.937499999999998e+01	 9.994880078769228e+00
0	 1.250000000000000e+00	 2.999999999999999e+01	 9.995097217230761e+00
0	 1.250000000000000e+00	 3.062499999999998e+01	 9.995386739692302e+00
0	 1.250000000000000e+00	 3.125000000000000e+01	 9.995748646153842e+00
0	 1.875000000000000e+00	 2.500000000000000e+01	 9.994016138461532e+00
0	 1.875000000000000e+00	 2.562500000000000e+01	 9.993969720307696e+00
0	 1.875000000000000e+00	 2.624999999999999e+01	 9.993979548923074e+00
0	 1.875000000000000e+00	 2.687499999999999e+01	 9.994045624307688e+00
0	 1.875000000000000e+00	 2.749999999999999e+01	 9.994167946461541e+00
0	 1.875000000000000e+00	 2.812499999999999e+01	 9.994346515384615e+00
0	 1.875000000000000e+00	 2.874999999999999e+01	 9.994581331076917e+00
0	 1.875000000000000e+00	 2.937499999999999e+01	 9.994872393538460e+00
0	 1.875000000000001e+00	 2.999999999999999e+01	 9.995219702769232e+00
0	 1.875000000000000e+00	 3.062499999999998e+01	 9.995623258769223e+00
0	 1.875000000000000e+00	 3.125000000000000e+01	 9.996083061538465e+00
0	 2.500000000000000e+00	 2.500000000000000e+01	 9.992968492307691e+00
0	 2.500000000000001e+00	 2.562500000000000e+01	 9.993130011692307e+00
0	 2.500000000000000e+00	 2.625000000000000e+01	 9.993331640615375e+00
0	 2.500000000000000e+00	 2.687499999999999e+01	 9.993573379076919e+00
0	 2.500000000000000e+00	 2.749999999999999e+01	 9.993855227076919e+00
0	 2.500000000000000e+00	 2.812499999999998e+01	 9.994177184615381e+00
0	 2.500000000000000e+00	 2.874999999999998e+01	 9.994539251692308e+00
0	 2.500000000000000e+00	 2.937499999999998e+01	 9.994941428307687e+00
0	 2.500000000000000e+00	 2.999999999999998e+01	 9.995383714461539e+00
0	 2.500000000000000e+00	 3.062499999999998e+01	 9.995866110153843e+00
0	 2.500000000000000e+00	 3.125000000000000e+01	 9.996388615384612e+00
0	 3.125000000000000e+00	 2.500000000000000e+01	 9.992243923076920e+00
0	 3.124999999999999e+00	 2.562499999999999e+01	 9.992578186153843e+00
0	 3.125000000000001e+00	 2.625000000000000e+01	 9.992936421538460e+00
0	 3.125000000000000e+00	 2.687499999999999e+01	 9.993318629230767e+00
0	 3.125000000000000e+00	 2.750000000000000e+01	 9.993724809230766e+00
0	 3.125000000000000e+00	 2.812499999999999e+01	 9.994154961538454e+00
0	 3.125000000000000e+00	 2.874999999999998e+01	 9.994609086153845e+00
0	 3.125000000000000e+00	 2.937499999999998e+01	 9.995087183076922e+00
0	 3.125000000000000e+00	 2.999999999999998e+01	 9.995589252307694e+00
0	 3.125000000000000e+00	 3.062499999999998e+01	 9.996115293846152e+00
0	 3.125000000000000e+00	 3.125000000000000e+01	 9.996665307692309e+00
0	 3.750000000000000e+00	 2.500000000000000e+01	 9.991842430769230e+00
0	 3.750000000000000e+00	 2.562500000000000e+01	 9.992314243692308e+00
0	 3.750000000000001e+00	 2.625000000000000e+01	 9.992793891692305e+00
0	 3.750000000000000e+00	 2.687499999999999e+01	 9.993281374769229e+00
0	 3.750000000000000e+00	 2.750000000000000e+01	 9.993776692923074e+00
0	 3.750000000000000e+00	 2.812499999999999e+01	 9.994279846153848e+00
0	 3.750000000000000e+00	 2.874999999999999e+01	 9.994790834461538e+00
0	 3.750000000000000e+00	 2.937499999999999e+01	 9.995309657846150e+00
0	 3.750000000000000e+00	 2.999999999999999e+01	 9.995836316307692e+00
0	 3.750000000000000e+00	 3.062499999999998e+01	 9.996370809846153e+00
0	 3.750000000000000e+00	 3.125000000000000e+01	 9.996913138461535e+00
0	 4.375000000000000e+00	 2.500000000000000e+01	 9.991764015384613e+00
0	 4.374999999999999e+00	 2.562499999999999e+01	 9.992338184307687e+00
0	 4.375000000000000e+00	 2.625000000000000e+01	 9.992904051076918e+00
0	 4.375000000000000e+00	 2.687500000000000e+01	 9.993461615692302e+00
0	 4.375000000000000e+00	 2.749999999999999e+01	 9.994010878153848e+00
0	 4.375000000000000e+00	 2.812499999999999e+01	 9.994551838461538e+00
0	 4.375000000000001e+00	 2.874999999999999e+01	 9.995084496615384e+00
0	 4.375000000000000e+00	 2.937499999999999e+01	 9.995608852615380e+00
0	 4.375000000000000e+00	 2.999999999999998e+01	 9.996124906461533e+00
0	 4.375000000000000e+00	 3.062499999999998e+01	 9.996632658153842e+00
0	 4.375000000000000e+00	 3.125000000000000e+01	 9.997132107692305e+00
0	 5.000000000000000e+00	 2.500000000000001e+01	 9.992008676923081e+00
0	 4.999999999999999e+00	 2.562499999999999e+01	 9.992650008000002e+00
0	 5.000000000000000e+00	 2.625000000000000e+01	 9.993266899692307e+00
0	 4.999999999999998e+00	 2.687499999999999e+01	 9.993859351999994e+00
0	 4.999999999999999e+00	 2.749999999999999e+01	 9.994427364923073e+00
0	 4.999999999999999e+00	 2.812499999999999e+01	 9.994970938461535e+00
0	 4.999999999999999e+00	 2.874999999999998e+01	 9.995490072615381e+00
0	 5.000000000000000e+00	 2.937499999999998e+01	 9.995984767384618e+00
0	 5.000000000000000e+00	 2.999999999999999e+01	 9.996455022769222e+00
0	 4.999999999999999e+00	 3.062499999999998e+01	 9.996900838769228e+00
0	 5.000000000000000e+00	 3.125000000000001e+01	 9.997322215384610e+00
0	 5.625000000000000e+00	 2.500000000000000e+01	 9.992576415384612e+00
0	 5.624999999999999e+00	 2.562500000000000e+01	 9.993249714769235e+00
0	 5.624999999999999e+00	 2.625000000000000e+01	 9.993882437538458e+00
0	 5.625000000000001e+00	 2.687500000000000e+01	 9.994474583692311e+00
0	 5.625000000000000e+00	 2.749999999999999e+01	 9.995026153230771e+00
0	 5.624999999999999e+00	 2.812499999999998e+01	 9.995537146153847e+00
0	 5.624999999999999e+00	 2.874999999999999e+01	 9.996007562461537e+00
0	 5.625000000000000e+00	 2.937499999999999e+01	 9.996437402153841e+00
0	 5.625000000000000e+00	 2.999999999999999e+01	 9.996826665230767e+00
0	 5.624999999999999e+00	 3.062499999999998e+01	 9.997175351692299e+00
0	 5.625000000000000e+00	 3.125000000000000e+01	 9.997483461538462e+00
0	 6.250000000000000e+00	 2.500000000000000e+01	 9.993467230769228e+00
0	 6.250000000000000e+00	 2.562500000000000e+01	 9.994137304615380e+00
0	 6.250000000000001e+00	 2.625000000000000e+01	 9.994750664615381e+00
0	 6.250000000000000e+00	 2.687499999999999e+01	 9.995307310769229e+00
0	 6.250000000000001e+00	 2.749999999999999e+01	 9.995807243076928e+00
0	 6.250000000000000e+00	 2.812499999999999e+01	 9.996250461538459e+00
0	 6.250000000000000e+00	 2.874999999999999e+01	 9.996636966153844e+00
0	 6.250000000000000e+00	 2.937499999999999e+01	 9.996966756923074e+00
0	 6.250000000000000e+00	 2.999999999999998e+01	 9.997239833846155e+00
0	 6.250000000000000e+00	 3.062499999999998e+01	 9.997456196923071e+00
0	 6.250000000000000e+00	 3.125000000000000e+01	 9.997615846153842e+00
0	 0.000000000000000e+00	 3.125000000000000e+01	 9.994993230769229e+00
0	 0.000000000000000e+00	 3.187500000000000e+01	 9.995476289230764e+00
0	 0.000000000000000e+00	 3.249999999999999e+01	 9.995928664615379e+00
0	 0.000000000000000e+00	 3.312499999999999e+01	 9.996350356923067e+00
0	 0.000000000000000e+00	 3.374999999999999e+01	 9.996741366153838e+00
0	 0.000000000000000e+00	 3.437499999999999e+01	 9.997101692307686e+00
0	 0.000000000000000e+00	 3.499999999999999e+01	 9.997431335384611e+00
0	 0.000000000000000e+00	 3.562499999999999e+01	 9.997730295384606e+00
0	 0.000000000000000e+00	 3.624999999999998e+01	 9.997998572307685e+00
0	 0.000000000000000e+00	 3.687499999999998e+01	 9.998236166153831e+00
0	 0.000000000000000e+00	 3.750000000000000e+01	 9.998443076923072e+00
0	 6.250000000000000e-01	 3.125000000000000e+01	 9.995385369230766e+00
0	 6.250000000000000e-01	 3.187500000000000e+01	 9.995793047999994e+00
0	 6.249999999999999e-01	 3.250000000000000e+01	 9.996176038153845e+00
0	 6.249999999999999e-01	 3.312499999999999e+01	 9.996534339692307e+00
0	 6.249999999999999e-01	 3.374999999999998e+01	 9.996867952615379e+00
0	 6.249999999999998e-01	 3.437499999999998e+01	 9.997176876923067e+00
0	 6.250000000000000e-01	 3.499999999999999e+01	 9.997461112615378e+00
0	 6.249999999999999e-01	 3.562499999999999e+01	 9.997720659692293e+00
0	 6.250000000000000e-01	 3.624999999999997e+01	 9.997955518153839e+00
0	 6.249999999999999e-01	 3.687499999999998e+01	 9.998165688000004e+00
0	 6.250000000000000e-01	 3.750000000000000e+01	 9.998351169230768e+00
0	 1.250000000000000e+00	 3.125000000000000e+01	 9.995748646153842e+00
0	 1.250000000000000e+00	 3.187499999999999e+01	 9.996086351384616e+00
0	 1.250000000000000e+00	 3.249999999999999e+01	 9.996405362461532e+00
0	 1.250000000000000e+00	 3.312499999999999e+01	 9.996705679384611e+00
0	 1.250000000000000e+00	 3.374999999999999e+01	 9.996987302153844e+00
0	 1.250000000000000e+00	 3.437499999999999e+01	 9.997250230769227e+00
0	 1.250000000000000e+00	 3.499999999999998e+01	 9.997494465230766e+00
0	 1.250000000000000e+00	 3.562499999999998e+01	 9.997720005538463e+00
0	 1.250000000000000e+00	 3.624999999999999e+01	 9.997926851692304e+00
0	 1.250000000000000e+00	 3.687499999999998e+01	 9.998115003692304e+00
0	 1.250000000000000e+00	 3.750000000000000e+01	 9.998284461538457e+00
0	 1.875000000000000e+00	 3.125000000000000e+01	 9.996083061538465e+00
0	 1.875000000000000e+00	 3.187500000000000e+01	 9.996356199384612e+00
0	 1.875000000000000e+00	 3.250000000000000e+01	 9.996616637538462e+00
0	 1.875000000000000e+00	 3.312499999999999e+01	 9.996864375999994e+00
0	 1.875000000000000e+00	 3.374999999999999e+01	 9.997099414769227e+00
0	 1.875000000000000e+00	 3.437499999999999e+01	 9.997321753846148e+00
0	 1.875000000000000e+00	 3.499999999999999e+01	 9.997531393230766e+00
0	 1.875000000000000e+00	 3.562499999999999e+01	 9.997728332923074e+00
0	 1.875000000000001e+00	 3.624999999999999e+01	 9.997912572923072e+00
0	 1.875000000000000e+00	 3.687499999999998e+01	 9.998084113230757e+00
0	 1.875000000000000e+00	 3.750000000000001e+01	 9.998242953846148e+00
0	 2.500000000000000e+00	 3.125000000000000e+01	 9.996388615384612e+00
0	 2.500000000000001e+00	 3.187500000000000e+01	 9.996602591999991e+00
0	 2.500000000000000e+00	 3.250000000000001e+01	 9.996809863384613e+00
0	 2.500000000000000e+00	 3.312500000000000e+01	 9.997010429538459e+00
0	 2.500000000000000e+00	 3.374999999999999e+01	 9.997204290461536e+00
0	 2.500000000000000e+00	 3.437499999999999e+01	 9.997391446153841e+00
0	 2.500000000000000e+00	 3.499999999999998e+01	 9.997571896615380e+00
0	 2.500000000000000e+00	 3.562499999999997e+01	 9.997745641846155e+00
0	 2.500000000000000e+00	 3.624999999999999e+01	 9.997912681846145e+00
0	 2.500000000000000e+00	 3.687499999999998e+01	 9.998073016615379e+00
0	 2.500000000000000e+00	 3.750000000000000e+01	 9.998226646153840e+00
0	 3.125000000000000e+00	 3.125000000000000e+01	 9.996665307692309e+00
0	 3.124999999999999e+00	 3.187499999999999e+01	 9.996825529230767e+00
0	 3.125000000000001e+00	 3.250000000000001e+01	 9.996985039999998e+00
0	 3.125000000000000e+00	 3.312499999999999e+01	 9.997143840000003e+00
0	 3.125000000000000e+00	 3.375000000000000e+01	 9.997301929230762e+00
0	 3.125000000000000e+00	 3.437499999999999e+01	 9.997459307692305e+00
0	 3.125000000000000e+00	 3.499999999999999e+01	 9.997615975384614e+00
0	 3.125000000000000e+00	 3.562499999999999e+01	 9.997771932307689e+00
0	 3.125000000000000e+00	 3.624999999999999e+01	 9.997927178461524e+00
0	 3.125000000000000e+00	 3.687499999999999e+01	 9.998081713846148e+00
0	 3.125000000000000e+00	 3.750000000000000e+01	 9.998235538461527e+00
0	 3.750000000000000e+00	 3.125000000000000e+01	 9.996913138461535e+00
0	 3.750000000000000e+00	 3.187500000000000e+01	 9.997025011076916e+00
0	 3.750000000000001e+00	 3.250000000000000e+01	 9.997142167384620e+00
0	 3.750000000000000e+00	 3.312499999999999e+01	 9.997264607384615e+00
0	 3.750000000000000e+00	 3.374999999999999e+01	 9.997392331076920e+00
0	 3.750000000000000e+00	 3.437499999999999e+01	 9.997525338461539e+00
0	 3.750000000000000e+00	 3.499999999999999e+01	 9.997663629538460e+00
0	 3.750000000000000e+00	 3.562499999999999e+01	 9.997807204307692e+00
0	 3.750000000000000e+00	 3.624999999999999e+01	 9.997956062769228e+00
0	 3.750000000000000e+00	 3.687499999999999e+01	 9.998110204923078e+00
0	 3.750000000000000e+00	 3.750000000000001e+01	 9.998269630769224e+00
0	 4.375000000000000e+00	 3.125000000000000e+01	 9.997132107692305e+00
0	 4.374999999999999e+00	 3.187499999999999e+01	 9.997201037538456e+00
0	 4.375000000000000e+00	 3.249999999999999e+01	 9.997281245538456e+00
0	 4.375000000000000e+00	 3.312500000000000e+01	 9.997372731692304e+00
0	 4.375000000000000e+00	 3.374999999999999e+01	 9.997475495999993e+00
0	 4.375000000000000e+00	 3.437499999999999e+01	 9.997589538461531e+00
0	 4.375000000000001e+00	 3.499999999999999e+01	 9.997714859076924e+00
0	 4.375000000000000e+00	 3.562499999999999e+01	 9.997851457846149e+00
0	 4.375000000000000e+00	 3.624999999999998e+01	 9.997999334769220e+00
0	 4.375000000000000e+00	 3.687499999999998e+01	 9.998158489846137e+00
0	 4.375000000000000e+00	 3.750000000000000e+01	 9.998328923076921e+00
0	 5.000000000000000e+00	 3.125000000000001e+01	 9.997322215384610e+00
0	 4.999999999999999e+00	 3.187500000000000e+01	 9.997353608615390e+00
0	 5.000000000000000e+00	 3.249999999999999e+01	 9.997402274461537e+00
0	 4.999999999999998e+00	 3.312499999999999e+01	 9.997468212923076e+00
0	 4.999999999999999e+00	 3.374999999999999e+01	 9.997551423999997e+00
0	 4.999999999999999e+00	 3.437499999999999e+01	 9.997651907692305e+00
0	 4.999999999999999e+00	 3.499999999999998e+01	 9.997769663999993e+00
0	 5.000000000000000e+00	 3.562499999999999e+01	 9.997904692923072e+00
0	 5.000000000000000e+00	 3.624999999999999e+01	 9.998056994461539e+00
0	 4.999999999999999e+00	 3.687499999999998e+01	 9.998226568615383e+00
0	 5.000000000000000e+00	 3.750000000000001e+01	 9.998413415384615e+00
0	 5.625000000000000e+00	 3.125000000000000e+01	 9.997483461538462e+00
0	 5.624999999999999e+00	 3.187500000000000e+01	 9.997482724307687e+00
0	 5.624999999999999e+00	 3.250000000000000e+01	 9.997505254153843e+00
0	 5.625000000000001e+00	 3.312500000000000e+01	 9.997551051076922e+00
0	 5.625000000000000e+00	 3.374999999999999e+01	 9.997620115076920e+00
0	 5.624999999999999e+00	 3.437499999999999e+01	 9.997712446153841e+00
0	 5.624999999999999e+00	 3.499999999999999e+01	 9.997828044307695e+00
0	 5.625000000000000e+00	 3.562499999999999e+01	 9.997966909538462e+00
0	 5.625000000000000e+00	 3.624999999999999e+01	 9.998129041846152e+00
0	 5.624999999999999e+00	 3.687499999999998e+01	 9.998314441230761e+00
0	 5.625000000000000e+00	 3.750000000000000e+01	 9.998523107692305e+00
0	 6.250000000000000e+00	 3.125000000000000e+01	 9.997615846153842e+00
0	 6.250000000000000e+00	 3.187500000000000e+01	 9.997588384615378e+00
0	 6.250000000000001e+00	 3.250000000000001e+01	 9.997590184615383e+00
0	 6.250000000000000e+00	 3.312499999999999e+01	 9.997621246153839e+00
0	 6.250000000000001e+00	 3.374999999999999e+01	 9.997681569230767e+00
0	 6.250000000000000e+00	 3.437499999999999e+01	 9.997771153846147e+00
0	 6.250000000000000e+00	 3.499999999999999e+01	 9.997889999999998e+00
0	 6.250000000000000e+00	 3.562499999999999e+01	 9.998038107692308e+00
0	 6.250000000000000e+00	 3.624999999999998e+01	 9.998215476923074e+00
0	 6.250000000000000e+00	 3.687499999999998e+01	 9.998422107692299e+00
0	 6.250000000000000e+00	 3.750000000000000e+01	 9.998658000000001e+00
0	 0.000000000000000e+00	 3.750000000000000e+01	 9.998443076923072e+00
0	 0.000000000000000e+00	 3.812500000000000e+01	 9.998483298461535e+00
0	 0.000000000000000e+00	 3.874999999999999e+01	 9.998543901538469e+00
0	 0.000000000000000e+00	 3.937499999999999e+01	 9.998624886153848e+00
0	 0.000000000000000e+00	 3.999999999999999e+01	 9.998726252307694e+00
0	 0.000000000000000e+00	 4.062499999999999e+01	 9.998847999999997e+00
0	 0.000000000000000e+00	 4.124999999999999e+01	 9.998990129230778e+00
0	 0.000000000000000e+00	 4.187499999999999e+01	 9.999152639999993e+00
0	 0.000000000000000e+00	 4.249999999999998e+01	 9.999335532307699e+00
0	 0.000000000000000e+00	 4.312499999999998e+01	 9.999538806153835e+00
0	 0.000000000000000e+00	 4.375000000000000e+01	 9.999762461538470e+00
0	 6.250000000000000e-01	 3.750000000000000e+01	 9.998351169230768e+00
0	 6.250000000000000e-01	 3.812499999999999e+01	 9.998408943076907e+00
0	 6.249999999999999e-01	 3.874999999999999e+01	 9.998484523076916e+00
0	 6.249999999999999e-01	 3.937500000000000e+01	 9.998577909230766e+00
0	 6.249999999999999e-01	 3.999999999999999e+01	 9.998689101538449e+00
0	 6.249999999999998e-01	 4.062499999999999e+01	 9.998818099999994e+00
0	 6.250000000000000e-01	 4.124999999999998e+01	 9.998964904615384e+00
0	 6.249999999999999e-01	 4.187499999999999e+01	 9.999129515384620e+00
0	 6.250000000000000e-01	 4.249999999999998e+01	 9.999311932307695e+00
0	 6.249999999999999e-01	 4.312499999999997e+01	 9.999512155384615e+00
0	 6.250000000000000e-01	 4.375000000000000e+01	 9.999730184615384e+00
0	 1.250000000000000e+00	 3.750000000000000e+01	 9.998284461538457e+00
0	 1.250000000000000e+00	 3.812499999999999e+01	 9.998357892307698e+00
0	 1.250000000000000e+00	 3.874999999999999e+01	 9.998446553846144e+00
0	 1.250000000000000e+00	 3.937499999999999e+01	 9.998550446153843e+00
0	 1.250000000000000e+00	 3.999999999999999e+01	 9.998669569230769e+00
0	 1.250000000000000e+00	 4.062499999999999e+01	 9.998803923076926e+00
0	 1.250000000000000e+00	 4.124999999999996e+01	 9.998953507692320e+00
0	 1.250000000000000e+00	 4.187499999999998e+01	 9.999118323076930e+00
0	 1.250000000000000e+00	 4.249999999999999e+01	 9.999298369230766e+00
0	 1.250000000000000e+00	 4.312499999999998e+01	 9.999493646153848e+00
0	 1.250000000000000e+00	 4.375000000000000e+01	 9.999704153846155e+00
0	 1.875000000000000e+00	 3.750000000000001e+01	 9.998242953846148e+00
0	 1.875000000000000e+00	 3.812500000000001e+01	 9.998330146153847e+00
0	 1.875000000000000e+00	 3.874999999999999e+01	 9.998429993846154e+00
0	 1.875000000000000e+00	 3.937500000000000e+01	 9.998542496923077e+00
0	 1.875000000000000e+00	 3.999999999999998e+01	 9.998667655384613e+00
0	 1.875000000000000e+00	 4.062499999999999e+01	 9.998805469230769e+00
0	 1.875000000000000e+00	 4.124999999999998e+01	 9.998955938461545e+00
0	 1.875000000000000e+00	 4.187499999999999e+01	 9.999119063076915e+00
0	 1.875000000000001e+00	 4.249999999999999e+01	 9.999294843076932e+00
0	 1.875000000000000e+00	 4.312499999999997e+01	 9.999483278461531e+00
0	 1.875000000000000e+00	 4.375000000000001e+01	 9.999684369230767e+00
0	 2.500000000000000e+00	 3.750000000000000e+01	 9.998226646153840e+00
0	 2.500000000000001e+00	 3.812500000000000e+01	 9.998325704615384e+00
0	 2.500000000000000e+00	 3.875000000000001e+01	 9.998434843076925e+00
0	 2.500000000000000e+00	 3.937499999999999e+01	 9.998554061538464e+00
0	 2.500000000000000e+00	 3.999999999999999e+01	 9.998683359999999e+00
0	 2.500000000000000e+00	 4.062499999999999e+01	 9.998822738461541e+00
0	 2.500000000000000e+00	 4.124999999999998e+01	 9.998972196923079e+00
0	 2.500000000000000e+00	 4.187499999999998e+01	 9.999131735384610e+00
0	 2.500000000000000e+00	 4.249999999999998e+01	 9.999301353846157e+00
0	 2.500000000000000e+00	 4.312499999999998e+01	 9.999481052307694e+00
0	 2.500000000000000e+00	 4.375000000000000e+01	 9.999670830769237e+00
0	 3.125000000000000e+00	 3.750000000000000e+01	 9.998235538461527e+00
0	 3.124999999999999e+00	 3.812499999999999e+01	 9.998344567692302e+00
0	 3.125000000000001e+00	 3.875000000000000e+01	 9.998461101538453e+00
0	 3.125000000000000e+00	 3.937499999999999e+01	 9.998585140000003e+00
0	 3.125000000000000e+00	 4.000000000000001e+01	 9.998716683076923e+00
0	 3.125000000000000e+00	 4.062499999999999e+01	 9.998855730769222e+00
0	 3.125000000000000e+00	 4.124999999999999e+01	 9.999002283076930e+00
0	 3.125000000000000e+00	 4.187499999999999e+01	 9.999156339999997e+00
0	 3.125000000000000e+00	 4.249999999999998e+01	 9.999317901538463e+00
0	 3.125000000000000e+00	 4.312499999999998e+01	 9.999486967692297e+00
0	 3.125000000000000e+00	 4.375000000000000e+01	 9.999663538461542e+00
0	 3.750000000000000e+00	 3.750000000000001e+01	 9.998269630769224e+00
0	 3.750000000000000e+00	 3.812499999999999e+01	 9.998386735384617e+00
0	 3.750000000000001e+00	 3.874999999999999e+01	 9.998508769230767e+00
0	 3.750000000000000e+00	 3.937499999999999e+01	 9.998635732307685e+00
0	 3.750000000000000e+00	 3.999999999999999e+01	 9.998767624615374e+00
0	 3.750000000000000e+00	 4.062499999999999e+01	 9.998904446153849e+00
0	 3.750000000000000e+00	 4.124999999999999e+01	 9.999046196923082e+00
0	 3.750000000000000e+00	 4.187499999999999e+01	 9.999192876923079e+00
0	 3.750000000000000e+00	 4.249999999999999e+01	 9.999344486153849e+00
0	 3.750000000000000e+00	 4.312499999999999e+01	 9.999501024615393e+00
0	 3.750000000000000e+00	 4.375000000000001e+01	 9.999662492307689e+00
0	 4.375000000000000e+00	 3.750000000000000e+01	 9.998328923076921e+00
0	 4.374999999999999e+00	 3.812500000000000e+01	 9.998452207692306e+00
0	 4.375000000000000e+00	 3.874999999999999e+01	 9.998577846153847e+00
0	 4.375000000000000e+00	 3.937500000000000e+01	 9.998705838461539e+00
0	 4.375000000000000e+00	 3.999999999999999e+01	 9.998836184615385e+00
0	 4.375000000000000e+00	 4.062499999999999e+01	 9.998968884615378e+00
0	 4.375000000000001e+00	 4.124999999999999e+01	 9.999103938461539e+00
0	 4.375000000000000e+00	 4.187499999999999e+01	 9.999241346153838e+00
0	 4.375000000000000e+00	 4.249999999999999e+01	 9.999381107692313e+00
0	 4.375000000000000e+00	 4.312499999999998e+01	 9.999523223076922e+00
0	 4.375000000000000e+00	 4.375000000000000e+01	 9.999667692307691e+00
0	 5.000000000000000e+00	 3.750000000000001e+01	 9.998413415384615e+00
0	 4.999999999999999e+00	 3.812500000000000e+01	 9.998540984615389e+00
0	 5.000000000000000e+00	 3.875000000000000e+01	 9.998668332307691e+00
0	 4.999999999999998e+00	 3.937499999999999e+01	 9.998795458461535e+00
0	 4.999999999999999e+00	 3.999999999999999e+01	 9.998922363076920e+00
0	 4.999999999999999e+00	 4.062499999999999e+01	 9.999049046153848e+00
0	 4.999999999999999e+00	 4.124999999999999e+01	 9.999175507692302e+00
0	 5.000000000000000e+00	 4.187499999999999e+01	 9.999301747692314e+00
0	 5.000000000000000e+00	 4.249999999999999e+01	 9.999427766153847e+00
0	 4.999999999999999e+00	 4.312499999999998e+01	 9.999553563076915e+00
0	 5.000000000000000e+00	 4.375000000000001e+01	 9.999679138461531e+00
0	 5.625000000000000e+00	 3.750000000000000e+01	 9.998523107692305e+00
0	 5.624999999999999e+00	 3.812500000000000e+01	 9.998653066153835e+00
0	 5.624999999999999e+00	 3.874999999999999e+01	 9.998780227692313e+00
0	 5.625000000000001e+00	 3.937500000000000e+01	 9.998904592307690e+00
0	 5.625000000000000e+00	 3.999999999999999e+01	 9.999026159999996e+00
0	 5.624999999999999e+00	 4.062499999999999e+01	 9.999144930769225e+00
0	 5.624999999999999e+00	 4.124999999999999e+01	 9.999260904615383e+00
0	 5.625000000000000e+00	 4.187499999999999e+01	 9.999374081538454e+00
0	 5.625000000000000e+00	 4.249999999999998e+01	 9.999484461538463e+00
0	 5.624999999999999e+00	 4.312499999999997e+01	 9.999592044615383e+00
0	 5.625000000000000e+00	 4.375000000000000e+01	 9.999696830769230e+00
0	 6.250000000000000e+00	 3.750000000000000e+01	 9.998658000000001e+00
0	 6.250000000000000e+00	 3.812500000000000e+01	 9.998788452307696e+00
0	 6.250000000000001e+00	 3.875000000000001e+01	 9.998913532307697e+00
0	 6.250000000000000e+00	 3.937499999999999e+01	 9.999033239999999e+00
0	 6.250000000000001e+00	 3.999999999999999e+01	 9.999147575384619e+00
0	 6.250000000000000e+00	 4.062499999999999e+01	 9.999256538461534e+00
0	 6.250000000000000e+00	 4.124999999999999e+01	 9.999360129230762e+00
0	 6.250000000000000e+00	 4.187499999999999e+01	 9.999458347692299e+00
0	 6.250000000000000e+00	 4.249999999999999e+01	 9.999551193846154e+00
0	 6.250000000000000e+00	 4.312499999999999e+01	 9.999638667692288e+00
0	 6.250000000000000e+00	 4.375000000000000e+01	 9.999720769230766e+00
0	 0.000000000000000e+00	 4.375000000000000e+01	 9.999762461538470e+00
0	 0.000000000000000e+00	 4.437500000000001e+01	 9.999766443076929e+00
0	 0.000000000000000e+00	 4.500000000000000e+01	 9.999775926153847e+00
0	 0.000000000000000e+00	 4.562499999999999e+01	 9.999790910769230e+00
0	 0.000000000000000e+00	 4.624999999999999e+01	 9.999811396923072e+00
0	 0.000000000000000e+00	 4.687499999999999e+01	 9.999837384615390e+00
0	 0.000000000000000e+00	 4.749999999999999e+01	 9.999868873846143e+00
0	 0.000000000000000e+00	 4.812499999999999e+01	 9.999905864615407e+00
0	 0.000000000000000e+00	 4.874999999999999e+01	 9.999948356923047e+00
0	 0.000000000000000e+00	 4.937499999999999e+01	 9.999996350769182e+00
0	 0.000000000000000e+00	 5.000000000000000e+01	 1.000004984615384e+01
0	 6.250000000000000e-01	 4.375000000000000e+01	 9.999730184615384e+00
0	 6.250000000000001e-01	 4.437500000000000e+01	 9.999735652769232e+00
0	 6.249999999999998e-01	 4.499999999999999e+01	 9.999747463384615e+00
0	 6.249999999999999e-01	 4.562499999999999e+01	 9.999765616461541e+00
0	 6.250000000000001e-01	 4.625000000000000e+01	 9.999790112000003e+00
0	 6.249999999999998e-01	 4.687499999999999e+01	 9.999820949999993e+00
0	 6.250000000000000e-01	 4.749999999999999e+01	 9.999858130461536e+00
0	 6.250000000000001e-01	 4.812499999999999e+01	 9.999901653384608e+00
0	 6.250000000000000e-01	 4.874999999999998e+01	 9.999951518769246e+00
0	 6.249999999999999e-01	 4.937499999999997e+01	 1.000000772661534e+01
0	 6.250000000000000e-01	 5.000000000000000e+01	 1.000007027692308e+01
0	 1.250000000000000e+00	 4.375000000000000e+01	 9.999704153846155e+00
0	 1.250000000000000e+00	 4.437499999999999e+01	 9.999710527076935e+00
0	 1.250000000000000e+00	 4.499999999999999e+01	 9.999724083692307e+00
0	 1.250000000000000e+00	 4.562500000000001e+01	 9.999744823692319e+00
0	 1.250000000000000e+00	 4.625000000000001e+01	 9.999772747076928e+00
0	 1.250000000000000e+00	 4.687499999999999e+01	 9.999807853846166e+00
0	 1.250000000000000e+00	 4.749999999999999e+01	 9.999850143999996e+00
0	 1.250000000000000e+00	 4.812499999999997e+01	 9.999899617538485e+00
0	 1.250000000000000e+00	 4.874999999999999e+01	 9.999956274461525e+00
0	 1.250000000000000e+00	 4.937499999999998e+01	 1.000002011476922e+01
0	 1.250000000000000e+00	 5.000000000000000e+01	 1.000009113846153e+01
0	 1.875000000000000e+00	 4.375000000000001e+01	 9.999684369230767e+00
0	 1.875000000000000e+00	 4.437500000000001e+01	 9.999691066000018e+00
0	 1.875000000000000e+00	 4.499999999999999e+01	 9.999705787076920e+00
0	 1.875000000000000e+00	 4.562500000000000e+01	 9.999728532461539e+00
0	 1.875000000000000e+00	 4.624999999999999e+01	 9.999759302153839e+00
0	 1.875000000000000e+00	 4.687499999999999e+01	 9.999798096153832e+00
0	 1.875000000000000e+00	 4.749999999999998e+01	 9.999844914461537e+00
0	 1.875000000000000e+00	 4.812500000000000e+01	 9.999899757076934e+00
0	 1.875000000000000e+00	 4.874999999999999e+01	 9.999962624000000e+00
0	 1.875000000000000e+00	 4.937499999999998e+01	 1.000003351523078e+01
0	 1.875000000000000e+00	 5.000000000000000e+01	 1.000011243076922e+01
0	 2.500000000000000e+00	 4.375000000000000e+01	 9.999670830769237e+00
0	 2.500000000000000e+00	 4.437500000000001e+01	 9.999677269538470e+00
0	 2.500000000000000e+00	 4.499999999999999e+01	 9.999692573538457e+00
0	 2.500000000000000e+00	 4.562499999999999e+01	 9.999716742769236e+00
0	 2.500000000000000e+00	 4.624999999999999e+01	 9.999749777230772e+00
0	 2.500000000000000e+00	 4.687499999999999e+01	 9.999791676923078e+00
0	 2.500000000000000e+00	 4.749999999999999e+01	 9.999842441846139e+00
0	 2.500000000000000e+00	 4.812499999999999e+01	 9.999902072000012e+00
0	 2.500000000000000e+00	 4.874999999999999e+01	 9.999970567384608e+00
0	 2.500000000000000e+00	 4.937499999999997e+01	 1.000004792799999e+01
0	 2.500000000000000e+00	 5.000000000000000e+01	 1.000013415384615e+01
0	 3.125000000000000e+00	 4.375000000000000e+01	 9.999663538461542e+00
0	 3.125000000000000e+00	 4.437500000000000e+01	 9.999669137692312e+00
0	 3.125000000000000e+00	 4.500000000000000e+01	 9.999684443076919e+00
0	 3.125000000000000e+00	 4.562500000000000e+01	 9.999709454615388e+00
0	 3.125000000000000e+00	 4.624999999999999e+01	 9.999744172307697e+00
0	 3.125000000000000e+00	 4.687499999999999e+01	 9.999788596153843e+00
0	 3.125000000000000e+00	 4.749999999999999e+01	 9.999842726153846e+00
0	 3.125000000000000e+00	 4.812499999999999e+01	 9.999906562307698e+00
0	 3.125000000000000e+00	 4.874999999999998e+01	 9.999980104615375e+00
0	 3.125000000000000e+00	 4.937499999999998e+01	 1.000006335307689e+01
0	 3.125000000000000e+00	 5.000000000000000e+01	 1.000015630769230e+01
0	 3.750000000000000e+00	 4.375000000000001e+01	 9.999662492307689e+00
0	 3.750000000000000e+00	 4.437499999999999e+01	 9.999666670461544e+00
0	 3.750000000000000e+00	 4.500000000000000e+01	 9.999681395692303e+00
0	 3.750000000000000e+00	 4.562499999999999e+01	 9.999706667999998e+00
0	 3.750000000000000e+00	 4.624999999999999e+01	 9.999742487384626e+00
0	 3.750000000000000e+00	 4.687499999999999e+01	 9.999788853846164e+00
0	 3.750000000000000e+00	 4.749999999999999e+01	 9.999845767384613e+00
0	 3.750000000000000e+00	 4.812499999999999e+01	 9.999913228000009e+00
0	 3.750000000000000e+00	 4.874999999999998e+01	 9.999991235692296e+00
0	 3.750000000000000e+00	 4.937499999999998e+01	 1.000007979046153e+01
0	 3.750000000000000e+00	 4.999999999999999e+01	 1.000017889230773e+01
0	 4.375000000000000e+00	 4.375000000000000e+01	 9.999667692307691e+00
0	 4.375000000000000e+00	 4.437500000000001e+01	 9.999669867846155e+00
0	 4.374999999999999e+00	 4.499999999999999e+01	 9.999683431384613e+00
0	 4.375000000000000e+00	 4.562500000000000e+01	 9.999708382923071e+00
0	 4.374999999999999e+00	 4.624999999999999e+01	 9.999744722461537e+00
0	 4.375000000000000e+00	 4.687499999999999e+01	 9.999792450000003e+00
0	 4.375000000000000e+00	 4.749999999999999e+01	 9.999851565538471e+00
0	 4.375000000000000e+00	 4.812499999999999e+01	 9.999922069076918e+00
0	 4.374999999999999e+00	 4.874999999999999e+01	 1.000000396061539e+01
0	 4.375000000000000e+00	 4.937499999999999e+01	 1.000009724015385e+01
0	 4.375000000000000e+00	 5.000000000000000e+01	 1.000020190769233e+01
0	 5.000000000000000e+00	 4.375000000000001e+01	 9.999679138461531e+00
0	 5.000000000000000e+00	 4.437500000000000e+01	 9.999678729846156e+00
0	 5.000000000000000e+00	 4.499999999999999e+01	 9.999690550153844e+00
0	 4.999999999999999e+00	 4.562499999999999e+01	 9.999714599384621e+00
0	 4.999999999999999e+00	 4.625000000000000e+01	 9.999750877538455e+00
0	 4.999999999999999e+00	 4.687499999999999e+01	 9.999799384615388e+00
0	 5.000000000000000e+00	 4.749999999999999e+01	 9.999860120615402e+00
0	 5.000000000000000e+00	 4.812499999999999e+01	 9.999933085538487e+00
0	 5.000000000000000e+00	 4.874999999999998e+01	 1.000001827938461e+01
0	 4.999999999999999e+00	 4.937499999999998e+01	 1.000011570215385e+01
0	 5.000000000000000e+00	 5.000000000000001e+01	 1.000022535384617e+01
0	 5.625000000000000e+00	 4.375000000000000e+01	 9.999696830769230e+00
0	 5.625000000000000e+00	 4.437500000000001e+01	 9.999693256461530e+00
0	 5.625000000000000e+00	 4.500000000000000e+01	 9.999702752000001e+00
0	 5.625000000000000e+00	 4.562499999999999e+01	 9.999725317384611e+00
0	 5.625000000000000e+00	 4.624999999999999e+01	 9.999760952615386e+00
0	 5.625000000000000e+00	 4.687499999999999e+01	 9.999809657692314e+00
0	 5.625000000000000e+00	 4.749999999999999e+01	 9.999871432615391e+00
0	 5.625000000000000e+00	 4.812499999999999e+01	 9.999946277384602e+00
0	 5.624999999999999e+00	 4.874999999999999e+01	 1.000003419199999e+01
0	 5.625000000000000e+00	 4.937499999999999e+01	 1.000013517646155e+01
0	 5.624999999999999e+00	 5.000000000000000e+01	 1.000024923076923e+01
0	 6.250000000000000e+00	 4.375000000000000e+01	 9.999720769230766e+00
0	 6.250000000000000e+00	 4.437500000000000e+01	 9.999713447692306e+00
0	 6.250000000000000e+00	 4.499999999999999e+01	 9.999720036923073e+00
0	 6.250000000000000e+00	 4.562499999999999e+01	 9.999740536923076e+00
0	 6.250000000000001e+00	 4.624999999999999e+01	 9.999774947692309e+00
0	 6.250000000000000e+00	 4.687499999999999e+01	 9.999823269230767e+00
0	 6.250000000000000e+00	 4.749999999999999e+01	 9.999885501538461e+00
0	 6.250000000000000e+00	 4.812499999999999e+01	 9.999961644615384e+00
0	 6.250000000000001e+00	 4.874999999999999e+01	 1.000005169846154e+01
0	 6.250000000000000e+00	 4.937499999999999e+01	 1.000015566307690e+01
0	 6.250000000000000e+00	 5.000000000000000e+01	 1.000027353846154e+01
0	 6.250000000000000e+00	 0.000000000000000e+00	 1.011207076923077e+01
0	 6.250000000000000e+00	 6.250000000000000e-01	 1.008943602000000e+01
0	 6.250000000000000e+00	 1.250000000000000e+00	 1.006984734153846e+01
0	 6.250000000000000e+00	 1.875000000000000e+00	 1.005330473384615e+01
0	 6.250000000000000e+00	 2.500000000000000e+00	 1.003980819692308e+01
0	 6.250000000000000e+00	 3.125000000000000e+00	 1.002935773076923e+01
0	 6.250000000000000e+00	 3.750000000000000e+00	 1.002195333538461e+01
0	 6.250000000000000e+00	 4.375000000000000e+00	 1.001759501076923e+01
0	 6.250000000000001e+00	 5.000000000000000e+00	 1.001628275692308e+01
0	 6.250000000000000e+00	 5.624999999999999e+00	 1.001801657384615e+01
0	 6.250000000000000e+00	 6.250000000000000e+00	 1.002279646153846e+01
0	 6.875000000000001e+00	 0.000000000000000e+00	 1.008987762769230e+01
0	 6.875000000000001e+00	 6.250000000000001e-01	 1.007149754384615e+01
0	 6.874999999999999e+00	 1.250000000000000e+00	 1.005579006492307e+01
0	 6.875000000000000e+00	 1.875000000000000e+00	 1.004275519092307e+01
0	 6.875000000000001e+00	 2.500000000000000e+00	 1.003239292184615e+01
0	 6.875000000000001e+00	 3.125000000000000e+00	 1.002470325769230e+01
0	 6.875000000000000e+00	 3.750000000000000e+00	 1.001968619846154e+01
0	 6.875000000000001e+00	 4.375000000000001e+00	 1.001734174415384e+01
0	 6.875000000000002e+00	 4.999999999999999e+00	 1.001766989476923e+01
0	 6.875000000000000e+00	 5.624999999999999e+00	 1.002067065030769e+01
0	 6.875000000000000e+00	 6.250000000000000e+00	 1.002634401076923e+01
0	 7.500000000000003e+00	 0.000000000000000e+00	 1.007011561846154e+01
0	 7.500000000000003e+00	 6.250000000000001e-01	 1.005569143353846e+01
0	 7.500000000000001e+00	 1.250000000000000e+00	 1.004356638769231e+01
0	 7.500000000000000e+00	 1.875000000000000e+00	 1.003374048092308e+01
0	 7.500000000000002e+00	 2.500000000000000e+00	 1.002621371323077e+01
0	 7.500000000000001e+00	 3.125000000000000e+00	 1.002098608461538e+01
0	 7.500000000000002e+00	 3.750000000000000e+00	 1.001805759507692e+01
0	 7.500000000000003e+00	 4.375000000000000e+00	 1.001742824461538e+01
0	 7.500000000000001e+00	 5.000000000000000e+00	 1.001909803323077e+01
0	 7.500000000000002e+00	 5.625000000000001e+00	 1.002306696092308e+01
0	 7.500000000000001e+00	 6.250000000000000e+00	 1.002933502769231e+01
0	 8.125000000000004e+00	 0.000000000000000e+00	 1.005278474153846e+01
0	 8.125000000000002e+00	 6.250000000000000e-01	 1.004201768907692e+01
0	 8.125000000000004e+00	 1.250000000000000e+00	 1.003317630984615e+01
0	 8.125000000000002e+00	 1.875000000000000e+00	 1.002626060384615e+01
0	 8.125000000000004e+00	 2.500000000000001e+00	 1.002127057107693e+01
0	 8.125000000000002e+00	 3.125000000000000e+00	 1.001820621153846e+01
0	 8.125000000000002e+00	 3.750000000000000e+00	 1.001706752523076e+01
0	 8.125000000000002e+00	 4.374999999999999e+00	 1.001785451215385e+01
0	 8.125000000000002e+00	 5.000000000000000e+00	 1.002056717230770e+01
0	 8.125000000000004e+00	 5.624999999999999e+00	 1.002520550569231e+01
0	 8.125000000000002e+00	 6.250000000000000e+00	 1.003176951230769e+01
0	 8.750000000000002e+00	 0.000000000000000e+00	 1.003788499692307e+01
0	 8.750000000000002e+00	 6.249999999999999e-01	 1.003047631046153e+01
0	 8.750000000000004e+00	 1.250000000000000e+00	 1.002461983138462e+01
0	 8.750000000000002e+00	 1.875000000000000e+00	 1.002031555969231e+01
0	 8.750000000000000e+00	 2.500000000000000e+00	 1.001756349538461e+01
0	 8.750000000000002e+00	 3.125000000000000e+00	 1.001636363846154e+01
0	 8.750000000000004e+00	 3.750000000000000e+00	 1.001671598892308e+01
0	 8.750000000000002e+00	 4.375000000000000e+00	 1.001862054676923e+01
0	 8.750000000000000e+00	 4.999999999999999e+00	 1.002207731200000e+01
0	 8.750000000000004e+00	 5.625000000000000e+00	 1.002708628461538e+01
0	 8.750000000000004e+00	 6.250000000000001e+00	 1.003364746461538e+01
0	 9.375000000000004e+00	 0.000000000000000e+00	 1.002541638461538e+01
0	 9.375000000000000e+00	 6.249999999999998e-01	 1.002106729769230e+01
0	 9.375000000000002e+00	 1.250000000000000e+00	 1.001789695230769e+01
0	 9.375000000000002e+00	 1.875000000000000e+00	 1.001590534846153e+01
0	 9.375000000000002e+00	 2.500000000000000e+00	 1.001509248615384e+01
0	 9.375000000000004e+00	 3.125000000000000e+00	 1.001545836538461e+01
0	 9.375000000000002e+00	 3.750000000000000e+00	 1.001700298615385e+01
0	 9.375000000000004e+00	 4.375000000000002e+00	 1.001972634846154e+01
0	 9.375000000000002e+00	 4.999999999999999e+00	 1.002362845230769e+01
0	 9.375000000000005e+00	 5.625000000000000e+00	 1.002870929769231e+01
0	 9.375000000000002e+00	 6.249999999999999e+00	 1.003496888461538e+01
0	 1.000000000000000e+01	 0.000000000000000e+00	 1.001537890461538e+01
0	 1.000000000000000e+01	 6.249999999999998e-01	 1.001379065076923e+01
0	 1.000000000000001e+01	 1.250000000000000e+00	 1.001300767261538e+01
0	 1.000000000000001e+01	 1.875000000000001e+00	 1.001302997015384e+01
0	 1.000000000000000e+01	 2.500000000000000e+00	 1.001385754338461e+01
0	 1.000000000000000e+01	 3.125000000000000e+00	 1.001549039230769e+01
0	 1.000000000000000e+01	 3.750000000000000e+00	 1.001792851692308e+01
0	 1.000000000000001e+01	 4.375000000000001e+00	 1.002117191723077e+01
0	 1.000000000000001e+01	 4.999999999999999e+00	 1.002522059323077e+01
0	 1.000000000000001e+01	 5.625000000000000e+00	 1.003007454492307e+01
0	 1.000000000000000e+01	 6.250000000000001e+00	 1.003573377230769e+01
0	 1.062500000000000e+01	 0.000000000000000e+00	 1.000777255692307e+01
0	 1.062500000000000e+01	 6.250000000000000e-01	 1.000864636969230e+01
0	 1.062500000000001e+01	 1.250000000000000e+00	 1.000995199230769e+01
0	 1.062500000000000e+01	 1.875000000000000e+00	 1.001168942476923e+01
0	 1.062500000000001e+01	 2.500000000000000e+00	 1.001385866707692e+01
0	 1.062500000000000e+01	 3.125000000000000e+00	 1.001645971923077e+01
0	 1.062500000000001e+01	 3.750000000000000e+00	 1.001949258123077e+01
0	 1.062500000000000e+01	 4.375000000000000e+00	 1.002295725307692e+01
0	 1.062500000000000e+01	 5.000000000000000e+00	 1.002685373476923e+01
0	 1.062500000000000e+01	 5.625000000000000e+00	 1.003118202630769e+01
0	 1.062500000000000e+01	 6.250000000000000e+00	 1.003594212769231e+01
0	 1.125000000000001e+01	 0.000000000000000e+00	 1.000259734153846e+01
0	 1.125000000000000e+01	 6.249999999999999e-01	 1.000563445446154e+01
0	 1.125000000000000e+01	 1.250000000000000e+00	 1.000872991138461e+01
0	 1.125000000000000e+01	 1.875000000000000e+00	 1.001188371230769e+01
0	 1.125000000000001e+01	 2.500000000000000e+00	 1.001509585723077e+01
0	 1.125000000000001e+01	 3.125000000000000e+00	 1.001836634615384e+01
0	 1.125000000000000e+01	 3.750000000000000e+00	 1.002169517907692e+01
0	 1.125000000000001e+01	 4.375000000000001e+00	 1.002508235600000e+01
0	 1.125000000000001e+01	 5.000000000000000e+00	 1.002852787692308e+01
0	 1.125000000000000e+01	 5.624999999999999e+00	 1.003203174184615e+01
0	 1.125000000000000e+01	 6.250000000000000e+00	 1.003559395076923e+01
0	 1.187500000000001e+01	 0.000000000000000e+00	 9.999853258461536e+00
0	 1.187500000000001e+01	 6.250000000000000e-01	 1.000475490507692e+01
0	 1.187500000000000e+01	 1.250000000000000e+00	 1.000934142984615e+01
0	 1.187500000000001e+01	 1.875000000000000e+00	 1.001361283276923e+01
0	 1.187500000000001e+01	 2.500000000000000e+00	 1.001756911384615e+01
0	 1.187500000000001e+01	 3.125000000000000e+00	 1.002121027307692e+01
0	 1.187500000000001e+01	 3.750000000000000e+00	 1.002453631046154e+01
0	 1.187500000000001e+01	 4.375000000000000e+00	 1.002754722600000e+01
0	 1.187500000000001e+01	 5.000000000000000e+00	 1.003024301969230e+01
0	 1.187500000000001e+01	 5.624999999999999e+00	 1.003262369153846e+01
0	 1.187500000000001e+01	 6.250000000000001e+00	 1.003468924153846e+01
0	 1.250000000000000e+01	 0.000000000000000e+00	 9.999540307692303e+00
0	 1.250000000000000e+01	 6.250000000000000e-01	 1.000600772153846e+01
0	 1.250000000000000e+01	 1.250000000000000e+00	 1.001178654769231e+01
0	 1.250000000000000e+01	 1.875000000000000e+00	 1.001687678615384e+01
0	 1.250000000000000e+01	 2.500000000000000e+00	 1.002127843692307e+01
0	 1.250000000000000e+01	 3.125000000000000e+00	 1.002499150000000e+01
0	 1.250000000000000e+01	 3.750000000000000e+00	 1.002801597538461e+01
0	 1.250000000000000e+01	 4.375000000000000e+00	 1.003035186307692e+01
0	 1.250000000000000e+01	 5.000000000000000e+00	 1.003199916307692e+01
0	 1.250000000000000e+01	 5.624999999999999e+00	 1.003295787538461e+01
0	 1.250000000000000e+01	 6.250000000000000e+00	 1.003322800000000e+01
0	 6.250000000000000e+00	 6.250000000000000e+00	 1.002279646153846e+01
0	 6.250000000000000e+00	 6.875000000000000e+00	 1.002099665076923e+01
0	 6.250000000000000e+00	 7.500000000000002e+00	 1.001855678769230e+01
0	 6.250000000000001e+00	 8.125000000000004e+00	 1.001547687230769e+01
0	 6.250000000000001e+00	 8.750000000000004e+00	 1.001175690461538e+01
0	 6.250000000000000e+00	 9.375000000000004e+00	 1.000739688461538e+01
0	 6.250000000000000e+00	 1.000000000000000e+01	 1.000239681230769e+01
0	 6.250000000000000e+00	 1.062500000000000e+01	 9.996756687692306e+00
0	 6.250000000000001e+00	 1.125000000000001e+01	 9.990476510769227e+00
0	 6.250000000000000e+00	 1.187500000000001e+01	 9.983556281538462e+00
0	 6.250000000000000e+00	 1.250000000000000e+01	 9.975995999999999e+00
0	 6.875000000000000e+00	 6.250000000000000e+00	 1.002634401076923e+01
0	 6.874999999999999e+00	 6.874999999999999e+00	 1.002431741784615e+01
0	 6.874999999999999e+00	 7.500000000000000e+00	 1.002176426769231e+01
0	 6.875000000000000e+00	 8.125000000000002e+00	 1.001868456030769e+01
0	 6.874999999999999e+00	 8.750000000000000e+00	 1.001507829569231e+01
0	 6.875000000000001e+00	 9.375000000000002e+00	 1.001094547384615e+01
0	 6.875000000000000e+00	 1.000000000000000e+01	 1.000628609476923e+01
0	 6.875000000000002e+00	 1.062500000000000e+01	 1.000110015846154e+01
0	 6.875000000000002e+00	 1.125000000000001e+01	 9.995387664923074e+00
0	 6.875000000000000e+00	 1.187500000000000e+01	 9.989148614153844e+00
0	 6.875000000000000e+00	 1.250000000000000e+01	 9.982383006153844e+00
0	 7.500000000000001e+00	 6.250000000000000e+00	 1.002933502769231e+01
0	 7.500000000000003e+00	 6.875000000000002e+00	 1.002706819323077e+01
0	 7.500000000000003e+00	 7.500000000000003e+00	 1.002438829661538e+01
0	 7.500000000000000e+00	 8.125000000000000e+00	 1.002129533784615e+01
0	 7.500000000000002e+00	 8.750000000000002e+00	 1.001778931692308e+01
0	 7.500000000000002e+00	 9.375000000000005e+00	 1.001387023384615e+01
0	 7.500000000000002e+00	 1.000000000000001e+01	 1.000953808861539e+01
0	 7.500000000000003e+00	 1.062500000000001e+01	 1.000479288123076e+01
0	 7.500000000000001e+00	 1.125000000000000e+01	 9.999634611692306e+00
0	 7.500000000000003e+00	 1.187500000000001e+01	 9.994063279999997e+00
0	 7.500000000000001e+00	 1.250000000000000e+01	 9.988078886153847e+00
0	 8.125000000000002e+00	 6.250000000000000e+00	 1.003176951230769e+01
0	 8.125000000000002e+00	 6.875000000000000e+00	 1.002924897692308e+01
0	 8.125000000000004e+00	 7.500000000000002e+00	 1.002642887446154e+01
0	 8.125000000000000e+00	 8.125000000000000e+00	 1.002330920492307e+01
0	 8.125000000000002e+00	 8.750000000000002e+00	 1.001988996830769e+01
0	 8.125000000000004e+00	 9.375000000000004e+00	 1.001617116461538e+01
0	 8.125000000000002e+00	 1.000000000000000e+01	 1.001215279384615e+01
0	 8.125000000000002e+00	 1.062500000000001e+01	 1.000783485600000e+01
0	 8.125000000000002e+00	 1.125000000000000e+01	 1.000321735107692e+01
0	 8.125000000000002e+00	 1.187500000000000e+01	 9.998300279076922e+00
0	 8.125000000000002e+00	 1.250000000000000e+01	 9.993083639999998e+00
0	 8.750000000000004e+00	 6.250000000000001e+00	 1.003364746461538e+01
0	 8.750000000000000e+00	 6.874999999999997e+00	 1.003085976892307e+01
0	 8.750000000000002e+00	 7.500000000000001e+00	 1.002788600123077e+01
0	 8.750000000000002e+00	 8.125000000000002e+00	 1.002472616153846e+01
0	 8.750000000000002e+00	 8.750000000000002e+00	 1.002138024984615e+01
0	 8.750000000000002e+00	 9.375000000000004e+00	 1.001784826615384e+01
0	 8.750000000000002e+00	 1.000000000000001e+01	 1.001413021046153e+01
0	 8.750000000000004e+00	 1.062500000000001e+01	 1.001022608276923e+01
0	 8.750000000000000e+00	 1.125000000000001e+01	 1.000613588307692e+01
0	 8.750000000000002e+00	 1.187500000000001e+01	 1.000185961138462e+01
0	 8.750000000000004e+00	 1.250000000000000e+01	 9.997397267692309e+00
0	 9.375000000000002e+00	 6.249999999999999e+00	 1.003496888461538e+01
0	 9.375000000000004e+00	 6.875000000000000e+00	 1.003190056923076e+01
0	 9.375000000000000e+00	 7.500000000000001e+00	 1.002875967692308e+01
0	 9.375000000000004e+00	 8.125000000000002e+00	 1.002554620769231e+01
0	 9.375000000000004e+00	 8.750000000000004e+00	 1.002226016153846e+01
0	 9.375000000000004e+00	 9.375000000000002e+00	 1.001890153846154e+01
0	 9.375000000000004e+00	 1.000000000000000e+01	 1.001547033846154e+01
0	 9.375000000000004e+00	 1.062500000000001e+01	 1.001196656153846e+01
0	 9.375000000000002e+00	 1.125000000000001e+01	 1.000839020769230e+01
0	 9.375000000000004e+00	 1.187500000000000e+01	 1.000474127692308e+01
0	 9.375000000000002e+00	 1.250000000000000e+01	 1.000101976923077e+01
0	 1.000000000000000e+01	 6.250000000000001e+00	 1.003573377230769e+01
0	 1.000000000000000e+01	 6.875000000000001e+00	 1.003237137784615e+01
0	 1.000000000000000e+01	 7.500000000000002e+00	 1.002904990153846e+01
0	 1.000000000000001e+01	 8.125000000000004e+00	 1.002576934338461e+01
0	 1.000000000000000e+01	 8.750000000000004e+00	 1.002252970338461e+01
0	 1.000000000000000e+01	 9.375000000000004e+00	 1.001933098153846e+01
0	 1.000000000000000e+01	 1.000000000000000e+01	 1.001617317784616e+01
0	 1.000000000000001e+01	 1.062500000000001e+01	 1.001305629230769e+01
0	 1.000000000000001e+01	 1.125000000000001e+01	 1.000998032492307e+01
0	 1.000000000000000e+01	 1.187500000000000e+01	 1.000694527569231e+01
0	 1.000000000000000e+01	 1.250000000000000e+01	 1.000395114461539e+01
0	 1.062500000000000e+01	 6.250000000000000e+00	 1.003594212769231e+01
0	 1.062500000000000e+01	 6.875000000000001e+00	 1.003227219476923e+01
0	 1.062500000000000e+01	 7.500000000000003e+00	 1.002875667507692e+01
0	 1.062500000000000e+01	 8.125000000000000e+00	 1.002539556861539e+01
0	 1.062500000000000e+01	 8.750000000000002e+00	 1.002218887538462e+01
0	 1.062500000000000e+01	 9.375000000000004e+00	 1.001913659538461e+01
0	 1.062500000000000e+01	 1.000000000000000e+01	 1.001623872861538e+01
0	 1.062500000000000e+01	 1.062500000000000e+01	 1.001349527507692e+01
0	 1.062500000000000e+01	 1.125000000000001e+01	 1.001090623476923e+01
0	 1.062500000000000e+01	 1.187500000000001e+01	 1.000847160769231e+01
0	 1.062500000000000e+01	 1.250000000000000e+01	 1.000619139384615e+01
0	 1.125000000000000e+01	 6.250000000000000e+00	 1.003559395076923e+01
0	 1.125000000000001e+01	 6.875000000000000e+00	 1.003160302000000e+01
0	 1.125000000000000e+01	 7.500000000000002e+00	 1.002787999753846e+01
0	 1.125000000000000e+01	 8.125000000000002e+00	 1.002442488338462e+01
0	 1.125000000000001e+01	 8.750000000000002e+00	 1.002123767753846e+01
0	 1.125000000000000e+01	 9.375000000000002e+00	 1.001831838000000e+01
0	 1.125000000000001e+01	 1.000000000000001e+01	 1.001566699076923e+01
0	 1.125000000000001e+01	 1.062500000000001e+01	 1.001328350984615e+01
0	 1.125000000000000e+01	 1.125000000000000e+01	 1.001116793723077e+01
0	 1.125000000000001e+01	 1.187500000000001e+01	 1.000932027292307e+01
0	 1.125000000000000e+01	 1.250000000000000e+01	 1.000774051692308e+01
0	 1.187500000000001e+01	 6.250000000000001e+00	 1.003468924153846e+01
0	 1.187500000000001e+01	 6.875000000000001e+00	 1.003036385353846e+01
0	 1.187500000000001e+01	 7.500000000000002e+00	 1.002641986892308e+01
0	 1.187500000000000e+01	 8.125000000000002e+00	 1.002285728769231e+01
0	 1.187500000000000e+01	 8.750000000000000e+00	 1.001967610984615e+01
0	 1.187500000000001e+01	 9.375000000000002e+00	 1.001687633538461e+01
0	 1.187500000000000e+01	 1.000000000000000e+01	 1.001445796430769e+01
0	 1.187500000000001e+01	 1.062500000000000e+01	 1.001242099661538e+01
0	 1.187500000000001e+01	 1.125000000000001e+01	 1.001076543230769e+01
0	 1.187500000000001e+01	 1.187500000000001e+01	 1.000949127138461e+01
0	 1.187500000000001e+01	 1.250000000000000e+01	 1.000859851384615e+01
0	 1.250000000000000e+01	 6.250000000000000e+00	 1.003322800000000e+01
0	 1.250000000000000e+01	 6.875000000000000e+00	 1.002855469538461e+01
0	 1.250000000000000e+01	 7.500000000000002e+00	 1.002437628923077e+01
0	 1.250000000000000e+01	 8.125000000000004e+00	 1.002069278153846e+01
0	 1.250000000000000e+01	 8.750000000000004e+00	 1.001750417230769e+01
0	 1.250000000000000e+01	 9.375000000000004e+00	 1.001481046153846e+01
0	 1.250000000000000e+01	 1.000000000000000e+01	 1.001261164923076e+01
0	 1.250000000000000e+01	 1.062500000000000e+01	 1.001090773538462e+01
0	 1.250000000000000e+01	 1.125000000000001e+01	 1.000969872000000e+01
0	 1.250000000000000e+01	 1.187500000000001e+01	 1.000898460307692e+01
0	 1.250000000000000e+01	 1.250000000000000e+01	 1.000876538461538e+01
0	 6.250000000000000e+00	 1.250000000000000e+01	 9.975995999999999e+00
0	 6.250000000000000e+00	 1.312500000000000e+01	 9.978761367692309e+00
0	 6.250000000000000e+00	 1.375000000000000e+01	 9.981363193846153e+00
0	 6.250000000000001e+00	 1.437500000000000e+01	 9.983801478461535e+00
0	 6.250000000000001e+00	 1.500000000000000e+01	 9.986076221538461e+00
0	 6.250000000000000e+00	 1.562500000000000e+01	 9.988187423076925e+00
0	 6.250000000000000e+00	 1.625000000000000e+01	 9.990135083076922e+00
0	 6.250000000000000e+00	 1.687500000000000e+01	 9.991919201538465e+00
0	 6.250000000000001e+00	 1.750000000000001e+01	 9.993539778461539e+00
0	 6.250000000000000e+00	 1.812500000000001e+01	 9.994996813846154e+00
0	 6.250000000000000e+00	 1.875000000000000e+01	 9.996290307692309e+00
0	 6.875000000000000e+00	 1.250000000000000e+01	 9.982383006153844e+00
0	 6.874999999999999e+00	 1.312500000000000e+01	 9.984479644769227e+00
0	 6.874999999999999e+00	 1.375000000000000e+01	 9.986419171076921e+00
0	 6.875000000000000e+00	 1.437500000000000e+01	 9.988201585076920e+00
0	 6.874999999999999e+00	 1.500000000000000e+01	 9.989826886769229e+00
0	 6.875000000000001e+00	 1.562500000000000e+01	 9.991295076153847e+00
0	 6.875000000000000e+00	 1.625000000000000e+01	 9.992606153230771e+00
0	 6.875000000000002e+00	 1.687500000000000e+01	 9.993760117999994e+00
0	 6.875000000000002e+00	 1.750000000000000e+01	 9.994756970461539e+00
0	 6.875000000000000e+00	 1.812500000000001e+01	 9.995596710615382e+00
0	 6.875000000000000e+00	 1.875000000000000e+01	 9.996279338461539e+00
0	 7.500000000000001e+00	 1.250000000000000e+01	 9.988078886153847e+00
0	 7.500000000000003e+00	 1.312500000000000e+01	 9.989582951384612e+00
0	 7.500000000000003e+00	 1.375000000000000e+01	 9.990936333538462e+00
0	 7.500000000000000e+00	 1.437500000000000e+01	 9.992139032615384e+00
0	 7.500000000000002e+00	 1.500000000000000e+01	 9.993191048615381e+00
0	 7.500000000000002e+00	 1.562500000000001e+01	 9.994092381538458e+00
0	 7.500000000000002e+00	 1.625000000000000e+01	 9.994843031384613e+00
0	 7.500000000000003e+00	 1.687500000000001e+01	 9.995442998153848e+00
0	 7.500000000000001e+00	 1.750000000000000e+01	 9.995892281846153e+00
0	 7.500000000000003e+00	 1.812500000000001e+01	 9.996190882461541e+00
0	 7.500000000000001e+00	 1.875000000000000e+01	 9.996338799999997e+00
0	 8.125000000000002e+00	 1.250000000000000e+01	 9.993083639999998e+00
0	 8.125000000000002e+00	 1.312500000000000e+01	 9.994071287538464e+00
0	 8.125000000000004e+00	 1.375000000000000e+01	 9.994914681230767e+00
0	 8.125000000000000e+00	 1.437500000000000e+01	 9.995613821076921e+00
0	 8.125000000000002e+00	 1.500000000000000e+01	 9.996168707076922e+00
0	 8.125000000000004e+00	 1.562500000000001e+01	 9.996579339230770e+00
0	 8.125000000000002e+00	 1.625000000000000e+01	 9.996845717538459e+00
0	 8.125000000000002e+00	 1.687500000000000e+01	 9.996967842000000e+00
0	 8.125000000000002e+00	 1.750000000000000e+01	 9.996945712615382e+00
0	 8.125000000000002e+00	 1.812500000000000e+01	 9.996779329384610e+00
0	 8.125000000000002e+00	 1.875000000000000e+01	 9.996468692307698e+00
0	 8.750000000000004e+00	 1.250000000000000e+01	 9.997397267692309e+00
0	 8.750000000000000e+00	 1.312500000000000e+01	 9.997944653230762e+00
0	 8.750000000000002e+00	 1.375000000000000e+01	 9.998354214153846e+00
0	 8.750000000000002e+00	 1.437500000000000e+01	 9.998625950461536e+00
0	 8.750000000000002e+00	 1.500000000000000e+01	 9.998759862153845e+00
0	 8.750000000000002e+00	 1.562500000000000e+01	 9.998755949230766e+00
0	 8.750000000000002e+00	 1.625000000000000e+01	 9.998614211692310e+00
0	 8.750000000000004e+00	 1.687500000000001e+01	 9.998334649538462e+00
0	 8.750000000000000e+00	 1.750000000000000e+01	 9.997917262769228e+00
0	 8.750000000000002e+00	 1.812500000000001e+01	 9.997362051384611e+00
0	 8.750000000000004e+00	 1.875000000000000e+01	 9.996669015384608e+00
0	 9.375000000000002e+00	 1.250000000000000e+01	 1.000101976923077e+01
0	 9.375000000000004e+00	 1.312500000000000e+01	 1.000120304846153e+01
0	 9.375000000000000e+00	 1.375000000000000e+01	 1.000125493230769e+01
0	 9.375000000000004e+00	 1.437500000000000e+01	 1.000117542076923e+01
0	 9.375000000000004e+00	 1.500000000000000e+01	 1.000096451384615e+01
0	 9.375000000000004e+00	 1.562500000000001e+01	 1.000062221153846e+01
0	 9.375000000000004e+00	 1.625000000000000e+01	 1.000014851384615e+01
0	 9.375000000000004e+00	 1.687500000000001e+01	 9.999543420769225e+00
0	 9.375000000000002e+00	 1.750000000000000e+01	 9.998806932307692e+00
0	 9.375000000000004e+00	 1.812500000000000e+01	 9.997939048461538e+00
0	 9.375000000000002e+00	 1.875000000000000e+01	 9.996939769230771e+00
0	 1.000000000000000e+01	 1.250000000000000e+01	 1.000395114461539e+01
0	 1.000000000000000e+01	 1.312500000000000e+01	 1.000384647323077e+01
0	 1.000000000000000e+01	 1.375000000000000e+01	 1.000361683569231e+01
0	 1.000000000000001e+01	 1.437500000000001e+01	 1.000326223200000e+01
0	 1.000000000000000e+01	 1.500000000000000e+01	 1.000278266215384e+01
0	 1.000000000000000e+01	 1.562500000000000e+01	 1.000217812615385e+01
0	 1.000000000000000e+01	 1.625000000000000e+01	 1.000144862400000e+01
0	 1.000000000000001e+01	 1.687500000000001e+01	 1.000059415569230e+01
0	 1.000000000000001e+01	 1.750000000000001e+01	 9.999614721230767e+00
0	 1.000000000000000e+01	 1.812500000000000e+01	 9.998510320615388e+00
0	 1.000000000000000e+01	 1.875000000000000e+01	 9.997280953846159e+00
0	 1.062500000000000e+01	 1.250000000000000e+01	 1.000619139384615e+01
0	 1.062500000000000e+01	 1.312500000000000e+01	 1.000587492753846e+01
0	 1.062500000000000e+01	 1.375000000000000e+01	 1.000543992430769e+01
0	 1.062500000000000e+01	 1.437500000000000e+01	 1.000488638415384e+01
0	 1.062500000000000e+01	 1.500000000000000e+01	 1.000421430707692e+01
0	 1.062500000000000e+01	 1.562500000000000e+01	 1.000342369307693e+01
0	 1.062500000000000e+01	 1.625000000000000e+01	 1.000251454215385e+01
0	 1.062500000000000e+01	 1.687500000000001e+01	 1.000148685430769e+01
0	 1.062500000000000e+01	 1.750000000000000e+01	 1.000034062953846e+01
0	 1.062500000000000e+01	 1.812500000000000e+01	 9.999075867846152e+00
0	 1.062500000000000e+01	 1.875000000000000e+01	 9.997692569230768e+00
0	 1.125000000000000e+01	 1.250000000000000e+01	 1.000774051692308e+01
0	 1.125000000000001e+01	 1.312500000000000e+01	 1.000728841138461e+01
0	 1.125000000000000e+01	 1.375000000000000e+01	 1.000672419815385e+01
0	 1.125000000000000e+01	 1.437500000000000e+01	 1.000604787723077e+01
0	 1.125000000000001e+01	 1.500000000000000e+01	 1.000525944861538e+01
0	 1.125000000000000e+01	 1.562500000000000e+01	 1.000435891230769e+01
0	 1.125000000000001e+01	 1.625000000000001e+01	 1.000334626830769e+01
0	 1.125000000000001e+01	 1.687500000000001e+01	 1.000222151661539e+01
0	 1.125000000000000e+01	 1.750000000000001e+01	 1.000098465723077e+01
0	 1.125000000000001e+01	 1.812500000000001e+01	 9.999635690153847e+00
0	 1.125000000000000e+01	 1.875000000000000e+01	 9.998174615384606e+00
0	 1.187500000000001e+01	 1.250000000000000e+01	 1.000859851384615e+01
0	 1.187500000000001e+01	 1.312500000000000e+01	 1.000808692476923e+01
0	 1.187500000000001e+01	 1.375000000000000e+01	 1.000746965723077e+01
0	 1.187500000000000e+01	 1.437500000000000e+01	 1.000674671123077e+01
0	 1.187500000000000e+01	 1.500000000000000e+01	 1.000591808676923e+01
0	 1.187500000000001e+01	 1.562500000000000e+01	 1.000498378384615e+01
0	 1.187500000000000e+01	 1.625000000000000e+01	 1.000394380246154e+01
0	 1.187500000000001e+01	 1.687500000000000e+01	 1.000279814261539e+01
0	 1.187500000000001e+01	 1.750000000000001e+01	 1.000154680430769e+01
0	 1.187500000000001e+01	 1.812500000000001e+01	 1.000018978753846e+01
0	 1.187500000000001e+01	 1.875000000000000e+01	 9.998727092307686e+00
0	 1.250000000000000e+01	 1.250000000000000e+01	 1.000876538461538e+01
0	 1.250000000000000e+01	 1.312500000000000e+01	 1.000827046769231e+01
0	 1.250000000000000e+01	 1.375000000000000e+01	 1.000767630153846e+01
0	 1.250000000000000e+01	 1.437500000000000e+01	 1.000698288615385e+01
0	 1.250000000000000e+01	 1.500000000000000e+01	 1.000619022153846e+01
0	 1.250000000000000e+01	 1.562500000000000e+01	 1.000529830769231e+01
0	 1.250000000000000e+01	 1.625000000000000e+01	 1.000430714461538e+01
0	 1.250000000000000e+01	 1.687500000000000e+01	 1.000321673230769e+01
0	 1.250000000000000e+01	 1.750000000000001e+01	 1.000202707076923e+01
0	 1.250000000000000e+01	 1.812500000000001e+01	 1.000073816000000e+01
0	 1.250000000000000e+01	 1.875000000000000e+01	 9.999350000000002e+00
0	 6.250000000000000e+00	 1.875000000000000e+01	 9.996290307692309e+00
0	 6.250000000000000e+00	 1.937500000000000e+01	 9.995553735384613e+00
0	 6.250000000000000e+00	 2.000000000000000e+01	 9.994918110769225e+00
0	 6.250000000000001e+00	 2.062500000000000e+01	 9.994383433846156e+00
0	 6.250000000000001e+00	 2.125000000000000e+01	 9.993949704615384e+00
0	 6.250000000000000e+00	 2.187500000000000e+01	 9.993616923076925e+00
0	 6.250000000000000e+00	 2.250000000000000e+01	 9.993385089230770e+00
0	 6.250000000000000e+00	 2.312500000000001e+01	 9.993254203076923e+00
0	 6.250000000000001e+00	 2.375000000000001e+01	 9.993224264615382e+00
0	 6.250000000000000e+00	 2.437500000000001e+01	 9.993295273846154e+00
0	 6.250000000000000e+00	 2.500000000000000e+01	 9.993467230769228e+00
0	 6.875000000000000e+00	 1.875000000000000e+01	 9.996279338461539e+00
0	 6.874999999999999e+00	 1.937500000000000e+01	 9.995716084769235e+00
0	 6.874999999999999e+00	 2.000000000000000e+01	 9.995241554461540e+00
0	 6.875000000000000e+00	 2.062500000000000e+01	 9.994855747538464e+00
0	 6.874999999999999e+00	 2.125000000000001e+01	 9.994558664000005e+00
0	 6.875000000000001e+00	 2.187500000000000e+01	 9.994350303846154e+00
0	 6.875000000000000e+00	 2.250000000000001e+01	 9.994230667076927e+00
0	 6.875000000000002e+00	 2.312500000000000e+01	 9.994199753692310e+00
0	 6.875000000000002e+00	 2.375000000000001e+01	 9.994257563692308e+00
0	 6.875000000000000e+00	 2.437500000000001e+01	 9.994404097076925e+00
0	 6.875000000000000e+00	 2.500000000000000e+01	 9.994639353846152e+00
0	 7.500000000000001e+00	 1.875000000000000e+01	 9.996338799999997e+00
0	 7.500000000000003e+00	 1.937500000000000e+01	 9.995930901846160e+00
0	 7.500000000000003e+00	 2.000000000000000e+01	 9.995599502769231e+00
0	 7.500000000000000e+00	 2.062500000000000e+01	 9.995344602769231e+00
0	 7.500000000000002e+00	 2.125000000000000e+01	 9.995166201846153e+00
0	 7.500000000000002e+00	 2.187500000000000e+01	 9.995064299999999e+00
0	 7.500000000000002e+00	 2.250000000000000e+01	 9.995038897230767e+00
0	 7.500000000000003e+00	 2.312500000000001e+01	 9.995089993538461e+00
0	 7.500000000000001e+00	 2.375000000000001e+01	 9.995217588923079e+00
0	 7.500000000000003e+00	 2.437500000000001e+01	 9.995421683384613e+00
0	 7.500000000000001e+00	 2.500000000000000e+01	 9.995702276923081e+00
0	 8.125000000000002e+00	 1.875000000000000e+01	 9.996468692307698e+00
0	 8.125000000000002e+00	 1.937500000000000e+01	 9.996198186615382e+00
0	 8.125000000000004e+00	 2.000000000000000e+01	 9.995991955692306e+00
0	 8.125000000000000e+00	 2.062500000000000e+01	 9.995849999538466e+00
0	 8.125000000000002e+00	 2.125000000000000e+01	 9.995772318153850e+00
0	 8.125000000000004e+00	 2.187500000000000e+01	 9.995758911538459e+00
0	 8.125000000000002e+00	 2.250000000000000e+01	 9.995809779692310e+00
0	 8.125000000000002e+00	 2.312500000000001e+01	 9.995924922615377e+00
0	 8.125000000000002e+00	 2.375000000000000e+01	 9.996104340307696e+00
0	 8.125000000000002e+00	 2.437500000000000e+01	 9.996348032769236e+00
0	 8.125000000000002e+00	 2.500000000000000e+01	 9.996655999999998e+00
0	 8.750000000000004e+00	 1.875000000000000e+01	 9.996669015384608e+00
0	 8.750000000000000e+00	 1.937500000000000e+01	 9.996517939076924e+00
0	 8.750000000000002e+00	 2.000000000000001e+01	 9.996418913230773e+00
0	 8.750000000000002e+00	 2.062500000000000e+01	 9.996371937846149e+00
0	 8.750000000000002e+00	 2.125000000000000e+01	 9.996377012923084e+00
0	 8.750000000000002e+00	 2.187500000000000e+01	 9.996434138461538e+00
0	 8.750000000000002e+00	 2.250000000000000e+01	 9.996543314461539e+00
0	 8.750000000000004e+00	 2.312500000000001e+01	 9.996704540923078e+00
0	 8.750000000000000e+00	 2.375000000000000e+01	 9.996917817846157e+00
0	 8.750000000000002e+00	 2.437500000000001e+01	 9.997183145230764e+00
0	 8.750000000000004e+00	 2.500000000000000e+01	 9.997500523076921e+00
0	 9.375000000000002e+00	 1.875000000000000e+01	 9.996939769230771e+00
0	 9.375000000000004e+00	 1.937500000000000e+01	 9.996890159230771e+00
0	 9.375000000000000e+00	 2.000000000000000e+01	 9.996880375384620e+00
0	 9.375000000000004e+00	 2.062500000000000e+01	 9.996910417692314e+00
0	 9.375000000000004e+00	 2.125000000000000e+01	 9.996980286153846e+00
0	 9.375000000000004e+00	 2.187500000000000e+01	 9.997089980769232e+00
0	 9.375000000000004e+00	 2.250000000000000e+01	 9.997239501538465e+00
0	 9.375000000000004e+00	 2.312500000000001e+01	 9.997428848461535e+00
0	 9.375000000000002e+00	 2.375000000000001e+01	 9.997658021538465e+00
0	 9.375000000000004e+00	 2.437500000000000e+01	 9.997927020769227e+00
0	 9.375000000000002e+00	 2.500000000000000e+01	 9.998235846153849e+00
0	 1.000000000000000e+01	 1.875000000000000e+01	 9.997280953846159e+00
0	 1.000000000000000e+01	 1.937500000000000e+01	 9.997314847076925e+00
0	 1.000000000000000e+01	 2.000000000000000e+01	 9.997376342153848e+00
0	 1.000000000000001e+01	 2.062500000000001e+01	 9.997465439076922e+00
0	 1.000000000000000e+01	 2.125000000000001e+01	 9.997582137846154e+00
0	 1.000000000000000e+01	 2.187500000000000e+01	 9.997726438461539e+00
0	 1.000000000000000e+01	 2.250000000000000e+01	 9.997898340923077e+00
0	 1.000000000000001e+01	 2.312500000000001e+01	 9.998097845230770e+00
0	 1.000000000000001e+01	 2.375000000000000e+01	 9.998324951384612e+00
0	 1.000000000000000e+01	 2.437500000000001e+01	 9.998579659384614e+00
0	 1.000000000000000e+01	 2.500000000000000e+01	 9.998861969230767e+00
0	 1.062500000000000e+01	 1.875000000000000e+01	 9.997692569230768e+00
0	 1.062500000000000e+01	 1.937500000000000e+01	 9.997792002615380e+00
0	 1.062500000000000e+01	 2.000000000000001e+01	 9.997906813538457e+00
0	 1.062500000000000e+01	 2.062500000000000e+01	 9.998037001999998e+00
0	 1.062500000000000e+01	 2.125000000000000e+01	 9.998182568000001e+00
0	 1.062500000000000e+01	 2.187500000000001e+01	 9.998343511538465e+00
0	 1.062500000000000e+01	 2.250000000000000e+01	 9.998519832615385e+00
0	 1.062500000000000e+01	 2.312500000000000e+01	 9.998711531230764e+00
0	 1.062500000000000e+01	 2.375000000000000e+01	 9.998918607384617e+00
0	 1.062500000000000e+01	 2.437500000000000e+01	 9.999141061076921e+00
0	 1.062500000000000e+01	 2.500000000000000e+01	 9.999378892307694e+00
0	 1.125000000000000e+01	 1.875000000000000e+01	 9.998174615384606e+00
0	 1.125000000000001e+01	 1.937500000000000e+01	 9.998321625846154e+00
0	 1.125000000000000e+01	 2.000000000000000e+01	 9.998471789538462e+00
0	 1.125000000000000e+01	 2.062500000000000e+01	 9.998625106461542e+00
0	 1.125000000000001e+01	 2.125000000000000e+01	 9.998781576615382e+00
0	 1.125000000000000e+01	 2.187500000000000e+01	 9.998941200000001e+00
0	 1.125000000000001e+01	 2.250000000000000e+01	 9.999103976615386e+00
0	 1.125000000000001e+01	 2.312500000000001e+01	 9.999269906461539e+00
0	 1.125000000000000e+01	 2.375000000000000e+01	 9.999438989538461e+00
0	 1.125000000000001e+01	 2.437500000000000e+01	 9.999611225846156e+00
0	 1.125000000000000e+01	 2.500000000000000e+01	 9.999786615384613e+00
0	 1.187500000000001e+01	 1.875000000000000e+01	 9.998727092307686e+00
0	 1.187500000000001e+01	 1.937500000000000e+01	 9.998903716769229e+00
0	 1.187500000000001e+01	 2.000000000000000e+01	 9.999071270153848e+00
0	 1.187500000000000e+01	 2.062500000000000e+01	 9.999229752461542e+00
0	 1.187500000000000e+01	 2.125000000000000e+01	 9.999379163692305e+00
0	 1.187500000000001e+01	 2.187500000000000e+01	 9.999519503846152e+00
0	 1.187500000000000e+01	 2.250000000000001e+01	 9.999650772923076e+00
0	 1.187500000000001e+01	 2.312500000000000e+01	 9.999772970923068e+00
0	 1.187500000000001e+01	 2.375000000000000e+01	 9.999886097846153e+00
0	 1.187500000000001e+01	 2.437500000000000e+01	 9.999990153692309e+00
0	 1.187500000000001e+01	 2.500000000000000e+01	 1.000008513846154e+01
0	 1.250000000000000e+01	 1.875000000000000e+01	 9.999350000000002e+00
0	 1.250000000000000e+01	 1.937500000000000e+01	 9.999538275384616e+00
0	 1.250000000000000e+01	 2.000000000000000e+01	 9.999705255384612e+00
0	 1.250000000000000e+01	 2.062500000000000e+01	 9.999850940000004e+00
0	 1.250000000000000e+01	 2.125000000000000e+01	 9.999975329230768e+00
0	 1.250000000000000e+01	 2.187500000000000e+01	 1.000007842307692e+01
0	 1.250000000000000e+01	 2.250000000000000e+01	 1.000016022153846e+01
0	 1.250000000000000e+01	 2.312500000000001e+01	 1.000022072461539e+01
0	 1.250000000000000e+01	 2.375000000000001e+01	 1.000025993230769e+01
0	 1.250000000000000e+01	 2.437500000000001e+01	 1.000027784461538e+01
0	 1.250000000000000e+01	 2.500000000000000e+01	 1.000027446153846e+01
0	 6.250000000000000e+00	 2.500000000000000e+01	 9.993467230769228e+00
0	 6.250000000000000e+00	 2.562500000000000e+01	 9.994137304615380e+00
0	 6.250000000000001e+00	 2.625000000000000e+01	 9.994750664615381e+00
0	 6.250000000000000e+00	 2.687499999999999e+01	 9.995307310769229e+00
0	 6.250000000000001e+00	 2.749999999999999e+01	 9.995807243076928e+00
0	 6.250000000000000e+00	 2.812499999999999e+01	 9.996250461538459e+00
0	 6.250000000000000e+00	 2.874999999999999e+01	 9.996636966153844e+00
0	 6.250000000000000e+00	 2.937499999999999e+01	 9.996966756923074e+00
0	 6.250000000000000e+00	 2.999999999999998e+01	 9.997239833846155e+00
0	 6.250000000000000e+00	 3.062499999999998e+01	 9.997456196923071e+00
0	 6.250000000000000e+00	 3.125000000000000e+01	 9.997615846153842e+00
0	 6.875000000000000e+00	 2.500000000000000e+01	 9.994639353846152e+00
0	 6.874999999999998e+00	 2.562499999999999e+01	 9.995156322615383e+00
0	 6.875000000000001e+00	 2.625000000000000e+01	 9.995622927384614e+00
0	 6.874999999999999e+00	 2.687499999999998e+01	 9.996039168153844e+00
0	 6.875000000000000e+00	 2.749999999999999e+01	 9.996405044923071e+00
0	 6.874999999999998e+00	 2.812499999999998e+01	 9.996720557692306e+00
0	 6.875000000000001e+00	 2.874999999999999e+01	 9.996985706461539e+00
0	 6.875000000000000e+00	 2.937499999999998e+01	 9.997200491230767e+00
0	 6.875000000000001e+00	 2.999999999999999e+01	 9.997364911999993e+00
0	 6.875000000000000e+00	 3.062499999999998e+01	 9.997478968769226e+00
0	 6.875000000000000e+00	 3.125000000000000e+01	 9.997542661538457e+00
0	 7.500000000000001e+00	 2.500000000000000e+01	 9.995702276923081e+00
0	 7.500000000000000e+00	 2.562499999999999e+01	 9.996081303692304e+00
0	 7.500000000000002e+00	 2.624999999999999e+01	 9.996416316307693e+00
0	 7.500000000000001e+00	 2.687499999999999e+01	 9.996707314769226e+00
0	 7.500000000000001e+00	 2.749999999999999e+01	 9.996954299076926e+00
0	 7.500000000000001e+00	 2.812499999999999e+01	 9.997157269230767e+00
0	 7.500000000000001e+00	 2.874999999999998e+01	 9.997316225230769e+00
0	 7.500000000000001e+00	 2.937499999999999e+01	 9.997431167076920e+00
0	 7.500000000000000e+00	 2.999999999999998e+01	 9.997502094769231e+00
0	 7.500000000000001e+00	 3.062499999999999e+01	 9.997529008307680e+00
0	 7.500000000000001e+00	 3.125000000000000e+01	 9.997511907692303e+00
0	 8.125000000000002e+00	 2.500000000000000e+01	 9.996655999999998e+00
0	 8.125000000000002e+00	 2.562500000000000e+01	 9.996912247846153e+00
0	 8.125000000000000e+00	 2.625000000000000e+01	 9.997130831384611e+00
0	 8.125000000000002e+00	 2.687499999999999e+01	 9.997311750615381e+00
0	 8.125000000000000e+00	 2.749999999999998e+01	 9.997455005538461e+00
0	 8.125000000000002e+00	 2.812499999999999e+01	 9.997560596153843e+00
0	 8.125000000000000e+00	 2.874999999999998e+01	 9.997628522461538e+00
0	 8.125000000000000e+00	 2.937499999999998e+01	 9.997658784461532e+00
0	 8.125000000000002e+00	 2.999999999999998e+01	 9.997651382153840e+00
0	 8.125000000000000e+00	 3.062499999999998e+01	 9.997606315538464e+00
0	 8.125000000000002e+00	 3.125000000000000e+01	 9.997523584615385e+00
0	 8.750000000000004e+00	 2.500000000000000e+01	 9.997500523076921e+00
0	 8.750000000000004e+00	 2.562500000000000e+01	 9.997649155076926e+00
0	 8.750000000000002e+00	 2.625000000000000e+01	 9.997766472615382e+00
0	 8.750000000000002e+00	 2.687499999999999e+01	 9.997852475692298e+00
0	 8.750000000000004e+00	 2.749999999999999e+01	 9.997907164307698e+00
0	 8.750000000000002e+00	 2.812499999999998e+01	 9.997930538461533e+00
0	 8.750000000000004e+00	 2.874999999999999e+01	 9.997922598153844e+00
0	 8.750000000000002e+00	 2.937499999999998e+01	 9.997883343384617e+00
0	 8.750000000000004e+00	 2.999999999999998e+01	 9.997812774153839e+00
0	 8.750000000000004e+00	 3.062499999999998e+01	 9.997710890461525e+00
0	 8.750000000000004e+00	 3.125000000000001e+01	 9.997577692307690e+00
0	 9.375000000000002e+00	 2.500000000000000e+01	 9.998235846153849e+00
0	 9.375000000000004e+00	 2.562500000000000e+01	 9.998292025384620e+00
0	 9.375000000000004e+00	 2.625000000000000e+01	 9.998323239999994e+00
0	 9.375000000000004e+00	 2.687500000000000e+01	 9.998329490000003e+00
0	 9.375000000000004e+00	 2.749999999999998e+01	 9.998310775384610e+00
0	 9.375000000000004e+00	 2.812499999999999e+01	 9.998267096153839e+00
0	 9.375000000000004e+00	 2.874999999999999e+01	 9.998198452307690e+00
0	 9.375000000000005e+00	 2.937499999999999e+01	 9.998104843846150e+00
0	 9.375000000000002e+00	 2.999999999999998e+01	 9.997986270769228e+00
0	 9.375000000000005e+00	 3.062499999999998e+01	 9.997842733076915e+00
0	 9.375000000000002e+00	 3.125000000000000e+01	 9.997674230769221e+00
0	 1.000000000000000e+01	 2.500000000000000e+01	 9.998861969230767e+00
0	 1.000000000000000e+01	 2.562500000000000e+01	 9.998840858769233e+00
0	 1.000000000000001e+01	 2.625000000000000e+01	 9.998801133538457e+00
0	 1.000000000000000e+01	 2.687499999999999e+01	 9.998742793538458e+00
0	 1.000000000000001e+01	 2.750000000000000e+01	 9.998665838769227e+00
0	 1.000000000000000e+01	 2.812499999999999e+01	 9.998570269230768e+00
0	 1.000000000000000e+01	 2.874999999999999e+01	 9.998456084923072e+00
0	 1.000000000000000e+01	 2.937499999999998e+01	 9.998323285846148e+00
0	 1.000000000000000e+01	 2.999999999999998e+01	 9.998171871999988e+00
0	 1.000000000000000e+01	 3.062499999999998e+01	 9.998001843384607e+00
0	 1.000000000000000e+01	 3.125000000000000e+01	 9.997813199999991e+00
0	 1.062500000000000e+01	 2.500000000000000e+01	 9.999378892307694e+00
0	 1.062500000000001e+01	 2.562500000000000e+01	 9.999295655230775e+00
0	 1.062500000000000e+01	 2.625000000000000e+01	 9.999200153230774e+00
0	 1.062500000000000e+01	 2.687499999999999e+01	 9.999092386307687e+00
0	 1.062500000000001e+01	 2.749999999999999e+01	 9.998972354461538e+00
0	 1.062500000000001e+01	 2.812499999999999e+01	 9.998840057692306e+00
0	 1.062500000000001e+01	 2.874999999999999e+01	 9.998695495999996e+00
0	 1.062500000000001e+01	 2.937499999999999e+01	 9.998538669384606e+00
0	 1.062500000000000e+01	 2.999999999999998e+01	 9.998369577846146e+00
0	 1.062500000000001e+01	 3.062499999999999e+01	 9.998188221384607e+00
0	 1.062500000000000e+01	 3.125000000000000e+01	 9.997994599999988e+00
0	 1.125000000000000e+01	 2.500000000000000e+01	 9.999786615384613e+00
0	 1.125000000000001e+01	 2.562500000000000e+01	 9.999656414769227e+00
0	 1.125000000000001e+01	 2.625000000000000e+01	 9.999520299076920e+00
0	 1.125000000000001e+01	 2.687499999999999e+01	 9.999378268307687e+00
0	 1.125000000000001e+01	 2.750000000000000e+01	 9.999230322461539e+00
0	 1.125000000000000e+01	 2.812499999999999e+01	 9.999076461538461e+00
0	 1.125000000000001e+01	 2.874999999999999e+01	 9.998916685538454e+00
0	 1.125000000000000e+01	 2.937499999999999e+01	 9.998750994461536e+00
0	 1.125000000000000e+01	 2.999999999999998e+01	 9.998579388307689e+00
0	 1.125000000000000e+01	 3.062499999999998e+01	 9.998401867076923e+00
0	 1.125000000000000e+01	 3.125000000000000e+01	 9.998218430769230e+00
0	 1.187500000000001e+01	 2.500000000000000e+01	 1.000008513846154e+01
0	 1.187500000000000e+01	 2.562499999999999e+01	 9.999923137384611e+00
0	 1.187500000000000e+01	 2.625000000000000e+01	 9.999761571076924e+00
0	 1.187500000000001e+01	 2.687499999999999e+01	 9.999600439538458e+00
0	 1.187500000000001e+01	 2.749999999999999e+01	 9.999439742769230e+00
0	 1.187500000000001e+01	 2.812499999999998e+01	 9.999279480769225e+00
0	 1.187500000000001e+01	 2.874999999999999e+01	 9.999119653538465e+00
0	 1.187500000000000e+01	 2.937499999999999e+01	 9.998960261076920e+00
0	 1.187500000000001e+01	 2.999999999999999e+01	 9.998801303384605e+00
0	 1.187500000000000e+01	 3.062499999999998e+01	 9.998642780461541e+00
0	 1.187500000000001e+01	 3.125000000000000e+01	 9.998484692307695e+00
0	 1.250000000000000e+01	 2.500000000000000e+01	 1.000027446153846e+01
0	 1.250000000000000e+01	 2.562500000000000e+01	 1.000009582307692e+01
0	 1.250000000000000e+01	 2.625000000000000e+01	 9.999923969230771e+00
0	 1.250000000000000e+01	 2.687499999999999e+01	 9.999758899999998e+00
0	 1.250000000000000e+01	 2.749999999999999e+01	 9.999600615384619e+00
0	 1.250000000000000e+01	 2.812499999999999e+01	 9.999449115384612e+00
0	 1.250000000000000e+01	 2.874999999999999e+01	 9.999304399999994e+00
0	 1.250000000000000e+01	 2.937499999999999e+01	 9.999166469230770e+00
0	 1.250000000000000e+01	 2.999999999999998e+01	 9.999035323076932e+00
0	 1.250000000000000e+01	 3.062499999999998e+01	 9.998910961538458e+00
0	 1.250000000000000e+01	 3.125000000000000e+01	 9.998793384615386e+00
0	 6.250000000000000e+00	 3.125000000000000e+01	 9.997615846153842e+00
0	 6.250000000000000e+00	 3.187500000000000e+01	 9.997588384615378e+00
0	 6.250000000000001e+00	 3.250000000000001e+01	 9.997590184615383e+00
0	 6.250000000000000e+00	 3.312499999999999e+01	 9.997621246153839e+00
0	 6.250000000000001e+00	 3.374999999999999e+01	 9.997681569230767e+00
0	 6.250000000000000e+00	 3.437499999999999e+01	 9.997771153846147e+00
0	 6.250000000000000e+00	 3.499999999999999e+01	 9.997889999999998e+00
0	 6.250000000000000e+00	 3.562499999999999e+01	 9.998038107692308e+00
0	 6.250000000000000e+00	 3.624999999999998e+01	 9.998215476923074e+00
0	 6.250000000000000e+00	 3.687499999999998e+01	 9.998422107692299e+00
0	 6.250000000000000e+00	 3.750000000000000e+01	 9.998658000000001e+00
0	 6.875000000000000e+00	 3.125000000000000e+01	 9.997542661538457e+00
0	 6.874999999999998e+00	 3.187499999999999e+01	 9.997557165692303e+00
0	 6.875000000000001e+00	 3.250000000000000e+01	 9.997596887384612e+00
0	 6.874999999999999e+00	 3.312499999999999e+01	 9.997661826615376e+00
0	 6.875000000000000e+00	 3.374999999999999e+01	 9.997751983384610e+00
0	 6.874999999999998e+00	 3.437499999999998e+01	 9.997867357692304e+00
0	 6.875000000000001e+00	 3.499999999999999e+01	 9.998007949538460e+00
0	 6.875000000000000e+00	 3.562499999999998e+01	 9.998173758923079e+00
0	 6.875000000000001e+00	 3.624999999999998e+01	 9.998364785846160e+00
0	 6.875000000000000e+00	 3.687499999999999e+01	 9.998581030307687e+00
0	 6.875000000000000e+00	 3.750000000000000e+01	 9.998822492307699e+00
0	 7.500000000000001e+00	 3.125000000000000e+01	 9.997511907692303e+00
0	 7.500000000000000e+00	 3.187499999999999e+01	 9.997562863692300e+00
0	 7.500000000000002e+00	 3.249999999999999e+01	 9.997634993230765e+00
0	 7.500000000000001e+00	 3.312500000000000e+01	 9.997728296307690e+00
0	 7.500000000000001e+00	 3.374999999999999e+01	 9.997842772923077e+00
0	 7.500000000000001e+00	 3.437499999999999e+01	 9.997978423076921e+00
0	 7.500000000000001e+00	 3.499999999999999e+01	 9.998135246769236e+00
0	 7.500000000000001e+00	 3.562499999999998e+01	 9.998313243999998e+00
0	 7.500000000000000e+00	 3.624999999999997e+01	 9.998512414769232e+00
0	 7.500000000000001e+00	 3.687499999999997e+01	 9.998732759076924e+00
0	 7.500000000000001e+00	 3.750000000000000e+01	 9.998974276923075e+00
0	 8.125000000000002e+00	 3.125000000000000e+01	 9.997523584615385e+00
0	 8.125000000000002e+00	 3.187500000000000e+01	 9.997605478615386e+00
0	 8.125000000000000e+00	 3.250000000000000e+01	 9.997704502153834e+00
0	 8.125000000000002e+00	 3.312499999999999e+01	 9.997820655230765e+00
0	 8.125000000000000e+00	 3.374999999999999e+01	 9.997953937846152e+00
0	 8.125000000000002e+00	 3.437499999999999e+01	 9.998104350000002e+00
0	 8.125000000000000e+00	 3.499999999999999e+01	 9.998271891692308e+00
0	 8.125000000000000e+00	 3.562499999999999e+01	 9.998456562923076e+00
0	 8.125000000000002e+00	 3.624999999999997e+01	 9.998658363692313e+00
0	 8.125000000000000e+00	 3.687499999999998e+01	 9.998877294000000e+00
0	 8.125000000000002e+00	 3.749999999999999e+01	 9.999113353846159e+00
0	 8.750000000000004e+00	 3.125000000000001e+01	 9.997577692307690e+00
0	 8.750000000000004e+00	 3.187500000000000e+01	 9.997685010461527e+00
0	 8.750000000000002e+00	 3.250000000000000e+01	 9.997805414153845e+00
0	 8.750000000000002e+00	 3.312500000000000e+01	 9.997938903384611e+00
0	 8.750000000000004e+00	 3.374999999999999e+01	 9.998085478153842e+00
0	 8.750000000000002e+00	 3.437499999999999e+01	 9.998245138461533e+00
0	 8.750000000000004e+00	 3.499999999999998e+01	 9.998417884307694e+00
0	 8.750000000000002e+00	 3.562499999999998e+01	 9.998603715692308e+00
0	 8.750000000000004e+00	 3.624999999999998e+01	 9.998802632615389e+00
0	 8.750000000000004e+00	 3.687499999999999e+01	 9.999014635076925e+00
0	 8.750000000000004e+00	 3.749999999999999e+01	 9.999239723076924e+00
0	 9.375000000000002e+00	 3.125000000000000e+01	 9.997674230769221e+00
0	 9.375000000000004e+00	 3.187500000000000e+01	 9.997801459230768e+00
0	 9.375000000000004e+00	 3.250000000000000e+01	 9.997937729230756e+00
0	 9.375000000000004e+00	 3.312500000000000e+01	 9.998083040769226e+00
0	 9.375000000000004e+00	 3.374999999999999e+01	 9.998237393846150e+00
0	 9.375000000000004e+00	 3.437500000000000e+01	 9.998400788461534e+00
0	 9.375000000000004e+00	 3.499999999999999e+01	 9.998573224615379e+00
0	 9.375000000000005e+00	 3.562499999999999e+01	 9.998754702307695e+00
0	 9.375000000000002e+00	 3.624999999999998e+01	 9.998945221538463e+00
0	 9.375000000000005e+00	 3.687499999999999e+01	 9.999144782307697e+00
0	 9.375000000000002e+00	 3.750000000000001e+01	 9.999353384615384e+00
0	 1.000000000000000e+01	 3.125000000000000e+01	 9.997813199999991e+00
0	 1.000000000000000e+01	 3.187500000000000e+01	 9.997954824923069e+00
0	 1.000000000000001e+01	 3.250000000000000e+01	 9.998101447384608e+00
0	 1.000000000000000e+01	 3.312499999999999e+01	 9.998253067384614e+00
0	 1.000000000000001e+01	 3.374999999999999e+01	 9.998409684923082e+00
0	 1.000000000000000e+01	 3.437499999999999e+01	 9.998571299999995e+00
0	 1.000000000000000e+01	 3.499999999999998e+01	 9.998737912615386e+00
0	 1.000000000000000e+01	 3.562499999999999e+01	 9.998909522769228e+00
0	 1.000000000000000e+01	 3.624999999999999e+01	 9.999086130461537e+00
0	 1.000000000000000e+01	 3.687499999999998e+01	 9.999267735692310e+00
0	 1.000000000000000e+01	 3.750000000000000e+01	 9.999454338461540e+00
0	 1.062500000000000e+01	 3.125000000000000e+01	 9.997994599999988e+00
0	 1.062500000000001e+01	 3.187500000000000e+01	 9.998145107538456e+00
0	 1.062500000000000e+01	 3.249999999999999e+01	 9.998296568615380e+00
0	 1.062500000000000e+01	 3.312499999999999e+01	 9.998448983230766e+00
0	 1.062500000000001e+01	 3.374999999999999e+01	 9.998602351384616e+00
0	 1.062500000000001e+01	 3.437500000000000e+01	 9.998756673076930e+00
0	 1.062500000000001e+01	 3.499999999999999e+01	 9.998911948307690e+00
0	 1.062500000000001e+01	 3.562499999999999e+01	 9.999068177076918e+00
0	 1.062500000000000e+01	 3.624999999999998e+01	 9.999225359384619e+00
0	 1.062500000000001e+01	 3.687499999999999e+01	 9.999383495230765e+00
0	 1.062500000000000e+01	 3.750000000000000e+01	 9.999542584615398e+00
0	 1.125000000000000e+01	 3.125000000000000e+01	 9.998218430769230e+00
0	 1.125000000000001e+01	 3.187500000000000e+01	 9.998372307076913e+00
0	 1.125000000000001e+01	 3.249999999999999e+01	 9.998523092923076e+00
0	 1.125000000000001e+01	 3.312499999999999e+01	 9.998670788307692e+00
0	 1.125000000000001e+01	 3.374999999999999e+01	 9.998815393230768e+00
0	 1.125000000000000e+01	 3.437499999999999e+01	 9.998956907692307e+00
0	 1.125000000000001e+01	 3.499999999999999e+01	 9.999095331692306e+00
0	 1.125000000000000e+01	 3.562499999999999e+01	 9.999230665230769e+00
0	 1.125000000000000e+01	 3.624999999999998e+01	 9.999362908307692e+00
0	 1.125000000000000e+01	 3.687499999999998e+01	 9.999492060923092e+00
0	 1.125000000000000e+01	 3.750000000000000e+01	 9.999618123076930e+00
0	 1.187500000000001e+01	 3.125000000000000e+01	 9.998484692307695e+00
0	 1.187500000000000e+01	 3.187499999999999e+01	 9.998636423538459e+00
0	 1.187500000000000e+01	 3.250000000000000e+01	 9.998781020307691e+00
0	 1.187500000000001e+01	 3.312500000000000e+01	 9.998918482615384e+00
0	 1.187500000000001e+01	 3.374999999999999e+01	 9.999048810461538e+00
0	 1.187500000000001e+01	 3.437499999999998e+01	 9.999172003846148e+00
0	 1.187500000000001e+01	 3.499999999999999e+01	 9.999288062769230e+00
0	 1.187500000000000e+01	 3.562499999999999e+01	 9.999396987230767e+00
0	 1.187500000000001e+01	 3.624999999999999e+01	 9.999498777230777e+00
0	 1.187500000000000e+01	 3.687499999999998e+01	 9.999593432769235e+00
0	 1.187500000000001e+01	 3.750000000000000e+01	 9.999680953846156e+00
0	 1.250000000000000e+01	 3.125000000000000e+01	 9.998793384615386e+00
0	 1.250000000000000e+01	 3.187500000000000e+01	 9.998937456923079e+00
0	 1.250000000000000e+01	 3.250000000000001e+01	 9.999070350769227e+00
0	 1.250000000000000e+01	 3.312499999999999e+01	 9.999192066153842e+00
0	 1.250000000000000e+01	 3.374999999999999e+01	 9.999302603076918e+00
0	 1.250000000000000e+01	 3.437499999999999e+01	 9.999401961538460e+00
0	 1.250000000000000e+01	 3.499999999999999e+01	 9.999490141538464e+00
0	 1.250000000000000e+01	 3.562499999999999e+01	 9.999567143076920e+00
0	 1.250000000000000e+01	 3.624999999999998e+01	 9.999632966153847e+00
0	 1.250000000000000e+01	 3.687499999999998e+01	 9.999687610769218e+00
0	 1.250000000000000e+01	 3.750000000000000e+01	 9.999731076923080e+00
0	 6.250000000000000e+00	 3.750000000000000e+01	 9.998658000000001e+00
0	 6.250000000000000e+00	 3.812500000000000e+01	 9.998788452307696e+00
0	 6.250000000000001e+00	 3.875000000000001e+01	 9.998913532307697e+00
0	 6.250000000000000e+00	 3.937499999999999e+01	 9.999033239999999e+00
0	 6.250000000000001e+00	 3.999999999999999e+01	 9.999147575384619e+00
0	 6.250000000000000e+00	 4.062499999999999e+01	 9.999256538461534e+00
0	 6.250000000000000e+00	 4.124999999999999e+01	 9.999360129230762e+00
0	 6.250000000000000e+00	 4.187499999999999e+01	 9.999458347692299e+00
0	 6.250000000000000e+00	 4.249999999999999e+01	 9.999551193846154e+00
0	 6.250000000000000e+00	 4.312499999999999e+01	 9.999638667692288e+00
0	 6.250000000000000e+00	 4.375000000000000e+01	 9.999720769230766e+00
0	 6.875000000000000e+00	 3.750000000000000e+01	 9.998822492307699e+00
0	 6.874999999999998e+00	 3.812499999999999e+01	 9.998928804769228e+00
0	 6.875000000000001e+00	 3.874999999999999e+01	 9.999030951384613e+00
0	 6.874999999999999e+00	 3.937499999999999e+01	 9.999128932153839e+00
0	 6.875000000000000e+00	 3.999999999999998e+01	 9.999222747076917e+00
0	 6.874999999999998e+00	 4.062499999999999e+01	 9.999312396153840e+00
0	 6.875000000000001e+00	 4.124999999999999e+01	 9.999397879384613e+00
0	 6.875000000000000e+00	 4.187499999999998e+01	 9.999479196769231e+00
0	 6.875000000000001e+00	 4.249999999999998e+01	 9.999556348307689e+00
0	 6.875000000000000e+00	 4.312499999999997e+01	 9.999629333999998e+00
0	 6.875000000000000e+00	 4.375000000000000e+01	 9.999698153846143e+00
0	 7.500000000000001e+00	 3.750000000000000e+01	 9.998974276923075e+00
0	 7.500000000000000e+00	 3.812500000000000e+01	 9.999058538769226e+00
0	 7.500000000000002e+00	 3.874999999999999e+01	 9.999139841230768e+00
0	 7.500000000000001e+00	 3.937499999999999e+01	 9.999218184307695e+00
0	 7.500000000000001e+00	 3.999999999999999e+01	 9.999293567999997e+00
0	 7.500000000000001e+00	 4.062499999999999e+01	 9.999365992307700e+00
0	 7.500000000000001e+00	 4.124999999999998e+01	 9.999435457230765e+00
0	 7.500000000000001e+00	 4.187499999999999e+01	 9.999501962769227e+00
0	 7.500000000000000e+00	 4.249999999999998e+01	 9.999565508923077e+00
0	 7.500000000000001e+00	 4.312499999999997e+01	 9.999626095692300e+00
0	 7.500000000000001e+00	 4.375000000000000e+01	 9.999683723076924e+00
0	 8.125000000000002e+00	 3.749999999999999e+01	 9.999113353846159e+00
0	 8.125000000000002e+00	 3.812500000000001e+01	 9.999177654307699e+00
0	 8.125000000000000e+00	 3.875000000000000e+01	 9.999240201846161e+00
0	 8.125000000000002e+00	 3.937499999999999e+01	 9.999300996461550e+00
0	 8.125000000000000e+00	 3.999999999999998e+01	 9.999360038153856e+00
0	 8.125000000000002e+00	 4.062499999999999e+01	 9.999417326923078e+00
0	 8.125000000000000e+00	 4.124999999999999e+01	 9.999472862769228e+00
0	 8.125000000000000e+00	 4.187499999999998e+01	 9.999526645692303e+00
0	 8.125000000000002e+00	 4.249999999999998e+01	 9.999578675692320e+00
0	 8.125000000000000e+00	 4.312499999999997e+01	 9.999628952769232e+00
0	 8.125000000000002e+00	 4.374999999999999e+01	 9.999677476923068e+00
0	 8.750000000000004e+00	 3.749999999999999e+01	 9.999239723076924e+00
0	 8.750000000000004e+00	 3.812500000000001e+01	 9.999286151384615e+00
0	 8.750000000000002e+00	 3.875000000000000e+01	 9.999332033230768e+00
0	 8.750000000000002e+00	 3.937499999999999e+01	 9.999377368615386e+00
0	 8.750000000000004e+00	 3.999999999999999e+01	 9.999422157538461e+00
0	 8.750000000000002e+00	 4.062499999999999e+01	 9.999466399999996e+00
0	 8.750000000000004e+00	 4.125000000000000e+01	 9.999510095999998e+00
0	 8.750000000000002e+00	 4.187499999999998e+01	 9.999553245538458e+00
0	 8.750000000000004e+00	 4.249999999999999e+01	 9.999595848615380e+00
0	 8.750000000000004e+00	 4.312499999999999e+01	 9.999637905230756e+00
0	 8.750000000000004e+00	 4.375000000000000e+01	 9.999679415384591e+00
0	 9.375000000000002e+00	 3.750000000000001e+01	 9.999353384615384e+00
0	 9.375000000000004e+00	 3.812500000000001e+01	 9.999384030000005e+00
0	 9.375000000000004e+00	 3.874999999999999e+01	 9.999415335384613e+00
0	 9.375000000000004e+00	 3.937499999999999e+01	 9.999447300769230e+00
0	 9.375000000000004e+00	 3.999999999999999e+01	 9.999479926153850e+00
0	 9.375000000000004e+00	 4.062500000000000e+01	 9.999513211538465e+00
0	 9.375000000000004e+00	 4.124999999999999e+01	 9.999547156923072e+00
0	 9.375000000000005e+00	 4.187500000000000e+01	 9.999581762307695e+00
0	 9.375000000000002e+00	 4.249999999999999e+01	 9.999617027692295e+00
0	 9.375000000000005e+00	 4.312499999999998e+01	 9.999652953076907e+00
0	 9.375000000000002e+00	 4.375000000000000e+01	 9.999689538461526e+00
0	 1.000000000000000e+01	 3.750000000000000e+01	 9.999454338461540e+00
0	 1.000000000000000e+01	 3.812500000000000e+01	 9.999471290153844e+00
0	 1.000000000000001e+01	 3.874999999999999e+01	 9.999490108307697e+00
0	 1.000000000000000e+01	 3.937499999999999e+01	 9.999510792923081e+00
0	 1.000000000000001e+01	 4.000000000000000e+01	 9.999533344000000e+00
0	 1.000000000000000e+01	 4.062499999999999e+01	 9.999557761538460e+00
0	 1.000000000000000e+01	 4.124999999999998e+01	 9.999584045538459e+00
0	 1.000000000000000e+01	 4.187499999999999e+01	 9.999612195999987e+00
0	 1.000000000000000e+01	 4.249999999999999e+01	 9.999642212923078e+00
0	 1.000000000000000e+01	 4.312499999999998e+01	 9.999674096307684e+00
0	 1.000000000000000e+01	 4.375000000000000e+01	 9.999707846153838e+00
0	 1.062500000000000e+01	 3.750000000000000e+01	 9.999542584615398e+00
0	 1.062500000000001e+01	 3.812500000000000e+01	 9.999547931846159e+00
0	 1.062500000000000e+01	 3.874999999999999e+01	 9.999556352000010e+00
0	 1.062500000000000e+01	 3.937499999999999e+01	 9.999567845076923e+00
0	 1.062500000000001e+01	 3.999999999999999e+01	 9.999582411076924e+00
0	 1.062500000000001e+01	 4.062499999999999e+01	 9.999600049999994e+00
0	 1.062500000000001e+01	 4.124999999999999e+01	 9.999620761846151e+00
0	 1.062500000000001e+01	 4.187499999999999e+01	 9.999644546615382e+00
0	 1.062500000000000e+01	 4.249999999999998e+01	 9.999671404307689e+00
0	 1.062500000000001e+01	 4.312499999999999e+01	 9.999701334923069e+00
0	 1.062500000000000e+01	 4.375000000000000e+01	 9.999734338461526e+00
0	 1.125000000000000e+01	 3.750000000000000e+01	 9.999618123076930e+00
0	 1.125000000000001e+01	 3.812500000000000e+01	 9.999613955076921e+00
0	 1.125000000000001e+01	 3.875000000000000e+01	 9.999614066461545e+00
0	 1.125000000000001e+01	 3.937499999999999e+01	 9.999618457230774e+00
0	 1.125000000000001e+01	 3.999999999999999e+01	 9.999627127384613e+00
0	 1.125000000000000e+01	 4.062499999999999e+01	 9.999640076923066e+00
0	 1.125000000000001e+01	 4.124999999999999e+01	 9.999657305846148e+00
0	 1.125000000000000e+01	 4.187499999999999e+01	 9.999678814153842e+00
0	 1.125000000000000e+01	 4.249999999999999e+01	 9.999704601846148e+00
0	 1.125000000000000e+01	 4.312499999999998e+01	 9.999734668923066e+00
0	 1.125000000000000e+01	 4.375000000000001e+01	 9.999769015384592e+00
0	 1.187500000000001e+01	 3.750000000000000e+01	 9.999680953846156e+00
0	 1.187500000000000e+01	 3.812499999999999e+01	 9.999669359846155e+00
0	 1.187500000000000e+01	 3.874999999999999e+01	 9.999663251692311e+00
0	 1.187500000000001e+01	 3.937499999999999e+01	 9.999662629384609e+00
0	 1.187500000000001e+01	 3.999999999999999e+01	 9.999667492923070e+00
0	 1.187500000000001e+01	 4.062499999999998e+01	 9.999677842307683e+00
0	 1.187500000000001e+01	 4.124999999999999e+01	 9.999693677538451e+00
0	 1.187500000000000e+01	 4.187499999999998e+01	 9.999714998615376e+00
0	 1.187500000000001e+01	 4.249999999999998e+01	 9.999741805538456e+00
0	 1.187500000000000e+01	 4.312499999999999e+01	 9.999774098307682e+00
0	 1.187500000000001e+01	 4.375000000000000e+01	 9.999811876923062e+00
0	 1.250000000000000e+01	 3.750000000000000e+01	 9.999731076923080e+00
0	 1.250000000000000e+01	 3.812500000000000e+01	 9.999714146153849e+00
0	 1.250000000000000e+01	 3.875000000000001e+01	 9.999703907692307e+00
0	 1.250000000000000e+01	 3.937499999999999e+01	 9.999700361538459e+00
0	 1.250000000000000e+01	 3.999999999999999e+01	 9.999703507692308e+00
0	 1.250000000000000e+01	 4.062499999999999e+01	 9.999713346153840e+00
0	 1.250000000000000e+01	 4.124999999999999e+01	 9.999729876923071e+00
0	 1.250000000000000e+01	 4.187499999999999e+01	 9.999753099999984e+00
0	 1.250000000000000e+01	 4.249999999999999e+01	 9.999783015384606e+00
0	 1.250000000000000e+01	 4.312499999999999e+01	 9.999819623076901e+00
0	 1.250000000000000e+01	 4.375000000000000e+01	 9.999862923076915e+00
0	 6.250000000000000e+00	 4.375000000000000e+01	 9.999720769230766e+00
0	 6.250000000000000e+00	 4.437500000000000e+01	 9.999713447692306e+00
0	 6.250000000000000e+00	 4.499999999999999e+01	 9.999720036923073e+00
0	 6.250000000000000e+00	 4.562499999999999e+01	 9.999740536923076e+00
0	 6.250000000000001e+00	 4.624999999999999e+01	 9.999774947692309e+00
0	 6.250000000000000e+00	 4.687499999999999e+01	 9.999823269230767e+00
0	 6.250000000000000e+00	 4.749999999999999e+01	 9.999885501538461e+00
0	 6.250000000000000e+00	 4.812499999999999e+01	 9.999961644615384e+00
0	 6.250000000000001e+00	 4.874999999999999e+01	 1.000005169846154e+01
0	 6.250000000000000e+00	 4.937499999999999e+01	 1.000015566307690e+01
0	 6.250000000000000e+00	 5.000000000000000e+01	 1.000027353846154e+01
0	 6.875000000000000e+00	 4.375000000000000e+01	 9.999698153846143e+00
0	 6.875000000000000e+00	 4.437499999999999e+01	 9.999696532307691e+00
0	 6.874999999999999e+00	 4.499999999999999e+01	 9.999707390769228e+00
0	 6.875000000000000e+00	 4.562499999999999e+01	 9.999730729230761e+00
0	 6.875000000000002e+00	 4.625000000000000e+01	 9.999766547692307e+00
0	 6.875000000000001e+00	 4.687499999999999e+01	 9.999814846153852e+00
0	 6.875000000000001e+00	 4.749999999999999e+01	 9.999875624615370e+00
0	 6.875000000000002e+00	 4.812499999999999e+01	 9.999948883076922e+00
0	 6.875000000000001e+00	 4.874999999999998e+01	 1.000003462153845e+01
0	 6.874999999999998e+00	 4.937499999999997e+01	 1.000013284000002e+01
0	 6.875000000000001e+00	 5.000000000000000e+01	 1.000024353846156e+01
0	 7.500000000000001e+00	 4.375000000000000e+01	 9.999683723076924e+00
0	 7.500000000000001e+00	 4.437499999999999e+01	 9.999687155384608e+00
0	 7.500000000000003e+00	 4.499999999999999e+01	 9.999701636923071e+00
0	 7.500000000000002e+00	 4.562499999999999e+01	 9.999727167692310e+00
0	 7.500000000000002e+00	 4.624999999999999e+01	 9.999763747692311e+00
0	 7.500000000000002e+00	 4.687499999999999e+01	 9.999811376923063e+00
0	 7.500000000000003e+00	 4.749999999999999e+01	 9.999870055384623e+00
0	 7.500000000000002e+00	 4.812499999999999e+01	 9.999939783076918e+00
0	 7.499999999999999e+00	 4.874999999999996e+01	 1.000002056000001e+01
0	 7.500000000000002e+00	 4.937499999999998e+01	 1.000011238615385e+01
0	 7.500000000000003e+00	 5.000000000000000e+01	 1.000021526153844e+01
0	 8.125000000000002e+00	 4.374999999999999e+01	 9.999677476923068e+00
0	 8.125000000000002e+00	 4.437499999999999e+01	 9.999685316923074e+00
0	 8.125000000000000e+00	 4.499999999999999e+01	 9.999702775384609e+00
0	 8.125000000000002e+00	 4.562499999999999e+01	 9.999729852307684e+00
0	 8.125000000000000e+00	 4.624999999999998e+01	 9.999766547692296e+00
0	 8.125000000000002e+00	 4.687499999999999e+01	 9.999812861538469e+00
0	 8.125000000000000e+00	 4.749999999999998e+01	 9.999868793846156e+00
0	 8.125000000000002e+00	 4.812499999999998e+01	 9.999934344615401e+00
0	 8.125000000000004e+00	 4.874999999999999e+01	 1.000000951384614e+01
0	 8.125000000000004e+00	 4.937499999999999e+01	 1.000009430153848e+01
0	 8.125000000000004e+00	 5.000000000000001e+01	 1.000018870769230e+01
0	 8.750000000000004e+00	 4.375000000000000e+01	 9.999679415384591e+00
0	 8.750000000000002e+00	 4.437500000000000e+01	 9.999691016923073e+00
0	 8.750000000000002e+00	 4.500000000000000e+01	 9.999710806153836e+00
0	 8.750000000000004e+00	 4.562500000000000e+01	 9.999738783076928e+00
0	 8.750000000000004e+00	 4.624999999999999e+01	 9.999774947692305e+00
0	 8.750000000000002e+00	 4.687499999999999e+01	 9.999819300000013e+00
0	 8.750000000000002e+00	 4.749999999999999e+01	 9.999871840000019e+00
0	 8.750000000000005e+00	 4.812499999999999e+01	 9.999932567692291e+00
0	 8.750000000000004e+00	 4.874999999999999e+01	 1.000000148307694e+01
0	 8.750000000000000e+00	 4.937499999999997e+01	 1.000007858615387e+01
0	 8.750000000000002e+00	 5.000000000000001e+01	 1.000016387692308e+01
0	 9.375000000000002e+00	 4.375000000000000e+01	 9.999689538461526e+00
0	 9.375000000000004e+00	 4.437500000000000e+01	 9.999704255384602e+00
0	 9.375000000000004e+00	 4.500000000000000e+01	 9.999725729230757e+00
0	 9.375000000000004e+00	 4.562500000000000e+01	 9.999753959999987e+00
0	 9.375000000000002e+00	 4.624999999999999e+01	 9.999788947692306e+00
0	 9.375000000000004e+00	 4.687499999999999e+01	 9.999830692307686e+00
0	 9.375000000000004e+00	 4.749999999999999e+01	 9.999879193846139e+00
0	 9.375000000000002e+00	 4.812499999999999e+01	 9.999934452307695e+00
0	 9.375000000000002e+00	 4.874999999999998e+01	 9.999996467692316e+00
0	 9.375000000000004e+00	 4.937499999999998e+01	 1.000006524000004e+01
0	 9.375000000000004e+00	 5.000000000000000e+01	 1.000014076923076e+01
0	 1.000000000000000e+01	 4.375000000000000e+01	 9.999707846153838e+00
0	 1.000000000000000e+01	 4.437499999999999e+01	 9.999725032307678e+00
0	 1.000000000000000e+01	 4.499999999999999e+01	 9.999747544615380e+00
0	 1.000000000000000e+01	 4.562499999999999e+01	 9.999775383076924e+00
0	 1.000000000000000e+01	 4.624999999999999e+01	 9.999808547692297e+00
0	 1.000000000000000e+01	 4.687499999999998e+01	 9.999847038461539e+00
0	 1.000000000000000e+01	 4.749999999999999e+01	 9.999890855384606e+00
0	 1.000000000000001e+01	 4.812499999999999e+01	 9.999939998461544e+00
0	 1.000000000000000e+01	 4.874999999999998e+01	 9.999994467692316e+00
0	 1.000000000000000e+01	 4.937499999999999e+01	 1.000005426307692e+01
0	 1.000000000000000e+01	 5.000000000000000e+01	 1.000011938461539e+01
0	 1.062500000000000e+01	 4.375000000000000e+01	 9.999734338461526e+00
0	 1.062500000000001e+01	 4.437500000000001e+01	 9.999753347692302e+00
0	 1.062500000000001e+01	 4.499999999999999e+01	 9.999776252307679e+00
0	 1.062500000000000e+01	 4.562500000000000e+01	 9.999803052307680e+00
0	 1.062500000000001e+01	 4.624999999999999e+01	 9.999833747692296e+00
0	 1.062500000000000e+01	 4.687499999999999e+01	 9.999868338461546e+00
0	 1.062500000000000e+01	 4.749999999999998e+01	 9.999906824615394e+00
0	 1.062500000000001e+01	 4.812500000000000e+01	 9.999949206153859e+00
0	 1.062500000000000e+01	 4.874999999999998e+01	 9.999995483076939e+00
0	 1.062500000000000e+01	 4.937499999999998e+01	 1.000004565538465e+01
0	 1.062500000000000e+01	 5.000000000000000e+01	 1.000009972307693e+01
0	 1.125000000000000e+01	 4.375000000000001e+01	 9.999769015384592e+00
0	 1.125000000000000e+01	 4.437499999999999e+01	 9.999789201538448e+00
0	 1.125000000000001e+01	 4.499999999999999e+01	 9.999811852307687e+00
0	 1.125000000000001e+01	 4.562500000000000e+01	 9.999836967692289e+00
0	 1.125000000000001e+01	 4.625000000000000e+01	 9.999864547692297e+00
0	 1.125000000000000e+01	 4.687499999999999e+01	 9.999894592307696e+00
0	 1.125000000000001e+01	 4.749999999999999e+01	 9.999927101538461e+00
0	 1.125000000000000e+01	 4.812499999999999e+01	 9.999962075384609e+00
0	 1.125000000000001e+01	 4.874999999999998e+01	 9.999999513846152e+00
0	 1.125000000000000e+01	 4.937499999999998e+01	 1.000003941692309e+01
0	 1.125000000000001e+01	 5.000000000000000e+01	 1.000008178461541e+01
0	 1.187500000000001e+01	 4.375000000000000e+01	 9.999811876923062e+00
0	 1.187500000000001e+01	 4.437500000000000e+01	 9.999832593846136e+00
0	 1.187500000000001e+01	 4.500000000000000e+01	 9.999854344615379e+00
0	 1.187500000000001e+01	 4.562500000000000e+01	 9.999877129230764e+00
0	 1.187500000000000e+01	 4.624999999999999e+01	 9.999900947692300e+00
0	 1.187500000000000e+01	 4.687499999999999e+01	 9.999925800000005e+00
0	 1.187500000000001e+01	 4.749999999999999e+01	 9.999951686153853e+00
0	 1.187500000000001e+01	 4.812499999999999e+01	 9.999978606153872e+00
0	 1.187500000000000e+01	 4.874999999999998e+01	 1.000000656000000e+01
0	 1.187500000000001e+01	 4.937499999999996e+01	 1.000003554769228e+01
0	 1.187500000000001e+01	 5.000000000000000e+01	 1.000006556923076e+01
0	 1.250000000000000e+01	 4.375000000000000e+01	 9.999862923076915e+00
0	 1.250000000000000e+01	 4.437500000000000e+01	 9.999883524615381e+00
0	 1.250000000000000e+01	 4.499999999999999e+01	 9.999903729230759e+00
0	 1.250000000000000e+01	 4.562499999999999e+01	 9.999923536923070e+00
0	 1.250000000000000e+01	 4.624999999999999e+01	 9.999942947692308e+00
0	 1.250000000000000e+01	 4.687499999999999e+01	 9.999961961538462e+00
0	 1.250000000000000e+01	 4.749999999999999e+01	 9.999980578461539e+00
0	 1.250000000000000e+01	 4.812499999999999e+01	 9.999998798461549e+00
0	 1.250000000000000e+01	 4.874999999999999e+01	 1.000001662153847e+01
0	 1.250000000000000e+01	 4.937499999999999e+01	 1.000003404769228e+01
0	 1.250000000000000e+01	 5.000000000000000e+01	 1.000005107692309e+01
0	 1.250000000000000e+01	 0.000000000000000e+00	 9.999540307692303e+00
0	 1.250000000000000e+01	 6.250000000000000e-01	 1.000600772153846e+01
0	 1.250000000000000e+01	 1.250000000000000e+00	 1.001178654769231e+01
0	 1.250000000000000e+01	 1.875000000000000e+00	 1.001687678615384e+01
0	 1.250000000000000e+01	 2.500000000000000e+00	 1.002127843692307e+01
0	 1.250000000000000e+01	 3.125000000000000e+00	 1.002499150000000e+01
0	 1.250000000000000e+01	 3.750000000000000e+00	 1.002801597538461e+01
0	 1.250000000000000e+01	 4.375000000000000e+00	 1.003035186307692e+01
0	 1.250000000000000e+01	 5.000000000000000e+00	 1.003199916307692e+01
0	 1.250000000000000e+01	 5.624999999999999e+00	 1.003295787538461e+01
0	 1.250000000000000e+01	 6.250000000000000e+00	 1.003322800000000e+01
0	 1.312500000000000e+01	 0.000000000000000e+00	 1.000327088615384e+01
0	 1.312500000000000e+01	 6.250000000000001e-01	 1.000839771138461e+01
0	 1.312500000000000e+01	 1.250000000000000e+00	 1.001291694707692e+01
0	 1.312500000000000e+01	 1.875000000000000e+00	 1.001682859323077e+01
0	 1.312500000000000e+01	 2.500000000000000e+00	 1.002013264984615e+01
0	 1.312500000000000e+01	 3.125000000000000e+00	 1.002282911692308e+01
0	 1.312500000000000e+01	 3.750000000000000e+00	 1.002491799446154e+01
0	 1.312500000000000e+01	 4.375000000000001e+00	 1.002639928246154e+01
0	 1.312500000000000e+01	 4.999999999999999e+00	 1.002727298092308e+01
0	 1.312500000000000e+01	 5.624999999999999e+00	 1.002753908984615e+01
0	 1.312500000000000e+01	 6.250000000000000e+00	 1.002719760923077e+01
0	 1.375000000000000e+01	 0.000000000000000e+00	 1.000640372923077e+01
0	 1.375000000000000e+01	 6.250000000000001e-01	 1.001031999353846e+01
0	 1.375000000000000e+01	 1.250000000000000e+00	 1.001370966646154e+01
0	 1.375000000000000e+01	 1.875000000000000e+00	 1.001657274800000e+01
0	 1.375000000000000e+01	 2.500000000000000e+00	 1.001890923815385e+01
0	 1.375000000000000e+01	 3.125000000000000e+00	 1.002071913692308e+01
0	 1.375000000000000e+01	 3.750000000000000e+00	 1.002200244430769e+01
0	 1.375000000000000e+01	 4.375000000000000e+00	 1.002275916030769e+01
0	 1.375000000000000e+01	 5.000000000000000e+00	 1.002298928492307e+01
0	 1.375000000000000e+01	 5.625000000000001e+00	 1.002269281815384e+01
0	 1.375000000000000e+01	 6.250000000000000e+00	 1.002186976000000e+01
0	 1.437500000000000e+01	 0.000000000000000e+00	 1.000893883692307e+01
0	 1.437500000000000e+01	 6.250000000000000e-01	 1.001177456800000e+01
0	 1.437500000000001e+01	 1.250000000000000e+00	 1.001416470584615e+01
0	 1.437500000000000e+01	 1.875000000000000e+00	 1.001610925046154e+01
0	 1.437500000000001e+01	 2.500000000000001e+00	 1.001760820184615e+01
0	 1.437500000000000e+01	 3.125000000000000e+00	 1.001866156000000e+01
0	 1.437500000000000e+01	 3.750000000000000e+00	 1.001926932492307e+01
0	 1.437500000000000e+01	 4.374999999999999e+00	 1.001943149661538e+01
0	 1.437500000000000e+01	 5.000000000000000e+00	 1.001914807507693e+01
0	 1.437500000000000e+01	 5.624999999999999e+00	 1.001841906030769e+01
0	 1.437500000000000e+01	 6.250000000000000e+00	 1.001724445230769e+01
0	 1.500000000000000e+01	 0.000000000000000e+00	 1.001087620923076e+01
0	 1.500000000000000e+01	 6.249999999999999e-01	 1.001276143476922e+01
0	 1.500000000000000e+01	 1.250000000000000e+00	 1.001428206523077e+01
0	 1.500000000000000e+01	 1.875000000000000e+00	 1.001543810061538e+01
0	 1.500000000000000e+01	 2.500000000000000e+00	 1.001622954092307e+01
0	 1.500000000000000e+01	 3.125000000000000e+00	 1.001665638615384e+01
0	 1.500000000000001e+01	 3.750000000000000e+00	 1.001671863630769e+01
0	 1.500000000000000e+01	 4.375000000000000e+00	 1.001641629138461e+01
0	 1.500000000000000e+01	 4.999999999999999e+00	 1.001574935138461e+01
0	 1.500000000000000e+01	 5.625000000000000e+00	 1.001471781630769e+01
0	 1.500000000000000e+01	 6.250000000000001e+00	 1.001332168615385e+01
0	 1.562500000000000e+01	 0.000000000000000e+00	 1.001221584615384e+01
0	 1.562500000000000e+01	 6.249999999999998e-01	 1.001328059384615e+01
0	 1.562500000000000e+01	 1.250000000000000e+00	 1.001406174461538e+01
0	 1.562500000000000e+01	 1.875000000000000e+00	 1.001455929846153e+01
0	 1.562500000000000e+01	 2.500000000000000e+00	 1.001477325538461e+01
0	 1.562500000000001e+01	 3.125000000000000e+00	 1.001470361538462e+01
0	 1.562500000000000e+01	 3.750000000000000e+00	 1.001435037846154e+01
0	 1.562500000000001e+01	 4.375000000000002e+00	 1.001371354461538e+01
0	 1.562500000000000e+01	 4.999999999999999e+00	 1.001279311384615e+01
0	 1.562500000000001e+01	 5.625000000000000e+00	 1.001158908615385e+01
0	 1.562500000000000e+01	 6.249999999999999e+00	 1.001010146153847e+01
0	 1.625000000000000e+01	 0.000000000000000e+00	 1.001295774769231e+01
0	 1.625000000000000e+01	 6.249999999999998e-01	 1.001333204523077e+01
0	 1.625000000000000e+01	 1.250000000000000e+00	 1.001350374400000e+01
0	 1.625000000000000e+01	 1.875000000000001e+00	 1.001347284400000e+01
0	 1.625000000000000e+01	 2.500000000000000e+00	 1.001323934523077e+01
0	 1.625000000000000e+01	 3.125000000000000e+00	 1.001280324769230e+01
0	 1.625000000000000e+01	 3.750000000000000e+00	 1.001216455138462e+01
0	 1.625000000000001e+01	 4.375000000000001e+00	 1.001132325630769e+01
0	 1.625000000000001e+01	 4.999999999999999e+00	 1.001027936246154e+01
0	 1.625000000000001e+01	 5.625000000000000e+00	 1.000903286984615e+01
0	 1.625000000000000e+01	 6.250000000000001e+00	 1.000758377846153e+01
0	 1.687500000000000e+01	 0.000000000000000e+00	 1.001310191384615e+01
0	 1.687500000000000e+01	 6.250000000000000e-01	 1.001291578892308e+01
0	 1.687500000000000e+01	 1.250000000000000e+00	 1.001260806338462e+01
0	 1.687500000000000e+01	 1.875000000000000e+00	 1.001217873723077e+01
0	 1.687500000000001e+01	 2.500000000000000e+00	 1.001162781046154e+01
0	 1.687500000000000e+01	 3.125000000000000e+00	 1.001095528307692e+01
0	 1.687500000000000e+01	 3.750000000000000e+00	 1.001016115507693e+01
0	 1.687500000000000e+01	 4.375000000000000e+00	 1.000924542646154e+01
0	 1.687500000000001e+01	 5.000000000000000e+00	 1.000820809723077e+01
0	 1.687500000000001e+01	 5.625000000000000e+00	 1.000704916738461e+01
0	 1.687500000000000e+01	 6.250000000000000e+00	 1.000576863692308e+01
0	 1.750000000000000e+01	 0.000000000000000e+00	 1.001264834461538e+01
0	 1.750000000000000e+01	 6.249999999999999e-01	 1.001203182492307e+01
0	 1.750000000000001e+01	 1.250000000000000e+00	 1.001137470276923e+01
0	 1.750000000000000e+01	 1.875000000000000e+00	 1.001067697815384e+01
0	 1.750000000000001e+01	 2.500000000000000e+00	 1.000993865107692e+01
0	 1.750000000000000e+01	 3.125000000000000e+00	 1.000915972153846e+01
0	 1.750000000000000e+01	 3.750000000000000e+00	 1.000834018953846e+01
0	 1.750000000000001e+01	 4.375000000000001e+00	 1.000748005507692e+01
0	 1.750000000000000e+01	 5.000000000000000e+00	 1.000657931815384e+01
0	 1.750000000000000e+01	 5.624999999999999e+00	 1.000563797876923e+01
0	 1.750000000000000e+01	 6.250000000000000e+00	 1.000465603692308e+01
0	 1.812500000000001e+01	 0.000000000000000e+00	 1.001159704000000e+01
0	 1.812500000000001e+01	 6.250000000000000e-01	 1.001068015323077e+01
0	 1.812500000000000e+01	 1.250000000000000e+00	 1.000980366215384e+01
0	 1.812500000000000e+01	 1.875000000000000e+00	 1.000896756676923e+01
0	 1.812500000000001e+01	 2.500000000000000e+00	 1.000817186707692e+01
0	 1.812500000000001e+01	 3.125000000000000e+00	 1.000741656307692e+01
0	 1.812500000000001e+01	 3.750000000000000e+00	 1.000670165476923e+01
0	 1.812500000000000e+01	 4.375000000000000e+00	 1.000602714215385e+01
0	 1.812500000000001e+01	 5.000000000000000e+00	 1.000539302523077e+01
0	 1.812500000000001e+01	 5.624999999999999e+00	 1.000479930400000e+01
0	 1.812500000000000e+01	 6.250000000000001e+00	 1.000424597846154e+01
0	 1.875000000000000e+01	 0.000000000000000e+00	 1.000994800000000e+01
0	 1.875000000000000e+01	 6.250000000000000e-01	 1.000886077384615e+01
0	 1.875000000000000e+01	 1.250000000000000e+00	 1.000789494153846e+01
0	 1.875000000000000e+01	 1.875000000000000e+00	 1.000705050307692e+01
0	 1.875000000000000e+01	 2.500000000000000e+00	 1.000632745846154e+01
0	 1.875000000000000e+01	 3.125000000000000e+00	 1.000572580769231e+01
0	 1.875000000000000e+01	 3.750000000000000e+00	 1.000524555076923e+01
0	 1.875000000000000e+01	 4.375000000000000e+00	 1.000488668769231e+01
0	 1.875000000000000e+01	 5.000000000000000e+00	 1.000464921846154e+01
0	 1.875000000000000e+01	 5.624999999999999e+00	 1.000453314307692e+01
0	 1.875000000000000e+01	 6.250000000000000e+00	 1.000453846153846e+01
0	 1.250000000000000e+01	 6.250000000000000e+00	 1.003322800000000e+01
0	 1.250000000000000e+01	 6.875000000000000e+00	 1.002855469538461e+01
0	 1.250000000000000e+01	 7.500000000000002e+00	 1.002437628923077e+01
0	 1.250000000000000e+01	 8.125000000000004e+00	 1.002069278153846e+01
0	 1.250000000000000e+01	 8.750000000000004e+00	 1.001750417230769e+01
0	 1.250000000000000e+01	 9.375000000000004e+00	 1.001481046153846e+01
0	 1.250000000000000e+01	 1.000000000000000e+01	 1.001261164923076e+01
0	 1.250000000000000e+01	 1.062500000000000e+01	 1.001090773538462e+01
0	 1.250000000000000e+01	 1.125000000000001e+01	 1.000969872000000e+01
0	 1.250000000000000e+01	 1.187500000000001e+01	 1.000898460307692e+01
0	 1.250000000000000e+01	 1.250000000000000e+01	 1.000876538461538e+01
0	 1.312500000000000e+01	 6.250000000000000e+00	 1.002719760923077e+01
0	 1.312500000000000e+01	 6.874999999999999e+00	 1.002353160353846e+01
0	 1.312500000000000e+01	 7.500000000000000e+00	 1.002030439261538e+01
0	 1.312500000000000e+01	 8.125000000000002e+00	 1.001751597646154e+01
0	 1.312500000000000e+01	 8.750000000000000e+00	 1.001516635507692e+01
0	 1.312500000000000e+01	 9.375000000000002e+00	 1.001325552846154e+01
0	 1.312500000000000e+01	 1.000000000000000e+01	 1.001178349661538e+01
0	 1.312500000000000e+01	 1.062500000000000e+01	 1.001075025953846e+01
0	 1.312500000000000e+01	 1.125000000000001e+01	 1.001015581723077e+01
0	 1.312500000000000e+01	 1.187500000000000e+01	 1.001000016969230e+01
0	 1.312500000000000e+01	 1.250000000000000e+01	 1.001028331692307e+01
0	 1.375000000000000e+01	 6.250000000000000e+00	 1.002186976000000e+01
0	 1.375000000000000e+01	 6.875000000000002e+00	 1.001911369938462e+01
0	 1.375000000000000e+01	 7.500000000000003e+00	 1.001674032984615e+01
0	 1.375000000000000e+01	 8.125000000000000e+00	 1.001474965138461e+01
0	 1.375000000000000e+01	 8.750000000000002e+00	 1.001314166400000e+01
0	 1.375000000000000e+01	 9.375000000000005e+00	 1.001191636769231e+01
0	 1.375000000000000e+01	 1.000000000000001e+01	 1.001107376246154e+01
0	 1.375000000000000e+01	 1.062500000000001e+01	 1.001061384830769e+01
0	 1.375000000000000e+01	 1.125000000000000e+01	 1.001053662523077e+01
0	 1.375000000000000e+01	 1.187500000000001e+01	 1.001084209323077e+01
0	 1.375000000000000e+01	 1.250000000000000e+01	 1.001153025230769e+01
0	 1.437500000000000e+01	 6.250000000000000e+00	 1.001724445230769e+01
0	 1.437500000000000e+01	 6.875000000000000e+00	 1.001530098292308e+01
0	 1.437500000000000e+01	 7.500000000000002e+00	 1.001368410092308e+01
0	 1.437500000000000e+01	 8.125000000000000e+00	 1.001239380630769e+01
0	 1.437500000000000e+01	 8.750000000000002e+00	 1.001143009907693e+01
0	 1.437500000000000e+01	 9.375000000000004e+00	 1.001079297923077e+01
0	 1.437500000000000e+01	 1.000000000000000e+01	 1.001048244676923e+01
0	 1.437500000000000e+01	 1.062500000000001e+01	 1.001049850169230e+01
0	 1.437500000000000e+01	 1.125000000000000e+01	 1.001084114400000e+01
0	 1.437500000000000e+01	 1.187500000000000e+01	 1.001151037369231e+01
0	 1.437500000000000e+01	 1.250000000000000e+01	 1.001250619076923e+01
0	 1.500000000000000e+01	 6.250000000000001e+00	 1.001332168615385e+01
0	 1.500000000000000e+01	 6.874999999999997e+00	 1.001209345415385e+01
0	 1.500000000000000e+01	 7.500000000000001e+00	 1.001113570584615e+01
0	 1.500000000000000e+01	 8.125000000000002e+00	 1.001044844123077e+01
0	 1.500000000000000e+01	 8.750000000000002e+00	 1.001003166030769e+01
0	 1.500000000000000e+01	 9.375000000000004e+00	 1.000988536307692e+01
0	 1.500000000000000e+01	 1.000000000000001e+01	 1.001000954953846e+01
0	 1.500000000000000e+01	 1.062500000000001e+01	 1.001040421969231e+01
0	 1.500000000000000e+01	 1.125000000000001e+01	 1.001106937353846e+01
0	 1.500000000000000e+01	 1.187500000000001e+01	 1.001200501107692e+01
0	 1.500000000000000e+01	 1.250000000000000e+01	 1.001321113230769e+01
0	 1.562500000000000e+01	 6.249999999999999e+00	 1.001010146153847e+01
0	 1.562500000000000e+01	 6.875000000000000e+00	 1.000949111307692e+01
0	 1.562500000000000e+01	 7.500000000000001e+00	 1.000909514461539e+01
0	 1.562500000000000e+01	 8.125000000000002e+00	 1.000891355615385e+01
0	 1.562500000000000e+01	 8.750000000000004e+00	 1.000894634769231e+01
0	 1.562500000000001e+01	 9.375000000000002e+00	 1.000919351923077e+01
0	 1.562500000000000e+01	 1.000000000000000e+01	 1.000965507076923e+01
0	 1.562500000000000e+01	 1.062500000000001e+01	 1.001033100230769e+01
0	 1.562500000000000e+01	 1.125000000000001e+01	 1.001122131384615e+01
0	 1.562500000000000e+01	 1.187500000000000e+01	 1.001232600538462e+01
0	 1.562500000000000e+01	 1.250000000000000e+01	 1.001364507692308e+01
0	 1.625000000000000e+01	 6.250000000000001e+00	 1.000758377846153e+01
0	 1.625000000000000e+01	 6.875000000000001e+00	 1.000749395969230e+01
0	 1.625000000000000e+01	 7.500000000000002e+00	 1.000756241723077e+01
0	 1.625000000000001e+01	 8.125000000000004e+00	 1.000778915107692e+01
0	 1.625000000000000e+01	 8.750000000000004e+00	 1.000817416123077e+01
0	 1.625000000000000e+01	 9.375000000000004e+00	 1.000871744769231e+01
0	 1.625000000000000e+01	 1.000000000000000e+01	 1.000941901046154e+01
0	 1.625000000000001e+01	 1.062500000000001e+01	 1.001027884953846e+01
0	 1.625000000000001e+01	 1.125000000000001e+01	 1.001129696492307e+01
0	 1.625000000000000e+01	 1.187500000000000e+01	 1.001247335661539e+01
0	 1.625000000000000e+01	 1.250000000000000e+01	 1.001380802461539e+01
0	 1.687500000000000e+01	 6.250000000000000e+00	 1.000576863692308e+01
0	 1.687500000000000e+01	 6.875000000000001e+00	 1.000610199400000e+01
0	 1.687500000000001e+01	 7.500000000000003e+00	 1.000653752369231e+01
0	 1.687500000000000e+01	 8.125000000000000e+00	 1.000707522600000e+01
0	 1.687500000000000e+01	 8.750000000000002e+00	 1.000771510092308e+01
0	 1.687500000000001e+01	 9.375000000000004e+00	 1.000845714846153e+01
0	 1.687500000000000e+01	 1.000000000000000e+01	 1.000930136861538e+01
0	 1.687500000000000e+01	 1.062500000000000e+01	 1.001024776138461e+01
0	 1.687500000000000e+01	 1.125000000000001e+01	 1.001129632676923e+01
0	 1.687500000000000e+01	 1.187500000000001e+01	 1.001244706476923e+01
0	 1.687500000000000e+01	 1.250000000000000e+01	 1.001369997538461e+01
0	 1.750000000000000e+01	 6.250000000000000e+00	 1.000465603692308e+01
0	 1.750000000000000e+01	 6.875000000000000e+00	 1.000531521600000e+01
0	 1.750000000000000e+01	 7.500000000000002e+00	 1.000602046400000e+01
0	 1.750000000000000e+01	 8.125000000000002e+00	 1.000677178092307e+01
0	 1.750000000000000e+01	 8.750000000000002e+00	 1.000756916676922e+01
0	 1.750000000000000e+01	 9.375000000000002e+00	 1.000841262153846e+01
0	 1.750000000000001e+01	 1.000000000000001e+01	 1.000930214523077e+01
0	 1.750000000000001e+01	 1.062500000000001e+01	 1.001023773784615e+01
0	 1.750000000000001e+01	 1.125000000000000e+01	 1.001121939938461e+01
0	 1.750000000000001e+01	 1.187500000000001e+01	 1.001224712984615e+01
0	 1.750000000000000e+01	 1.250000000000000e+01	 1.001332092923077e+01
0	 1.812500000000000e+01	 6.250000000000001e+00	 1.000424597846154e+01
0	 1.812500000000000e+01	 6.875000000000001e+00	 1.000513362569231e+01
0	 1.812500000000001e+01	 7.500000000000002e+00	 1.000601123815384e+01
0	 1.812500000000000e+01	 8.125000000000002e+00	 1.000687881584615e+01
0	 1.812500000000000e+01	 8.750000000000000e+00	 1.000773635876923e+01
0	 1.812500000000000e+01	 9.375000000000002e+00	 1.000858386692308e+01
0	 1.812500000000000e+01	 1.000000000000000e+01	 1.000942134030769e+01
0	 1.812500000000000e+01	 1.062500000000000e+01	 1.001024877892307e+01
0	 1.812500000000001e+01	 1.125000000000001e+01	 1.001106618276923e+01
0	 1.812500000000000e+01	 1.187500000000001e+01	 1.001187355184615e+01
0	 1.812500000000000e+01	 1.250000000000000e+01	 1.001267088615385e+01
0	 1.875000000000000e+01	 6.250000000000000e+00	 1.000453846153846e+01
0	 1.875000000000000e+01	 6.875000000000000e+00	 1.000555722307692e+01
0	 1.875000000000000e+01	 7.500000000000002e+00	 1.000650984615385e+01
0	 1.875000000000000e+01	 8.125000000000004e+00	 1.000739633076923e+01
0	 1.875000000000000e+01	 8.750000000000004e+00	 1.000821667692308e+01
0	 1.875000000000000e+01	 9.375000000000004e+00	 1.000897088461539e+01
0	 1.875000000000000e+01	 1.000000000000000e+01	 1.000965895384615e+01
0	 1.875000000000000e+01	 1.062500000000000e+01	 1.001028088461539e+01
0	 1.875000000000000e+01	 1.125000000000001e+01	 1.001083667692307e+01
0	 1.875000000000000e+01	 1.187500000000001e+01	 1.001132633076923e+01
0	 1.875000000000000e+01	 1.250000000000000e+01	 1.001174984615384e+01
0	 1.250000000000000e+01	 1.250000000000000e+01	 1.000876538461538e+01
0	 1.250000000000000e+01	 1.312500000000000e+01	 1.000827046769231e+01
0	 1.250000000000000e+01	 1.375000000000000e+01	 1.000767630153846e+01
0	 1.250000000000000e+01	 1.437500000000000e+01	 1.000698288615385e+01
0	 1.250000000000000e+01	 1.500000000000000e+01	 1.000619022153846e+01
0	 1.250000000000000e+01	 1.562500000000000e+01	 1.000529830769231e+01
0	 1.250000000000000e+01	 1.625000000000000e+01	 1.000430714461538e+01
0	 1.250000000000000e+01	 1.687500000000000e+01	 1.000321673230769e+01
0	 1.250000000000000e+01	 1.750000000000001e+01	 1.000202707076923e+01
0	 1.250000000000000e+01	 1.812500000000001e+01	 1.000073816000000e+01
0	 1.250000000000000e+01	 1.875000000000000e+01	 9.999350000000002e+00
0	 1.312500000000000e+01	 1.250000000000000e+01	 1.001028331692307e+01
0	 1.312500000000000e+01	 1.312500000000000e+01	 1.000965664738461e+01
0	 1.312500000000000e+01	 1.375000000000000e+01	 1.000894813600000e+01
0	 1.312500000000000e+01	 1.437500000000000e+01	 1.000815778276923e+01
0	 1.312500000000000e+01	 1.500000000000000e+01	 1.000728558769231e+01
0	 1.312500000000000e+01	 1.562500000000000e+01	 1.000633155076923e+01
0	 1.312500000000000e+01	 1.625000000000000e+01	 1.000529567200000e+01
0	 1.312500000000000e+01	 1.687500000000000e+01	 1.000417795138461e+01
0	 1.312500000000000e+01	 1.750000000000000e+01	 1.000297838892308e+01
0	 1.312500000000000e+01	 1.812500000000001e+01	 1.000169698461539e+01
0	 1.312500000000000e+01	 1.875000000000000e+01	 1.000033373846153e+01
0	 1.375000000000000e+01	 1.250000000000000e+01	 1.001153025230769e+01
0	 1.375000000000000e+01	 1.312500000000000e+01	 1.001078897907692e+01
0	 1.375000000000000e+01	 1.375000000000000e+01	 1.000998327138462e+01
0	 1.375000000000000e+01	 1.437500000000000e+01	 1.000911312923077e+01
0	 1.375000000000000e+01	 1.500000000000000e+01	 1.000817855261538e+01
0	 1.375000000000000e+01	 1.562500000000001e+01	 1.000717954153846e+01
0	 1.375000000000000e+01	 1.625000000000000e+01	 1.000611609600000e+01
0	 1.375000000000000e+01	 1.687500000000001e+01	 1.000498821599999e+01
0	 1.375000000000000e+01	 1.750000000000000e+01	 1.000379590153846e+01
0	 1.375000000000000e+01	 1.812500000000001e+01	 1.000253915261538e+01
0	 1.375000000000000e+01	 1.875000000000000e+01	 1.000121796923077e+01
0	 1.437500000000000e+01	 1.250000000000000e+01	 1.001250619076923e+01
0	 1.437500000000000e+01	 1.312500000000000e+01	 1.001166746276924e+01
0	 1.437500000000000e+01	 1.375000000000000e+01	 1.001078170769230e+01
0	 1.437500000000000e+01	 1.437500000000000e+01	 1.000984892553846e+01
0	 1.437500000000000e+01	 1.500000000000000e+01	 1.000886911630769e+01
0	 1.437500000000000e+01	 1.562500000000001e+01	 1.000784228000000e+01
0	 1.437500000000000e+01	 1.625000000000000e+01	 1.000676841661538e+01
0	 1.437500000000000e+01	 1.687500000000000e+01	 1.000564752615385e+01
0	 1.437500000000000e+01	 1.750000000000000e+01	 1.000447960861538e+01
0	 1.437500000000000e+01	 1.812500000000000e+01	 1.000326466399999e+01
0	 1.437500000000000e+01	 1.875000000000000e+01	 1.000200269230769e+01
0	 1.500000000000000e+01	 1.250000000000000e+01	 1.001321113230769e+01
0	 1.500000000000000e+01	 1.312500000000000e+01	 1.001229209846153e+01
0	 1.500000000000000e+01	 1.375000000000000e+01	 1.001134344492307e+01
0	 1.500000000000000e+01	 1.437500000000000e+01	 1.001036517169231e+01
0	 1.500000000000000e+01	 1.500000000000000e+01	 1.000935727876923e+01
0	 1.500000000000000e+01	 1.562500000000000e+01	 1.000831976615384e+01
0	 1.500000000000000e+01	 1.625000000000000e+01	 1.000725263384616e+01
0	 1.500000000000000e+01	 1.687500000000001e+01	 1.000615588184615e+01
0	 1.500000000000000e+01	 1.750000000000000e+01	 1.000502951015384e+01
0	 1.500000000000000e+01	 1.812500000000001e+01	 1.000387351876923e+01
0	 1.500000000000000e+01	 1.875000000000000e+01	 1.000268790769230e+01
0	 1.562500000000000e+01	 1.250000000000000e+01	 1.001364507692308e+01
0	 1.562500000000000e+01	 1.312500000000000e+01	 1.001266288615384e+01
0	 1.562500000000000e+01	 1.375000000000000e+01	 1.001166848307692e+01
0	 1.562500000000000e+01	 1.437500000000000e+01	 1.001066186769231e+01
0	 1.562500000000000e+01	 1.500000000000000e+01	 1.000964304000000e+01
0	 1.562500000000001e+01	 1.562500000000001e+01	 1.000861200000000e+01
0	 1.562500000000000e+01	 1.625000000000000e+01	 1.000756874769230e+01
0	 1.562500000000000e+01	 1.687500000000001e+01	 1.000651328307692e+01
0	 1.562500000000000e+01	 1.750000000000000e+01	 1.000544560615384e+01
0	 1.562500000000000e+01	 1.812500000000000e+01	 1.000436571692309e+01
0	 1.562500000000000e+01	 1.875000000000000e+01	 1.000327361538461e+01
0	 1.625000000000000e+01	 1.250000000000000e+01	 1.001380802461539e+01
0	 1.625000000000000e+01	 1.312500000000000e+01	 1.001277982584615e+01
0	 1.625000000000000e+01	 1.375000000000000e+01	 1.001175682215384e+01
0	 1.625000000000001e+01	 1.437500000000001e+01	 1.001073901353846e+01
0	 1.625000000000000e+01	 1.500000000000000e+01	 1.000972640000000e+01
0	 1.625000000000000e+01	 1.562500000000000e+01	 1.000871898153846e+01
0	 1.625000000000000e+01	 1.625000000000000e+01	 1.000771675815385e+01
0	 1.625000000000001e+01	 1.687500000000001e+01	 1.000671972984615e+01
0	 1.625000000000001e+01	 1.750000000000001e+01	 1.000572789661538e+01
0	 1.625000000000000e+01	 1.812500000000000e+01	 1.000474125846154e+01
0	 1.625000000000000e+01	 1.875000000000000e+01	 1.000375981538462e+01
0	 1.687500000000000e+01	 1.250000000000000e+01	 1.001369997538461e+01
0	 1.687500000000000e+01	 1.312500000000000e+01	 1.001264291753846e+01
0	 1.687500000000001e+01	 1.375000000000000e+01	 1.001160846215385e+01
0	 1.687500000000000e+01	 1.437500000000000e+01	 1.001059660923077e+01
0	 1.687500000000000e+01	 1.500000000000000e+01	 1.000960735876923e+01
0	 1.687500000000001e+01	 1.562500000000000e+01	 1.000864071076923e+01
0	 1.687500000000000e+01	 1.625000000000000e+01	 1.000769666523077e+01
0	 1.687500000000000e+01	 1.687500000000001e+01	 1.000677522215384e+01
0	 1.687500000000000e+01	 1.750000000000000e+01	 1.000587638153846e+01
0	 1.687500000000000e+01	 1.812500000000000e+01	 1.000500014338461e+01
0	 1.687500000000000e+01	 1.875000000000000e+01	 1.000414650769231e+01
0	 1.750000000000000e+01	 1.250000000000000e+01	 1.001332092923077e+01
0	 1.750000000000000e+01	 1.312500000000000e+01	 1.001225216123077e+01
0	 1.750000000000000e+01	 1.375000000000000e+01	 1.001122340307692e+01
0	 1.750000000000000e+01	 1.437500000000000e+01	 1.001023465476923e+01
0	 1.750000000000000e+01	 1.500000000000000e+01	 1.000928591630769e+01
0	 1.750000000000000e+01	 1.562500000000000e+01	 1.000837718769230e+01
0	 1.750000000000001e+01	 1.625000000000001e+01	 1.000750846892307e+01
0	 1.750000000000001e+01	 1.687500000000001e+01	 1.000667976000000e+01
0	 1.750000000000001e+01	 1.750000000000001e+01	 1.000589106092308e+01
0	 1.750000000000001e+01	 1.812500000000001e+01	 1.000514237169230e+01
0	 1.750000000000000e+01	 1.875000000000000e+01	 1.000443369230769e+01
0	 1.812500000000000e+01	 1.250000000000000e+01	 1.001267088615385e+01
0	 1.812500000000000e+01	 1.312500000000000e+01	 1.001160755692308e+01
0	 1.812500000000001e+01	 1.375000000000000e+01	 1.001060164492307e+01
0	 1.812500000000000e+01	 1.437500000000000e+01	 1.000965315015385e+01
0	 1.812500000000000e+01	 1.500000000000000e+01	 1.000876207261538e+01
0	 1.812500000000000e+01	 1.562500000000000e+01	 1.000792841230769e+01
0	 1.812500000000000e+01	 1.625000000000000e+01	 1.000715216923077e+01
0	 1.812500000000000e+01	 1.687500000000000e+01	 1.000643334338462e+01
0	 1.812500000000001e+01	 1.750000000000001e+01	 1.000577193476923e+01
0	 1.812500000000000e+01	 1.812500000000001e+01	 1.000516794338461e+01
0	 1.812500000000000e+01	 1.875000000000000e+01	 1.000462136923077e+01
0	 1.875000000000000e+01	 1.250000000000000e+01	 1.001174984615384e+01
0	 1.875000000000000e+01	 1.312500000000000e+01	 1.001070910461539e+01
0	 1.875000000000000e+01	 1.375000000000000e+01	 1.000974318769231e+01
0	 1.875000000000000e+01	 1.437500000000000e+01	 1.000885209538461e+01
0	 1.875000000000000e+01	 1.500000000000000e+01	 1.000803582769231e+01
0	 1.875000000000000e+01	 1.562500000000000e+01	 1.000729438461538e+01
0	 1.875000000000000e+01	 1.625000000000000e+01	 1.000662776615384e+01
0	 1.875000000000000e+01	 1.687500000000000e+01	 1.000603597230769e+01
0	 1.875000000000000e+01	 1.750000000000001e+01	 1.000551900307692e+01
0	 1.875000000000000e+01	 1.812500000000001e+01	 1.000507685846154e+01
0	 1.875000000000000e+01	 1.875000000000000e+01	 1.000470953846154e+01
0	 1.250000000000000e+01	 1.875000000000000e+01	 9.999350000000002e+00
0	 1.250000000000000e+01	 1.937500000000000e+01	 9.999538275384616e+00
0	 1.250000000000000e+01	 2.000000000000000e+01	 9.999705255384612e+00
0	 1.250000000000000e+01	 2.062500000000000e+01	 9.999850940000004e+00
0	 1.250000000000000e+01	 2.125000000000000e+01	 9.999975329230768e+00
0	 1.250000000000000e+01	 2.187500000000000e+01	 1.000007842307692e+01
0	 1.250000000000000e+01	 2.250000000000000e+01	 1.000016022153846e+01
0	 1.250000000000000e+01	 2.312500000000001e+01	 1.000022072461539e+01
0	 1.250000000000000e+01	 2.375000000000001e+01	 1.000025993230769e+01
0	 1.250000000000000e+01	 2.437500000000001e+01	 1.000027784461538e+01
0	 1.250000000000000e+01	 2.500000000000000e+01	 1.000027446153846e+01
0	 1.312500000000000e+01	 1.875000000000000e+01	 1.000033373846153e+01
0	 1.312500000000000e+01	 1.937500000000000e+01	 1.000044464184615e+01
0	 1.312500000000000e+01	 2.000000000000000e+01	 1.000053472430769e+01
0	 1.312500000000000e+01	 2.062500000000000e+01	 1.000060398584616e+01
0	 1.312500000000000e+01	 2.125000000000001e+01	 1.000065242646154e+01
0	 1.312500000000000e+01	 2.187500000000000e+01	 1.000068004615384e+01
0	 1.312500000000000e+01	 2.250000000000001e+01	 1.000068684492308e+01
0	 1.312500000000000e+01	 2.312500000000000e+01	 1.000067282276923e+01
0	 1.312500000000000e+01	 2.375000000000001e+01	 1.000063797969230e+01
0	 1.312500000000000e+01	 2.437500000000001e+01	 1.000058231569230e+01
0	 1.312500000000000e+01	 2.500000000000000e+01	 1.000050583076922e+01
0	 1.375000000000000e+01	 1.875000000000000e+01	 1.000121796923077e+01
0	 1.375000000000000e+01	 1.937500000000000e+01	 1.000126028830770e+01
0	 1.375000000000000e+01	 2.000000000000000e+01	 1.000128226092307e+01
0	 1.375000000000000e+01	 2.062500000000000e+01	 1.000128388707692e+01
0	 1.375000000000000e+01	 2.125000000000000e+01	 1.000126516676923e+01
0	 1.375000000000000e+01	 2.187500000000000e+01	 1.000122610000000e+01
0	 1.375000000000000e+01	 2.250000000000000e+01	 1.000116668676923e+01
0	 1.375000000000000e+01	 2.312500000000001e+01	 1.000108692707692e+01
0	 1.375000000000000e+01	 2.375000000000001e+01	 1.000098682092308e+01
0	 1.375000000000000e+01	 2.437500000000001e+01	 1.000086636830768e+01
0	 1.375000000000000e+01	 2.500000000000000e+01	 1.000072556923077e+01
0	 1.437500000000000e+01	 1.875000000000000e+01	 1.000200269230769e+01
0	 1.437500000000000e+01	 1.937500000000000e+01	 1.000198521476923e+01
0	 1.437500000000000e+01	 2.000000000000000e+01	 1.000194786523077e+01
0	 1.437500000000000e+01	 2.062500000000000e+01	 1.000189064369231e+01
0	 1.437500000000000e+01	 2.125000000000000e+01	 1.000181355015384e+01
0	 1.437500000000000e+01	 2.187500000000000e+01	 1.000171658461538e+01
0	 1.437500000000000e+01	 2.250000000000000e+01	 1.000159974707692e+01
0	 1.437500000000000e+01	 2.312500000000001e+01	 1.000146303753846e+01
0	 1.437500000000000e+01	 2.375000000000000e+01	 1.000130645600000e+01
0	 1.437500000000000e+01	 2.437500000000000e+01	 1.000113000246153e+01
0	 1.437500000000000e+01	 2.500000000000000e+01	 1.000093367692307e+01
0	 1.500000000000000e+01	 1.875000000000000e+01	 1.000268790769230e+01
0	 1.500000000000000e+01	 1.937500000000000e+01	 1.000261942123077e+01
0	 1.500000000000000e+01	 2.000000000000001e+01	 1.000253153723077e+01
0	 1.500000000000000e+01	 2.062500000000000e+01	 1.000242425569230e+01
0	 1.500000000000000e+01	 2.125000000000000e+01	 1.000229757661538e+01
0	 1.500000000000000e+01	 2.187500000000000e+01	 1.000215150000000e+01
0	 1.500000000000000e+01	 2.250000000000000e+01	 1.000198602584615e+01
0	 1.500000000000000e+01	 2.312500000000001e+01	 1.000180115415384e+01
0	 1.500000000000000e+01	 2.375000000000000e+01	 1.000159688492308e+01
0	 1.500000000000000e+01	 2.437500000000001e+01	 1.000137321815384e+01
0	 1.500000000000000e+01	 2.500000000000000e+01	 1.000113015384615e+01
0	 1.562500000000000e+01	 1.875000000000000e+01	 1.000327361538461e+01
0	 1.562500000000000e+01	 1.937500000000000e+01	 1.000316290769230e+01
0	 1.562500000000000e+01	 2.000000000000000e+01	 1.000303327692308e+01
0	 1.562500000000000e+01	 2.062500000000000e+01	 1.000288472307692e+01
0	 1.562500000000000e+01	 2.125000000000000e+01	 1.000271724615384e+01
0	 1.562500000000001e+01	 2.187500000000000e+01	 1.000253084615385e+01
0	 1.562500000000000e+01	 2.250000000000000e+01	 1.000232552307692e+01
0	 1.562500000000000e+01	 2.312500000000001e+01	 1.000210127692307e+01
0	 1.562500000000000e+01	 2.375000000000001e+01	 1.000185810769230e+01
0	 1.562500000000000e+01	 2.437500000000000e+01	 1.000159601538460e+01
0	 1.562500000000000e+01	 2.500000000000000e+01	 1.000131499999999e+01
0	 1.625000000000000e+01	 1.875000000000000e+01	 1.000375981538462e+01
0	 1.625000000000000e+01	 1.937500000000000e+01	 1.000361567415384e+01
0	 1.625000000000000e+01	 2.000000000000000e+01	 1.000345308430769e+01
0	 1.625000000000001e+01	 2.062500000000001e+01	 1.000327204584615e+01
0	 1.625000000000000e+01	 2.125000000000001e+01	 1.000307255876923e+01
0	 1.625000000000000e+01	 2.187500000000000e+01	 1.000285462307692e+01
0	 1.625000000000000e+01	 2.250000000000000e+01	 1.000261823876923e+01
0	 1.625000000000001e+01	 2.312500000000001e+01	 1.000236340584615e+01
0	 1.625000000000001e+01	 2.375000000000000e+01	 1.000209012430769e+01
0	 1.625000000000000e+01	 2.437500000000001e+01	 1.000179839415384e+01
0	 1.625000000000000e+01	 2.500000000000000e+01	 1.000148821538461e+01
0	 1.687500000000000e+01	 1.875000000000000e+01	 1.000414650769231e+01
0	 1.687500000000000e+01	 1.937500000000000e+01	 1.000397772061538e+01
0	 1.687500000000001e+01	 2.000000000000001e+01	 1.000379095938461e+01
0	 1.687500000000000e+01	 2.062500000000000e+01	 1.000358622400000e+01
0	 1.687500000000000e+01	 2.125000000000000e+01	 1.000336351446153e+01
0	 1.687500000000001e+01	 2.187500000000001e+01	 1.000312283076923e+01
0	 1.687500000000000e+01	 2.250000000000000e+01	 1.000286417292307e+01
0	 1.687500000000000e+01	 2.312500000000000e+01	 1.000258754092307e+01
0	 1.687500000000000e+01	 2.375000000000000e+01	 1.000229293476922e+01
0	 1.687500000000000e+01	 2.437500000000000e+01	 1.000198035446153e+01
0	 1.687500000000000e+01	 2.500000000000000e+01	 1.000164980000000e+01
0	 1.750000000000000e+01	 1.875000000000000e+01	 1.000443369230769e+01
0	 1.750000000000000e+01	 1.937500000000000e+01	 1.000424904707693e+01
0	 1.750000000000000e+01	 2.000000000000000e+01	 1.000404690215385e+01
0	 1.750000000000000e+01	 2.062500000000000e+01	 1.000382725753846e+01
0	 1.750000000000000e+01	 2.125000000000000e+01	 1.000359011323076e+01
0	 1.750000000000000e+01	 2.187500000000000e+01	 1.000333546923077e+01
0	 1.750000000000001e+01	 2.250000000000000e+01	 1.000306332553846e+01
0	 1.750000000000001e+01	 2.312500000000001e+01	 1.000277368215384e+01
0	 1.750000000000001e+01	 2.375000000000000e+01	 1.000246653907692e+01
0	 1.750000000000001e+01	 2.437500000000000e+01	 1.000214189630769e+01
0	 1.750000000000000e+01	 2.500000000000000e+01	 1.000179975384615e+01
0	 1.812500000000000e+01	 1.875000000000000e+01	 1.000462136923077e+01
0	 1.812500000000000e+01	 1.937500000000000e+01	 1.000442965353846e+01
0	 1.812500000000001e+01	 2.000000000000000e+01	 1.000422091261538e+01
0	 1.812500000000000e+01	 2.062500000000000e+01	 1.000399514646154e+01
0	 1.812500000000000e+01	 2.125000000000000e+01	 1.000375235507692e+01
0	 1.812500000000000e+01	 2.187500000000000e+01	 1.000349253846154e+01
0	 1.812500000000000e+01	 2.250000000000001e+01	 1.000321569661538e+01
0	 1.812500000000000e+01	 2.312500000000000e+01	 1.000292182953845e+01
0	 1.812500000000001e+01	 2.375000000000000e+01	 1.000261093723077e+01
0	 1.812500000000000e+01	 2.437500000000000e+01	 1.000228301969230e+01
0	 1.812500000000000e+01	 2.500000000000000e+01	 1.000193807692308e+01
0	 1.875000000000000e+01	 1.875000000000000e+01	 1.000470953846154e+01
0	 1.875000000000000e+01	 1.937500000000000e+01	 1.000451954000000e+01
0	 1.875000000000000e+01	 2.000000000000000e+01	 1.000431299076923e+01
0	 1.875000000000000e+01	 2.062500000000000e+01	 1.000408989076923e+01
0	 1.875000000000000e+01	 2.125000000000000e+01	 1.000385024000000e+01
0	 1.875000000000000e+01	 2.187500000000000e+01	 1.000359403846154e+01
0	 1.875000000000000e+01	 2.250000000000000e+01	 1.000332128615384e+01
0	 1.875000000000000e+01	 2.312500000000001e+01	 1.000303198307692e+01
0	 1.875000000000000e+01	 2.375000000000001e+01	 1.000272612923077e+01
0	 1.875000000000000e+01	 2.437500000000001e+01	 1.000240372461538e+01
0	 1.875000000000000e+01	 2.500000000000000e+01	 1.000206476923077e+01
0	 1.250000000000000e+01	 2.500000000000000e+01	 1.000027446153846e+01
0	 1.250000000000000e+01	 2.562500000000000e+01	 1.000009582307692e+01
0	 1.250000000000000e+01	 2.625000000000000e+01	 9.999923969230771e+00
0	 1.250000000000000e+01	 2.687499999999999e+01	 9.999758899999998e+00
0	 1.250000000000000e+01	 2.749999999999999e+01	 9.999600615384619e+00
0	 1.250000000000000e+01	 2.812499999999999e+01	 9.999449115384612e+00
0	 1.250000000000000e+01	 2.874999999999999e+01	 9.999304399999994e+00
0	 1.250000000000000e+01	 2.937499999999999e+01	 9.999166469230770e+00
0	 1.250000000000000e+01	 2.999999999999998e+01	 9.999035323076932e+00
0	 1.250000000000000e+01	 3.062499999999998e+01	 9.998910961538458e+00
0	 1.250000000000000e+01	 3.125000000000000e+01	 9.998793384615386e+00
0	 1.312500000000000e+01	 2.500000000000000e+01	 1.000050583076922e+01
0	 1.312500000000000e+01	 2.562499999999999e+01	 1.000034924723077e+01
0	 1.312500000000000e+01	 2.625000000000000e+01	 1.000019841353846e+01
0	 1.312500000000000e+01	 2.687499999999998e+01	 1.000005332969230e+01
0	 1.312500000000000e+01	 2.749999999999999e+01	 9.999913995692300e+00
0	 1.312500000000000e+01	 2.812499999999998e+01	 9.999780411538456e+00
0	 1.312500000000000e+01	 2.874999999999999e+01	 9.999652577230769e+00
0	 1.312500000000000e+01	 2.937499999999998e+01	 9.999530492769228e+00
0	 1.312500000000000e+01	 2.999999999999999e+01	 9.999414158153840e+00
0	 1.312500000000000e+01	 3.062499999999998e+01	 9.999303573384614e+00
0	 1.312500000000000e+01	 3.125000000000000e+01	 9.999198738461537e+00
0	 1.375000000000000e+01	 2.500000000000000e+01	 1.000072556923077e+01
0	 1.375000000000000e+01	 2.562499999999999e+01	 1.000058824061538e+01
0	 1.375000000000000e+01	 2.624999999999999e+01	 1.000045562707692e+01
0	 1.375000000000000e+01	 2.687499999999999e+01	 1.000032772861538e+01
0	 1.375000000000000e+01	 2.749999999999999e+01	 1.000020454523077e+01
0	 1.375000000000000e+01	 2.812499999999999e+01	 1.000008607692307e+01
0	 1.375000000000000e+01	 2.874999999999998e+01	 9.999972323692308e+00
0	 1.375000000000000e+01	 2.937499999999999e+01	 9.999863285538460e+00
0	 1.375000000000000e+01	 2.999999999999998e+01	 9.999758962461549e+00
0	 1.375000000000000e+01	 3.062499999999999e+01	 9.999659354461533e+00
0	 1.375000000000000e+01	 3.125000000000000e+01	 9.999564461538466e+00
0	 1.437500000000000e+01	 2.500000000000000e+01	 1.000093367692307e+01
0	 1.437500000000000e+01	 2.562500000000000e+01	 1.000081280323076e+01
0	 1.437500000000000e+01	 2.625000000000000e+01	 1.000069560984615e+01
0	 1.437500000000000e+01	 2.687499999999999e+01	 1.000058209676923e+01
0	 1.437500000000000e+01	 2.749999999999998e+01	 1.000047226400000e+01
0	 1.437500000000001e+01	 2.812499999999999e+01	 1.000036611153846e+01
0	 1.437500000000000e+01	 2.874999999999998e+01	 1.000026363938462e+01
0	 1.437500000000000e+01	 2.937499999999998e+01	 1.000016484753846e+01
0	 1.437500000000000e+01	 2.999999999999998e+01	 1.000006973600000e+01
0	 1.437500000000000e+01	 3.062499999999998e+01	 9.999978304769234e+00
0	 1.437500000000000e+01	 3.125000000000000e+01	 9.999890553846162e+00
0	 1.500000000000000e+01	 2.500000000000000e+01	 1.000113015384615e+01
0	 1.500000000000000e+01	 2.562500000000000e+01	 1.000102293507693e+01
0	 1.500000000000000e+01	 2.625000000000000e+01	 1.000091836184615e+01
0	 1.500000000000000e+01	 2.687499999999999e+01	 1.000081643415384e+01
0	 1.500000000000000e+01	 2.749999999999999e+01	 1.000071715200000e+01
0	 1.500000000000000e+01	 2.812499999999998e+01	 1.000062051538461e+01
0	 1.500000000000000e+01	 2.874999999999999e+01	 1.000052652430769e+01
0	 1.500000000000000e+01	 2.937499999999998e+01	 1.000043517876924e+01
0	 1.500000000000000e+01	 2.999999999999998e+01	 1.000034647876923e+01
0	 1.500000000000000e+01	 3.062499999999998e+01	 1.000026042430769e+01
0	 1.500000000000000e+01	 3.125000000000001e+01	 1.000017701538462e+01
0	 1.562500000000000e+01	 2.500000000000000e+01	 1.000131499999999e+01
0	 1.562500000000000e+01	 2.562500000000000e+01	 1.000121863615385e+01
0	 1.562500000000000e+01	 2.625000000000000e+01	 1.000112388307693e+01
0	 1.562500000000000e+01	 2.687500000000000e+01	 1.000103074076923e+01
0	 1.562500000000000e+01	 2.749999999999998e+01	 1.000093920923076e+01
0	 1.562500000000000e+01	 2.812499999999999e+01	 1.000084928846153e+01
0	 1.562500000000001e+01	 2.874999999999999e+01	 1.000076097846154e+01
0	 1.562500000000001e+01	 2.937499999999999e+01	 1.000067427923077e+01
0	 1.562500000000000e+01	 2.999999999999998e+01	 1.000058919076923e+01
0	 1.562500000000000e+01	 3.062499999999998e+01	 1.000050571307693e+01
0	 1.562500000000000e+01	 3.125000000000000e+01	 1.000042384615385e+01
0	 1.625000000000000e+01	 2.500000000000000e+01	 1.000148821538461e+01
0	 1.625000000000000e+01	 2.562500000000000e+01	 1.000139990646154e+01
0	 1.625000000000000e+01	 2.625000000000000e+01	 1.000131217353846e+01
0	 1.625000000000000e+01	 2.687499999999999e+01	 1.000122501661538e+01
0	 1.625000000000000e+01	 2.750000000000000e+01	 1.000113843569231e+01
0	 1.625000000000000e+01	 2.812499999999999e+01	 1.000105243076923e+01
0	 1.625000000000000e+01	 2.874999999999999e+01	 1.000096700184616e+01
0	 1.625000000000001e+01	 2.937499999999998e+01	 1.000088214892308e+01
0	 1.625000000000000e+01	 2.999999999999998e+01	 1.000079787200001e+01
0	 1.625000000000000e+01	 3.062499999999998e+01	 1.000071417107692e+01
0	 1.625000000000000e+01	 3.125000000000000e+01	 1.000063104615385e+01
0	 1.687500000000000e+01	 2.500000000000000e+01	 1.000164980000000e+01
0	 1.687500000000000e+01	 2.562500000000000e+01	 1.000156674599999e+01
0	 1.687500000000000e+01	 2.625000000000000e+01	 1.000148323323077e+01
0	 1.687500000000000e+01	 2.687499999999999e+01	 1.000139926169231e+01
0	 1.687500000000000e+01	 2.749999999999999e+01	 1.000131483138462e+01
0	 1.687500000000001e+01	 2.812499999999999e+01	 1.000122994230769e+01
0	 1.687500000000000e+01	 2.874999999999999e+01	 1.000114459446154e+01
0	 1.687500000000001e+01	 2.937499999999999e+01	 1.000105878784615e+01
0	 1.687500000000000e+01	 2.999999999999998e+01	 1.000097252246154e+01
0	 1.687500000000001e+01	 3.062499999999999e+01	 1.000088579830769e+01
0	 1.687500000000000e+01	 3.125000000000000e+01	 1.000079861538461e+01
0	 1.750000000000000e+01	 2.500000000000000e+01	 1.000179975384615e+01
0	 1.750000000000001e+01	 2.562500000000000e+01	 1.000171915476924e+01
0	 1.750000000000001e+01	 2.625000000000000e+01	 1.000163706215384e+01
0	 1.750000000000000e+01	 2.687499999999999e+01	 1.000155347600000e+01
0	 1.750000000000001e+01	 2.750000000000000e+01	 1.000146839630769e+01
0	 1.750000000000000e+01	 2.812499999999999e+01	 1.000138182307692e+01
0	 1.750000000000000e+01	 2.874999999999999e+01	 1.000129375630769e+01
0	 1.750000000000000e+01	 2.937499999999999e+01	 1.000120419600000e+01
0	 1.750000000000000e+01	 2.999999999999998e+01	 1.000111314215385e+01
0	 1.750000000000000e+01	 3.062499999999998e+01	 1.000102059476924e+01
0	 1.750000000000000e+01	 3.125000000000000e+01	 1.000092655384615e+01
0	 1.812500000000000e+01	 2.500000000000000e+01	 1.000193807692308e+01
0	 1.812500000000000e+01	 2.562499999999999e+01	 1.000185713276923e+01
0	 1.812500000000000e+01	 2.625000000000000e+01	 1.000177366030769e+01
0	 1.812500000000000e+01	 2.687499999999999e+01	 1.000168765953846e+01
0	 1.812500000000000e+01	 2.749999999999999e+01	 1.000159913046154e+01
0	 1.812500000000000e+01	 2.812499999999998e+01	 1.000150807307692e+01
0	 1.812500000000001e+01	 2.874999999999999e+01	 1.000141448738462e+01
0	 1.812500000000000e+01	 2.937499999999999e+01	 1.000131837338461e+01
0	 1.812500000000001e+01	 2.999999999999999e+01	 1.000121973107692e+01
0	 1.812500000000000e+01	 3.062499999999998e+01	 1.000111856046154e+01
0	 1.812500000000000e+01	 3.125000000000000e+01	 1.000101486153846e+01
0	 1.875000000000000e+01	 2.500000000000000e+01	 1.000206476923077e+01
0	 1.875000000000000e+01	 2.562500000000000e+01	 1.000198068000000e+01
0	 1.875000000000001e+01	 2.625000000000000e+01	 1.000189302769231e+01
0	 1.875000000000000e+01	 2.687499999999999e+01	 1.000180181230769e+01
0	 1.875000000000000e+01	 2.749999999999999e+01	 1.000170703384616e+01
0	 1.875000000000000e+01	 2.812499999999999e+01	 1.000160869230769e+01
0	 1.875000000000000e+01	 2.874999999999999e+01	 1.000150678769231e+01
0	 1.875000000000000e+01	 2.937499999999999e+01	 1.000140132000000e+01
0	 1.875000000000000e+01	 2.999999999999998e+01	 1.000129228923078e+01
0	 1.875000000000000e+01	 3.062499999999998e+01	 1.000117969538462e+01
0	 1.875000000000000e+01	 3.125000000000000e+01	 1.000106353846154e+01
0	 1.250000000000000e+01	 3.125000000000000e+01	 9.998793384615386e+00
0	 1.250000000000000e+01	 3.187500000000000e+01	 9.998937456923079e+00
0	 1.250000000000000e+01	 3.250000000000001e+01	 9.999070350769227e+00
0	 1.250000000000000e+01	 3.312499999999999e+01	 9.999192066153842e+00
0	 1.250000000000000e+01	 3.374999999999999e+01	 9.999302603076918e+00
0	 1.250000000000000e+01	 3.437499999999999e+01	 9.999401961538460e+00
0	 1.250000000000000e+01	 3.499999999999999e+01	 9.999490141538464e+00
0	 1.250000000000000e+01	 3.562499999999999e+01	 9.999567143076920e+00
0	 1.250000000000000e+01	 3.624999999999998e+01	 9.999632966153847e+00
0	 1.250000000000000e+01	 3.687499999999998e+01	 9.999687610769218e+00
0	 1.250000000000000e+01	 3.750000000000000e+01	 9.999731076923080e+00
0	 1.312500000000000e+01	 3.125000000000000e+01	 9.999198738461537e+00
0	 1.312500000000000e+01	 3.187499999999999e+01	 9.999299623846159e+00
0	 1.312500000000000e+01	 3.250000000000000e+01	 9.999390443076921e+00
0	 1.312500000000000e+01	 3.312499999999999e+01	 9.999471196153843e+00
0	 1.312500000000000e+01	 3.374999999999999e+01	 9.999541883076922e+00
0	 1.312500000000000e+01	 3.437499999999998e+01	 9.999602503846150e+00
0	 1.312500000000000e+01	 3.499999999999999e+01	 9.999653058461542e+00
0	 1.312500000000000e+01	 3.562499999999998e+01	 9.999693546923085e+00
0	 1.312500000000000e+01	 3.624999999999998e+01	 9.999723969230773e+00
0	 1.312500000000000e+01	 3.687499999999999e+01	 9.999744325384611e+00
0	 1.312500000000000e+01	 3.750000000000000e+01	 9.999754615384621e+00
0	 1.375000000000000e+01	 3.125000000000000e+01	 9.999564461538466e+00
0	 1.375000000000000e+01	 3.187499999999999e+01	 9.999626747692307e+00
0	 1.375000000000000e+01	 3.249999999999999e+01	 9.999680079999997e+00
0	 1.375000000000000e+01	 3.312500000000000e+01	 9.999724458461539e+00
0	 1.375000000000000e+01	 3.374999999999999e+01	 9.999759883076930e+00
0	 1.375000000000000e+01	 3.437499999999999e+01	 9.999786353846158e+00
0	 1.375000000000000e+01	 3.499999999999999e+01	 9.999803870769238e+00
0	 1.375000000000000e+01	 3.562499999999998e+01	 9.999812433846156e+00
0	 1.375000000000000e+01	 3.624999999999997e+01	 9.999812043076920e+00
0	 1.375000000000000e+01	 3.687499999999997e+01	 9.999802698461549e+00
0	 1.375000000000000e+01	 3.750000000000000e+01	 9.999784400000001e+00
0	 1.437500000000000e+01	 3.125000000000000e+01	 9.999890553846162e+00
0	 1.437500000000000e+01	 3.187500000000000e+01	 9.999918828461553e+00
0	 1.437500000000000e+01	 3.250000000000000e+01	 9.999939261538458e+00
0	 1.437500000000000e+01	 3.312499999999999e+01	 9.999951853076919e+00
0	 1.437500000000000e+01	 3.374999999999999e+01	 9.999956603076923e+00
0	 1.437500000000001e+01	 3.437499999999999e+01	 9.999953511538470e+00
0	 1.437500000000000e+01	 3.499999999999999e+01	 9.999942578461537e+00
0	 1.437500000000000e+01	 3.562499999999999e+01	 9.999923803846153e+00
0	 1.437500000000000e+01	 3.624999999999997e+01	 9.999897187692307e+00
0	 1.437500000000000e+01	 3.687499999999998e+01	 9.999862730000007e+00
0	 1.437500000000000e+01	 3.749999999999999e+01	 9.999820430769233e+00
0	 1.500000000000000e+01	 3.125000000000001e+01	 1.000017701538462e+01
0	 1.500000000000000e+01	 3.187500000000000e+01	 1.000017586615384e+01
0	 1.500000000000000e+01	 3.250000000000000e+01	 1.000016798769231e+01
0	 1.500000000000000e+01	 3.312500000000000e+01	 1.000015338000001e+01
0	 1.500000000000000e+01	 3.374999999999999e+01	 1.000013204307692e+01
0	 1.500000000000000e+01	 3.437499999999999e+01	 1.000010397692308e+01
0	 1.500000000000000e+01	 3.499999999999998e+01	 1.000006918153846e+01
0	 1.500000000000000e+01	 3.562499999999998e+01	 1.000002765692308e+01
0	 1.500000000000000e+01	 3.624999999999998e+01	 9.999979403076928e+00
0	 1.500000000000000e+01	 3.687499999999999e+01	 9.999924420000006e+00
0	 1.500000000000000e+01	 3.749999999999999e+01	 9.999862707692310e+00
0	 1.562500000000000e+01	 3.125000000000000e+01	 1.000042384615385e+01
0	 1.562500000000000e+01	 3.187500000000000e+01	 1.000039786076924e+01
0	 1.562500000000000e+01	 3.250000000000000e+01	 1.000036625846154e+01
0	 1.562500000000000e+01	 3.312500000000000e+01	 1.000032903923078e+01
0	 1.562500000000000e+01	 3.374999999999999e+01	 1.000028620307693e+01
0	 1.562500000000000e+01	 3.437500000000000e+01	 1.000023775000000e+01
0	 1.562500000000001e+01	 3.499999999999999e+01	 1.000018368000000e+01
0	 1.562500000000001e+01	 3.562499999999999e+01	 1.000012399307692e+01
0	 1.562500000000000e+01	 3.624999999999998e+01	 1.000005868923077e+01
0	 1.562500000000000e+01	 3.687499999999999e+01	 9.999987768461541e+00
0	 1.562500000000000e+01	 3.750000000000001e+01	 9.999911230769220e+00
0	 1.625000000000000e+01	 3.125000000000000e+01	 1.000063104615385e+01
0	 1.625000000000000e+01	 3.187500000000000e+01	 1.000058481230769e+01
0	 1.625000000000000e+01	 3.250000000000000e+01	 1.000053407384615e+01
0	 1.625000000000000e+01	 3.312499999999999e+01	 1.000047883076923e+01
0	 1.625000000000000e+01	 3.374999999999999e+01	 1.000041908307693e+01
0	 1.625000000000000e+01	 3.437499999999999e+01	 1.000035483076923e+01
0	 1.625000000000000e+01	 3.499999999999998e+01	 1.000028607384615e+01
0	 1.625000000000001e+01	 3.562499999999999e+01	 1.000021281230768e+01
0	 1.625000000000000e+01	 3.624999999999999e+01	 1.000013504615385e+01
0	 1.625000000000000e+01	 3.687499999999998e+01	 1.000005277538461e+01
0	 1.625000000000000e+01	 3.750000000000000e+01	 9.999965999999992e+00
0	 1.687500000000000e+01	 3.125000000000000e+01	 1.000079861538461e+01
0	 1.687500000000000e+01	 3.187500000000000e+01	 1.000073672076924e+01
0	 1.687500000000000e+01	 3.249999999999999e+01	 1.000067143384616e+01
0	 1.687500000000000e+01	 3.312499999999999e+01	 1.000060275461539e+01
0	 1.687500000000000e+01	 3.374999999999999e+01	 1.000053068307692e+01
0	 1.687500000000001e+01	 3.437500000000000e+01	 1.000045521923078e+01
0	 1.687500000000000e+01	 3.499999999999999e+01	 1.000037636307692e+01
0	 1.687500000000001e+01	 3.562499999999999e+01	 1.000029411461538e+01
0	 1.687500000000000e+01	 3.624999999999998e+01	 1.000020847384616e+01
0	 1.687500000000001e+01	 3.687499999999999e+01	 1.000011944076922e+01
0	 1.687500000000000e+01	 3.750000000000000e+01	 1.000002701538462e+01
0	 1.750000000000000e+01	 3.125000000000000e+01	 1.000092655384615e+01
0	 1.750000000000001e+01	 3.187500000000000e+01	 1.000085358615384e+01
0	 1.750000000000001e+01	 3.249999999999999e+01	 1.000077833846153e+01
0	 1.750000000000000e+01	 3.312499999999999e+01	 1.000070081076923e+01
0	 1.750000000000001e+01	 3.374999999999999e+01	 1.000062100307692e+01
0	 1.750000000000000e+01	 3.437499999999999e+01	 1.000053891538461e+01
0	 1.750000000000000e+01	 3.499999999999999e+01	 1.000045454769230e+01
0	 1.750000000000000e+01	 3.562499999999999e+01	 1.000036790000000e+01
0	 1.750000000000000e+01	 3.624999999999998e+01	 1.000027897230770e+01
0	 1.750000000000000e+01	 3.687499999999998e+01	 1.000018776461540e+01
0	 1.750000000000000e+01	 3.750000000000000e+01	 1.000009427692307e+01
0	 1.812500000000000e+01	 3.125000000000000e+01	 1.000101486153846e+01
0	 1.812500000000000e+01	 3.187499999999999e+01	 1.000093540846154e+01
0	 1.812500000000000e+01	 3.250000000000000e+01	 1.000085478769230e+01
0	 1.812500000000000e+01	 3.312500000000000e+01	 1.000077299923077e+01
0	 1.812500000000000e+01	 3.374999999999999e+01	 1.000069004307693e+01
0	 1.812500000000000e+01	 3.437499999999998e+01	 1.000060591923077e+01
0	 1.812500000000001e+01	 3.499999999999999e+01	 1.000052062769231e+01
0	 1.812500000000000e+01	 3.562499999999999e+01	 1.000043416846154e+01
0	 1.812500000000001e+01	 3.624999999999999e+01	 1.000034654153846e+01
0	 1.812500000000000e+01	 3.687499999999998e+01	 1.000025774692308e+01
0	 1.812500000000000e+01	 3.750000000000000e+01	 1.000016778461538e+01
0	 1.875000000000000e+01	 3.125000000000000e+01	 1.000106353846154e+01
0	 1.875000000000000e+01	 3.187500000000000e+01	 1.000098218769231e+01
0	 1.875000000000001e+01	 3.250000000000001e+01	 1.000090078153845e+01
0	 1.875000000000000e+01	 3.312499999999999e+01	 1.000081932000000e+01
0	 1.875000000000000e+01	 3.374999999999999e+01	 1.000073780307692e+01
0	 1.875000000000000e+01	 3.437499999999999e+01	 1.000065623076923e+01
0	 1.875000000000000e+01	 3.499999999999999e+01	 1.000057460307692e+01
0	 1.875000000000000e+01	 3.562499999999999e+01	 1.000049291999999e+01
0	 1.875000000000000e+01	 3.624999999999998e+01	 1.000041118153846e+01
0	 1.875000000000000e+01	 3.687499999999998e+01	 1.000032938769230e+01
0	 1.875000000000000e+01	 3.750000000000000e+01	 1.000024753846154e+01
0	 1.250000000000000e+01	 3.750000000000000e+01	 9.999731076923080e+00
0	 1.250000000000000e+01	 3.812500000000000e+01	 9.999714146153849e+00
0	 1.250000000000000e+01	 3.875000000000001e+01	 9.999703907692307e+00
0	 1.250000000000000e+01	 3.937499999999999e+01	 9.999700361538459e+00
0	 1.250000000000000e+01	 3.999999999999999e+01	 9.999703507692308e+00
0	 1.250000000000000e+01	 4.062499999999999e+01	 9.999713346153840e+00
0	 1.250000000000000e+01	 4.124999999999999e+01	 9.999729876923071e+00
0	 1.250000000000000e+01	 4.187499999999999e+01	 9.999753099999984e+00
0	 1.250000000000000e+01	 4.249999999999999e+01	 9.999783015384606e+00
0	 1.250000000000000e+01	 4.312499999999999e+01	 9.999819623076901e+00
0	 1.250000000000000e+01	 4.375000000000000e+01	 9.999862923076915e+00
0	 1.312500000000000e+01	 3.750000000000000e+01	 9.999754615384621e+00
0	 1.312500000000000e+01	 3.812499999999999e+01	 9.999745538307689e+00
0	 1.312500000000000e+01	 3.874999999999999e+01	 9.999742103999996e+00
0	 1.312500000000000e+01	 3.937499999999999e+01	 9.999744312461534e+00
0	 1.312500000000000e+01	 3.999999999999998e+01	 9.999752163692303e+00
0	 1.312500000000000e+01	 4.062499999999999e+01	 9.999765657692304e+00
0	 1.312500000000000e+01	 4.124999999999999e+01	 9.999784794461533e+00
0	 1.312500000000000e+01	 4.187499999999998e+01	 9.999809573999991e+00
0	 1.312500000000000e+01	 4.249999999999998e+01	 9.999839996307687e+00
0	 1.312500000000000e+01	 4.312499999999997e+01	 9.999876061384601e+00
0	 1.312500000000000e+01	 4.375000000000000e+01	 9.999917769230755e+00
0	 1.375000000000000e+01	 3.750000000000000e+01	 9.999784400000001e+00
0	 1.375000000000000e+01	 3.812500000000000e+01	 9.999781884307692e+00
0	 1.375000000000000e+01	 3.874999999999999e+01	 9.999783961846150e+00
0	 1.375000000000000e+01	 3.937499999999999e+01	 9.999790632615390e+00
0	 1.375000000000000e+01	 3.999999999999999e+01	 9.999801896615377e+00
0	 1.375000000000000e+01	 4.062499999999999e+01	 9.999817753846145e+00
0	 1.375000000000000e+01	 4.124999999999998e+01	 9.999838204307684e+00
0	 1.375000000000000e+01	 4.187499999999999e+01	 9.999863247999993e+00
0	 1.375000000000000e+01	 4.249999999999998e+01	 9.999892884923067e+00
0	 1.375000000000000e+01	 4.312499999999997e+01	 9.999927115076913e+00
0	 1.375000000000000e+01	 4.375000000000000e+01	 9.999965938461521e+00
0	 1.437500000000000e+01	 3.749999999999999e+01	 9.999820430769233e+00
0	 1.437500000000000e+01	 3.812500000000001e+01	 9.999823184153842e+00
0	 1.437500000000000e+01	 3.875000000000000e+01	 9.999829481230767e+00
0	 1.437500000000000e+01	 3.937499999999999e+01	 9.999839321999994e+00
0	 1.437500000000000e+01	 3.999999999999998e+01	 9.999852706461539e+00
0	 1.437500000000001e+01	 4.062499999999999e+01	 9.999869634615379e+00
0	 1.437500000000000e+01	 4.124999999999999e+01	 9.999890106461534e+00
0	 1.437500000000000e+01	 4.187499999999998e+01	 9.999914121999991e+00
0	 1.437500000000000e+01	 4.249999999999998e+01	 9.999941681230769e+00
0	 1.437500000000000e+01	 4.312499999999997e+01	 9.999972784153840e+00
0	 1.437500000000000e+01	 4.374999999999999e+01	 1.000000743076923e+01
0	 1.500000000000000e+01	 3.749999999999999e+01	 9.999862707692310e+00
0	 1.500000000000000e+01	 3.812500000000001e+01	 9.999869437846144e+00
0	 1.500000000000000e+01	 3.875000000000000e+01	 9.999878662153847e+00
0	 1.500000000000000e+01	 3.937499999999999e+01	 9.999890380615376e+00
0	 1.500000000000000e+01	 3.999999999999999e+01	 9.999904593230765e+00
0	 1.500000000000000e+01	 4.062499999999999e+01	 9.999921299999997e+00
0	 1.500000000000000e+01	 4.125000000000000e+01	 9.999940500923064e+00
0	 1.500000000000000e+01	 4.187499999999998e+01	 9.999962195999991e+00
0	 1.500000000000000e+01	 4.249999999999999e+01	 9.999986385230773e+00
0	 1.500000000000000e+01	 4.312499999999999e+01	 1.000001306861538e+01
0	 1.500000000000000e+01	 4.375000000000000e+01	 1.000004224615381e+01
0	 1.562500000000000e+01	 3.750000000000001e+01	 9.999911230769220e+00
0	 1.562500000000000e+01	 3.812500000000001e+01	 9.999920645384616e+00
0	 1.562500000000000e+01	 3.874999999999999e+01	 9.999931504615379e+00
0	 1.562500000000000e+01	 3.937499999999999e+01	 9.999943808461532e+00
0	 1.562500000000000e+01	 3.999999999999999e+01	 9.999957556923075e+00
0	 1.562500000000000e+01	 4.062500000000000e+01	 9.999972749999996e+00
0	 1.562500000000001e+01	 4.124999999999999e+01	 9.999989387692303e+00
0	 1.562500000000001e+01	 4.187500000000000e+01	 1.000000746999999e+01
0	 1.562500000000000e+01	 4.249999999999999e+01	 1.000002699692307e+01
0	 1.562500000000000e+01	 4.312499999999998e+01	 1.000004796846152e+01
0	 1.562500000000000e+01	 4.375000000000000e+01	 1.000007038461538e+01
0	 1.625000000000000e+01	 3.750000000000000e+01	 9.999965999999992e+00
0	 1.625000000000000e+01	 3.812500000000000e+01	 9.999976806769226e+00
0	 1.625000000000000e+01	 3.874999999999999e+01	 9.999988008615381e+00
0	 1.625000000000000e+01	 3.937499999999999e+01	 9.999999605538459e+00
0	 1.625000000000000e+01	 4.000000000000000e+01	 1.000001159753846e+01
0	 1.625000000000000e+01	 4.062499999999999e+01	 1.000002398461537e+01
0	 1.625000000000000e+01	 4.124999999999998e+01	 1.000003676676922e+01
0	 1.625000000000001e+01	 4.187499999999999e+01	 1.000004994400000e+01
0	 1.625000000000000e+01	 4.249999999999999e+01	 1.000006351630769e+01
0	 1.625000000000000e+01	 4.312499999999998e+01	 1.000007748369229e+01
0	 1.625000000000000e+01	 4.375000000000000e+01	 1.000009184615384e+01
0	 1.687500000000000e+01	 3.750000000000000e+01	 1.000002701538462e+01
0	 1.687500000000000e+01	 3.812500000000000e+01	 1.000003792199999e+01
0	 1.687500000000000e+01	 3.874999999999999e+01	 1.000004817415384e+01
0	 1.687500000000000e+01	 3.937499999999999e+01	 1.000005777184615e+01
0	 1.687500000000000e+01	 3.999999999999999e+01	 1.000006671507693e+01
0	 1.687500000000001e+01	 4.062499999999999e+01	 1.000007500384615e+01
0	 1.687500000000000e+01	 4.124999999999999e+01	 1.000008263815384e+01
0	 1.687500000000001e+01	 4.187499999999999e+01	 1.000008961799999e+01
0	 1.687500000000000e+01	 4.249999999999998e+01	 1.000009594338461e+01
0	 1.687500000000001e+01	 4.312499999999999e+01	 1.000010161430769e+01
0	 1.687500000000000e+01	 4.375000000000000e+01	 1.000010663076921e+01
0	 1.750000000000000e+01	 3.750000000000000e+01	 1.000009427692307e+01
0	 1.750000000000001e+01	 3.812500000000000e+01	 1.000010399107692e+01
0	 1.750000000000001e+01	 3.875000000000000e+01	 1.000011200123077e+01
0	 1.750000000000000e+01	 3.937499999999999e+01	 1.000011830738461e+01
0	 1.750000000000001e+01	 3.999999999999999e+01	 1.000012290953846e+01
0	 1.750000000000000e+01	 4.062499999999999e+01	 1.000012580769230e+01
0	 1.750000000000000e+01	 4.124999999999999e+01	 1.000012700184614e+01
0	 1.750000000000000e+01	 4.187499999999999e+01	 1.000012649199999e+01
0	 1.750000000000000e+01	 4.249999999999999e+01	 1.000012427815385e+01
0	 1.750000000000000e+01	 4.312499999999998e+01	 1.000012036030769e+01
0	 1.750000000000000e+01	 4.375000000000001e+01	 1.000011473846153e+01
0	 1.812500000000000e+01	 3.750000000000000e+01	 1.000016778461538e+01
0	 1.812500000000000e+01	 3.812499999999999e+01	 1.000017501400000e+01
0	 1.812500000000000e+01	 3.874999999999999e+01	 1.000017948984615e+01
0	 1.812500000000000e+01	 3.937499999999999e+01	 1.000018121215385e+01
0	 1.812500000000000e+01	 3.999999999999999e+01	 1.000018018092307e+01
0	 1.812500000000000e+01	 4.062499999999998e+01	 1.000017639615384e+01
0	 1.812500000000001e+01	 4.124999999999999e+01	 1.000016985784615e+01
0	 1.812500000000000e+01	 4.187499999999998e+01	 1.000016056599999e+01
0	 1.812500000000001e+01	 4.249999999999998e+01	 1.000014852061537e+01
0	 1.812500000000000e+01	 4.312499999999999e+01	 1.000013372169230e+01
0	 1.812500000000000e+01	 4.375000000000000e+01	 1.000011616923076e+01
0	 1.875000000000000e+01	 3.750000000000000e+01	 1.000024753846154e+01
0	 1.875000000000000e+01	 3.812500000000000e+01	 1.000025099076923e+01
0	 1.875000000000001e+01	 3.875000000000001e+01	 1.000025064000000e+01
0	 1.875000000000000e+01	 3.937499999999999e+01	 1.000024648615385e+01
0	 1.875000000000000e+01	 3.999999999999999e+01	 1.000023852923077e+01
0	 1.875000000000000e+01	 4.062499999999999e+01	 1.000022676923076e+01
0	 1.875000000000000e+01	 4.124999999999999e+01	 1.000021120615384e+01
0	 1.875000000000000e+01	 4.187499999999999e+01	 1.000019183999998e+01
0	 1.875000000000000e+01	 4.249999999999999e+01	 1.000016867076922e+01
0	 1.875000000000000e+01	 4.312499999999999e+01	 1.000014169846152e+01
0	 1.875000000000000e+01	 4.375000000000000e+01	 1.000011092307691e+01
0	 1.250000000000000e+01	 4.375000000000000e+01	 9.999862923076915e+00
0	 1.250000000000000e+01	 4.437500000000000e+01	 9.999883524615381e+00
0	 1.250000000000000e+01	 4.499999999999999e+01	 9.999903729230759e+00
0	 1.250000000000000e+01	 4.562499999999999e+01	 9.999923536923070e+00
0	 1.250000000000000e+01	 4.624999999999999e+01	 9.999942947692308e+00
0	 1.250000000000000e+01	 4.687499999999999e+01	 9.999961961538462e+00
0	 1.250000000000000e+01	 4.749999999999999e+01	 9.999980578461539e+00
0	 1.250000000000000e+01	 4.812499999999999e+01	 9.999998798461549e+00
0	 1.250000000000000e+01	 4.874999999999999e+01	 1.000001662153847e+01
0	 1.250000000000000e+01	 4.937499999999999e+01	 1.000003404769228e+01
0	 1.250000000000000e+01	 5.000000000000000e+01	 1.000005107692309e+01
0	 1.312500000000000e+01	 4.375000000000000e+01	 9.999917769230755e+00
0	 1.312500000000000e+01	 4.437499999999999e+01	 9.999930511692297e+00
0	 1.312499999999999e+01	 4.499999999999999e+01	 9.999942895999983e+00
0	 1.312500000000000e+01	 4.562499999999999e+01	 9.999954922153835e+00
0	 1.312500000000000e+01	 4.625000000000000e+01	 9.999966590153839e+00
0	 1.312500000000000e+01	 4.687499999999999e+01	 9.999977900000001e+00
0	 1.312500000000000e+01	 4.749999999999999e+01	 9.999988851692308e+00
0	 1.312500000000000e+01	 4.812499999999999e+01	 9.999999445230763e+00
0	 1.312500000000000e+01	 4.874999999999998e+01	 1.000000968061538e+01
0	 1.312500000000000e+01	 4.937499999999997e+01	 1.000001955784617e+01
0	 1.312500000000000e+01	 5.000000000000000e+01	 1.000002907692309e+01
0	 1.375000000000000e+01	 4.375000000000000e+01	 9.999965938461521e+00
0	 1.375000000000000e+01	 4.437499999999999e+01	 9.999971791076902e+00
0	 1.375000000000000e+01	 4.499999999999999e+01	 9.999977324307675e+00
0	 1.375000000000000e+01	 4.562499999999999e+01	 9.999982538153848e+00
0	 1.375000000000000e+01	 4.624999999999999e+01	 9.999987432615381e+00
0	 1.375000000000000e+01	 4.687499999999999e+01	 9.999992007692306e+00
0	 1.375000000000000e+01	 4.749999999999999e+01	 9.999996263384617e+00
0	 1.375000000000000e+01	 4.812499999999999e+01	 1.000000019969230e+01
0	 1.375000000000000e+01	 4.874999999999996e+01	 1.000000381661538e+01
0	 1.375000000000000e+01	 4.937499999999998e+01	 1.000000711415384e+01
0	 1.375000000000000e+01	 5.000000000000000e+01	 1.000001009230770e+01
0	 1.437500000000000e+01	 4.374999999999999e+01	 1.000000743076923e+01
0	 1.437500000000000e+01	 4.437499999999999e+01	 1.000000736276922e+01
0	 1.437500000000000e+01	 4.499999999999999e+01	 1.000000701415384e+01
0	 1.437500000000000e+01	 4.562499999999999e+01	 1.000000638492307e+01
0	 1.437500000000000e+01	 4.624999999999998e+01	 1.000000547507692e+01
0	 1.437500000000000e+01	 4.687499999999999e+01	 1.000000428461537e+01
0	 1.437500000000000e+01	 4.749999999999998e+01	 1.000000281353847e+01
0	 1.437500000000000e+01	 4.812499999999998e+01	 1.000000106184616e+01
0	 1.437500000000000e+01	 4.874999999999999e+01	 9.999999029538458e+00
0	 1.437500000000000e+01	 4.937499999999999e+01	 9.999996716615389e+00
0	 1.437500000000000e+01	 5.000000000000001e+01	 9.999994123076904e+00
0	 1.500000000000000e+01	 4.375000000000000e+01	 1.000004224615381e+01
0	 1.500000000000000e+01	 4.437500000000000e+01	 1.000003722676922e+01
0	 1.500000000000000e+01	 4.500000000000000e+01	 1.000003196553845e+01
0	 1.500000000000000e+01	 4.562500000000000e+01	 1.000002646246154e+01
0	 1.500000000000000e+01	 4.624999999999999e+01	 1.000002071753845e+01
0	 1.500000000000001e+01	 4.687499999999999e+01	 1.000001473076924e+01
0	 1.500000000000000e+01	 4.749999999999999e+01	 1.000000850215386e+01
0	 1.500000000000000e+01	 4.812499999999999e+01	 1.000000203169229e+01
0	 1.500000000000000e+01	 4.874999999999999e+01	 9.999995319384613e+00
0	 1.500000000000000e+01	 4.937499999999997e+01	 9.999988365230783e+00
0	 1.500000000000000e+01	 5.000000000000001e+01	 9.999981169230789e+00
0	 1.562500000000000e+01	 4.375000000000000e+01	 1.000007038461538e+01
0	 1.562500000000001e+01	 4.437500000000000e+01	 1.000006138307691e+01
0	 1.562500000000000e+01	 4.500000000000000e+01	 1.000005217846153e+01
0	 1.562500000000000e+01	 4.562500000000000e+01	 1.000004277076922e+01
0	 1.562500000000000e+01	 4.624999999999999e+01	 1.000003315999999e+01
0	 1.562500000000000e+01	 4.687499999999999e+01	 1.000002334615384e+01
0	 1.562500000000000e+01	 4.749999999999999e+01	 1.000001332923077e+01
0	 1.562500000000000e+01	 4.812499999999999e+01	 1.000000310923077e+01
0	 1.562500000000000e+01	 4.874999999999998e+01	 9.999992686153842e+00
0	 1.562500000000000e+01	 4.937499999999998e+01	 9.999982060000002e+00
0	 1.562500000000000e+01	 5.000000000000000e+01	 9.999971230769260e+00
0	 1.625000000000000e+01	 4.375000000000000e+01	 1.000009184615384e+01
0	 1.625000000000001e+01	 4.437499999999999e+01	 1.000007983169229e+01
0	 1.625000000000000e+01	 4.499999999999999e+01	 1.000006765292307e+01
0	 1.625000000000001e+01	 4.562499999999999e+01	 1.000005530984614e+01
0	 1.625000000000000e+01	 4.624999999999999e+01	 1.000004280246152e+01
0	 1.625000000000000e+01	 4.687499999999998e+01	 1.000003013076924e+01
0	 1.625000000000000e+01	 4.749999999999999e+01	 1.000001729476921e+01
0	 1.625000000000001e+01	 4.812499999999999e+01	 1.000000429446155e+01
0	 1.625000000000000e+01	 4.874999999999998e+01	 9.999991129846164e+00
0	 1.625000000000001e+01	 4.937499999999999e+01	 9.999977800923084e+00
0	 1.625000000000000e+01	 5.000000000000000e+01	 9.999964307692309e+00
0	 1.687500000000000e+01	 4.375000000000000e+01	 1.000010663076921e+01
0	 1.687500000000001e+01	 4.437500000000001e+01	 1.000009257261537e+01
0	 1.687500000000001e+01	 4.499999999999999e+01	 1.000007838892307e+01
0	 1.687500000000001e+01	 4.562500000000000e+01	 1.000006407969230e+01
0	 1.687500000000000e+01	 4.624999999999999e+01	 1.000004964492307e+01
0	 1.687500000000000e+01	 4.687499999999999e+01	 1.000003508461539e+01
0	 1.687500000000001e+01	 4.749999999999998e+01	 1.000002039876924e+01
0	 1.687500000000001e+01	 4.812500000000000e+01	 1.000000558738462e+01
0	 1.687500000000000e+01	 4.874999999999998e+01	 9.999990650461543e+00
0	 1.687500000000001e+01	 4.937499999999998e+01	 9.999975588000003e+00
0	 1.687500000000000e+01	 5.000000000000000e+01	 9.999960400000006e+00
0	 1.750000000000000e+01	 4.375000000000001e+01	 1.000011473846153e+01
0	 1.750000000000000e+01	 4.437499999999999e+01	 1.000009960584614e+01
0	 1.750000000000000e+01	 4.499999999999999e+01	 1.000008438646152e+01
0	 1.750000000000001e+01	 4.562500000000000e+01	 1.000006908030768e+01
0	 1.750000000000001e+01	 4.625000000000000e+01	 1.000005368738461e+01
0	 1.750000000000000e+01	 4.687499999999999e+01	 1.000003820769230e+01
0	 1.750000000000000e+01	 4.749999999999999e+01	 1.000002264123077e+01
0	 1.750000000000001e+01	 4.812499999999999e+01	 1.000000698799999e+01
0	 1.750000000000000e+01	 4.874999999999998e+01	 9.999991247999986e+00
0	 1.750000000000000e+01	 4.937499999999998e+01	 9.999975421230772e+00
0	 1.750000000000000e+01	 5.000000000000000e+01	 9.999959507692324e+00
0	 1.812500000000000e+01	 4.375000000000000e+01	 1.000011616923076e+01
0	 1.812500000000001e+01	 4.437500000000000e+01	 1.000010093138460e+01
0	 1.812500000000001e+01	 4.500000000000000e+01	 1.000008564553845e+01
0	 1.812500000000000e+01	 4.562500000000000e+01	 1.000007031169230e+01
0	 1.812500000000000e+01	 4.624999999999999e+01	 1.000005492984614e+01
0	 1.812500000000001e+01	 4.687499999999999e+01	 1.000003950000000e+01
0	 1.812500000000001e+01	 4.749999999999999e+01	 1.000002402215385e+01
0	 1.812500000000000e+01	 4.812499999999999e+01	 1.000000849630768e+01
0	 1.812500000000001e+01	 4.874999999999998e+01	 9.999992922461523e+00
0	 1.812500000000000e+01	 4.937499999999996e+01	 9.999977300615370e+00
0	 1.812500000000001e+01	 5.000000000000000e+01	 9.999961630769219e+00
0	 1.875000000000000e+01	 4.375000000000000e+01	 1.000011092307691e+01
0	 1.875000000000000e+01	 4.437500000000000e+01	 1.000009654923076e+01
0	 1.875000000000000e+01	 4.499999999999999e+01	 1.000008216615383e+01
0	 1.875000000000000e+01	 4.562499999999999e+01	 1.000006777384615e+01
0	 1.875000000000000e+01	 4.624999999999999e+01	 1.000005337230768e+01
0	 1.875000000000000e+01	 4.687499999999999e+01	 1.000003896153846e+01
0	 1.875000000000000e+01	 4.749999999999999e+01	 1.000002454153846e+01
0	 1.875000000000000e+01	 4.812499999999999e+01	 1.000001011230771e+01
0	 1.875000000000000e+01	 4.874999999999999e+01	 9.999995673846129e+00
0	 1.875000000000000e+01	 4.937499999999999e+01	 9.999981226153821e+00
0	 1.875000000000000e+01	 5.000000000000000e+01	 9.999966769230770e+00
0	 1.875000000000000e+01	 0.000000000000000e+00	 1.000994800000000e+01
0	 1.875000000000000e+01	 6.250000000000000e-01	 1.000886077384615e+01
0	 1.875000000000000e+01	 1.250000000000000e+00	 1.000789494153846e+01
0	 1.875000000000000e+01	 1.875000000000000e+00	 1.000705050307692e+01
0	 1.875000000000000e+01	 2.500000000000000e+00	 1.000632745846154e+01
0	 1.875000000000000e+01	 3.125000000000000e+00	 1.000572580769231e+01
0	 1.875000000000000e+01	 3.750000000000000e+00	 1.000524555076923e+01
0	 1.875000000000000e+01	 4.375000000000000e+00	 1.000488668769231e+01
0	 1.875000000000000e+01	 5.000000000000000e+00	 1.000464921846154e+01
0	 1.875000000000000e+01	 5.624999999999999e+00	 1.000453314307692e+01
0	 1.875000000000000e+01	 6.250000000000000e+00	 1.000453846153846e+01
0	 1.937500000000000e+01	 0.000000000000000e+00	 1.000818876615384e+01
0	 1.937500000000000e+01	 6.250000000000001e-01	 1.000746501307692e+01
0	 1.937500000000000e+01	 1.250000000000000e+00	 1.000684475907692e+01
0	 1.937500000000000e+01	 1.875000000000000e+00	 1.000632800415385e+01
0	 1.937500000000000e+01	 2.500000000000000e+00	 1.000591474830769e+01
0	 1.937500000000000e+01	 3.125000000000000e+00	 1.000560499153846e+01
0	 1.937500000000000e+01	 3.750000000000000e+00	 1.000539873384615e+01
0	 1.937500000000000e+01	 4.375000000000001e+00	 1.000529597523077e+01
0	 1.937500000000000e+01	 4.999999999999999e+00	 1.000529671569231e+01
0	 1.937500000000000e+01	 5.624999999999999e+00	 1.000540095523077e+01
0	 1.937500000000000e+01	 6.250000000000000e+00	 1.000560869384615e+01
0	 2.000000000000000e+01	 0.000000000000000e+00	 1.000665512615385e+01
0	 2.000000000000000e+01	 6.250000000000001e-01	 1.000625288707692e+01
0	 2.000000000000000e+01	 1.250000000000000e+00	 1.000593625230769e+01
0	 2.000000000000000e+01	 1.875000000000000e+00	 1.000570522184615e+01
0	 2.000000000000000e+01	 2.500000000000000e+00	 1.000555979569231e+01
0	 2.000000000000000e+01	 3.125000000000000e+00	 1.000549997384615e+01
0	 2.000000000000000e+01	 3.750000000000000e+00	 1.000552575630769e+01
0	 2.000000000000000e+01	 4.375000000000000e+00	 1.000563714307692e+01
0	 2.000000000000000e+01	 5.000000000000000e+00	 1.000583413415384e+01
0	 2.000000000000000e+01	 5.625000000000001e+00	 1.000611672953846e+01
0	 2.000000000000000e+01	 6.250000000000000e+00	 1.000648492923077e+01
0	 2.062500000000001e+01	 0.000000000000000e+00	 1.000534707999999e+01
0	 2.062500000000000e+01	 6.250000000000000e-01	 1.000522439584615e+01
0	 2.062500000000000e+01	 1.250000000000000e+00	 1.000516942123077e+01
0	 2.062500000000000e+01	 1.875000000000000e+00	 1.000518215615384e+01
0	 2.062500000000001e+01	 2.500000000000001e+00	 1.000526260061539e+01
0	 2.062500000000000e+01	 3.125000000000000e+00	 1.000541075461538e+01
0	 2.062500000000000e+01	 3.750000000000000e+00	 1.000562661815384e+01
0	 2.062500000000000e+01	 4.374999999999999e+00	 1.000591019123077e+01
0	 2.062500000000000e+01	 5.000000000000000e+00	 1.000626147384615e+01
0	 2.062500000000000e+01	 5.624999999999999e+00	 1.000668046600000e+01
0	 2.062500000000000e+01	 6.250000000000000e+00	 1.000716716769231e+01
0	 2.125000000000000e+01	 0.000000000000000e+00	 1.000426462769230e+01
0	 2.125000000000000e+01	 6.249999999999999e-01	 1.000437953938461e+01
0	 2.125000000000000e+01	 1.250000000000000e+00	 1.000454426584615e+01
0	 2.125000000000000e+01	 1.875000000000000e+00	 1.000475880707692e+01
0	 2.125000000000000e+01	 2.500000000000000e+00	 1.000502316307692e+01
0	 2.125000000000000e+01	 3.125000000000000e+00	 1.000533733384615e+01
0	 2.125000000000000e+01	 3.750000000000000e+00	 1.000570131938461e+01
0	 2.125000000000000e+01	 4.375000000000000e+00	 1.000611511969231e+01
0	 2.125000000000000e+01	 4.999999999999999e+00	 1.000657873476923e+01
0	 2.125000000000001e+01	 5.625000000000000e+00	 1.000709216461538e+01
0	 2.125000000000001e+01	 6.250000000000001e+00	 1.000765540923077e+01
0	 2.187500000000000e+01	 0.000000000000000e+00	 1.000340776923077e+01
0	 2.187500000000000e+01	 6.249999999999998e-01	 1.000371831769231e+01
0	 2.187500000000000e+01	 1.250000000000000e+00	 1.000406078615384e+01
0	 2.187500000000000e+01	 1.875000000000000e+00	 1.000443517461538e+01
0	 2.187500000000000e+01	 2.500000000000000e+00	 1.000484148307692e+01
0	 2.187500000000000e+01	 3.125000000000000e+00	 1.000527971153846e+01
0	 2.187500000000000e+01	 3.750000000000000e+00	 1.000574986000000e+01
0	 2.187500000000000e+01	 4.375000000000002e+00	 1.000625192846154e+01
0	 2.187500000000000e+01	 4.999999999999999e+00	 1.000678591692308e+01
0	 2.187500000000001e+01	 5.625000000000000e+00	 1.000735182538462e+01
0	 2.187500000000000e+01	 6.249999999999999e+00	 1.000794965384616e+01
0	 2.250000000000000e+01	 0.000000000000000e+00	 1.000277650461538e+01
0	 2.250000000000000e+01	 6.249999999999998e-01	 1.000324073076923e+01
0	 2.250000000000001e+01	 1.250000000000000e+00	 1.000371898215384e+01
0	 2.250000000000000e+01	 1.875000000000001e+00	 1.000421125876923e+01
0	 2.250000000000001e+01	 2.500000000000000e+00	 1.000471756061539e+01
0	 2.250000000000000e+01	 3.125000000000000e+00	 1.000523788769230e+01
0	 2.250000000000000e+01	 3.750000000000000e+00	 1.000577224000000e+01
0	 2.250000000000001e+01	 4.375000000000001e+00	 1.000632061753846e+01
0	 2.250000000000001e+01	 4.999999999999999e+00	 1.000688302030769e+01
0	 2.250000000000001e+01	 5.625000000000000e+00	 1.000745944830769e+01
0	 2.250000000000000e+01	 6.250000000000001e+00	 1.000804990153846e+01
0	 2.312500000000001e+01	 0.000000000000000e+00	 1.000237083384615e+01
0	 2.312500000000001e+01	 6.250000000000000e-01	 1.000294677861538e+01
0	 2.312500000000000e+01	 1.250000000000000e+00	 1.000351885384615e+01
0	 2.312500000000000e+01	 1.875000000000000e+00	 1.000408705953846e+01
0	 2.312500000000000e+01	 2.500000000000000e+00	 1.000465139569231e+01
0	 2.312500000000000e+01	 3.125000000000000e+00	 1.000521186230769e+01
0	 2.312500000000000e+01	 3.750000000000000e+00	 1.000576845938462e+01
0	 2.312500000000000e+01	 4.375000000000000e+00	 1.000632118692308e+01
0	 2.312500000000001e+01	 5.000000000000000e+00	 1.000687004492308e+01
0	 2.312500000000001e+01	 5.625000000000000e+00	 1.000741503338461e+01
0	 2.312500000000001e+01	 6.250000000000000e+00	 1.000795615230769e+01
0	 2.375000000000001e+01	 0.000000000000000e+00	 1.000219075692307e+01
0	 2.375000000000001e+01	 6.249999999999999e-01	 1.000283646123077e+01
0	 2.375000000000001e+01	 1.250000000000000e+00	 1.000346040123077e+01
0	 2.375000000000001e+01	 1.875000000000000e+00	 1.000406257692308e+01
0	 2.375000000000001e+01	 2.500000000000000e+00	 1.000464298830769e+01
0	 2.375000000000001e+01	 3.125000000000000e+00	 1.000520163538462e+01
0	 2.375000000000000e+01	 3.750000000000000e+00	 1.000573851815384e+01
0	 2.375000000000001e+01	 4.375000000000001e+00	 1.000625363661538e+01
0	 2.375000000000001e+01	 5.000000000000000e+00	 1.000674699076923e+01
0	 2.375000000000001e+01	 5.624999999999999e+00	 1.000721858061538e+01
0	 2.375000000000000e+01	 6.250000000000000e+00	 1.000766840615385e+01
0	 2.437500000000001e+01	 0.000000000000000e+00	 1.000223627384615e+01
0	 2.437500000000001e+01	 6.250000000000000e-01	 1.000290977861538e+01
0	 2.437500000000000e+01	 1.250000000000000e+00	 1.000354362430769e+01
0	 2.437500000000001e+01	 1.875000000000000e+00	 1.000413781092307e+01
0	 2.437500000000001e+01	 2.500000000000000e+00	 1.000469233846154e+01
0	 2.437500000000000e+01	 3.125000000000000e+00	 1.000520720692307e+01
0	 2.437500000000001e+01	 3.750000000000000e+00	 1.000568241630769e+01
0	 2.437500000000001e+01	 4.375000000000000e+00	 1.000611796661538e+01
0	 2.437500000000001e+01	 5.000000000000000e+00	 1.000651385784615e+01
0	 2.437500000000001e+01	 5.624999999999999e+00	 1.000687009000000e+01
0	 2.437500000000001e+01	 6.250000000000001e+00	 1.000718666307692e+01
0	 2.500000000000000e+01	 0.000000000000000e+00	 1.000250738461538e+01
0	 2.500000000000000e+01	 6.250000000000000e-01	 1.000316673076923e+01
0	 2.500000000000000e+01	 1.250000000000000e+00	 1.000376852307692e+01
0	 2.500000000000000e+01	 1.875000000000000e+00	 1.000431276153846e+01
0	 2.500000000000000e+01	 2.500000000000000e+00	 1.000479944615384e+01
0	 2.500000000000000e+01	 3.125000000000000e+00	 1.000522857692308e+01
0	 2.500000000000000e+01	 3.750000000000000e+00	 1.000560015384615e+01
0	 2.500000000000000e+01	 4.375000000000000e+00	 1.000591417692308e+01
0	 2.500000000000000e+01	 5.000000000000000e+00	 1.000617064615384e+01
0	 2.500000000000000e+01	 5.624999999999999e+00	 1.000636956153846e+01
0	 2.500000000000000e+01	 6.250000000000000e+00	 1.000651092307692e+01
0	 1.875000000000000e+01	 6.250000000000000e+00	 1.000453846153846e+01
0	 1.875000000000000e+01	 6.875000000000000e+00	 1.000555722307692e+01
0	 1.875000000000000e+01	 7.500000000000002e+00	 1.000650984615385e+01
0	 1.875000000000000e+01	 8.125000000000004e+00	 1.000739633076923e+01
0	 1.875000000000000e+01	 8.750000000000004e+00	 1.000821667692308e+01
0	 1.875000000000000e+01	 9.375000000000004e+00	 1.000897088461539e+01
0	 1.875000000000000e+01	 1.000000000000000e+01	 1.000965895384615e+01
0	 1.875000000000000e+01	 1.062500000000000e+01	 1.001028088461539e+01
0	 1.875000000000000e+01	 1.125000000000001e+01	 1.001083667692307e+01
0	 1.875000000000000e+01	 1.187500000000001e+01	 1.001132633076923e+01
0	 1.875000000000000e+01	 1.250000000000000e+01	 1.001174984615384e+01
0	 1.937500000000000e+01	 6.250000000000000e+00	 1.000560869384615e+01
0	 1.937500000000000e+01	 6.874999999999999e+00	 1.000631297323077e+01
0	 1.937500000000000e+01	 7.500000000000000e+00	 1.000696216246154e+01
0	 1.937500000000000e+01	 8.125000000000002e+00	 1.000755626153846e+01
0	 1.937500000000000e+01	 8.750000000000000e+00	 1.000809527046154e+01
0	 1.937500000000000e+01	 9.375000000000002e+00	 1.000857918923077e+01
0	 1.937500000000000e+01	 1.000000000000000e+01	 1.000900801784615e+01
0	 1.937500000000000e+01	 1.062500000000000e+01	 1.000938175630769e+01
0	 1.937500000000001e+01	 1.125000000000001e+01	 1.000970040461538e+01
0	 1.937500000000000e+01	 1.187500000000000e+01	 1.000996396276923e+01
0	 1.937500000000000e+01	 1.250000000000000e+01	 1.001017243076923e+01
0	 2.000000000000000e+01	 6.250000000000000e+00	 1.000648492923077e+01
0	 2.000000000000001e+01	 6.875000000000002e+00	 1.000691314461539e+01
0	 2.000000000000000e+01	 7.500000000000003e+00	 1.000729731815384e+01
0	 2.000000000000000e+01	 8.125000000000000e+00	 1.000763744984615e+01
0	 2.000000000000000e+01	 8.750000000000002e+00	 1.000793353969230e+01
0	 2.000000000000000e+01	 9.375000000000005e+00	 1.000818558769231e+01
0	 2.000000000000000e+01	 1.000000000000001e+01	 1.000839359384615e+01
0	 2.000000000000000e+01	 1.062500000000001e+01	 1.000855755815384e+01
0	 2.000000000000000e+01	 1.125000000000000e+01	 1.000867748061538e+01
0	 2.000000000000000e+01	 1.187500000000001e+01	 1.000875336123076e+01
0	 2.000000000000000e+01	 1.250000000000000e+01	 1.000878520000000e+01
0	 2.062500000000000e+01	 6.250000000000000e+00	 1.000716716769231e+01
0	 2.062500000000000e+01	 6.875000000000000e+00	 1.000735773723077e+01
0	 2.062500000000001e+01	 7.500000000000002e+00	 1.000751531323077e+01
0	 2.062500000000000e+01	 8.125000000000000e+00	 1.000763989569231e+01
0	 2.062500000000000e+01	 8.750000000000002e+00	 1.000773148461539e+01
0	 2.062500000000000e+01	 9.375000000000004e+00	 1.000779008000000e+01
0	 2.062500000000000e+01	 1.000000000000000e+01	 1.000781568184615e+01
0	 2.062500000000000e+01	 1.062500000000001e+01	 1.000780829015384e+01
0	 2.062500000000000e+01	 1.125000000000000e+01	 1.000776790492307e+01
0	 2.062500000000000e+01	 1.187500000000000e+01	 1.000769452615384e+01
0	 2.062500000000000e+01	 1.250000000000000e+01	 1.000758815384615e+01
0	 2.125000000000001e+01	 6.250000000000001e+00	 1.000765540923077e+01
0	 2.125000000000000e+01	 6.874999999999997e+00	 1.000764675107692e+01
0	 2.125000000000001e+01	 7.500000000000001e+00	 1.000761614769230e+01
0	 2.125000000000000e+01	 8.125000000000002e+00	 1.000756359907692e+01
0	 2.125000000000000e+01	 8.750000000000002e+00	 1.000748910523077e+01
0	 2.125000000000000e+01	 9.375000000000004e+00	 1.000739266615384e+01
0	 2.125000000000000e+01	 1.000000000000001e+01	 1.000727428184615e+01
0	 2.125000000000001e+01	 1.062500000000001e+01	 1.000713395230769e+01
0	 2.125000000000000e+01	 1.125000000000001e+01	 1.000697167753845e+01
0	 2.125000000000000e+01	 1.187500000000001e+01	 1.000678745753846e+01
0	 2.125000000000001e+01	 1.250000000000000e+01	 1.000658129230769e+01
0	 2.187500000000000e+01	 6.249999999999999e+00	 1.000794965384616e+01
0	 2.187500000000001e+01	 6.875000000000000e+00	 1.000778018615384e+01
0	 2.187500000000000e+01	 7.500000000000001e+00	 1.000759982153846e+01
0	 2.187500000000000e+01	 8.125000000000002e+00	 1.000740856000000e+01
0	 2.187500000000000e+01	 8.750000000000004e+00	 1.000720640153846e+01
0	 2.187500000000000e+01	 9.375000000000002e+00	 1.000699334615384e+01
0	 2.187500000000000e+01	 1.000000000000000e+01	 1.000676939384615e+01
0	 2.187500000000001e+01	 1.062500000000001e+01	 1.000653454461538e+01
0	 2.187500000000000e+01	 1.125000000000001e+01	 1.000628879846153e+01
0	 2.187500000000000e+01	 1.187500000000000e+01	 1.000603215538462e+01
0	 2.187500000000000e+01	 1.250000000000000e+01	 1.000576461538461e+01
0	 2.250000000000000e+01	 6.250000000000001e+00	 1.000804990153846e+01
0	 2.250000000000001e+01	 6.875000000000001e+00	 1.000775804246154e+01
0	 2.250000000000000e+01	 7.500000000000002e+00	 1.000746633476923e+01
0	 2.250000000000001e+01	 8.125000000000004e+00	 1.000717477846154e+01
0	 2.250000000000000e+01	 8.750000000000004e+00	 1.000688337353846e+01
0	 2.250000000000000e+01	 9.375000000000004e+00	 1.000659212000000e+01
0	 2.250000000000000e+01	 1.000000000000000e+01	 1.000630101784615e+01
0	 2.250000000000001e+01	 1.062500000000001e+01	 1.000601006707692e+01
0	 2.250000000000000e+01	 1.125000000000001e+01	 1.000571926769230e+01
0	 2.250000000000000e+01	 1.187500000000000e+01	 1.000542861969230e+01
0	 2.250000000000000e+01	 1.250000000000000e+01	 1.000513812307692e+01
0	 2.312500000000001e+01	 6.250000000000000e+00	 1.000795615230769e+01
0	 2.312500000000000e+01	 6.875000000000001e+00	 1.000758032000000e+01
0	 2.312500000000001e+01	 7.500000000000003e+00	 1.000721568738461e+01
0	 2.312500000000000e+01	 8.125000000000000e+00	 1.000686225446154e+01
0	 2.312500000000001e+01	 8.750000000000002e+00	 1.000652002123077e+01
0	 2.312500000000001e+01	 9.375000000000004e+00	 1.000618898769230e+01
0	 2.312500000000000e+01	 1.000000000000000e+01	 1.000586915384615e+01
0	 2.312500000000000e+01	 1.062500000000000e+01	 1.000556051969231e+01
0	 2.312500000000000e+01	 1.125000000000001e+01	 1.000526308523077e+01
0	 2.312500000000001e+01	 1.187500000000001e+01	 1.000497685046154e+01
0	 2.312500000000001e+01	 1.250000000000000e+01	 1.000470181538461e+01
0	 2.375000000000000e+01	 6.250000000000000e+00	 1.000766840615385e+01
0	 2.375000000000001e+01	 6.875000000000000e+00	 1.000724701876923e+01
0	 2.375000000000000e+01	 7.500000000000002e+00	 1.000684787938462e+01
0	 2.375000000000000e+01	 8.125000000000002e+00	 1.000647098800000e+01
0	 2.375000000000000e+01	 8.750000000000002e+00	 1.000611634461538e+01
0	 2.375000000000000e+01	 9.375000000000002e+00	 1.000578394923077e+01
0	 2.375000000000000e+01	 1.000000000000001e+01	 1.000547380184615e+01
0	 2.375000000000001e+01	 1.062500000000001e+01	 1.000518590246154e+01
0	 2.375000000000001e+01	 1.125000000000000e+01	 1.000492025107692e+01
0	 2.375000000000001e+01	 1.187500000000001e+01	 1.000467684769230e+01
0	 2.375000000000000e+01	 1.250000000000000e+01	 1.000445569230769e+01
0	 2.437500000000001e+01	 6.250000000000001e+00	 1.000718666307692e+01
0	 2.437500000000001e+01	 6.875000000000001e+00	 1.000675813876923e+01
0	 2.437500000000001e+01	 7.500000000000002e+00	 1.000636291076923e+01
0	 2.437500000000000e+01	 8.125000000000002e+00	 1.000600097907692e+01
0	 2.437500000000000e+01	 8.750000000000000e+00	 1.000567234369230e+01
0	 2.437500000000000e+01	 9.375000000000002e+00	 1.000537700461538e+01
0	 2.437500000000000e+01	 1.000000000000000e+01	 1.000511496184615e+01
0	 2.437500000000000e+01	 1.062500000000000e+01	 1.000488621538461e+01
0	 2.437500000000000e+01	 1.125000000000001e+01	 1.000469076523077e+01
0	 2.437500000000001e+01	 1.187500000000001e+01	 1.000452861138462e+01
0	 2.437500000000001e+01	 1.250000000000000e+01	 1.000439975384615e+01
0	 2.500000000000000e+01	 6.250000000000000e+00	 1.000651092307692e+01
0	 2.500000000000000e+01	 6.875000000000000e+00	 1.000611368000000e+01
0	 2.500000000000000e+01	 7.500000000000002e+00	 1.000576078153846e+01
0	 2.500000000000000e+01	 8.125000000000004e+00	 1.000545222769230e+01
0	 2.500000000000000e+01	 8.750000000000004e+00	 1.000518801846154e+01
0	 2.500000000000000e+01	 9.375000000000004e+00	 1.000496815384616e+01
0	 2.500000000000000e+01	 1.000000000000000e+01	 1.000479263384615e+01
0	 2.500000000000000e+01	 1.062500000000000e+01	 1.000466145846154e+01
0	 2.500000000000000e+01	 1.125000000000001e+01	 1.000457462769231e+01
0	 2.500000000000000e+01	 1.187500000000001e+01	 1.000453214153846e+01
0	 2.500000000000000e+01	 1.250000000000000e+01	 1.000453400000000e+01
0	 1.875000000000000e+01	 1.250000000000000e+01	 1.001174984615384e+01
0	 1.875000000000000e+01	 1.312500000000000e+01	 1.001070910461539e+01
0	 1.875000000000000e+01	 1.375000000000000e+01	 1.000974318769231e+01
0	 1.875000000000000e+01	 1.437500000000000e+01	 1.000885209538461e+01
0	 1.875000000000000e+01	 1.500000000000000e+01	 1.000803582769231e+01
0	 1.875000000000000e+01	 1.562500000000000e+01	 1.000729438461538e+01
0	 1.875000000000000e+01	 1.625000000000000e+01	 1.000662776615384e+01
0	 1.875000000000000e+01	 1.687500000000000e+01	 1.000603597230769e+01
0	 1.875000000000000e+01	 1.750000000000001e+01	 1.000551900307692e+01
0	 1.875000000000000e+01	 1.812500000000001e+01	 1.000507685846154e+01
0	 1.875000000000000e+01	 1.875000000000000e+01	 1.000470953846154e+01
0	 1.937500000000000e+01	 1.250000000000000e+01	 1.001017243076923e+01
0	 1.937500000000000e+01	 1.312500000000000e+01	 1.000935904846153e+01
0	 1.937500000000000e+01	 1.375000000000000e+01	 1.000861194769230e+01
0	 1.937500000000000e+01	 1.437500000000000e+01	 1.000793112846154e+01
0	 1.937500000000000e+01	 1.500000000000000e+01	 1.000731659076923e+01
0	 1.937500000000000e+01	 1.562500000000000e+01	 1.000676833461538e+01
0	 1.937500000000000e+01	 1.625000000000000e+01	 1.000628636000000e+01
0	 1.937500000000000e+01	 1.687500000000000e+01	 1.000587066692308e+01
0	 1.937500000000001e+01	 1.750000000000000e+01	 1.000552125538461e+01
0	 1.937500000000000e+01	 1.812500000000001e+01	 1.000523812538462e+01
0	 1.937500000000000e+01	 1.875000000000000e+01	 1.000502127692307e+01
0	 2.000000000000000e+01	 1.250000000000000e+01	 1.000878520000000e+01
0	 2.000000000000001e+01	 1.312500000000000e+01	 1.000817389076923e+01
0	 2.000000000000000e+01	 1.375000000000000e+01	 1.000762032000000e+01
0	 2.000000000000000e+01	 1.437500000000000e+01	 1.000712448769230e+01
0	 2.000000000000000e+01	 1.500000000000000e+01	 1.000668639384615e+01
0	 2.000000000000000e+01	 1.562500000000001e+01	 1.000630603846153e+01
0	 2.000000000000000e+01	 1.625000000000000e+01	 1.000598342153846e+01
0	 2.000000000000000e+01	 1.687500000000001e+01	 1.000571854307692e+01
0	 2.000000000000000e+01	 1.750000000000000e+01	 1.000551140307692e+01
0	 2.000000000000000e+01	 1.812500000000001e+01	 1.000536200153846e+01
0	 2.000000000000000e+01	 1.875000000000000e+01	 1.000527033846154e+01
0	 2.062500000000000e+01	 1.250000000000000e+01	 1.000758815384615e+01
0	 2.062500000000000e+01	 1.312500000000000e+01	 1.000715363153846e+01
0	 2.062500000000001e+01	 1.375000000000000e+01	 1.000676830461538e+01
0	 2.062500000000000e+01	 1.437500000000000e+01	 1.000643217307692e+01
0	 2.062500000000000e+01	 1.500000000000000e+01	 1.000614523692308e+01
0	 2.062500000000000e+01	 1.562500000000001e+01	 1.000590749615385e+01
0	 2.062500000000000e+01	 1.625000000000000e+01	 1.000571895076923e+01
0	 2.062500000000000e+01	 1.687500000000000e+01	 1.000557960076923e+01
0	 2.062500000000000e+01	 1.750000000000000e+01	 1.000548944615384e+01
0	 2.062500000000000e+01	 1.812500000000000e+01	 1.000544848692307e+01
0	 2.062500000000000e+01	 1.875000000000000e+01	 1.000545672307692e+01
0	 2.125000000000001e+01	 1.250000000000000e+01	 1.000658129230769e+01
0	 2.125000000000000e+01	 1.312500000000000e+01	 1.000629827076922e+01
0	 2.125000000000001e+01	 1.375000000000000e+01	 1.000605590153846e+01
0	 2.125000000000000e+01	 1.437500000000000e+01	 1.000585418461539e+01
0	 2.125000000000000e+01	 1.500000000000000e+01	 1.000569312000000e+01
0	 2.125000000000000e+01	 1.562500000000000e+01	 1.000557270769230e+01
0	 2.125000000000000e+01	 1.625000000000000e+01	 1.000549294769231e+01
0	 2.125000000000001e+01	 1.687500000000001e+01	 1.000545384000000e+01
0	 2.125000000000000e+01	 1.750000000000000e+01	 1.000545538461538e+01
0	 2.125000000000000e+01	 1.812500000000001e+01	 1.000549758153846e+01
0	 2.125000000000001e+01	 1.875000000000000e+01	 1.000558043076923e+01
0	 2.187500000000000e+01	 1.250000000000000e+01	 1.000576461538461e+01
0	 2.187500000000001e+01	 1.312500000000000e+01	 1.000560780846153e+01
0	 2.187500000000000e+01	 1.375000000000000e+01	 1.000548311076922e+01
0	 2.187500000000000e+01	 1.437500000000000e+01	 1.000539052230769e+01
0	 2.187500000000000e+01	 1.500000000000000e+01	 1.000533004307692e+01
0	 2.187500000000000e+01	 1.562500000000001e+01	 1.000530167307692e+01
0	 2.187500000000000e+01	 1.625000000000000e+01	 1.000530541230769e+01
0	 2.187500000000001e+01	 1.687500000000001e+01	 1.000534126076923e+01
0	 2.187500000000000e+01	 1.750000000000000e+01	 1.000540921846154e+01
0	 2.187500000000000e+01	 1.812500000000000e+01	 1.000550928538462e+01
0	 2.187500000000000e+01	 1.875000000000000e+01	 1.000564146153846e+01
0	 2.250000000000000e+01	 1.250000000000000e+01	 1.000513812307692e+01
0	 2.250000000000001e+01	 1.312500000000000e+01	 1.000508224461538e+01
0	 2.250000000000000e+01	 1.375000000000000e+01	 1.000504993230769e+01
0	 2.250000000000001e+01	 1.437500000000001e+01	 1.000504118615385e+01
0	 2.250000000000000e+01	 1.500000000000000e+01	 1.000505600615384e+01
0	 2.250000000000000e+01	 1.562500000000000e+01	 1.000509439230770e+01
0	 2.250000000000000e+01	 1.625000000000000e+01	 1.000515634461539e+01
0	 2.250000000000001e+01	 1.687500000000001e+01	 1.000524186307692e+01
0	 2.250000000000000e+01	 1.750000000000001e+01	 1.000535094769230e+01
0	 2.250000000000000e+01	 1.812500000000000e+01	 1.000548359846155e+01
0	 2.250000000000000e+01	 1.875000000000000e+01	 1.000563981538462e+01
0	 2.312500000000001e+01	 1.250000000000000e+01	 1.000470181538461e+01
0	 2.312500000000000e+01	 1.312500000000000e+01	 1.000472157923077e+01
0	 2.312500000000001e+01	 1.375000000000000e+01	 1.000475636615385e+01
0	 2.312500000000000e+01	 1.437500000000000e+01	 1.000480617615384e+01
0	 2.312500000000001e+01	 1.500000000000000e+01	 1.000487100923077e+01
0	 2.312500000000001e+01	 1.562500000000000e+01	 1.000495086538461e+01
0	 2.312500000000000e+01	 1.625000000000000e+01	 1.000504574461538e+01
0	 2.312500000000000e+01	 1.687500000000001e+01	 1.000515564692307e+01
0	 2.312500000000000e+01	 1.750000000000000e+01	 1.000528057230769e+01
0	 2.312500000000001e+01	 1.812500000000000e+01	 1.000542052076923e+01
0	 2.312500000000001e+01	 1.875000000000000e+01	 1.000557549230770e+01
0	 2.375000000000000e+01	 1.250000000000000e+01	 1.000445569230769e+01
0	 2.375000000000001e+01	 1.312500000000000e+01	 1.000452581230769e+01
0	 2.375000000000000e+01	 1.375000000000000e+01	 1.000460241230769e+01
0	 2.375000000000000e+01	 1.437500000000000e+01	 1.000468549230769e+01
0	 2.375000000000000e+01	 1.500000000000000e+01	 1.000477505230769e+01
0	 2.375000000000000e+01	 1.562500000000000e+01	 1.000487109230769e+01
0	 2.375000000000000e+01	 1.625000000000001e+01	 1.000497361230769e+01
0	 2.375000000000001e+01	 1.687500000000001e+01	 1.000508261230769e+01
0	 2.375000000000001e+01	 1.750000000000001e+01	 1.000519809230769e+01
0	 2.375000000000001e+01	 1.812500000000001e+01	 1.000532005230769e+01
0	 2.375000000000000e+01	 1.875000000000000e+01	 1.000544849230769e+01
0	 2.437500000000001e+01	 1.250000000000000e+01	 1.000439975384615e+01
0	 2.437500000000001e+01	 1.312500000000000e+01	 1.000449494384615e+01
0	 2.437500000000001e+01	 1.375000000000000e+01	 1.000458807076923e+01
0	 2.437500000000000e+01	 1.437500000000000e+01	 1.000467913461538e+01
0	 2.437500000000000e+01	 1.500000000000000e+01	 1.000476813538461e+01
0	 2.437500000000000e+01	 1.562500000000000e+01	 1.000485507307692e+01
0	 2.437500000000000e+01	 1.625000000000000e+01	 1.000493994769231e+01
0	 2.437500000000000e+01	 1.687500000000000e+01	 1.000502275923077e+01
0	 2.437500000000000e+01	 1.750000000000001e+01	 1.000510350769231e+01
0	 2.437500000000001e+01	 1.812500000000001e+01	 1.000518219307692e+01
0	 2.437500000000001e+01	 1.875000000000000e+01	 1.000525881538461e+01
0	 2.500000000000000e+01	 1.250000000000000e+01	 1.000453400000000e+01
0	 2.500000000000000e+01	 1.312500000000000e+01	 1.000462897384616e+01
0	 2.500000000000000e+01	 1.375000000000000e+01	 1.000471334153846e+01
0	 2.500000000000000e+01	 1.437500000000000e+01	 1.000478710307692e+01
0	 2.500000000000000e+01	 1.500000000000000e+01	 1.000485025846154e+01
0	 2.500000000000000e+01	 1.562500000000000e+01	 1.000490280769230e+01
0	 2.500000000000000e+01	 1.625000000000000e+01	 1.000494475076923e+01
0	 2.500000000000000e+01	 1.687500000000000e+01	 1.000497608769231e+01
0	 2.500000000000000e+01	 1.750000000000001e+01	 1.000499681846154e+01
0	 2.500000000000000e+01	 1.812500000000001e+01	 1.000500694307692e+01
0	 2.500000000000000e+01	 1.875000000000000e+01	 1.000500646153846e+01
0	 1.875000000000000e+01	 1.875000000000000e+01	 1.000470953846154e+01
0	 1.875000000000000e+01	 1.937500000000000e+01	 1.000451954000000e+01
0	 1.875000000000000e+01	 2.000000000000000e+01	 1.000431299076923e+01
0	 1.875000000000000e+01	 2.062500000000000e+01	 1.000408989076923e+01
0	 1.875000000000000e+01	 2.125000000000000e+01	 1.000385024000000e+01
0	 1.875000000000000e+01	 2.187500000000000e+01	 1.000359403846154e+01
0	 1.875000000000000e+01	 2.250000000000000e+01	 1.000332128615384e+01
0	 1.875000000000000e+01	 2.312500000000001e+01	 1.000303198307692e+01
0	 1.875000000000000e+01	 2.375000000000001e+01	 1.000272612923077e+01
0	 1.875000000000000e+01	 2.437500000000001e+01	 1.000240372461538e+01
0	 1.875000000000000e+01	 2.500000000000000e+01	 1.000206476923077e+01
0	 1.937500000000000e+01	 1.875000000000000e+01	 1.000502127692307e+01
0	 1.937500000000000e+01	 1.937500000000000e+01	 1.000480314307692e+01
0	 1.937500000000000e+01	 2.000000000000000e+01	 1.000457204923077e+01
0	 1.937500000000000e+01	 2.062500000000000e+01	 1.000432799538461e+01
0	 1.937500000000000e+01	 2.125000000000001e+01	 1.000407098153846e+01
0	 1.937500000000000e+01	 2.187500000000000e+01	 1.000380100769230e+01
0	 1.937500000000000e+01	 2.250000000000001e+01	 1.000351807384616e+01
0	 1.937500000000000e+01	 2.312500000000000e+01	 1.000322218000000e+01
0	 1.937500000000001e+01	 2.375000000000001e+01	 1.000291332615385e+01
0	 1.937500000000000e+01	 2.437500000000001e+01	 1.000259151230769e+01
0	 1.937500000000000e+01	 2.500000000000000e+01	 1.000225673846153e+01
0	 2.000000000000000e+01	 1.875000000000000e+01	 1.000527033846154e+01
0	 2.000000000000001e+01	 1.937500000000000e+01	 1.000502783846154e+01
0	 2.000000000000000e+01	 2.000000000000000e+01	 1.000477596923077e+01
0	 2.000000000000000e+01	 2.062500000000000e+01	 1.000451473076923e+01
0	 2.000000000000000e+01	 2.125000000000000e+01	 1.000424412307692e+01
0	 2.000000000000000e+01	 2.187500000000000e+01	 1.000396414615384e+01
0	 2.000000000000000e+01	 2.250000000000000e+01	 1.000367480000000e+01
0	 2.000000000000000e+01	 2.312500000000001e+01	 1.000337608461538e+01
0	 2.000000000000000e+01	 2.375000000000001e+01	 1.000306800000000e+01
0	 2.000000000000000e+01	 2.437500000000001e+01	 1.000275054615384e+01
0	 2.000000000000000e+01	 2.500000000000000e+01	 1.000242372307693e+01
0	 2.062500000000000e+01	 1.875000000000000e+01	 1.000545672307692e+01
0	 2.062500000000000e+01	 1.937500000000000e+01	 1.000519362615384e+01
0	 2.062500000000001e+01	 2.000000000000000e+01	 1.000492475076923e+01
0	 2.062500000000000e+01	 2.062500000000000e+01	 1.000465009692308e+01
0	 2.062500000000000e+01	 2.125000000000000e+01	 1.000436966461538e+01
0	 2.062500000000000e+01	 2.187500000000000e+01	 1.000408345384615e+01
0	 2.062500000000000e+01	 2.250000000000000e+01	 1.000379146461538e+01
0	 2.062500000000000e+01	 2.312500000000001e+01	 1.000349369692307e+01
0	 2.062500000000000e+01	 2.375000000000000e+01	 1.000319015076923e+01
0	 2.062500000000000e+01	 2.437500000000000e+01	 1.000288082615385e+01
0	 2.062500000000000e+01	 2.500000000000000e+01	 1.000256572307692e+01
0	 2.125000000000001e+01	 1.875000000000000e+01	 1.000558043076923e+01
0	 2.125000000000000e+01	 1.937500000000000e+01	 1.000530050615384e+01
0	 2.125000000000001e+01	 2.000000000000001e+01	 1.000501839384616e+01
0	 2.125000000000000e+01	 2.062500000000000e+01	 1.000473409384615e+01
0	 2.125000000000000e+01	 2.125000000000000e+01	 1.000444760615384e+01
0	 2.125000000000000e+01	 2.187500000000000e+01	 1.000415893076923e+01
0	 2.125000000000000e+01	 2.250000000000000e+01	 1.000386806769230e+01
0	 2.125000000000001e+01	 2.312500000000001e+01	 1.000357501692308e+01
0	 2.125000000000000e+01	 2.375000000000000e+01	 1.000327977846154e+01
0	 2.125000000000000e+01	 2.437500000000001e+01	 1.000298235230769e+01
0	 2.125000000000001e+01	 2.500000000000000e+01	 1.000268273846153e+01
0	 2.187500000000000e+01	 1.875000000000000e+01	 1.000564146153846e+01
0	 2.187500000000001e+01	 1.937500000000000e+01	 1.000534847846154e+01
0	 2.187500000000000e+01	 2.000000000000000e+01	 1.000505689846154e+01
0	 2.187500000000000e+01	 2.062500000000000e+01	 1.000476672153847e+01
0	 2.187500000000000e+01	 2.125000000000000e+01	 1.000447794769230e+01
0	 2.187500000000000e+01	 2.187500000000000e+01	 1.000419057692308e+01
0	 2.187500000000000e+01	 2.250000000000000e+01	 1.000390460923077e+01
0	 2.187500000000001e+01	 2.312500000000001e+01	 1.000362004461538e+01
0	 2.187500000000000e+01	 2.375000000000001e+01	 1.000333688307692e+01
0	 2.187500000000000e+01	 2.437500000000000e+01	 1.000305512461538e+01
0	 2.187500000000000e+01	 2.500000000000000e+01	 1.000277476923077e+01
0	 2.250000000000000e+01	 1.875000000000000e+01	 1.000563981538462e+01
0	 2.250000000000001e+01	 1.937500000000000e+01	 1.000533754307692e+01
0	 2.250000000000000e+01	 2.000000000000000e+01	 1.000504026461538e+01
0	 2.250000000000001e+01	 2.062500000000001e+01	 1.000474798000000e+01
0	 2.250000000000000e+01	 2.125000000000001e+01	 1.000446068923076e+01
0	 2.250000000000000e+01	 2.187500000000000e+01	 1.000417839230769e+01
0	 2.250000000000000e+01	 2.250000000000000e+01	 1.000390108923077e+01
0	 2.250000000000001e+01	 2.312500000000001e+01	 1.000362877999999e+01
0	 2.250000000000000e+01	 2.375000000000000e+01	 1.000336146461538e+01
0	 2.250000000000000e+01	 2.437500000000001e+01	 1.000309914307692e+01
0	 2.250000000000000e+01	 2.500000000000000e+01	 1.000284181538461e+01
0	 2.312500000000001e+01	 1.875000000000000e+01	 1.000557549230770e+01
0	 2.312500000000000e+01	 1.937500000000000e+01	 1.000526770000000e+01
0	 2.312500000000001e+01	 2.000000000000001e+01	 1.000496849230769e+01
0	 2.312500000000000e+01	 2.062500000000000e+01	 1.000467786923077e+01
0	 2.312500000000001e+01	 2.125000000000000e+01	 1.000439583076923e+01
0	 2.312500000000001e+01	 2.187500000000001e+01	 1.000412237692308e+01
0	 2.312500000000000e+01	 2.250000000000000e+01	 1.000385750769231e+01
0	 2.312500000000000e+01	 2.312500000000000e+01	 1.000360122307692e+01
0	 2.312500000000000e+01	 2.375000000000000e+01	 1.000335352307692e+01
0	 2.312500000000001e+01	 2.437500000000000e+01	 1.000311440769230e+01
0	 2.312500000000001e+01	 2.500000000000000e+01	 1.000288387692308e+01
0	 2.375000000000000e+01	 1.875000000000000e+01	 1.000544849230769e+01
0	 2.375000000000001e+01	 1.937500000000000e+01	 1.000513894923077e+01
0	 2.375000000000000e+01	 2.000000000000000e+01	 1.000484158153846e+01
0	 2.375000000000000e+01	 2.062500000000000e+01	 1.000455638923077e+01
0	 2.375000000000000e+01	 2.125000000000000e+01	 1.000428337230769e+01
0	 2.375000000000000e+01	 2.187500000000000e+01	 1.000402253076923e+01
0	 2.375000000000000e+01	 2.250000000000000e+01	 1.000377386461538e+01
0	 2.375000000000001e+01	 2.312500000000001e+01	 1.000353737384615e+01
0	 2.375000000000001e+01	 2.375000000000000e+01	 1.000331305846154e+01
0	 2.375000000000001e+01	 2.437500000000000e+01	 1.000310091846154e+01
0	 2.375000000000000e+01	 2.500000000000000e+01	 1.000290095384615e+01
0	 2.437500000000001e+01	 1.875000000000000e+01	 1.000525881538461e+01
0	 2.437500000000001e+01	 1.937500000000000e+01	 1.000495129076923e+01
0	 2.437500000000001e+01	 2.000000000000000e+01	 1.000465953230770e+01
0	 2.437500000000000e+01	 2.062500000000000e+01	 1.000438354000000e+01
0	 2.437500000000000e+01	 2.125000000000000e+01	 1.000412331384616e+01
0	 2.437500000000000e+01	 2.187500000000000e+01	 1.000387885384615e+01
0	 2.437500000000000e+01	 2.250000000000001e+01	 1.000365016000000e+01
0	 2.437500000000000e+01	 2.312500000000000e+01	 1.000343723230769e+01
0	 2.437500000000000e+01	 2.375000000000000e+01	 1.000324007076923e+01
0	 2.437500000000001e+01	 2.437500000000000e+01	 1.000305867538462e+01
0	 2.437500000000001e+01	 2.500000000000000e+01	 1.000289304615385e+01
0	 2.500000000000000e+01	 1.875000000000000e+01	 1.000500646153846e+01
0	 2.500000000000000e+01	 1.937500000000000e+01	 1.000470472461538e+01
0	 2.500000000000000e+01	 2.000000000000000e+01	 1.000442234461538e+01
0	 2.500000000000000e+01	 2.062500000000000e+01	 1.000415932153846e+01
0	 2.500000000000000e+01	 2.125000000000000e+01	 1.000391565538461e+01
0	 2.500000000000000e+01	 2.187500000000000e+01	 1.000369134615385e+01
0	 2.500000000000000e+01	 2.250000000000000e+01	 1.000348639384615e+01
0	 2.500000000000000e+01	 2.312500000000001e+01	 1.000330079846154e+01
0	 2.500000000000000e+01	 2.375000000000001e+01	 1.000313456000000e+01
0	 2.500000000000000e+01	 2.437500000000001e+01	 1.000298767846154e+01
0	 2.500000000000000e+01	 2.500000000000000e+01	 1.000286015384615e+01
0	 1.875000000000000e+01	 2.500000000000000e+01	 1.000206476923077e+01
0	 1.875000000000000e+01	 2.562500000000000e+01	 1.000198068000000e+01
0	 1.875000000000001e+01	 2.625000000000000e+01	 1.000189302769231e+01
0	 1.875000000000000e+01	 2.687499999999999e+01	 1.000180181230769e+01
0	 1.875000000000000e+01	 2.749999999999999e+01	 1.000170703384616e+01
0	 1.875000000000000e+01	 2.812499999999999e+01	 1.000160869230769e+01
0	 1.875000000000000e+01	 2.874999999999999e+01	 1.000150678769231e+01
0	 1.875000000000000e+01	 2.937499999999999e+01	 1.000140132000000e+01
0	 1.875000000000000e+01	 2.999999999999998e+01	 1.000129228923078e+01
0	 1.875000000000000e+01	 3.062499999999998e+01	 1.000117969538462e+01
0	 1.875000000000000e+01	 3.125000000000000e+01	 1.000106353846154e+01
0	 1.937500000000000e+01	 2.500000000000000e+01	 1.000225673846153e+01
0	 1.937500000000000e+01	 2.562499999999999e+01	 1.000216283630769e+01
0	 1.937500000000000e+01	 2.625000000000000e+01	 1.000206528061538e+01
0	 1.937500000000000e+01	 2.687499999999998e+01	 1.000196407138461e+01
0	 1.937500000000000e+01	 2.749999999999999e+01	 1.000185920861538e+01
0	 1.937500000000000e+01	 2.812499999999998e+01	 1.000175069230769e+01
0	 1.937500000000000e+01	 2.874999999999999e+01	 1.000163852246154e+01
0	 1.937500000000000e+01	 2.937499999999998e+01	 1.000152269907692e+01
0	 1.937500000000000e+01	 2.999999999999999e+01	 1.000140322215384e+01
0	 1.937500000000000e+01	 3.062499999999998e+01	 1.000128009169230e+01
0	 1.937500000000000e+01	 3.125000000000000e+01	 1.000115330769232e+01
0	 2.000000000000000e+01	 2.500000000000000e+01	 1.000242372307693e+01
0	 2.000000000000000e+01	 2.562499999999999e+01	 1.000232158030769e+01
0	 2.000000000000000e+01	 2.624999999999999e+01	 1.000221569353846e+01
0	 2.000000000000000e+01	 2.687499999999999e+01	 1.000210606276923e+01
0	 2.000000000000000e+01	 2.749999999999999e+01	 1.000199268800000e+01
0	 2.000000000000000e+01	 2.812499999999999e+01	 1.000187556923077e+01
0	 2.000000000000000e+01	 2.874999999999998e+01	 1.000175470646153e+01
0	 2.000000000000000e+01	 2.937499999999999e+01	 1.000163009969230e+01
0	 2.000000000000000e+01	 2.999999999999998e+01	 1.000150174892308e+01
0	 2.000000000000000e+01	 3.062499999999999e+01	 1.000136965415384e+01
0	 2.000000000000000e+01	 3.125000000000000e+01	 1.000123381538461e+01
0	 2.062500000000000e+01	 2.500000000000000e+01	 1.000256572307692e+01
0	 2.062500000000000e+01	 2.562500000000000e+01	 1.000245691200000e+01
0	 2.062500000000000e+01	 2.625000000000000e+01	 1.000234426646154e+01
0	 2.062500000000000e+01	 2.687499999999999e+01	 1.000222778646154e+01
0	 2.062500000000000e+01	 2.749999999999998e+01	 1.000210747200000e+01
0	 2.062500000000000e+01	 2.812499999999999e+01	 1.000198332307692e+01
0	 2.062500000000000e+01	 2.874999999999998e+01	 1.000185533969231e+01
0	 2.062500000000000e+01	 2.937499999999998e+01	 1.000172352184615e+01
0	 2.062500000000000e+01	 2.999999999999998e+01	 1.000158786953846e+01
0	 2.062500000000000e+01	 3.062499999999998e+01	 1.000144838276923e+01
0	 2.062500000000000e+01	 3.125000000000000e+01	 1.000130506153846e+01
0	 2.125000000000001e+01	 2.500000000000000e+01	 1.000268273846153e+01
0	 2.125000000000001e+01	 2.562500000000000e+01	 1.000256883138462e+01
0	 2.125000000000000e+01	 2.625000000000000e+01	 1.000245099938462e+01
0	 2.125000000000000e+01	 2.687499999999999e+01	 1.000232924246154e+01
0	 2.125000000000000e+01	 2.749999999999999e+01	 1.000220356061539e+01
0	 2.125000000000000e+01	 2.812499999999998e+01	 1.000207395384615e+01
0	 2.125000000000000e+01	 2.874999999999999e+01	 1.000194042215385e+01
0	 2.125000000000000e+01	 2.937499999999998e+01	 1.000180296553846e+01
0	 2.125000000000000e+01	 2.999999999999998e+01	 1.000166158400000e+01
0	 2.125000000000000e+01	 3.062499999999998e+01	 1.000151627753845e+01
0	 2.125000000000001e+01	 3.125000000000001e+01	 1.000136704615385e+01
0	 2.187500000000000e+01	 2.500000000000000e+01	 1.000277476923077e+01
0	 2.187500000000000e+01	 2.562500000000000e+01	 1.000265733846154e+01
0	 2.187500000000000e+01	 2.625000000000000e+01	 1.000253589230769e+01
0	 2.187500000000001e+01	 2.687500000000000e+01	 1.000241043076923e+01
0	 2.187500000000000e+01	 2.749999999999998e+01	 1.000228095384615e+01
0	 2.187500000000000e+01	 2.812499999999999e+01	 1.000214746153846e+01
0	 2.187500000000001e+01	 2.874999999999999e+01	 1.000200995384615e+01
0	 2.187500000000001e+01	 2.937499999999999e+01	 1.000186843076923e+01
0	 2.187500000000000e+01	 2.999999999999998e+01	 1.000172289230769e+01
0	 2.187500000000000e+01	 3.062499999999998e+01	 1.000157333846154e+01
0	 2.187500000000000e+01	 3.125000000000000e+01	 1.000141976923076e+01
0	 2.250000000000000e+01	 2.500000000000000e+01	 1.000284181538461e+01
0	 2.250000000000000e+01	 2.562500000000000e+01	 1.000272243323077e+01
0	 2.250000000000000e+01	 2.625000000000000e+01	 1.000259894523077e+01
0	 2.250000000000000e+01	 2.687499999999999e+01	 1.000247135138462e+01
0	 2.250000000000001e+01	 2.750000000000000e+01	 1.000233965169230e+01
0	 2.250000000000000e+01	 2.812499999999999e+01	 1.000220384615385e+01
0	 2.250000000000000e+01	 2.874999999999999e+01	 1.000206393476923e+01
0	 2.250000000000000e+01	 2.937499999999998e+01	 1.000191991753846e+01
0	 2.250000000000000e+01	 2.999999999999998e+01	 1.000177179446154e+01
0	 2.250000000000000e+01	 3.062499999999998e+01	 1.000161956553845e+01
0	 2.250000000000000e+01	 3.125000000000000e+01	 1.000146323076922e+01
0	 2.312500000000001e+01	 2.500000000000000e+01	 1.000288387692308e+01
0	 2.312500000000001e+01	 2.562500000000000e+01	 1.000276411569231e+01
0	 2.312500000000000e+01	 2.625000000000000e+01	 1.000264015815385e+01
0	 2.312500000000000e+01	 2.687499999999999e+01	 1.000251200430769e+01
0	 2.312500000000001e+01	 2.749999999999999e+01	 1.000237965415385e+01
0	 2.312500000000001e+01	 2.812499999999999e+01	 1.000224310769230e+01
0	 2.312500000000001e+01	 2.874999999999999e+01	 1.000210236492308e+01
0	 2.312500000000001e+01	 2.937499999999999e+01	 1.000195742584615e+01
0	 2.312500000000000e+01	 2.999999999999998e+01	 1.000180829046153e+01
0	 2.312500000000001e+01	 3.062499999999999e+01	 1.000165495876922e+01
0	 2.312500000000001e+01	 3.125000000000000e+01	 1.000149743076922e+01
0	 2.375000000000000e+01	 2.500000000000000e+01	 1.000290095384615e+01
0	 2.375000000000000e+01	 2.562500000000000e+01	 1.000278238584615e+01
0	 2.375000000000001e+01	 2.625000000000000e+01	 1.000265953107692e+01
0	 2.375000000000000e+01	 2.687499999999999e+01	 1.000253238953846e+01
0	 2.375000000000001e+01	 2.750000000000000e+01	 1.000240096123077e+01
0	 2.375000000000000e+01	 2.812499999999999e+01	 1.000226524615384e+01
0	 2.375000000000001e+01	 2.874999999999999e+01	 1.000212524430768e+01
0	 2.375000000000000e+01	 2.937499999999999e+01	 1.000198095569230e+01
0	 2.375000000000000e+01	 2.999999999999998e+01	 1.000183238030768e+01
0	 2.375000000000000e+01	 3.062499999999998e+01	 1.000167951815384e+01
0	 2.375000000000000e+01	 3.125000000000000e+01	 1.000152236923076e+01
0	 2.437500000000001e+01	 2.500000000000000e+01	 1.000289304615385e+01
0	 2.437500000000000e+01	 2.562499999999999e+01	 1.000277724369231e+01
0	 2.437500000000000e+01	 2.625000000000000e+01	 1.000265706400000e+01
0	 2.437500000000001e+01	 2.687499999999999e+01	 1.000253250707692e+01
0	 2.437500000000001e+01	 2.749999999999999e+01	 1.000240357292307e+01
0	 2.437500000000000e+01	 2.812499999999998e+01	 1.000227026153846e+01
0	 2.437500000000001e+01	 2.874999999999999e+01	 1.000213257292308e+01
0	 2.437500000000001e+01	 2.937499999999999e+01	 1.000199050707691e+01
0	 2.437500000000001e+01	 2.999999999999999e+01	 1.000184406399999e+01
0	 2.437500000000001e+01	 3.062499999999998e+01	 1.000169324369230e+01
0	 2.437500000000001e+01	 3.125000000000000e+01	 1.000153804615384e+01
0	 2.500000000000000e+01	 2.500000000000000e+01	 1.000286015384615e+01
0	 2.500000000000000e+01	 2.562500000000000e+01	 1.000274868923077e+01
0	 2.500000000000000e+01	 2.625000000000000e+01	 1.000263275692308e+01
0	 2.500000000000000e+01	 2.687499999999999e+01	 1.000251235692307e+01
0	 2.500000000000000e+01	 2.749999999999999e+01	 1.000238748923077e+01
0	 2.500000000000000e+01	 2.812499999999999e+01	 1.000225815384615e+01
0	 2.500000000000000e+01	 2.874999999999999e+01	 1.000212435076923e+01
0	 2.500000000000000e+01	 2.937499999999999e+01	 1.000198607999999e+01
0	 2.500000000000000e+01	 2.999999999999998e+01	 1.000184334153845e+01
0	 2.500000000000000e+01	 3.062499999999998e+01	 1.000169613538461e+01
0	 2.500000000000000e+01	 3.125000000000000e+01	 1.000154446153846e+01
0	 1.875000000000000e+01	 3.125000000000000e+01	 1.000106353846154e+01
0	 1.875000000000000e+01	 3.187500000000000e+01	 1.000098218769231e+01
0	 1.875000000000001e+01	 3.250000000000001e+01	 1.000090078153845e+01
0	 1.875000000000000e+01	 3.312499999999999e+01	 1.000081932000000e+01
0	 1.875000000000000e+01	 3.374999999999999e+01	 1.000073780307692e+01
0	 1.875000000000000e+01	 3.437499999999999e+01	 1.000065623076923e+01
0	 1.875000000000000e+01	 3.499999999999999e+01	 1.000057460307692e+01
0	 1.875000000000000e+01	 3.562499999999999e+01	 1.000049291999999e+01
0	 1.875000000000000e+01	 3.624999999999998e+01	 1.000041118153846e+01
0	 1.875000000000000e+01	 3.687499999999998e+01	 1.000032938769230e+01
0	 1.875000000000000e+01	 3.750000000000000e+01	 1.000024753846154e+01
0	 1.937500000000000e+01	 3.125000000000000e+01	 1.000115330769232e+01
0	 1.937500000000000e+01	 3.187499999999999e+01	 1.000107447000000e+01
0	 1.937500000000000e+01	 3.250000000000000e+01	 1.000099549846153e+01
0	 1.937500000000000e+01	 3.312499999999999e+01	 1.000091639307692e+01
0	 1.937500000000000e+01	 3.374999999999999e+01	 1.000083715384615e+01
0	 1.937500000000000e+01	 3.437499999999998e+01	 1.000075778076923e+01
0	 1.937500000000000e+01	 3.499999999999999e+01	 1.000067827384616e+01
0	 1.937500000000000e+01	 3.562499999999998e+01	 1.000059863307693e+01
0	 1.937500000000000e+01	 3.624999999999998e+01	 1.000051885846155e+01
0	 1.937500000000000e+01	 3.687499999999999e+01	 1.000043895000000e+01
0	 1.937500000000000e+01	 3.750000000000000e+01	 1.000035890769230e+01
0	 2.000000000000000e+01	 3.125000000000000e+01	 1.000123381538461e+01
0	 2.000000000000000e+01	 3.187499999999999e+01	 1.000115708153845e+01
0	 2.000000000000000e+01	 3.249999999999999e+01	 1.000108013538461e+01
0	 2.000000000000000e+01	 3.312500000000000e+01	 1.000100297692308e+01
0	 2.000000000000000e+01	 3.374999999999999e+01	 1.000092560615385e+01
0	 2.000000000000000e+01	 3.437499999999999e+01	 1.000084802307692e+01
0	 2.000000000000000e+01	 3.499999999999999e+01	 1.000077022769231e+01
0	 2.000000000000000e+01	 3.562499999999998e+01	 1.000069222000001e+01
0	 2.000000000000000e+01	 3.624999999999997e+01	 1.000061400000001e+01
0	 2.000000000000000e+01	 3.687499999999997e+01	 1.000053556769232e+01
0	 2.000000000000000e+01	 3.750000000000000e+01	 1.000045692307692e+01
0	 2.062500000000000e+01	 3.125000000000000e+01	 1.000130506153846e+01
0	 2.062500000000000e+01	 3.187500000000000e+01	 1.000123002230770e+01
0	 2.062500000000000e+01	 3.250000000000000e+01	 1.000115469230769e+01
0	 2.062500000000000e+01	 3.312499999999999e+01	 1.000107907153846e+01
0	 2.062500000000000e+01	 3.374999999999999e+01	 1.000100316000000e+01
0	 2.062500000000000e+01	 3.437499999999999e+01	 1.000092695769231e+01
0	 2.062500000000000e+01	 3.499999999999999e+01	 1.000085046461538e+01
0	 2.062500000000000e+01	 3.562499999999999e+01	 1.000077368076923e+01
0	 2.062500000000000e+01	 3.624999999999997e+01	 1.000069660615385e+01
0	 2.062500000000000e+01	 3.687499999999998e+01	 1.000061924076924e+01
0	 2.062500000000000e+01	 3.749999999999999e+01	 1.000054158461539e+01
0	 2.125000000000001e+01	 3.125000000000001e+01	 1.000136704615385e+01
0	 2.125000000000001e+01	 3.187500000000000e+01	 1.000129329230768e+01
0	 2.125000000000000e+01	 3.250000000000000e+01	 1.000121916923076e+01
0	 2.125000000000000e+01	 3.312500000000000e+01	 1.000114467692308e+01
0	 2.125000000000000e+01	 3.374999999999999e+01	 1.000106981538461e+01
0	 2.125000000000000e+01	 3.437499999999999e+01	 1.000099458461538e+01
0	 2.125000000000000e+01	 3.499999999999998e+01	 1.000091898461538e+01
0	 2.125000000000000e+01	 3.562499999999998e+01	 1.000084301538462e+01
0	 2.125000000000000e+01	 3.624999999999998e+01	 1.000076667692307e+01
0	 2.125000000000000e+01	 3.687499999999999e+01	 1.000068996923077e+01
0	 2.125000000000001e+01	 3.749999999999999e+01	 1.000061289230769e+01
0	 2.187500000000000e+01	 3.125000000000000e+01	 1.000141976923076e+01
0	 2.187500000000000e+01	 3.187500000000000e+01	 1.000134689153846e+01
0	 2.187500000000000e+01	 3.250000000000000e+01	 1.000127356615383e+01
0	 2.187500000000001e+01	 3.312500000000000e+01	 1.000119979307692e+01
0	 2.187500000000000e+01	 3.374999999999999e+01	 1.000112557230769e+01
0	 2.187500000000000e+01	 3.437500000000000e+01	 1.000105090384615e+01
0	 2.187500000000001e+01	 3.499999999999999e+01	 1.000097578769230e+01
0	 2.187500000000001e+01	 3.562499999999999e+01	 1.000090022384615e+01
0	 2.187500000000000e+01	 3.624999999999998e+01	 1.000082421230769e+01
0	 2.187500000000000e+01	 3.687499999999999e+01	 1.000074775307692e+01
0	 2.187500000000000e+01	 3.750000000000001e+01	 1.000067084615385e+01
0	 2.250000000000000e+01	 3.125000000000000e+01	 1.000146323076922e+01
0	 2.250000000000000e+01	 3.187500000000000e+01	 1.000139081999998e+01
0	 2.250000000000000e+01	 3.250000000000000e+01	 1.000131788307691e+01
0	 2.250000000000000e+01	 3.312499999999999e+01	 1.000124442000000e+01
0	 2.250000000000001e+01	 3.374999999999999e+01	 1.000117043076923e+01
0	 2.250000000000000e+01	 3.437499999999999e+01	 1.000109591538461e+01
0	 2.250000000000000e+01	 3.499999999999998e+01	 1.000102087384616e+01
0	 2.250000000000000e+01	 3.562499999999999e+01	 1.000094530615385e+01
0	 2.250000000000000e+01	 3.624999999999999e+01	 1.000086921230769e+01
0	 2.250000000000000e+01	 3.687499999999998e+01	 1.000079259230770e+01
0	 2.250000000000000e+01	 3.750000000000000e+01	 1.000071544615385e+01
0	 2.312500000000001e+01	 3.125000000000000e+01	 1.000149743076922e+01
0	 2.312500000000001e+01	 3.187500000000000e+01	 1.000142507769230e+01
0	 2.312500000000000e+01	 3.249999999999999e+01	 1.000135211999999e+01
0	 2.312500000000000e+01	 3.312499999999999e+01	 1.000127855769231e+01
0	 2.312500000000001e+01	 3.374999999999999e+01	 1.000120439076923e+01
0	 2.312500000000001e+01	 3.437500000000000e+01	 1.000112961923077e+01
0	 2.312500000000001e+01	 3.499999999999999e+01	 1.000105424307693e+01
0	 2.312500000000001e+01	 3.562499999999999e+01	 1.000097826230769e+01
0	 2.312500000000000e+01	 3.624999999999998e+01	 1.000090167692308e+01
0	 2.312500000000001e+01	 3.687499999999999e+01	 1.000082448692307e+01
0	 2.312500000000001e+01	 3.750000000000000e+01	 1.000074669230771e+01
0	 2.375000000000000e+01	 3.125000000000000e+01	 1.000152236923076e+01
0	 2.375000000000000e+01	 3.187500000000000e+01	 1.000144966461537e+01
0	 2.375000000000001e+01	 3.249999999999999e+01	 1.000137627692307e+01
0	 2.375000000000000e+01	 3.312499999999999e+01	 1.000130220615384e+01
0	 2.375000000000001e+01	 3.374999999999999e+01	 1.000122745230769e+01
0	 2.375000000000000e+01	 3.437499999999999e+01	 1.000115201538461e+01
0	 2.375000000000001e+01	 3.499999999999999e+01	 1.000107589538461e+01
0	 2.375000000000000e+01	 3.562499999999999e+01	 1.000099909230769e+01
0	 2.375000000000000e+01	 3.624999999999998e+01	 1.000092160615385e+01
0	 2.375000000000000e+01	 3.687499999999998e+01	 1.000084343692308e+01
0	 2.375000000000000e+01	 3.750000000000000e+01	 1.000076458461539e+01
0	 2.437500000000001e+01	 3.125000000000000e+01	 1.000153804615384e+01
0	 2.437500000000000e+01	 3.187499999999999e+01	 1.000146458076923e+01
0	 2.437500000000000e+01	 3.250000000000000e+01	 1.000139035384615e+01
0	 2.437500000000001e+01	 3.312500000000000e+01	 1.000131536538461e+01
0	 2.437500000000001e+01	 3.374999999999999e+01	 1.000123961538462e+01
0	 2.437500000000000e+01	 3.437499999999998e+01	 1.000116310384615e+01
0	 2.437500000000001e+01	 3.499999999999999e+01	 1.000108583076923e+01
0	 2.437500000000001e+01	 3.562499999999999e+01	 1.000100779615385e+01
0	 2.437500000000001e+01	 3.624999999999999e+01	 1.000092900000001e+01
0	 2.437500000000001e+01	 3.687499999999998e+01	 1.000084944230770e+01
0	 2.437500000000001e+01	 3.750000000000000e+01	 1.000076912307692e+01
0	 2.500000000000000e+01	 3.125000000000000e+01	 1.000154446153846e+01
0	 2.500000000000000e+01	 3.187500000000000e+01	 1.000146982615384e+01
0	 2.500000000000000e+01	 3.250000000000001e+01	 1.000139435076922e+01
0	 2.500000000000000e+01	 3.312499999999999e+01	 1.000131803538461e+01
0	 2.500000000000000e+01	 3.374999999999999e+01	 1.000124088000000e+01
0	 2.500000000000000e+01	 3.437499999999999e+01	 1.000116288461538e+01
0	 2.500000000000000e+01	 3.499999999999999e+01	 1.000108404923077e+01
0	 2.500000000000000e+01	 3.562499999999999e+01	 1.000100437384615e+01
0	 2.500000000000000e+01	 3.624999999999998e+01	 1.000092385846154e+01
0	 2.500000000000000e+01	 3.687499999999998e+01	 1.000084250307691e+01
0	 2.500000000000000e+01	 3.750000000000000e+01	 1.000076030769231e+01
0	 1.875000000000000e+01	 3.750000000000000e+01	 1.000024753846154e+01
0	 1.875000000000000e+01	 3.812500000000000e+01	 1.000025099076923e+01
0	 1.875000000000001e+01	 3.875000000000001e+01	 1.000025064000000e+01
0	 1.875000000000000e+01	 3.937499999999999e+01	 1.000024648615385e+01
0	 1.875000000000000e+01	 3.999999999999999e+01	 1.000023852923077e+01
0	 1.875000000000000e+01	 4.062499999999999e+01	 1.000022676923076e+01
0	 1.875000000000000e+01	 4.124999999999999e+01	 1.000021120615384e+01
0	 1.875000000000000e+01	 4.187499999999999e+01	 1.000019183999998e+01
0	 1.875000000000000e+01	 4.249999999999999e+01	 1.000016867076922e+01
0	 1.875000000000000e+01	 4.312499999999999e+01	 1.000014169846152e+01
0	 1.875000000000000e+01	 4.375000000000000e+01	 1.000011092307691e+01
0	 1.937500000000000e+01	 3.750000000000000e+01	 1.000035890769230e+01
0	 1.937500000000000e+01	 3.812499999999999e+01	 1.000035025553846e+01
0	 1.937500000000000e+01	 3.874999999999999e+01	 1.000033799138462e+01
0	 1.937500000000000e+01	 3.937499999999999e+01	 1.000032211523077e+01
0	 1.937500000000000e+01	 3.999999999999998e+01	 1.000030262707692e+01
0	 1.937500000000000e+01	 4.062499999999999e+01	 1.000027952692307e+01
0	 1.937500000000000e+01	 4.124999999999999e+01	 1.000025281476923e+01
0	 1.937500000000000e+01	 4.187499999999998e+01	 1.000022249061538e+01
0	 1.937500000000000e+01	 4.249999999999998e+01	 1.000018855446154e+01
0	 1.937500000000000e+01	 4.312499999999997e+01	 1.000015100630768e+01
0	 1.937500000000000e+01	 4.375000000000000e+01	 1.000010984615383e+01
0	 2.000000000000000e+01	 3.750000000000000e+01	 1.000045692307692e+01
0	 2.000000000000000e+01	 3.812500000000000e+01	 1.000043754492308e+01
0	 2.000000000000000e+01	 3.874999999999999e+01	 1.000041474584615e+01
0	 2.000000000000000e+01	 3.937499999999999e+01	 1.000038852584616e+01
0	 2.000000000000000e+01	 3.999999999999999e+01	 1.000035888492307e+01
0	 2.000000000000000e+01	 4.062499999999999e+01	 1.000032582307692e+01
0	 2.000000000000000e+01	 4.124999999999998e+01	 1.000028934030769e+01
0	 2.000000000000000e+01	 4.187499999999999e+01	 1.000024943661539e+01
0	 2.000000000000000e+01	 4.249999999999998e+01	 1.000020611200000e+01
0	 2.000000000000000e+01	 4.312499999999997e+01	 1.000015936646154e+01
0	 2.000000000000000e+01	 4.375000000000000e+01	 1.000010919999998e+01
0	 2.062500000000000e+01	 3.749999999999999e+01	 1.000054158461539e+01
0	 2.062500000000000e+01	 3.812500000000001e+01	 1.000051285892308e+01
0	 2.062500000000000e+01	 3.875000000000000e+01	 1.000048090338462e+01
0	 2.062500000000000e+01	 3.937499999999999e+01	 1.000044571800000e+01
0	 2.062500000000000e+01	 3.999999999999998e+01	 1.000040730276923e+01
0	 2.062500000000000e+01	 4.062499999999999e+01	 1.000036565769230e+01
0	 2.062500000000000e+01	 4.124999999999999e+01	 1.000032078276923e+01
0	 2.062500000000000e+01	 4.187499999999998e+01	 1.000027267800000e+01
0	 2.062500000000000e+01	 4.249999999999998e+01	 1.000022134338462e+01
0	 2.062500000000000e+01	 4.312499999999997e+01	 1.000016677892307e+01
0	 2.062500000000000e+01	 4.374999999999999e+01	 1.000010898461538e+01
0	 2.125000000000001e+01	 3.749999999999999e+01	 1.000061289230769e+01
0	 2.125000000000001e+01	 3.812500000000001e+01	 1.000057619753846e+01
0	 2.125000000000000e+01	 3.875000000000000e+01	 1.000053646400001e+01
0	 2.125000000000000e+01	 3.937499999999999e+01	 1.000049369169231e+01
0	 2.125000000000000e+01	 3.999999999999999e+01	 1.000044788061539e+01
0	 2.125000000000000e+01	 4.062499999999999e+01	 1.000039903076923e+01
0	 2.125000000000000e+01	 4.125000000000000e+01	 1.000034714215384e+01
0	 2.125000000000000e+01	 4.187499999999998e+01	 1.000029221476922e+01
0	 2.125000000000000e+01	 4.249999999999999e+01	 1.000023424861539e+01
0	 2.125000000000000e+01	 4.312499999999999e+01	 1.000017324369230e+01
0	 2.125000000000001e+01	 4.375000000000000e+01	 1.000010919999998e+01
0	 2.187500000000000e+01	 3.750000000000001e+01	 1.000067084615385e+01
0	 2.187500000000000e+01	 3.812500000000001e+01	 1.000062756076924e+01
0	 2.187500000000000e+01	 3.874999999999999e+01	 1.000058142769231e+01
0	 2.187500000000001e+01	 3.937499999999999e+01	 1.000053244692307e+01
0	 2.187500000000000e+01	 3.999999999999999e+01	 1.000048061846154e+01
0	 2.187500000000000e+01	 4.062500000000000e+01	 1.000042594230770e+01
0	 2.187500000000001e+01	 4.124999999999999e+01	 1.000036841846154e+01
0	 2.187500000000001e+01	 4.187500000000000e+01	 1.000030804692308e+01
0	 2.187500000000000e+01	 4.249999999999999e+01	 1.000024482769230e+01
0	 2.187500000000000e+01	 4.312499999999998e+01	 1.000017876076921e+01
0	 2.187500000000000e+01	 4.375000000000000e+01	 1.000010984615383e+01
0	 2.250000000000000e+01	 3.750000000000000e+01	 1.000071544615385e+01
0	 2.250000000000000e+01	 3.812500000000000e+01	 1.000066694861538e+01
0	 2.250000000000000e+01	 3.874999999999999e+01	 1.000061579446154e+01
0	 2.250000000000000e+01	 3.937499999999999e+01	 1.000056198369231e+01
0	 2.250000000000001e+01	 4.000000000000000e+01	 1.000050551630770e+01
0	 2.250000000000000e+01	 4.062499999999999e+01	 1.000044639230769e+01
0	 2.250000000000000e+01	 4.124999999999998e+01	 1.000038461169231e+01
0	 2.250000000000000e+01	 4.187499999999999e+01	 1.000032017446154e+01
0	 2.250000000000000e+01	 4.249999999999999e+01	 1.000025308061538e+01
0	 2.250000000000000e+01	 4.312499999999998e+01	 1.000018333015384e+01
0	 2.250000000000000e+01	 4.375000000000000e+01	 1.000011092307691e+01
0	 2.312500000000001e+01	 3.750000000000000e+01	 1.000074669230771e+01
0	 2.312500000000001e+01	 3.812500000000000e+01	 1.000069436107692e+01
0	 2.312500000000000e+01	 3.874999999999999e+01	 1.000063956430769e+01
0	 2.312500000000000e+01	 3.937499999999999e+01	 1.000058230200000e+01
0	 2.312500000000001e+01	 3.999999999999999e+01	 1.000052257415385e+01
0	 2.312500000000001e+01	 4.062499999999999e+01	 1.000046038076923e+01
0	 2.312500000000001e+01	 4.124999999999999e+01	 1.000039572184614e+01
0	 2.312500000000001e+01	 4.187499999999999e+01	 1.000032859738461e+01
0	 2.312500000000000e+01	 4.249999999999998e+01	 1.000025900738461e+01
0	 2.312500000000001e+01	 4.312499999999999e+01	 1.000018695184614e+01
0	 2.312500000000001e+01	 4.375000000000000e+01	 1.000011243076921e+01
0	 2.375000000000000e+01	 3.750000000000000e+01	 1.000076458461539e+01
0	 2.375000000000000e+01	 3.812500000000000e+01	 1.000070979815384e+01
0	 2.375000000000001e+01	 3.875000000000000e+01	 1.000065273723078e+01
0	 2.375000000000000e+01	 3.937499999999999e+01	 1.000059340184616e+01
0	 2.375000000000001e+01	 3.999999999999999e+01	 1.000053179200000e+01
0	 2.375000000000000e+01	 4.062499999999999e+01	 1.000046790769230e+01
0	 2.375000000000001e+01	 4.124999999999999e+01	 1.000040174892308e+01
0	 2.375000000000000e+01	 4.187499999999999e+01	 1.000033331569230e+01
0	 2.375000000000000e+01	 4.249999999999999e+01	 1.000026260800000e+01
0	 2.375000000000000e+01	 4.312499999999998e+01	 1.000018962584614e+01
0	 2.375000000000000e+01	 4.375000000000001e+01	 1.000011436923075e+01
0	 2.437500000000001e+01	 3.750000000000000e+01	 1.000076912307692e+01
0	 2.437500000000000e+01	 3.812499999999999e+01	 1.000071325984616e+01
0	 2.437500000000000e+01	 3.874999999999999e+01	 1.000065531323077e+01
0	 2.437500000000001e+01	 3.937499999999999e+01	 1.000059528323077e+01
0	 2.437500000000001e+01	 3.999999999999999e+01	 1.000053316984615e+01
0	 2.437500000000000e+01	 4.062499999999998e+01	 1.000046897307692e+01
0	 2.437500000000001e+01	 4.124999999999999e+01	 1.000040269292307e+01
0	 2.437500000000001e+01	 4.187499999999998e+01	 1.000033432938461e+01
0	 2.437500000000001e+01	 4.249999999999998e+01	 1.000026388246153e+01
0	 2.437500000000001e+01	 4.312499999999999e+01	 1.000019135215384e+01
0	 2.437500000000001e+01	 4.375000000000000e+01	 1.000011673846153e+01
0	 2.500000000000000e+01	 3.750000000000000e+01	 1.000076030769231e+01
0	 2.500000000000000e+01	 3.812500000000000e+01	 1.000070474615385e+01
0	 2.500000000000000e+01	 3.875000000000001e+01	 1.000064729230770e+01
0	 2.500000000000000e+01	 3.937499999999999e+01	 1.000058794615385e+01
0	 2.500000000000000e+01	 3.999999999999999e+01	 1.000052670769231e+01
0	 2.500000000000000e+01	 4.062499999999999e+01	 1.000046357692307e+01
0	 2.500000000000000e+01	 4.124999999999999e+01	 1.000039855384615e+01
0	 2.500000000000000e+01	 4.187499999999999e+01	 1.000033163846153e+01
0	 2.500000000000000e+01	 4.249999999999999e+01	 1.000026283076922e+01
0	 2.500000000000000e+01	 4.312499999999999e+01	 1.000019213076921e+01
0	 2.500000000000000e+01	 4.375000000000000e+01	 1.000011953846153e+01
0	 1.875000000000000e+01	 4.375000000000000e+01	 1.000011092307691e+01
0	 1.875000000000000e+01	 4.437500000000000e+01	 1.000009654923076e+01
0	 1.875000000000000e+01	 4.499999999999999e+01	 1.000008216615383e+01
0	 1.875000000000000e+01	 4.562499999999999e+01	 1.000006777384615e+01
0	 1.875000000000000e+01	 4.624999999999999e+01	 1.000005337230768e+01
0	 1.875000000000000e+01	 4.687499999999999e+01	 1.000003896153846e+01
0	 1.875000000000000e+01	 4.749999999999999e+01	 1.000002454153846e+01
0	 1.875000000000000e+01	 4.812499999999999e+01	 1.000001011230771e+01
0	 1.875000000000000e+01	 4.874999999999999e+01	 9.999995673846129e+00
0	 1.875000000000000e+01	 4.937499999999999e+01	 9.999981226153821e+00
0	 1.875000000000000e+01	 5.000000000000000e+01	 9.999966769230770e+00
0	 1.937500000000000e+01	 4.375000000000000e+01	 1.000010984615383e+01
0	 1.937500000000000e+01	 4.437499999999999e+01	 1.000009966307691e+01
0	 1.937500000000000e+01	 4.499999999999999e+01	 1.000008887999999e+01
0	 1.937499999999999e+01	 4.562499999999999e+01	 1.000007749692306e+01
0	 1.937500000000001e+01	 4.625000000000000e+01	 1.000006551384614e+01
0	 1.937500000000000e+01	 4.687499999999999e+01	 1.000005293076923e+01
0	 1.937500000000000e+01	 4.749999999999999e+01	 1.000003974769230e+01
0	 1.937500000000000e+01	 4.812499999999999e+01	 1.000002596461536e+01
0	 1.937500000000000e+01	 4.874999999999998e+01	 1.000001158153844e+01
0	 1.937500000000000e+01	 4.937499999999997e+01	 9.999996598461534e+00
0	 1.937500000000000e+01	 5.000000000000000e+01	 9.999981015384627e+00
0	 2.000000000000000e+01	 4.375000000000000e+01	 1.000010919999998e+01
0	 2.000000000000000e+01	 4.437499999999999e+01	 1.000010269076921e+01
0	 2.000000000000000e+01	 4.499999999999999e+01	 1.000009499076923e+01
0	 2.000000000000000e+01	 4.562499999999999e+01	 1.000008610000000e+01
0	 2.000000000000000e+01	 4.624999999999999e+01	 1.000007601846153e+01
0	 2.000000000000000e+01	 4.687499999999999e+01	 1.000006474615384e+01
0	 2.000000000000000e+01	 4.749999999999999e+01	 1.000005228307692e+01
0	 2.000000000000000e+01	 4.812499999999999e+01	 1.000003862923076e+01
0	 2.000000000000000e+01	 4.874999999999996e+01	 1.000002378461538e+01
0	 2.000000000000000e+01	 4.937499999999998e+01	 1.000000774923076e+01
0	 2.000000000000000e+01	 5.000000000000000e+01	 9.999990523076905e+00
0	 2.062500000000000e+01	 4.374999999999999e+01	 1.000010898461538e+01
0	 2.062500000000000e+01	 4.437499999999999e+01	 1.000010563230768e+01
0	 2.062500000000000e+01	 4.499999999999999e+01	 1.000010049846152e+01
0	 2.062500000000000e+01	 4.562499999999999e+01	 1.000009358307691e+01
0	 2.062500000000000e+01	 4.624999999999998e+01	 1.000008488615383e+01
0	 2.062500000000000e+01	 4.687499999999999e+01	 1.000007440769229e+01
0	 2.062500000000000e+01	 4.749999999999998e+01	 1.000006214769229e+01
0	 2.062500000000000e+01	 4.812499999999998e+01	 1.000004810615384e+01
0	 2.062500000000001e+01	 4.874999999999999e+01	 1.000003228307691e+01
0	 2.062500000000000e+01	 4.937499999999999e+01	 1.000001467846155e+01
0	 2.062500000000001e+01	 5.000000000000001e+01	 9.999995292307666e+00
0	 2.125000000000001e+01	 4.375000000000000e+01	 1.000010919999998e+01
0	 2.125000000000000e+01	 4.437500000000000e+01	 1.000010848769230e+01
0	 2.125000000000000e+01	 4.500000000000000e+01	 1.000010540307692e+01
0	 2.125000000000001e+01	 4.562500000000000e+01	 1.000009994615384e+01
0	 2.125000000000000e+01	 4.624999999999999e+01	 1.000009211692306e+01
0	 2.125000000000000e+01	 4.687499999999999e+01	 1.000008191538462e+01
0	 2.125000000000000e+01	 4.749999999999999e+01	 1.000006934153847e+01
0	 2.125000000000001e+01	 4.812499999999999e+01	 1.000005439538459e+01
0	 2.125000000000000e+01	 4.874999999999999e+01	 1.000003707692307e+01
0	 2.125000000000000e+01	 4.937499999999997e+01	 1.000001738615389e+01
0	 2.125000000000000e+01	 5.000000000000001e+01	 9.999995323076906e+00
0	 2.187500000000000e+01	 4.375000000000000e+01	 1.000010984615383e+01
0	 2.187500000000001e+01	 4.437500000000000e+01	 1.000011125692306e+01
0	 2.187500000000000e+01	 4.500000000000000e+01	 1.000010970461538e+01
0	 2.187500000000001e+01	 4.562500000000000e+01	 1.000010518923076e+01
0	 2.187500000000000e+01	 4.624999999999999e+01	 1.000009771076923e+01
0	 2.187500000000000e+01	 4.687499999999999e+01	 1.000008726923076e+01
0	 2.187500000000000e+01	 4.749999999999999e+01	 1.000007386461537e+01
0	 2.187500000000000e+01	 4.812499999999999e+01	 1.000005749692307e+01
0	 2.187500000000000e+01	 4.874999999999998e+01	 1.000003816615384e+01
0	 2.187500000000000e+01	 4.937499999999998e+01	 1.000001587230770e+01
0	 2.187500000000000e+01	 5.000000000000000e+01	 9.999990615384615e+00
0	 2.250000000000000e+01	 4.375000000000000e+01	 1.000011092307691e+01
0	 2.250000000000000e+01	 4.437499999999999e+01	 1.000011393999998e+01
0	 2.250000000000000e+01	 4.499999999999999e+01	 1.000011340307692e+01
0	 2.250000000000000e+01	 4.562499999999999e+01	 1.000010931230769e+01
0	 2.250000000000000e+01	 4.624999999999999e+01	 1.000010166769230e+01
0	 2.250000000000000e+01	 4.687499999999998e+01	 1.000009046923077e+01
0	 2.250000000000000e+01	 4.749999999999999e+01	 1.000007571692307e+01
0	 2.250000000000001e+01	 4.812499999999999e+01	 1.000005741076923e+01
0	 2.250000000000000e+01	 4.874999999999998e+01	 1.000003555076922e+01
0	 2.250000000000000e+01	 4.937499999999999e+01	 1.000001013692306e+01
0	 2.250000000000000e+01	 5.000000000000000e+01	 9.999981169230793e+00
0	 2.312500000000001e+01	 4.375000000000000e+01	 1.000011243076921e+01
0	 2.312500000000001e+01	 4.437500000000001e+01	 1.000011653692307e+01
0	 2.312500000000000e+01	 4.499999999999999e+01	 1.000011649846153e+01
0	 2.312500000000001e+01	 4.562500000000000e+01	 1.000011231538461e+01
0	 2.312500000000001e+01	 4.624999999999999e+01	 1.000010398769230e+01
0	 2.312500000000000e+01	 4.687499999999999e+01	 1.000009151538461e+01
0	 2.312500000000000e+01	 4.749999999999998e+01	 1.000007489846154e+01
0	 2.312500000000001e+01	 4.812500000000000e+01	 1.000005413692308e+01
0	 2.312500000000000e+01	 4.874999999999998e+01	 1.000002923076923e+01
0	 2.312500000000001e+01	 4.937499999999998e+01	 1.000000018000001e+01
0	 2.312500000000001e+01	 5.000000000000000e+01	 9.999966984615400e+00
0	 2.375000000000000e+01	 4.375000000000001e+01	 1.000011436923075e+01
0	 2.375000000000000e+01	 4.437499999999999e+01	 1.000011904769230e+01
0	 2.375000000000001e+01	 4.499999999999999e+01	 1.000011899076922e+01
0	 2.375000000000001e+01	 4.562500000000000e+01	 1.000011419846153e+01
0	 2.375000000000001e+01	 4.625000000000000e+01	 1.000010467076922e+01
0	 2.375000000000000e+01	 4.687499999999999e+01	 1.000009040769230e+01
0	 2.375000000000001e+01	 4.749999999999999e+01	 1.000007140923075e+01
0	 2.375000000000000e+01	 4.812499999999999e+01	 1.000004767538460e+01
0	 2.375000000000001e+01	 4.874999999999998e+01	 1.000001920615383e+01
0	 2.375000000000000e+01	 4.937499999999998e+01	 9.999986001538456e+00
0	 2.375000000000001e+01	 5.000000000000000e+01	 9.999948061538484e+00
0	 2.437500000000001e+01	 4.375000000000000e+01	 1.000011673846153e+01
0	 2.437500000000000e+01	 4.437500000000000e+01	 1.000012147230768e+01
0	 2.437500000000001e+01	 4.500000000000000e+01	 1.000012087999999e+01
0	 2.437500000000001e+01	 4.562500000000000e+01	 1.000011496153846e+01
0	 2.437500000000000e+01	 4.624999999999999e+01	 1.000010371692306e+01
0	 2.437500000000001e+01	 4.687499999999999e+01	 1.000008714615385e+01
0	 2.437500000000001e+01	 4.749999999999999e+01	 1.000006524923078e+01
0	 2.437500000000001e+01	 4.812499999999999e+01	 1.000003802615384e+01
0	 2.437500000000000e+01	 4.874999999999998e+01	 1.000000547692308e+01
0	 2.437500000000000e+01	 4.937499999999996e+01	 9.999967601538444e+00
0	 2.437500000000001e+01	 5.000000000000000e+01	 9.999924399999987e+00
0	 2.500000000000000e+01	 4.375000000000000e+01	 1.000011953846153e+01
0	 2.500000000000000e+01	 4.437500000000000e+01	 1.000012381076923e+01
0	 2.500000000000000e+01	 4.499999999999999e+01	 1.000012216615384e+01
0	 2.500000000000000e+01	 4.562499999999999e+01	 1.000011460461537e+01
0	 2.500000000000000e+01	 4.624999999999999e+01	 1.000010112615384e+01
0	 2.500000000000000e+01	 4.687499999999999e+01	 1.000008173076923e+01
0	 2.500000000000000e+01	 4.749999999999999e+01	 1.000005641846153e+01
0	 2.500000000000000e+01	 4.812499999999999e+01	 1.000002518923078e+01
0	 2.500000000000000e+01	 4.874999999999999e+01	 9.999988043076900e+00
0	 2.500000000000000e+01	 4.937499999999999e+01	 9.999944979999970e+00
0	 2.500000000000000e+01	 5.000000000000000e+01	 9.999896000000000e+00
0	 2.500000000000000e+01	 0.000000000000000e+00	 1.000250738461538e+01
0	 2.500000000000000e+01	 6.250000000000000e-01	 1.000316673076923e+01
0	 2.500000000000000e+01	 1.250000000000000e+00	 1.000376852307692e+01
0	 2.500000000000000e+01	 1.875000000000000e+00	 1.000431276153846e+01
0	 2.500000000000000e+01	 2.500000000000000e+00	 1.000479944615384e+01
0	 2.500000000000000e+01	 3.125000000000000e+00	 1.000522857692308e+01
0	 2.500000000000000e+01	 3.750000000000000e+00	 1.000560015384615e+01
0	 2.500000000000000e+01	 4.375000000000000e+00	 1.000591417692308e+01
0	 2.500000000000000e+01	 5.000000000000000e+00	 1.000617064615384e+01
0	 2.500000000000000e+01	 5.624999999999999e+00	 1.000636956153846e+01
0	 2.500000000000000e+01	 6.250000000000000e+00	 1.000651092307692e+01
0	 2.562500000000000e+01	 0.000000000000000e+00	 1.000285512923077e+01
0	 2.562499999999999e+01	 6.249999999999999e-01	 1.000336586676923e+01
0	 2.562499999999999e+01	 1.250000000000000e+00	 1.000382436276923e+01
0	 2.562499999999999e+01	 1.875000000000000e+00	 1.000423061723077e+01
0	 2.562499999999999e+01	 2.500000000000000e+00	 1.000458463015384e+01
0	 2.562500000000000e+01	 3.125000000000000e+00	 1.000488640153846e+01
0	 2.562500000000000e+01	 3.750000000000000e+00	 1.000513593138461e+01
0	 2.562500000000000e+01	 4.375000000000001e+00	 1.000533321969231e+01
0	 2.562500000000000e+01	 5.000000000000000e+00	 1.000547826646154e+01
0	 2.562500000000000e+01	 5.625000000000000e+00	 1.000557107169231e+01
0	 2.562500000000000e+01	 6.250000000000000e+00	 1.000561163538461e+01
0	 2.625000000000000e+01	 0.000000000000000e+00	 1.000312537846154e+01
0	 2.625000000000000e+01	 6.250000000000001e-01	 1.000350542092307e+01
0	 2.624999999999999e+01	 1.250000000000000e+00	 1.000383853415384e+01
0	 2.625000000000000e+01	 1.875000000000000e+00	 1.000412471815385e+01
0	 2.625000000000000e+01	 2.500000000000000e+00	 1.000436397292307e+01
0	 2.625000000000000e+01	 3.125000000000000e+00	 1.000455629846153e+01
0	 2.624999999999999e+01	 3.750000000000001e+00	 1.000470169476923e+01
0	 2.625000000000000e+01	 4.374999999999999e+00	 1.000480016184615e+01
0	 2.625000000000000e+01	 5.000000000000000e+00	 1.000485169969231e+01
0	 2.625000000000000e+01	 5.624999999999999e+00	 1.000485630830769e+01
0	 2.624999999999999e+01	 6.250000000000000e+00	 1.000481398769231e+01
0	 2.687499999999999e+01	 0.000000000000000e+00	 1.000331813230769e+01
0	 2.687499999999999e+01	 6.250000000000000e-01	 1.000358539323077e+01
0	 2.687499999999999e+01	 1.250000000000000e+00	 1.000381103723077e+01
0	 2.687500000000000e+01	 1.875000000000000e+00	 1.000399506430769e+01
0	 2.687500000000000e+01	 2.500000000000001e+00	 1.000413747446154e+01
0	 2.687499999999999e+01	 3.125000000000000e+00	 1.000423826769231e+01
0	 2.687499999999999e+01	 3.750000000000000e+00	 1.000429744400000e+01
0	 2.687499999999999e+01	 4.375000000000000e+00	 1.000431500338461e+01
0	 2.687499999999999e+01	 4.999999999999998e+00	 1.000429094584615e+01
0	 2.687499999999999e+01	 5.625000000000001e+00	 1.000422527138461e+01
0	 2.687499999999999e+01	 6.249999999999999e+00	 1.000411798000000e+01
0	 2.749999999999999e+01	 0.000000000000000e+00	 1.000343339076923e+01
0	 2.749999999999998e+01	 6.249999999999999e-01	 1.000360578369231e+01
0	 2.749999999999999e+01	 1.250000000000000e+00	 1.000374187200000e+01
0	 2.749999999999999e+01	 1.875000000000000e+00	 1.000384165569230e+01
0	 2.749999999999999e+01	 2.500000000000000e+00	 1.000390513476923e+01
0	 2.750000000000000e+01	 3.125000000000000e+00	 1.000393230923077e+01
0	 2.749999999999999e+01	 3.750000000000000e+00	 1.000392317907692e+01
0	 2.750000000000000e+01	 4.375000000000001e+00	 1.000387774430769e+01
0	 2.749999999999999e+01	 5.000000000000000e+00	 1.000379600492307e+01
0	 2.749999999999999e+01	 5.625000000000000e+00	 1.000367796092308e+01
0	 2.749999999999999e+01	 6.250000000000000e+00	 1.000352361230769e+01
0	 2.812499999999999e+01	 0.000000000000000e+00	 1.000347115384615e+01
0	 2.812499999999998e+01	 6.249999999999998e-01	 1.000356659230769e+01
0	 2.812499999999999e+01	 1.250000000000000e+00	 1.000363103846154e+01
0	 2.812499999999999e+01	 1.875000000000000e+00	 1.000366449230769e+01
0	 2.812499999999998e+01	 2.500000000000000e+00	 1.000366695384615e+01
0	 2.812499999999999e+01	 3.125000000000000e+00	 1.000363842307692e+01
0	 2.812499999999999e+01	 3.750000000000000e+00	 1.000357890000000e+01
0	 2.812499999999999e+01	 4.375000000000000e+00	 1.000348838461539e+01
0	 2.812499999999999e+01	 4.999999999999998e+00	 1.000336687692308e+01
0	 2.812499999999999e+01	 5.625000000000001e+00	 1.000321437692308e+01
0	 2.812499999999999e+01	 6.249999999999999e+00	 1.000303088461538e+01
0	 2.874999999999999e+01	 0.000000000000000e+00	 1.000343142153846e+01
0	 2.874999999999999e+01	 6.250000000000001e-01	 1.000346781907692e+01
0	 2.874999999999998e+01	 1.250000000000000e+00	 1.000347853661538e+01
0	 2.874999999999999e+01	 1.875000000000000e+00	 1.000346357415385e+01
0	 2.874999999999999e+01	 2.500000000000000e+00	 1.000342293169230e+01
0	 2.874999999999999e+01	 3.125000000000000e+00	 1.000335660923077e+01
0	 2.874999999999999e+01	 3.750000000000000e+00	 1.000326460676923e+01
0	 2.874999999999999e+01	 4.375000000000001e+00	 1.000314692430769e+01
0	 2.874999999999998e+01	 4.999999999999999e+00	 1.000300356184615e+01
0	 2.874999999999999e+01	 5.624999999999999e+00	 1.000283451938461e+01
0	 2.874999999999999e+01	 6.250000000000000e+00	 1.000263979692308e+01
0	 2.937499999999999e+01	 0.000000000000000e+00	 1.000331419384615e+01
0	 2.937499999999999e+01	 6.250000000000000e-01	 1.000330946400000e+01
0	 2.937499999999998e+01	 1.250000000000000e+00	 1.000328436646154e+01
0	 2.937499999999998e+01	 1.875000000000000e+00	 1.000323890123077e+01
0	 2.937499999999998e+01	 2.500000000000000e+00	 1.000317306830769e+01
0	 2.937499999999999e+01	 3.125000000000000e+00	 1.000308686769230e+01
0	 2.937499999999999e+01	 3.750000000000000e+00	 1.000298029938461e+01
0	 2.937499999999999e+01	 4.375000000000000e+00	 1.000285336338462e+01
0	 2.937499999999998e+01	 5.000000000000000e+00	 1.000270605969230e+01
0	 2.937499999999999e+01	 5.625000000000000e+00	 1.000253838830769e+01
0	 2.937499999999999e+01	 6.250000000000000e+00	 1.000235034923077e+01
0	 2.999999999999998e+01	 0.000000000000000e+00	 1.000311947076923e+01
0	 2.999999999999999e+01	 6.250000000000000e-01	 1.000309152707692e+01
0	 2.999999999999999e+01	 1.250000000000000e+00	 1.000304852800000e+01
0	 2.999999999999999e+01	 1.875000000000001e+00	 1.000299047353846e+01
0	 2.999999999999998e+01	 2.500000000000000e+00	 1.000291736369230e+01
0	 2.999999999999998e+01	 3.124999999999999e+00	 1.000282919846154e+01
0	 2.999999999999998e+01	 3.750000000000000e+00	 1.000272597784615e+01
0	 2.999999999999999e+01	 4.375000000000000e+00	 1.000260770184616e+01
0	 2.999999999999999e+01	 4.999999999999999e+00	 1.000247437046154e+01
0	 2.999999999999999e+01	 5.625000000000000e+00	 1.000232598369231e+01
0	 2.999999999999998e+01	 6.250000000000000e+00	 1.000216254153846e+01
0	 3.062499999999998e+01	 0.000000000000000e+00	 1.000284725230769e+01
0	 3.062499999999998e+01	 6.250000000000000e-01	 1.000281400830769e+01
0	 3.062499999999998e+01	 1.250000000000000e+00	 1.000277102123077e+01
0	 3.062499999999999e+01	 1.875000000000000e+00	 1.000271829107692e+01
0	 3.062499999999998e+01	 2.500000000000000e+00	 1.000265581784615e+01
0	 3.062499999999998e+01	 3.125000000000000e+00	 1.000258360153846e+01
0	 3.062499999999998e+01	 3.750000000000000e+00	 1.000250164215385e+01
0	 3.062499999999998e+01	 4.375000000000000e+00	 1.000240993969231e+01
0	 3.062499999999998e+01	 4.999999999999999e+00	 1.000230849415384e+01
0	 3.062499999999998e+01	 5.624999999999999e+00	 1.000219730553846e+01
0	 3.062499999999998e+01	 6.250000000000000e+00	 1.000207637384615e+01
0	 3.125000000000000e+01	 0.000000000000000e+00	 1.000249753846153e+01
0	 3.125000000000000e+01	 6.250000000000000e-01	 1.000247690769231e+01
0	 3.125000000000000e+01	 1.250000000000000e+00	 1.000245184615384e+01
0	 3.125000000000000e+01	 1.875000000000000e+00	 1.000242235384615e+01
0	 3.125000000000000e+01	 2.500000000000000e+00	 1.000238843076923e+01
0	 3.125000000000000e+01	 3.125000000000000e+00	 1.000235007692308e+01
0	 3.125000000000000e+01	 3.750000000000000e+00	 1.000230729230769e+01
0	 3.125000000000000e+01	 4.375000000000000e+00	 1.000226007692308e+01
0	 3.125000000000000e+01	 5.000000000000000e+00	 1.000220843076923e+01
0	 3.125000000000000e+01	 5.624999999999999e+00	 1.000215235384615e+01
0	 3.125000000000000e+01	 6.250000000000000e+00	 1.000209184615385e+01
0	 2.500000000000000e+01	 6.250000000000000e+00	 1.000651092307692e+01
0	 2.500000000000000e+01	 6.875000000000000e+00	 1.000611368000000e+01
0	 2.500000000000000e+01	 7.500000000000002e+00	 1.000576078153846e+01
0	 2.500000000000000e+01	 8.125000000000004e+00	 1.000545222769230e+01
0	 2.500000000000000e+01	 8.750000000000004e+00	 1.000518801846154e+01
0	 2.500000000000000e+01	 9.375000000000004e+00	 1.000496815384616e+01
0	 2.500000000000000e+01	 1.000000000000000e+01	 1.000479263384615e+01
0	 2.500000000000000e+01	 1.062500000000000e+01	 1.000466145846154e+01
0	 2.500000000000000e+01	 1.125000000000001e+01	 1.000457462769231e+01
0	 2.500000000000000e+01	 1.187500000000001e+01	 1.000453214153846e+01
0	 2.500000000000000e+01	 1.250000000000000e+01	 1.000453400000000e+01
0	 2.562500000000000e+01	 6.250000000000000e+00	 1.000561163538461e+01
0	 2.562500000000000e+01	 6.874999999999999e+00	 1.000534668076923e+01
0	 2.562500000000000e+01	 7.500000000000002e+00	 1.000512078707692e+01
0	 2.562499999999999e+01	 8.125000000000002e+00	 1.000493395430769e+01
0	 2.562500000000000e+01	 8.750000000000004e+00	 1.000478618246154e+01
0	 2.562500000000000e+01	 9.375000000000004e+00	 1.000467747153846e+01
0	 2.562500000000000e+01	 1.000000000000001e+01	 1.000460782153846e+01
0	 2.562500000000000e+01	 1.062500000000001e+01	 1.000457723246154e+01
0	 2.562500000000000e+01	 1.125000000000001e+01	 1.000458570430769e+01
0	 2.562499999999999e+01	 1.187500000000000e+01	 1.000463323707692e+01
0	 2.562500000000000e+01	 1.250000000000000e+01	 1.000471983076923e+01
0	 2.624999999999999e+01	 6.250000000000000e+00	 1.000481398769231e+01
0	 2.625000000000000e+01	 6.875000000000002e+00	 1.000466516984615e+01
0	 2.625000000000000e+01	 7.500000000000002e+00	 1.000455012923077e+01
0	 2.625000000000000e+01	 8.125000000000002e+00	 1.000446886584615e+01
0	 2.625000000000000e+01	 8.750000000000002e+00	 1.000442137969231e+01
0	 2.625000000000000e+01	 9.375000000000004e+00	 1.000440767076923e+01
0	 2.625000000000000e+01	 1.000000000000001e+01	 1.000442773907692e+01
0	 2.625000000000000e+01	 1.062500000000000e+01	 1.000448158461538e+01
0	 2.624999999999999e+01	 1.125000000000001e+01	 1.000456920738462e+01
0	 2.625000000000000e+01	 1.187500000000000e+01	 1.000469060738461e+01
0	 2.624999999999999e+01	 1.250000000000000e+01	 1.000484578461538e+01
0	 2.687499999999999e+01	 6.249999999999999e+00	 1.000411798000000e+01
0	 2.687499999999999e+01	 6.875000000000001e+00	 1.000406914723077e+01
0	 2.687499999999999e+01	 7.500000000000000e+00	 1.000404880800000e+01
0	 2.687499999999999e+01	 8.125000000000002e+00	 1.000405696230769e+01
0	 2.687499999999999e+01	 8.750000000000004e+00	 1.000409361015385e+01
0	 2.687500000000000e+01	 9.375000000000004e+00	 1.000415875153846e+01
0	 2.687499999999999e+01	 1.000000000000000e+01	 1.000425238646154e+01
0	 2.687500000000000e+01	 1.062500000000000e+01	 1.000437451492308e+01
0	 2.687499999999999e+01	 1.125000000000000e+01	 1.000452513692307e+01
0	 2.687500000000000e+01	 1.187500000000000e+01	 1.000470425246153e+01
0	 2.687499999999999e+01	 1.250000000000000e+01	 1.000491186153847e+01
0	 2.749999999999999e+01	 6.250000000000000e+00	 1.000352361230769e+01
0	 2.749999999999999e+01	 6.875000000000002e+00	 1.000355861292308e+01
0	 2.749999999999999e+01	 7.499999999999999e+00	 1.000361682338461e+01
0	 2.749999999999999e+01	 8.125000000000002e+00	 1.000369824369231e+01
0	 2.749999999999999e+01	 8.750000000000004e+00	 1.000380287384615e+01
0	 2.749999999999998e+01	 9.375000000000004e+00	 1.000393071384615e+01
0	 2.750000000000000e+01	 1.000000000000001e+01	 1.000408176369231e+01
0	 2.749999999999999e+01	 1.062500000000001e+01	 1.000425602338461e+01
0	 2.750000000000000e+01	 1.125000000000001e+01	 1.000445349292307e+01
0	 2.749999999999999e+01	 1.187500000000001e+01	 1.000467417230769e+01
0	 2.749999999999999e+01	 1.250000000000000e+01	 1.000491806153846e+01
0	 2.812499999999999e+01	 6.249999999999999e+00	 1.000303088461538e+01
0	 2.812499999999998e+01	 6.875000000000000e+00	 1.000313356692307e+01
0	 2.812499999999999e+01	 7.500000000000001e+00	 1.000325417538461e+01
0	 2.812499999999999e+01	 8.125000000000002e+00	 1.000339271000000e+01
0	 2.812499999999999e+01	 8.750000000000004e+00	 1.000354917076923e+01
0	 2.812499999999999e+01	 9.375000000000002e+00	 1.000372355769231e+01
0	 2.812499999999999e+01	 1.000000000000000e+01	 1.000391587076923e+01
0	 2.812499999999999e+01	 1.062500000000001e+01	 1.000412611000000e+01
0	 2.812499999999999e+01	 1.125000000000001e+01	 1.000435427538461e+01
0	 2.812499999999999e+01	 1.187500000000001e+01	 1.000460036692308e+01
0	 2.812499999999999e+01	 1.250000000000000e+01	 1.000486438461538e+01
0	 2.874999999999999e+01	 6.250000000000000e+00	 1.000263979692308e+01
0	 2.874999999999998e+01	 6.874999999999998e+00	 1.000279400923076e+01
0	 2.874999999999999e+01	 7.500000000000002e+00	 1.000296086400000e+01
0	 2.874999999999999e+01	 8.125000000000000e+00	 1.000314036123077e+01
0	 2.874999999999998e+01	 8.750000000000002e+00	 1.000333250092307e+01
0	 2.874999999999999e+01	 9.375000000000004e+00	 1.000353728307692e+01
0	 2.874999999999998e+01	 1.000000000000000e+01	 1.000375470769231e+01
0	 2.874999999999999e+01	 1.062500000000001e+01	 1.000398477476923e+01
0	 2.874999999999999e+01	 1.125000000000001e+01	 1.000422748430769e+01
0	 2.874999999999998e+01	 1.187500000000000e+01	 1.000448283630769e+01
0	 2.874999999999999e+01	 1.250000000000000e+01	 1.000475083076923e+01
0	 2.937499999999999e+01	 6.250000000000000e+00	 1.000235034923077e+01
0	 2.937499999999999e+01	 6.875000000000000e+00	 1.000253993984616e+01
0	 2.937499999999999e+01	 7.500000000000003e+00	 1.000273688923077e+01
0	 2.937499999999998e+01	 8.125000000000000e+00	 1.000294119738462e+01
0	 2.937499999999999e+01	 8.750000000000005e+00	 1.000315286430769e+01
0	 2.937499999999998e+01	 9.375000000000005e+00	 1.000337189000000e+01
0	 2.937499999999999e+01	 1.000000000000000e+01	 1.000359827446154e+01
0	 2.937499999999999e+01	 1.062500000000001e+01	 1.000383201769231e+01
0	 2.937499999999998e+01	 1.125000000000000e+01	 1.000407311969231e+01
0	 2.937499999999998e+01	 1.187500000000001e+01	 1.000432158046153e+01
0	 2.937499999999999e+01	 1.250000000000000e+01	 1.000457740000000e+01
0	 2.999999999999998e+01	 6.250000000000000e+00	 1.000216254153846e+01
0	 2.999999999999998e+01	 6.875000000000000e+00	 1.000237135876923e+01
0	 2.999999999999998e+01	 7.500000000000000e+00	 1.000258225107692e+01
0	 2.999999999999998e+01	 8.125000000000004e+00	 1.000279521846154e+01
0	 2.999999999999998e+01	 8.750000000000004e+00	 1.000301026092308e+01
0	 2.999999999999999e+01	 9.375000000000004e+00	 1.000322737846154e+01
0	 2.999999999999999e+01	 1.000000000000001e+01	 1.000344657107692e+01
0	 2.999999999999998e+01	 1.062500000000000e+01	 1.000366783876923e+01
0	 2.999999999999998e+01	 1.125000000000000e+01	 1.000389118153845e+01
0	 2.999999999999999e+01	 1.187500000000001e+01	 1.000411659938462e+01
0	 2.999999999999998e+01	 1.250000000000000e+01	 1.000434409230769e+01
0	 3.062499999999998e+01	 6.250000000000000e+00	 1.000207637384615e+01
0	 3.062499999999998e+01	 6.875000000000003e+00	 1.000228826600000e+01
0	 3.062499999999998e+01	 7.500000000000001e+00	 1.000249694953846e+01
0	 3.062499999999998e+01	 8.125000000000000e+00	 1.000270242446154e+01
0	 3.062499999999998e+01	 8.750000000000004e+00	 1.000290469076923e+01
0	 3.062499999999998e+01	 9.375000000000004e+00	 1.000310374846154e+01
0	 3.062499999999998e+01	 1.000000000000001e+01	 1.000329959753846e+01
0	 3.062499999999998e+01	 1.062500000000000e+01	 1.000349223800000e+01
0	 3.062499999999998e+01	 1.125000000000001e+01	 1.000368166984615e+01
0	 3.062499999999998e+01	 1.187500000000000e+01	 1.000386789307692e+01
0	 3.062499999999998e+01	 1.250000000000000e+01	 1.000405090769231e+01
0	 3.125000000000000e+01	 6.250000000000000e+00	 1.000209184615385e+01
0	 3.125000000000000e+01	 6.875000000000000e+00	 1.000229066153846e+01
0	 3.125000000000000e+01	 7.500000000000002e+00	 1.000248098461538e+01
0	 3.125000000000000e+01	 8.125000000000004e+00	 1.000266281538461e+01
0	 3.125000000000000e+01	 8.750000000000004e+00	 1.000283615384615e+01
0	 3.125000000000000e+01	 9.375000000000004e+00	 1.000300100000000e+01
0	 3.125000000000000e+01	 1.000000000000000e+01	 1.000315735384615e+01
0	 3.125000000000000e+01	 1.062500000000000e+01	 1.000330521538461e+01
0	 3.125000000000001e+01	 1.125000000000001e+01	 1.000344458461538e+01
0	 3.125000000000000e+01	 1.187500000000001e+01	 1.000357546153846e+01
0	 3.125000000000000e+01	 1.250000000000000e+01	 1.000369784615384e+01
0	 2.500000000000000e+01	 1.250000000000000e+01	 1.000453400000000e+01
0	 2.500000000000000e+01	 1.312500000000000e+01	 1.000462897384616e+01
0	 2.500000000000000e+01	 1.375000000000000e+01	 1.000471334153846e+01
0	 2.500000000000000e+01	 1.437500000000000e+01	 1.000478710307692e+01
0	 2.500000000000000e+01	 1.500000000000000e+01	 1.000485025846154e+01
0	 2.500000000000000e+01	 1.562500000000000e+01	 1.000490280769230e+01
0	 2.500000000000000e+01	 1.625000000000000e+01	 1.000494475076923e+01
0	 2.500000000000000e+01	 1.687500000000000e+01	 1.000497608769231e+01
0	 2.500000000000000e+01	 1.750000000000001e+01	 1.000499681846154e+01
0	 2.500000000000000e+01	 1.812500000000001e+01	 1.000500694307692e+01
0	 2.500000000000000e+01	 1.875000000000000e+01	 1.000500646153846e+01
0	 2.562500000000000e+01	 1.250000000000000e+01	 1.000471983076923e+01
0	 2.562500000000000e+01	 1.312500000000000e+01	 1.000474695800000e+01
0	 2.562500000000000e+01	 1.375000000000000e+01	 1.000476617353846e+01
0	 2.562499999999999e+01	 1.437500000000000e+01	 1.000477747738461e+01
0	 2.562500000000000e+01	 1.500000000000000e+01	 1.000478086953846e+01
0	 2.562500000000000e+01	 1.562500000000000e+01	 1.000477634999999e+01
0	 2.562500000000000e+01	 1.625000000000001e+01	 1.000476391876923e+01
0	 2.562500000000000e+01	 1.687500000000000e+01	 1.000474357584615e+01
0	 2.562500000000000e+01	 1.750000000000000e+01	 1.000471532123076e+01
0	 2.562499999999999e+01	 1.812500000000000e+01	 1.000467915492308e+01
0	 2.562500000000000e+01	 1.875000000000000e+01	 1.000463507692307e+01
0	 2.624999999999999e+01	 1.250000000000000e+01	 1.000484578461538e+01
0	 2.625000000000000e+01	 1.312500000000000e+01	 1.000481441292307e+01
0	 2.625000000000000e+01	 1.375000000000000e+01	 1.000477782400000e+01
0	 2.625000000000000e+01	 1.437500000000000e+01	 1.000473601784616e+01
0	 2.625000000000000e+01	 1.500000000000000e+01	 1.000468899446154e+01
0	 2.625000000000000e+01	 1.562500000000001e+01	 1.000463675384615e+01
0	 2.625000000000000e+01	 1.625000000000001e+01	 1.000457929600000e+01
0	 2.625000000000000e+01	 1.687500000000000e+01	 1.000451662092307e+01
0	 2.624999999999999e+01	 1.750000000000001e+01	 1.000444872861538e+01
0	 2.625000000000000e+01	 1.812500000000000e+01	 1.000437561907692e+01
0	 2.624999999999999e+01	 1.875000000000000e+01	 1.000429729230769e+01
0	 2.687499999999999e+01	 1.250000000000000e+01	 1.000491186153847e+01
0	 2.687499999999999e+01	 1.312500000000000e+01	 1.000483133861539e+01
0	 2.687499999999999e+01	 1.375000000000000e+01	 1.000474829292308e+01
0	 2.687499999999999e+01	 1.437500000000000e+01	 1.000466272446154e+01
0	 2.687499999999999e+01	 1.500000000000000e+01	 1.000457463323077e+01
0	 2.687500000000000e+01	 1.562500000000000e+01	 1.000448401923077e+01
0	 2.687499999999999e+01	 1.625000000000000e+01	 1.000439088246154e+01
0	 2.687500000000000e+01	 1.687500000000001e+01	 1.000429522292307e+01
0	 2.687499999999999e+01	 1.750000000000000e+01	 1.000419704061538e+01
0	 2.687500000000000e+01	 1.812500000000000e+01	 1.000409633553846e+01
0	 2.687499999999999e+01	 1.875000000000000e+01	 1.000399310769231e+01
0	 2.749999999999999e+01	 1.250000000000000e+01	 1.000491806153846e+01
0	 2.749999999999999e+01	 1.312500000000000e+01	 1.000479773507692e+01
0	 2.749999999999999e+01	 1.375000000000000e+01	 1.000467758030769e+01
0	 2.749999999999999e+01	 1.437500000000000e+01	 1.000455759723077e+01
0	 2.749999999999999e+01	 1.500000000000000e+01	 1.000443778584615e+01
0	 2.749999999999998e+01	 1.562500000000000e+01	 1.000431814615384e+01
0	 2.750000000000000e+01	 1.625000000000000e+01	 1.000419867815384e+01
0	 2.749999999999999e+01	 1.687500000000000e+01	 1.000407938184616e+01
0	 2.750000000000000e+01	 1.750000000000001e+01	 1.000396025723076e+01
0	 2.749999999999999e+01	 1.812500000000000e+01	 1.000384130430770e+01
0	 2.749999999999999e+01	 1.875000000000000e+01	 1.000372252307692e+01
0	 2.812499999999999e+01	 1.250000000000000e+01	 1.000486438461538e+01
0	 2.812499999999998e+01	 1.312500000000000e+01	 1.000471360230769e+01
0	 2.812499999999999e+01	 1.375000000000000e+01	 1.000456568615384e+01
0	 2.812499999999999e+01	 1.437500000000001e+01	 1.000442063615384e+01
0	 2.812499999999999e+01	 1.500000000000000e+01	 1.000427845230769e+01
0	 2.812499999999999e+01	 1.562500000000000e+01	 1.000413913461538e+01
0	 2.812499999999999e+01	 1.625000000000000e+01	 1.000400268307692e+01
0	 2.812499999999999e+01	 1.687500000000001e+01	 1.000386909769231e+01
0	 2.812499999999999e+01	 1.750000000000001e+01	 1.000373837846153e+01
0	 2.812499999999999e+01	 1.812500000000000e+01	 1.000361052538462e+01
0	 2.812499999999999e+01	 1.875000000000000e+01	 1.000348553846153e+01
0	 2.874999999999999e+01	 1.250000000000000e+01	 1.000475083076923e+01
0	 2.874999999999998e+01	 1.312500000000000e+01	 1.000457894030769e+01
0	 2.874999999999999e+01	 1.375000000000000e+01	 1.000441261046154e+01
0	 2.874999999999999e+01	 1.437500000000000e+01	 1.000425184123077e+01
0	 2.874999999999998e+01	 1.500000000000000e+01	 1.000409663261538e+01
0	 2.874999999999999e+01	 1.562500000000001e+01	 1.000394698461538e+01
0	 2.874999999999998e+01	 1.625000000000000e+01	 1.000380289723077e+01
0	 2.874999999999999e+01	 1.687500000000000e+01	 1.000366437046154e+01
0	 2.874999999999999e+01	 1.750000000000001e+01	 1.000353140430769e+01
0	 2.874999999999998e+01	 1.812500000000000e+01	 1.000340399876922e+01
0	 2.874999999999999e+01	 1.875000000000000e+01	 1.000328215384615e+01
0	 2.937499999999999e+01	 1.250000000000000e+01	 1.000457740000000e+01
0	 2.937499999999999e+01	 1.312500000000000e+01	 1.000439374907693e+01
0	 2.937499999999999e+01	 1.375000000000001e+01	 1.000421835323077e+01
0	 2.937499999999998e+01	 1.437500000000000e+01	 1.000405121246153e+01
0	 2.937499999999999e+01	 1.500000000000001e+01	 1.000389232676923e+01
0	 2.937499999999998e+01	 1.562500000000001e+01	 1.000374169615385e+01
0	 2.937499999999999e+01	 1.625000000000001e+01	 1.000359932061538e+01
0	 2.937499999999999e+01	 1.687500000000001e+01	 1.000346520015385e+01
0	 2.937499999999998e+01	 1.750000000000000e+01	 1.000333933476923e+01
0	 2.937499999999998e+01	 1.812500000000001e+01	 1.000322172446153e+01
0	 2.937499999999999e+01	 1.875000000000000e+01	 1.000311236923076e+01
0	 2.999999999999998e+01	 1.250000000000000e+01	 1.000434409230769e+01
0	 2.999999999999998e+01	 1.312500000000000e+01	 1.000415802861538e+01
0	 2.999999999999998e+01	 1.375000000000000e+01	 1.000398291446153e+01
0	 2.999999999999998e+01	 1.437500000000000e+01	 1.000381874984615e+01
0	 2.999999999999998e+01	 1.500000000000000e+01	 1.000366553476923e+01
0	 2.999999999999999e+01	 1.562500000000000e+01	 1.000352326923077e+01
0	 2.999999999999999e+01	 1.625000000000001e+01	 1.000339195323077e+01
0	 2.999999999999998e+01	 1.687500000000000e+01	 1.000327158676923e+01
0	 2.999999999999998e+01	 1.750000000000000e+01	 1.000316216984615e+01
0	 2.999999999999999e+01	 1.812500000000001e+01	 1.000306370246154e+01
0	 2.999999999999998e+01	 1.875000000000000e+01	 1.000297618461538e+01
0	 3.062499999999998e+01	 1.250000000000000e+01	 1.000405090769231e+01
0	 3.062499999999998e+01	 1.312500000000000e+01	 1.000387177892308e+01
0	 3.062499999999998e+01	 1.375000000000000e+01	 1.000370629415384e+01
0	 3.062499999999998e+01	 1.437500000000000e+01	 1.000355445338461e+01
0	 3.062499999999998e+01	 1.500000000000000e+01	 1.000341625661538e+01
0	 3.062499999999998e+01	 1.562500000000000e+01	 1.000329170384615e+01
0	 3.062499999999998e+01	 1.625000000000000e+01	 1.000318079507692e+01
0	 3.062499999999998e+01	 1.687500000000000e+01	 1.000308353030769e+01
0	 3.062499999999998e+01	 1.750000000000000e+01	 1.000299990953846e+01
0	 3.062499999999998e+01	 1.812500000000000e+01	 1.000292993276923e+01
0	 3.062499999999998e+01	 1.875000000000000e+01	 1.000287360000000e+01
0	 3.125000000000000e+01	 1.250000000000000e+01	 1.000369784615384e+01
0	 3.125000000000000e+01	 1.312500000000000e+01	 1.000353500000000e+01
0	 3.125000000000000e+01	 1.375000000000000e+01	 1.000338849230769e+01
0	 3.125000000000000e+01	 1.437500000000000e+01	 1.000325832307692e+01
0	 3.125000000000000e+01	 1.500000000000000e+01	 1.000314449230769e+01
0	 3.125000000000000e+01	 1.562500000000000e+01	 1.000304700000000e+01
0	 3.125000000000000e+01	 1.625000000000000e+01	 1.000296584615384e+01
0	 3.125000000000000e+01	 1.687500000000000e+01	 1.000290103076923e+01
0	 3.125000000000001e+01	 1.750000000000001e+01	 1.000285255384615e+01
0	 3.125000000000000e+01	 1.812500000000001e+01	 1.000282041538461e+01
0	 3.125000000000000e+01	 1.875000000000000e+01	 1.000280461538461e+01
0	 2.500000000000000e+01	 1.875000000000000e+01	 1.000500646153846e+01
0	 2.500000000000000e+01	 1.937500000000000e+01	 1.000470472461538e+01
0	 2.500000000000000e+01	 2.000000000000000e+01	 1.000442234461538e+01
0	 2.500000000000000e+01	 2.062500000000000e+01	 1.000415932153846e+01
0	 2.500000000000000e+01	 2.125000000000000e+01	 1.000391565538461e+01
0	 2.500000000000000e+01	 2.187500000000000e+01	 1.000369134615385e+01
0	 2.500000000000000e+01	 2.250000000000000e+01	 1.000348639384615e+01
0	 2.500000000000000e+01	 2.312500000000001e+01	 1.000330079846154e+01
0	 2.500000000000000e+01	 2.375000000000001e+01	 1.000313456000000e+01
0	 2.500000000000000e+01	 2.437500000000001e+01	 1.000298767846154e+01
0	 2.500000000000000e+01	 2.500000000000000e+01	 1.000286015384615e+01
0	 2.562500000000000e+01	 1.875000000000000e+01	 1.000463507692307e+01
0	 2.562500000000000e+01	 1.937500000000000e+01	 1.000438277215384e+01
0	 2.562500000000000e+01	 2.000000000000000e+01	 1.000414767630769e+01
0	 2.562499999999999e+01	 2.062500000000000e+01	 1.000392978938461e+01
0	 2.562500000000000e+01	 2.125000000000001e+01	 1.000372911138461e+01
0	 2.562500000000000e+01	 2.187500000000000e+01	 1.000354564230769e+01
0	 2.562500000000000e+01	 2.250000000000000e+01	 1.000337938215384e+01
0	 2.562500000000000e+01	 2.312500000000000e+01	 1.000323033092307e+01
0	 2.562500000000000e+01	 2.375000000000000e+01	 1.000309848861538e+01
0	 2.562499999999999e+01	 2.437500000000000e+01	 1.000298385523077e+01
0	 2.562500000000000e+01	 2.500000000000000e+01	 1.000288643076923e+01
0	 2.624999999999999e+01	 1.875000000000000e+01	 1.000429729230769e+01
0	 2.625000000000000e+01	 1.937500000000001e+01	 1.000408948738462e+01
0	 2.625000000000000e+01	 2.000000000000000e+01	 1.000389674338462e+01
0	 2.625000000000000e+01	 2.062500000000000e+01	 1.000371906030769e+01
0	 2.625000000000000e+01	 2.125000000000000e+01	 1.000355643815384e+01
0	 2.625000000000000e+01	 2.187500000000001e+01	 1.000340887692308e+01
0	 2.625000000000000e+01	 2.250000000000000e+01	 1.000327637661538e+01
0	 2.625000000000000e+01	 2.312500000000001e+01	 1.000315893723077e+01
0	 2.624999999999999e+01	 2.375000000000000e+01	 1.000305655876923e+01
0	 2.625000000000000e+01	 2.437500000000000e+01	 1.000296924123077e+01
0	 2.624999999999999e+01	 2.500000000000000e+01	 1.000289698461538e+01
0	 2.687499999999999e+01	 1.875000000000000e+01	 1.000399310769231e+01
0	 2.687499999999999e+01	 1.937500000000000e+01	 1.000382487030768e+01
0	 2.687499999999999e+01	 2.000000000000000e+01	 1.000366954584615e+01
0	 2.687499999999999e+01	 2.062500000000000e+01	 1.000352713430769e+01
0	 2.687499999999999e+01	 2.125000000000000e+01	 1.000339763569231e+01
0	 2.687500000000000e+01	 2.187500000000001e+01	 1.000328105000000e+01
0	 2.687499999999999e+01	 2.250000000000000e+01	 1.000317737723076e+01
0	 2.687500000000000e+01	 2.312500000000000e+01	 1.000308661738461e+01
0	 2.687499999999999e+01	 2.375000000000001e+01	 1.000300877046154e+01
0	 2.687500000000000e+01	 2.437500000000000e+01	 1.000294383646154e+01
0	 2.687499999999999e+01	 2.500000000000000e+01	 1.000289181538461e+01
0	 2.749999999999999e+01	 1.875000000000000e+01	 1.000372252307692e+01
0	 2.749999999999999e+01	 1.937500000000000e+01	 1.000358892092308e+01
0	 2.749999999999999e+01	 2.000000000000000e+01	 1.000346608369230e+01
0	 2.749999999999999e+01	 2.062500000000000e+01	 1.000335401138462e+01
0	 2.749999999999999e+01	 2.125000000000000e+01	 1.000325270400000e+01
0	 2.749999999999998e+01	 2.187500000000000e+01	 1.000316216153846e+01
0	 2.750000000000000e+01	 2.250000000000001e+01	 1.000308238400000e+01
0	 2.749999999999999e+01	 2.312500000000001e+01	 1.000301337138462e+01
0	 2.750000000000000e+01	 2.375000000000000e+01	 1.000295512369230e+01
0	 2.749999999999999e+01	 2.437500000000001e+01	 1.000290764092307e+01
0	 2.749999999999999e+01	 2.500000000000000e+01	 1.000287092307693e+01
0	 2.812499999999999e+01	 1.875000000000000e+01	 1.000348553846153e+01
0	 2.812499999999998e+01	 1.937500000000000e+01	 1.000338163923077e+01
0	 2.812499999999999e+01	 2.000000000000000e+01	 1.000328635692308e+01
0	 2.812499999999999e+01	 2.062500000000000e+01	 1.000319969153846e+01
0	 2.812499999999999e+01	 2.125000000000000e+01	 1.000312164307692e+01
0	 2.812499999999999e+01	 2.187500000000000e+01	 1.000305221153846e+01
0	 2.812499999999999e+01	 2.250000000000000e+01	 1.000299139692307e+01
0	 2.812499999999999e+01	 2.312500000000001e+01	 1.000293919923077e+01
0	 2.812499999999999e+01	 2.375000000000000e+01	 1.000289561846153e+01
0	 2.812499999999999e+01	 2.437500000000001e+01	 1.000286065461538e+01
0	 2.812499999999999e+01	 2.500000000000000e+01	 1.000283430769231e+01
0	 2.874999999999999e+01	 1.875000000000000e+01	 1.000328215384615e+01
0	 2.874999999999998e+01	 1.937500000000000e+01	 1.000320302523077e+01
0	 2.874999999999999e+01	 2.000000000000000e+01	 1.000313036553846e+01
0	 2.874999999999999e+01	 2.062500000000000e+01	 1.000306417476923e+01
0	 2.874999999999998e+01	 2.125000000000000e+01	 1.000300445292307e+01
0	 2.874999999999999e+01	 2.187500000000000e+01	 1.000295119999999e+01
0	 2.874999999999998e+01	 2.250000000000000e+01	 1.000290441600000e+01
0	 2.874999999999999e+01	 2.312500000000001e+01	 1.000286410092307e+01
0	 2.874999999999999e+01	 2.375000000000001e+01	 1.000283025476923e+01
0	 2.874999999999998e+01	 2.437500000000000e+01	 1.000280287753846e+01
0	 2.874999999999999e+01	 2.500000000000000e+01	 1.000278196923077e+01
0	 2.937499999999999e+01	 1.875000000000000e+01	 1.000311236923076e+01
0	 2.937499999999999e+01	 1.937500000000000e+01	 1.000305307892307e+01
0	 2.937499999999999e+01	 2.000000000000000e+01	 1.000299810953846e+01
0	 2.937499999999998e+01	 2.062500000000000e+01	 1.000294746107692e+01
0	 2.937499999999999e+01	 2.125000000000000e+01	 1.000290113353847e+01
0	 2.937499999999998e+01	 2.187500000000001e+01	 1.000285912692307e+01
0	 2.937499999999999e+01	 2.250000000000000e+01	 1.000282144123077e+01
0	 2.937499999999999e+01	 2.312500000000001e+01	 1.000278807646154e+01
0	 2.937499999999998e+01	 2.375000000000000e+01	 1.000275903261539e+01
0	 2.937499999999998e+01	 2.437500000000001e+01	 1.000273430969231e+01
0	 2.937499999999999e+01	 2.500000000000000e+01	 1.000271390769230e+01
0	 2.999999999999998e+01	 1.875000000000000e+01	 1.000297618461538e+01
0	 2.999999999999998e+01	 1.937500000000000e+01	 1.000293180030769e+01
0	 2.999999999999998e+01	 2.000000000000000e+01	 1.000288958892307e+01
0	 2.999999999999998e+01	 2.062500000000000e+01	 1.000284955046154e+01
0	 2.999999999999998e+01	 2.125000000000000e+01	 1.000281168492307e+01
0	 2.999999999999999e+01	 2.187500000000000e+01	 1.000277599230769e+01
0	 2.999999999999999e+01	 2.250000000000000e+01	 1.000274247261538e+01
0	 2.999999999999998e+01	 2.312500000000000e+01	 1.000271112584615e+01
0	 2.999999999999998e+01	 2.375000000000000e+01	 1.000268195199999e+01
0	 2.999999999999999e+01	 2.437500000000001e+01	 1.000265495107693e+01
0	 2.999999999999998e+01	 2.500000000000000e+01	 1.000263012307692e+01
0	 3.062499999999998e+01	 1.875000000000000e+01	 1.000287360000000e+01
0	 3.062499999999998e+01	 1.937500000000000e+01	 1.000283918938462e+01
0	 3.062499999999998e+01	 2.000000000000000e+01	 1.000280480369230e+01
0	 3.062499999999998e+01	 2.062500000000000e+01	 1.000277044292307e+01
0	 3.062499999999998e+01	 2.125000000000000e+01	 1.000273610707692e+01
0	 3.062499999999998e+01	 2.187500000000000e+01	 1.000270179615385e+01
0	 3.062499999999998e+01	 2.250000000000000e+01	 1.000266751015384e+01
0	 3.062499999999998e+01	 2.312500000000001e+01	 1.000263324907691e+01
0	 3.062499999999998e+01	 2.375000000000000e+01	 1.000259901292308e+01
0	 3.062499999999998e+01	 2.437500000000001e+01	 1.000256480169230e+01
0	 3.062499999999998e+01	 2.500000000000000e+01	 1.000253061538461e+01
0	 3.125000000000000e+01	 1.875000000000000e+01	 1.000280461538461e+01
0	 3.125000000000000e+01	 1.937500000000000e+01	 1.000277524615384e+01
0	 3.125000000000000e+01	 2.000000000000000e+01	 1.000274375384615e+01
0	 3.125000000000000e+01	 2.062500000000000e+01	 1.000271013846154e+01
0	 3.125000000000000e+01	 2.125000000000000e+01	 1.000267440000000e+01
0	 3.125000000000000e+01	 2.187500000000000e+01	 1.000263653846153e+01
0	 3.125000000000000e+01	 2.250000000000000e+01	 1.000259655384615e+01
0	 3.125000000000000e+01	 2.312500000000001e+01	 1.000255444615384e+01
0	 3.125000000000001e+01	 2.375000000000001e+01	 1.000251021538461e+01
0	 3.125000000000000e+01	 2.437500000000001e+01	 1.000246386153846e+01
0	 3.125000000000000e+01	 2.500000000000000e+01	 1.000241538461538e+01
0	 2.500000000000000e+01	 2.500000000000000e+01	 1.000286015384615e+01
0	 2.500000000000000e+01	 2.562500000000000e+01	 1.000274868923077e+01
0	 2.500000000000000e+01	 2.625000000000000e+01	 1.000263275692308e+01
0	 2.500000000000000e+01	 2.687499999999999e+01	 1.000251235692307e+01
0	 2.500000000000000e+01	 2.749999999999999e+01	 1.000238748923077e+01
0	 2.500000000000000e+01	 2.812499999999999e+01	 1.000225815384615e+01
0	 2.500000000000000e+01	 2.874999999999999e+01	 1.000212435076923e+01
0	 2.500000000000000e+01	 2.937499999999999e+01	 1.000198607999999e+01
0	 2.500000000000000e+01	 2.999999999999998e+01	 1.000184334153845e+01
0	 2.500000000000000e+01	 3.062499999999998e+01	 1.000169613538461e+01
0	 2.500000000000000e+01	 3.125000000000000e+01	 1.000154446153846e+01
0	 2.562500000000000e+01	 2.500000000000000e+01	 1.000288643076923e+01
0	 2.562500000000000e+01	 2.562500000000000e+01	 1.000277070338461e+01
0	 2.562500000000000e+01	 2.625000000000000e+01	 1.000265145353846e+01
0	 2.562500000000000e+01	 2.687499999999999e+01	 1.000252868123077e+01
0	 2.562500000000000e+01	 2.749999999999999e+01	 1.000240238646153e+01
0	 2.562500000000000e+01	 2.812500000000000e+01	 1.000227256923077e+01
0	 2.562500000000000e+01	 2.874999999999999e+01	 1.000213922953846e+01
0	 2.562500000000000e+01	 2.937499999999999e+01	 1.000200236738461e+01
0	 2.562500000000001e+01	 3.000000000000000e+01	 1.000186198276923e+01
0	 2.562499999999999e+01	 3.062499999999998e+01	 1.000171807569230e+01
0	 2.562500000000000e+01	 3.125000000000000e+01	 1.000157064615384e+01
0	 2.624999999999999e+01	 2.500000000000000e+01	 1.000289698461538e+01
0	 2.625000000000000e+01	 2.562500000000000e+01	 1.000277776984615e+01
0	 2.625000000000000e+01	 2.625000000000000e+01	 1.000265597784615e+01
0	 2.625000000000000e+01	 2.687499999999999e+01	 1.000253160861538e+01
0	 2.624999999999999e+01	 2.749999999999999e+01	 1.000240466215384e+01
0	 2.625000000000000e+01	 2.812499999999999e+01	 1.000227513846154e+01
0	 2.624999999999999e+01	 2.874999999999998e+01	 1.000214303753846e+01
0	 2.625000000000000e+01	 2.937499999999999e+01	 1.000200835938461e+01
0	 2.625000000000000e+01	 2.999999999999998e+01	 1.000187110400000e+01
0	 2.625000000000000e+01	 3.062499999999999e+01	 1.000173127138462e+01
0	 2.624999999999999e+01	 3.125000000000000e+01	 1.000158886153847e+01
0	 2.687499999999999e+01	 2.500000000000000e+01	 1.000289181538461e+01
0	 2.687499999999999e+01	 2.562500000000000e+01	 1.000276988861538e+01
0	 2.687499999999999e+01	 2.625000000000000e+01	 1.000264632984615e+01
0	 2.687500000000000e+01	 2.687500000000000e+01	 1.000252113907692e+01
0	 2.687500000000000e+01	 2.749999999999999e+01	 1.000239431630769e+01
0	 2.687500000000000e+01	 2.812499999999999e+01	 1.000226586153846e+01
0	 2.687499999999999e+01	 2.874999999999998e+01	 1.000213577476923e+01
0	 2.687499999999999e+01	 2.937499999999998e+01	 1.000200405600000e+01
0	 2.687500000000000e+01	 2.999999999999999e+01	 1.000187070523077e+01
0	 2.687499999999999e+01	 3.062499999999998e+01	 1.000173572246153e+01
0	 2.687499999999999e+01	 3.125000000000000e+01	 1.000159910769231e+01
0	 2.749999999999999e+01	 2.500000000000000e+01	 1.000287092307693e+01
0	 2.749999999999999e+01	 2.562500000000000e+01	 1.000274705969231e+01
0	 2.750000000000000e+01	 2.625000000000000e+01	 1.000262250953846e+01
0	 2.750000000000000e+01	 2.687500000000000e+01	 1.000249727261538e+01
0	 2.749999999999999e+01	 2.749999999999999e+01	 1.000237134892307e+01
0	 2.749999999999999e+01	 2.812499999999999e+01	 1.000224473846153e+01
0	 2.749999999999999e+01	 2.874999999999999e+01	 1.000211744123077e+01
0	 2.749999999999999e+01	 2.937499999999998e+01	 1.000198945723077e+01
0	 2.749999999999999e+01	 2.999999999999999e+01	 1.000186078646153e+01
0	 2.750000000000000e+01	 3.062499999999998e+01	 1.000173142892307e+01
0	 2.749999999999999e+01	 3.125000000000000e+01	 1.000160138461537e+01
0	 2.812499999999999e+01	 2.500000000000000e+01	 1.000283430769231e+01
0	 2.812499999999999e+01	 2.562500000000000e+01	 1.000270928307692e+01
0	 2.812499999999999e+01	 2.625000000000000e+01	 1.000258451692308e+01
0	 2.812499999999999e+01	 2.687500000000000e+01	 1.000246000923077e+01
0	 2.812499999999999e+01	 2.749999999999999e+01	 1.000233576000000e+01
0	 2.812499999999999e+01	 2.812499999999999e+01	 1.000221176923077e+01
0	 2.812499999999999e+01	 2.874999999999999e+01	 1.000208803692308e+01
0	 2.812499999999999e+01	 2.937499999999998e+01	 1.000196456307692e+01
0	 2.812499999999999e+01	 2.999999999999999e+01	 1.000184134769230e+01
0	 2.812499999999999e+01	 3.062499999999998e+01	 1.000171839076923e+01
0	 2.812499999999999e+01	 3.125000000000000e+01	 1.000159569230769e+01
0	 2.874999999999999e+01	 2.500000000000000e+01	 1.000278196923077e+01
0	 2.874999999999999e+01	 2.562500000000000e+01	 1.000265655876923e+01
0	 2.874999999999998e+01	 2.624999999999999e+01	 1.000253235200000e+01
0	 2.874999999999998e+01	 2.687499999999999e+01	 1.000240934892307e+01
0	 2.874999999999999e+01	 2.750000000000000e+01	 1.000228754953846e+01
0	 2.874999999999999e+01	 2.812499999999999e+01	 1.000216695384616e+01
0	 2.874999999999999e+01	 2.874999999999999e+01	 1.000204756184615e+01
0	 2.874999999999999e+01	 2.937499999999999e+01	 1.000192937353846e+01
0	 2.874999999999999e+01	 2.999999999999999e+01	 1.000181238892308e+01
0	 2.874999999999999e+01	 3.062499999999998e+01	 1.000169660800000e+01
0	 2.874999999999999e+01	 3.125000000000000e+01	 1.000158203076923e+01
0	 2.937499999999999e+01	 2.500000000000000e+01	 1.000271390769230e+01
0	 2.937499999999998e+01	 2.562499999999999e+01	 1.000258888676922e+01
0	 2.937499999999999e+01	 2.624999999999999e+01	 1.000246601476922e+01
0	 2.937499999999998e+01	 2.687499999999999e+01	 1.000234529169230e+01
0	 2.937499999999999e+01	 2.749999999999999e+01	 1.000222671753846e+01
0	 2.937499999999999e+01	 2.812499999999999e+01	 1.000211029230769e+01
0	 2.937499999999998e+01	 2.874999999999999e+01	 1.000199601600000e+01
0	 2.937499999999999e+01	 2.937499999999999e+01	 1.000188388861538e+01
0	 2.937499999999998e+01	 2.999999999999998e+01	 1.000177391015385e+01
0	 2.937499999999999e+01	 3.062499999999998e+01	 1.000166608061539e+01
0	 2.937499999999999e+01	 3.125000000000000e+01	 1.000156040000001e+01
0	 2.999999999999998e+01	 2.500000000000000e+01	 1.000263012307692e+01
0	 2.999999999999999e+01	 2.562500000000000e+01	 1.000250626707692e+01
0	 2.999999999999998e+01	 2.625000000000000e+01	 1.000238550523077e+01
0	 2.999999999999999e+01	 2.687500000000000e+01	 1.000226783753846e+01
0	 2.999999999999999e+01	 2.749999999999999e+01	 1.000215326400000e+01
0	 2.999999999999998e+01	 2.812499999999999e+01	 1.000204178461538e+01
0	 2.999999999999998e+01	 2.874999999999999e+01	 1.000193339938463e+01
0	 2.999999999999998e+01	 2.937499999999998e+01	 1.000182810830769e+01
0	 2.999999999999998e+01	 2.999999999999998e+01	 1.000172591138462e+01
0	 2.999999999999998e+01	 3.062499999999999e+01	 1.000162680861538e+01
0	 2.999999999999998e+01	 3.125000000000000e+01	 1.000153080000000e+01
0	 3.062499999999998e+01	 2.500000000000000e+01	 1.000253061538461e+01
0	 3.062499999999998e+01	 2.562500000000000e+01	 1.000240869969231e+01
0	 3.062499999999998e+01	 2.625000000000000e+01	 1.000229082338461e+01
0	 3.062499999999998e+01	 2.687500000000000e+01	 1.000217698646154e+01
0	 3.062499999999998e+01	 2.749999999999999e+01	 1.000206718892308e+01
0	 3.062499999999998e+01	 2.812499999999999e+01	 1.000196143076923e+01
0	 3.062499999999998e+01	 2.874999999999999e+01	 1.000185971200000e+01
0	 3.062499999999998e+01	 2.937499999999999e+01	 1.000176203261539e+01
0	 3.062499999999998e+01	 2.999999999999998e+01	 1.000166839261539e+01
0	 3.062499999999998e+01	 3.062499999999998e+01	 1.000157879200000e+01
0	 3.062499999999998e+01	 3.125000000000000e+01	 1.000149323076923e+01
0	 3.125000000000000e+01	 2.500000000000000e+01	 1.000241538461538e+01
0	 3.125000000000000e+01	 2.562500000000000e+01	 1.000229618461538e+01
0	 3.125000000000000e+01	 2.625000000000000e+01	 1.000218196923077e+01
0	 3.124999999999999e+01	 2.687499999999999e+01	 1.000207273846154e+01
0	 3.125000000000000e+01	 2.749999999999999e+01	 1.000196849230769e+01
0	 3.125000000000000e+01	 2.812499999999999e+01	 1.000186923076923e+01
0	 3.125000000000000e+01	 2.874999999999999e+01	 1.000177495384616e+01
0	 3.125000000000000e+01	 2.937499999999999e+01	 1.000168566153847e+01
0	 3.125000000000000e+01	 2.999999999999998e+01	 1.000160135384615e+01
0	 3.125000000000000e+01	 3.062499999999998e+01	 1.000152203076923e+01
0	 3.125000000000000e+01	 3.125000000000000e+01	 1.000144769230769e+01
0	 2.500000000000000e+01	 3.125000000000000e+01	 1.000154446153846e+01
0	 2.500000000000000e+01	 3.187500000000000e+01	 1.000146982615384e+01
0	 2.500000000000000e+01	 3.250000000000001e+01	 1.000139435076922e+01
0	 2.500000000000000e+01	 3.312499999999999e+01	 1.000131803538461e+01
0	 2.500000000000000e+01	 3.374999999999999e+01	 1.000124088000000e+01
0	 2.500000000000000e+01	 3.437499999999999e+01	 1.000116288461538e+01
0	 2.500000000000000e+01	 3.499999999999999e+01	 1.000108404923077e+01
0	 2.500000000000000e+01	 3.562499999999999e+01	 1.000100437384615e+01
0	 2.500000000000000e+01	 3.624999999999998e+01	 1.000092385846154e+01
0	 2.500000000000000e+01	 3.687499999999998e+01	 1.000084250307691e+01
0	 2.500000000000000e+01	 3.750000000000000e+01	 1.000076030769231e+01
0	 2.562500000000000e+01	 3.125000000000000e+01	 1.000157064615384e+01
0	 2.562500000000000e+01	 3.187500000000000e+01	 1.000149491892307e+01
0	 2.562500000000000e+01	 3.250000000000000e+01	 1.000141827876923e+01
0	 2.562500000000000e+01	 3.312499999999999e+01	 1.000134072569231e+01
0	 2.562500000000000e+01	 3.374999999999999e+01	 1.000126225969230e+01
0	 2.562500000000000e+01	 3.437500000000000e+01	 1.000118288076923e+01
0	 2.562500000000000e+01	 3.499999999999999e+01	 1.000110258892308e+01
0	 2.562500000000000e+01	 3.562499999999999e+01	 1.000102138415385e+01
0	 2.562500000000001e+01	 3.624999999999999e+01	 1.000093926646154e+01
0	 2.562499999999999e+01	 3.687499999999997e+01	 1.000085623584615e+01
0	 2.562500000000000e+01	 3.750000000000000e+01	 1.000077229230770e+01
0	 2.624999999999999e+01	 3.125000000000000e+01	 1.000158886153847e+01
0	 2.625000000000000e+01	 3.187500000000000e+01	 1.000151247323078e+01
0	 2.625000000000000e+01	 3.250000000000001e+01	 1.000143509907692e+01
0	 2.625000000000000e+01	 3.312500000000000e+01	 1.000135673907692e+01
0	 2.624999999999999e+01	 3.374999999999999e+01	 1.000127739323077e+01
0	 2.625000000000000e+01	 3.437499999999999e+01	 1.000119706153846e+01
0	 2.624999999999999e+01	 3.499999999999999e+01	 1.000111574400000e+01
0	 2.625000000000000e+01	 3.562499999999999e+01	 1.000103344061538e+01
0	 2.625000000000000e+01	 3.624999999999998e+01	 1.000095015138462e+01
0	 2.625000000000000e+01	 3.687499999999998e+01	 1.000086587630771e+01
0	 2.624999999999999e+01	 3.750000000000001e+01	 1.000078061538462e+01
0	 2.687499999999999e+01	 3.125000000000000e+01	 1.000159910769231e+01
0	 2.687499999999999e+01	 3.187500000000000e+01	 1.000152248907692e+01
0	 2.687499999999999e+01	 3.250000000000000e+01	 1.000144481169230e+01
0	 2.687500000000000e+01	 3.312500000000000e+01	 1.000136607553846e+01
0	 2.687500000000000e+01	 3.374999999999999e+01	 1.000128628061539e+01
0	 2.687500000000000e+01	 3.437500000000000e+01	 1.000120542692308e+01
0	 2.687499999999999e+01	 3.499999999999998e+01	 1.000112351446154e+01
0	 2.687499999999999e+01	 3.562499999999998e+01	 1.000104054323077e+01
0	 2.687500000000000e+01	 3.624999999999999e+01	 1.000095651323076e+01
0	 2.687499999999999e+01	 3.687499999999998e+01	 1.000087142446155e+01
0	 2.687499999999999e+01	 3.750000000000000e+01	 1.000078527692309e+01
0	 2.749999999999999e+01	 3.125000000000000e+01	 1.000160138461537e+01
0	 2.749999999999999e+01	 3.187500000000000e+01	 1.000152496646152e+01
0	 2.750000000000000e+01	 3.250000000000000e+01	 1.000144741661538e+01
0	 2.750000000000000e+01	 3.312499999999999e+01	 1.000136873507692e+01
0	 2.749999999999999e+01	 3.374999999999999e+01	 1.000128892184615e+01
0	 2.749999999999999e+01	 3.437499999999999e+01	 1.000120797692307e+01
0	 2.749999999999999e+01	 3.499999999999999e+01	 1.000112590030769e+01
0	 2.749999999999999e+01	 3.562499999999998e+01	 1.000104269200000e+01
0	 2.749999999999999e+01	 3.624999999999999e+01	 1.000095835200001e+01
0	 2.750000000000000e+01	 3.687499999999999e+01	 1.000087288030769e+01
0	 2.749999999999999e+01	 3.750000000000000e+01	 1.000078627692308e+01
0	 2.812499999999999e+01	 3.125000000000000e+01	 1.000159569230769e+01
0	 2.812499999999999e+01	 3.187500000000000e+01	 1.000151990538461e+01
0	 2.812499999999999e+01	 3.249999999999999e+01	 1.000144291384615e+01
0	 2.812499999999999e+01	 3.312500000000000e+01	 1.000136471769231e+01
0	 2.812499999999999e+01	 3.374999999999999e+01	 1.000128531692308e+01
0	 2.812499999999999e+01	 3.437499999999999e+01	 1.000120471153846e+01
0	 2.812499999999999e+01	 3.499999999999999e+01	 1.000112290153846e+01
0	 2.812499999999999e+01	 3.562499999999999e+01	 1.000103988692308e+01
0	 2.812499999999999e+01	 3.624999999999998e+01	 1.000095566769231e+01
0	 2.812499999999999e+01	 3.687499999999999e+01	 1.000087024384615e+01
0	 2.812499999999999e+01	 3.750000000000000e+01	 1.000078361538462e+01
0	 2.874999999999999e+01	 3.125000000000000e+01	 1.000158203076923e+01
0	 2.874999999999999e+01	 3.187500000000000e+01	 1.000150730584615e+01
0	 2.874999999999998e+01	 3.249999999999999e+01	 1.000143130338462e+01
0	 2.874999999999998e+01	 3.312499999999999e+01	 1.000135402338462e+01
0	 2.874999999999999e+01	 3.375000000000001e+01	 1.000127546584616e+01
0	 2.874999999999999e+01	 3.437500000000000e+01	 1.000119563076924e+01
0	 2.874999999999999e+01	 3.499999999999999e+01	 1.000111451815385e+01
0	 2.874999999999999e+01	 3.562499999999999e+01	 1.000103212800000e+01
0	 2.874999999999999e+01	 3.624999999999999e+01	 1.000094846030769e+01
0	 2.874999999999999e+01	 3.687499999999998e+01	 1.000086351507693e+01
0	 2.874999999999999e+01	 3.750000000000000e+01	 1.000077729230770e+01
0	 2.937499999999999e+01	 3.125000000000000e+01	 1.000156040000001e+01
0	 2.937499999999998e+01	 3.187500000000000e+01	 1.000148716784616e+01
0	 2.937499999999999e+01	 3.250000000000000e+01	 1.000141258523077e+01
0	 2.937499999999998e+01	 3.312499999999999e+01	 1.000133665215385e+01
0	 2.937499999999999e+01	 3.374999999999999e+01	 1.000125936861539e+01
0	 2.937499999999999e+01	 3.437499999999999e+01	 1.000118073461538e+01
0	 2.937499999999998e+01	 3.500000000000000e+01	 1.000110075015385e+01
0	 2.937499999999999e+01	 3.562499999999999e+01	 1.000101941523078e+01
0	 2.937499999999998e+01	 3.624999999999998e+01	 1.000093672984616e+01
0	 2.937499999999999e+01	 3.687499999999999e+01	 1.000085269400000e+01
0	 2.937499999999999e+01	 3.750000000000000e+01	 1.000076730769231e+01
0	 2.999999999999998e+01	 3.125000000000000e+01	 1.000153080000000e+01
0	 2.999999999999999e+01	 3.187500000000000e+01	 1.000145949138462e+01
0	 2.999999999999998e+01	 3.249999999999999e+01	 1.000138675938461e+01
0	 2.999999999999999e+01	 3.312500000000000e+01	 1.000131260400000e+01
0	 2.999999999999999e+01	 3.374999999999999e+01	 1.000123702523077e+01
0	 2.999999999999998e+01	 3.437499999999999e+01	 1.000116002307693e+01
0	 2.999999999999998e+01	 3.499999999999999e+01	 1.000108159753847e+01
0	 2.999999999999998e+01	 3.562499999999998e+01	 1.000100174861539e+01
0	 2.999999999999998e+01	 3.624999999999998e+01	 1.000092047630769e+01
0	 2.999999999999998e+01	 3.687499999999998e+01	 1.000083778061540e+01
0	 2.999999999999998e+01	 3.750000000000000e+01	 1.000075366153847e+01
0	 3.062499999999998e+01	 3.125000000000000e+01	 1.000149323076923e+01
0	 3.062499999999998e+01	 3.187500000000000e+01	 1.000142427646154e+01
0	 3.062499999999998e+01	 3.249999999999999e+01	 1.000135382584615e+01
0	 3.062499999999998e+01	 3.312499999999999e+01	 1.000128187892309e+01
0	 3.062499999999998e+01	 3.374999999999999e+01	 1.000120843569231e+01
0	 3.062499999999998e+01	 3.437499999999999e+01	 1.000113349615385e+01
0	 3.062499999999998e+01	 3.499999999999999e+01	 1.000105706030770e+01
0	 3.062499999999998e+01	 3.562499999999999e+01	 1.000097912815385e+01
0	 3.062499999999998e+01	 3.624999999999999e+01	 1.000089969969232e+01
0	 3.062499999999998e+01	 3.687499999999998e+01	 1.000081877492307e+01
0	 3.062499999999998e+01	 3.750000000000000e+01	 1.000073635384615e+01
0	 3.125000000000000e+01	 3.125000000000000e+01	 1.000144769230769e+01
0	 3.125000000000000e+01	 3.187500000000000e+01	 1.000138152307693e+01
0	 3.125000000000000e+01	 3.250000000000001e+01	 1.000131378461538e+01
0	 3.124999999999999e+01	 3.312499999999999e+01	 1.000124447692307e+01
0	 3.125000000000000e+01	 3.374999999999999e+01	 1.000117360000000e+01
0	 3.125000000000000e+01	 3.437499999999999e+01	 1.000110115384615e+01
0	 3.125000000000000e+01	 3.499999999999999e+01	 1.000102713846154e+01
0	 3.125000000000000e+01	 3.562499999999999e+01	 1.000095155384615e+01
0	 3.125000000000000e+01	 3.624999999999998e+01	 1.000087440000000e+01
0	 3.125000000000000e+01	 3.687499999999998e+01	 1.000079567692307e+01
0	 3.125000000000000e+01	 3.750000000000000e+01	 1.000071538461539e+01
0	 2.500000000000000e+01	 3.750000000000000e+01	 1.000076030769231e+01
0	 2.500000000000000e+01	 3.812500000000000e+01	 1.000070474615385e+01
0	 2.500000000000000e+01	 3.875000000000001e+01	 1.000064729230770e+01
0	 2.500000000000000e+01	 3.937499999999999e+01	 1.000058794615385e+01
0	 2.500000000000000e+01	 3.999999999999999e+01	 1.000052670769231e+01
0	 2.500000000000000e+01	 4.062499999999999e+01	 1.000046357692307e+01
0	 2.500000000000000e+01	 4.124999999999999e+01	 1.000039855384615e+01
0	 2.500000000000000e+01	 4.187499999999999e+01	 1.000033163846153e+01
0	 2.500000000000000e+01	 4.249999999999999e+01	 1.000026283076922e+01
0	 2.500000000000000e+01	 4.312499999999999e+01	 1.000019213076921e+01
0	 2.500000000000000e+01	 4.375000000000000e+01	 1.000011953846153e+01
0	 2.562500000000000e+01	 3.750000000000000e+01	 1.000077229230770e+01
0	 2.562500000000000e+01	 3.812499999999999e+01	 1.000071771923077e+01
0	 2.562500000000000e+01	 3.874999999999999e+01	 1.000066122153847e+01
0	 2.562500000000000e+01	 3.937499999999999e+01	 1.000060279923077e+01
0	 2.562500000000000e+01	 3.999999999999999e+01	 1.000054245230770e+01
0	 2.562500000000000e+01	 4.062500000000000e+01	 1.000048018076923e+01
0	 2.562500000000000e+01	 4.124999999999999e+01	 1.000041598461538e+01
0	 2.562500000000000e+01	 4.187499999999999e+01	 1.000034986384615e+01
0	 2.562500000000001e+01	 4.249999999999998e+01	 1.000028181846154e+01
0	 2.562499999999999e+01	 4.312499999999997e+01	 1.000021184846152e+01
0	 2.562500000000000e+01	 4.375000000000000e+01	 1.000013995384614e+01
0	 2.624999999999999e+01	 3.750000000000001e+01	 1.000078061538462e+01
0	 2.625000000000000e+01	 3.812500000000000e+01	 1.000072700923077e+01
0	 2.625000000000000e+01	 3.875000000000001e+01	 1.000067144615385e+01
0	 2.625000000000000e+01	 3.937499999999999e+01	 1.000061392615385e+01
0	 2.624999999999999e+01	 3.999999999999999e+01	 1.000055444923077e+01
0	 2.625000000000000e+01	 4.062499999999999e+01	 1.000049301538461e+01
0	 2.624999999999999e+01	 4.124999999999997e+01	 1.000042962461538e+01
0	 2.625000000000000e+01	 4.187499999999999e+01	 1.000036427692307e+01
0	 2.625000000000000e+01	 4.249999999999999e+01	 1.000029697230769e+01
0	 2.625000000000000e+01	 4.312499999999998e+01	 1.000022771076923e+01
0	 2.624999999999999e+01	 4.375000000000001e+01	 1.000015649230769e+01
0	 2.687499999999999e+01	 3.750000000000000e+01	 1.000078527692309e+01
0	 2.687499999999999e+01	 3.812499999999999e+01	 1.000073261615385e+01
0	 2.687499999999999e+01	 3.875000000000000e+01	 1.000067796615384e+01
0	 2.687500000000000e+01	 3.937500000000000e+01	 1.000062132692308e+01
0	 2.687500000000000e+01	 3.999999999999999e+01	 1.000056269846153e+01
0	 2.687500000000000e+01	 4.062499999999999e+01	 1.000050208076923e+01
0	 2.687499999999999e+01	 4.124999999999999e+01	 1.000043947384615e+01
0	 2.687499999999999e+01	 4.187499999999999e+01	 1.000037487769231e+01
0	 2.687500000000000e+01	 4.249999999999999e+01	 1.000030829230768e+01
0	 2.687499999999999e+01	 4.312499999999997e+01	 1.000023971769231e+01
0	 2.687499999999999e+01	 4.375000000000000e+01	 1.000016915384615e+01
0	 2.749999999999999e+01	 3.750000000000000e+01	 1.000078627692308e+01
0	 2.749999999999999e+01	 3.812500000000000e+01	 1.000073454000000e+01
0	 2.750000000000000e+01	 3.874999999999999e+01	 1.000068078153847e+01
0	 2.750000000000000e+01	 3.937499999999999e+01	 1.000062500153846e+01
0	 2.749999999999999e+01	 3.999999999999999e+01	 1.000056720000000e+01
0	 2.749999999999999e+01	 4.062499999999999e+01	 1.000050737692308e+01
0	 2.749999999999999e+01	 4.124999999999999e+01	 1.000044553230769e+01
0	 2.749999999999999e+01	 4.187499999999999e+01	 1.000038166615384e+01
0	 2.749999999999999e+01	 4.249999999999998e+01	 1.000031577846153e+01
0	 2.750000000000000e+01	 4.312499999999998e+01	 1.000024786923077e+01
0	 2.749999999999999e+01	 4.375000000000000e+01	 1.000017793846154e+01
0	 2.812499999999999e+01	 3.750000000000000e+01	 1.000078361538462e+01
0	 2.812499999999999e+01	 3.812500000000000e+01	 1.000073278076924e+01
0	 2.812499999999999e+01	 3.874999999999999e+01	 1.000067989230769e+01
0	 2.812499999999999e+01	 3.937499999999999e+01	 1.000062495000000e+01
0	 2.812499999999999e+01	 3.999999999999999e+01	 1.000056795384615e+01
0	 2.812499999999999e+01	 4.062499999999999e+01	 1.000050890384616e+01
0	 2.812499999999999e+01	 4.125000000000000e+01	 1.000044779999999e+01
0	 2.812499999999999e+01	 4.187499999999998e+01	 1.000038464230770e+01
0	 2.812499999999999e+01	 4.249999999999998e+01	 1.000031943076923e+01
0	 2.812499999999999e+01	 4.312499999999999e+01	 1.000025216538463e+01
0	 2.812499999999999e+01	 4.375000000000000e+01	 1.000018284615384e+01
0	 2.874999999999999e+01	 3.750000000000000e+01	 1.000077729230770e+01
0	 2.874999999999999e+01	 3.812500000000000e+01	 1.000072733846154e+01
0	 2.874999999999998e+01	 3.874999999999999e+01	 1.000067529846155e+01
0	 2.874999999999998e+01	 3.937499999999999e+01	 1.000062117230770e+01
0	 2.874999999999999e+01	 4.000000000000000e+01	 1.000056496000000e+01
0	 2.874999999999999e+01	 4.062499999999999e+01	 1.000050666153846e+01
0	 2.874999999999999e+01	 4.124999999999999e+01	 1.000044627692308e+01
0	 2.874999999999999e+01	 4.187499999999998e+01	 1.000038380615384e+01
0	 2.874999999999999e+01	 4.249999999999998e+01	 1.000031924923078e+01
0	 2.874999999999999e+01	 4.312499999999999e+01	 1.000025260615384e+01
0	 2.874999999999999e+01	 4.375000000000000e+01	 1.000018387692306e+01
0	 2.937499999999999e+01	 3.750000000000000e+01	 1.000076730769231e+01
0	 2.937499999999998e+01	 3.812499999999999e+01	 1.000071821307693e+01
0	 2.937499999999999e+01	 3.875000000000000e+01	 1.000066700000000e+01
0	 2.937499999999998e+01	 3.937499999999999e+01	 1.000061366846154e+01
0	 2.937499999999999e+01	 3.999999999999999e+01	 1.000055821846153e+01
0	 2.937499999999999e+01	 4.062499999999999e+01	 1.000050064999999e+01
0	 2.937499999999998e+01	 4.124999999999999e+01	 1.000044096307693e+01
0	 2.937499999999999e+01	 4.187499999999999e+01	 1.000037915769232e+01
0	 2.937499999999998e+01	 4.249999999999999e+01	 1.000031523384615e+01
0	 2.937499999999999e+01	 4.312499999999999e+01	 1.000024919153846e+01
0	 2.937499999999999e+01	 4.374999999999999e+01	 1.000018103076924e+01
0	 2.999999999999998e+01	 3.750000000000000e+01	 1.000075366153847e+01
0	 2.999999999999999e+01	 3.812500000000001e+01	 1.000070540461539e+01
0	 2.999999999999998e+01	 3.875000000000000e+01	 1.000065499692307e+01
0	 2.999999999999999e+01	 3.937500000000000e+01	 1.000060243846154e+01
0	 2.999999999999999e+01	 3.999999999999999e+01	 1.000054772923078e+01
0	 2.999999999999998e+01	 4.062499999999999e+01	 1.000049086923076e+01
0	 2.999999999999998e+01	 4.124999999999999e+01	 1.000043185846154e+01
0	 2.999999999999998e+01	 4.187499999999999e+01	 1.000037069692307e+01
0	 2.999999999999998e+01	 4.249999999999999e+01	 1.000030738461538e+01
0	 2.999999999999998e+01	 4.312499999999999e+01	 1.000024192153846e+01
0	 2.999999999999998e+01	 4.375000000000000e+01	 1.000017430769230e+01
0	 3.062499999999998e+01	 3.750000000000000e+01	 1.000073635384615e+01
0	 3.062499999999998e+01	 3.812499999999999e+01	 1.000068891307693e+01
0	 3.062499999999998e+01	 3.875000000000000e+01	 1.000063928923077e+01
0	 3.062499999999998e+01	 3.937500000000000e+01	 1.000058748230769e+01
0	 3.062499999999998e+01	 3.999999999999999e+01	 1.000053349230769e+01
0	 3.062499999999998e+01	 4.062499999999999e+01	 1.000047731923077e+01
0	 3.062499999999998e+01	 4.124999999999999e+01	 1.000041896307692e+01
0	 3.062499999999998e+01	 4.187499999999999e+01	 1.000035842384616e+01
0	 3.062499999999998e+01	 4.249999999999999e+01	 1.000029570153847e+01
0	 3.062499999999998e+01	 4.312499999999998e+01	 1.000023079615383e+01
0	 3.062499999999998e+01	 4.375000000000000e+01	 1.000016370769230e+01
0	 3.125000000000000e+01	 3.750000000000000e+01	 1.000071538461539e+01
0	 3.125000000000000e+01	 3.812500000000000e+01	 1.000066873846154e+01
0	 3.125000000000000e+01	 3.875000000000001e+01	 1.000061987692308e+01
0	 3.124999999999999e+01	 3.937499999999999e+01	 1.000056880000000e+01
0	 3.125000000000000e+01	 3.999999999999999e+01	 1.000051550769231e+01
0	 3.125000000000000e+01	 4.062499999999999e+01	 1.000046000000000e+01
0	 3.125000000000000e+01	 4.124999999999999e+01	 1.000040227692308e+01
0	 3.125000000000000e+01	 4.187499999999999e+01	 1.000034233846153e+01
0	 3.125000000000000e+01	 4.249999999999999e+01	 1.000028018461539e+01
0	 3.125000000000000e+01	 4.312499999999999e+01	 1.000021581538461e+01
0	 3.125000000000000e+01	 4.375000000000000e+01	 1.000014923076923e+01
0	 2.500000000000000e+01	 4.375000000000000e+01	 1.000011953846153e+01
0	 2.500000000000000e+01	 4.437500000000000e+01	 1.000012381076923e+01
0	 2.500000000000000e+01	 4.499999999999999e+01	 1.000012216615384e+01
0	 2.500000000000000e+01	 4.562499999999999e+01	 1.000011460461537e+01
0	 2.500000000000000e+01	 4.624999999999999e+01	 1.000010112615384e+01
0	 2.500000000000000e+01	 4.687499999999999e+01	 1.000008173076923e+01
0	 2.500000000000000e+01	 4.749999999999999e+01	 1.000005641846153e+01
0	 2.500000000000000e+01	 4.812499999999999e+01	 1.000002518923078e+01
0	 2.500000000000000e+01	 4.874999999999999e+01	 9.999988043076900e+00
0	 2.500000000000000e+01	 4.937499999999999e+01	 9.999944979999970e+00
0	 2.500000000000000e+01	 5.000000000000000e+01	 9.999896000000000e+00
0	 2.562500000000000e+01	 4.375000000000000e+01	 1.000013995384614e+01
0	 2.562500000000000e+01	 4.437500000000000e+01	 1.000014190815385e+01
0	 2.562499999999999e+01	 4.499999999999998e+01	 1.000013808492307e+01
0	 2.562500000000000e+01	 4.562499999999999e+01	 1.000012848415385e+01
0	 2.562500000000000e+01	 4.625000000000000e+01	 1.000011310584615e+01
0	 2.562500000000000e+01	 4.687499999999999e+01	 1.000009195000001e+01
0	 2.562500000000001e+01	 4.749999999999999e+01	 1.000006501661540e+01
0	 2.562500000000000e+01	 4.812499999999998e+01	 1.000003230569232e+01
0	 2.562500000000000e+01	 4.874999999999999e+01	 9.999993817230786e+00
0	 2.562499999999999e+01	 4.937499999999997e+01	 9.999949551230760e+00
0	 2.562500000000000e+01	 5.000000000000000e+01	 9.999899507692334e+00
0	 2.624999999999999e+01	 4.375000000000001e+01	 1.000015649230769e+01
0	 2.624999999999999e+01	 4.437499999999999e+01	 1.000015643015384e+01
0	 2.625000000000000e+01	 4.500000000000000e+01	 1.000015072984615e+01
0	 2.625000000000000e+01	 4.562499999999999e+01	 1.000013939138461e+01
0	 2.625000000000000e+01	 4.625000000000000e+01	 1.000012241476923e+01
0	 2.625000000000000e+01	 4.687499999999999e+01	 1.000009979999999e+01
0	 2.624999999999999e+01	 4.749999999999999e+01	 1.000007154707693e+01
0	 2.625000000000000e+01	 4.812500000000000e+01	 1.000003765599999e+01
0	 2.625000000000000e+01	 4.874999999999999e+01	 9.999998126769238e+00
0	 2.625000000000000e+01	 4.937499999999999e+01	 9.999952959384613e+00
0	 2.625000000000000e+01	 5.000000000000000e+01	 9.999902153846152e+00
0	 2.687499999999999e+01	 4.375000000000000e+01	 1.000016915384615e+01
0	 2.687499999999999e+01	 4.437499999999999e+01	 1.000016737676923e+01
0	 2.687499999999999e+01	 4.499999999999999e+01	 1.000016010092308e+01
0	 2.687500000000000e+01	 4.562499999999999e+01	 1.000014732630769e+01
0	 2.687499999999998e+01	 4.624999999999999e+01	 1.000012905292308e+01
0	 2.687499999999999e+01	 4.687499999999999e+01	 1.000010528076922e+01
0	 2.687499999999999e+01	 4.749999999999999e+01	 1.000007600984614e+01
0	 2.687499999999999e+01	 4.812499999999998e+01	 1.000004124015384e+01
0	 2.687499999999999e+01	 4.874999999999998e+01	 1.000000097169229e+01
0	 2.687499999999999e+01	 4.937499999999998e+01	 9.999955204461525e+00
0	 2.687499999999999e+01	 5.000000000000000e+01	 9.999903938461543e+00
0	 2.749999999999999e+01	 4.375000000000000e+01	 1.000017793846154e+01
0	 2.749999999999999e+01	 4.437499999999999e+01	 1.000017474800000e+01
0	 2.750000000000000e+01	 4.500000000000000e+01	 1.000016619815383e+01
0	 2.749999999999999e+01	 4.562499999999999e+01	 1.000015228892306e+01
0	 2.749999999999999e+01	 4.625000000000000e+01	 1.000013302030769e+01
0	 2.749999999999999e+01	 4.687499999999999e+01	 1.000010839230768e+01
0	 2.750000000000000e+01	 4.749999999999999e+01	 1.000007840492306e+01
0	 2.750000000000000e+01	 4.812499999999998e+01	 1.000004305815386e+01
0	 2.749999999999999e+01	 4.874999999999999e+01	 1.000000235199999e+01
0	 2.749999999999999e+01	 4.937499999999996e+01	 9.999956286461551e+00
0	 2.749999999999999e+01	 5.000000000000000e+01	 9.999904861538457e+00
0	 2.812499999999999e+01	 4.375000000000000e+01	 1.000018284615384e+01
0	 2.812499999999999e+01	 4.437500000000000e+01	 1.000017854384615e+01
0	 2.812499999999999e+01	 4.499999999999999e+01	 1.000016902153845e+01
0	 2.812499999999999e+01	 4.562500000000000e+01	 1.000015427923076e+01
0	 2.812499999999998e+01	 4.624999999999999e+01	 1.000013431692307e+01
0	 2.812499999999999e+01	 4.687499999999999e+01	 1.000010913461538e+01
0	 2.812499999999999e+01	 4.749999999999999e+01	 1.000007873230768e+01
0	 2.812499999999999e+01	 4.812499999999999e+01	 1.000004311000000e+01
0	 2.812499999999999e+01	 4.874999999999998e+01	 1.000000226769232e+01
0	 2.812499999999999e+01	 4.937499999999998e+01	 9.999956205384631e+00
0	 2.812499999999999e+01	 5.000000000000000e+01	 9.999904923076953e+00
0	 2.874999999999999e+01	 4.375000000000000e+01	 1.000018387692306e+01
0	 2.874999999999999e+01	 4.437499999999999e+01	 1.000017876430769e+01
0	 2.874999999999999e+01	 4.499999999999999e+01	 1.000016857107693e+01
0	 2.874999999999999e+01	 4.562499999999999e+01	 1.000015329723077e+01
0	 2.874999999999999e+01	 4.624999999999999e+01	 1.000013294276924e+01
0	 2.874999999999999e+01	 4.687499999999999e+01	 1.000010750769231e+01
0	 2.874999999999999e+01	 4.749999999999999e+01	 1.000007699200000e+01
0	 2.874999999999998e+01	 4.812499999999998e+01	 1.000004139569231e+01
0	 2.874999999999998e+01	 4.874999999999999e+01	 1.000000071876921e+01
0	 2.874999999999999e+01	 4.937499999999999e+01	 9.999954961230745e+00
0	 2.874999999999999e+01	 5.000000000000000e+01	 9.999904123076940e+00
0	 2.937499999999999e+01	 4.374999999999999e+01	 1.000018103076924e+01
0	 2.937499999999998e+01	 4.437499999999999e+01	 1.000017540938461e+01
0	 2.937499999999998e+01	 4.499999999999999e+01	 1.000016484676923e+01
0	 2.937499999999998e+01	 4.562499999999999e+01	 1.000014934292309e+01
0	 2.937499999999999e+01	 4.624999999999999e+01	 1.000012889784616e+01
0	 2.937499999999999e+01	 4.687499999999999e+01	 1.000010351153848e+01
0	 2.937499999999999e+01	 4.749999999999999e+01	 1.000007318400000e+01
0	 2.937499999999999e+01	 4.812499999999999e+01	 1.000003791523078e+01
0	 2.937499999999998e+01	 4.874999999999998e+01	 9.999997705230763e+00
0	 2.937499999999999e+01	 4.937499999999999e+01	 9.999952554000007e+00
0	 2.937499999999999e+01	 5.000000000000001e+01	 9.999902461538454e+00
0	 2.999999999999998e+01	 4.375000000000000e+01	 1.000017430769230e+01
0	 2.999999999999999e+01	 4.437500000000000e+01	 1.000016847907692e+01
0	 2.999999999999998e+01	 4.499999999999999e+01	 1.000015784861538e+01
0	 2.999999999999999e+01	 4.562500000000000e+01	 1.000014241630769e+01
0	 2.999999999999998e+01	 4.624999999999999e+01	 1.000012218215385e+01
0	 2.999999999999998e+01	 4.687499999999999e+01	 1.000009714615384e+01
0	 2.999999999999998e+01	 4.749999999999999e+01	 1.000006730830769e+01
0	 2.999999999999999e+01	 4.812499999999999e+01	 1.000003266861537e+01
0	 2.999999999999998e+01	 4.874999999999998e+01	 9.999993227076924e+00
0	 2.999999999999999e+01	 4.937499999999999e+01	 9.999948983692322e+00
0	 2.999999999999998e+01	 5.000000000000000e+01	 9.999899938461544e+00
0	 3.062499999999998e+01	 4.375000000000000e+01	 1.000016370769230e+01
0	 3.062499999999998e+01	 4.437500000000000e+01	 1.000015797338461e+01
0	 3.062499999999998e+01	 4.499999999999999e+01	 1.000014757661538e+01
0	 3.062499999999999e+01	 4.562500000000000e+01	 1.000013251738461e+01
0	 3.062499999999998e+01	 4.624999999999999e+01	 1.000011279569231e+01
0	 3.062499999999998e+01	 4.687499999999999e+01	 1.000008841153846e+01
0	 3.062499999999998e+01	 4.749999999999999e+01	 1.000005936492307e+01
0	 3.062499999999998e+01	 4.812499999999999e+01	 1.000002565584616e+01
0	 3.062499999999998e+01	 4.874999999999998e+01	 9.999987284307689e+00
0	 3.062499999999998e+01	 4.937499999999998e+01	 9.999944250307673e+00
0	 3.062499999999998e+01	 5.000000000000000e+01	 9.999896553846165e+00
0	 3.125000000000000e+01	 4.375000000000000e+01	 1.000014923076923e+01
0	 3.125000000000000e+01	 4.437500000000000e+01	 1.000014389230770e+01
0	 3.125000000000000e+01	 4.499999999999999e+01	 1.000013403076923e+01
0	 3.125000000000000e+01	 4.562499999999999e+01	 1.000011964615384e+01
0	 3.125000000000001e+01	 4.624999999999999e+01	 1.000010073846154e+01
0	 3.125000000000000e+01	 4.687499999999999e+01	 1.000007730769231e+01
0	 3.125000000000000e+01	 4.749999999999999e+01	 1.000004935384616e+01
0	 3.125000000000000e+01	 4.812499999999999e+01	 1.000001687692309e+01
0	 3.125000000000000e+01	 4.874999999999999e+01	 9.999979876923060e+00
0	 3.125000000000000e+01	 4.937499999999999e+01	 9.999938353846137e+00
0	 3.125000000000000e+01	 5.000000000000000e+01	 9.999892307692310e+00
0	 3.125000000000000e+01	 0.000000000000000e+00	 1.000249753846153e+01
0	 3.125000000000000e+01	 6.250000000000000e-01	 1.000247690769231e+01
0	 3.125000000000000e+01	 1.250000000000000e+00	 1.000245184615384e+01
0	 3.125000000000000e+01	 1.875000000000000e+00	 1.000242235384615e+01
0	 3.125000000000000e+01	 2.500000000000000e+00	 1.000238843076923e+01
0	 3.125000000000000e+01	 3.125000000000000e+00	 1.000235007692308e+01
0	 3.125000000000000e+01	 3.750000000000000e+00	 1.000230729230769e+01
0	 3.125000000000000e+01	 4.375000000000000e+00	 1.000226007692308e+01
0	 3.125000000000000e+01	 5.000000000000000e+00	 1.000220843076923e+01
0	 3.125000000000000e+01	 5.624999999999999e+00	 1.000215235384615e+01
0	 3.125000000000000e+01	 6.250000000000000e+00	 1.000209184615385e+01
0	 3.187500000000000e+01	 0.000000000000000e+00	 1.000222548000000e+01
0	 3.187499999999999e+01	 6.249999999999999e-01	 1.000223591369230e+01
0	 3.187500000000000e+01	 1.250000000000000e+00	 1.000224211969231e+01
0	 3.187500000000000e+01	 1.875000000000000e+00	 1.000224409800000e+01
0	 3.187499999999999e+01	 2.500000000000000e+00	 1.000224184861539e+01
0	 3.187500000000000e+01	 3.125000000000000e+00	 1.000223537153846e+01
0	 3.187500000000000e+01	 3.750000000000000e+00	 1.000222466676923e+01
0	 3.187500000000000e+01	 4.375000000000001e+00	 1.000220973430769e+01
0	 3.187500000000001e+01	 5.000000000000000e+00	 1.000219057415385e+01
0	 3.187500000000000e+01	 5.625000000000000e+00	 1.000216718630769e+01
0	 3.187500000000000e+01	 6.250000000000000e+00	 1.000213957076923e+01
0	 3.249999999999999e+01	 0.000000000000000e+00	 1.000197595076923e+01
0	 3.250000000000001e+01	 6.250000000000001e-01	 1.000201223015384e+01
0	 3.249999999999999e+01	 1.250000000000000e+00	 1.000204448492307e+01
0	 3.250000000000000e+01	 1.875000000000000e+00	 1.000207271507692e+01
0	 3.249999999999999e+01	 2.500000000000000e+00	 1.000209692061538e+01
0	 3.249999999999999e+01	 3.125000000000000e+00	 1.000211710153846e+01
0	 3.250000000000001e+01	 3.750000000000001e+00	 1.000213325784615e+01
0	 3.250000000000000e+01	 4.374999999999999e+00	 1.000214538953846e+01
0	 3.250000000000000e+01	 5.000000000000000e+00	 1.000215349661538e+01
0	 3.249999999999999e+01	 5.624999999999999e+00	 1.000215757907692e+01
0	 3.250000000000000e+01	 6.250000000000000e+00	 1.000215763692307e+01
0	 3.312499999999999e+01	 0.000000000000000e+00	 1.000174895076923e+01
0	 3.312499999999999e+01	 6.250000000000000e-01	 1.000180585707692e+01
0	 3.312500000000000e+01	 1.250000000000000e+00	 1.000185894184615e+01
0	 3.312499999999999e+01	 1.875000000000000e+00	 1.000190820507692e+01
0	 3.312500000000001e+01	 2.500000000000001e+00	 1.000195364676923e+01
0	 3.312499999999999e+01	 3.125000000000000e+00	 1.000199526692307e+01
0	 3.312499999999999e+01	 3.750000000000000e+00	 1.000203306553846e+01
0	 3.312499999999999e+01	 4.375000000000000e+00	 1.000206704261538e+01
0	 3.312499999999999e+01	 4.999999999999998e+00	 1.000209719815384e+01
0	 3.312500000000000e+01	 5.625000000000001e+00	 1.000212353215384e+01
0	 3.312499999999999e+01	 6.249999999999999e+00	 1.000214604461538e+01
0	 3.374999999999999e+01	 0.000000000000000e+00	 1.000154448000000e+01
0	 3.374999999999999e+01	 6.249999999999999e-01	 1.000161679446154e+01
0	 3.374999999999998e+01	 1.250000000000000e+00	 1.000168549046154e+01
0	 3.374999999999999e+01	 1.875000000000000e+00	 1.000175056800000e+01
0	 3.374999999999999e+01	 2.500000000000000e+00	 1.000181202707692e+01
0	 3.374999999999999e+01	 3.125000000000000e+00	 1.000186986769230e+01
0	 3.374999999999999e+01	 3.750000000000000e+00	 1.000192408984615e+01
0	 3.374999999999999e+01	 4.375000000000001e+00	 1.000197469353846e+01
0	 3.374999999999999e+01	 5.000000000000000e+00	 1.000202167876923e+01
0	 3.374999999999999e+01	 5.625000000000000e+00	 1.000206504553846e+01
0	 3.374999999999999e+01	 6.250000000000000e+00	 1.000210479384615e+01
0	 3.437499999999999e+01	 0.000000000000000e+00	 1.000136253846153e+01
0	 3.437499999999998e+01	 6.249999999999998e-01	 1.000144504230769e+01
0	 3.437499999999999e+01	 1.250000000000000e+00	 1.000152413076923e+01
0	 3.437499999999999e+01	 1.875000000000000e+00	 1.000159980384616e+01
0	 3.437499999999999e+01	 2.500000000000000e+00	 1.000167206153846e+01
0	 3.437499999999999e+01	 3.125000000000000e+00	 1.000174090384615e+01
0	 3.437499999999999e+01	 3.750000000000000e+00	 1.000180633076923e+01
0	 3.437499999999999e+01	 4.375000000000000e+00	 1.000186834230769e+01
0	 3.437499999999999e+01	 4.999999999999998e+00	 1.000192693846154e+01
0	 3.437500000000000e+01	 5.625000000000001e+00	 1.000198211923077e+01
0	 3.437499999999999e+01	 6.249999999999999e+00	 1.000203388461538e+01
0	 3.499999999999999e+01	 0.000000000000000e+00	 1.000120312615385e+01
0	 3.499999999999999e+01	 6.250000000000001e-01	 1.000129060061538e+01
0	 3.499999999999999e+01	 1.250000000000000e+00	 1.000137486276923e+01
0	 3.499999999999999e+01	 1.875000000000000e+00	 1.000145591261538e+01
0	 3.499999999999999e+01	 2.500000000000000e+00	 1.000153375015384e+01
0	 3.499999999999999e+01	 3.125000000000000e+00	 1.000160837538462e+01
0	 3.499999999999999e+01	 3.750000000000000e+00	 1.000167978830769e+01
0	 3.499999999999999e+01	 4.375000000000001e+00	 1.000174798892307e+01
0	 3.499999999999999e+01	 4.999999999999999e+00	 1.000181297723076e+01
0	 3.499999999999999e+01	 5.624999999999999e+00	 1.000187475323077e+01
0	 3.499999999999999e+01	 6.250000000000000e+00	 1.000193331692308e+01
0	 3.562499999999999e+01	 0.000000000000000e+00	 1.000106624307692e+01
0	 3.562499999999999e+01	 6.250000000000000e-01	 1.000115346938462e+01
0	 3.562499999999999e+01	 1.250000000000000e+00	 1.000123768646153e+01
0	 3.562499999999999e+01	 1.875000000000000e+00	 1.000131889430769e+01
0	 3.562499999999999e+01	 2.500000000000000e+00	 1.000139709292307e+01
0	 3.562499999999999e+01	 3.125000000000000e+00	 1.000147228230769e+01
0	 3.562499999999999e+01	 3.750000000000000e+00	 1.000154446246153e+01
0	 3.562499999999999e+01	 4.375000000000000e+00	 1.000161363338461e+01
0	 3.562499999999999e+01	 5.000000000000000e+00	 1.000167979507692e+01
0	 3.562499999999999e+01	 5.625000000000000e+00	 1.000174294753846e+01
0	 3.562499999999999e+01	 6.250000000000000e+00	 1.000180309076923e+01
0	 3.624999999999998e+01	 0.000000000000000e+00	 1.000095188923076e+01
0	 3.624999999999998e+01	 6.250000000000000e-01	 1.000103364861538e+01
0	 3.624999999999999e+01	 1.250000000000000e+00	 1.000111260184615e+01
0	 3.624999999999999e+01	 1.875000000000001e+00	 1.000118874892307e+01
0	 3.624999999999998e+01	 2.500000000000000e+00	 1.000126208984615e+01
0	 3.624999999999997e+01	 3.124999999999999e+00	 1.000133262461538e+01
0	 3.624999999999999e+01	 3.750000000000000e+00	 1.000140035323077e+01
0	 3.624999999999998e+01	 4.375000000000000e+00	 1.000146527569231e+01
0	 3.624999999999999e+01	 4.999999999999999e+00	 1.000152739200000e+01
0	 3.624999999999999e+01	 5.625000000000000e+00	 1.000158670215384e+01
0	 3.624999999999998e+01	 6.250000000000000e+00	 1.000164320615385e+01
0	 3.687499999999998e+01	 0.000000000000000e+00	 1.000086006461538e+01
0	 3.687499999999998e+01	 6.250000000000000e-01	 1.000093113830769e+01
0	 3.687499999999998e+01	 1.250000000000000e+00	 1.000099960892307e+01
0	 3.687499999999999e+01	 1.875000000000000e+00	 1.000106547646154e+01
0	 3.687499999999997e+01	 2.500000000000000e+00	 1.000112874092307e+01
0	 3.687499999999998e+01	 3.125000000000000e+00	 1.000118940230769e+01
0	 3.687499999999998e+01	 3.750000000000000e+00	 1.000124746061538e+01
0	 3.687499999999998e+01	 4.375000000000000e+00	 1.000130291584615e+01
0	 3.687499999999998e+01	 4.999999999999999e+00	 1.000135576799999e+01
0	 3.687499999999998e+01	 5.624999999999999e+00	 1.000140601707692e+01
0	 3.687499999999998e+01	 6.250000000000000e+00	 1.000145366307692e+01
0	 3.750000000000000e+01	 0.000000000000000e+00	 1.000079076923077e+01
0	 3.750000000000000e+01	 6.250000000000000e-01	 1.000084593846153e+01
0	 3.750000000000000e+01	 1.250000000000000e+00	 1.000089870769230e+01
0	 3.750000000000000e+01	 1.875000000000000e+00	 1.000094907692307e+01
0	 3.750000000000001e+01	 2.500000000000000e+00	 1.000099704615384e+01
0	 3.750000000000000e+01	 3.125000000000000e+00	 1.000104261538461e+01
0	 3.750000000000000e+01	 3.750000000000000e+00	 1.000108578461538e+01
0	 3.750000000000000e+01	 4.375000000000000e+00	 1.000112655384615e+01
0	 3.750000000000000e+01	 5.000000000000000e+00	 1.000116492307692e+01
0	 3.750000000000000e+01	 5.624999999999999e+00	 1.000120089230769e+01
0	 3.750000000000000e+01	 6.250000000000000e+00	 1.000123446153846e+01
0	 3.125000000000000e+01	 6.250000000000000e+00	 1.000209184615385e+01
0	 3.125000000000000e+01	 6.875000000000000e+00	 1.000229066153846e+01
0	 3.125000000000000e+01	 7.500000000000002e+00	 1.000248098461538e+01
0	 3.125000000000000e+01	 8.125000000000004e+00	 1.000266281538461e+01
0	 3.125000000000000e+01	 8.750000000000004e+00	 1.000283615384615e+01
0	 3.125000000000000e+01	 9.375000000000004e+00	 1.000300100000000e+01
0	 3.125000000000000e+01	 1.000000000000000e+01	 1.000315735384615e+01
0	 3.125000000000000e+01	 1.062500000000000e+01	 1.000330521538461e+01
0	 3.125000000000001e+01	 1.125000000000001e+01	 1.000344458461538e+01
0	 3.125000000000000e+01	 1.187500000000001e+01	 1.000357546153846e+01
0	 3.125000000000000e+01	 1.250000000000000e+01	 1.000369784615384e+01
0	 3.187500000000000e+01	 6.250000000000000e+00	 1.000213957076923e+01
0	 3.187500000000000e+01	 6.874999999999999e+00	 1.000228735800000e+01
0	 3.187500000000000e+01	 7.500000000000002e+00	 1.000242774215385e+01
0	 3.187500000000000e+01	 8.125000000000002e+00	 1.000256072323077e+01
0	 3.187500000000000e+01	 8.750000000000004e+00	 1.000268630123077e+01
0	 3.187500000000000e+01	 9.375000000000004e+00	 1.000280447615384e+01
0	 3.187500000000000e+01	 1.000000000000001e+01	 1.000291524800000e+01
0	 3.187500000000000e+01	 1.062500000000001e+01	 1.000301861676923e+01
0	 3.187500000000000e+01	 1.125000000000001e+01	 1.000311458246154e+01
0	 3.187499999999999e+01	 1.187500000000000e+01	 1.000320314507692e+01
0	 3.187500000000000e+01	 1.250000000000000e+01	 1.000328430461538e+01
0	 3.250000000000000e+01	 6.250000000000000e+00	 1.000215763692307e+01
0	 3.250000000000001e+01	 6.875000000000002e+00	 1.000226113969231e+01
0	 3.250000000000000e+01	 7.500000000000002e+00	 1.000235832861538e+01
0	 3.250000000000000e+01	 8.125000000000002e+00	 1.000244920369231e+01
0	 3.249999999999999e+01	 8.750000000000002e+00	 1.000253376492308e+01
0	 3.250000000000001e+01	 9.375000000000004e+00	 1.000261201230769e+01
0	 3.250000000000001e+01	 1.000000000000001e+01	 1.000268394584615e+01
0	 3.249999999999999e+01	 1.062500000000000e+01	 1.000274956553846e+01
0	 3.250000000000000e+01	 1.125000000000001e+01	 1.000280887138462e+01
0	 3.250000000000000e+01	 1.187500000000000e+01	 1.000286186338461e+01
0	 3.250000000000000e+01	 1.250000000000000e+01	 1.000290854153846e+01
0	 3.312499999999999e+01	 6.249999999999999e+00	 1.000214604461538e+01
0	 3.312499999999999e+01	 6.875000000000001e+00	 1.000221200661538e+01
0	 3.312499999999999e+01	 7.500000000000000e+00	 1.000227274400000e+01
0	 3.312499999999999e+01	 8.125000000000002e+00	 1.000232825676923e+01
0	 3.312499999999999e+01	 8.750000000000004e+00	 1.000237854492308e+01
0	 3.312499999999999e+01	 9.375000000000004e+00	 1.000242360846154e+01
0	 3.312499999999999e+01	 1.000000000000000e+01	 1.000246344738462e+01
0	 3.312500000000000e+01	 1.062500000000000e+01	 1.000249806169231e+01
0	 3.312499999999999e+01	 1.125000000000000e+01	 1.000252745138461e+01
0	 3.312499999999999e+01	 1.187500000000000e+01	 1.000255161646154e+01
0	 3.312499999999999e+01	 1.250000000000000e+01	 1.000257055692308e+01
0	 3.374999999999999e+01	 6.250000000000000e+00	 1.000210479384615e+01
0	 3.374999999999999e+01	 6.875000000000002e+00	 1.000213995876923e+01
0	 3.374999999999998e+01	 7.499999999999999e+00	 1.000217098830769e+01
0	 3.374999999999999e+01	 8.125000000000002e+00	 1.000219788246154e+01
0	 3.374999999999999e+01	 8.750000000000004e+00	 1.000222064123077e+01
0	 3.374999999999999e+01	 9.375000000000004e+00	 1.000223926461538e+01
0	 3.374999999999999e+01	 1.000000000000001e+01	 1.000225375261538e+01
0	 3.374999999999999e+01	 1.062500000000001e+01	 1.000226410523077e+01
0	 3.374999999999999e+01	 1.125000000000001e+01	 1.000227032246154e+01
0	 3.374999999999999e+01	 1.187500000000001e+01	 1.000227240430769e+01
0	 3.374999999999999e+01	 1.250000000000000e+01	 1.000227035076923e+01
0	 3.437499999999999e+01	 6.249999999999999e+00	 1.000203388461538e+01
0	 3.437499999999999e+01	 6.875000000000000e+00	 1.000204499615384e+01
0	 3.437499999999999e+01	 7.500000000000001e+00	 1.000205306153846e+01
0	 3.437499999999999e+01	 8.125000000000002e+00	 1.000205808076923e+01
0	 3.437499999999999e+01	 8.750000000000004e+00	 1.000206005384615e+01
0	 3.437499999999999e+01	 9.375000000000002e+00	 1.000205898076923e+01
0	 3.437499999999999e+01	 1.000000000000000e+01	 1.000205486153846e+01
0	 3.437499999999999e+01	 1.062500000000001e+01	 1.000204769615384e+01
0	 3.437499999999999e+01	 1.125000000000001e+01	 1.000203748461538e+01
0	 3.437499999999999e+01	 1.187500000000001e+01	 1.000202422692308e+01
0	 3.437499999999999e+01	 1.250000000000000e+01	 1.000200792307692e+01
0	 3.499999999999999e+01	 6.250000000000000e+00	 1.000193331692308e+01
0	 3.499999999999998e+01	 6.874999999999998e+00	 1.000192711876923e+01
0	 3.500000000000000e+01	 7.500000000000002e+00	 1.000191896369231e+01
0	 3.499999999999999e+01	 8.125000000000000e+00	 1.000190885169231e+01
0	 3.499999999999998e+01	 8.750000000000002e+00	 1.000189678276923e+01
0	 3.499999999999999e+01	 9.375000000000004e+00	 1.000188275692308e+01
0	 3.499999999999999e+01	 1.000000000000000e+01	 1.000186677415384e+01
0	 3.499999999999999e+01	 1.062500000000001e+01	 1.000184883446154e+01
0	 3.499999999999999e+01	 1.125000000000001e+01	 1.000182893784615e+01
0	 3.499999999999998e+01	 1.187500000000000e+01	 1.000180708430769e+01
0	 3.499999999999999e+01	 1.250000000000000e+01	 1.000178327384615e+01
0	 3.562499999999999e+01	 6.250000000000000e+00	 1.000180309076923e+01
0	 3.562499999999998e+01	 6.875000000000000e+00	 1.000178632661538e+01
0	 3.562499999999999e+01	 7.500000000000003e+00	 1.000176869476923e+01
0	 3.562499999999999e+01	 8.125000000000000e+00	 1.000175019523077e+01
0	 3.562499999999999e+01	 8.750000000000005e+00	 1.000173082800000e+01
0	 3.562499999999999e+01	 9.375000000000005e+00	 1.000171059307692e+01
0	 3.562499999999999e+01	 1.000000000000000e+01	 1.000168949046154e+01
0	 3.562499999999999e+01	 1.062500000000001e+01	 1.000166752015385e+01
0	 3.562499999999998e+01	 1.125000000000000e+01	 1.000164468215385e+01
0	 3.562499999999999e+01	 1.187500000000001e+01	 1.000162097646154e+01
0	 3.562499999999999e+01	 1.250000000000000e+01	 1.000159640307693e+01
0	 3.624999999999998e+01	 6.250000000000000e+00	 1.000164320615385e+01
0	 3.624999999999998e+01	 6.875000000000000e+00	 1.000162261969231e+01
0	 3.624999999999997e+01	 7.500000000000000e+00	 1.000160225476923e+01
0	 3.624999999999998e+01	 8.125000000000004e+00	 1.000158211138461e+01
0	 3.624999999999999e+01	 8.750000000000004e+00	 1.000156218953846e+01
0	 3.624999999999998e+01	 9.375000000000004e+00	 1.000154248923077e+01
0	 3.624999999999999e+01	 1.000000000000001e+01	 1.000152301046154e+01
0	 3.624999999999998e+01	 1.062500000000000e+01	 1.000150375323076e+01
0	 3.624999999999998e+01	 1.125000000000000e+01	 1.000148471753846e+01
0	 3.624999999999999e+01	 1.187500000000001e+01	 1.000146590338462e+01
0	 3.624999999999998e+01	 1.250000000000000e+01	 1.000144731076923e+01
0	 3.687499999999998e+01	 6.250000000000000e+00	 1.000145366307692e+01
0	 3.687499999999999e+01	 6.875000000000003e+00	 1.000143599799999e+01
0	 3.687499999999998e+01	 7.500000000000001e+00	 1.000141964369231e+01
0	 3.687499999999997e+01	 8.125000000000000e+00	 1.000140460015384e+01
0	 3.687499999999998e+01	 8.750000000000004e+00	 1.000139086738461e+01
0	 3.687499999999999e+01	 9.375000000000004e+00	 1.000137844538461e+01
0	 3.687499999999998e+01	 1.000000000000001e+01	 1.000136733415384e+01
0	 3.687499999999999e+01	 1.062500000000000e+01	 1.000135753369231e+01
0	 3.687499999999998e+01	 1.125000000000001e+01	 1.000134904400000e+01
0	 3.687499999999998e+01	 1.187500000000000e+01	 1.000134186507692e+01
0	 3.687499999999998e+01	 1.250000000000000e+01	 1.000133599692308e+01
0	 3.750000000000000e+01	 6.250000000000000e+00	 1.000123446153846e+01
0	 3.750000000000000e+01	 6.875000000000000e+00	 1.000122646153846e+01
0	 3.750000000000000e+01	 7.500000000000002e+00	 1.000122086153846e+01
0	 3.750000000000001e+01	 8.125000000000004e+00	 1.000121766153846e+01
0	 3.750000000000000e+01	 8.750000000000004e+00	 1.000121686153846e+01
0	 3.750000000000001e+01	 9.375000000000004e+00	 1.000121846153846e+01
0	 3.750000000000000e+01	 1.000000000000000e+01	 1.000122246153846e+01
0	 3.750000000000000e+01	 1.062500000000000e+01	 1.000122886153846e+01
0	 3.750000000000001e+01	 1.125000000000001e+01	 1.000123766153846e+01
0	 3.750000000000000e+01	 1.187500000000001e+01	 1.000124886153846e+01
0	 3.750000000000000e+01	 1.250000000000000e+01	 1.000126246153846e+01
0	 3.125000000000000e+01	 1.250000000000000e+01	 1.000369784615384e+01
0	 3.125000000000000e+01	 1.312500000000000e+01	 1.000353500000000e+01
0	 3.125000000000000e+01	 1.375000000000000e+01	 1.000338849230769e+01
0	 3.125000000000000e+01	 1.437500000000000e+01	 1.000325832307692e+01
0	 3.125000000000000e+01	 1.500000000000000e+01	 1.000314449230769e+01
0	 3.125000000000000e+01	 1.562500000000000e+01	 1.000304700000000e+01
0	 3.125000000000000e+01	 1.625000000000000e+01	 1.000296584615384e+01
0	 3.125000000000000e+01	 1.687500000000000e+01	 1.000290103076923e+01
0	 3.125000000000001e+01	 1.750000000000001e+01	 1.000285255384615e+01
0	 3.125000000000000e+01	 1.812500000000001e+01	 1.000282041538461e+01
0	 3.125000000000000e+01	 1.875000000000000e+01	 1.000280461538461e+01
0	 3.187500000000000e+01	 1.250000000000000e+01	 1.000328430461538e+01
0	 3.187500000000000e+01	 1.312500000000000e+01	 1.000316500030769e+01
0	 3.187500000000000e+01	 1.375000000000000e+01	 1.000306027138462e+01
0	 3.187500000000000e+01	 1.437500000000000e+01	 1.000297011784616e+01
0	 3.187500000000000e+01	 1.500000000000000e+01	 1.000289453969231e+01
0	 3.187500000000000e+01	 1.562500000000000e+01	 1.000283353692307e+01
0	 3.187500000000000e+01	 1.625000000000001e+01	 1.000278710953846e+01
0	 3.187500000000000e+01	 1.687500000000000e+01	 1.000275525753846e+01
0	 3.187500000000000e+01	 1.750000000000000e+01	 1.000273798092307e+01
0	 3.187499999999999e+01	 1.812500000000000e+01	 1.000273527969230e+01
0	 3.187500000000000e+01	 1.875000000000000e+01	 1.000274715384615e+01
0	 3.250000000000000e+01	 1.250000000000000e+01	 1.000290854153846e+01
0	 3.250000000000001e+01	 1.312500000000000e+01	 1.000282781661539e+01
0	 3.250000000000000e+01	 1.375000000000000e+01	 1.000275990399999e+01
0	 3.250000000000000e+01	 1.437500000000000e+01	 1.000270480369231e+01
0	 3.249999999999999e+01	 1.500000000000000e+01	 1.000266251569231e+01
0	 3.250000000000001e+01	 1.562500000000001e+01	 1.000263304000000e+01
0	 3.250000000000001e+01	 1.625000000000001e+01	 1.000261637661538e+01
0	 3.249999999999999e+01	 1.687500000000000e+01	 1.000261252553846e+01
0	 3.250000000000000e+01	 1.750000000000001e+01	 1.000262148676923e+01
0	 3.250000000000000e+01	 1.812500000000000e+01	 1.000264326030769e+01
0	 3.250000000000000e+01	 1.875000000000000e+01	 1.000267784615385e+01
0	 3.312499999999999e+01	 1.250000000000000e+01	 1.000257055692308e+01
0	 3.312499999999999e+01	 1.312500000000000e+01	 1.000252344892308e+01
0	 3.312499999999999e+01	 1.375000000000000e+01	 1.000248739015384e+01
0	 3.312499999999999e+01	 1.437500000000000e+01	 1.000246238061539e+01
0	 3.312499999999999e+01	 1.500000000000000e+01	 1.000244842030769e+01
0	 3.312499999999999e+01	 1.562500000000000e+01	 1.000244550923077e+01
0	 3.312499999999999e+01	 1.625000000000000e+01	 1.000245364738461e+01
0	 3.312500000000000e+01	 1.687500000000001e+01	 1.000247283476922e+01
0	 3.312499999999999e+01	 1.750000000000000e+01	 1.000250307138462e+01
0	 3.312499999999999e+01	 1.812500000000000e+01	 1.000254435723077e+01
0	 3.312499999999999e+01	 1.875000000000000e+01	 1.000259669230770e+01
0	 3.374999999999999e+01	 1.250000000000000e+01	 1.000227035076923e+01
0	 3.374999999999999e+01	 1.312500000000000e+01	 1.000225189723077e+01
0	 3.374999999999998e+01	 1.375000000000000e+01	 1.000224272984615e+01
0	 3.374999999999999e+01	 1.437500000000000e+01	 1.000224284861538e+01
0	 3.374999999999999e+01	 1.500000000000000e+01	 1.000225225353846e+01
0	 3.374999999999999e+01	 1.562500000000000e+01	 1.000227094461538e+01
0	 3.374999999999999e+01	 1.625000000000000e+01	 1.000229892184615e+01
0	 3.374999999999999e+01	 1.687500000000000e+01	 1.000233618523077e+01
0	 3.374999999999999e+01	 1.750000000000001e+01	 1.000238273476923e+01
0	 3.374999999999999e+01	 1.812500000000000e+01	 1.000243857046154e+01
0	 3.374999999999999e+01	 1.875000000000000e+01	 1.000250369230769e+01
0	 3.437499999999999e+01	 1.250000000000000e+01	 1.000200792307692e+01
0	 3.437499999999999e+01	 1.312500000000000e+01	 1.000201316153846e+01
0	 3.437499999999999e+01	 1.375000000000000e+01	 1.000202592307692e+01
0	 3.437499999999999e+01	 1.437500000000001e+01	 1.000204620769231e+01
0	 3.437499999999999e+01	 1.500000000000000e+01	 1.000207401538462e+01
0	 3.437499999999999e+01	 1.562500000000000e+01	 1.000210934615384e+01
0	 3.437499999999999e+01	 1.625000000000000e+01	 1.000215220000000e+01
0	 3.437499999999999e+01	 1.687500000000001e+01	 1.000220257692308e+01
0	 3.437499999999999e+01	 1.750000000000001e+01	 1.000226047692307e+01
0	 3.437499999999999e+01	 1.812500000000000e+01	 1.000232590000000e+01
0	 3.437499999999999e+01	 1.875000000000000e+01	 1.000239884615385e+01
0	 3.499999999999999e+01	 1.250000000000000e+01	 1.000178327384615e+01
0	 3.499999999999998e+01	 1.312500000000000e+01	 1.000180724184616e+01
0	 3.500000000000000e+01	 1.375000000000000e+01	 1.000183696984615e+01
0	 3.499999999999999e+01	 1.437500000000000e+01	 1.000187245784615e+01
0	 3.499999999999998e+01	 1.500000000000000e+01	 1.000191370584615e+01
0	 3.499999999999999e+01	 1.562500000000001e+01	 1.000196071384615e+01
0	 3.499999999999999e+01	 1.625000000000000e+01	 1.000201348184615e+01
0	 3.499999999999999e+01	 1.687500000000000e+01	 1.000207200984615e+01
0	 3.499999999999999e+01	 1.750000000000001e+01	 1.000213629784615e+01
0	 3.499999999999998e+01	 1.812500000000000e+01	 1.000220634584615e+01
0	 3.499999999999999e+01	 1.875000000000000e+01	 1.000228215384615e+01
0	 3.562499999999999e+01	 1.250000000000000e+01	 1.000159640307693e+01
0	 3.562499999999998e+01	 1.312500000000000e+01	 1.000163413815385e+01
0	 3.562499999999999e+01	 1.375000000000001e+01	 1.000167587015385e+01
0	 3.562499999999999e+01	 1.437500000000000e+01	 1.000172159907692e+01
0	 3.562499999999999e+01	 1.500000000000001e+01	 1.000177132492308e+01
0	 3.562499999999999e+01	 1.562500000000001e+01	 1.000182504769231e+01
0	 3.562499999999999e+01	 1.625000000000001e+01	 1.000188276738461e+01
0	 3.562499999999999e+01	 1.687500000000001e+01	 1.000194448400000e+01
0	 3.562499999999998e+01	 1.750000000000000e+01	 1.000201019753846e+01
0	 3.562499999999999e+01	 1.812500000000001e+01	 1.000207990800000e+01
0	 3.562499999999999e+01	 1.875000000000000e+01	 1.000215361538461e+01
0	 3.624999999999998e+01	 1.250000000000000e+01	 1.000144731076923e+01
0	 3.624999999999998e+01	 1.312500000000000e+01	 1.000149385046154e+01
0	 3.624999999999997e+01	 1.375000000000000e+01	 1.000154262400000e+01
0	 3.624999999999998e+01	 1.437500000000000e+01	 1.000159363138461e+01
0	 3.624999999999999e+01	 1.500000000000000e+01	 1.000164687261539e+01
0	 3.624999999999998e+01	 1.562500000000000e+01	 1.000170234769231e+01
0	 3.624999999999999e+01	 1.625000000000001e+01	 1.000176005661538e+01
0	 3.624999999999998e+01	 1.687500000000000e+01	 1.000181999938461e+01
0	 3.624999999999998e+01	 1.750000000000000e+01	 1.000188217600000e+01
0	 3.624999999999999e+01	 1.812500000000001e+01	 1.000194658646154e+01
0	 3.624999999999998e+01	 1.875000000000000e+01	 1.000201323076923e+01
0	 3.687499999999998e+01	 1.250000000000000e+01	 1.000133599692308e+01
0	 3.687499999999999e+01	 1.312500000000000e+01	 1.000138637876923e+01
0	 3.687499999999998e+01	 1.375000000000000e+01	 1.000143723138461e+01
0	 3.687499999999997e+01	 1.437500000000000e+01	 1.000148855476923e+01
0	 3.687499999999998e+01	 1.500000000000000e+01	 1.000154034892307e+01
0	 3.687499999999999e+01	 1.562500000000000e+01	 1.000159261384615e+01
0	 3.687499999999998e+01	 1.625000000000000e+01	 1.000164534953846e+01
0	 3.687499999999999e+01	 1.687500000000000e+01	 1.000169855600000e+01
0	 3.687499999999998e+01	 1.750000000000000e+01	 1.000175223323077e+01
0	 3.687499999999998e+01	 1.812500000000000e+01	 1.000180638123077e+01
0	 3.687499999999998e+01	 1.875000000000000e+01	 1.000186100000000e+01
0	 3.750000000000000e+01	 1.250000000000000e+01	 1.000126246153846e+01
0	 3.750000000000000e+01	 1.312500000000000e+01	 1.000131172307693e+01
0	 3.750000000000000e+01	 1.375000000000000e+01	 1.000135969230769e+01
0	 3.750000000000001e+01	 1.437500000000000e+01	 1.000140636923077e+01
0	 3.750000000000000e+01	 1.500000000000000e+01	 1.000145175384615e+01
0	 3.750000000000001e+01	 1.562500000000000e+01	 1.000149584615385e+01
0	 3.750000000000000e+01	 1.625000000000000e+01	 1.000153864615385e+01
0	 3.750000000000000e+01	 1.687500000000000e+01	 1.000158015384615e+01
0	 3.750000000000001e+01	 1.750000000000001e+01	 1.000162036923077e+01
0	 3.750000000000000e+01	 1.812500000000001e+01	 1.000165929230769e+01
0	 3.750000000000000e+01	 1.875000000000000e+01	 1.000169692307692e+01
0	 3.125000000000000e+01	 1.875000000000000e+01	 1.000280461538461e+01
0	 3.125000000000000e+01	 1.937500000000000e+01	 1.000277524615384e+01
0	 3.125000000000000e+01	 2.000000000000000e+01	 1.000274375384615e+01
0	 3.125000000000000e+01	 2.062500000000000e+01	 1.000271013846154e+01
0	 3.125000000000000e+01	 2.125000000000000e+01	 1.000267440000000e+01
0	 3.125000000000000e+01	 2.187500000000000e+01	 1.000263653846153e+01
0	 3.125000000000000e+01	 2.250000000000000e+01	 1.000259655384615e+01
0	 3.125000000000000e+01	 2.312500000000001e+01	 1.000255444615384e+01
0	 3.125000000000001e+01	 2.375000000000001e+01	 1.000251021538461e+01
0	 3.125000000000000e+01	 2.437500000000001e+01	 1.000246386153846e+01
0	 3.125000000000000e+01	 2.500000000000000e+01	 1.000241538461538e+01
0	 3.187500000000000e+01	 1.875000000000000e+01	 1.000274715384615e+01
0	 3.187500000000000e+01	 1.937500000000000e+01	 1.000270552000000e+01
0	 3.187500000000000e+01	 2.000000000000000e+01	 1.000266255692307e+01
0	 3.187500000000000e+01	 2.062500000000000e+01	 1.000261826461538e+01
0	 3.187500000000000e+01	 2.125000000000001e+01	 1.000257264307692e+01
0	 3.187500000000000e+01	 2.187500000000000e+01	 1.000252569230769e+01
0	 3.187500000000000e+01	 2.250000000000000e+01	 1.000247741230769e+01
0	 3.187500000000000e+01	 2.312500000000000e+01	 1.000242780307692e+01
0	 3.187500000000000e+01	 2.375000000000000e+01	 1.000237686461537e+01
0	 3.187499999999999e+01	 2.437500000000000e+01	 1.000232459692307e+01
0	 3.187500000000000e+01	 2.500000000000000e+01	 1.000227100000000e+01
0	 3.250000000000000e+01	 1.875000000000000e+01	 1.000267784615385e+01
0	 3.250000000000001e+01	 1.937500000000001e+01	 1.000262588615385e+01
0	 3.250000000000000e+01	 2.000000000000000e+01	 1.000257339076923e+01
0	 3.250000000000000e+01	 2.062500000000000e+01	 1.000252035999999e+01
0	 3.249999999999999e+01	 2.125000000000000e+01	 1.000246679384615e+01
0	 3.250000000000001e+01	 2.187500000000001e+01	 1.000241269230769e+01
0	 3.250000000000001e+01	 2.250000000000000e+01	 1.000235805538461e+01
0	 3.249999999999999e+01	 2.312500000000001e+01	 1.000230288307691e+01
0	 3.250000000000000e+01	 2.375000000000000e+01	 1.000224717538461e+01
0	 3.250000000000000e+01	 2.437500000000000e+01	 1.000219093230768e+01
0	 3.250000000000000e+01	 2.500000000000000e+01	 1.000213415384614e+01
0	 3.312499999999999e+01	 1.875000000000000e+01	 1.000259669230770e+01
0	 3.312499999999999e+01	 1.937500000000000e+01	 1.000253634461538e+01
0	 3.312499999999999e+01	 2.000000000000000e+01	 1.000247625538461e+01
0	 3.312499999999999e+01	 2.062500000000000e+01	 1.000241642461538e+01
0	 3.312499999999999e+01	 2.125000000000000e+01	 1.000235685230768e+01
0	 3.312499999999999e+01	 2.187500000000001e+01	 1.000229753846153e+01
0	 3.312499999999999e+01	 2.250000000000000e+01	 1.000223848307691e+01
0	 3.312500000000000e+01	 2.312500000000000e+01	 1.000217968615384e+01
0	 3.312499999999999e+01	 2.375000000000001e+01	 1.000212114769230e+01
0	 3.312499999999999e+01	 2.437500000000000e+01	 1.000206286769231e+01
0	 3.312499999999999e+01	 2.500000000000000e+01	 1.000200484615384e+01
0	 3.374999999999999e+01	 1.875000000000000e+01	 1.000250369230769e+01
0	 3.374999999999999e+01	 1.937500000000000e+01	 1.000243689538462e+01
0	 3.374999999999998e+01	 2.000000000000000e+01	 1.000237115076923e+01
0	 3.374999999999999e+01	 2.062500000000000e+01	 1.000230645846153e+01
0	 3.374999999999999e+01	 2.125000000000000e+01	 1.000224281846154e+01
0	 3.374999999999999e+01	 2.187500000000000e+01	 1.000218023076923e+01
0	 3.374999999999999e+01	 2.250000000000001e+01	 1.000211869538461e+01
0	 3.374999999999999e+01	 2.312500000000001e+01	 1.000205821230769e+01
0	 3.374999999999999e+01	 2.375000000000000e+01	 1.000199878153846e+01
0	 3.374999999999999e+01	 2.437500000000001e+01	 1.000194040307692e+01
0	 3.374999999999999e+01	 2.500000000000000e+01	 1.000188307692308e+01
0	 3.437499999999999e+01	 1.875000000000000e+01	 1.000239884615385e+01
0	 3.437499999999999e+01	 1.937500000000000e+01	 1.000232753846154e+01
0	 3.437499999999999e+01	 2.000000000000000e+01	 1.000225807692308e+01
0	 3.437499999999999e+01	 2.062500000000000e+01	 1.000219046153845e+01
0	 3.437499999999999e+01	 2.125000000000000e+01	 1.000212469230769e+01
0	 3.437499999999999e+01	 2.187500000000000e+01	 1.000206076923076e+01
0	 3.437499999999999e+01	 2.250000000000000e+01	 1.000199869230769e+01
0	 3.437499999999999e+01	 2.312500000000001e+01	 1.000193846153846e+01
0	 3.437499999999999e+01	 2.375000000000000e+01	 1.000188007692307e+01
0	 3.437499999999999e+01	 2.437500000000001e+01	 1.000182353846153e+01
0	 3.437499999999999e+01	 2.500000000000000e+01	 1.000176884615384e+01
0	 3.499999999999999e+01	 1.875000000000000e+01	 1.000228215384615e+01
0	 3.499999999999998e+01	 1.937500000000000e+01	 1.000220827384615e+01
0	 3.500000000000000e+01	 2.000000000000000e+01	 1.000213703384615e+01
0	 3.499999999999999e+01	 2.062500000000000e+01	 1.000206843384615e+01
0	 3.499999999999998e+01	 2.125000000000000e+01	 1.000200247384615e+01
0	 3.499999999999999e+01	 2.187500000000000e+01	 1.000193915384615e+01
0	 3.499999999999999e+01	 2.250000000000000e+01	 1.000187847384615e+01
0	 3.499999999999999e+01	 2.312500000000001e+01	 1.000182043384615e+01
0	 3.499999999999999e+01	 2.375000000000001e+01	 1.000176503384615e+01
0	 3.499999999999998e+01	 2.437500000000000e+01	 1.000171227384615e+01
0	 3.499999999999999e+01	 2.500000000000000e+01	 1.000166215384616e+01
0	 3.562499999999999e+01	 1.875000000000000e+01	 1.000215361538461e+01
0	 3.562499999999998e+01	 1.937500000000000e+01	 1.000207910153846e+01
0	 3.562499999999999e+01	 2.000000000000000e+01	 1.000200802153845e+01
0	 3.562499999999999e+01	 2.062500000000000e+01	 1.000194037538462e+01
0	 3.562499999999999e+01	 2.125000000000000e+01	 1.000187616307693e+01
0	 3.562499999999999e+01	 2.187500000000001e+01	 1.000181538461538e+01
0	 3.562499999999999e+01	 2.250000000000000e+01	 1.000175804000000e+01
0	 3.562499999999999e+01	 2.312500000000001e+01	 1.000170412923077e+01
0	 3.562499999999998e+01	 2.375000000000000e+01	 1.000165365230769e+01
0	 3.562499999999999e+01	 2.437500000000001e+01	 1.000160660923077e+01
0	 3.562499999999999e+01	 2.500000000000000e+01	 1.000156299999999e+01
0	 3.624999999999998e+01	 1.875000000000000e+01	 1.000201323076923e+01
0	 3.624999999999998e+01	 1.937500000000000e+01	 1.000194002153846e+01
0	 3.624999999999997e+01	 2.000000000000000e+01	 1.000187103999999e+01
0	 3.624999999999998e+01	 2.062500000000000e+01	 1.000180628615384e+01
0	 3.624999999999999e+01	 2.125000000000000e+01	 1.000174576000000e+01
0	 3.624999999999998e+01	 2.187500000000000e+01	 1.000168946153845e+01
0	 3.624999999999999e+01	 2.250000000000000e+01	 1.000163739076923e+01
0	 3.624999999999998e+01	 2.312500000000000e+01	 1.000158954769230e+01
0	 3.624999999999998e+01	 2.375000000000000e+01	 1.000154593230768e+01
0	 3.624999999999999e+01	 2.437500000000001e+01	 1.000150654461538e+01
0	 3.624999999999998e+01	 2.500000000000000e+01	 1.000147138461538e+01
0	 3.687499999999998e+01	 1.875000000000000e+01	 1.000186100000000e+01
0	 3.687499999999999e+01	 1.937500000000000e+01	 1.000179103384616e+01
0	 3.687499999999998e+01	 2.000000000000000e+01	 1.000172608923076e+01
0	 3.687499999999997e+01	 2.062500000000000e+01	 1.000166616615384e+01
0	 3.687499999999998e+01	 2.125000000000000e+01	 1.000161126461538e+01
0	 3.687499999999999e+01	 2.187500000000000e+01	 1.000156138461539e+01
0	 3.687499999999998e+01	 2.250000000000000e+01	 1.000151652615384e+01
0	 3.687499999999999e+01	 2.312500000000001e+01	 1.000147668923077e+01
0	 3.687499999999998e+01	 2.375000000000000e+01	 1.000144187384615e+01
0	 3.687499999999998e+01	 2.437500000000001e+01	 1.000141207999999e+01
0	 3.687499999999998e+01	 2.500000000000000e+01	 1.000138730769230e+01
0	 3.750000000000000e+01	 1.875000000000000e+01	 1.000169692307692e+01
0	 3.750000000000000e+01	 1.937500000000000e+01	 1.000163213846153e+01
0	 3.750000000000000e+01	 2.000000000000000e+01	 1.000157316923077e+01
0	 3.750000000000001e+01	 2.062500000000000e+01	 1.000152001538462e+01
0	 3.750000000000000e+01	 2.125000000000000e+01	 1.000147267692307e+01
0	 3.750000000000001e+01	 2.187500000000000e+01	 1.000143115384615e+01
0	 3.750000000000000e+01	 2.250000000000000e+01	 1.000139544615384e+01
0	 3.750000000000000e+01	 2.312500000000001e+01	 1.000136555384615e+01
0	 3.750000000000001e+01	 2.375000000000001e+01	 1.000134147692308e+01
0	 3.750000000000000e+01	 2.437500000000001e+01	 1.000132321538462e+01
0	 3.750000000000000e+01	 2.500000000000000e+01	 1.000131076923076e+01
0	 3.125000000000000e+01	 2.500000000000000e+01	 1.000241538461538e+01
0	 3.125000000000000e+01	 2.562500000000000e+01	 1.000229618461538e+01
0	 3.125000000000000e+01	 2.625000000000000e+01	 1.000218196923077e+01
0	 3.124999999999999e+01	 2.687499999999999e+01	 1.000207273846154e+01
0	 3.125000000000000e+01	 2.749999999999999e+01	 1.000196849230769e+01
0	 3.125000000000000e+01	 2.812499999999999e+01	 1.000186923076923e+01
0	 3.125000000000000e+01	 2.874999999999999e+01	 1.000177495384616e+01
0	 3.125000000000000e+01	 2.937499999999999e+01	 1.000168566153847e+01
0	 3.125000000000000e+01	 2.999999999999998e+01	 1.000160135384615e+01
0	 3.125000000000000e+01	 3.062499999999998e+01	 1.000152203076923e+01
0	 3.125000000000000e+01	 3.125000000000000e+01	 1.000144769230769e+01
0	 3.187500000000000e+01	 2.500000000000000e+01	 1.000227100000000e+01
0	 3.187500000000000e+01	 2.562500000000000e+01	 1.000216571999999e+01
0	 3.187500000000000e+01	 2.625000000000000e+01	 1.000206488923077e+01
0	 3.187500000000000e+01	 2.687499999999999e+01	 1.000196850769231e+01
0	 3.187500000000000e+01	 2.749999999999999e+01	 1.000187657538461e+01
0	 3.187500000000000e+01	 2.812500000000000e+01	 1.000178909230769e+01
0	 3.187500000000000e+01	 2.874999999999999e+01	 1.000170605846154e+01
0	 3.187500000000000e+01	 2.937499999999999e+01	 1.000162747384616e+01
0	 3.187500000000000e+01	 3.000000000000000e+01	 1.000155333846154e+01
0	 3.187499999999999e+01	 3.062499999999998e+01	 1.000148365230769e+01
0	 3.187500000000000e+01	 3.125000000000000e+01	 1.000141841538462e+01
0	 3.250000000000000e+01	 2.500000000000000e+01	 1.000213415384614e+01
0	 3.250000000000000e+01	 2.562500000000000e+01	 1.000204163076923e+01
0	 3.250000000000001e+01	 2.625000000000000e+01	 1.000195302153846e+01
0	 3.250000000000000e+01	 2.687499999999999e+01	 1.000186832615384e+01
0	 3.249999999999999e+01	 2.749999999999999e+01	 1.000178754461539e+01
0	 3.249999999999999e+01	 2.812499999999999e+01	 1.000171067692308e+01
0	 3.249999999999999e+01	 2.874999999999998e+01	 1.000163772307692e+01
0	 3.250000000000000e+01	 2.937499999999999e+01	 1.000156868307693e+01
0	 3.249999999999999e+01	 2.999999999999998e+01	 1.000150355692308e+01
0	 3.250000000000000e+01	 3.062499999999999e+01	 1.000144234461539e+01
0	 3.250000000000000e+01	 3.125000000000000e+01	 1.000138504615385e+01
0	 3.312499999999999e+01	 2.500000000000000e+01	 1.000200484615384e+01
0	 3.312499999999999e+01	 2.562500000000000e+01	 1.000192391692307e+01
0	 3.312500000000001e+01	 2.625000000000000e+01	 1.000184636615384e+01
0	 3.312500000000000e+01	 2.687500000000000e+01	 1.000177219384615e+01
0	 3.312499999999999e+01	 2.749999999999999e+01	 1.000170140000000e+01
0	 3.312500000000000e+01	 2.812499999999999e+01	 1.000163398461538e+01
0	 3.312499999999999e+01	 2.874999999999998e+01	 1.000156994769230e+01
0	 3.312499999999999e+01	 2.937499999999998e+01	 1.000150928923077e+01
0	 3.312500000000000e+01	 2.999999999999999e+01	 1.000145200923078e+01
0	 3.312499999999999e+01	 3.062499999999998e+01	 1.000139810769231e+01
0	 3.312499999999999e+01	 3.125000000000000e+01	 1.000134758461539e+01
0	 3.374999999999999e+01	 2.500000000000000e+01	 1.000188307692308e+01
0	 3.374999999999999e+01	 2.562500000000000e+01	 1.000181257846154e+01
0	 3.374999999999999e+01	 2.625000000000000e+01	 1.000174492307692e+01
0	 3.374999999999999e+01	 2.687500000000000e+01	 1.000168011076923e+01
0	 3.374999999999999e+01	 2.749999999999999e+01	 1.000161814153847e+01
0	 3.374999999999999e+01	 2.812499999999999e+01	 1.000155901538461e+01
0	 3.374999999999999e+01	 2.874999999999999e+01	 1.000150273230769e+01
0	 3.374999999999999e+01	 2.937499999999998e+01	 1.000144929230769e+01
0	 3.374999999999999e+01	 2.999999999999999e+01	 1.000139869538462e+01
0	 3.374999999999999e+01	 3.062499999999998e+01	 1.000135094153846e+01
0	 3.374999999999999e+01	 3.125000000000000e+01	 1.000130603076923e+01
0	 3.437499999999999e+01	 2.500000000000000e+01	 1.000176884615384e+01
0	 3.437499999999999e+01	 2.562500000000000e+01	 1.000170761538461e+01
0	 3.437499999999999e+01	 2.625000000000000e+01	 1.000164869230769e+01
0	 3.437500000000000e+01	 2.687500000000000e+01	 1.000159207692307e+01
0	 3.437499999999998e+01	 2.749999999999999e+01	 1.000153776923077e+01
0	 3.437499999999999e+01	 2.812499999999999e+01	 1.000148576923077e+01
0	 3.437500000000000e+01	 2.874999999999999e+01	 1.000143607692307e+01
0	 3.437499999999999e+01	 2.937499999999998e+01	 1.000138869230769e+01
0	 3.437499999999999e+01	 2.999999999999999e+01	 1.000134361538462e+01
0	 3.437499999999999e+01	 3.062499999999998e+01	 1.000130084615385e+01
0	 3.437499999999999e+01	 3.125000000000000e+01	 1.000126038461539e+01
0	 3.499999999999999e+01	 2.500000000000000e+01	 1.000166215384616e+01
0	 3.499999999999999e+01	 2.562500000000000e+01	 1.000160902769231e+01
0	 3.499999999999998e+01	 2.624999999999999e+01	 1.000155767384615e+01
0	 3.499999999999999e+01	 2.687499999999999e+01	 1.000150809230769e+01
0	 3.500000000000000e+01	 2.750000000000000e+01	 1.000146028307692e+01
0	 3.499999999999999e+01	 2.812499999999999e+01	 1.000141424615384e+01
0	 3.499999999999999e+01	 2.874999999999999e+01	 1.000136998153846e+01
0	 3.499999999999999e+01	 2.937499999999999e+01	 1.000132748923076e+01
0	 3.499999999999999e+01	 2.999999999999999e+01	 1.000128676923077e+01
0	 3.499999999999999e+01	 3.062499999999998e+01	 1.000124782153846e+01
0	 3.499999999999999e+01	 3.125000000000000e+01	 1.000121064615385e+01
0	 3.562499999999999e+01	 2.500000000000000e+01	 1.000156299999999e+01
0	 3.562499999999998e+01	 2.562499999999999e+01	 1.000151681538461e+01
0	 3.562499999999999e+01	 2.624999999999999e+01	 1.000147186769230e+01
0	 3.562499999999999e+01	 2.687499999999999e+01	 1.000142815692307e+01
0	 3.562499999999999e+01	 2.749999999999999e+01	 1.000138568307692e+01
0	 3.562499999999999e+01	 2.812499999999999e+01	 1.000134444615385e+01
0	 3.562499999999999e+01	 2.874999999999999e+01	 1.000130444615385e+01
0	 3.562499999999999e+01	 2.937499999999999e+01	 1.000126568307692e+01
0	 3.562499999999999e+01	 2.999999999999998e+01	 1.000122815692308e+01
0	 3.562499999999999e+01	 3.062499999999998e+01	 1.000119186769231e+01
0	 3.562499999999999e+01	 3.125000000000000e+01	 1.000115681538462e+01
0	 3.624999999999998e+01	 2.500000000000000e+01	 1.000147138461538e+01
0	 3.624999999999999e+01	 2.562500000000000e+01	 1.000143097846153e+01
0	 3.624999999999999e+01	 2.625000000000000e+01	 1.000139127384615e+01
0	 3.624999999999999e+01	 2.687500000000000e+01	 1.000135227076923e+01
0	 3.624999999999998e+01	 2.749999999999999e+01	 1.000131396923077e+01
0	 3.624999999999998e+01	 2.812499999999999e+01	 1.000127636923076e+01
0	 3.624999999999998e+01	 2.874999999999999e+01	 1.000123947076923e+01
0	 3.624999999999998e+01	 2.937499999999998e+01	 1.000120327384615e+01
0	 3.624999999999998e+01	 2.999999999999998e+01	 1.000116777846154e+01
0	 3.624999999999998e+01	 3.062499999999999e+01	 1.000113298461538e+01
0	 3.624999999999998e+01	 3.125000000000000e+01	 1.000109889230770e+01
0	 3.687499999999998e+01	 2.500000000000000e+01	 1.000138730769230e+01
0	 3.687499999999998e+01	 2.562500000000000e+01	 1.000135151692308e+01
0	 3.687499999999999e+01	 2.625000000000000e+01	 1.000131589230769e+01
0	 3.687499999999999e+01	 2.687500000000000e+01	 1.000128043384615e+01
0	 3.687499999999998e+01	 2.749999999999999e+01	 1.000124514153846e+01
0	 3.687499999999998e+01	 2.812499999999999e+01	 1.000121001538462e+01
0	 3.687499999999998e+01	 2.874999999999999e+01	 1.000117505538461e+01
0	 3.687499999999998e+01	 2.937499999999999e+01	 1.000114026153846e+01
0	 3.687499999999998e+01	 2.999999999999998e+01	 1.000110563384616e+01
0	 3.687499999999998e+01	 3.062499999999998e+01	 1.000107117230769e+01
0	 3.687499999999998e+01	 3.125000000000000e+01	 1.000103687692308e+01
0	 3.750000000000000e+01	 2.500000000000000e+01	 1.000131076923076e+01
0	 3.750000000000000e+01	 2.562500000000000e+01	 1.000127843076923e+01
0	 3.750000000000001e+01	 2.625000000000000e+01	 1.000124572307692e+01
0	 3.749999999999999e+01	 2.687499999999999e+01	 1.000121264615385e+01
0	 3.750000000000000e+01	 2.749999999999999e+01	 1.000117920000000e+01
0	 3.749999999999999e+01	 2.812499999999999e+01	 1.000114538461539e+01
0	 3.750000000000000e+01	 2.874999999999999e+01	 1.000111120000000e+01
0	 3.750000000000000e+01	 2.937499999999999e+01	 1.000107664615385e+01
0	 3.750000000000000e+01	 2.999999999999998e+01	 1.000104172307692e+01
0	 3.750000000000000e+01	 3.062499999999998e+01	 1.000100643076924e+01
0	 3.750000000000000e+01	 3.125000000000000e+01	 1.000097076923077e+01
0	 3.125000000000000e+01	 3.125000000000000e+01	 1.000144769230769e+01
0	 3.125000000000000e+01	 3.187500000000000e+01	 1.000138152307693e+01
0	 3.125000000000000e+01	 3.250000000000001e+01	 1.000131378461538e+01
0	 3.124999999999999e+01	 3.312499999999999e+01	 1.000124447692307e+01
0	 3.125000000000000e+01	 3.374999999999999e+01	 1.000117360000000e+01
0	 3.125000000000000e+01	 3.437499999999999e+01	 1.000110115384615e+01
0	 3.125000000000000e+01	 3.499999999999999e+01	 1.000102713846154e+01
0	 3.125000000000000e+01	 3.562499999999999e+01	 1.000095155384615e+01
0	 3.125000000000000e+01	 3.624999999999998e+01	 1.000087440000000e+01
0	 3.125000000000000e+01	 3.687499999999998e+01	 1.000079567692307e+01
0	 3.125000000000000e+01	 3.750000000000000e+01	 1.000071538461539e+01
0	 3.187500000000000e+01	 3.125000000000000e+01	 1.000141841538462e+01
0	 3.187500000000000e+01	 3.187500000000000e+01	 1.000135284461539e+01
0	 3.187500000000000e+01	 3.250000000000000e+01	 1.000128592615385e+01
0	 3.187500000000000e+01	 3.312499999999999e+01	 1.000121766000000e+01
0	 3.187500000000000e+01	 3.374999999999999e+01	 1.000114804615385e+01
0	 3.187500000000000e+01	 3.437500000000000e+01	 1.000107708461539e+01
0	 3.187500000000000e+01	 3.499999999999999e+01	 1.000100477538462e+01
0	 3.187500000000000e+01	 3.562499999999999e+01	 1.000093111846154e+01
0	 3.187500000000000e+01	 3.624999999999999e+01	 1.000085611384615e+01
0	 3.187499999999999e+01	 3.687499999999997e+01	 1.000077976153846e+01
0	 3.187500000000000e+01	 3.750000000000000e+01	 1.000070206153847e+01
0	 3.250000000000000e+01	 3.125000000000000e+01	 1.000138504615385e+01
0	 3.250000000000000e+01	 3.187500000000000e+01	 1.000132031076924e+01
0	 3.250000000000001e+01	 3.250000000000001e+01	 1.000125444923077e+01
0	 3.250000000000000e+01	 3.312500000000000e+01	 1.000118746153846e+01
0	 3.249999999999999e+01	 3.374999999999999e+01	 1.000111934769231e+01
0	 3.249999999999999e+01	 3.437499999999999e+01	 1.000105010769230e+01
0	 3.249999999999999e+01	 3.499999999999999e+01	 1.000097974153846e+01
0	 3.250000000000000e+01	 3.562499999999999e+01	 1.000090824923076e+01
0	 3.249999999999999e+01	 3.624999999999998e+01	 1.000083563076924e+01
0	 3.250000000000000e+01	 3.687499999999998e+01	 1.000076188615386e+01
0	 3.250000000000000e+01	 3.750000000000001e+01	 1.000068701538461e+01
0	 3.312499999999999e+01	 3.125000000000000e+01	 1.000134758461539e+01
0	 3.312499999999999e+01	 3.187500000000000e+01	 1.000128392153847e+01
0	 3.312500000000001e+01	 3.250000000000000e+01	 1.000121935384615e+01
0	 3.312500000000000e+01	 3.312500000000000e+01	 1.000115388153846e+01
0	 3.312499999999999e+01	 3.374999999999999e+01	 1.000108750461538e+01
0	 3.312500000000000e+01	 3.437500000000000e+01	 1.000102022307693e+01
0	 3.312499999999999e+01	 3.499999999999998e+01	 1.000095203692308e+01
0	 3.312499999999999e+01	 3.562499999999998e+01	 1.000088294615384e+01
0	 3.312500000000000e+01	 3.624999999999999e+01	 1.000081295076922e+01
0	 3.312499999999999e+01	 3.687499999999998e+01	 1.000074205076924e+01
0	 3.312499999999999e+01	 3.750000000000000e+01	 1.000067024615385e+01
0	 3.374999999999999e+01	 3.125000000000000e+01	 1.000130603076923e+01
0	 3.374999999999999e+01	 3.187500000000000e+01	 1.000124367692307e+01
0	 3.374999999999999e+01	 3.250000000000000e+01	 1.000118064000000e+01
0	 3.374999999999999e+01	 3.312499999999999e+01	 1.000111692000000e+01
0	 3.374999999999999e+01	 3.374999999999999e+01	 1.000105251692308e+01
0	 3.374999999999999e+01	 3.437499999999999e+01	 1.000098743076923e+01
0	 3.374999999999999e+01	 3.499999999999999e+01	 1.000092166153846e+01
0	 3.374999999999999e+01	 3.562499999999998e+01	 1.000085520923076e+01
0	 3.374999999999999e+01	 3.624999999999999e+01	 1.000078807384616e+01
0	 3.374999999999999e+01	 3.687499999999999e+01	 1.000072025538461e+01
0	 3.374999999999999e+01	 3.750000000000000e+01	 1.000065175384616e+01
0	 3.437499999999999e+01	 3.125000000000000e+01	 1.000126038461539e+01
0	 3.437499999999999e+01	 3.187500000000000e+01	 1.000119957692308e+01
0	 3.437499999999999e+01	 3.249999999999999e+01	 1.000113830769230e+01
0	 3.437500000000000e+01	 3.312500000000000e+01	 1.000107657692308e+01
0	 3.437499999999998e+01	 3.374999999999999e+01	 1.000101438461538e+01
0	 3.437499999999999e+01	 3.437499999999999e+01	 1.000095173076923e+01
0	 3.437500000000000e+01	 3.499999999999999e+01	 1.000088861538462e+01
0	 3.437499999999999e+01	 3.562499999999999e+01	 1.000082503846154e+01
0	 3.437499999999999e+01	 3.624999999999998e+01	 1.000076100000000e+01
0	 3.437499999999999e+01	 3.687499999999999e+01	 1.000069649999999e+01
0	 3.437499999999999e+01	 3.750000000000000e+01	 1.000063153846153e+01
0	 3.499999999999999e+01	 3.125000000000000e+01	 1.000121064615385e+01
0	 3.499999999999999e+01	 3.187500000000000e+01	 1.000115162153847e+01
0	 3.499999999999998e+01	 3.249999999999999e+01	 1.000109235692308e+01
0	 3.499999999999999e+01	 3.312499999999999e+01	 1.000103285230770e+01
0	 3.500000000000000e+01	 3.375000000000001e+01	 1.000097310769232e+01
0	 3.499999999999999e+01	 3.437500000000000e+01	 1.000091312307693e+01
0	 3.499999999999999e+01	 3.499999999999999e+01	 1.000085289846154e+01
0	 3.499999999999999e+01	 3.562499999999999e+01	 1.000079243384615e+01
0	 3.499999999999999e+01	 3.624999999999999e+01	 1.000073172923076e+01
0	 3.499999999999999e+01	 3.687499999999998e+01	 1.000067078461537e+01
0	 3.499999999999999e+01	 3.750000000000000e+01	 1.000060959999999e+01
0	 3.562499999999999e+01	 3.125000000000000e+01	 1.000115681538462e+01
0	 3.562499999999998e+01	 3.187500000000000e+01	 1.000109981076924e+01
0	 3.562499999999999e+01	 3.250000000000000e+01	 1.000104278769231e+01
0	 3.562499999999999e+01	 3.312499999999999e+01	 1.000098574615385e+01
0	 3.562499999999999e+01	 3.374999999999999e+01	 1.000092868615384e+01
0	 3.562499999999999e+01	 3.437499999999999e+01	 1.000087160769231e+01
0	 3.562499999999999e+01	 3.500000000000000e+01	 1.000081451076923e+01
0	 3.562499999999999e+01	 3.562499999999999e+01	 1.000075739538461e+01
0	 3.562499999999999e+01	 3.624999999999998e+01	 1.000070026153846e+01
0	 3.562499999999999e+01	 3.687499999999999e+01	 1.000064310923077e+01
0	 3.562499999999999e+01	 3.750000000000000e+01	 1.000058593846154e+01
0	 3.624999999999998e+01	 3.125000000000000e+01	 1.000109889230770e+01
0	 3.624999999999999e+01	 3.187500000000000e+01	 1.000104414461539e+01
0	 3.624999999999999e+01	 3.249999999999999e+01	 1.000098960000000e+01
0	 3.624999999999999e+01	 3.312500000000000e+01	 1.000093525846154e+01
0	 3.624999999999998e+01	 3.374999999999999e+01	 1.000088112000000e+01
0	 3.624999999999998e+01	 3.437499999999999e+01	 1.000082718461539e+01
0	 3.624999999999998e+01	 3.499999999999999e+01	 1.000077345230770e+01
0	 3.624999999999998e+01	 3.562499999999998e+01	 1.000071992307692e+01
0	 3.624999999999998e+01	 3.624999999999998e+01	 1.000066659692307e+01
0	 3.624999999999998e+01	 3.687499999999998e+01	 1.000061347384616e+01
0	 3.624999999999998e+01	 3.750000000000000e+01	 1.000056055384615e+01
0	 3.687499999999998e+01	 3.125000000000000e+01	 1.000103687692308e+01
0	 3.687499999999998e+01	 3.187500000000000e+01	 1.000098462307693e+01
0	 3.687499999999999e+01	 3.249999999999999e+01	 1.000093279384615e+01
0	 3.687499999999999e+01	 3.312499999999999e+01	 1.000088138923078e+01
0	 3.687499999999998e+01	 3.374999999999999e+01	 1.000083040923077e+01
0	 3.687499999999998e+01	 3.437499999999999e+01	 1.000077985384615e+01
0	 3.687499999999998e+01	 3.499999999999999e+01	 1.000072972307693e+01
0	 3.687499999999998e+01	 3.562499999999999e+01	 1.000068001692308e+01
0	 3.687499999999998e+01	 3.624999999999999e+01	 1.000063073538462e+01
0	 3.687499999999998e+01	 3.687499999999998e+01	 1.000058187846153e+01
0	 3.687499999999998e+01	 3.750000000000000e+01	 1.000053344615385e+01
0	 3.750000000000000e+01	 3.125000000000000e+01	 1.000097076923077e+01
0	 3.750000000000000e+01	 3.187500000000000e+01	 1.000092124615385e+01
0	 3.750000000000001e+01	 3.250000000000001e+01	 1.000087236923077e+01
0	 3.749999999999999e+01	 3.312499999999999e+01	 1.000082413846154e+01
0	 3.750000000000000e+01	 3.374999999999999e+01	 1.000077655384615e+01
0	 3.749999999999999e+01	 3.437499999999999e+01	 1.000072961538461e+01
0	 3.750000000000000e+01	 3.499999999999999e+01	 1.000068332307693e+01
0	 3.750000000000000e+01	 3.562499999999999e+01	 1.000063767692307e+01
0	 3.750000000000000e+01	 3.624999999999998e+01	 1.000059267692308e+01
0	 3.750000000000000e+01	 3.687499999999998e+01	 1.000054832307692e+01
0	 3.750000000000000e+01	 3.750000000000000e+01	 1.000050461538461e+01
0	 3.125000000000000e+01	 3.750000000000000e+01	 1.000071538461539e+01
0	 3.125000000000000e+01	 3.812500000000000e+01	 1.000066873846154e+01
0	 3.125000000000000e+01	 3.875000000000001e+01	 1.000061987692308e+01
0	 3.124999999999999e+01	 3.937499999999999e+01	 1.000056880000000e+01
0	 3.125000000000000e+01	 3.999999999999999e+01	 1.000051550769231e+01
0	 3.125000000000000e+01	 4.062499999999999e+01	 1.000046000000000e+01
0	 3.125000000000000e+01	 4.124999999999999e+01	 1.000040227692308e+01
0	 3.125000000000000e+01	 4.187499999999999e+01	 1.000034233846153e+01
0	 3.125000000000000e+01	 4.249999999999999e+01	 1.000028018461539e+01
0	 3.125000000000000e+01	 4.312499999999999e+01	 1.000021581538461e+01
0	 3.125000000000000e+01	 4.375000000000000e+01	 1.000014923076923e+01
0	 3.187500000000000e+01	 3.750000000000000e+01	 1.000070206153847e+01
0	 3.187500000000000e+01	 3.812499999999999e+01	 1.000065655230769e+01
0	 3.187500000000000e+01	 3.874999999999999e+01	 1.000060888307693e+01
0	 3.187500000000000e+01	 3.937499999999999e+01	 1.000055905384616e+01
0	 3.187500000000000e+01	 3.999999999999999e+01	 1.000050706461538e+01
0	 3.187500000000000e+01	 4.062500000000000e+01	 1.000045291538461e+01
0	 3.187500000000000e+01	 4.124999999999999e+01	 1.000039660615385e+01
0	 3.187500000000000e+01	 4.187499999999999e+01	 1.000033813692307e+01
0	 3.187500000000000e+01	 4.249999999999998e+01	 1.000027750769231e+01
0	 3.187499999999999e+01	 4.312499999999997e+01	 1.000021471846152e+01
0	 3.187500000000000e+01	 4.375000000000000e+01	 1.000014976923075e+01
0	 3.250000000000000e+01	 3.750000000000001e+01	 1.000068701538461e+01
0	 3.250000000000000e+01	 3.812500000000000e+01	 1.000064270769230e+01
0	 3.250000000000001e+01	 3.875000000000001e+01	 1.000059629538462e+01
0	 3.250000000000000e+01	 3.937499999999999e+01	 1.000054777846154e+01
0	 3.249999999999999e+01	 3.999999999999999e+01	 1.000049715692308e+01
0	 3.249999999999999e+01	 4.062499999999999e+01	 1.000044443076923e+01
0	 3.249999999999999e+01	 4.124999999999997e+01	 1.000038960000000e+01
0	 3.250000000000000e+01	 4.187499999999999e+01	 1.000033266461538e+01
0	 3.249999999999999e+01	 4.249999999999999e+01	 1.000027362461538e+01
0	 3.250000000000000e+01	 4.312499999999998e+01	 1.000021248000000e+01
0	 3.250000000000000e+01	 4.375000000000001e+01	 1.000014923076922e+01
0	 3.312499999999999e+01	 3.750000000000000e+01	 1.000067024615385e+01
0	 3.312499999999999e+01	 3.812499999999999e+01	 1.000062720461538e+01
0	 3.312500000000001e+01	 3.875000000000000e+01	 1.000058211384616e+01
0	 3.312500000000000e+01	 3.937500000000000e+01	 1.000053497384616e+01
0	 3.312499999999999e+01	 3.999999999999999e+01	 1.000048578461538e+01
0	 3.312500000000000e+01	 4.062499999999999e+01	 1.000043454615384e+01
0	 3.312499999999999e+01	 4.124999999999999e+01	 1.000038125846154e+01
0	 3.312499999999999e+01	 4.187499999999999e+01	 1.000032592153847e+01
0	 3.312500000000000e+01	 4.249999999999999e+01	 1.000026853538461e+01
0	 3.312499999999999e+01	 4.312499999999997e+01	 1.000020910000000e+01
0	 3.312499999999999e+01	 4.375000000000000e+01	 1.000014761538462e+01
0	 3.374999999999999e+01	 3.750000000000000e+01	 1.000065175384616e+01
0	 3.374999999999999e+01	 3.812500000000000e+01	 1.000061004307692e+01
0	 3.374999999999999e+01	 3.874999999999999e+01	 1.000056633846155e+01
0	 3.374999999999999e+01	 3.937499999999999e+01	 1.000052064000000e+01
0	 3.374999999999999e+01	 3.999999999999999e+01	 1.000047294769231e+01
0	 3.374999999999999e+01	 4.062499999999999e+01	 1.000042326153846e+01
0	 3.374999999999999e+01	 4.124999999999999e+01	 1.000037158153846e+01
0	 3.374999999999999e+01	 4.187499999999999e+01	 1.000031790769231e+01
0	 3.374999999999999e+01	 4.249999999999998e+01	 1.000026224000001e+01
0	 3.374999999999999e+01	 4.312499999999998e+01	 1.000020457846154e+01
0	 3.374999999999999e+01	 4.375000000000000e+01	 1.000014492307691e+01
0	 3.437499999999999e+01	 3.750000000000000e+01	 1.000063153846153e+01
0	 3.437499999999999e+01	 3.812500000000000e+01	 1.000059122307693e+01
0	 3.437499999999999e+01	 3.874999999999999e+01	 1.000054896923077e+01
0	 3.437500000000000e+01	 3.937499999999999e+01	 1.000050477692308e+01
0	 3.437499999999998e+01	 3.999999999999999e+01	 1.000045864615385e+01
0	 3.437499999999999e+01	 4.062499999999999e+01	 1.000041057692308e+01
0	 3.437500000000000e+01	 4.125000000000000e+01	 1.000036056923077e+01
0	 3.437499999999999e+01	 4.187499999999998e+01	 1.000030862307692e+01
0	 3.437499999999999e+01	 4.249999999999998e+01	 1.000025473846153e+01
0	 3.437499999999999e+01	 4.312499999999999e+01	 1.000019891538462e+01
0	 3.437499999999999e+01	 4.375000000000000e+01	 1.000014115384614e+01
0	 3.499999999999999e+01	 3.750000000000000e+01	 1.000060959999999e+01
0	 3.499999999999999e+01	 3.812500000000000e+01	 1.000057074461538e+01
0	 3.499999999999998e+01	 3.874999999999999e+01	 1.000053000615385e+01
0	 3.499999999999999e+01	 3.937499999999999e+01	 1.000048738461539e+01
0	 3.500000000000000e+01	 4.000000000000000e+01	 1.000044288000000e+01
0	 3.499999999999999e+01	 4.062499999999999e+01	 1.000039649230769e+01
0	 3.499999999999999e+01	 4.124999999999999e+01	 1.000034822153846e+01
0	 3.499999999999999e+01	 4.187499999999998e+01	 1.000029806769230e+01
0	 3.499999999999999e+01	 4.249999999999998e+01	 1.000024603076923e+01
0	 3.499999999999999e+01	 4.312499999999999e+01	 1.000019211076922e+01
0	 3.499999999999999e+01	 4.375000000000000e+01	 1.000013630769231e+01
0	 3.562499999999999e+01	 3.750000000000000e+01	 1.000058593846154e+01
0	 3.562499999999998e+01	 3.812499999999999e+01	 1.000054860769231e+01
0	 3.562499999999999e+01	 3.875000000000000e+01	 1.000050944923077e+01
0	 3.562499999999999e+01	 3.937499999999999e+01	 1.000046846307693e+01
0	 3.562499999999999e+01	 3.999999999999999e+01	 1.000042564923077e+01
0	 3.562499999999999e+01	 4.062499999999999e+01	 1.000038100769230e+01
0	 3.562499999999999e+01	 4.124999999999999e+01	 1.000033453846154e+01
0	 3.562499999999999e+01	 4.187499999999999e+01	 1.000028624153847e+01
0	 3.562499999999999e+01	 4.249999999999999e+01	 1.000023611692308e+01
0	 3.562499999999999e+01	 4.312499999999999e+01	 1.000018416461538e+01
0	 3.562499999999999e+01	 4.374999999999999e+01	 1.000013038461539e+01
0	 3.624999999999998e+01	 3.750000000000000e+01	 1.000056055384615e+01
0	 3.624999999999999e+01	 3.812500000000001e+01	 1.000052481230769e+01
0	 3.624999999999999e+01	 3.875000000000000e+01	 1.000048729846154e+01
0	 3.624999999999999e+01	 3.937500000000000e+01	 1.000044801230770e+01
0	 3.624999999999998e+01	 3.999999999999999e+01	 1.000040695384615e+01
0	 3.624999999999998e+01	 4.062499999999999e+01	 1.000036412307692e+01
0	 3.624999999999998e+01	 4.124999999999999e+01	 1.000031952000000e+01
0	 3.624999999999998e+01	 4.187499999999999e+01	 1.000027314461539e+01
0	 3.624999999999998e+01	 4.249999999999999e+01	 1.000022499692308e+01
0	 3.624999999999998e+01	 4.312499999999999e+01	 1.000017507692307e+01
0	 3.624999999999998e+01	 4.375000000000000e+01	 1.000012338461538e+01
0	 3.687499999999998e+01	 3.750000000000000e+01	 1.000053344615385e+01
0	 3.687499999999998e+01	 3.812499999999999e+01	 1.000049935846153e+01
0	 3.687499999999999e+01	 3.875000000000000e+01	 1.000046355384615e+01
0	 3.687499999999999e+01	 3.937500000000000e+01	 1.000042603230769e+01
0	 3.687499999999998e+01	 3.999999999999999e+01	 1.000038679384615e+01
0	 3.687499999999998e+01	 4.062499999999999e+01	 1.000034583846154e+01
0	 3.687499999999998e+01	 4.124999999999999e+01	 1.000030316615385e+01
0	 3.687499999999998e+01	 4.187499999999999e+01	 1.000025877692307e+01
0	 3.687499999999998e+01	 4.249999999999999e+01	 1.000021267076923e+01
0	 3.687499999999998e+01	 4.312499999999998e+01	 1.000016484769230e+01
0	 3.687499999999998e+01	 4.375000000000000e+01	 1.000011530769230e+01
0	 3.750000000000000e+01	 3.750000000000000e+01	 1.000050461538461e+01
0	 3.750000000000000e+01	 3.812500000000000e+01	 1.000047224615385e+01
0	 3.750000000000001e+01	 3.875000000000001e+01	 1.000043821538462e+01
0	 3.749999999999999e+01	 3.937499999999999e+01	 1.000040252307692e+01
0	 3.750000000000000e+01	 3.999999999999999e+01	 1.000036516923077e+01
0	 3.749999999999999e+01	 4.062499999999999e+01	 1.000032615384615e+01
0	 3.750000000000000e+01	 4.124999999999999e+01	 1.000028547692307e+01
0	 3.750000000000000e+01	 4.187499999999999e+01	 1.000024313846153e+01
0	 3.750000000000000e+01	 4.249999999999999e+01	 1.000019913846154e+01
0	 3.750000000000000e+01	 4.312499999999999e+01	 1.000015347692307e+01
0	 3.750000000000000e+01	 4.375000000000000e+01	 1.000010615384615e+01
0	 3.125000000000000e+01	 4.375000000000000e+01	 1.000014923076923e+01
0	 3.125000000000000e+01	 4.437500000000000e+01	 1.000014389230770e+01
0	 3.125000000000000e+01	 4.499999999999999e+01	 1.000013403076923e+01
0	 3.125000000000000e+01	 4.562499999999999e+01	 1.000011964615384e+01
0	 3.125000000000001e+01	 4.624999999999999e+01	 1.000010073846154e+01
0	 3.125000000000000e+01	 4.687499999999999e+01	 1.000007730769231e+01
0	 3.125000000000000e+01	 4.749999999999999e+01	 1.000004935384616e+01
0	 3.125000000000000e+01	 4.812499999999999e+01	 1.000001687692309e+01
0	 3.125000000000000e+01	 4.874999999999999e+01	 9.999979876923060e+00
0	 3.125000000000000e+01	 4.937499999999999e+01	 9.999938353846137e+00
0	 3.125000000000000e+01	 5.000000000000000e+01	 9.999892307692310e+00
0	 3.187500000000000e+01	 4.375000000000000e+01	 1.000014976923075e+01
0	 3.187500000000000e+01	 4.437500000000000e+01	 1.000014598461539e+01
0	 3.187499999999999e+01	 4.499999999999998e+01	 1.000013775999999e+01
0	 3.187500000000000e+01	 4.562499999999999e+01	 1.000012509538462e+01
0	 3.187500000000000e+01	 4.625000000000000e+01	 1.000010799076923e+01
0	 3.187500000000000e+01	 4.687499999999999e+01	 1.000008644615385e+01
0	 3.187500000000000e+01	 4.749999999999999e+01	 1.000006046153847e+01
0	 3.187500000000000e+01	 4.812499999999998e+01	 1.000003003692308e+01
0	 3.187500000000000e+01	 4.874999999999999e+01	 9.999995172307706e+00
0	 3.187499999999999e+01	 4.937499999999997e+01	 9.999955867692286e+00
0	 3.187500000000000e+01	 5.000000000000000e+01	 9.999912123076960e+00
0	 3.250000000000000e+01	 4.375000000000001e+01	 1.000014923076922e+01
0	 3.249999999999999e+01	 4.437499999999999e+01	 1.000014676307692e+01
0	 3.250000000000000e+01	 4.500000000000000e+01	 1.000013993846154e+01
0	 3.249999999999999e+01	 4.562499999999999e+01	 1.000012875692307e+01
0	 3.249999999999999e+01	 4.625000000000000e+01	 1.000011321846153e+01
0	 3.250000000000001e+01	 4.687499999999999e+01	 1.000009332307692e+01
0	 3.250000000000000e+01	 4.749999999999999e+01	 1.000006907076923e+01
0	 3.250000000000000e+01	 4.812500000000000e+01	 1.000004046153845e+01
0	 3.249999999999999e+01	 4.874999999999999e+01	 1.000000749538461e+01
0	 3.250000000000000e+01	 4.937499999999999e+01	 9.999970172307711e+00
0	 3.249999999999999e+01	 5.000000000000000e+01	 9.999928492307690e+00
0	 3.312499999999999e+01	 4.375000000000000e+01	 1.000014761538462e+01
0	 3.312499999999999e+01	 4.437499999999999e+01	 1.000014622769232e+01
0	 3.312499999999999e+01	 4.499999999999999e+01	 1.000014056615384e+01
0	 3.312500000000000e+01	 4.562499999999999e+01	 1.000013063076923e+01
0	 3.312499999999999e+01	 4.624999999999999e+01	 1.000011642153846e+01
0	 3.312499999999999e+01	 4.687499999999999e+01	 1.000009793846154e+01
0	 3.312499999999999e+01	 4.749999999999999e+01	 1.000007518153846e+01
0	 3.312499999999999e+01	 4.812499999999998e+01	 1.000004815076924e+01
0	 3.312499999999999e+01	 4.874999999999998e+01	 1.000001684615382e+01
0	 3.312499999999999e+01	 4.937499999999998e+01	 9.999981267692284e+00
0	 3.312499999999999e+01	 5.000000000000000e+01	 9.999941415384594e+00
0	 3.374999999999999e+01	 4.375000000000000e+01	 1.000014492307691e+01
0	 3.374999999999999e+01	 4.437499999999999e+01	 1.000014437846154e+01
0	 3.375000000000000e+01	 4.500000000000000e+01	 1.000013964307691e+01
0	 3.374999999999999e+01	 4.562499999999999e+01	 1.000013071692307e+01
0	 3.374999999999999e+01	 4.625000000000000e+01	 1.000011760000000e+01
0	 3.374999999999999e+01	 4.687499999999999e+01	 1.000010029230768e+01
0	 3.374999999999999e+01	 4.749999999999999e+01	 1.000007879384614e+01
0	 3.374999999999999e+01	 4.812499999999998e+01	 1.000005310461541e+01
0	 3.374999999999999e+01	 4.874999999999999e+01	 1.000002322461537e+01
0	 3.374999999999999e+01	 4.937499999999996e+01	 9.999989153846139e+00
0	 3.374999999999999e+01	 5.000000000000000e+01	 9.999950892307714e+00
0	 3.437499999999999e+01	 4.375000000000000e+01	 1.000014115384614e+01
0	 3.437499999999999e+01	 4.437500000000000e+01	 1.000014121538461e+01
0	 3.437499999999999e+01	 4.499999999999999e+01	 1.000013716923077e+01
0	 3.437499999999999e+01	 4.562500000000000e+01	 1.000012901538461e+01
0	 3.437499999999998e+01	 4.624999999999999e+01	 1.000011675384615e+01
0	 3.437499999999999e+01	 4.687499999999999e+01	 1.000010038461538e+01
0	 3.437499999999998e+01	 4.749999999999999e+01	 1.000007990769230e+01
0	 3.437499999999999e+01	 4.812499999999999e+01	 1.000005532307691e+01
0	 3.437499999999999e+01	 4.874999999999998e+01	 1.000002663076925e+01
0	 3.437499999999999e+01	 4.937499999999998e+01	 9.999993830769236e+00
0	 3.437499999999999e+01	 5.000000000000000e+01	 9.999956923076926e+00
0	 3.499999999999999e+01	 4.375000000000000e+01	 1.000013630769231e+01
0	 3.499999999999999e+01	 4.437499999999999e+01	 1.000013673846153e+01
0	 3.499999999999999e+01	 4.499999999999999e+01	 1.000013314461539e+01
0	 3.499999999999999e+01	 4.562499999999999e+01	 1.000012552615384e+01
0	 3.499999999999999e+01	 4.624999999999999e+01	 1.000011388307692e+01
0	 3.499999999999998e+01	 4.687499999999999e+01	 1.000009821538461e+01
0	 3.499999999999999e+01	 4.749999999999999e+01	 1.000007852307692e+01
0	 3.499999999999998e+01	 4.812499999999998e+01	 1.000005480615384e+01
0	 3.499999999999999e+01	 4.874999999999999e+01	 1.000002706461538e+01
0	 3.499999999999999e+01	 4.937499999999999e+01	 9.999995298461560e+00
0	 3.499999999999999e+01	 5.000000000000000e+01	 9.999959507692306e+00
0	 3.562499999999999e+01	 4.374999999999999e+01	 1.000013038461539e+01
0	 3.562499999999998e+01	 4.437499999999999e+01	 1.000013094769230e+01
0	 3.562499999999998e+01	 4.499999999999999e+01	 1.000012756923076e+01
0	 3.562499999999999e+01	 4.562499999999999e+01	 1.000012024923077e+01
0	 3.562499999999999e+01	 4.624999999999999e+01	 1.000010898769231e+01
0	 3.562499999999998e+01	 4.687499999999999e+01	 1.000009378461538e+01
0	 3.562499999999999e+01	 4.749999999999999e+01	 1.000007463999999e+01
0	 3.562499999999999e+01	 4.812499999999999e+01	 1.000005155384616e+01
0	 3.562499999999999e+01	 4.874999999999998e+01	 1.000002452615383e+01
0	 3.562499999999999e+01	 4.937499999999999e+01	 9.999993556923066e+00
0	 3.562499999999999e+01	 5.000000000000001e+01	 9.999958646153814e+00
0	 3.624999999999998e+01	 4.375000000000000e+01	 1.000012338461538e+01
0	 3.624999999999998e+01	 4.437500000000000e+01	 1.000012384307692e+01
0	 3.624999999999999e+01	 4.499999999999999e+01	 1.000012044307692e+01
0	 3.624999999999999e+01	 4.562500000000000e+01	 1.000011318461538e+01
0	 3.624999999999998e+01	 4.624999999999999e+01	 1.000010206769231e+01
0	 3.624999999999999e+01	 4.687499999999999e+01	 1.000008709230768e+01
0	 3.624999999999999e+01	 4.749999999999999e+01	 1.000006825846154e+01
0	 3.624999999999999e+01	 4.812499999999999e+01	 1.000004556615384e+01
0	 3.624999999999999e+01	 4.874999999999998e+01	 1.000001901538462e+01
0	 3.624999999999999e+01	 4.937499999999999e+01	 9.999988606153842e+00
0	 3.624999999999998e+01	 5.000000000000000e+01	 9.999954338461528e+00
0	 3.687499999999998e+01	 4.375000000000000e+01	 1.000011530769230e+01
0	 3.687499999999999e+01	 4.437500000000000e+01	 1.000011542461538e+01
0	 3.687499999999998e+01	 4.499999999999999e+01	 1.000011176615383e+01
0	 3.687499999999999e+01	 4.562500000000000e+01	 1.000010433230769e+01
0	 3.687499999999999e+01	 4.624999999999999e+01	 1.000009312307692e+01
0	 3.687499999999998e+01	 4.687499999999999e+01	 1.000007813846154e+01
0	 3.687499999999998e+01	 4.749999999999999e+01	 1.000005937846154e+01
0	 3.687499999999998e+01	 4.812499999999999e+01	 1.000003684307691e+01
0	 3.687499999999998e+01	 4.874999999999998e+01	 1.000001053230768e+01
0	 3.687499999999999e+01	 4.937499999999998e+01	 9.999980446153826e+00
0	 3.687499999999998e+01	 5.000000000000000e+01	 9.999946584615367e+00
0	 3.750000000000000e+01	 4.375000000000000e+01	 1.000010615384615e+01
0	 3.750000000000000e+01	 4.437500000000000e+01	 1.000010569230768e+01
0	 3.749999999999999e+01	 4.499999999999999e+01	 1.000010153846153e+01
0	 3.749999999999999e+01	 4.562499999999999e+01	 1.000009369230769e+01
0	 3.750000000000001e+01	 4.624999999999999e+01	 1.000008215384615e+01
0	 3.750000000000000e+01	 4.687499999999999e+01	 1.000006692307692e+01
0	 3.750000000000000e+01	 4.749999999999999e+01	 1.000004800000001e+01
0	 3.750000000000000e+01	 4.812499999999999e+01	 1.000002538461540e+01
0	 3.750000000000001e+01	 4.874999999999999e+01	 9.999999076923066e+00
0	 3.750000000000000e+01	 4.937499999999999e+01	 9.999969076923048e+00
0	 3.750000000000000e+01	 5.000000000000000e+01	 9.999935384615382e+00
0	 3.750000000000000e+01	 0.000000000000000e+00	 1.000079076923077e+01
0	 3.750000000000000e+01	 6.250000000000000e-01	 1.000084593846153e+01
0	 3.750000000000000e+01	 1.250000000000000e+00	 1.000089870769230e+01
0	 3.750000000000000e+01	 1.875000000000000e+00	 1.000094907692307e+01
0	 3.750000000000001e+01	 2.500000000000000e+00	 1.000099704615384e+01
0	 3.750000000000000e+01	 3.125000000000000e+00	 1.000104261538461e+01
0	 3.750000000000000e+01	 3.750000000000000e+00	 1.000108578461538e+01
0	 3.750000000000000e+01	 4.375000000000000e+00	 1.000112655384615e+01
0	 3.750000000000000e+01	 5.000000000000000e+00	 1.000116492307692e+01
0	 3.750000000000000e+01	 5.624999999999999e+00	 1.000120089230769e+01
0	 3.750000000000000e+01	 6.250000000000000e+00	 1.000123446153846e+01
0	 3.812500000000000e+01	 0.000000000000000e+00	 1.000070148307692e+01
0	 3.812500000000000e+01	 6.249999999999999e-01	 1.000074459446153e+01
0	 3.812499999999999e+01	 1.250000000000000e+00	 1.000078525046154e+01
0	 3.812500000000001e+01	 1.875000000000000e+00	 1.000082345107692e+01
0	 3.812500000000000e+01	 2.500000000000000e+00	 1.000085919630769e+01
0	 3.812500000000001e+01	 3.125000000000000e+00	 1.000089248615384e+01
0	 3.812500000000000e+01	 3.750000000000000e+00	 1.000092332061538e+01
0	 3.812500000000000e+01	 4.375000000000001e+00	 1.000095169969231e+01
0	 3.812500000000001e+01	 5.000000000000000e+00	 1.000097762338461e+01
0	 3.812500000000000e+01	 5.625000000000000e+00	 1.000100109169231e+01
0	 3.812500000000000e+01	 6.250000000000000e+00	 1.000102210461538e+01
0	 3.874999999999999e+01	 0.000000000000000e+00	 1.000059953230769e+01
0	 3.875000000000000e+01	 6.250000000000001e-01	 1.000063267938462e+01
0	 3.874999999999999e+01	 1.250000000000000e+00	 1.000066331569230e+01
0	 3.874999999999999e+01	 1.875000000000000e+00	 1.000069144123077e+01
0	 3.875000000000000e+01	 2.500000000000000e+00	 1.000071705600000e+01
0	 3.874999999999999e+01	 3.125000000000000e+00	 1.000074016000000e+01
0	 3.874999999999999e+01	 3.750000000000001e+00	 1.000076075323077e+01
0	 3.874999999999999e+01	 4.374999999999999e+00	 1.000077883569231e+01
0	 3.875000000000000e+01	 5.000000000000000e+00	 1.000079440738461e+01
0	 3.874999999999999e+01	 5.624999999999999e+00	 1.000080746830769e+01
0	 3.875000000000000e+01	 6.250000000000000e+00	 1.000081801846154e+01
0	 3.937499999999999e+01	 0.000000000000000e+00	 1.000048491692308e+01
0	 3.937499999999999e+01	 6.250000000000000e-01	 1.000051019323077e+01
0	 3.937499999999999e+01	 1.250000000000000e+00	 1.000053290338461e+01
0	 3.937500000000000e+01	 1.875000000000000e+00	 1.000055304738461e+01
0	 3.937499999999999e+01	 2.500000000000001e+00	 1.000057062523077e+01
0	 3.937500000000000e+01	 3.125000000000000e+00	 1.000058563692308e+01
0	 3.937499999999999e+01	 3.750000000000000e+00	 1.000059808246154e+01
0	 3.937499999999999e+01	 4.375000000000000e+00	 1.000060796184615e+01
0	 3.937499999999999e+01	 4.999999999999998e+00	 1.000061527507692e+01
0	 3.937500000000000e+01	 5.625000000000001e+00	 1.000062002215384e+01
0	 3.937499999999999e+01	 6.249999999999999e+00	 1.000062220307692e+01
0	 3.999999999999999e+01	 0.000000000000000e+00	 1.000035763692307e+01
0	 3.999999999999999e+01	 6.249999999999999e-01	 1.000037713600000e+01
0	 3.999999999999999e+01	 1.250000000000000e+00	 1.000039401353846e+01
0	 3.999999999999999e+01	 1.875000000000000e+00	 1.000040826953846e+01
0	 3.999999999999999e+01	 2.500000000000000e+00	 1.000041990400000e+01
0	 4.000000000000000e+01	 3.125000000000000e+00	 1.000042891692308e+01
0	 3.999999999999999e+01	 3.750000000000000e+00	 1.000043530830769e+01
0	 3.999999999999999e+01	 4.375000000000001e+00	 1.000043907815384e+01
0	 3.999999999999999e+01	 5.000000000000000e+00	 1.000044022646153e+01
0	 3.999999999999999e+01	 5.625000000000000e+00	 1.000043875323076e+01
0	 3.999999999999999e+01	 6.250000000000000e+00	 1.000043465846154e+01
0	 4.062499999999999e+01	 0.000000000000000e+00	 1.000021769230769e+01
0	 4.062499999999998e+01	 6.249999999999998e-01	 1.000023350769231e+01
0	 4.062499999999999e+01	 1.250000000000000e+00	 1.000024664615384e+01
0	 4.062499999999999e+01	 1.875000000000000e+00	 1.000025710769231e+01
0	 4.062499999999999e+01	 2.500000000000000e+00	 1.000026489230769e+01
0	 4.062499999999999e+01	 3.125000000000000e+00	 1.000027000000000e+01
0	 4.062499999999999e+01	 3.750000000000000e+00	 1.000027243076923e+01
0	 4.062499999999999e+01	 4.375000000000000e+00	 1.000027218461538e+01
0	 4.062499999999999e+01	 4.999999999999998e+00	 1.000026926153846e+01
0	 4.062500000000001e+01	 5.625000000000001e+00	 1.000026366153846e+01
0	 4.062499999999999e+01	 6.249999999999999e+00	 1.000025538461538e+01
0	 4.124999999999999e+01	 0.000000000000000e+00	 1.000006508307692e+01
0	 4.124999999999998e+01	 6.250000000000001e-01	 1.000007930830769e+01
0	 4.124999999999998e+01	 1.250000000000000e+00	 1.000009080123077e+01
0	 4.124999999999998e+01	 1.875000000000000e+00	 1.000009956184615e+01
0	 4.124999999999999e+01	 2.500000000000000e+00	 1.000010559015384e+01
0	 4.124999999999999e+01	 3.125000000000000e+00	 1.000010888615384e+01
0	 4.124999999999999e+01	 3.750000000000000e+00	 1.000010944984615e+01
0	 4.124999999999999e+01	 4.375000000000001e+00	 1.000010728123077e+01
0	 4.124999999999999e+01	 4.999999999999999e+00	 1.000010238030769e+01
0	 4.124999999999999e+01	 5.624999999999999e+00	 1.000009474707692e+01
0	 4.124999999999999e+01	 6.250000000000000e+00	 1.000008438153846e+01
0	 4.187499999999999e+01	 0.000000000000000e+00	 9.999899809230769e+00
0	 4.187499999999999e+01	 6.250000000000000e-01	 9.999914537846152e+00
0	 4.187499999999999e+01	 1.250000000000000e+00	 9.999926478769225e+00
0	 4.187499999999999e+01	 1.875000000000000e+00	 9.999935632000000e+00
0	 4.187499999999999e+01	 2.500000000000000e+00	 9.999941997538457e+00
0	 4.187499999999999e+01	 3.125000000000000e+00	 9.999945575384611e+00
0	 4.187499999999998e+01	 3.750000000000000e+00	 9.999946365538460e+00
0	 4.187499999999999e+01	 4.375000000000000e+00	 9.999944368000000e+00
0	 4.187499999999999e+01	 5.000000000000000e+00	 9.999939582769226e+00
0	 4.187499999999999e+01	 5.625000000000000e+00	 9.999932009846153e+00
0	 4.187499999999998e+01	 6.250000000000000e+00	 9.999921649230766e+00
0	 4.249999999999998e+01	 0.000000000000000e+00	 9.999721870769230e+00
0	 4.249999999999999e+01	 6.250000000000000e-01	 9.999739196307694e+00
0	 4.249999999999999e+01	 1.250000000000000e+00	 9.999753678769231e+00
0	 4.249999999999999e+01	 1.875000000000001e+00	 9.999765318153845e+00
0	 4.249999999999997e+01	 2.500000000000000e+00	 9.999774114461538e+00
0	 4.249999999999996e+01	 3.124999999999999e+00	 9.999780067692305e+00
0	 4.249999999999999e+01	 3.750000000000000e+00	 9.999783177846149e+00
0	 4.249999999999999e+01	 4.375000000000000e+00	 9.999783444923075e+00
0	 4.249999999999999e+01	 4.999999999999999e+00	 9.999780868923075e+00
0	 4.249999999999999e+01	 5.625000000000000e+00	 9.999775449846155e+00
0	 4.249999999999997e+01	 6.250000000000000e+00	 9.999767187692303e+00
0	 4.312499999999998e+01	 0.000000000000000e+00	 9.999531267692308e+00
0	 4.312499999999998e+01	 6.250000000000000e-01	 9.999553283692308e+00
0	 4.312499999999998e+01	 1.250000000000000e+00	 9.999572401230768e+00
0	 4.312499999999999e+01	 1.875000000000000e+00	 9.999588620307694e+00
0	 4.312499999999997e+01	 2.500000000000000e+00	 9.999601940923075e+00
0	 4.312499999999998e+01	 3.125000000000000e+00	 9.999612363076922e+00
0	 4.312499999999998e+01	 3.750000000000000e+00	 9.999619886769231e+00
0	 4.312499999999998e+01	 4.375000000000000e+00	 9.999624512000000e+00
0	 4.312499999999998e+01	 4.999999999999999e+00	 9.999626238769224e+00
0	 4.312499999999997e+01	 5.624999999999999e+00	 9.999625067076924e+00
0	 4.312499999999997e+01	 6.250000000000000e+00	 9.999620996923078e+00
0	 4.375000000000000e+01	 0.000000000000000e+00	 9.999328000000000e+00
0	 4.375000000000000e+01	 6.250000000000000e-01	 9.999356800000001e+00
0	 4.375000000000000e+01	 1.250000000000000e+00	 9.999382646153849e+00
0	 4.375000000000000e+01	 1.875000000000000e+00	 9.999405538461534e+00
0	 4.375000000000000e+01	 2.500000000000000e+00	 9.999425476923077e+00
0	 4.375000000000000e+01	 3.125000000000000e+00	 9.999442461538456e+00
0	 4.375000000000000e+01	 3.750000000000000e+00	 9.999456492307688e+00
0	 4.375000000000000e+01	 4.375000000000000e+00	 9.999467569230767e+00
0	 4.375000000000000e+01	 5.000000000000000e+00	 9.999475692307691e+00
0	 4.375000000000000e+01	 5.624999999999999e+00	 9.999480861538455e+00
0	 4.375000000000000e+01	 6.250000000000000e+00	 9.999483076923074e+00
0	 3.750000000000000e+01	 6.250000000000000e+00	 1.000123446153846e+01
0	 3.750000000000000e+01	 6.875000000000000e+00	 1.000122646153846e+01
0	 3.750000000000000e+01	 7.500000000000002e+00	 1.000122086153846e+01
0	 3.750000000000001e+01	 8.125000000000004e+00	 1.000121766153846e+01
0	 3.750000000000000e+01	 8.750000000000004e+00	 1.000121686153846e+01
0	 3.750000000000001e+01	 9.375000000000004e+00	 1.000121846153846e+01
0	 3.750000000000000e+01	 1.000000000000000e+01	 1.000122246153846e+01
0	 3.750000000000000e+01	 1.062500000000000e+01	 1.000122886153846e+01
0	 3.750000000000001e+01	 1.125000000000001e+01	 1.000123766153846e+01
0	 3.750000000000000e+01	 1.187500000000001e+01	 1.000124886153846e+01
0	 3.750000000000000e+01	 1.250000000000000e+01	 1.000126246153846e+01
0	 3.812500000000000e+01	 6.250000000000000e+00	 1.000102210461538e+01
0	 3.812499999999999e+01	 6.874999999999999e+00	 1.000102848030769e+01
0	 3.812500000000001e+01	 7.500000000000002e+00	 1.000103693292308e+01
0	 3.812500000000001e+01	 8.125000000000002e+00	 1.000104746246154e+01
0	 3.812500000000000e+01	 8.750000000000004e+00	 1.000106006892308e+01
0	 3.812500000000001e+01	 9.375000000000004e+00	 1.000107475230769e+01
0	 3.812499999999999e+01	 1.000000000000001e+01	 1.000109151261539e+01
0	 3.812500000000001e+01	 1.062500000000001e+01	 1.000111034984615e+01
0	 3.812500000000001e+01	 1.125000000000001e+01	 1.000113126400000e+01
0	 3.812499999999999e+01	 1.187500000000000e+01	 1.000115425507692e+01
0	 3.812500000000000e+01	 1.250000000000000e+01	 1.000117932307693e+01
0	 3.875000000000000e+01	 6.250000000000000e+00	 1.000081801846154e+01
0	 3.875000000000000e+01	 6.875000000000002e+00	 1.000083695200000e+01
0	 3.875000000000001e+01	 7.500000000000002e+00	 1.000085763938462e+01
0	 3.874999999999999e+01	 8.125000000000002e+00	 1.000088008061538e+01
0	 3.875000000000000e+01	 8.750000000000002e+00	 1.000090427569231e+01
0	 3.875000000000001e+01	 9.375000000000004e+00	 1.000093022461538e+01
0	 3.875000000000000e+01	 1.000000000000001e+01	 1.000095792738461e+01
0	 3.874999999999999e+01	 1.062500000000000e+01	 1.000098738400000e+01
0	 3.875000000000000e+01	 1.125000000000001e+01	 1.000101859446155e+01
0	 3.874999999999999e+01	 1.187500000000000e+01	 1.000105155876922e+01
0	 3.875000000000000e+01	 1.250000000000000e+01	 1.000108627692308e+01
0	 3.937499999999999e+01	 6.249999999999999e+00	 1.000062220307692e+01
0	 3.937500000000000e+01	 6.875000000000001e+00	 1.000065187661539e+01
0	 3.937500000000000e+01	 7.500000000000000e+00	 1.000068298092307e+01
0	 3.937500000000000e+01	 8.125000000000002e+00	 1.000071551600000e+01
0	 3.937499999999999e+01	 8.750000000000004e+00	 1.000074948184615e+01
0	 3.937499999999999e+01	 9.375000000000004e+00	 1.000078487846154e+01
0	 3.937499999999998e+01	 1.000000000000000e+01	 1.000082170584615e+01
0	 3.937499999999999e+01	 1.062500000000000e+01	 1.000085996400000e+01
0	 3.937499999999999e+01	 1.125000000000000e+01	 1.000089965292307e+01
0	 3.937499999999999e+01	 1.187500000000000e+01	 1.000094077261538e+01
0	 3.937499999999999e+01	 1.250000000000000e+01	 1.000098332307692e+01
0	 3.999999999999999e+01	 6.250000000000000e+00	 1.000043465846154e+01
0	 3.999999999999999e+01	 6.875000000000002e+00	 1.000047325415384e+01
0	 3.999999999999999e+01	 7.499999999999999e+00	 1.000051295753846e+01
0	 3.999999999999999e+01	 8.125000000000002e+00	 1.000055376861538e+01
0	 3.999999999999999e+01	 8.750000000000004e+00	 1.000059568738462e+01
0	 3.999999999999999e+01	 9.375000000000004e+00	 1.000063871384615e+01
0	 3.999999999999999e+01	 1.000000000000001e+01	 1.000068284800000e+01
0	 3.999999999999999e+01	 1.062500000000001e+01	 1.000072808984615e+01
0	 3.999999999999999e+01	 1.125000000000001e+01	 1.000077443938461e+01
0	 3.999999999999999e+01	 1.187500000000001e+01	 1.000082189661538e+01
0	 3.999999999999999e+01	 1.250000000000000e+01	 1.000087046153846e+01
0	 4.062499999999999e+01	 6.249999999999999e+00	 1.000025538461538e+01
0	 4.062499999999999e+01	 6.875000000000000e+00	 1.000030108461538e+01
0	 4.062499999999999e+01	 7.500000000000001e+00	 1.000034756923077e+01
0	 4.062499999999999e+01	 8.125000000000002e+00	 1.000039483846154e+01
0	 4.062500000000000e+01	 8.750000000000004e+00	 1.000044289230769e+01
0	 4.062499999999999e+01	 9.375000000000002e+00	 1.000049173076923e+01
0	 4.062499999999999e+01	 1.000000000000000e+01	 1.000054135384615e+01
0	 4.062500000000000e+01	 1.062500000000001e+01	 1.000059176153846e+01
0	 4.062499999999999e+01	 1.125000000000001e+01	 1.000064295384615e+01
0	 4.062499999999999e+01	 1.187500000000001e+01	 1.000069493076924e+01
0	 4.062499999999999e+01	 1.250000000000000e+01	 1.000074769230770e+01
0	 4.124999999999999e+01	 6.250000000000000e+00	 1.000008438153846e+01
0	 4.124999999999997e+01	 6.874999999999998e+00	 1.000013536800000e+01
0	 4.124999999999999e+01	 7.500000000000002e+00	 1.000018681600000e+01
0	 4.124999999999998e+01	 8.125000000000000e+00	 1.000023872553846e+01
0	 4.124999999999999e+01	 8.750000000000002e+00	 1.000029109661538e+01
0	 4.124999999999999e+01	 9.375000000000004e+00	 1.000034392923077e+01
0	 4.124999999999998e+01	 1.000000000000000e+01	 1.000039722338461e+01
0	 4.124999999999999e+01	 1.062500000000001e+01	 1.000045097907692e+01
0	 4.124999999999999e+01	 1.125000000000001e+01	 1.000050519630769e+01
0	 4.124999999999998e+01	 1.187500000000000e+01	 1.000055987507692e+01
0	 4.124999999999999e+01	 1.250000000000000e+01	 1.000061501538462e+01
0	 4.187499999999998e+01	 6.250000000000000e+00	 9.999921649230766e+00
0	 4.187499999999998e+01	 6.875000000000000e+00	 9.999976104307690e+00
0	 4.187499999999999e+01	 7.500000000000003e+00	 1.000003069784615e+01
0	 4.187499999999998e+01	 8.125000000000000e+00	 1.000008542984615e+01
0	 4.187500000000000e+01	 8.750000000000005e+00	 1.000014030030769e+01
0	 4.187499999999999e+01	 9.375000000000005e+00	 1.000019530923077e+01
0	 4.187499999999999e+01	 1.000000000000000e+01	 1.000025045661539e+01
0	 4.187499999999999e+01	 1.062500000000001e+01	 1.000030574246154e+01
0	 4.187499999999999e+01	 1.125000000000000e+01	 1.000036116676923e+01
0	 4.187499999999999e+01	 1.187500000000001e+01	 1.000041672953846e+01
0	 4.187499999999998e+01	 1.250000000000000e+01	 1.000047243076924e+01
0	 4.249999999999997e+01	 6.250000000000000e+00	 9.999767187692303e+00
0	 4.249999999999999e+01	 6.875000000000000e+00	 9.999823293538457e+00
0	 4.249999999999998e+01	 7.500000000000000e+00	 9.999879214769230e+00
0	 4.249999999999998e+01	 8.125000000000004e+00	 9.999934951384612e+00
0	 4.249999999999999e+01	 8.750000000000004e+00	 9.999990503384613e+00
0	 4.249999999999999e+01	 9.375000000000004e+00	 1.000004587076923e+01
0	 4.249999999999999e+01	 1.000000000000001e+01	 1.000010105353846e+01
0	 4.249999999999999e+01	 1.062500000000000e+01	 1.000015605169231e+01
0	 4.249999999999999e+01	 1.125000000000000e+01	 1.000021086523077e+01
0	 4.249999999999999e+01	 1.187500000000001e+01	 1.000026549415385e+01
0	 4.249999999999997e+01	 1.250000000000000e+01	 1.000031993846154e+01
0	 4.312499999999997e+01	 6.250000000000000e+00	 9.999620996923078e+00
0	 4.312499999999999e+01	 6.875000000000003e+00	 9.999676935692307e+00
0	 4.312499999999998e+01	 7.500000000000001e+00	 9.999732366769226e+00
0	 4.312499999999998e+01	 8.125000000000000e+00	 9.999787290153844e+00
0	 4.312499999999998e+01	 8.750000000000004e+00	 9.999841705846155e+00
0	 4.312499999999998e+01	 9.375000000000004e+00	 9.999895613846151e+00
0	 4.312499999999999e+01	 1.000000000000001e+01	 9.999949014153843e+00
0	 4.312499999999998e+01	 1.062500000000000e+01	 1.000000190676923e+01
0	 4.312499999999998e+01	 1.125000000000001e+01	 1.000005429169230e+01
0	 4.312499999999998e+01	 1.187500000000000e+01	 1.000010616892308e+01
0	 4.312499999999997e+01	 1.250000000000000e+01	 1.000015753846154e+01
0	 4.375000000000000e+01	 6.250000000000000e+00	 9.999483076923074e+00
0	 4.375000000000000e+01	 6.875000000000000e+00	 9.999537030769227e+00
0	 4.375000000000000e+01	 7.500000000000002e+00	 9.999590153846151e+00
0	 4.375000000000000e+01	 8.125000000000004e+00	 9.999642446153846e+00
0	 4.375000000000000e+01	 8.750000000000004e+00	 9.999693907692308e+00
0	 4.375000000000000e+01	 9.375000000000004e+00	 9.999744538461540e+00
0	 4.375000000000000e+01	 1.000000000000000e+01	 9.999794338461538e+00
0	 4.375000000000000e+01	 1.062500000000000e+01	 9.999843307692309e+00
0	 4.375000000000001e+01	 1.125000000000001e+01	 9.999891446153846e+00
0	 4.375000000000000e+01	 1.187500000000001e+01	 9.999938753846150e+00
0	 4.375000000000000e+01	 1.250000000000000e+01	 9.999985230769232e+00
0	 3.750000000000000e+01	 1.250000000000000e+01	 1.000126246153846e+01
0	 3.750000000000000e+01	 1.312500000000000e+01	 1.000131172307693e+01
0	 3.750000000000000e+01	 1.375000000000000e+01	 1.000135969230769e+01
0	 3.750000000000001e+01	 1.437500000000000e+01	 1.000140636923077e+01
0	 3.750000000000000e+01	 1.500000000000000e+01	 1.000145175384615e+01
0	 3.750000000000001e+01	 1.562500000000000e+01	 1.000149584615385e+01
0	 3.750000000000000e+01	 1.625000000000000e+01	 1.000153864615385e+01
0	 3.750000000000000e+01	 1.687500000000000e+01	 1.000158015384615e+01
0	 3.750000000000001e+01	 1.750000000000001e+01	 1.000162036923077e+01
0	 3.750000000000000e+01	 1.812500000000001e+01	 1.000165929230769e+01
0	 3.750000000000000e+01	 1.875000000000000e+01	 1.000169692307692e+01
0	 3.812500000000000e+01	 1.250000000000000e+01	 1.000117932307693e+01
0	 3.812499999999999e+01	 1.312500000000000e+01	 1.000121595384616e+01
0	 3.812500000000001e+01	 1.375000000000000e+01	 1.000125163384616e+01
0	 3.812500000000001e+01	 1.437500000000000e+01	 1.000128636307692e+01
0	 3.812500000000000e+01	 1.500000000000000e+01	 1.000132014153847e+01
0	 3.812500000000001e+01	 1.562500000000000e+01	 1.000135296923077e+01
0	 3.812499999999999e+01	 1.625000000000001e+01	 1.000138484615385e+01
0	 3.812500000000001e+01	 1.687500000000000e+01	 1.000141577230769e+01
0	 3.812500000000001e+01	 1.750000000000000e+01	 1.000144574769231e+01
0	 3.812499999999999e+01	 1.812500000000000e+01	 1.000147477230770e+01
0	 3.812500000000000e+01	 1.875000000000000e+01	 1.000150284615385e+01
0	 3.875000000000000e+01	 1.250000000000000e+01	 1.000108627692308e+01
0	 3.875000000000000e+01	 1.312500000000000e+01	 1.000111245230769e+01
0	 3.875000000000001e+01	 1.375000000000000e+01	 1.000113801846154e+01
0	 3.874999999999999e+01	 1.437500000000000e+01	 1.000116297538461e+01
0	 3.875000000000000e+01	 1.500000000000000e+01	 1.000118732307692e+01
0	 3.875000000000001e+01	 1.562500000000001e+01	 1.000121106153846e+01
0	 3.875000000000000e+01	 1.625000000000001e+01	 1.000123419076923e+01
0	 3.874999999999999e+01	 1.687500000000000e+01	 1.000125671076924e+01
0	 3.875000000000000e+01	 1.750000000000001e+01	 1.000127862153846e+01
0	 3.874999999999999e+01	 1.812500000000000e+01	 1.000129992307692e+01
0	 3.875000000000000e+01	 1.875000000000000e+01	 1.000132061538462e+01
0	 3.937499999999999e+01	 1.250000000000000e+01	 1.000098332307692e+01
0	 3.937500000000000e+01	 1.312500000000000e+01	 1.000100121846154e+01
0	 3.937500000000000e+01	 1.375000000000000e+01	 1.000101884615385e+01
0	 3.937500000000000e+01	 1.437500000000000e+01	 1.000103620615385e+01
0	 3.937499999999999e+01	 1.500000000000000e+01	 1.000105329846154e+01
0	 3.937499999999999e+01	 1.562500000000000e+01	 1.000107012307692e+01
0	 3.937499999999998e+01	 1.625000000000000e+01	 1.000108668000000e+01
0	 3.937499999999999e+01	 1.687500000000001e+01	 1.000110296923077e+01
0	 3.937499999999999e+01	 1.750000000000000e+01	 1.000111899076923e+01
0	 3.937499999999999e+01	 1.812500000000000e+01	 1.000113474461538e+01
0	 3.937499999999999e+01	 1.875000000000000e+01	 1.000115023076924e+01
0	 3.999999999999999e+01	 1.250000000000000e+01	 1.000087046153846e+01
0	 3.999999999999999e+01	 1.312500000000000e+01	 1.000088225230770e+01
0	 3.999999999999999e+01	 1.375000000000000e+01	 1.000089411692307e+01
0	 3.999999999999999e+01	 1.437500000000000e+01	 1.000090605538461e+01
0	 3.999999999999999e+01	 1.500000000000000e+01	 1.000091806769231e+01
0	 3.999999999999999e+01	 1.562500000000000e+01	 1.000093015384615e+01
0	 3.999999999999999e+01	 1.625000000000000e+01	 1.000094231384616e+01
0	 3.999999999999999e+01	 1.687500000000000e+01	 1.000095454769231e+01
0	 3.999999999999999e+01	 1.750000000000001e+01	 1.000096685538461e+01
0	 3.999999999999999e+01	 1.812500000000000e+01	 1.000097923692308e+01
0	 3.999999999999999e+01	 1.875000000000000e+01	 1.000099169230769e+01
0	 4.062499999999999e+01	 1.250000000000000e+01	 1.000074769230770e+01
0	 4.062499999999999e+01	 1.312500000000000e+01	 1.000075555384615e+01
0	 4.062499999999999e+01	 1.375000000000000e+01	 1.000076383076923e+01
0	 4.062499999999999e+01	 1.437500000000001e+01	 1.000077252307692e+01
0	 4.062500000000000e+01	 1.500000000000000e+01	 1.000078163076923e+01
0	 4.062499999999999e+01	 1.562500000000000e+01	 1.000079115384615e+01
0	 4.062499999999999e+01	 1.625000000000000e+01	 1.000080109230769e+01
0	 4.062500000000000e+01	 1.687500000000001e+01	 1.000081144615385e+01
0	 4.062499999999999e+01	 1.750000000000001e+01	 1.000082221538462e+01
0	 4.062499999999999e+01	 1.812500000000000e+01	 1.000083340000000e+01
0	 4.062499999999999e+01	 1.875000000000000e+01	 1.000084500000000e+01
0	 4.124999999999999e+01	 1.250000000000000e+01	 1.000061501538462e+01
0	 4.124999999999997e+01	 1.312500000000000e+01	 1.000062112307692e+01
0	 4.124999999999999e+01	 1.375000000000000e+01	 1.000062798769230e+01
0	 4.124999999999998e+01	 1.437500000000000e+01	 1.000063560923077e+01
0	 4.124999999999999e+01	 1.500000000000000e+01	 1.000064398769231e+01
0	 4.124999999999999e+01	 1.562500000000001e+01	 1.000065312307692e+01
0	 4.124999999999998e+01	 1.625000000000000e+01	 1.000066301538462e+01
0	 4.124999999999999e+01	 1.687500000000000e+01	 1.000067366461538e+01
0	 4.124999999999999e+01	 1.750000000000001e+01	 1.000068507076923e+01
0	 4.124999999999998e+01	 1.812500000000000e+01	 1.000069723384615e+01
0	 4.124999999999999e+01	 1.875000000000000e+01	 1.000071015384615e+01
0	 4.187499999999998e+01	 1.250000000000000e+01	 1.000047243076924e+01
0	 4.187499999999998e+01	 1.312500000000000e+01	 1.000047896000000e+01
0	 4.187499999999999e+01	 1.375000000000001e+01	 1.000048658769231e+01
0	 4.187499999999998e+01	 1.437500000000000e+01	 1.000049531384616e+01
0	 4.187500000000000e+01	 1.500000000000001e+01	 1.000050513846154e+01
0	 4.187499999999999e+01	 1.562500000000001e+01	 1.000051606153846e+01
0	 4.187499999999999e+01	 1.625000000000001e+01	 1.000052808307692e+01
0	 4.187499999999999e+01	 1.687500000000001e+01	 1.000054120307692e+01
0	 4.187499999999999e+01	 1.750000000000000e+01	 1.000055542153846e+01
0	 4.187499999999999e+01	 1.812500000000001e+01	 1.000057073846154e+01
0	 4.187499999999998e+01	 1.875000000000000e+01	 1.000058715384615e+01
0	 4.249999999999997e+01	 1.250000000000000e+01	 1.000031993846154e+01
0	 4.249999999999999e+01	 1.312500000000000e+01	 1.000032906461538e+01
0	 4.249999999999998e+01	 1.375000000000000e+01	 1.000033963076923e+01
0	 4.249999999999998e+01	 1.437500000000000e+01	 1.000035163692307e+01
0	 4.249999999999999e+01	 1.500000000000000e+01	 1.000036508307692e+01
0	 4.249999999999999e+01	 1.562500000000000e+01	 1.000037996923077e+01
0	 4.249999999999999e+01	 1.625000000000001e+01	 1.000039629538461e+01
0	 4.249999999999999e+01	 1.687500000000000e+01	 1.000041406153846e+01
0	 4.249999999999999e+01	 1.750000000000000e+01	 1.000043326769230e+01
0	 4.249999999999999e+01	 1.812500000000001e+01	 1.000045391384616e+01
0	 4.249999999999997e+01	 1.875000000000000e+01	 1.000047600000000e+01
0	 4.312499999999997e+01	 1.250000000000000e+01	 1.000015753846154e+01
0	 4.312499999999999e+01	 1.312500000000000e+01	 1.000017143692308e+01
0	 4.312499999999998e+01	 1.375000000000000e+01	 1.000018711692308e+01
0	 4.312499999999998e+01	 1.437500000000000e+01	 1.000020457846154e+01
0	 4.312499999999998e+01	 1.500000000000000e+01	 1.000022382153846e+01
0	 4.312499999999998e+01	 1.562500000000000e+01	 1.000024484615385e+01
0	 4.312499999999999e+01	 1.625000000000000e+01	 1.000026765230769e+01
0	 4.312499999999998e+01	 1.687500000000000e+01	 1.000029224000000e+01
0	 4.312499999999998e+01	 1.750000000000000e+01	 1.000031860923077e+01
0	 4.312499999999998e+01	 1.812500000000000e+01	 1.000034676000000e+01
0	 4.312499999999997e+01	 1.875000000000000e+01	 1.000037669230769e+01
0	 4.375000000000000e+01	 1.250000000000000e+01	 9.999985230769232e+00
0	 4.375000000000000e+01	 1.312500000000000e+01	 1.000000607692308e+01
0	 4.375000000000000e+01	 1.375000000000000e+01	 1.000002904615384e+01
0	 4.375000000000000e+01	 1.437500000000000e+01	 1.000005413846154e+01
0	 4.375000000000000e+01	 1.500000000000000e+01	 1.000008135384616e+01
0	 4.375000000000000e+01	 1.562500000000000e+01	 1.000011069230769e+01
0	 4.375000000000000e+01	 1.625000000000000e+01	 1.000014215384615e+01
0	 4.375000000000000e+01	 1.687500000000000e+01	 1.000017573846154e+01
0	 4.375000000000001e+01	 1.750000000000001e+01	 1.000021144615384e+01
0	 4.375000000000000e+01	 1.812500000000001e+01	 1.000024927692307e+01
0	 4.375000000000000e+01	 1.875000000000000e+01	 1.000028923076923e+01
0	 3.750000000000000e+01	 1.875000000000000e+01	 1.000169692307692e+01
0	 3.750000000000000e+01	 1.937500000000000e+01	 1.000163213846153e+01
0	 3.750000000000000e+01	 2.000000000000000e+01	 1.000157316923077e+01
0	 3.750000000000001e+01	 2.062500000000000e+01	 1.000152001538462e+01
0	 3.750000000000000e+01	 2.125000000000000e+01	 1.000147267692307e+01
0	 3.750000000000001e+01	 2.187500000000000e+01	 1.000143115384615e+01
0	 3.750000000000000e+01	 2.250000000000000e+01	 1.000139544615384e+01
0	 3.750000000000000e+01	 2.312500000000001e+01	 1.000136555384615e+01
0	 3.750000000000001e+01	 2.375000000000001e+01	 1.000134147692308e+01
0	 3.750000000000000e+01	 2.437500000000001e+01	 1.000132321538462e+01
0	 3.750000000000000e+01	 2.500000000000000e+01	 1.000131076923076e+01
0	 3.812500000000000e+01	 1.875000000000000e+01	 1.000150284615385e+01
0	 3.812499999999999e+01	 1.937500000000000e+01	 1.000145273230769e+01
0	 3.812500000000001e+01	 2.000000000000000e+01	 1.000140780615384e+01
0	 3.812500000000001e+01	 2.062500000000000e+01	 1.000136806769231e+01
0	 3.812500000000000e+01	 2.125000000000001e+01	 1.000133351692307e+01
0	 3.812500000000001e+01	 2.187500000000000e+01	 1.000130415384615e+01
0	 3.812499999999999e+01	 2.250000000000000e+01	 1.000127997846153e+01
0	 3.812500000000001e+01	 2.312500000000000e+01	 1.000126099076923e+01
0	 3.812500000000001e+01	 2.375000000000000e+01	 1.000124719076923e+01
0	 3.812499999999999e+01	 2.437500000000000e+01	 1.000123857846154e+01
0	 3.812500000000000e+01	 2.500000000000000e+01	 1.000123515384615e+01
0	 3.875000000000000e+01	 1.875000000000000e+01	 1.000132061538462e+01
0	 3.875000000000000e+01	 1.937500000000001e+01	 1.000128388000000e+01
0	 3.875000000000001e+01	 2.000000000000000e+01	 1.000125170461538e+01
0	 3.874999999999999e+01	 2.062500000000000e+01	 1.000122408923077e+01
0	 3.875000000000000e+01	 2.125000000000000e+01	 1.000120103384615e+01
0	 3.875000000000001e+01	 2.187500000000001e+01	 1.000118253846153e+01
0	 3.875000000000000e+01	 2.250000000000000e+01	 1.000116860307692e+01
0	 3.874999999999999e+01	 2.312500000000001e+01	 1.000115922769230e+01
0	 3.875000000000000e+01	 2.375000000000000e+01	 1.000115441230768e+01
0	 3.874999999999999e+01	 2.437500000000000e+01	 1.000115415692307e+01
0	 3.875000000000000e+01	 2.500000000000000e+01	 1.000115846153845e+01
0	 3.937499999999999e+01	 1.875000000000000e+01	 1.000115023076924e+01
0	 3.937500000000000e+01	 1.937500000000000e+01	 1.000112558153845e+01
0	 3.937500000000000e+01	 2.000000000000000e+01	 1.000110486461538e+01
0	 3.937500000000000e+01	 2.062500000000000e+01	 1.000108808000000e+01
0	 3.937499999999999e+01	 2.125000000000000e+01	 1.000107522769230e+01
0	 3.937499999999999e+01	 2.187500000000001e+01	 1.000106630769231e+01
0	 3.937499999999998e+01	 2.250000000000000e+01	 1.000106132000000e+01
0	 3.937499999999999e+01	 2.312500000000000e+01	 1.000106026461538e+01
0	 3.937499999999999e+01	 2.375000000000001e+01	 1.000106314153846e+01
0	 3.937499999999999e+01	 2.437500000000000e+01	 1.000106995076923e+01
0	 3.937499999999999e+01	 2.500000000000000e+01	 1.000108069230768e+01
0	 3.999999999999999e+01	 1.875000000000000e+01	 1.000099169230769e+01
0	 3.999999999999999e+01	 1.937500000000000e+01	 1.000097783692308e+01
0	 3.999999999999999e+01	 2.000000000000000e+01	 1.000096728615384e+01
0	 3.999999999999999e+01	 2.062500000000000e+01	 1.000096004000000e+01
0	 3.999999999999999e+01	 2.125000000000000e+01	 1.000095609846154e+01
0	 3.999999999999999e+01	 2.187500000000000e+01	 1.000095546153846e+01
0	 3.999999999999999e+01	 2.250000000000001e+01	 1.000095812923076e+01
0	 3.999999999999999e+01	 2.312500000000001e+01	 1.000096410153846e+01
0	 3.999999999999999e+01	 2.375000000000000e+01	 1.000097337846154e+01
0	 3.999999999999999e+01	 2.437500000000001e+01	 1.000098596000000e+01
0	 3.999999999999999e+01	 2.500000000000000e+01	 1.000100184615384e+01
0	 4.062499999999999e+01	 1.875000000000000e+01	 1.000084500000000e+01
0	 4.062499999999999e+01	 1.937500000000000e+01	 1.000084064615384e+01
0	 4.062499999999999e+01	 2.000000000000000e+01	 1.000083896923076e+01
0	 4.062499999999999e+01	 2.062500000000000e+01	 1.000083996923077e+01
0	 4.062500000000000e+01	 2.125000000000000e+01	 1.000084364615384e+01
0	 4.062499999999999e+01	 2.187500000000000e+01	 1.000085000000000e+01
0	 4.062499999999999e+01	 2.250000000000000e+01	 1.000085903076923e+01
0	 4.062500000000000e+01	 2.312500000000001e+01	 1.000087073846154e+01
0	 4.062499999999999e+01	 2.375000000000000e+01	 1.000088512307692e+01
0	 4.062499999999999e+01	 2.437500000000001e+01	 1.000090218461538e+01
0	 4.062499999999999e+01	 2.500000000000000e+01	 1.000092192307692e+01
0	 4.124999999999999e+01	 1.875000000000000e+01	 1.000071015384615e+01
0	 4.124999999999997e+01	 1.937500000000000e+01	 1.000071400923077e+01
0	 4.124999999999999e+01	 2.000000000000000e+01	 1.000071991384615e+01
0	 4.124999999999998e+01	 2.062500000000000e+01	 1.000072786769231e+01
0	 4.124999999999999e+01	 2.125000000000000e+01	 1.000073787076923e+01
0	 4.124999999999999e+01	 2.187500000000000e+01	 1.000074992307692e+01
0	 4.124999999999998e+01	 2.250000000000000e+01	 1.000076402461538e+01
0	 4.124999999999999e+01	 2.312500000000001e+01	 1.000078017538461e+01
0	 4.124999999999999e+01	 2.375000000000001e+01	 1.000079837538461e+01
0	 4.124999999999998e+01	 2.437500000000000e+01	 1.000081862461538e+01
0	 4.124999999999999e+01	 2.500000000000000e+01	 1.000084092307693e+01
0	 4.187499999999998e+01	 1.875000000000000e+01	 1.000058715384615e+01
0	 4.187499999999998e+01	 1.937500000000000e+01	 1.000059792615384e+01
0	 4.187499999999999e+01	 2.000000000000000e+01	 1.000061012000000e+01
0	 4.187499999999998e+01	 2.062500000000000e+01	 1.000062373538461e+01
0	 4.187500000000000e+01	 2.125000000000000e+01	 1.000063877230770e+01
0	 4.187499999999999e+01	 2.187500000000001e+01	 1.000065523076923e+01
0	 4.187499999999999e+01	 2.250000000000000e+01	 1.000067311076923e+01
0	 4.187499999999999e+01	 2.312500000000001e+01	 1.000069241230769e+01
0	 4.187499999999999e+01	 2.375000000000000e+01	 1.000071313538462e+01
0	 4.187499999999999e+01	 2.437500000000001e+01	 1.000073528000000e+01
0	 4.187499999999998e+01	 2.500000000000000e+01	 1.000075884615384e+01
0	 4.249999999999997e+01	 1.875000000000000e+01	 1.000047600000000e+01
0	 4.249999999999999e+01	 1.937500000000000e+01	 1.000049239692307e+01
0	 4.249999999999998e+01	 2.000000000000000e+01	 1.000050958769231e+01
0	 4.249999999999998e+01	 2.062500000000000e+01	 1.000052757230769e+01
0	 4.249999999999999e+01	 2.125000000000000e+01	 1.000054635076923e+01
0	 4.249999999999999e+01	 2.187500000000000e+01	 1.000056592307692e+01
0	 4.249999999999999e+01	 2.250000000000000e+01	 1.000058628923076e+01
0	 4.249999999999999e+01	 2.312500000000000e+01	 1.000060744923076e+01
0	 4.249999999999999e+01	 2.375000000000000e+01	 1.000062940307692e+01
0	 4.249999999999999e+01	 2.437500000000001e+01	 1.000065215076923e+01
0	 4.249999999999997e+01	 2.500000000000000e+01	 1.000067569230770e+01
0	 4.312499999999997e+01	 1.875000000000000e+01	 1.000037669230769e+01
0	 4.312499999999999e+01	 1.937500000000000e+01	 1.000039742153846e+01
0	 4.312499999999998e+01	 2.000000000000000e+01	 1.000041831692307e+01
0	 4.312499999999998e+01	 2.062500000000000e+01	 1.000043937846153e+01
0	 4.312499999999998e+01	 2.125000000000000e+01	 1.000046060615385e+01
0	 4.312499999999998e+01	 2.187500000000000e+01	 1.000048200000000e+01
0	 4.312499999999999e+01	 2.250000000000000e+01	 1.000050356000000e+01
0	 4.312499999999998e+01	 2.312500000000001e+01	 1.000052528615385e+01
0	 4.312499999999998e+01	 2.375000000000000e+01	 1.000054717846155e+01
0	 4.312499999999998e+01	 2.437500000000001e+01	 1.000056923692307e+01
0	 4.312499999999997e+01	 2.500000000000000e+01	 1.000059146153847e+01
0	 4.375000000000000e+01	 1.875000000000000e+01	 1.000028923076923e+01
0	 4.375000000000000e+01	 1.937500000000000e+01	 1.000031299999999e+01
0	 4.375000000000000e+01	 2.000000000000000e+01	 1.000033630769231e+01
0	 4.375000000000000e+01	 2.062500000000000e+01	 1.000035915384616e+01
0	 4.375000000000000e+01	 2.125000000000000e+01	 1.000038153846154e+01
0	 4.375000000000000e+01	 2.187500000000000e+01	 1.000040346153846e+01
0	 4.375000000000000e+01	 2.250000000000000e+01	 1.000042492307692e+01
0	 4.375000000000000e+01	 2.312500000000001e+01	 1.000044592307693e+01
0	 4.375000000000001e+01	 2.375000000000001e+01	 1.000046646153846e+01
0	 4.375000000000000e+01	 2.437500000000001e+01	 1.000048653846153e+01
0	 4.375000000000000e+01	 2.500000000000000e+01	 1.000050615384615e+01
0	 3.750000000000000e+01	 2.500000000000000e+01	 1.000131076923076e+01
0	 3.750000000000000e+01	 2.562500000000000e+01	 1.000127843076923e+01
0	 3.750000000000001e+01	 2.625000000000000e+01	 1.000124572307692e+01
0	 3.749999999999999e+01	 2.687499999999999e+01	 1.000121264615385e+01
0	 3.750000000000000e+01	 2.749999999999999e+01	 1.000117920000000e+01
0	 3.749999999999999e+01	 2.812499999999999e+01	 1.000114538461539e+01
0	 3.750000000000000e+01	 2.874999999999999e+01	 1.000111120000000e+01
0	 3.750000000000000e+01	 2.937499999999999e+01	 1.000107664615385e+01
0	 3.750000000000000e+01	 2.999999999999998e+01	 1.000104172307692e+01
0	 3.750000000000000e+01	 3.062499999999998e+01	 1.000100643076924e+01
0	 3.750000000000000e+01	 3.125000000000000e+01	 1.000097076923077e+01
0	 3.812500000000000e+01	 2.500000000000000e+01	 1.000123515384615e+01
0	 3.812499999999999e+01	 2.562500000000000e+01	 1.000120197538462e+01
0	 3.812500000000001e+01	 2.625000000000000e+01	 1.000116863076922e+01
0	 3.812500000000000e+01	 2.687499999999999e+01	 1.000113511999999e+01
0	 3.812499999999999e+01	 2.749999999999999e+01	 1.000110144307692e+01
0	 3.812500000000001e+01	 2.812500000000000e+01	 1.000106760000000e+01
0	 3.812500000000000e+01	 2.874999999999999e+01	 1.000103359076923e+01
0	 3.812500000000001e+01	 2.937499999999999e+01	 1.000099941538462e+01
0	 3.812500000000001e+01	 3.000000000000000e+01	 1.000096507384616e+01
0	 3.812499999999999e+01	 3.062499999999998e+01	 1.000093056615384e+01
0	 3.812500000000000e+01	 3.125000000000000e+01	 1.000089589230770e+01
0	 3.875000000000000e+01	 2.500000000000000e+01	 1.000115846153845e+01
0	 3.874999999999999e+01	 2.562500000000000e+01	 1.000112495999999e+01
0	 3.875000000000000e+01	 2.625000000000000e+01	 1.000109149538461e+01
0	 3.874999999999999e+01	 2.687499999999999e+01	 1.000105806769230e+01
0	 3.874999999999999e+01	 2.749999999999999e+01	 1.000102467692308e+01
0	 3.874999999999999e+01	 2.812499999999999e+01	 1.000099132307692e+01
0	 3.874999999999999e+01	 2.874999999999998e+01	 1.000095800615384e+01
0	 3.875000000000000e+01	 2.937499999999999e+01	 1.000092472615384e+01
0	 3.874999999999999e+01	 2.999999999999998e+01	 1.000089148307692e+01
0	 3.875000000000001e+01	 3.062499999999999e+01	 1.000085827692308e+01
0	 3.875000000000000e+01	 3.125000000000000e+01	 1.000082510769232e+01
0	 3.937499999999999e+01	 2.500000000000000e+01	 1.000108069230768e+01
0	 3.937499999999999e+01	 2.562500000000000e+01	 1.000104738461538e+01
0	 3.937500000000000e+01	 2.625000000000000e+01	 1.000101431692307e+01
0	 3.937500000000000e+01	 2.687500000000000e+01	 1.000098148923076e+01
0	 3.937499999999999e+01	 2.749999999999999e+01	 1.000094890153846e+01
0	 3.937499999999999e+01	 2.812499999999999e+01	 1.000091655384615e+01
0	 3.937499999999999e+01	 2.874999999999998e+01	 1.000088444615385e+01
0	 3.937499999999999e+01	 2.937499999999998e+01	 1.000085257846154e+01
0	 3.937500000000000e+01	 2.999999999999999e+01	 1.000082095076924e+01
0	 3.937499999999999e+01	 3.062499999999998e+01	 1.000078956307692e+01
0	 3.937499999999999e+01	 3.125000000000000e+01	 1.000075841538462e+01
0	 3.999999999999999e+01	 2.500000000000000e+01	 1.000100184615384e+01
0	 3.999999999999999e+01	 2.562500000000000e+01	 1.000096924923077e+01
0	 3.999999999999999e+01	 2.625000000000000e+01	 1.000093709538461e+01
0	 3.999999999999999e+01	 2.687500000000000e+01	 1.000090538461538e+01
0	 3.999999999999999e+01	 2.749999999999999e+01	 1.000087411692308e+01
0	 3.999999999999999e+01	 2.812499999999999e+01	 1.000084329230769e+01
0	 3.999999999999999e+01	 2.874999999999999e+01	 1.000081291076923e+01
0	 4.000000000000000e+01	 2.937499999999998e+01	 1.000078297230769e+01
0	 3.999999999999999e+01	 2.999999999999999e+01	 1.000075347692307e+01
0	 3.999999999999999e+01	 3.062499999999998e+01	 1.000072442461538e+01
0	 3.999999999999999e+01	 3.125000000000000e+01	 1.000069581538462e+01
0	 4.062499999999999e+01	 2.500000000000000e+01	 1.000092192307692e+01
0	 4.062499999999999e+01	 2.562500000000000e+01	 1.000089055384615e+01
0	 4.062499999999999e+01	 2.625000000000000e+01	 1.000085983076923e+01
0	 4.062500000000000e+01	 2.687500000000000e+01	 1.000082975384615e+01
0	 4.062499999999999e+01	 2.749999999999999e+01	 1.000080032307692e+01
0	 4.062499999999999e+01	 2.812499999999999e+01	 1.000077153846154e+01
0	 4.062499999999999e+01	 2.874999999999999e+01	 1.000074340000000e+01
0	 4.062499999999999e+01	 2.937499999999998e+01	 1.000071590769231e+01
0	 4.062499999999999e+01	 2.999999999999999e+01	 1.000068906153846e+01
0	 4.062499999999999e+01	 3.062499999999998e+01	 1.000066286153846e+01
0	 4.062499999999999e+01	 3.125000000000000e+01	 1.000063730769230e+01
0	 4.124999999999999e+01	 2.500000000000000e+01	 1.000084092307693e+01
0	 4.124999999999998e+01	 2.562500000000000e+01	 1.000081129846154e+01
0	 4.124999999999998e+01	 2.624999999999999e+01	 1.000078252307692e+01
0	 4.124999999999998e+01	 2.687499999999999e+01	 1.000075459692307e+01
0	 4.125000000000000e+01	 2.750000000000000e+01	 1.000072752000000e+01
0	 4.125000000000000e+01	 2.812499999999999e+01	 1.000070129230769e+01
0	 4.124999999999999e+01	 2.874999999999999e+01	 1.000067591384615e+01
0	 4.124999999999999e+01	 2.937499999999999e+01	 1.000065138461538e+01
0	 4.124999999999998e+01	 2.999999999999999e+01	 1.000062770461538e+01
0	 4.124999999999999e+01	 3.062499999999998e+01	 1.000060487384615e+01
0	 4.124999999999999e+01	 3.125000000000000e+01	 1.000058289230769e+01
0	 4.187499999999998e+01	 2.500000000000000e+01	 1.000075884615384e+01
0	 4.187499999999998e+01	 2.562499999999999e+01	 1.000073148307693e+01
0	 4.187499999999999e+01	 2.624999999999999e+01	 1.000070517230769e+01
0	 4.187499999999998e+01	 2.687499999999999e+01	 1.000067991384615e+01
0	 4.187499999999999e+01	 2.749999999999999e+01	 1.000065570769230e+01
0	 4.187499999999999e+01	 2.812499999999999e+01	 1.000063255384615e+01
0	 4.187499999999999e+01	 2.874999999999999e+01	 1.000061045230770e+01
0	 4.187499999999999e+01	 2.937499999999999e+01	 1.000058940307692e+01
0	 4.187499999999999e+01	 2.999999999999998e+01	 1.000056940615385e+01
0	 4.187499999999999e+01	 3.062499999999998e+01	 1.000055046153846e+01
0	 4.187499999999998e+01	 3.125000000000000e+01	 1.000053256923077e+01
0	 4.249999999999997e+01	 2.500000000000000e+01	 1.000067569230770e+01
0	 4.249999999999999e+01	 2.562500000000000e+01	 1.000065110769230e+01
0	 4.249999999999999e+01	 2.625000000000000e+01	 1.000062777846154e+01
0	 4.249999999999999e+01	 2.687500000000000e+01	 1.000060570461538e+01
0	 4.249999999999998e+01	 2.749999999999999e+01	 1.000058488615384e+01
0	 4.249999999999999e+01	 2.812499999999999e+01	 1.000056532307692e+01
0	 4.249999999999998e+01	 2.874999999999999e+01	 1.000054701538462e+01
0	 4.249999999999999e+01	 2.937499999999998e+01	 1.000052996307693e+01
0	 4.249999999999999e+01	 2.999999999999998e+01	 1.000051416615385e+01
0	 4.249999999999999e+01	 3.062499999999999e+01	 1.000049962461538e+01
0	 4.249999999999997e+01	 3.125000000000000e+01	 1.000048633846154e+01
0	 4.312499999999997e+01	 2.500000000000000e+01	 1.000059146153847e+01
0	 4.312499999999998e+01	 2.562500000000000e+01	 1.000057017230769e+01
0	 4.312499999999999e+01	 2.625000000000000e+01	 1.000055034153846e+01
0	 4.312499999999999e+01	 2.687500000000000e+01	 1.000053196923076e+01
0	 4.312499999999998e+01	 2.749999999999999e+01	 1.000051505538461e+01
0	 4.312499999999998e+01	 2.812499999999999e+01	 1.000049960000000e+01
0	 4.312499999999999e+01	 2.874999999999999e+01	 1.000048560307692e+01
0	 4.312499999999998e+01	 2.937499999999999e+01	 1.000047306461538e+01
0	 4.312499999999999e+01	 2.999999999999998e+01	 1.000046198461538e+01
0	 4.312499999999998e+01	 3.062499999999998e+01	 1.000045236307692e+01
0	 4.312499999999997e+01	 3.125000000000000e+01	 1.000044420000000e+01
0	 4.375000000000000e+01	 2.500000000000000e+01	 1.000050615384615e+01
0	 4.375000000000000e+01	 2.562500000000000e+01	 1.000048867692308e+01
0	 4.375000000000001e+01	 2.625000000000000e+01	 1.000047286153846e+01
0	 4.375000000000000e+01	 2.687499999999999e+01	 1.000045870769231e+01
0	 4.375000000000000e+01	 2.749999999999999e+01	 1.000044621538462e+01
0	 4.375000000000000e+01	 2.812499999999999e+01	 1.000043538461539e+01
0	 4.375000000000000e+01	 2.874999999999999e+01	 1.000042621538461e+01
0	 4.375000000000000e+01	 2.937499999999999e+01	 1.000041870769231e+01
0	 4.375000000000000e+01	 2.999999999999998e+01	 1.000041286153846e+01
0	 4.375000000000000e+01	 3.062499999999998e+01	 1.000040867692308e+01
0	 4.375000000000000e+01	 3.125000000000000e+01	 1.000040615384615e+01
0	 3.750000000000000e+01	 3.125000000000000e+01	 1.000097076923077e+01
0	 3.750000000000000e+01	 3.187500000000000e+01	 1.000092124615385e+01
0	 3.750000000000001e+01	 3.250000000000001e+01	 1.000087236923077e+01
0	 3.749999999999999e+01	 3.312499999999999e+01	 1.000082413846154e+01
0	 3.750000000000000e+01	 3.374999999999999e+01	 1.000077655384615e+01
0	 3.749999999999999e+01	 3.437499999999999e+01	 1.000072961538461e+01
0	 3.750000000000000e+01	 3.499999999999999e+01	 1.000068332307693e+01
0	 3.750000000000000e+01	 3.562499999999999e+01	 1.000063767692307e+01
0	 3.750000000000000e+01	 3.624999999999998e+01	 1.000059267692308e+01
0	 3.750000000000000e+01	 3.687499999999998e+01	 1.000054832307692e+01
0	 3.750000000000000e+01	 3.750000000000000e+01	 1.000050461538461e+01
0	 3.812500000000000e+01	 3.125000000000000e+01	 1.000089589230770e+01
0	 3.812499999999999e+01	 3.187500000000000e+01	 1.000085188153847e+01
0	 3.812500000000001e+01	 3.250000000000000e+01	 1.000080842461538e+01
0	 3.812500000000000e+01	 3.312499999999999e+01	 1.000076552153846e+01
0	 3.812499999999999e+01	 3.374999999999999e+01	 1.000072317230769e+01
0	 3.812500000000001e+01	 3.437500000000000e+01	 1.000068137692308e+01
0	 3.812500000000000e+01	 3.499999999999999e+01	 1.000064013538461e+01
0	 3.812500000000001e+01	 3.562499999999999e+01	 1.000059944769231e+01
0	 3.812500000000001e+01	 3.624999999999999e+01	 1.000055931384616e+01
0	 3.812499999999999e+01	 3.687499999999997e+01	 1.000051973384614e+01
0	 3.812500000000000e+01	 3.750000000000000e+01	 1.000048070769232e+01
0	 3.875000000000000e+01	 3.125000000000000e+01	 1.000082510769232e+01
0	 3.874999999999999e+01	 3.187500000000000e+01	 1.000078615692308e+01
0	 3.875000000000000e+01	 3.250000000000001e+01	 1.000074766769231e+01
0	 3.874999999999999e+01	 3.312500000000000e+01	 1.000070964000000e+01
0	 3.874999999999999e+01	 3.374999999999999e+01	 1.000067207384615e+01
0	 3.874999999999999e+01	 3.437499999999999e+01	 1.000063496923077e+01
0	 3.874999999999999e+01	 3.499999999999999e+01	 1.000059832615383e+01
0	 3.875000000000000e+01	 3.562499999999999e+01	 1.000056214461538e+01
0	 3.874999999999999e+01	 3.624999999999998e+01	 1.000052642461538e+01
0	 3.875000000000001e+01	 3.687499999999998e+01	 1.000049116615386e+01
0	 3.875000000000000e+01	 3.750000000000001e+01	 1.000045636923077e+01
0	 3.937499999999999e+01	 3.125000000000000e+01	 1.000075841538462e+01
0	 3.937499999999999e+01	 3.187500000000000e+01	 1.000072407230769e+01
0	 3.937500000000000e+01	 3.250000000000000e+01	 1.000069009846155e+01
0	 3.937500000000000e+01	 3.312500000000000e+01	 1.000065649384615e+01
0	 3.937499999999999e+01	 3.374999999999999e+01	 1.000062325846154e+01
0	 3.937499999999999e+01	 3.437500000000000e+01	 1.000059039230769e+01
0	 3.937499999999999e+01	 3.499999999999998e+01	 1.000055789538461e+01
0	 3.937499999999999e+01	 3.562499999999998e+01	 1.000052576769230e+01
0	 3.937500000000000e+01	 3.624999999999999e+01	 1.000049400923077e+01
0	 3.937499999999999e+01	 3.687499999999998e+01	 1.000046262000001e+01
0	 3.937499999999999e+01	 3.750000000000000e+01	 1.000043160000000e+01
0	 3.999999999999999e+01	 3.125000000000000e+01	 1.000069581538462e+01
0	 3.999999999999999e+01	 3.187500000000000e+01	 1.000066562769230e+01
0	 3.999999999999999e+01	 3.250000000000000e+01	 1.000063571692308e+01
0	 3.999999999999999e+01	 3.312499999999999e+01	 1.000060608307693e+01
0	 3.999999999999999e+01	 3.374999999999999e+01	 1.000057672615385e+01
0	 3.999999999999999e+01	 3.437499999999999e+01	 1.000054764615384e+01
0	 3.999999999999999e+01	 3.499999999999999e+01	 1.000051884307693e+01
0	 4.000000000000000e+01	 3.562499999999998e+01	 1.000049031692307e+01
0	 3.999999999999999e+01	 3.624999999999999e+01	 1.000046206769231e+01
0	 3.999999999999999e+01	 3.687499999999999e+01	 1.000043409538462e+01
0	 3.999999999999999e+01	 3.750000000000000e+01	 1.000040640000000e+01
0	 4.062499999999999e+01	 3.125000000000000e+01	 1.000063730769230e+01
0	 4.062499999999999e+01	 3.187500000000000e+01	 1.000061082307692e+01
0	 4.062499999999999e+01	 3.249999999999999e+01	 1.000058452307692e+01
0	 4.062500000000000e+01	 3.312500000000000e+01	 1.000055840769230e+01
0	 4.062499999999999e+01	 3.374999999999999e+01	 1.000053247692308e+01
0	 4.062499999999999e+01	 3.437499999999999e+01	 1.000050673076923e+01
0	 4.062499999999999e+01	 3.499999999999999e+01	 1.000048116923077e+01
0	 4.062499999999999e+01	 3.562499999999999e+01	 1.000045579230769e+01
0	 4.062499999999999e+01	 3.624999999999998e+01	 1.000043060000000e+01
0	 4.062499999999999e+01	 3.687499999999999e+01	 1.000040559230768e+01
0	 4.062499999999999e+01	 3.750000000000000e+01	 1.000038076923077e+01
0	 4.124999999999999e+01	 3.125000000000000e+01	 1.000058289230769e+01
0	 4.124999999999998e+01	 3.187500000000000e+01	 1.000055965846153e+01
0	 4.124999999999998e+01	 3.249999999999999e+01	 1.000053651692309e+01
0	 4.124999999999998e+01	 3.312499999999999e+01	 1.000051346769231e+01
0	 4.125000000000000e+01	 3.375000000000001e+01	 1.000049051076923e+01
0	 4.125000000000000e+01	 3.437500000000000e+01	 1.000046764615385e+01
0	 4.124999999999999e+01	 3.499999999999999e+01	 1.000044487384615e+01
0	 4.124999999999999e+01	 3.562499999999999e+01	 1.000042219384615e+01
0	 4.124999999999998e+01	 3.624999999999999e+01	 1.000039960615385e+01
0	 4.124999999999999e+01	 3.687499999999998e+01	 1.000037711076922e+01
0	 4.124999999999999e+01	 3.750000000000000e+01	 1.000035470769231e+01
0	 4.187499999999998e+01	 3.125000000000000e+01	 1.000053256923077e+01
0	 4.187499999999998e+01	 3.187500000000000e+01	 1.000051213384616e+01
0	 4.187499999999999e+01	 3.250000000000000e+01	 1.000049169846154e+01
0	 4.187499999999998e+01	 3.312499999999999e+01	 1.000047126307692e+01
0	 4.187499999999999e+01	 3.374999999999999e+01	 1.000045082769231e+01
0	 4.187499999999999e+01	 3.437499999999999e+01	 1.000043039230769e+01
0	 4.187499999999999e+01	 3.500000000000000e+01	 1.000040995692309e+01
0	 4.187499999999999e+01	 3.562499999999999e+01	 1.000038952153846e+01
0	 4.187499999999999e+01	 3.624999999999998e+01	 1.000036908615385e+01
0	 4.187499999999999e+01	 3.687499999999999e+01	 1.000034865076923e+01
0	 4.187499999999998e+01	 3.750000000000000e+01	 1.000032821538462e+01
0	 4.249999999999997e+01	 3.125000000000000e+01	 1.000048633846154e+01
0	 4.249999999999999e+01	 3.187500000000000e+01	 1.000046824923077e+01
0	 4.249999999999999e+01	 3.249999999999999e+01	 1.000045006769230e+01
0	 4.249999999999999e+01	 3.312500000000000e+01	 1.000043179384616e+01
0	 4.249999999999998e+01	 3.374999999999999e+01	 1.000041342769231e+01
0	 4.249999999999999e+01	 3.437499999999999e+01	 1.000039496923077e+01
0	 4.249999999999998e+01	 3.499999999999999e+01	 1.000037641846153e+01
0	 4.249999999999999e+01	 3.562499999999998e+01	 1.000035777538462e+01
0	 4.249999999999999e+01	 3.624999999999998e+01	 1.000033904000000e+01
0	 4.249999999999999e+01	 3.687499999999998e+01	 1.000032021230769e+01
0	 4.249999999999997e+01	 3.750000000000000e+01	 1.000030129230770e+01
0	 4.312499999999997e+01	 3.125000000000000e+01	 1.000044420000000e+01
0	 4.312499999999998e+01	 3.187500000000000e+01	 1.000042800461539e+01
0	 4.312499999999999e+01	 3.249999999999999e+01	 1.000041162461538e+01
0	 4.312499999999999e+01	 3.312499999999999e+01	 1.000039506000001e+01
0	 4.312499999999998e+01	 3.374999999999999e+01	 1.000037831076923e+01
0	 4.312499999999998e+01	 3.437499999999999e+01	 1.000036137692308e+01
0	 4.312499999999999e+01	 3.499999999999999e+01	 1.000034425846154e+01
0	 4.312499999999998e+01	 3.562499999999999e+01	 1.000032695538461e+01
0	 4.312499999999999e+01	 3.624999999999999e+01	 1.000030946769231e+01
0	 4.312499999999998e+01	 3.687499999999998e+01	 1.000029179538461e+01
0	 4.312499999999997e+01	 3.750000000000000e+01	 1.000027393846154e+01
0	 4.375000000000000e+01	 3.125000000000000e+01	 1.000040615384615e+01
0	 4.375000000000000e+01	 3.187500000000000e+01	 1.000039140000001e+01
0	 4.375000000000001e+01	 3.250000000000001e+01	 1.000037636923076e+01
0	 4.375000000000000e+01	 3.312499999999999e+01	 1.000036106153846e+01
0	 4.375000000000000e+01	 3.374999999999999e+01	 1.000034547692307e+01
0	 4.375000000000000e+01	 3.437499999999999e+01	 1.000032961538461e+01
0	 4.375000000000000e+01	 3.499999999999999e+01	 1.000031347692308e+01
0	 4.375000000000000e+01	 3.562499999999999e+01	 1.000029706153846e+01
0	 4.375000000000000e+01	 3.624999999999998e+01	 1.000028036923077e+01
0	 4.375000000000000e+01	 3.687499999999998e+01	 1.000026340000000e+01
0	 4.375000000000000e+01	 3.750000000000000e+01	 1.000024615384616e+01
0	 3.750000000000000e+01	 3.750000000000000e+01	 1.000050461538461e+01
0	 3.750000000000000e+01	 3.812500000000000e+01	 1.000047224615385e+01
0	 3.750000000000001e+01	 3.875000000000001e+01	 1.000043821538462e+01
0	 3.749999999999999e+01	 3.937499999999999e+01	 1.000040252307692e+01
0	 3.750000000000000e+01	 3.999999999999999e+01	 1.000036516923077e+01
0	 3.749999999999999e+01	 4.062499999999999e+01	 1.000032615384615e+01
0	 3.750000000000000e+01	 4.124999999999999e+01	 1.000028547692307e+01
0	 3.750000000000000e+01	 4.187499999999999e+01	 1.000024313846153e+01
0	 3.750000000000000e+01	 4.249999999999999e+01	 1.000019913846154e+01
0	 3.750000000000000e+01	 4.312499999999999e+01	 1.000015347692307e+01
0	 3.750000000000000e+01	 4.375000000000000e+01	 1.000010615384615e+01
0	 3.812500000000000e+01	 3.750000000000000e+01	 1.000048070769232e+01
0	 3.812499999999999e+01	 3.812499999999999e+01	 1.000045001692307e+01
0	 3.812500000000001e+01	 3.874999999999999e+01	 1.000041780307693e+01
0	 3.812500000000000e+01	 3.937499999999999e+01	 1.000038406615385e+01
0	 3.812499999999999e+01	 3.999999999999999e+01	 1.000034880615384e+01
0	 3.812500000000001e+01	 4.062500000000000e+01	 1.000031202307691e+01
0	 3.812500000000000e+01	 4.124999999999999e+01	 1.000027371692308e+01
0	 3.812500000000001e+01	 4.187499999999999e+01	 1.000023388769230e+01
0	 3.812500000000001e+01	 4.249999999999998e+01	 1.000019253538462e+01
0	 3.812499999999999e+01	 4.312499999999997e+01	 1.000014965999998e+01
0	 3.812500000000000e+01	 4.375000000000000e+01	 1.000010526153845e+01
0	 3.875000000000000e+01	 3.750000000000001e+01	 1.000045636923077e+01
0	 3.874999999999999e+01	 3.812500000000000e+01	 1.000042731384614e+01
0	 3.875000000000000e+01	 3.875000000000001e+01	 1.000039687384615e+01
0	 3.874999999999999e+01	 3.937499999999999e+01	 1.000036504923076e+01
0	 3.874999999999999e+01	 3.999999999999999e+01	 1.000033184000000e+01
0	 3.874999999999999e+01	 4.062499999999999e+01	 1.000029724615384e+01
0	 3.874999999999999e+01	 4.124999999999997e+01	 1.000026126769230e+01
0	 3.875000000000000e+01	 4.187499999999999e+01	 1.000022390461538e+01
0	 3.874999999999999e+01	 4.249999999999999e+01	 1.000018515692308e+01
0	 3.875000000000001e+01	 4.312499999999998e+01	 1.000014502461537e+01
0	 3.875000000000000e+01	 4.375000000000001e+01	 1.000010350769230e+01
0	 3.937499999999999e+01	 3.750000000000000e+01	 1.000043160000000e+01
0	 3.937499999999999e+01	 3.812499999999999e+01	 1.000040413692308e+01
0	 3.937500000000000e+01	 3.875000000000000e+01	 1.000037542769230e+01
0	 3.937500000000000e+01	 3.937500000000000e+01	 1.000034547230769e+01
0	 3.937499999999999e+01	 3.999999999999999e+01	 1.000031427076922e+01
0	 3.937499999999999e+01	 4.062499999999999e+01	 1.000028182307692e+01
0	 3.937499999999999e+01	 4.124999999999999e+01	 1.000024812923077e+01
0	 3.937499999999999e+01	 4.187499999999999e+01	 1.000021318923077e+01
0	 3.937500000000000e+01	 4.249999999999999e+01	 1.000017700307692e+01
0	 3.937499999999999e+01	 4.312499999999997e+01	 1.000013957076923e+01
0	 3.937499999999999e+01	 4.375000000000000e+01	 1.000010089230769e+01
0	 3.999999999999999e+01	 3.750000000000000e+01	 1.000040640000000e+01
0	 3.999999999999999e+01	 3.812500000000000e+01	 1.000038048615384e+01
0	 3.999999999999999e+01	 3.874999999999999e+01	 1.000035346461539e+01
0	 3.999999999999999e+01	 3.937499999999999e+01	 1.000032533538461e+01
0	 3.999999999999999e+01	 3.999999999999999e+01	 1.000029609846154e+01
0	 3.999999999999999e+01	 4.062499999999999e+01	 1.000026575384615e+01
0	 3.999999999999999e+01	 4.124999999999999e+01	 1.000023430153846e+01
0	 4.000000000000000e+01	 4.187499999999999e+01	 1.000020174153845e+01
0	 3.999999999999999e+01	 4.249999999999998e+01	 1.000016807384614e+01
0	 3.999999999999999e+01	 4.312499999999998e+01	 1.000013329846153e+01
0	 3.999999999999999e+01	 4.375000000000000e+01	 1.000009741538462e+01
0	 4.062499999999999e+01	 3.750000000000000e+01	 1.000038076923077e+01
0	 4.062499999999999e+01	 3.812500000000000e+01	 1.000035636153846e+01
0	 4.062499999999999e+01	 3.874999999999999e+01	 1.000033098461539e+01
0	 4.062500000000000e+01	 3.937499999999999e+01	 1.000030463846153e+01
0	 4.062499999999999e+01	 3.999999999999999e+01	 1.000027732307692e+01
0	 4.062499999999999e+01	 4.062499999999999e+01	 1.000024903846154e+01
0	 4.062499999999999e+01	 4.125000000000000e+01	 1.000021978461538e+01
0	 4.062499999999999e+01	 4.187499999999998e+01	 1.000018956153845e+01
0	 4.062499999999999e+01	 4.249999999999998e+01	 1.000015836923076e+01
0	 4.062499999999999e+01	 4.312499999999999e+01	 1.000012620769230e+01
0	 4.062499999999999e+01	 4.375000000000000e+01	 1.000009307692307e+01
0	 4.124999999999999e+01	 3.750000000000000e+01	 1.000035470769231e+01
0	 4.124999999999998e+01	 3.812500000000000e+01	 1.000033176307692e+01
0	 4.124999999999998e+01	 3.874999999999999e+01	 1.000030798769231e+01
0	 4.124999999999998e+01	 3.937499999999999e+01	 1.000028338153846e+01
0	 4.125000000000000e+01	 4.000000000000000e+01	 1.000025794461538e+01
0	 4.125000000000000e+01	 4.062499999999999e+01	 1.000023167692308e+01
0	 4.124999999999999e+01	 4.124999999999999e+01	 1.000020457846153e+01
0	 4.124999999999999e+01	 4.187499999999998e+01	 1.000017664923076e+01
0	 4.124999999999998e+01	 4.249999999999998e+01	 1.000014788923077e+01
0	 4.124999999999999e+01	 4.312499999999999e+01	 1.000011829846153e+01
0	 4.124999999999999e+01	 4.375000000000000e+01	 1.000008787692307e+01
0	 4.187499999999998e+01	 3.750000000000000e+01	 1.000032821538462e+01
0	 4.187499999999998e+01	 3.812499999999999e+01	 1.000030669076924e+01
0	 4.187499999999999e+01	 3.875000000000000e+01	 1.000028447384616e+01
0	 4.187499999999998e+01	 3.937499999999999e+01	 1.000026156461539e+01
0	 4.187499999999999e+01	 3.999999999999999e+01	 1.000023796307692e+01
0	 4.187499999999999e+01	 4.062499999999999e+01	 1.000021366923076e+01
0	 4.187499999999999e+01	 4.124999999999999e+01	 1.000018868307692e+01
0	 4.187499999999999e+01	 4.187499999999999e+01	 1.000016300461538e+01
0	 4.187499999999999e+01	 4.249999999999999e+01	 1.000013663384615e+01
0	 4.187499999999999e+01	 4.312499999999999e+01	 1.000010957076922e+01
0	 4.187499999999998e+01	 4.374999999999999e+01	 1.000008181538460e+01
0	 4.249999999999997e+01	 3.750000000000000e+01	 1.000030129230770e+01
0	 4.249999999999999e+01	 3.812500000000001e+01	 1.000028114461539e+01
0	 4.249999999999999e+01	 3.875000000000000e+01	 1.000026044307692e+01
0	 4.249999999999999e+01	 3.937500000000000e+01	 1.000023918769231e+01
0	 4.249999999999998e+01	 3.999999999999999e+01	 1.000021737846154e+01
0	 4.249999999999999e+01	 4.062499999999999e+01	 1.000019501538461e+01
0	 4.249999999999998e+01	 4.124999999999999e+01	 1.000017209846153e+01
0	 4.249999999999999e+01	 4.187499999999999e+01	 1.000014862769230e+01
0	 4.249999999999999e+01	 4.249999999999999e+01	 1.000012460307691e+01
0	 4.249999999999999e+01	 4.312499999999999e+01	 1.000010002461538e+01
0	 4.249999999999997e+01	 4.375000000000000e+01	 1.000007489230769e+01
0	 4.312499999999997e+01	 3.750000000000000e+01	 1.000027393846154e+01
0	 4.312499999999998e+01	 3.812499999999999e+01	 1.000025512461539e+01
0	 4.312499999999999e+01	 3.875000000000000e+01	 1.000023589538462e+01
0	 4.312499999999999e+01	 3.937500000000000e+01	 1.000021625076923e+01
0	 4.312499999999998e+01	 3.999999999999999e+01	 1.000019619076923e+01
0	 4.312499999999998e+01	 4.062499999999999e+01	 1.000017571538461e+01
0	 4.312499999999999e+01	 4.124999999999999e+01	 1.000015482461538e+01
0	 4.312499999999998e+01	 4.187499999999999e+01	 1.000013351846153e+01
0	 4.312499999999999e+01	 4.249999999999999e+01	 1.000011179692308e+01
0	 4.312499999999998e+01	 4.312499999999998e+01	 1.000008965999999e+01
0	 4.312499999999997e+01	 4.375000000000000e+01	 1.000006710769231e+01
0	 4.375000000000000e+01	 3.750000000000000e+01	 1.000024615384616e+01
0	 4.375000000000000e+01	 3.812500000000000e+01	 1.000022863076923e+01
0	 4.375000000000001e+01	 3.875000000000001e+01	 1.000021083076924e+01
0	 4.375000000000000e+01	 3.937499999999999e+01	 1.000019275384615e+01
0	 4.375000000000000e+01	 3.999999999999999e+01	 1.000017440000001e+01
0	 4.375000000000000e+01	 4.062499999999999e+01	 1.000015576923076e+01
0	 4.375000000000000e+01	 4.124999999999999e+01	 1.000013686153845e+01
0	 4.375000000000000e+01	 4.187499999999999e+01	 1.000011767692306e+01
0	 4.375000000000000e+01	 4.249999999999999e+01	 1.000009821538461e+01
0	 4.375000000000000e+01	 4.312499999999999e+01	 1.000007847692306e+01
0	 4.375000000000000e+01	 4.375000000000000e+01	 1.000005846153845e+01
0	 3.750000000000000e+01	 4.375000000000000e+01	 1.000010615384615e+01
0	 3.750000000000000e+01	 4.437500000000000e+01	 1.000010569230768e+01
0	 3.749999999999999e+01	 4.499999999999999e+01	 1.000010153846153e+01
0	 3.749999999999999e+01	 4.562499999999999e+01	 1.000009369230769e+01
0	 3.750000000000001e+01	 4.624999999999999e+01	 1.000008215384615e+01
0	 3.750000000000000e+01	 4.687499999999999e+01	 1.000006692307692e+01
0	 3.750000000000000e+01	 4.749999999999999e+01	 1.000004800000001e+01
0	 3.750000000000000e+01	 4.812499999999999e+01	 1.000002538461540e+01
0	 3.750000000000001e+01	 4.874999999999999e+01	 9.999999076923066e+00
0	 3.750000000000000e+01	 4.937499999999999e+01	 9.999969076923048e+00
0	 3.750000000000000e+01	 5.000000000000000e+01	 9.999935384615382e+00
0	 3.812500000000000e+01	 4.375000000000000e+01	 1.000010526153845e+01
0	 3.812500000000000e+01	 4.437500000000000e+01	 1.000010487538461e+01
0	 3.812499999999999e+01	 4.499999999999998e+01	 1.000010099076922e+01
0	 3.812500000000000e+01	 4.562499999999999e+01	 1.000009360769230e+01
0	 3.812500000000001e+01	 4.625000000000000e+01	 1.000008272615383e+01
0	 3.812500000000001e+01	 4.687499999999999e+01	 1.000006834615384e+01
0	 3.812500000000001e+01	 4.749999999999999e+01	 1.000005046769232e+01
0	 3.812500000000000e+01	 4.812499999999998e+01	 1.000002909076923e+01
0	 3.812500000000000e+01	 4.874999999999999e+01	 1.000000421538463e+01
0	 3.812499999999999e+01	 4.937499999999997e+01	 9.999975841538463e+00
0	 3.812500000000000e+01	 5.000000000000000e+01	 9.999943969230792e+00
0	 3.875000000000000e+01	 4.375000000000001e+01	 1.000010350769230e+01
0	 3.874999999999999e+01	 4.437499999999999e+01	 1.000010315384615e+01
0	 3.875000000000000e+01	 4.500000000000000e+01	 1.000009949538460e+01
0	 3.874999999999999e+01	 4.562499999999999e+01	 1.000009253230768e+01
0	 3.875000000000000e+01	 4.625000000000000e+01	 1.000008226461538e+01
0	 3.875000000000001e+01	 4.687499999999999e+01	 1.000006869230768e+01
0	 3.875000000000000e+01	 4.749999999999999e+01	 1.000005181538461e+01
0	 3.875000000000000e+01	 4.812500000000000e+01	 1.000003163384614e+01
0	 3.874999999999999e+01	 4.874999999999999e+01	 1.000000814769229e+01
0	 3.875000000000001e+01	 4.937499999999999e+01	 9.999981356923062e+00
0	 3.874999999999999e+01	 5.000000000000000e+01	 9.999951261538454e+00
0	 3.937499999999999e+01	 4.375000000000000e+01	 1.000010089230769e+01
0	 3.937500000000000e+01	 4.437499999999999e+01	 1.000010052769230e+01
0	 3.937499999999999e+01	 4.499999999999999e+01	 1.000009705230769e+01
0	 3.937499999999999e+01	 4.562499999999999e+01	 1.000009046615384e+01
0	 3.937499999999999e+01	 4.624999999999999e+01	 1.000008076923076e+01
0	 3.937499999999999e+01	 4.687499999999999e+01	 1.000006796153846e+01
0	 3.937500000000000e+01	 4.749999999999999e+01	 1.000005204307691e+01
0	 3.937499999999999e+01	 4.812499999999998e+01	 1.000003301384616e+01
0	 3.937499999999999e+01	 4.874999999999998e+01	 1.000001087384612e+01
0	 3.937499999999999e+01	 4.937499999999998e+01	 9.999985623076920e+00
0	 3.937499999999999e+01	 5.000000000000000e+01	 9.999957261538491e+00
0	 3.999999999999999e+01	 4.375000000000000e+01	 1.000009741538462e+01
0	 3.999999999999999e+01	 4.437499999999999e+01	 1.000009699692306e+01
0	 4.000000000000001e+01	 4.500000000000000e+01	 1.000009366153845e+01
0	 3.999999999999999e+01	 4.562499999999999e+01	 1.000008740923075e+01
0	 3.999999999999999e+01	 4.625000000000000e+01	 1.000007823999999e+01
0	 3.999999999999999e+01	 4.687499999999999e+01	 1.000006615384613e+01
0	 4.000000000000000e+01	 4.749999999999999e+01	 1.000005115076921e+01
0	 4.000000000000000e+01	 4.812499999999998e+01	 1.000003323076924e+01
0	 3.999999999999999e+01	 4.874999999999999e+01	 1.000001239384613e+01
0	 3.999999999999999e+01	 4.937499999999996e+01	 9.999988639999973e+00
0	 3.999999999999999e+01	 5.000000000000000e+01	 9.999961969230768e+00
0	 4.062499999999999e+01	 4.375000000000000e+01	 1.000009307692307e+01
0	 4.062499999999999e+01	 4.437500000000000e+01	 1.000009256153845e+01
0	 4.062499999999999e+01	 4.499999999999999e+01	 1.000008932307692e+01
0	 4.062499999999999e+01	 4.562500000000000e+01	 1.000008336153845e+01
0	 4.062499999999999e+01	 4.624999999999999e+01	 1.000007467692307e+01
0	 4.062499999999999e+01	 4.687499999999999e+01	 1.000006326923076e+01
0	 4.062499999999999e+01	 4.749999999999999e+01	 1.000004913846151e+01
0	 4.062499999999999e+01	 4.812499999999999e+01	 1.000003228461538e+01
0	 4.062499999999999e+01	 4.874999999999998e+01	 1.000001270769232e+01
0	 4.062499999999999e+01	 4.937499999999998e+01	 9.999990407692326e+00
0	 4.062499999999999e+01	 5.000000000000000e+01	 9.999965384615395e+00
0	 4.124999999999999e+01	 4.375000000000000e+01	 1.000008787692307e+01
0	 4.124999999999998e+01	 4.437499999999999e+01	 1.000008722153845e+01
0	 4.124999999999999e+01	 4.499999999999999e+01	 1.000008403692308e+01
0	 4.124999999999999e+01	 4.562499999999999e+01	 1.000007832307691e+01
0	 4.124999999999999e+01	 4.624999999999999e+01	 1.000007008000000e+01
0	 4.124999999999999e+01	 4.687499999999999e+01	 1.000005930769231e+01
0	 4.124999999999999e+01	 4.749999999999999e+01	 1.000004600615383e+01
0	 4.124999999999998e+01	 4.812499999999998e+01	 1.000003017538462e+01
0	 4.124999999999998e+01	 4.874999999999999e+01	 1.000001181538461e+01
0	 4.124999999999999e+01	 4.937499999999999e+01	 9.999990926153824e+00
0	 4.124999999999999e+01	 5.000000000000000e+01	 9.999967507692331e+00
0	 4.187499999999998e+01	 4.374999999999999e+01	 1.000008181538460e+01
0	 4.187499999999998e+01	 4.437499999999999e+01	 1.000008097692307e+01
0	 4.187499999999999e+01	 4.499999999999999e+01	 1.000007780307692e+01
0	 4.187499999999999e+01	 4.562499999999999e+01	 1.000007229384616e+01
0	 4.187499999999999e+01	 4.624999999999999e+01	 1.000006444923077e+01
0	 4.187499999999998e+01	 4.687499999999999e+01	 1.000005426923077e+01
0	 4.187499999999999e+01	 4.749999999999999e+01	 1.000004175384614e+01
0	 4.187499999999999e+01	 4.812499999999999e+01	 1.000002690307692e+01
0	 4.187499999999998e+01	 4.874999999999998e+01	 1.000000971692307e+01
0	 4.187499999999999e+01	 4.937499999999999e+01	 9.999990195384596e+00
0	 4.187499999999999e+01	 5.000000000000001e+01	 9.999968338461546e+00
0	 4.249999999999997e+01	 4.375000000000000e+01	 1.000007489230769e+01
0	 4.249999999999999e+01	 4.437500000000000e+01	 1.000007382769231e+01
0	 4.249999999999999e+01	 4.499999999999999e+01	 1.000007062153846e+01
0	 4.249999999999999e+01	 4.562500000000000e+01	 1.000006527384615e+01
0	 4.249999999999998e+01	 4.624999999999999e+01	 1.000005778461539e+01
0	 4.249999999999999e+01	 4.687499999999999e+01	 1.000004815384614e+01
0	 4.249999999999997e+01	 4.749999999999999e+01	 1.000003638153844e+01
0	 4.249999999999999e+01	 4.812499999999999e+01	 1.000002246769231e+01
0	 4.249999999999999e+01	 4.874999999999998e+01	 1.000000641230771e+01
0	 4.249999999999999e+01	 4.937499999999999e+01	 9.999988215384633e+00
0	 4.249999999999998e+01	 5.000000000000000e+01	 9.999967876923069e+00
0	 4.312499999999997e+01	 4.375000000000000e+01	 1.000006710769231e+01
0	 4.312499999999997e+01	 4.437500000000000e+01	 1.000006577384614e+01
0	 4.312499999999998e+01	 4.499999999999999e+01	 1.000006249230768e+01
0	 4.312499999999999e+01	 4.562500000000000e+01	 1.000005726307691e+01
0	 4.312499999999999e+01	 4.624999999999999e+01	 1.000005008615383e+01
0	 4.312499999999997e+01	 4.687499999999999e+01	 1.000004096153846e+01
0	 4.312499999999998e+01	 4.749999999999999e+01	 1.000002988923076e+01
0	 4.312499999999999e+01	 4.812499999999999e+01	 1.000001686923079e+01
0	 4.312499999999998e+01	 4.874999999999998e+01	 1.000000190153845e+01
0	 4.312499999999998e+01	 4.937499999999998e+01	 9.999984986153850e+00
0	 4.312499999999998e+01	 5.000000000000000e+01	 9.999966123076907e+00
0	 4.375000000000000e+01	 4.375000000000000e+01	 1.000005846153845e+01
0	 4.375000000000000e+01	 4.437500000000000e+01	 1.000005681538461e+01
0	 4.374999999999999e+01	 4.499999999999999e+01	 1.000005341538461e+01
0	 4.375000000000000e+01	 4.562499999999999e+01	 1.000004826153846e+01
0	 4.375000000000000e+01	 4.624999999999999e+01	 1.000004135384614e+01
0	 4.375000000000000e+01	 4.687499999999999e+01	 1.000003269230769e+01
0	 4.375000000000000e+01	 4.749999999999999e+01	 1.000002227692309e+01
0	 4.375000000000000e+01	 4.812499999999999e+01	 1.000001010769232e+01
0	 4.375000000000001e+01	 4.874999999999999e+01	 9.999996184615380e+00
0	 4.375000000000000e+01	 4.937499999999999e+01	 9.999980507692271e+00
0	 4.375000000000000e+01	 5.000000000000000e+01	 9.999963076923081e+00
0	 4.375000000000000e+01	 0.000000000000000e+00	 9.999328000000000e+00
0	 4.375000000000000e+01	 6.250000000000000e-01	 9.999356800000001e+00
0	 4.375000000000000e+01	 1.250000000000000e+00	 9.999382646153849e+00
0	 4.375000000000000e+01	 1.875000000000000e+00	 9.999405538461534e+00
0	 4.375000000000000e+01	 2.500000000000000e+00	 9.999425476923077e+00
0	 4.375000000000000e+01	 3.125000000000000e+00	 9.999442461538456e+00
0	 4.375000000000000e+01	 3.750000000000000e+00	 9.999456492307688e+00
0	 4.375000000000000e+01	 4.375000000000000e+00	 9.999467569230767e+00
0	 4.375000000000000e+01	 5.000000000000000e+00	 9.999475692307691e+00
0	 4.375000000000000e+01	 5.624999999999999e+00	 9.999480861538455e+00
0	 4.375000000000000e+01	 6.250000000000000e+00	 9.999483076923074e+00
0	 4.437500000000001e+01	 0.000000000000000e+00	 9.999171126153847e+00
0	 4.437499999999999e+01	 6.250000000000000e-01	 9.999201003384616e+00
0	 4.437500000000000e+01	 1.250000000000000e+00	 9.999228314461533e+00
0	 4.437500000000000e+01	 1.875000000000000e+00	 9.999253059384611e+00
0	 4.437500000000001e+01	 2.500000000000001e+00	 9.999275238153841e+00
0	 4.437500000000000e+01	 3.125000000000000e+00	 9.999294850769234e+00
0	 4.437500000000000e+01	 3.750000000000000e+00	 9.999311897230765e+00
0	 4.437500000000001e+01	 4.375000000000000e+00	 9.999326377538457e+00
0	 4.437500000000000e+01	 4.999999999999999e+00	 9.999338291692302e+00
0	 4.437500000000001e+01	 5.625000000000001e+00	 9.999347639692303e+00
0	 4.437500000000000e+01	 6.250000000000000e+00	 9.999354421538460e+00
0	 4.500000000000000e+01	 0.000000000000000e+00	 9.999003396923076e+00
0	 4.500000000000000e+01	 6.250000000000000e-01	 9.999034062769230e+00
0	 4.499999999999999e+01	 1.250000000000000e+00	 9.999062550153845e+00
0	 4.499999999999999e+01	 1.875000000000000e+00	 9.999088859076927e+00
0	 4.499999999999999e+01	 2.500000000000000e+00	 9.999112989538464e+00
0	 4.500000000000001e+01	 3.125000000000000e+00	 9.999134941538458e+00
0	 4.500000000000001e+01	 3.750000000000000e+00	 9.999154715076925e+00
0	 4.499999999999999e+01	 4.374999999999998e+00	 9.999172310153844e+00
0	 4.500000000000000e+01	 5.000000000000000e+00	 9.999187726769227e+00
0	 4.500000000000001e+01	 5.624999999999999e+00	 9.999200964923070e+00
0	 4.499999999999999e+01	 6.250000000000000e+00	 9.999212024615383e+00
0	 4.562499999999999e+01	 0.000000000000000e+00	 9.998824812307692e+00
0	 4.562500000000000e+01	 6.250000000000000e-01	 9.998855978153847e+00
0	 4.562500000000000e+01	 1.250000000000000e+00	 9.998885353230769e+00
0	 4.562499999999999e+01	 1.875000000000000e+00	 9.998912937538462e+00
0	 4.562499999999999e+01	 2.500000000000000e+00	 9.998938731076919e+00
0	 4.562500000000000e+01	 3.125000000000000e+00	 9.998962733846149e+00
0	 4.562499999999999e+01	 3.750000000000001e+00	 9.998984945846159e+00
0	 4.562499999999999e+01	 4.374999999999999e+00	 9.999005367076924e+00
0	 4.562500000000000e+01	 4.999999999999999e+00	 9.999023997538458e+00
0	 4.562499999999999e+01	 5.624999999999999e+00	 9.999040837230767e+00
0	 4.562500000000000e+01	 6.250000000000000e+00	 9.999055886153846e+00
0	 4.624999999999999e+01	 0.000000000000000e+00	 9.998635372307687e+00
0	 4.624999999999999e+01	 6.250000000000001e-01	 9.998666749538458e+00
0	 4.624999999999999e+01	 1.250000000000000e+00	 9.998696723692310e+00
0	 4.625000000000000e+01	 1.875000000000000e+00	 9.998725294769230e+00
0	 4.624999999999999e+01	 2.500000000000001e+00	 9.998752462769225e+00
0	 4.624999999999999e+01	 3.125000000000000e+00	 9.998778227692306e+00
0	 4.624999999999999e+01	 3.750000000000000e+00	 9.998802589538460e+00
0	 4.624999999999999e+01	 4.374999999999999e+00	 9.998825548307689e+00
0	 4.624999999999999e+01	 5.000000000000000e+00	 9.998847103999999e+00
0	 4.624999999999999e+01	 5.625000000000000e+00	 9.998867256615377e+00
0	 4.624999999999999e+01	 6.250000000000001e+00	 9.998886006153846e+00
0	 4.687499999999999e+01	 0.000000000000000e+00	 9.998435076923078e+00
0	 4.687499999999999e+01	 6.249999999999999e-01	 9.998466376923071e+00
0	 4.687499999999999e+01	 1.250000000000000e+00	 9.998496661538464e+00
0	 4.687499999999999e+01	 1.875000000000000e+00	 9.998525930769233e+00
0	 4.687499999999999e+01	 2.500000000000000e+00	 9.998554184615385e+00
0	 4.687499999999999e+01	 3.125000000000000e+00	 9.998581423076924e+00
0	 4.687499999999999e+01	 3.750000000000000e+00	 9.998607646153843e+00
0	 4.687499999999999e+01	 4.375000000000000e+00	 9.998632853846154e+00
0	 4.687499999999999e+01	 4.999999999999999e+00	 9.998657046153841e+00
0	 4.687499999999999e+01	 5.624999999999999e+00	 9.998680223076919e+00
0	 4.687499999999999e+01	 6.250000000000000e+00	 9.998702384615385e+00
0	 4.749999999999999e+01	 0.000000000000000e+00	 9.998223926153846e+00
0	 4.749999999999998e+01	 6.249999999999999e-01	 9.998254860307689e+00
0	 4.749999999999999e+01	 1.250000000000000e+00	 9.998285166769232e+00
0	 4.749999999999998e+01	 1.875000000000000e+00	 9.998314845538458e+00
0	 4.749999999999999e+01	 2.500000000000000e+00	 9.998343896615381e+00
0	 4.749999999999999e+01	 3.125000000000000e+00	 9.998372319999998e+00
0	 4.749999999999999e+01	 3.749999999999999e+00	 9.998400115692309e+00
0	 4.749999999999999e+01	 4.375000000000000e+00	 9.998427283692306e+00
0	 4.749999999999999e+01	 5.000000000000000e+00	 9.998453824000002e+00
0	 4.749999999999999e+01	 5.625000000000000e+00	 9.998479736615383e+00
0	 4.749999999999999e+01	 6.250000000000000e+00	 9.998505021538460e+00
0	 4.812499999999999e+01	 0.000000000000000e+00	 9.998001919999997e+00
0	 4.812500000000000e+01	 6.250000000000001e-01	 9.998032199692304e+00
0	 4.812499999999998e+01	 1.250000000000000e+00	 9.998062239384613e+00
0	 4.812499999999998e+01	 1.875000000000000e+00	 9.998092039076923e+00
0	 4.812499999999997e+01	 2.500000000000000e+00	 9.998121598769229e+00
0	 4.812499999999998e+01	 3.125000000000000e+00	 9.998150918461533e+00
0	 4.812499999999999e+01	 3.750000000000000e+00	 9.998179998153843e+00
0	 4.812499999999999e+01	 4.375000000000000e+00	 9.998208837846146e+00
0	 4.812499999999997e+01	 4.999999999999999e+00	 9.998237437538457e+00
0	 4.812499999999998e+01	 5.624999999999999e+00	 9.998265797230765e+00
0	 4.812499999999999e+01	 6.250000000000000e+00	 9.998293916923071e+00
0	 4.874999999999999e+01	 0.000000000000000e+00	 9.997769058461534e+00
0	 4.874999999999999e+01	 6.250000000000000e-01	 9.997798395076924e+00
0	 4.874999999999998e+01	 1.250000000000000e+00	 9.997827879384616e+00
0	 4.874999999999999e+01	 1.875000000000000e+00	 9.997857511384614e+00
0	 4.874999999999998e+01	 2.500000000000000e+00	 9.997887291076925e+00
0	 4.874999999999999e+01	 3.125000000000000e+00	 9.997917218461534e+00
0	 4.874999999999999e+01	 3.750000000000000e+00	 9.997947293538457e+00
0	 4.874999999999999e+01	 4.375000000000000e+00	 9.997977516307690e+00
0	 4.874999999999999e+01	 5.000000000000000e+00	 9.998007886769233e+00
0	 4.874999999999999e+01	 5.624999999999999e+00	 9.998038404923076e+00
0	 4.874999999999999e+01	 6.250000000000000e+00	 9.998069070769228e+00
0	 4.937499999999999e+01	 0.000000000000000e+00	 9.997525341538459e+00
0	 4.937499999999999e+01	 6.250000000000000e-01	 9.997553446461549e+00
0	 4.937499999999997e+01	 1.250000000000000e+00	 9.997582086769235e+00
0	 4.937499999999999e+01	 1.875000000000000e+00	 9.997611262461531e+00
0	 4.937499999999999e+01	 2.500000000000000e+00	 9.997640973538456e+00
0	 4.937499999999998e+01	 3.125000000000000e+00	 9.997671219999999e+00
0	 4.937499999999999e+01	 3.750000000000000e+00	 9.997702001846154e+00
0	 4.937499999999998e+01	 4.375000000000000e+00	 9.997733319076930e+00
0	 4.937499999999997e+01	 4.999999999999999e+00	 9.997765171692309e+00
0	 4.937499999999999e+01	 5.625000000000000e+00	 9.997797559692305e+00
0	 4.937499999999999e+01	 6.250000000000000e+00	 9.997830483076928e+00
0	 5.000000000000000e+01	 0.000000000000000e+00	 9.997270769230767e+00
0	 5.000000000000000e+01	 6.250000000000000e-01	 9.997297353846154e+00
0	 5.000000000000000e+01	 1.250000000000000e+00	 9.997324861538452e+00
0	 5.000000000000000e+01	 1.875000000000000e+00	 9.997353292307684e+00
0	 5.000000000000000e+01	 2.500000000000000e+00	 9.997382646153842e+00
0	 5.000000000000000e+01	 3.125000000000000e+00	 9.997412923076926e+00
0	 4.999999999999999e+01	 3.750000000000000e+00	 9.997444123076926e+00
0	 5.000000000000000e+01	 4.375000000000000e+00	 9.997476246153841e+00
0	 5.000000000000001e+01	 5.000000000000000e+00	 9.997509292307697e+00
0	 5.000000000000000e+01	 5.624999999999999e+00	 9.997543261538461e+00
0	 5.000000000000000e+01	 6.250000000000000e+00	 9.997578153846149e+00
0	 4.375000000000000e+01	 6.250000000000000e+00	 9.999483076923074e+00
0	 4.375000000000000e+01	 6.875000000000000e+00	 9.999537030769227e+00
0	 4.375000000000000e+01	 7.500000000000002e+00	 9.999590153846151e+00
0	 4.375000000000000e+01	 8.125000000000004e+00	 9.999642446153846e+00
0	 4.375000000000000e+01	 8.750000000000004e+00	 9.999693907692308e+00
0	 4.375000000000000e+01	 9.375000000000004e+00	 9.999744538461540e+00
0	 4.375000000000000e+01	 1.000000000000000e+01	 9.999794338461538e+00
0	 4.375000000000000e+01	 1.062500000000000e+01	 9.999843307692309e+00
0	 4.375000000000001e+01	 1.125000000000001e+01	 9.999891446153846e+00
0	 4.375000000000000e+01	 1.187500000000001e+01	 9.999938753846150e+00
0	 4.375000000000000e+01	 1.250000000000000e+01	 9.999985230769232e+00
0	 4.437500000000000e+01	 6.250000000000000e+00	 9.999354421538460e+00
0	 4.437500000000000e+01	 6.875000000000001e+00	 9.999404204000001e+00
0	 4.437499999999999e+01	 7.500000000000002e+00	 9.999453164923075e+00
0	 4.437500000000000e+01	 8.125000000000002e+00	 9.999501304307692e+00
0	 4.437499999999999e+01	 8.750000000000002e+00	 9.999548622153849e+00
0	 4.437500000000001e+01	 9.375000000000004e+00	 9.999595118461537e+00
0	 4.437499999999999e+01	 1.000000000000000e+01	 9.999640793230773e+00
0	 4.437500000000001e+01	 1.062500000000001e+01	 9.999685646461536e+00
0	 4.437500000000000e+01	 1.125000000000000e+01	 9.999729678153846e+00
0	 4.437500000000000e+01	 1.187500000000001e+01	 9.999772888307694e+00
0	 4.437500000000000e+01	 1.250000000000000e+01	 9.999815276923076e+00
0	 4.499999999999999e+01	 6.250000000000000e+00	 9.999212024615383e+00
0	 4.499999999999999e+01	 6.875000000000000e+00	 9.999259548307691e+00
0	 4.499999999999999e+01	 7.500000000000003e+00	 9.999306259692307e+00
0	 4.499999999999999e+01	 8.125000000000000e+00	 9.999352158769227e+00
0	 4.499999999999999e+01	 8.749999999999998e+00	 9.999397245538457e+00
0	 4.500000000000000e+01	 9.375000000000004e+00	 9.999441519999994e+00
0	 4.499999999999999e+01	 1.000000000000000e+01	 9.999484982153852e+00
0	 4.499999999999999e+01	 1.062500000000001e+01	 9.999527632000001e+00
0	 4.500000000000001e+01	 1.125000000000001e+01	 9.999569469538461e+00
0	 4.500000000000000e+01	 1.187500000000001e+01	 9.999610494769232e+00
0	 4.499999999999999e+01	 1.250000000000000e+01	 9.999650707692307e+00
0	 4.562500000000000e+01	 6.250000000000000e+00	 9.999055886153846e+00
0	 4.562499999999999e+01	 6.875000000000001e+00	 9.999103063692305e+00
0	 4.562499999999999e+01	 7.500000000000002e+00	 9.999149438153843e+00
0	 4.562500000000000e+01	 8.125000000000002e+00	 9.999195009538459e+00
0	 4.562500000000000e+01	 8.750000000000000e+00	 9.999239777846148e+00
0	 4.562499999999999e+01	 9.375000000000002e+00	 9.999283743076928e+00
0	 4.562499999999999e+01	 1.000000000000000e+01	 9.999326905230765e+00
0	 4.562500000000000e+01	 1.062500000000000e+01	 9.999369264307695e+00
0	 4.562499999999999e+01	 1.125000000000000e+01	 9.999410820307695e+00
0	 4.562500000000000e+01	 1.187500000000001e+01	 9.999451573230768e+00
0	 4.562500000000000e+01	 1.250000000000000e+01	 9.999491523076928e+00
0	 4.624999999999999e+01	 6.250000000000001e+00	 9.998886006153846e+00
0	 4.624999999999999e+01	 6.875000000000002e+00	 9.998934750153849e+00
0	 4.624999999999999e+01	 7.500000000000002e+00	 9.998982700307700e+00
0	 4.624999999999999e+01	 8.125000000000002e+00	 9.999029856615387e+00
0	 4.624999999999999e+01	 8.750000000000002e+00	 9.999076219076919e+00
0	 4.624999999999999e+01	 9.375000000000004e+00	 9.999121787692305e+00
0	 4.624999999999999e+01	 1.000000000000000e+01	 9.999166562461536e+00
0	 4.624999999999999e+01	 1.062500000000000e+01	 9.999210543384615e+00
0	 4.625000000000000e+01	 1.125000000000001e+01	 9.999253730461533e+00
0	 4.624999999999999e+01	 1.187500000000000e+01	 9.999296123692300e+00
0	 4.624999999999999e+01	 1.250000000000000e+01	 9.999337723076923e+00
0	 4.687499999999999e+01	 6.250000000000000e+00	 9.998702384615385e+00
0	 4.687499999999999e+01	 6.875000000000000e+00	 9.998754607692305e+00
0	 4.687499999999999e+01	 7.500000000000003e+00	 9.998806046153845e+00
0	 4.687500000000000e+01	 8.125000000000004e+00	 9.998856699999999e+00
0	 4.687499999999999e+01	 8.750000000000004e+00	 9.998906569230767e+00
0	 4.687499999999999e+01	 9.375000000000005e+00	 9.998955653846153e+00
0	 4.687499999999999e+01	 1.000000000000000e+01	 9.999003953846152e+00
0	 4.687499999999999e+01	 1.062500000000000e+01	 9.999051469230771e+00
0	 4.687499999999999e+01	 1.125000000000000e+01	 9.999098199999999e+00
0	 4.687499999999999e+01	 1.187500000000001e+01	 9.999144146153840e+00
0	 4.687499999999999e+01	 1.250000000000000e+01	 9.999189307692310e+00
0	 4.749999999999999e+01	 6.250000000000000e+00	 9.998505021538460e+00
0	 4.749999999999999e+01	 6.875000000000001e+00	 9.998562636307689e+00
0	 4.749999999999999e+01	 7.500000000000003e+00	 9.998619475692307e+00
0	 4.749999999999999e+01	 8.125000000000004e+00	 9.998675539692300e+00
0	 4.749999999999998e+01	 8.750000000000000e+00	 9.998730828307691e+00
0	 4.749999999999999e+01	 9.375000000000004e+00	 9.998785341538460e+00
0	 4.749999999999999e+01	 1.000000000000000e+01	 9.998839079384615e+00
0	 4.749999999999999e+01	 1.062500000000001e+01	 9.998892041846151e+00
0	 4.749999999999999e+01	 1.125000000000000e+01	 9.998944228923072e+00
0	 4.749999999999999e+01	 1.187500000000001e+01	 9.998995640615387e+00
0	 4.749999999999999e+01	 1.250000000000000e+01	 9.999046276923076e+00
0	 4.812499999999999e+01	 6.250000000000000e+00	 9.998293916923071e+00
0	 4.812499999999999e+01	 6.875000000000001e+00	 9.998358835999998e+00
0	 4.812499999999997e+01	 7.500000000000000e+00	 9.998422988923078e+00
0	 4.812499999999999e+01	 8.125000000000004e+00	 9.998486375692302e+00
0	 4.812499999999999e+01	 8.750000000000004e+00	 9.998548996307695e+00
0	 4.812499999999999e+01	 9.375000000000002e+00	 9.998610850769225e+00
0	 4.812499999999999e+01	 1.000000000000001e+01	 9.998671939076919e+00
0	 4.812499999999999e+01	 1.062500000000001e+01	 9.998732261230769e+00
0	 4.812499999999999e+01	 1.125000000000001e+01	 9.998791817230769e+00
0	 4.812499999999999e+01	 1.187500000000001e+01	 9.998850607076918e+00
0	 4.812499999999999e+01	 1.250000000000000e+01	 9.998908630769225e+00
0	 4.874999999999999e+01	 6.250000000000000e+00	 9.998069070769228e+00
0	 4.874999999999998e+01	 6.875000000000001e+00	 9.998143206769234e+00
0	 4.874999999999998e+01	 7.500000000000002e+00	 9.998216585846157e+00
0	 4.874999999999999e+01	 8.125000000000004e+00	 9.998289208000010e+00
0	 4.874999999999999e+01	 8.750000000000004e+00	 9.998361073230768e+00
0	 4.874999999999998e+01	 9.375000000000002e+00	 9.998432181538455e+00
0	 4.874999999999998e+01	 1.000000000000000e+01	 9.998502532923077e+00
0	 4.874999999999999e+01	 1.062500000000000e+01	 9.998572127384609e+00
0	 4.874999999999999e+01	 1.125000000000001e+01	 9.998640964923069e+00
0	 4.874999999999998e+01	 1.187500000000000e+01	 9.998709045538453e+00
0	 4.874999999999999e+01	 1.250000000000000e+01	 9.998776369230768e+00
0	 4.937499999999999e+01	 6.250000000000000e+00	 9.997830483076928e+00
0	 4.937499999999999e+01	 6.875000000000001e+00	 9.997915748615382e+00
0	 4.937499999999998e+01	 7.500000000000002e+00	 9.998000266461531e+00
0	 4.937499999999999e+01	 8.125000000000002e+00	 9.998084036615385e+00
0	 4.937499999999999e+01	 8.750000000000002e+00	 9.998167059076923e+00
0	 4.937499999999999e+01	 9.375000000000004e+00	 9.998249333846148e+00
0	 4.937499999999999e+01	 1.000000000000000e+01	 9.998330860923083e+00
0	 4.937499999999998e+01	 1.062500000000000e+01	 9.998411640307683e+00
0	 4.937499999999998e+01	 1.125000000000000e+01	 9.998491671999991e+00
0	 4.937499999999998e+01	 1.187500000000001e+01	 9.998570955999998e+00
0	 4.937499999999999e+01	 1.250000000000000e+01	 9.998649492307694e+00
0	 5.000000000000000e+01	 6.250000000000000e+00	 9.997578153846149e+00
0	 5.000000000000000e+01	 6.875000000000001e+00	 9.997676461538459e+00
0	 5.000000000000000e+01	 7.500000000000003e+00	 9.997774030769227e+00
0	 5.000000000000001e+01	 8.125000000000004e+00	 9.997870861538457e+00
0	 5.000000000000001e+01	 8.750000000000002e+00	 9.997966953846158e+00
0	 5.000000000000000e+01	 9.375000000000004e+00	 9.998062307692306e+00
0	 5.000000000000000e+01	 1.000000000000000e+01	 9.998156923076923e+00
0	 5.000000000000000e+01	 1.062500000000000e+01	 9.998250800000003e+00
0	 5.000000000000000e+01	 1.125000000000001e+01	 9.998343938461538e+00
0	 5.000000000000000e+01	 1.187500000000001e+01	 9.998436338461536e+00
0	 5.000000000000000e+01	 1.250000000000000e+01	 9.998527999999997e+00
0	 4.375000000000000e+01	 1.250000000000000e+01	 9.999985230769232e+00
0	 4.375000000000000e+01	 1.312500000000000e+01	 1.000000607692308e+01
0	 4.375000000000000e+01	 1.375000000000000e+01	 1.000002904615384e+01
0	 4.375000000000000e+01	 1.437500000000000e+01	 1.000005413846154e+01
0	 4.375000000000000e+01	 1.500000000000000e+01	 1.000008135384616e+01
0	 4.375000000000000e+01	 1.562500000000000e+01	 1.000011069230769e+01
0	 4.375000000000000e+01	 1.625000000000000e+01	 1.000014215384615e+01
0	 4.375000000000000e+01	 1.687500000000000e+01	 1.000017573846154e+01
0	 4.375000000000001e+01	 1.750000000000001e+01	 1.000021144615384e+01
0	 4.375000000000000e+01	 1.812500000000001e+01	 1.000024927692307e+01
0	 4.375000000000000e+01	 1.875000000000000e+01	 1.000028923076923e+01
0	 4.437500000000000e+01	 1.250000000000000e+01	 9.999815276923076e+00
0	 4.437500000000000e+01	 1.312500000000000e+01	 9.999844581538461e+00
0	 4.437499999999999e+01	 1.375000000000000e+01	 9.999875760000002e+00
0	 4.437500000000000e+01	 1.437500000000000e+01	 9.999908812307691e+00
0	 4.437499999999999e+01	 1.500000000000000e+01	 9.999943738461543e+00
0	 4.437500000000001e+01	 1.562500000000000e+01	 9.999980538461539e+00
0	 4.437499999999999e+01	 1.625000000000000e+01	 1.000001921230769e+01
0	 4.437500000000001e+01	 1.687500000000001e+01	 1.000005976000000e+01
0	 4.437500000000000e+01	 1.750000000000000e+01	 1.000010218153846e+01
0	 4.437500000000000e+01	 1.812500000000001e+01	 1.000014647692308e+01
0	 4.437500000000000e+01	 1.875000000000000e+01	 1.000019264615384e+01
0	 4.499999999999999e+01	 1.250000000000000e+01	 9.999650707692307e+00
0	 4.499999999999999e+01	 1.312500000000000e+01	 9.999688061538468e+00
0	 4.499999999999999e+01	 1.375000000000000e+01	 9.999727040000002e+00
0	 4.499999999999999e+01	 1.437500000000000e+01	 9.999767643076920e+00
0	 4.499999999999999e+01	 1.500000000000000e+01	 9.999809870769232e+00
0	 4.500000000000000e+01	 1.562500000000000e+01	 9.999853723076921e+00
0	 4.499999999999999e+01	 1.625000000000000e+01	 9.999899200000002e+00
0	 4.499999999999999e+01	 1.687500000000001e+01	 9.999946301538461e+00
0	 4.500000000000001e+01	 1.750000000000001e+01	 9.999995027692307e+00
0	 4.500000000000000e+01	 1.812500000000001e+01	 1.000004537846154e+01
0	 4.499999999999999e+01	 1.875000000000000e+01	 1.000009735384615e+01
0	 4.562500000000000e+01	 1.250000000000000e+01	 9.999491523076928e+00
0	 4.562499999999999e+01	 1.312500000000000e+01	 9.999536516923081e+00
0	 4.562499999999999e+01	 1.375000000000000e+01	 9.999582886153844e+00
0	 4.562500000000000e+01	 1.437500000000000e+01	 9.999630630769230e+00
0	 4.562500000000000e+01	 1.500000000000000e+01	 9.999679750769229e+00
0	 4.562499999999999e+01	 1.562500000000000e+01	 9.999730246153845e+00
0	 4.562499999999999e+01	 1.625000000000000e+01	 9.999782116923074e+00
0	 4.562500000000000e+01	 1.687500000000001e+01	 9.999835363076922e+00
0	 4.562499999999999e+01	 1.750000000000000e+01	 9.999889984615379e+00
0	 4.562500000000000e+01	 1.812500000000000e+01	 9.999945981538456e+00
0	 4.562500000000000e+01	 1.875000000000000e+01	 1.000000335384615e+01
0	 4.624999999999999e+01	 1.250000000000000e+01	 9.999337723076923e+00
0	 4.624999999999999e+01	 1.312500000000000e+01	 9.999389947692309e+00
0	 4.624999999999999e+01	 1.375000000000000e+01	 9.999443298461545e+00
0	 4.624999999999999e+01	 1.437500000000000e+01	 9.999497775384615e+00
0	 4.624999999999999e+01	 1.500000000000000e+01	 9.999553378461538e+00
0	 4.624999999999999e+01	 1.562500000000001e+01	 9.999610107692304e+00
0	 4.624999999999999e+01	 1.625000000000000e+01	 9.999667963076920e+00
0	 4.624999999999999e+01	 1.687500000000000e+01	 9.999726944615382e+00
0	 4.625000000000000e+01	 1.750000000000000e+01	 9.999787052307695e+00
0	 4.624999999999999e+01	 1.812500000000000e+01	 9.999848286153840e+00
0	 4.624999999999999e+01	 1.875000000000000e+01	 9.999910646153849e+00
0	 4.687499999999999e+01	 1.250000000000000e+01	 9.999189307692310e+00
0	 4.687499999999999e+01	 1.312500000000000e+01	 9.999248353846150e+00
0	 4.687499999999999e+01	 1.375000000000000e+01	 9.999308276923079e+00
0	 4.687500000000000e+01	 1.437500000000000e+01	 9.999369076923076e+00
0	 4.687499999999999e+01	 1.500000000000000e+01	 9.999430753846154e+00
0	 4.687499999999999e+01	 1.562500000000000e+01	 9.999493307692305e+00
0	 4.687499999999999e+01	 1.625000000000000e+01	 9.999556738461534e+00
0	 4.687499999999999e+01	 1.687500000000000e+01	 9.999621046153843e+00
0	 4.687499999999999e+01	 1.750000000000000e+01	 9.999686230769223e+00
0	 4.687499999999999e+01	 1.812500000000001e+01	 9.999752292307688e+00
0	 4.687499999999999e+01	 1.875000000000000e+01	 9.999819230769230e+00
0	 4.749999999999999e+01	 1.250000000000000e+01	 9.999046276923076e+00
0	 4.749999999999999e+01	 1.312500000000000e+01	 9.999111735384613e+00
0	 4.749999999999999e+01	 1.375000000000000e+01	 9.999177821538460e+00
0	 4.749999999999999e+01	 1.437500000000000e+01	 9.999244535384609e+00
0	 4.749999999999998e+01	 1.500000000000000e+01	 9.999311876923075e+00
0	 4.749999999999999e+01	 1.562500000000000e+01	 9.999379846153843e+00
0	 4.749999999999999e+01	 1.625000000000001e+01	 9.999448443076917e+00
0	 4.749999999999999e+01	 1.687500000000001e+01	 9.999517667692306e+00
0	 4.749999999999999e+01	 1.750000000000000e+01	 9.999587520000002e+00
0	 4.749999999999999e+01	 1.812500000000001e+01	 9.999658000000004e+00
0	 4.749999999999999e+01	 1.875000000000000e+01	 9.999729107692302e+00
0	 4.812499999999999e+01	 1.250000000000000e+01	 9.998908630769225e+00
0	 4.812499999999999e+01	 1.312500000000000e+01	 9.998980092307686e+00
0	 4.812499999999997e+01	 1.375000000000000e+01	 9.999051932307689e+00
0	 4.812499999999999e+01	 1.437500000000001e+01	 9.999124150769225e+00
0	 4.812499999999999e+01	 1.500000000000000e+01	 9.999196747692313e+00
0	 4.812499999999999e+01	 1.562500000000000e+01	 9.999269723076917e+00
0	 4.812499999999999e+01	 1.625000000000001e+01	 9.999343076923072e+00
0	 4.812499999999999e+01	 1.687500000000000e+01	 9.999416809230762e+00
0	 4.812499999999999e+01	 1.750000000000001e+01	 9.999490919999994e+00
0	 4.812499999999999e+01	 1.812500000000000e+01	 9.999565409230765e+00
0	 4.812499999999999e+01	 1.875000000000000e+01	 9.999640276923067e+00
0	 4.874999999999999e+01	 1.250000000000000e+01	 9.998776369230768e+00
0	 4.874999999999998e+01	 1.312500000000000e+01	 9.998853424615382e+00
0	 4.874999999999998e+01	 1.375000000000000e+01	 9.998930609230769e+00
0	 4.874999999999999e+01	 1.437500000000000e+01	 9.999007923076920e+00
0	 4.874999999999999e+01	 1.500000000000000e+01	 9.999085366153842e+00
0	 4.874999999999998e+01	 1.562500000000000e+01	 9.999162938461534e+00
0	 4.874999999999998e+01	 1.625000000000000e+01	 9.999240639999998e+00
0	 4.874999999999999e+01	 1.687500000000000e+01	 9.999318470769223e+00
0	 4.874999999999999e+01	 1.750000000000001e+01	 9.999396430769227e+00
0	 4.874999999999998e+01	 1.812500000000001e+01	 9.999474519999991e+00
0	 4.874999999999999e+01	 1.875000000000000e+01	 9.999552738461535e+00
0	 4.937499999999999e+01	 1.250000000000000e+01	 9.998649492307694e+00
0	 4.937499999999999e+01	 1.312500000000000e+01	 9.998731732307691e+00
0	 4.937499999999998e+01	 1.375000000000000e+01	 9.998813852307691e+00
0	 4.937499999999999e+01	 1.437500000000000e+01	 9.998895852307689e+00
0	 4.937499999999999e+01	 1.500000000000000e+01	 9.998977732307690e+00
0	 4.937499999999999e+01	 1.562500000000000e+01	 9.999059492307692e+00
0	 4.937499999999999e+01	 1.625000000000001e+01	 9.999141132307695e+00
0	 4.937499999999998e+01	 1.687500000000000e+01	 9.999222652307683e+00
0	 4.937499999999998e+01	 1.750000000000000e+01	 9.999304052307684e+00
0	 4.937499999999998e+01	 1.812500000000001e+01	 9.999385332307689e+00
0	 4.937499999999999e+01	 1.875000000000000e+01	 9.999466492307697e+00
0	 5.000000000000000e+01	 1.250000000000000e+01	 9.998527999999997e+00
0	 5.000000000000000e+01	 1.312500000000000e+01	 9.998615015384619e+00
0	 5.000000000000000e+01	 1.375000000000000e+01	 9.998701661538455e+00
0	 5.000000000000001e+01	 1.437500000000000e+01	 9.998787938461536e+00
0	 5.000000000000001e+01	 1.500000000000000e+01	 9.998873846153842e+00
0	 5.000000000000000e+01	 1.562500000000000e+01	 9.998959384615382e+00
0	 5.000000000000000e+01	 1.625000000000000e+01	 9.999044553846154e+00
0	 5.000000000000000e+01	 1.687500000000000e+01	 9.999129353846151e+00
0	 5.000000000000000e+01	 1.750000000000000e+01	 9.999213784615382e+00
0	 5.000000000000000e+01	 1.812500000000001e+01	 9.999297846153844e+00
0	 5.000000000000000e+01	 1.875000000000000e+01	 9.999381538461535e+00
0	 4.375000000000000e+01	 1.875000000000000e+01	 1.000028923076923e+01
0	 4.375000000000000e+01	 1.937500000000000e+01	 1.000031299999999e+01
0	 4.375000000000000e+01	 2.000000000000000e+01	 1.000033630769231e+01
0	 4.375000000000000e+01	 2.062500000000000e+01	 1.000035915384616e+01
0	 4.375000000000000e+01	 2.125000000000000e+01	 1.000038153846154e+01
0	 4.375000000000000e+01	 2.187500000000000e+01	 1.000040346153846e+01
0	 4.375000000000000e+01	 2.250000000000000e+01	 1.000042492307692e+01
0	 4.375000000000000e+01	 2.312500000000001e+01	 1.000044592307693e+01
0	 4.375000000000001e+01	 2.375000000000001e+01	 1.000046646153846e+01
0	 4.375000000000000e+01	 2.437500000000001e+01	 1.000048653846153e+01
0	 4.375000000000000e+01	 2.500000000000000e+01	 1.000050615384615e+01
0	 4.437500000000000e+01	 1.875000000000000e+01	 1.000019264615384e+01
0	 4.437500000000000e+01	 1.937500000000000e+01	 1.000021478307692e+01
0	 4.437499999999999e+01	 2.000000000000000e+01	 1.000023667076923e+01
0	 4.437500000000000e+01	 2.062500000000000e+01	 1.000025830923077e+01
0	 4.437499999999999e+01	 2.125000000000000e+01	 1.000027969846154e+01
0	 4.437500000000001e+01	 2.187500000000000e+01	 1.000030083846153e+01
0	 4.437499999999999e+01	 2.250000000000000e+01	 1.000032172923076e+01
0	 4.437500000000001e+01	 2.312500000000001e+01	 1.000034237076923e+01
0	 4.437500000000000e+01	 2.375000000000001e+01	 1.000036276307692e+01
0	 4.437500000000000e+01	 2.437500000000001e+01	 1.000038290615385e+01
0	 4.437500000000000e+01	 2.500000000000000e+01	 1.000040280000000e+01
0	 4.499999999999999e+01	 1.875000000000000e+01	 1.000009735384615e+01
0	 4.499999999999999e+01	 1.937500000000000e+01	 1.000011893538462e+01
0	 4.499999999999999e+01	 2.000000000000000e+01	 1.000014048000000e+01
0	 4.499999999999999e+01	 2.062500000000000e+01	 1.000016198769231e+01
0	 4.499999999999999e+01	 2.125000000000000e+01	 1.000018345846154e+01
0	 4.500000000000000e+01	 2.187500000000001e+01	 1.000020489230769e+01
0	 4.499999999999999e+01	 2.250000000000000e+01	 1.000022628923076e+01
0	 4.499999999999999e+01	 2.312500000000001e+01	 1.000024764923077e+01
0	 4.500000000000001e+01	 2.375000000000001e+01	 1.000026897230769e+01
0	 4.500000000000000e+01	 2.437500000000001e+01	 1.000029025846153e+01
0	 4.499999999999999e+01	 2.500000000000000e+01	 1.000031150769231e+01
0	 4.562500000000000e+01	 1.875000000000000e+01	 1.000000335384615e+01
0	 4.562499999999999e+01	 1.937500000000000e+01	 1.000002545692307e+01
0	 4.562499999999999e+01	 2.000000000000000e+01	 1.000004773538461e+01
0	 4.562500000000000e+01	 2.062500000000000e+01	 1.000007018923077e+01
0	 4.562500000000000e+01	 2.125000000000000e+01	 1.000009281846153e+01
0	 4.562499999999999e+01	 2.187500000000000e+01	 1.000011562307693e+01
0	 4.562499999999999e+01	 2.250000000000000e+01	 1.000013860307692e+01
0	 4.562500000000000e+01	 2.312500000000001e+01	 1.000016175846154e+01
0	 4.562499999999999e+01	 2.375000000000000e+01	 1.000018508923077e+01
0	 4.562500000000000e+01	 2.437500000000001e+01	 1.000020859538462e+01
0	 4.562500000000000e+01	 2.500000000000000e+01	 1.000023227692308e+01
0	 4.624999999999999e+01	 1.875000000000000e+01	 9.999910646153849e+00
0	 4.624999999999999e+01	 1.937500000000000e+01	 9.999934347692303e+00
0	 4.624999999999999e+01	 2.000000000000000e+01	 9.999958436923080e+00
0	 4.624999999999999e+01	 2.062500000000000e+01	 9.999982913846155e+00
0	 4.624999999999999e+01	 2.125000000000000e+01	 1.000000777846154e+01
0	 4.624999999999999e+01	 2.187500000000000e+01	 1.000003303076923e+01
0	 4.624999999999999e+01	 2.250000000000000e+01	 1.000005867076923e+01
0	 4.624999999999999e+01	 2.312500000000000e+01	 1.000008469846154e+01
0	 4.625000000000000e+01	 2.375000000000000e+01	 1.000011111384615e+01
0	 4.624999999999999e+01	 2.437500000000000e+01	 1.000013791692307e+01
0	 4.624999999999999e+01	 2.500000000000000e+01	 1.000016510769231e+01
0	 4.687499999999999e+01	 1.875000000000000e+01	 9.999819230769230e+00
0	 4.687499999999999e+01	 1.937500000000000e+01	 9.999845607692306e+00
0	 4.687499999999999e+01	 2.000000000000000e+01	 9.999872584615382e+00
0	 4.687500000000000e+01	 2.062500000000000e+01	 9.999900161538465e+00
0	 4.687499999999999e+01	 2.125000000000000e+01	 9.999928338461533e+00
0	 4.687499999999999e+01	 2.187500000000001e+01	 9.999957115384621e+00
0	 4.687499999999999e+01	 2.250000000000000e+01	 9.999986492307691e+00
0	 4.687499999999999e+01	 2.312500000000000e+01	 1.000001646923077e+01
0	 4.687499999999999e+01	 2.375000000000001e+01	 1.000004704615384e+01
0	 4.687499999999999e+01	 2.437500000000001e+01	 1.000007822307693e+01
0	 4.687499999999999e+01	 2.500000000000000e+01	 1.000011000000001e+01
0	 4.749999999999999e+01	 1.875000000000000e+01	 9.999729107692302e+00
0	 4.749999999999999e+01	 1.937500000000000e+01	 9.999759236923069e+00
0	 4.749999999999999e+01	 2.000000000000000e+01	 9.999790178461538e+00
0	 4.749999999999999e+01	 2.062500000000000e+01	 9.999821932307684e+00
0	 4.749999999999998e+01	 2.125000000000000e+01	 9.999854498461536e+00
0	 4.749999999999999e+01	 2.187500000000000e+01	 9.999887876923077e+00
0	 4.749999999999999e+01	 2.250000000000000e+01	 9.999922067692307e+00
0	 4.749999999999999e+01	 2.312500000000001e+01	 9.999957070769234e+00
0	 4.749999999999999e+01	 2.375000000000001e+01	 9.999992886153850e+00
0	 4.749999999999999e+01	 2.437500000000001e+01	 1.000002951384617e+01
0	 4.749999999999999e+01	 2.500000000000000e+01	 1.000006695384616e+01
0	 4.812499999999999e+01	 1.875000000000000e+01	 9.999640276923067e+00
0	 4.812499999999999e+01	 1.937500000000001e+01	 9.999675235384611e+00
0	 4.812499999999997e+01	 2.000000000000000e+01	 9.999711218461538e+00
0	 4.812499999999999e+01	 2.062500000000001e+01	 9.999748226153839e+00
0	 4.812499999999999e+01	 2.125000000000000e+01	 9.999786258461544e+00
0	 4.812499999999999e+01	 2.187500000000000e+01	 9.999825315384616e+00
0	 4.812499999999999e+01	 2.250000000000000e+01	 9.999865396923077e+00
0	 4.812499999999999e+01	 2.312500000000000e+01	 9.999906503076925e+00
0	 4.812499999999999e+01	 2.375000000000000e+01	 9.999948633846161e+00
0	 4.812499999999999e+01	 2.437500000000001e+01	 9.999991789230773e+00
0	 4.812499999999999e+01	 2.500000000000000e+01	 1.000003596923077e+01
0	 4.874999999999999e+01	 1.875000000000000e+01	 9.999552738461535e+00
0	 4.874999999999998e+01	 1.937500000000000e+01	 9.999593603076919e+00
0	 4.874999999999998e+01	 2.000000000000000e+01	 9.999635704615383e+00
0	 4.874999999999999e+01	 2.062500000000000e+01	 9.999679043076927e+00
0	 4.874999999999999e+01	 2.125000000000000e+01	 9.999723618461545e+00
0	 4.874999999999998e+01	 2.187500000000000e+01	 9.999769430769234e+00
0	 4.874999999999998e+01	 2.250000000000000e+01	 9.999816480000002e+00
0	 4.874999999999999e+01	 2.312500000000000e+01	 9.999864766153841e+00
0	 4.874999999999999e+01	 2.375000000000001e+01	 9.999914289230770e+00
0	 4.874999999999998e+01	 2.437500000000000e+01	 9.999965049230768e+00
0	 4.874999999999999e+01	 2.500000000000000e+01	 1.000001704615385e+01
0	 4.937499999999999e+01	 1.875000000000000e+01	 9.999466492307697e+00
0	 4.937499999999999e+01	 1.937500000000000e+01	 9.999514339999994e+00
0	 4.937499999999998e+01	 2.000000000000000e+01	 9.999563636923082e+00
0	 4.937499999999999e+01	 2.062500000000000e+01	 9.999614383076914e+00
0	 4.937499999999999e+01	 2.125000000000000e+01	 9.999666578461536e+00
0	 4.937499999999999e+01	 2.187500000000000e+01	 9.999720223076928e+00
0	 4.937499999999999e+01	 2.250000000000001e+01	 9.999775316923090e+00
0	 4.937499999999998e+01	 2.312500000000001e+01	 9.999831860000004e+00
0	 4.937499999999998e+01	 2.375000000000000e+01	 9.999889852307700e+00
0	 4.937499999999998e+01	 2.437500000000001e+01	 9.999949293846152e+00
0	 4.937499999999999e+01	 2.500000000000000e+01	 1.000001018461539e+01
0	 5.000000000000000e+01	 1.875000000000000e+01	 9.999381538461535e+00
0	 5.000000000000000e+01	 1.937500000000000e+01	 9.999437446153845e+00
0	 5.000000000000000e+01	 2.000000000000000e+01	 9.999495015384610e+00
0	 5.000000000000001e+01	 2.062500000000001e+01	 9.999554246153847e+00
0	 5.000000000000001e+01	 2.125000000000000e+01	 9.999615138461536e+00
0	 5.000000000000000e+01	 2.187500000000000e+01	 9.999677692307698e+00
0	 5.000000000000000e+01	 2.250000000000000e+01	 9.999741907692311e+00
0	 5.000000000000000e+01	 2.312500000000001e+01	 9.999807784615388e+00
0	 5.000000000000000e+01	 2.375000000000001e+01	 9.999875323076930e+00
0	 5.000000000000000e+01	 2.437500000000001e+01	 9.999944523076927e+00
0	 5.000000000000000e+01	 2.500000000000000e+01	 1.000001538461539e+01
0	 4.375000000000000e+01	 2.500000000000000e+01	 1.000050615384615e+01
0	 4.375000000000000e+01	 2.562500000000000e+01	 1.000048867692308e+01
0	 4.375000000000001e+01	 2.625000000000000e+01	 1.000047286153846e+01
0	 4.375000000000000e+01	 2.687499999999999e+01	 1.000045870769231e+01
0	 4.375000000000000e+01	 2.749999999999999e+01	 1.000044621538462e+01
0	 4.375000000000000e+01	 2.812499999999999e+01	 1.000043538461539e+01
0	 4.375000000000000e+01	 2.874999999999999e+01	 1.000042621538461e+01
0	 4.375000000000000e+01	 2.937499999999999e+01	 1.000041870769231e+01
0	 4.375000000000000e+01	 2.999999999999998e+01	 1.000041286153846e+01
0	 4.375000000000000e+01	 3.062499999999998e+01	 1.000040867692308e+01
0	 4.375000000000000e+01	 3.125000000000000e+01	 1.000040615384615e+01
0	 4.437500000000000e+01	 2.500000000000000e+01	 1.000040280000000e+01
0	 4.437500000000000e+01	 2.562500000000000e+01	 1.000039214000000e+01
0	 4.437500000000000e+01	 2.625000000000000e+01	 1.000038297538462e+01
0	 4.437500000000001e+01	 2.687500000000000e+01	 1.000037530615385e+01
0	 4.437499999999999e+01	 2.749999999999999e+01	 1.000036913230769e+01
0	 4.437500000000000e+01	 2.812499999999999e+01	 1.000036445384615e+01
0	 4.437499999999999e+01	 2.874999999999999e+01	 1.000036127076923e+01
0	 4.437500000000000e+01	 2.937499999999999e+01	 1.000035958307691e+01
0	 4.437500000000000e+01	 2.999999999999999e+01	 1.000035939076924e+01
0	 4.437500000000000e+01	 3.062499999999998e+01	 1.000036069384615e+01
0	 4.437500000000000e+01	 3.125000000000000e+01	 1.000036349230770e+01
0	 4.499999999999999e+01	 2.500000000000000e+01	 1.000031150769231e+01
0	 4.499999999999999e+01	 2.562500000000000e+01	 1.000030669538462e+01
0	 4.500000000000000e+01	 2.625000000000000e+01	 1.000030321230769e+01
0	 4.499999999999999e+01	 2.687500000000000e+01	 1.000030105846154e+01
0	 4.499999999999999e+01	 2.749999999999999e+01	 1.000030023384616e+01
0	 4.500000000000000e+01	 2.812499999999999e+01	 1.000030073846154e+01
0	 4.500000000000000e+01	 2.874999999999999e+01	 1.000030257230770e+01
0	 4.500000000000000e+01	 2.937499999999998e+01	 1.000030573538461e+01
0	 4.500000000000000e+01	 2.999999999999999e+01	 1.000031022769231e+01
0	 4.500000000000000e+01	 3.062499999999998e+01	 1.000031604923076e+01
0	 4.499999999999999e+01	 3.125000000000000e+01	 1.000032319999999e+01
0	 4.562500000000000e+01	 2.500000000000000e+01	 1.000023227692308e+01
0	 4.562500000000000e+01	 2.562500000000000e+01	 1.000023234307693e+01
0	 4.562499999999999e+01	 2.624999999999999e+01	 1.000023357230769e+01
0	 4.562499999999999e+01	 2.687499999999999e+01	 1.000023596461538e+01
0	 4.562499999999999e+01	 2.749999999999999e+01	 1.000023952000000e+01
0	 4.562500000000000e+01	 2.812499999999999e+01	 1.000024423846154e+01
0	 4.562499999999999e+01	 2.874999999999999e+01	 1.000025012000000e+01
0	 4.562499999999999e+01	 2.937499999999999e+01	 1.000025716461538e+01
0	 4.562499999999999e+01	 2.999999999999998e+01	 1.000026537230769e+01
0	 4.562499999999999e+01	 3.062499999999998e+01	 1.000027474307691e+01
0	 4.562500000000000e+01	 3.125000000000000e+01	 1.000028527692307e+01
0	 4.624999999999999e+01	 2.500000000000000e+01	 1.000016510769231e+01
0	 4.624999999999999e+01	 2.562499999999999e+01	 1.000016908307692e+01
0	 4.624999999999999e+01	 2.625000000000000e+01	 1.000017405538462e+01
0	 4.625000000000000e+01	 2.687499999999999e+01	 1.000018002461539e+01
0	 4.625000000000000e+01	 2.749999999999999e+01	 1.000018699076923e+01
0	 4.624999999999999e+01	 2.812499999999998e+01	 1.000019495384615e+01
0	 4.624999999999999e+01	 2.874999999999999e+01	 1.000020391384616e+01
0	 4.624999999999999e+01	 2.937499999999999e+01	 1.000021387076922e+01
0	 4.624999999999999e+01	 2.999999999999999e+01	 1.000022482461537e+01
0	 4.624999999999999e+01	 3.062499999999999e+01	 1.000023677538461e+01
0	 4.624999999999999e+01	 3.125000000000000e+01	 1.000024972307692e+01
0	 4.687499999999999e+01	 2.500000000000000e+01	 1.000011000000001e+01
0	 4.687499999999999e+01	 2.562500000000000e+01	 1.000011691538461e+01
0	 4.687499999999999e+01	 2.624999999999999e+01	 1.000012466153847e+01
0	 4.687499999999999e+01	 2.687499999999999e+01	 1.000013323846154e+01
0	 4.687499999999998e+01	 2.749999999999998e+01	 1.000014264615384e+01
0	 4.687499999999999e+01	 2.812499999999999e+01	 1.000015288461539e+01
0	 4.687500000000000e+01	 2.874999999999999e+01	 1.000016395384615e+01
0	 4.687499999999999e+01	 2.937499999999999e+01	 1.000017585384614e+01
0	 4.687499999999999e+01	 2.999999999999998e+01	 1.000018858461538e+01
0	 4.687499999999998e+01	 3.062499999999998e+01	 1.000020214615384e+01
0	 4.687499999999999e+01	 3.125000000000000e+01	 1.000021653846153e+01
0	 4.749999999999999e+01	 2.500000000000000e+01	 1.000006695384616e+01
0	 4.749999999999998e+01	 2.562500000000000e+01	 1.000007584000000e+01
0	 4.749999999999997e+01	 2.624999999999999e+01	 1.000008539076923e+01
0	 4.749999999999999e+01	 2.687499999999999e+01	 1.000009560615385e+01
0	 4.749999999999999e+01	 2.749999999999999e+01	 1.000010648615384e+01
0	 4.749999999999999e+01	 2.812499999999999e+01	 1.000011803076923e+01
0	 4.749999999999999e+01	 2.874999999999998e+01	 1.000013024000000e+01
0	 4.749999999999999e+01	 2.937499999999999e+01	 1.000014311384615e+01
0	 4.749999999999999e+01	 2.999999999999998e+01	 1.000015665230769e+01
0	 4.749999999999999e+01	 3.062499999999998e+01	 1.000017085538460e+01
0	 4.749999999999999e+01	 3.125000000000000e+01	 1.000018572307692e+01
0	 4.812499999999999e+01	 2.500000000000000e+01	 1.000003596923077e+01
0	 4.812499999999998e+01	 2.562499999999999e+01	 1.000004585692307e+01
0	 4.812499999999999e+01	 2.625000000000000e+01	 1.000005624307692e+01
0	 4.812499999999998e+01	 2.687499999999999e+01	 1.000006712769231e+01
0	 4.812499999999997e+01	 2.749999999999999e+01	 1.000007851076923e+01
0	 4.812499999999999e+01	 2.812499999999999e+01	 1.000009039230768e+01
0	 4.812499999999999e+01	 2.874999999999999e+01	 1.000010277230769e+01
0	 4.812499999999999e+01	 2.937499999999998e+01	 1.000011565076923e+01
0	 4.812499999999997e+01	 2.999999999999998e+01	 1.000012902769230e+01
0	 4.812499999999999e+01	 3.062499999999998e+01	 1.000014290307691e+01
0	 4.812499999999999e+01	 3.125000000000000e+01	 1.000015727692306e+01
0	 4.874999999999999e+01	 2.500000000000000e+01	 1.000001704615385e+01
0	 4.874999999999998e+01	 2.562500000000000e+01	 1.000002696615385e+01
0	 4.874999999999999e+01	 2.625000000000000e+01	 1.000003721846154e+01
0	 4.874999999999998e+01	 2.687499999999999e+01	 1.000004780307693e+01
0	 4.874999999999999e+01	 2.749999999999999e+01	 1.000005872000000e+01
0	 4.874999999999997e+01	 2.812499999999998e+01	 1.000006996923077e+01
0	 4.874999999999999e+01	 2.874999999999999e+01	 1.000008155076923e+01
0	 4.874999999999998e+01	 2.937499999999998e+01	 1.000009346461538e+01
0	 4.874999999999998e+01	 2.999999999999998e+01	 1.000010571076924e+01
0	 4.874999999999998e+01	 3.062499999999998e+01	 1.000011828923076e+01
0	 4.874999999999999e+01	 3.125000000000000e+01	 1.000013119999999e+01
0	 4.937499999999999e+01	 2.500000000000000e+01	 1.000001018461539e+01
0	 4.937499999999999e+01	 2.562500000000000e+01	 1.000001916769231e+01
0	 4.937499999999999e+01	 2.624999999999999e+01	 1.000002831692307e+01
0	 4.937499999999998e+01	 2.687499999999999e+01	 1.000003763230769e+01
0	 4.937499999999999e+01	 2.750000000000000e+01	 1.000004711384615e+01
0	 4.937499999999999e+01	 2.812499999999999e+01	 1.000005676153846e+01
0	 4.937499999999999e+01	 2.874999999999999e+01	 1.000006657538461e+01
0	 4.937499999999998e+01	 2.937499999999999e+01	 1.000007655538462e+01
0	 4.937499999999999e+01	 2.999999999999999e+01	 1.000008670153845e+01
0	 4.937499999999998e+01	 3.062499999999998e+01	 1.000009701384615e+01
0	 4.937499999999999e+01	 3.125000000000000e+01	 1.000010749230768e+01
0	 5.000000000000000e+01	 2.500000000000000e+01	 1.000001538461539e+01
0	 5.000000000000000e+01	 2.562500000000000e+01	 1.000002246153846e+01
0	 5.000000000000000e+01	 2.625000000000000e+01	 1.000002953846153e+01
0	 5.000000000000000e+01	 2.687499999999999e+01	 1.000003661538461e+01
0	 5.000000000000000e+01	 2.749999999999999e+01	 1.000004369230770e+01
0	 5.000000000000000e+01	 2.812499999999999e+01	 1.000005076923077e+01
0	 5.000000000000000e+01	 2.874999999999999e+01	 1.000005784615385e+01
0	 5.000000000000001e+01	 2.937499999999999e+01	 1.000006492307691e+01
0	 5.000000000000000e+01	 2.999999999999998e+01	 1.000007199999999e+01
0	 5.000000000000000e+01	 3.062499999999998e+01	 1.000007907692307e+01
0	 5.000000000000000e+01	 3.125000000000000e+01	 1.000008615384614e+01
0	 4.375000000000000e+01	 3.125000000000000e+01	 1.000040615384615e+01
0	 4.375000000000000e+01	 3.187500000000000e+01	 1.000039140000001e+01
0	 4.375000000000001e+01	 3.250000000000001e+01	 1.000037636923076e+01
0	 4.375000000000000e+01	 3.312499999999999e+01	 1.000036106153846e+01
0	 4.375000000000000e+01	 3.374999999999999e+01	 1.000034547692307e+01
0	 4.375000000000000e+01	 3.437499999999999e+01	 1.000032961538461e+01
0	 4.375000000000000e+01	 3.499999999999999e+01	 1.000031347692308e+01
0	 4.375000000000000e+01	 3.562499999999999e+01	 1.000029706153846e+01
0	 4.375000000000000e+01	 3.624999999999998e+01	 1.000028036923077e+01
0	 4.375000000000000e+01	 3.687499999999998e+01	 1.000026340000000e+01
0	 4.375000000000000e+01	 3.750000000000000e+01	 1.000024615384616e+01
0	 4.437500000000000e+01	 3.125000000000000e+01	 1.000036349230770e+01
0	 4.437500000000000e+01	 3.187500000000000e+01	 1.000034972000000e+01
0	 4.437500000000000e+01	 3.249999999999999e+01	 1.000033577230769e+01
0	 4.437500000000001e+01	 3.312499999999999e+01	 1.000032164923076e+01
0	 4.437499999999999e+01	 3.374999999999999e+01	 1.000030735076923e+01
0	 4.437500000000000e+01	 3.437499999999999e+01	 1.000029287692308e+01
0	 4.437499999999999e+01	 3.499999999999999e+01	 1.000027822769231e+01
0	 4.437500000000000e+01	 3.562499999999999e+01	 1.000026340307693e+01
0	 4.437500000000000e+01	 3.624999999999999e+01	 1.000024840307693e+01
0	 4.437500000000000e+01	 3.687499999999998e+01	 1.000023322769231e+01
0	 4.437500000000000e+01	 3.750000000000000e+01	 1.000021787692308e+01
0	 4.499999999999999e+01	 3.125000000000000e+01	 1.000032319999999e+01
0	 4.499999999999999e+01	 3.187500000000000e+01	 1.000031030153846e+01
0	 4.500000000000000e+01	 3.250000000000000e+01	 1.000029732923077e+01
0	 4.499999999999999e+01	 3.312500000000000e+01	 1.000028428307693e+01
0	 4.499999999999999e+01	 3.374999999999999e+01	 1.000027116307692e+01
0	 4.500000000000000e+01	 3.437499999999999e+01	 1.000025796923076e+01
0	 4.500000000000000e+01	 3.499999999999999e+01	 1.000024470153846e+01
0	 4.500000000000000e+01	 3.562499999999998e+01	 1.000023136000000e+01
0	 4.500000000000000e+01	 3.624999999999999e+01	 1.000021794461539e+01
0	 4.500000000000000e+01	 3.687499999999999e+01	 1.000020445538462e+01
0	 4.499999999999999e+01	 3.749999999999999e+01	 1.000019089230770e+01
0	 4.562500000000000e+01	 3.125000000000000e+01	 1.000028527692307e+01
0	 4.562500000000000e+01	 3.187500000000000e+01	 1.000027314461538e+01
0	 4.562499999999999e+01	 3.249999999999999e+01	 1.000026104000000e+01
0	 4.562499999999999e+01	 3.312499999999999e+01	 1.000024896307692e+01
0	 4.562499999999999e+01	 3.375000000000000e+01	 1.000023691384615e+01
0	 4.562500000000000e+01	 3.437499999999999e+01	 1.000022489230770e+01
0	 4.562499999999999e+01	 3.499999999999999e+01	 1.000021289846155e+01
0	 4.562499999999999e+01	 3.562499999999998e+01	 1.000020093230769e+01
0	 4.562499999999999e+01	 3.624999999999998e+01	 1.000018899384616e+01
0	 4.562499999999999e+01	 3.687499999999998e+01	 1.000017708307693e+01
0	 4.562500000000000e+01	 3.749999999999999e+01	 1.000016520000000e+01
0	 4.624999999999999e+01	 3.125000000000000e+01	 1.000024972307692e+01
0	 4.624999999999999e+01	 3.187499999999999e+01	 1.000023824923076e+01
0	 4.624999999999999e+01	 3.249999999999999e+01	 1.000022690461538e+01
0	 4.625000000000000e+01	 3.312500000000000e+01	 1.000021568923077e+01
0	 4.625000000000000e+01	 3.374999999999999e+01	 1.000020460307692e+01
0	 4.624999999999999e+01	 3.437499999999999e+01	 1.000019364615385e+01
0	 4.624999999999999e+01	 3.499999999999999e+01	 1.000018281846153e+01
0	 4.624999999999999e+01	 3.562499999999999e+01	 1.000017212000000e+01
0	 4.624999999999999e+01	 3.624999999999998e+01	 1.000016155076923e+01
0	 4.624999999999999e+01	 3.687499999999999e+01	 1.000015111076923e+01
0	 4.624999999999999e+01	 3.750000000000001e+01	 1.000014080000000e+01
0	 4.687499999999999e+01	 3.125000000000000e+01	 1.000021653846153e+01
0	 4.687499999999999e+01	 3.187500000000000e+01	 1.000020561538462e+01
0	 4.687499999999999e+01	 3.250000000000000e+01	 1.000019492307692e+01
0	 4.687499999999999e+01	 3.312499999999999e+01	 1.000018446153846e+01
0	 4.687499999999998e+01	 3.374999999999998e+01	 1.000017423076923e+01
0	 4.687499999999999e+01	 3.437499999999999e+01	 1.000016423076923e+01
0	 4.687500000000000e+01	 3.499999999999999e+01	 1.000015446153846e+01
0	 4.687499999999999e+01	 3.562499999999999e+01	 1.000014492307693e+01
0	 4.687499999999999e+01	 3.624999999999999e+01	 1.000013561538462e+01
0	 4.687499999999998e+01	 3.687499999999999e+01	 1.000012653846154e+01
0	 4.687499999999999e+01	 3.750000000000000e+01	 1.000011769230770e+01
0	 4.749999999999999e+01	 3.125000000000000e+01	 1.000018572307692e+01
0	 4.749999999999998e+01	 3.187500000000000e+01	 1.000017524307692e+01
0	 4.749999999999997e+01	 3.249999999999999e+01	 1.000016509538461e+01
0	 4.749999999999999e+01	 3.312499999999999e+01	 1.000015528000000e+01
0	 4.749999999999999e+01	 3.374999999999999e+01	 1.000014579692307e+01
0	 4.749999999999999e+01	 3.437499999999999e+01	 1.000013664615385e+01
0	 4.749999999999999e+01	 3.499999999999999e+01	 1.000012782769231e+01
0	 4.749999999999999e+01	 3.562499999999999e+01	 1.000011934153846e+01
0	 4.749999999999999e+01	 3.624999999999999e+01	 1.000011118769231e+01
0	 4.749999999999999e+01	 3.687499999999998e+01	 1.000010336615385e+01
0	 4.749999999999999e+01	 3.750000000000001e+01	 1.000009587692308e+01
0	 4.812499999999999e+01	 3.125000000000000e+01	 1.000015727692306e+01
0	 4.812499999999998e+01	 3.187500000000000e+01	 1.000014713230768e+01
0	 4.812499999999999e+01	 3.250000000000000e+01	 1.000013742153846e+01
0	 4.812499999999998e+01	 3.312499999999999e+01	 1.000012814461538e+01
0	 4.812499999999997e+01	 3.374999999999999e+01	 1.000011930153846e+01
0	 4.812499999999999e+01	 3.437499999999999e+01	 1.000011089230769e+01
0	 4.812499999999999e+01	 3.499999999999999e+01	 1.000010291692307e+01
0	 4.812499999999999e+01	 3.562499999999999e+01	 1.000009537538463e+01
0	 4.812499999999997e+01	 3.624999999999998e+01	 1.000008826769231e+01
0	 4.812499999999999e+01	 3.687499999999998e+01	 1.000008159384616e+01
0	 4.812499999999999e+01	 3.750000000000000e+01	 1.000007535384615e+01
0	 4.874999999999999e+01	 3.125000000000000e+01	 1.000013119999999e+01
0	 4.874999999999998e+01	 3.187500000000000e+01	 1.000012128307691e+01
0	 4.874999999999999e+01	 3.250000000000001e+01	 1.000011190153846e+01
0	 4.874999999999998e+01	 3.312499999999999e+01	 1.000010305538462e+01
0	 4.874999999999999e+01	 3.375000000000000e+01	 1.000009474461538e+01
0	 4.874999999999997e+01	 3.437499999999998e+01	 1.000008696923076e+01
0	 4.874999999999999e+01	 3.499999999999999e+01	 1.000007972923077e+01
0	 4.874999999999998e+01	 3.562499999999999e+01	 1.000007302461538e+01
0	 4.874999999999998e+01	 3.624999999999998e+01	 1.000006685538462e+01
0	 4.874999999999998e+01	 3.687499999999998e+01	 1.000006122153847e+01
0	 4.874999999999999e+01	 3.750000000000000e+01	 1.000005612307693e+01
0	 4.937499999999999e+01	 3.125000000000000e+01	 1.000010749230768e+01
0	 4.937499999999999e+01	 3.187500000000000e+01	 1.000009769538461e+01
0	 4.937499999999999e+01	 3.249999999999999e+01	 1.000008853538459e+01
0	 4.937499999999998e+01	 3.312499999999999e+01	 1.000008001230769e+01
0	 4.937499999999999e+01	 3.374999999999999e+01	 1.000007212615384e+01
0	 4.937499999999999e+01	 3.437499999999999e+01	 1.000006487692308e+01
0	 4.937499999999999e+01	 3.499999999999999e+01	 1.000005826461538e+01
0	 4.937499999999998e+01	 3.562499999999999e+01	 1.000005228923078e+01
0	 4.937499999999999e+01	 3.624999999999999e+01	 1.000004695076924e+01
0	 4.937499999999998e+01	 3.687499999999999e+01	 1.000004224923077e+01
0	 4.937499999999999e+01	 3.750000000000000e+01	 1.000003818461541e+01
0	 5.000000000000000e+01	 3.125000000000000e+01	 1.000008615384614e+01
0	 5.000000000000000e+01	 3.187500000000000e+01	 1.000007636923077e+01
0	 5.000000000000000e+01	 3.249999999999999e+01	 1.000006732307691e+01
0	 5.000000000000000e+01	 3.312499999999999e+01	 1.000005901538461e+01
0	 5.000000000000000e+01	 3.374999999999999e+01	 1.000005144615384e+01
0	 5.000000000000000e+01	 3.437499999999999e+01	 1.000004461538461e+01
0	 5.000000000000000e+01	 3.499999999999999e+01	 1.000003852307692e+01
0	 5.000000000000001e+01	 3.562499999999999e+01	 1.000003316923076e+01
0	 5.000000000000000e+01	 3.624999999999998e+01	 1.000002855384615e+01
0	 5.000000000000000e+01	 3.687499999999998e+01	 1.000002467692308e+01
0	 5.000000000000000e+01	 3.750000000000000e+01	 1.000002153846154e+01
0	 4.375000000000000e+01	 3.750000000000000e+01	 1.000024615384616e+01
0	 4.375000000000000e+01	 3.812500000000000e+01	 1.000022863076923e+01
0	 4.375000000000001e+01	 3.875000000000001e+01	 1.000021083076924e+01
0	 4.375000000000000e+01	 3.937499999999999e+01	 1.000019275384615e+01
0	 4.375000000000000e+01	 3.999999999999999e+01	 1.000017440000001e+01
0	 4.375000000000000e+01	 4.062499999999999e+01	 1.000015576923076e+01
0	 4.375000000000000e+01	 4.124999999999999e+01	 1.000013686153845e+01
0	 4.375000000000000e+01	 4.187499999999999e+01	 1.000011767692306e+01
0	 4.375000000000000e+01	 4.249999999999999e+01	 1.000009821538461e+01
0	 4.375000000000000e+01	 4.312499999999999e+01	 1.000007847692306e+01
0	 4.375000000000000e+01	 4.375000000000000e+01	 1.000005846153845e+01
0	 4.437500000000000e+01	 3.750000000000000e+01	 1.000021787692308e+01
0	 4.437500000000000e+01	 3.812499999999999e+01	 1.000020301846154e+01
0	 4.437500000000000e+01	 3.875000000000000e+01	 1.000018785538462e+01
0	 4.437500000000001e+01	 3.937500000000000e+01	 1.000017238769230e+01
0	 4.437499999999999e+01	 3.999999999999999e+01	 1.000015661538461e+01
0	 4.437500000000000e+01	 4.062499999999999e+01	 1.000014053846153e+01
0	 4.437499999999999e+01	 4.124999999999999e+01	 1.000012415692308e+01
0	 4.437500000000000e+01	 4.187499999999999e+01	 1.000010747076923e+01
0	 4.437500000000000e+01	 4.249999999999999e+01	 1.000009048000000e+01
0	 4.437500000000000e+01	 4.312499999999998e+01	 1.000007318461537e+01
0	 4.437500000000000e+01	 4.375000000000000e+01	 1.000005558461537e+01
0	 4.499999999999999e+01	 3.749999999999999e+01	 1.000019089230770e+01
0	 4.499999999999999e+01	 3.812499999999999e+01	 1.000017833230769e+01
0	 4.500000000000000e+01	 3.875000000000000e+01	 1.000016544000001e+01
0	 4.499999999999999e+01	 3.937500000000000e+01	 1.000015221538462e+01
0	 4.499999999999999e+01	 4.000000000000000e+01	 1.000013865846154e+01
0	 4.500000000000000e+01	 4.062499999999999e+01	 1.000012476923077e+01
0	 4.500000000000000e+01	 4.124999999999999e+01	 1.000011054769230e+01
0	 4.500000000000000e+01	 4.187499999999999e+01	 1.000009599384614e+01
0	 4.500000000000000e+01	 4.249999999999999e+01	 1.000008110769230e+01
0	 4.500000000000000e+01	 4.312499999999999e+01	 1.000006588923076e+01
0	 4.499999999999999e+01	 4.375000000000000e+01	 1.000005033846152e+01
0	 4.562500000000000e+01	 3.749999999999999e+01	 1.000016520000000e+01
0	 4.562500000000000e+01	 3.812500000000000e+01	 1.000015457230769e+01
0	 4.562499999999999e+01	 3.874999999999999e+01	 1.000014358461538e+01
0	 4.562499999999999e+01	 3.937499999999998e+01	 1.000013223692307e+01
0	 4.562499999999999e+01	 4.000000000000000e+01	 1.000012052923076e+01
0	 4.562500000000000e+01	 4.062499999999999e+01	 1.000010846153846e+01
0	 4.562499999999999e+01	 4.124999999999999e+01	 1.000009603384615e+01
0	 4.562499999999999e+01	 4.187499999999999e+01	 1.000008324615384e+01
0	 4.562499999999999e+01	 4.249999999999999e+01	 1.000007009846152e+01
0	 4.562499999999999e+01	 4.312499999999998e+01	 1.000005659076923e+01
0	 4.562500000000000e+01	 4.375000000000000e+01	 1.000004272307690e+01
0	 4.624999999999999e+01	 3.750000000000001e+01	 1.000014080000000e+01
0	 4.624999999999999e+01	 3.812500000000000e+01	 1.000013173846154e+01
0	 4.624999999999999e+01	 3.875000000000000e+01	 1.000012228923077e+01
0	 4.625000000000000e+01	 3.937500000000000e+01	 1.000011245230770e+01
0	 4.625000000000000e+01	 3.999999999999999e+01	 1.000010222769231e+01
0	 4.624999999999999e+01	 4.062499999999998e+01	 1.000009161538461e+01
0	 4.624999999999999e+01	 4.124999999999999e+01	 1.000008061538461e+01
0	 4.624999999999999e+01	 4.187499999999999e+01	 1.000006922769230e+01
0	 4.624999999999999e+01	 4.249999999999998e+01	 1.000005745230769e+01
0	 4.624999999999999e+01	 4.312499999999998e+01	 1.000004528923077e+01
0	 4.624999999999999e+01	 4.375000000000000e+01	 1.000003273846153e+01
0	 4.687499999999999e+01	 3.750000000000000e+01	 1.000011769230770e+01
0	 4.687499999999999e+01	 3.812500000000001e+01	 1.000010983076924e+01
0	 4.687499999999999e+01	 3.875000000000000e+01	 1.000010155384615e+01
0	 4.687499999999999e+01	 3.937500000000000e+01	 1.000009286153846e+01
0	 4.687499999999998e+01	 3.999999999999999e+01	 1.000008375384616e+01
0	 4.687499999999999e+01	 4.062499999999999e+01	 1.000007423076923e+01
0	 4.687500000000000e+01	 4.124999999999999e+01	 1.000006429230768e+01
0	 4.687499999999999e+01	 4.187499999999999e+01	 1.000005393846152e+01
0	 4.687499999999999e+01	 4.249999999999999e+01	 1.000004316923077e+01
0	 4.687499999999998e+01	 4.312499999999997e+01	 1.000003198461539e+01
0	 4.687499999999999e+01	 4.375000000000000e+01	 1.000002038461537e+01
0	 4.749999999999999e+01	 3.750000000000001e+01	 1.000009587692308e+01
0	 4.749999999999998e+01	 3.812500000000000e+01	 1.000008884923077e+01
0	 4.749999999999997e+01	 3.874999999999999e+01	 1.000008137846154e+01
0	 4.749999999999999e+01	 3.937499999999999e+01	 1.000007346461539e+01
0	 4.749999999999999e+01	 3.999999999999999e+01	 1.000006510769230e+01
0	 4.749999999999999e+01	 4.062499999999999e+01	 1.000005630769232e+01
0	 4.749999999999999e+01	 4.124999999999999e+01	 1.000004706461538e+01
0	 4.749999999999999e+01	 4.187499999999999e+01	 1.000003737846154e+01
0	 4.749999999999999e+01	 4.249999999999998e+01	 1.000002724923077e+01
0	 4.749999999999999e+01	 4.312499999999998e+01	 1.000001667692307e+01
0	 4.749999999999999e+01	 4.375000000000000e+01	 1.000000566153846e+01
0	 4.812499999999999e+01	 3.750000000000000e+01	 1.000007535384615e+01
0	 4.812499999999998e+01	 3.812499999999999e+01	 1.000006879384616e+01
0	 4.812499999999999e+01	 3.875000000000000e+01	 1.000006176307692e+01
0	 4.812499999999998e+01	 3.937499999999999e+01	 1.000005426153846e+01
0	 4.812499999999997e+01	 3.999999999999999e+01	 1.000004628923076e+01
0	 4.812499999999999e+01	 4.062499999999999e+01	 1.000003784615385e+01
0	 4.812499999999999e+01	 4.124999999999999e+01	 1.000002893230769e+01
0	 4.812499999999999e+01	 4.187499999999999e+01	 1.000001954769231e+01
0	 4.812499999999997e+01	 4.249999999999997e+01	 1.000000969230769e+01
0	 4.812499999999999e+01	 4.312499999999999e+01	 9.999999366153840e+00
0	 4.812499999999999e+01	 4.375000000000000e+01	 9.999988569230750e+00
0	 4.874999999999999e+01	 3.750000000000000e+01	 1.000005612307693e+01
0	 4.874999999999998e+01	 3.812500000000000e+01	 1.000004966461539e+01
0	 4.874999999999999e+01	 3.875000000000001e+01	 1.000004270769231e+01
0	 4.874999999999998e+01	 3.937499999999999e+01	 1.000003525230770e+01
0	 4.874999999999999e+01	 3.999999999999999e+01	 1.000002729846154e+01
0	 4.874999999999997e+01	 4.062499999999998e+01	 1.000001884615384e+01
0	 4.874999999999999e+01	 4.124999999999999e+01	 1.000000989538461e+01
0	 4.874999999999998e+01	 4.187499999999999e+01	 1.000000044615384e+01
0	 4.874999999999998e+01	 4.249999999999999e+01	 9.999990498461528e+00
0	 4.874999999999998e+01	 4.312499999999998e+01	 9.999980052307691e+00
0	 4.874999999999999e+01	 4.375000000000000e+01	 9.999969107692301e+00
0	 4.937499999999999e+01	 3.750000000000000e+01	 1.000003818461541e+01
0	 4.937499999999999e+01	 3.812500000000000e+01	 1.000003146153847e+01
0	 4.937499999999999e+01	 3.875000000000000e+01	 1.000002421230768e+01
0	 4.937499999999998e+01	 3.937499999999999e+01	 1.000001643692308e+01
0	 4.937499999999999e+01	 3.999999999999999e+01	 1.000000813538462e+01
0	 4.937499999999999e+01	 4.062499999999999e+01	 9.999999307692308e+00
0	 4.937499999999999e+01	 4.124999999999999e+01	 9.999989953846145e+00
0	 4.937499999999998e+01	 4.187499999999999e+01	 9.999980073846167e+00
0	 4.937499999999999e+01	 4.249999999999999e+01	 9.999969667692319e+00
0	 4.937499999999998e+01	 4.312499999999998e+01	 9.999958735384617e+00
0	 4.937499999999999e+01	 4.375000000000000e+01	 9.999947276923079e+00
0	 5.000000000000000e+01	 3.750000000000000e+01	 1.000002153846154e+01
0	 5.000000000000000e+01	 3.812500000000000e+01	 1.000001418461538e+01
0	 5.000000000000000e+01	 3.874999999999999e+01	 1.000000627692308e+01
0	 5.000000000000000e+01	 3.937499999999999e+01	 9.999997815384614e+00
0	 5.000000000000000e+01	 3.999999999999999e+01	 9.999988800000001e+00
0	 5.000000000000000e+01	 4.062499999999999e+01	 9.999979230769226e+00
0	 5.000000000000000e+01	 4.124999999999999e+01	 9.999969107692312e+00
0	 5.000000000000001e+01	 4.187499999999999e+01	 9.999958430769233e+00
0	 5.000000000000000e+01	 4.249999999999998e+01	 9.999947199999998e+00
0	 5.000000000000000e+01	 4.312499999999998e+01	 9.999935415384609e+00
0	 5.000000000000000e+01	 4.375000000000000e+01	 9.999923076923077e+00
0	 4.375000000000000e+01	 4.375000000000000e+01	 1.000005846153845e+01
0	 4.375000000000000e+01	 4.437500000000000e+01	 1.000005681538461e+01
0	 4.374999999999999e+01	 4.499999999999999e+01	 1.000005341538461e+01
0	 4.375000000000000e+01	 4.562499999999999e+01	 1.000004826153846e+01
0	 4.375000000000000e+01	 4.624999999999999e+01	 1.000004135384614e+01
0	 4.375000000000000e+01	 4.687499999999999e+01	 1.000003269230769e+01
0	 4.375000000000000e+01	 4.749999999999999e+01	 1.000002227692309e+01
0	 4.375000000000000e+01	 4.812499999999999e+01	 1.000001010769232e+01
0	 4.375000000000001e+01	 4.874999999999999e+01	 9.999996184615380e+00
0	 4.375000000000000e+01	 4.937499999999999e+01	 9.999980507692271e+00
0	 4.375000000000000e+01	 5.000000000000000e+01	 9.999963076923081e+00
0	 4.437500000000000e+01	 4.375000000000000e+01	 1.000005558461537e+01
0	 4.437500000000001e+01	 4.437500000000000e+01	 1.000005372307691e+01
0	 4.437500000000000e+01	 4.500000000000001e+01	 1.000005030153845e+01
0	 4.437500000000001e+01	 4.562499999999999e+01	 1.000004531999999e+01
0	 4.437499999999999e+01	 4.624999999999998e+01	 1.000003877846154e+01
0	 4.437500000000001e+01	 4.687499999999999e+01	 1.000003067692307e+01
0	 4.437500000000000e+01	 4.749999999999998e+01	 1.000002101538461e+01
0	 4.437500000000001e+01	 4.812499999999999e+01	 1.000000979384615e+01
0	 4.437500000000000e+01	 4.874999999999999e+01	 9.999997012307707e+00
0	 4.437499999999999e+01	 4.937499999999998e+01	 9.999982670769244e+00
0	 4.437500000000001e+01	 5.000000000000001e+01	 9.999966769230781e+00
0	 4.499999999999999e+01	 4.375000000000000e+01	 1.000005033846152e+01
0	 4.500000000000000e+01	 4.437500000000001e+01	 1.000004849846153e+01
0	 4.499999999999999e+01	 4.499999999999999e+01	 1.000004529230769e+01
0	 4.500000000000000e+01	 4.562500000000001e+01	 1.000004072000000e+01
0	 4.499999999999999e+01	 4.624999999999999e+01	 1.000003478153845e+01
0	 4.499999999999999e+01	 4.687499999999998e+01	 1.000002747692308e+01
0	 4.500000000000001e+01	 4.749999999999999e+01	 1.000001880615386e+01
0	 4.500000000000000e+01	 4.812499999999998e+01	 1.000000876923075e+01
0	 4.499999999999999e+01	 4.874999999999999e+01	 9.999997366153849e+00
0	 4.499999999999999e+01	 4.937499999999997e+01	 9.999984596923067e+00
0	 4.500000000000000e+01	 5.000000000000001e+01	 9.999970461538481e+00
0	 4.562500000000000e+01	 4.375000000000000e+01	 1.000004272307690e+01
0	 4.562499999999999e+01	 4.437500000000000e+01	 1.000004114153845e+01
0	 4.562499999999999e+01	 4.500000000000001e+01	 1.000003838769230e+01
0	 4.562500000000000e+01	 4.562500000000000e+01	 1.000003446153845e+01
0	 4.562499999999999e+01	 4.625000000000000e+01	 1.000002936307692e+01
0	 4.562500000000000e+01	 4.687499999999999e+01	 1.000002309230769e+01
0	 4.562499999999999e+01	 4.749999999999999e+01	 1.000001564923076e+01
0	 4.562499999999999e+01	 4.812499999999999e+01	 1.000000703384615e+01
0	 4.562499999999999e+01	 4.874999999999998e+01	 9.999997246153843e+00
0	 4.562499999999999e+01	 4.937499999999998e+01	 9.999986286153844e+00
0	 4.562499999999999e+01	 5.000000000000000e+01	 9.999974153846166e+00
0	 4.624999999999999e+01	 4.375000000000000e+01	 1.000003273846153e+01
0	 4.624999999999999e+01	 4.437499999999999e+01	 1.000003165230769e+01
0	 4.624999999999999e+01	 4.500000000000000e+01	 1.000002958769229e+01
0	 4.625000000000000e+01	 4.562499999999999e+01	 1.000002654461539e+01
0	 4.625000000000000e+01	 4.625000000000000e+01	 1.000002252307693e+01
0	 4.624999999999999e+01	 4.687499999999999e+01	 1.000001752307693e+01
0	 4.624999999999999e+01	 4.749999999999999e+01	 1.000001154461538e+01
0	 4.625000000000000e+01	 4.812499999999999e+01	 1.000000458769231e+01
0	 4.624999999999999e+01	 4.874999999999999e+01	 9.999996652307686e+00
0	 4.624999999999999e+01	 4.937499999999999e+01	 9.999987738461520e+00
0	 4.624999999999999e+01	 5.000000000000001e+01	 9.999977846153845e+00
0	 4.687499999999999e+01	 4.375000000000000e+01	 1.000002038461537e+01
0	 4.687499999999999e+01	 4.437500000000000e+01	 1.000002003076923e+01
0	 4.687499999999999e+01	 4.500000000000000e+01	 1.000001889230768e+01
0	 4.687499999999998e+01	 4.562499999999999e+01	 1.000001696923077e+01
0	 4.687499999999999e+01	 4.624999999999999e+01	 1.000001426153846e+01
0	 4.687499999999999e+01	 4.687499999999999e+01	 1.000001076923076e+01
0	 4.687499999999999e+01	 4.749999999999999e+01	 1.000000649230770e+01
0	 4.687499999999999e+01	 4.812499999999999e+01	 1.000000143076924e+01
0	 4.687499999999999e+01	 4.874999999999999e+01	 9.999995584615387e+00
0	 4.687499999999999e+01	 4.937499999999998e+01	 9.999988953846165e+00
0	 4.687499999999999e+01	 5.000000000000000e+01	 9.999981538461565e+00
0	 4.749999999999999e+01	 4.375000000000000e+01	 1.000000566153846e+01
0	 4.749999999999999e+01	 4.437500000000000e+01	 1.000000627692306e+01
0	 4.749999999999999e+01	 4.500000000000001e+01	 1.000000630153846e+01
0	 4.749999999999999e+01	 4.562499999999999e+01	 1.000000573538461e+01
0	 4.749999999999999e+01	 4.624999999999999e+01	 1.000000457846153e+01
0	 4.749999999999999e+01	 4.687499999999999e+01	 1.000000283076923e+01
0	 4.749999999999999e+01	 4.749999999999999e+01	 1.000000049230768e+01
0	 4.750000000000000e+01	 4.812499999999999e+01	 9.999997563076910e+00
0	 4.749999999999999e+01	 4.874999999999999e+01	 9.999994043076928e+00
0	 4.749999999999999e+01	 4.937499999999998e+01	 9.999989932307699e+00
0	 4.749999999999999e+01	 5.000000000000000e+01	 9.999985230769234e+00
0	 4.812499999999999e+01	 4.375000000000000e+01	 9.999988569230750e+00
0	 4.812499999999999e+01	 4.437499999999999e+01	 9.999990390769234e+00
0	 4.812499999999999e+01	 4.499999999999999e+01	 9.999991815384615e+00
0	 4.812499999999999e+01	 4.562499999999999e+01	 9.999992843076914e+00
0	 4.812499999999997e+01	 4.624999999999999e+01	 9.999993473846155e+00
0	 4.812499999999999e+01	 4.687499999999999e+01	 9.999993707692310e+00
0	 4.812499999999999e+01	 4.749999999999999e+01	 9.999993544615384e+00
0	 4.812499999999997e+01	 4.812499999999997e+01	 9.999992984615400e+00
0	 4.812499999999999e+01	 4.874999999999999e+01	 9.999992027692317e+00
0	 4.812499999999999e+01	 4.937499999999999e+01	 9.999990673846133e+00
0	 4.812499999999999e+01	 5.000000000000000e+01	 9.999988923076920e+00
0	 4.874999999999999e+01	 4.375000000000000e+01	 9.999969107692301e+00
0	 4.874999999999999e+01	 4.437500000000000e+01	 9.999972372307703e+00
0	 4.874999999999998e+01	 4.499999999999999e+01	 9.999975433846146e+00
0	 4.874999999999999e+01	 4.562500000000000e+01	 9.999978292307691e+00
0	 4.874999999999999e+01	 4.624999999999999e+01	 9.999980947692308e+00
0	 4.874999999999998e+01	 4.687499999999999e+01	 9.999983399999994e+00
0	 4.874999999999999e+01	 4.749999999999999e+01	 9.999985649230764e+00
0	 4.874999999999998e+01	 4.812499999999999e+01	 9.999987695384625e+00
0	 4.874999999999998e+01	 4.874999999999998e+01	 9.999989538461536e+00
0	 4.874999999999999e+01	 4.937499999999999e+01	 9.999991178461524e+00
0	 4.874999999999999e+01	 5.000000000000000e+01	 9.999992615384617e+00
0	 4.937499999999999e+01	 4.375000000000000e+01	 9.999947276923079e+00
0	 4.937499999999998e+01	 4.437500000000000e+01	 9.999952221538461e+00
0	 4.937499999999998e+01	 4.499999999999999e+01	 9.999957156923070e+00
0	 4.937499999999998e+01	 4.562499999999999e+01	 9.999962083076923e+00
0	 4.937499999999999e+01	 4.624999999999999e+01	 9.999966999999991e+00
0	 4.937499999999998e+01	 4.687499999999999e+01	 9.999971907692313e+00
0	 4.937499999999998e+01	 4.749999999999999e+01	 9.999976806153853e+00
0	 4.937499999999999e+01	 4.812499999999999e+01	 9.999981695384621e+00
0	 4.937499999999998e+01	 4.874999999999999e+01	 9.999986575384593e+00
0	 4.937499999999999e+01	 4.937499999999999e+01	 9.999991446153842e+00
0	 4.937499999999999e+01	 5.000000000000000e+01	 9.999996307692289e+00
0	 5.000000000000000e+01	 4.375000000000000e+01	 9.999923076923077e+00
0	 5.000000000000001e+01	 4.437500000000001e+01	 9.999929938461538e+00
0	 5.000000000000001e+01	 4.500000000000000e+01	 9.999936984615383e+00
0	 5.000000000000000e+01	 4.562499999999999e+01	 9.999944215384611e+00
0	 5.000000000000001e+01	 4.624999999999999e+01	 9.999951630769234e+00
0	 5.000000000000000e+01	 4.687499999999999e+01	 9.999959230769230e+00
0	 5.000000000000000e+01	 4.749999999999999e+01	 9.999967015384611e+00
0	 5.000000000000000e+01	 4.812499999999999e+01	 9.999974984615388e+00
0	 5.000000000000000e+01	 4.874999999999999e+01	 9.999983138461520e+00
0	 5.000000000000000e+01	 4.937499999999999e+01	 9.999991476923054e+00
0	 5.000000000000000e+01	 5.000000000000000e+01	 1.000000000000000e+01
1	 1.000000000000000e+00	 0.000000000000000e+00	 7.382754835902744e+00
1	 9.998338218507750e-01	 2.301879740688203e-02	 7.418978252270319e+00
1	 9.993275599243348e-01	 4.608215271279779e-02	 7.439032899222132e+00
1	 9.984697124756583e-01	 6.917769523648053e-02	 7.441651723181374e+00
1	 9.972489236794969e-01	 9.229260277661558e-02	 7.425480101732215e+00
1	 9.956540178012001e-01	 1.154136152499791e-01	 7.389074711773379e+00
1	 9.936740343365396e-01	 1.385270506335803e-01	 7.330903043343684e+00
1	 9.912982639881663e-01	 1.616188232546628e-01	 7.249343648211084e+00
1	 9.885162853320295e-01	 1.846744644584668e-01	 7.142687212964969e+00
1	 9.853180020131134e-01	 2.076791456684508e-01	 7.009138545303444e+00
1	 9.816936802964240e-01	 2.306177038372821e-01	 6.846819559211717e+00
1	 1.014285762337685e+00	 0.000000000000000e+00	 7.062643636143839e+00
1	 1.014117210207158e+00	 2.334763847636930e-02	 7.086277145110353e+00
1	 1.013603715943827e+00	 4.674047139590417e-02	 7.094113225871478e+00
1	 1.012733613491393e+00	 7.016595135258462e-02	 7.084909246322495e+00
1	 1.011495384797893e+00	 9.361107297002941e-02	 7.057344994585447e+00
1	 1.009877694474696e+00	 1.170623867344661e-01	 7.010022235621811e+00
1	 1.007869425438318e+00	 1.405060151646194e-01	 6.941464893229681e+00
1	 1.005459715400836e+00	 1.639276713629985e-01	 6.850119935358393e+00
1	 1.002637994060108e+00	 1.873126799789160e-01	 6.734359040348220e+00
1	 9.993940208268849e-01	 2.106460005981402e-01	 6.592481119781860e+00
1	 9.957179229122425e-01	 2.339122535574748e-01	 6.422715769907889e+00
1	 1.028571613012482e+00	 0.000000000000000e+00	 6.747473803170811e+00
1	 1.028400686885902e+00	 2.367648157850007e-02	 6.761033758150352e+00
1	 1.027879960240766e+00	 4.739879414830282e-02	 6.759180191157252e+00
1	 1.026997602708497e+00	 7.115421357755074e-02	 6.740690879506493e+00
1	 1.025741934009444e+00	 9.492955131367199e-02	 6.704275445617999e+00
1	 1.024101459100028e+00	 1.187111684111830e-01	 6.648575610576265e+00
1	 1.022064904316570e+00	 1.424849919293243e-01	 6.572166057560382e+00
1	 1.019621254379648e+00	 1.662365337446359e-01	 6.473555972266258e+00
1	 1.016759790108138e+00	 1.899509118092326e-01	 6.351191326108571e+00
1	 1.013470126677695e+00	 2.136128738698931e-01	 6.203457965151467e+00
1	 1.009742252244628e+00	 2.372068236462269e-01	 6.028685563200928e+00
1	 1.042857540357000e+00	 0.000000000000000e+00	 6.438133494134087e+00
1	 1.042684240221567e+00	 2.400532644483651e-02	 6.443782487277364e+00
1	 1.042156281155643e+00	 4.805712043257811e-02	 6.434417008655395e+00
1	 1.041261668477513e+00	 7.214248110459021e-02	 6.408831231817666e+00
1	 1.039988559678984e+00	 9.624803673113663e-02	 6.365760045294922e+00
1	 1.038325300060698e+00	 1.203599589340155e-01	 6.303880011534691e+00
1	 1.036260459377960e+00	 1.444639793119433e-01	 6.221810924901350e+00
1	 1.033782869359052e+00	 1.685454085144208e-01	 6.118118025392485e+00
1	 1.030881661943093e+00	 1.925891577952661e-01	 5.991314922344646e+00
1	 1.027546308069888e+00	 2.165797630611406e-01	 5.839867278600836e+00
1	 1.023766656840262e+00	 2.405014114133076e-01	 5.662197300249979e+00
1	 1.057143532703853e+00	 0.000000000000000e+00	 6.135462827602159e+00
1	 1.056967858548713e+00	 2.433417280694075e-02	 6.135028809899095e+00
1	 1.056432667028950e+00	 4.871544971131429e-02	 6.119996954175087e+00
1	 1.055525799148979e+00	 7.313075312691440e-02	 6.089173815932039e+00
1	 1.054235250171347e+00	 9.756652814601664e-02	 6.041314989216176e+00
1	 1.052549205740208e+00	 1.220087569568488e-01	 5.975126779303022e+00
1	 1.050456079029154e+00	 1.464429756967244e-01	 5.889268468287719e+00
1	 1.047944548773499e+00	 1.708542937871996e-01	 5.782355220097120e+00
1	 1.045003598031943e+00	 1.952274157828657e-01	 5.652961667982817e+00
1	 1.041622553507811e+00	 2.195466657493138e-01	 5.499626222745253e+00
1	 1.037791125245829e+00	 2.437960141684862e-01	 5.320856133677125e+00
1	 1.071429578385649e+00	 0.000000000000000e+00	 5.840257084951197e+00
1	 1.071251530201898e+00	 2.466302039637492e-02	 5.835251212024662e+00
1	 1.070709106201178e+00	 4.937378144709573e-02	 5.816084027821254e+00
1	 1.069789983073436e+00	 7.411902883773466e-02	 5.781570454447893e+00
1	 1.068481993851369e+00	 9.888502448190539e-02	 5.730482238030274e+00
1	 1.066773164522058e+00	 1.236575611335686e-01	 5.661550343468386e+00
1	 1.064651751676819e+00	 1.484219794679160e-01	 5.573467940526915e+00
1	 1.062106281057439e+00	 1.731631876778187e-01	 5.464894017970157e+00
1	 1.059125586841663e+00	 1.978656836178809e-01	 5.334457657881146e+00
1	 1.055698851495811e+00	 2.225135795118439e-01	 5.180762996443366e+00
1	 1.051815646008011e+00	 2.470906292215318e-01	 5.002394890245879e+00
1	 1.085715665735001e+00	 0.000000000000000e+00	 5.553269659225395e+00
1	 1.085535243515682e+00	 2.499186894470118e-02	 5.544902963334851e+00
1	 1.084985587012820e+00	 5.003211510250672e-02	 5.522833563832603e+00
1	 1.084054208601425e+00	 7.510730743026230e-02	 5.485880733045443e+00
1	 1.082728779083882e+00	 1.002035246623961e-01	 5.432827822495609e+00
1	 1.080997164789749e+00	 1.253063701180604e-01	 5.362425387998852e+00
1	 1.078847465727619e+00	 1.504009890097661e-01	 5.273394909060038e+00
1	 1.076268054645321e+00	 1.754720883011241e-01	 5.164433129792849e+00
1	 1.073247616839224e+00	 2.005039591461607e-01	 5.034217042872827e+00
1	 1.069775190538234e+00	 2.254805019261618e-01	 4.881409531075420e+00
1	 1.065840207673492e+00	 2.503852538822138e-01	 4.704665672723197e+00
1	 1.100001783084519e+00	 0.000000000000000e+00	 5.275214774406196e+00
1	 1.099818986824623e+00	 2.532071818348164e-02	 5.264413754049722e+00
1	 1.099262097804366e+00	 5.069045014013161e-02	 5.240392792938954e+00
1	 1.098318464083486e+00	 7.609558809770867e-02	 5.201971496221624e+00
1	 1.096975594233721e+00	 1.015220276110822e-01	 5.147940280505051e+00
1	 1.095221194926784e+00	 1.269551825642097e-01	 5.077064237522076e+00
1	 1.093043209588223e+00	 1.523800027065229e-01	 4.988087599538392e+00
1	 1.090429857971597e+00	 1.777809937719623e-01	 4.879738824562611e+00
1	 1.087369676491597e+00	 2.031422402135547e-01	 4.750736312522143e+00
1	 1.083851559139426e+00	 2.284474305696987e-01	 4.599794755470292e+00
1	 1.079864798788953e+00	 2.536798854603011e-01	 4.425632115598441e+00
1	 1.114287918766816e+00	 0.000000000000000e+00	 5.006769995677801e+00
1	 1.114102748463282e+00	 2.564956784427844e-02	 4.994191205985875e+00
1	 1.113538626916308e+00	 5.134878602255466e-02	 4.968901361495303e+00
1	 1.112582737870157e+00	 7.708387003328505e-02	 4.929716381782543e+00
1	 1.111222427665721e+00	 1.028405322515569e-01	 4.875429214240661e+00
1	 1.109445243316661e+00	 1.286039971259019e-01	 4.804814444494522e+00
1	 1.107238971665293e+00	 1.543590189424345e-01	 4.716633520432858e+00
1	 1.104591679470715e+00	 1.800899022051795e-01	 4.609640599066347e+00
1	 1.101491754265754e+00	 2.057805246659122e-01	 4.482589017307897e+00
1	 1.097927945803734e+00	 2.314143630198855e-01	 4.334238378490404e+00
1	 1.093889407901079e+00	 2.569745212655634e-01	 4.163362236027992e+00
1	 1.128574061114501e+00	 0.000000000000000e+00	 4.748578549193320e+00
1	 1.128386516766216e+00	 2.597841765865374e-02	 4.734622268942393e+00
1	 1.127815162689139e+00	 5.200712221236022e-02	 4.708491811219552e+00
1	 1.126847018311981e+00	 7.807215243020288e-02	 4.668995390661955e+00
1	 1.125469267744715e+00	 1.041590375074135e-01	 4.614923956822667e+00
1	 1.123669298342884e+00	 1.302528124570227e-01	 4.545056559475093e+00
1	 1.121434740365498e+00	 1.563380361017492e-01	 4.458166343794332e+00
1	 1.118753507577126e+00	 1.823988117156219e-01	 4.353027176080624e+00
1	 1.115613838628670e+00	 2.084188103490824e-01	 4.228420891329195e+00
1	 1.112004339035504e+00	 2.343812968541535e-01	 4.083145143443153e+00
1	 1.107914023556551e+00	 2.602691586077694e-01	 3.916021827306751e+00
1	 1.142860198460186e+00	 0.000000000000000e+00	 4.501251467996906e+00
1	 1.142670280067985e+00	 2.630726735816965e-02	 4.486074512440962e+00
1	 1.142091693463350e+00	 5.266545817213261e-02	 4.459290022978234e+00
1	 1.141111293759497e+00	 7.906043448167339e-02	 4.419694488977242e+00
1	 1.139716102835537e+00	 1.054775423022454e-01	 4.366072338879586e+00
1	 1.137893348388953e+00	 1.319016272114574e-01	 4.297202068494469e+00
1	 1.135630504095502e+00	 1.583170525687151e-01	 4.211863019770083e+00
1	 1.132915330725281e+00	 1.847077204181359e-01	 4.108842802466915e+00
1	 1.129735918047314e+00	 2.110570951089146e-01	 3.986945340515851e+00
1	 1.126080727339082e+00	 2.373482296499335e-01	 3.844999513067057e+00
1	 1.121938634302054e+00	 2.635637947966888e-01	 3.681868347433142e+00
1	 9.816936802964240e-01	 2.306177038372821e-01	 6.846819559211719e+00
1	 9.776342863994824e-01	 2.534730768946625e-01	 6.651086375700917e+00
1	 9.731306880439857e-01	 2.762311524069800e-01	 6.417412580224242e+00
1	 9.681744667976357e-01	 2.988759714563225e-01	 6.144350933420907e+00
1	 9.627577163271480e-01	 3.213913671440238e-01	 5.830856588142156e+00
1	 9.568730786461752e-01	 3.437610012650069e-01	 5.476326909551516e+00
1	 9.505137794457967e-01	 3.659684029576715e-01	 5.080639427072358e+00
1	 9.436736622717954e-01	 3.879970091915093e-01	 4.644187228679740e+00
1	 9.363472213109787e-01	 4.098302069345519e-01	 4.167911088094442e+00
1	 9.285296325490471e-01	 4.314513768232032e-01	 3.653327609199840e+00
1	 9.202167830650884e-01	 4.528439381382666e-01	 3.102552681214709e+00
1	 9.957179229122425e-01	 2.339122535574748e-01	 6.422715769907889e+00
1	 9.916005374791480e-01	 2.570941330418181e-01	 6.221990379782921e+00
1	 9.870326017877620e-01	 2.801773250107799e-01	 5.987330696540642e+00
1	 9.820055771421120e-01	 3.031456425612922e-01	 5.717355614884686e+00
1	 9.765114442609665e-01	 3.259826878383744e-01	 5.411050843056404e+00
1	 9.705427400435855e-01	 3.486718892333964e-01	 5.067805665615339e+00
1	 9.640925934049355e-01	 3.711965405861092e-01	 4.687448036720519e+00
1	 9.571547599412131e-01	 3.935398422506569e-01	 4.270277370426953e+00
1	 9.497236551845439e-01	 4.156849438654169e-01	 3.817094375334644e+00
1	 9.417943862059640e-01	 4.376149886466908e-01	 3.329227274276488e+00
1	 9.333627813284100e-01	 4.593131590072458e-01	 2.808553757222655e+00
1	 1.009742252244628e+00	 2.372068236462269e-01	 6.028685563200928e+00
1	 1.005566874916577e+00	 2.607152115768242e-01	 5.825206655241871e+00
1	 1.000934601491359e+00	 2.841235220132460e-01	 5.591439050102017e+00
1	 9.958367730085770e-01	 3.074153400658279e-01	 5.326069839338412e+00
1	 9.902652572383444e-01	 3.305740369218140e-01	 5.028119383571020e+00
1	 9.842124859648721e-01	 3.535828075675452e-01	 4.696975143183576e+00
1	 9.776714913264066e-01	 3.764247105426353e-01	 4.332424024082447e+00
1	 9.706359409690050e-01	 3.990827095843819e-01	 3.934682658441861e+00
1	 9.631001717696162e-01	 4.215397170000070e-01	 3.504425022002196e+00
1	 9.550592218841777e-01	 4.437786385842048e-01	 3.042806782531867e+00
1	 9.465088608791017e-01	 4.657824198802068e-01	 2.551485780010695e+00
1	 1.023766656840262e+00	 2.405014114133076e-01	 5.662197300249978e+00
1	 1.019533287305854e+00	 2.643363095427448e-01	 5.457885133022520e+00
1	 1.014836675801436e+00	 2.880697401918617e-01	 5.226588910081698e+00
1	 1.009668043101530e+00	 3.116850604831455e-01	 4.967065717490271e+00
1	 1.004019144026986e+00	 3.351654106447972e-01	 4.678374312603824e+00
1	 9.978823052463919e-01	 3.584937522568460e-01	 4.359906143217549e+00
1	 9.912504621207464e-01	 3.816529085574751e-01	 4.011415052784802e+00
1	 9.841171943454884e-01	 4.046256066658365e-01	 3.633045142548860e+00
1	 9.764767601419596e-01	 4.273945215566902e-01	 3.225356243930690e+00
1	 9.683241287506194e-01	 4.499423216018177e-01	 2.789346447360320e+00
1	 9.596550109810312e-01	 4.722517154736102e-01	 2.326471138314492e+00
1	 1.037791125245829e+00	 2.437960141684862e-01	 5.320856133677125e+00
1	 1.033499763241064e+00	 2.679574239826441e-01	 5.117329744946325e+00
1	 1.028738813364647e+00	 2.920159763241097e-01	 4.889801687414850e+00
1	 1.023499376125471e+00	 3.159548003264606e-01	 4.637100588517943e+00
1	 1.017773093394594e+00	 3.397568052577776e-01	 4.358327013152956e+00
1	 1.011552186724500e+00	 3.634047192906907e-01	 4.052881787336405e+00
1	 1.004829494698492e+00	 3.868811303608553e-01	 3.720493165928331e+00
1	 9.975985090609817e-01	 4.101685289681731e-01	 3.361242363771213e+00
1	 9.898534093773371e-01	 4.332493527538351e-01	 2.975586953001395e+00
1	 9.815890959722187e-01	 4.561060326656014e-01	 2.564381622041693e+00
1	 9.728012208980669e-01	 4.787210405039170e-01	 2.128895795148368e+00
1	 1.051815646008011e+00	 2.470906292215318e-01	 5.002394890245879e+00
1	 1.047466291316291e+00	 2.715785519395860e-01	 4.800988159315631e+00
1	 1.042641002827651e+00	 2.959622271874738e-01	 4.578257594497760e+00
1	 1.037330760784896e+00	 3.202245561089889e-01	 4.333104674077182e+00
1	 1.031527094108872e+00	 3.443482170112095e-01	 4.064674865558030e+00
1	 1.025222119235553e+00	 3.683157046584718e-01	 3.772383365672204e+00
1	 1.018408577970180e+00	 3.921093716830016e-01	 3.455939829929395e+00
1	 1.011079874105802e+00	 4.157114719645439e-01	 3.115371657242884e+00
1	 1.003230108551512e+00	 4.391042058098098e-01	 2.751045379532234e+00
1	 9.948541127159070e-01	 4.622697667416280e-01	 2.363685698960364e+00
1	 9.859474798940767e-01	 4.851903896875877e-01	 1.954391717774063e+00
1	 1.065840207673492e+00	 2.503852538822138e-01	 4.704665672723197e+00
1	 1.061432860125619e+00	 2.751996904566348e-01	 4.506442326183365e+00
1	 1.056543232837103e+00	 2.999084895594362e-01	 4.289285199421081e+00
1	 1.051162185784308e+00	 3.244943243439465e-01	 4.052169706174048e+00
1	 1.045281134937524e+00	 3.489396421555472e-01	 3.794289012516491e+00
1	 1.038892091615907e+00	 3.732267043495812e-01	 3.515077301059968e+00
1	 1.031987700846347e+00	 3.973376282541403e-01	 3.214232158117752e+00
1	 1.024561278470266e+00	 4.212544311281006e-01	 2.891735693322020e+00
1	 1.016606846740247e+00	 4.449590759429827e-01	 2.547873986548546e+00
1	 1.008119168148615e+00	 4.684335187959696e-01	 2.183254449862368e+00
1	 9.990937772329286e-01	 4.916597577410830e-01	 1.798820693610885e+00
1	 1.079864798788953e+00	 2.536798854603011e-01	 4.425632115598441e+00
1	 1.075399458263132e+00	 2.788208365768544e-01	 4.231399758743365e+00
1	 1.070445492039662e+00	 3.038547602174804e-01	 4.020351793483198e+00
1	 1.064993639828203e+00	 3.287641015445487e-01	 3.791538440441255e+00
1	 1.059035204648252e+00	 3.535310769412446e-01	 3.544203076684115e+00
1	 1.052562092701919e+00	 3.781377143534121e-01	 3.277803128161943e+00
1	 1.045566852237530e+00	 4.025658958044971e-01	 2.992030206929077e+00
1	 1.038042711144692e+00	 4.267974019319960e-01	 2.686829144435858e+00
1	 1.029983613019307e+00	 4.508139583717223e-01	 2.362415558589765e+00
1	 1.021384251437273e+00	 4.745972837946980e-01	 2.019291585339647e+00
1	 1.012240102178491e+00	 4.981291393808635e-01	 1.658259406197423e+00
1	 1.093889407901079e+00	 2.569745212655634e-01	 4.163362236027992e+00
1	 1.089366074322916e+00	 2.824419873433087e-01	 3.973685484833254e+00
1	 1.084347769081984e+00	 3.078010359390896e-01	 3.769054499056864e+00
1	 1.078825111621082e+00	 3.330338842240116e-01	 3.548594975424633e+00
1	 1.072789292008760e+00	 3.581225176187560e-01	 3.311602745440909e+00
1	 1.066232111329943e+00	 3.830487306593562e-01	 3.057562396516728e+00
1	 1.059146021054265e+00	 4.077941700642983e-01	 2.786165248512765e+00
1	 1.051524161119399e+00	 4.323403798493822e-01	 2.497326376712265e+00
1	 1.043360396464453e+00	 4.566688483143967e-01	 2.191200359730943e+00
1	 1.034649351748811e+00	 4.807610567038857e-01	 1.868195424213203e+00
1	 1.025386443994631e+00	 5.045985293233902e-01	 1.528985658215637e+00
1	 1.107914023556551e+00	 2.602691586077694e-01	 3.916021827306751e+00
1	 1.103332696899054e+00	 2.860631397990621e-01	 3.731234609220979e+00
1	 1.098250052610725e+00	 3.117473135017465e-01	 3.533112052261107e+00
1	 1.092656589867442e+00	 3.373036688955506e-01	 3.320855806518491e+00
1	 1.086543385786751e+00	 3.627139604385353e-01	 3.093816146047380e+00
1	 1.079902136336337e+00	 3.879597492568057e-01	 2.851508415712861e+00
1	 1.072725196207091e+00	 4.130224467637699e-01	 2.593628933306887e+00
1	 1.065005617384702e+00	 4.378833603534111e-01	 2.320070075667856e+00
1	 1.056737186151450e+00	 4.625237409893744e-01	 2.030934266155275e+00
1	 1.047914458250161e+00	 4.869248324896046e-01	 1.726546574548691e+00
1	 1.038532791945218e+00	 5.110679222851237e-01	 1.407465640020861e+00
1	 1.121938634302054e+00	 2.635637947966888e-01	 3.681868347433141e+00
1	 1.117299314585631e+00	 2.896842909871785e-01	 3.502085433273850e+00
1	 1.112152331272543e+00	 3.156935896829344e-01	 3.310357201440209e+00
1	 1.106488063271783e+00	 3.415734520723818e-01	 3.105961550319586e+00
1	 1.100297474749929e+00	 3.673054016510370e-01	 2.888304942087174e+00
1	 1.093572156557455e+00	 3.928707661351533e-01	 2.656936769059579e+00
1	 1.086304366606542e+00	 4.182507216331378e-01	 2.411563264770394e+00
1	 1.078487068930921e+00	 4.434263389172351e-01	 2.152060724287572e+00
1	 1.070113971156061e+00	 4.683786316150235e-01	 1.878487788072360e+00
1	 1.061179560108253e+00	 4.930886061179267e-01	 1.591096537857810e+00
1	 1.051679135294118e+00	 5.175373129825247e-01	 1.290342152269307e+00
1	 9.202167830650884e-01	 4.528439381382666e-01	 3.102552681214711e+00
1	 9.114046648473878e-01	 4.739928653376373e-01	 2.518141404595126e+00
1	 9.020912353519670e-01	 4.948802800036434e-01	 1.901889425116118e+00
1	 8.922746742864819e-01	 5.154899876712747e-01	 1.255762394365055e+00
1	 8.819539668184718e-01	 5.358060209788083e-01	 5.826112541695395e-01
1	 8.711289202812919e-01	 5.558126876982258e-01	-1.138077312329429e-01
1	 8.598001777972277e-01	 5.754946185800570e-01	-8.288228602148626e-01
1	 8.479692286694867e-01	 5.948368147295444e-01	-1.556847473610147e+00
1	 8.356384154163032e-01	 6.138246942277596e-01	-2.291391541235360e+00
1	 8.228109373437806e-01	 6.324441377108051e-01	-3.025084679071980e+00
1	 8.094908505790605e-01	 6.506815326226161e-01	-3.749710715291128e+00
1	 9.333627813284100e-01	 4.593131590072458e-01	 2.808553757222657e+00
1	 9.244247752827184e-01	 4.807642147537833e-01	 2.258036878251611e+00
1	 9.149782963456433e-01	 5.019500220617313e-01	 1.680043274660053e+00
1	 9.050214982206021e-01	 5.228541551156739e-01	 1.076418137847017e+00
1	 8.945533515775020e-01	 5.434604184478213e-01	 4.497603008980736e-01
1	 8.835736609973344e-01	 5.637528956545838e-01	-1.965621111391105e-01
1	 8.720830787899015e-01	 5.837159979249101e-01	-8.584045044617767e-01
1	 8.600831155342660e-01	 6.033345120932596e-01	-1.530847671516526e+00
1	 8.475761472133474e-01	 6.225936479267381e-01	-2.208209093863656e+00
1	 8.345654188377984e-01	 6.414790843554314e-01	-2.884063948325438e+00
1	 8.210550444796545e-01	 6.599770143573945e-01	-3.551275896364836e+00
1	 9.465088608791017e-01	 4.657824198802068e-01	 2.551485780010695e+00
1	 9.374449662274109e-01	 4.875356060421673e-01	 2.033627046033573e+00
1	 9.278654370263987e-01	 5.090198078370565e-01	 1.491946048867942e+00
1	 9.177684009750668e-01	 5.302183680976542e-01	 9.281730145137138e-01
1	 9.071528142455878e-01	 5.511148632487299e-01	 3.446735889323004e-01
1	 8.960184786665549e-01	 5.716931527097678e-01	-2.555394029416873e-01
1	 8.843660557353290e-01	 5.919374281068149e-01	-8.688013710606939e-01
1	 8.721970773069457e-01	 6.118322620022576e-01	-1.490798998498310e+00
1	 8.595139528291983e-01	 6.313626558479829e-01	-2.116581234556678e+00
1	 8.463199730175579e-01	 6.505140868668495e-01	-2.740578437149960e+00
1	 8.326193098892952e-01	 6.692725535698656e-01	-3.356629710717634e+00
1	 9.596550109810312e-01	 4.722517154736102e-01	 2.326471138314489e+00
1	 9.504652270480891e-01	 4.943070336725015e-01	 1.839924215796065e+00
1	 9.407526468694558e-01	 5.160896315556505e-01	 1.332581935338416e+00
1	 9.305153721395666e-01	 5.375826206028219e-01	 8.060655096787426e-01
1	 9.197523445327681e-01	 5.587693491301476e-01	 2.625262850223642e-01
1	 9.084633631252294e-01	 5.796334523790161e-01	-2.953459212657719e-01
1	 8.966490986019068e-01	 6.001589024114224e-01	-8.643204938816935e-01
1	 8.843111040939087e-01	 6.203300575165623e-01	-1.440630060470490e+00
1	 8.714518225140709e-01	 6.401317108300180e-01	-2.019981154952921e+00
1	 8.580745902829160e-01	 6.595491378663692e-01	-2.597571643911912e+00
1	 8.441836373632470e-01	 6.785681426685646e-01	-3.168114932931458e+00
1	 9.728012208980669e-01	 4.787210405039170e-01	 2.128895795148369e+00
1	 9.634855471113760e-01	 5.010784921144978e-01	 1.672210218162352e+00
1	 9.536399153500362e-01	 5.231594874435458e-01	 1.197206162950785e+00
1	 9.432624013037896e-01	 5.449469066167819e-01	 7.054022137731000e-01
1	 9.323519321490816e-01	 5.664238698406905e-01	 1.987542720920362e-01
1	 9.209083042096341e-01	 5.875737881775672e-01	-3.203390766786416e-01
1	 9.089321973580297e-01	 6.083804141243842e-01	-8.490361798238237e-01
1	 8.964251860015402e-01	 6.288278916961995e-01	-1.384057191028849e+00
1	 8.833897465181827e-01	 6.489008057113672e-01	-1.921694389648296e+00
1	 8.698292610337306e-01	 6.685842299752990e-01	-2.457828039336622e+00
1	 8.557480174567735e-01	 6.878637740620275e-01	-2.987947777700504e+00
1	 9.859474798940767e-01	 4.851903896875877e-01	 1.954391717774064e+00
1	 9.765059157838942e-01	 5.078499758378683e-01	 1.526018439558927e+00
1	 9.665272319433628e-01	 5.302293697267743e-01	 1.081326933183520e+00
1	 9.560094780574259e-01	 5.523112201251403e-01	 6.217399488128972e-01
1	 9.449515668045673e-01	 5.740784191289722e-01	 1.490367676013068e-01
1	 9.333532917560440e-01	 5.955141536206587e-01	-3.346439706496163e-01
1	 9.212153419720944e-01	 6.166019565313522e-01	-8.268055261818001e-01
1	 9.085393131362222e-01	 6.373257576011928e-01	-1.324598606116989e+00
1	 8.953277150917490e-01	 6.576699333305543e-01	-1.824831330832032e+00
1	 8.815839756698585e-01	 6.776193558149491e-01	-2.323983673522459e+00
1	 8.673124407251396e-01	 6.971594401587902e-01	-2.818226343320226e+00
1	 9.990937772329286e-01	 4.916597577410830e-01	 1.798820693610886e+00
1	 9.895263224322676e-01	 5.146214793123250e-01	 1.397117272502571e+00
1	 9.794145861246581e-01	 5.372992726313681e-01	 9.806887767080626e-01
1	 9.687565919901648e-01	 5.596755551135029e-01	 5.508693047490330e-01
1	 9.575512382092630e-01	 5.817329907436078e-01	 1.092803129907045e-01
1	 9.457983156007349e-01	 6.034545422235297e-01	-3.421686814825391e-01
1	 9.334985224124954e-01	 6.248235229179774e-01	-8.012827139873366e-01
1	 9.206534756043400e-01	 6.458236482915676e-01	-1.265587442159761e+00
1	 9.072657184849856e-01	 6.664390865261035e-01	-1.732338755756089e+00
1	 8.933387245911578e-01	 6.866545080066284e-01	-2.198535946262838e+00
1	 8.788768977236079e-01	 7.064551333673871e-01	-2.660938389146614e+00
1	 1.012240102178491e+00	 4.981291393808635e-01	 1.658259406197423e+00
1	 1.002546756423119e+00	 5.213929970075802e-01	 1.281494854405437e+00
1	 9.923019673691437e-01	 5.443691903833595e-01	 8.912572057955688e-01
1	 9.815037326916951e-01	 5.670399055674747e-01	 4.887994576345737e-01
1	 9.701509360732091e-01	 5.893875784332123e-01	 7.560400966576775e-02
1	 9.582433655799834e-01	 6.113949475014185e-01	-3.466183601253146e-01
1	 9.457817286476292e-01	 6.330451065699113e-01	-7.759321885078549e-01
1	 9.327676635122770e-01	 6.543215568273484e-01	-1.210183779081009e+00
1	 9.192037469481085e-01	 6.752082581365386e-01	-1.647010456705319e+00
1	 9.050934981974861e-01	 6.956896791716466e-01	-2.083852616676629e+00
1	 8.904413790074432e-01	 7.157508460963548e-01	-2.517968507522529e+00
1	 1.025386443994631e+00	 5.045985293233902e-01	 1.528985658215636e+00
1	 1.015567207123072e+00	 5.281645233933461e-01	 1.175344979356354e+00
1	 1.005189365152042e+00	 5.514391172087801e-01	 8.092045463404960e-01
1	 9.942508897517067e-01	 5.744042654726615e-01	 4.317441546686133e-01
1	 9.827506501064427e-01	 5.970421759463997e-01	 4.432588974484208e-02
1	 9.706884315300646e-01	 6.193353629695629e-01	-3.515082425743984e-01
1	 9.580649506458910e-01	 6.412667007728053e-01	-7.540408266914158e-01
1	 9.448818669664171e-01	 6.628194762685597e-01	-1.161385739231942e+00
1	 9.311417907313339e-01	 6.839774410003836e-01	-1.571497053948404e+00
1	 9.168482868887002e-01	 7.047248619313129e-01	-1.982180120358503e+00
1	 9.020058751319096e-01	 7.250465707542284e-01	-2.391104744470347e+00
1	 1.038532791945218e+00	 5.110679222851237e-01	 1.407465640020861e+00
1	 1.028587663898750e+00	 5.349360529393342e-01	 1.075054079028006e+00
1	 1.018076768948577e+00	 5.585090473336626e-01	 7.308968450626649e-01
1	 1.006998052759889e+00	 5.817686288146692e-01	 3.761087628059447e-01
1	 9.953503700190041e-01	 6.046967770317856e-01	 1.195032110246763e-02
1	 9.831335032872549e-01	 6.272757821432017e-01	-3.601756747951771e-01
1	 9.703481783756770e-01	 6.494882988123111e-01	-7.387291812496921e-01
1	 9.569960760731446e-01	 6.713173996752270e-01	-1.122039744044944e+00
1	 9.430798400848772e-01	 6.927466279561625e-01	-1.508315064004306e+00
1	 9.286030810646587e-01	 7.137600489069369e-01	-1.895651255358450e+00
1	 9.135703766522705e-01	 7.343422997495432e-01	-2.282044717954493e+00
1	 1.051679135294118e+00	 5.175373129825247e-01	 1.290342152269307e+00
1	 1.041608116116776e+00	 5.417075801152571e-01	 9.771891792357401e-01
1	 1.030964168233969e+00	 5.655789749840386e-01	 6.528817578844462e-01
1	 1.019745211305930e+00	 5.891329895791028e-01	 3.184782879452134e-01
1	 1.007950085520931e+00	 6.123513754379840e-01	-2.484364372017411e-02
1	 9.955785706878293e-01	 6.352161985375726e-01	-3.757912364940328e-01
1	 9.826314018053823e-01	 6.577098939740801e-01	-7.329618821087932e-01
1	 9.691102809388425e-01	 6.798153201073742e-01	-1.094850002053745e+00
1	 9.550178852589553e-01	 7.015158118423989e-01	-1.459855288332950e+00
1	 9.403578711252181e-01	 7.227952327198277e-01	-1.826292292174141e+00
1	 9.251348741237903e-01	 7.436380254908352e-01	-2.192401277641832e+00
1	 8.094908505790605e-01	 6.506815326226161e-01	-3.749710715291128e+00
1	 7.956830624271515e-01	 6.685238174230594e-01	-4.455789882521182e+00
1	 7.813933179443889e-01	 6.859585270306811e-01	-5.137549648872165e+00
1	 7.666281954255775e-01	 7.029738267457829e-01	-5.791870978448008e+00
1	 7.513950941565928e-01	 7.195585469175594e-01	-6.415847007864478e+00
1	 7.357022165618519e-01	 7.357022165618521e-01	-7.006806044792183e+00
1	 7.195585469175590e-01	 7.513950941565929e-01	-7.562331910089768e+00
1	 7.029738267457828e-01	 7.666281954255776e-01	-8.080281343238436e+00
1	 6.859585270306806e-01	 7.813933179443893e-01	-8.558798245664732e+00
1	 6.685238174230592e-01	 7.956830624271517e-01	-8.996324596567369e+00
1	 6.506815326226163e-01	 8.094908505790606e-01	-9.391607939332658e+00
1	 8.210550444796545e-01	 6.599770143573945e-01	-3.551275896364836e+00
1	 8.070500015485216e-01	 6.780741897983326e-01	-4.203655667108196e+00
1	 7.925561171731763e-01	 6.957579675236486e-01	-4.837912063346800e+00
1	 7.775800636242920e-01	 7.130163437660235e-01	-5.450850961210043e+00
1	 7.621293458920958e-01	 7.298379893077620e-01	-6.039438936576317e+00
1	 7.462122835788024e-01	 7.462122835788025e-01	-6.600826982149735e+00
1	 7.298379893077620e-01	 7.621293458920964e-01	-7.132372171378822e+00
1	 7.130163437660234e-01	 7.775800636242922e-01	-7.631656969031132e+00
1	 6.957579675236482e-01	 7.925561171731764e-01	-8.096505931856081e+00
1	 6.780741897983322e-01	 8.070500015485218e-01	-8.524999592310017e+00
1	 6.599770143573943e-01	 8.210550444796544e-01	-8.915485372313785e+00
1	 8.326193098892952e-01	 6.692725535698656e-01	-3.356629710717634e+00
1	 8.184170109590402e-01	 6.876246212274461e-01	-3.961307783704446e+00
1	 8.037189854285399e-01	 7.055574686107333e-01	-4.553367362897225e+00
1	 7.885319995449450e-01	 7.230589228837120e-01	-5.129568508319384e+00
1	 7.728636640035178e-01	 7.401174952607817e-01	-5.686786080385104e+00
1	 7.567224155850235e-01	 7.567224155850236e-01	-6.222033944024545e+00
1	 7.401174952607816e-01	 7.728636640035181e-01	-6.732487658900483e+00
1	 7.230589228837118e-01	 7.885319995449455e-01	-7.215505339909461e+00
1	 7.055574686107329e-01	 8.037189854285400e-01	-7.668646405703898e+00
1	 6.876246212274458e-01	 8.184170109590403e-01	-8.089687973037403e+00
1	 6.692725535698655e-01	 8.326193098892952e-01	-8.476638700143544e+00
1	 8.441836373632470e-01	 6.785681426685646e-01	-3.168114932931458e+00
1	 8.297840813750883e-01	 6.971751039107528e-01	-3.730472328474508e+00
1	 8.148819135936146e-01	 7.153570222888413e-01	-4.285060536494425e+00
1	 7.994839942429858e-01	 7.331015558971893e-01	-4.828621245008627e+00
1	 7.835980397240893e-01	 7.503970563814085e-01	-5.357970422519450e+00
1	 7.672326039968961e-01	 7.672326039968963e-01	-5.870022788654826e+00
1	 7.503970563814082e-01	 7.835980397240895e-01	-6.361815248157695e+00
1	 7.331015558971890e-01	 7.994839942429861e-01	-6.830528960912289e+00
1	 7.153570222888415e-01	 8.148819135936152e-01	-7.273509745288827e+00
1	 6.971751039107525e-01	 8.297840813750883e-01	-7.688286543675982e+00
1	 6.785681426685646e-01	 8.441836373632471e-01	-8.072587716745506e+00
1	 8.557480174567735e-01	 6.878637740620275e-01	-2.987947777700504e+00
1	 8.411512035130448e-01	 7.067256300486032e-01	-3.512782166775708e+00
1	 8.260448925515365e-01	 7.251566205548785e-01	-4.034074747747050e+00
1	 8.104360387738634e-01	 7.431442346047952e-01	-4.548574551815966e+00
1	 7.943324642870420e-01	 7.606766642744333e-01	-5.053069566757539e+00
1	 7.777428402308016e-01	 7.777428402308020e-01	-5.544411263901709e+00
1	 7.606766642744328e-01	 7.943324642870419e-01	-6.019538505633144e+00
1	 7.431442346047951e-01	 8.104360387738637e-01	-6.475500498550479e+00
1	 7.251566205548781e-01	 8.260448925515365e-01	-6.909478474150861e+00
1	 7.067256300486029e-01	 8.411512035130450e-01	-7.318805802998609e+00
1	 6.878637740620274e-01	 8.557480174567736e-01	-7.700986279094536e+00
1	 8.673124407251396e-01	 6.971594401587902e-01	-2.818226343320226e+00
1	 8.525183680892905e-01	 7.162761918413502e-01	-3.309783155594306e+00
1	 8.372079131854400e-01	 7.349562554057512e-01	-3.801435464350186e+00
1	 8.213881241930269e-01	 7.531869508048717e-01	-4.289963722529021e+00
1	 8.050669289256061e-01	 7.709563105446461e-01	-4.772157038068105e+00
1	 7.882531157031213e-01	 7.882531157031215e-01	-5.244837556849756e+00
1	 7.709563105446458e-01	 8.050669289256063e-01	-5.704884585060515e+00
1	 7.531869508048714e-01	 8.213881241930272e-01	-6.149258112349014e+00
1	 7.349562554057508e-01	 8.372079131854402e-01	-6.575021407095300e+00
1	 7.162761918413497e-01	 8.525183680892905e-01	-6.979362372640808e+00
1	 6.971594401587901e-01	 8.673124407251396e-01	-7.359613377980008e+00
1	 8.788768977236079e-01	 7.064551333673871e-01	-2.660938389146614e+00
1	 8.638855658202043e-01	 7.258267814893441e-01	-3.122939875150336e+00
1	 8.483709663784602e-01	 7.447559188383650e-01	-3.588114261799118e+00
1	 8.323402415559250e-01	 7.632296962957591e-01	-4.053295951908499e+00
1	 8.158014248730130e-01	 7.812359867968365e-01	-4.515302559536559e+00
1	 7.987634218302354e-01	 7.987634218302355e-01	-4.970958957816676e+00
1	 7.812359867968363e-01	 8.158014248730134e-01	-5.417121368520426e+00
1	 7.632296962957585e-01	 8.323402415559253e-01	-5.850701154642528e+00
1	 7.447559188383648e-01	 8.483709663784607e-01	-6.268687981447584e+00
1	 7.258267814893438e-01	 8.638855658202044e-01	-6.668172023324101e+00
1	 7.064551333673871e-01	 8.788768977236078e-01	-7.046364913116366e+00
1	 8.904413790074432e-01	 7.157508460963548e-01	-2.517968507522529e+00
1	 8.752527874221663e-01	 7.353773911929373e-01	-2.953640914254553e+00
1	 8.595340430137332e-01	 7.545556028496262e-01	-3.395032330956690e+00
1	 8.432923819180074e-01	 7.732724628757974e-01	-3.839052168652961e+00
1	 8.265359433624941e-01	 7.915156846357957e-01	-4.282572307731429e+00
1	 8.092737500285259e-01	 8.092737500285260e-01	-4.722450628380113e+00
1	 7.915156846357952e-01	 8.265359433624941e-01	-5.155554830124429e+00
1	 7.732724628757972e-01	 8.432923819180078e-01	-5.578786205173770e+00
1	 7.545556028496260e-01	 8.595340430137337e-01	-5.989103029662776e+00
1	 7.353773911929372e-01	 8.752527874221667e-01	-6.383543244040214e+00
1	 7.157508460963549e-01	 8.904413790074435e-01	-6.759246108622522e+00
1	 9.020058751319096e-01	 7.250465707542284e-01	-2.391104744470347e+00
1	 8.866200236115567e-01	 7.449280131524817e-01	-2.803203749433666e+00
1	 8.706971339743936e-01	 7.643552994364409e-01	-3.223063716029392e+00
1	 8.542445363347229e-01	 7.833152423433283e-01	-3.647688727482985e+00
1	 8.372704756272800e-01	 8.017953956663135e-01	-4.074029148443620e+00
1	 8.197840917143736e-01	 8.197840917143742e-01	-4.499004464095005e+00
1	 8.017953956663133e-01	 8.372704756272804e-01	-4.919526602326631e+00
1	 7.833152423433281e-01	 8.542445363347232e-01	-5.332523410473726e+00
1	 7.643552994364405e-01	 8.706971339743941e-01	-5.734961953712758e+00
1	 7.449280131524816e-01	 8.866200236115570e-01	-6.123871305508290e+00
1	 7.250465707542285e-01	 9.020058751319096e-01	-6.496364511448560e+00
1	 9.135703766522705e-01	 7.343422997495432e-01	-2.282044717954493e+00
1	 8.979872651047554e-01	 7.544786395683292e-01	-2.672879253789602e+00
1	 8.818602301435767e-01	 7.741550005957150e-01	-3.073038306821168e+00
1	 8.651966958615209e-01	 7.933580264966917e-01	-3.479638972817176e+00
1	 8.480050129006019e-01	 8.120751114931807e-01	-3.889732854537159e+00
1	 8.302944383041598e-01	 8.302944383041599e-01	-4.300328043517405e+00
1	 8.120751114931802e-01	 8.480050129006023e-01	-4.708411726924091e+00
1	 7.933580264966916e-01	 8.651966958615213e-01	-5.110973101039370e+00
1	 7.741550005957150e-01	 8.818602301435772e-01	-5.505026265679991e+00
1	 7.544786395683287e-01	 8.979872651047555e-01	-5.887632774144843e+00
1	 7.343422997495435e-01	 9.135703766522707e-01	-6.255923521137995e+00
1	 9.251348741237903e-01	 7.436380254908352e-01	-2.192401277641832e+00
1	 9.093545026181421e-01	 7.640292626408308e-01	-2.563855867965377e+00
1	 8.930233224044176e-01	 7.839546983243546e-01	-2.945744606748390e+00
1	 8.761488515538501e-01	 8.034008071342293e-01	-3.335314685267353e+00
1	 8.587395464156911e-01	 8.223548237211875e-01	-3.729740307474763e+00
1	 8.408047812142654e-01	 8.408047812142655e-01	-4.126143655989807e+00
1	 8.223548237211870e-01	 8.587395464156912e-01	-4.521616574597773e+00
1	 8.034008071342290e-01	 8.761488515538506e-01	-4.913242662021132e+00
1	 7.839546983243543e-01	 8.930233224044180e-01	-5.298119462540277e+00
1	 7.640292626408302e-01	 9.093545026181423e-01	-5.673380437157951e+00
1	 7.436380254908355e-01	 9.251348741237905e-01	-6.036216404470548e+00
1	 6.506815326226163e-01	 8.094908505790606e-01	-9.391607939332658e+00
1	 6.324441377108048e-01	 8.228109373437807e-01	-9.742456266260971e+00
1	 6.138246942277593e-01	 8.356384154163033e-01	-1.004744101766616e+01
1	 5.948368147295442e-01	 8.479692286694869e-01	-1.030735752963240e+01
1	 5.754946185800568e-01	 8.598001777972279e-01	-1.052386897562582e+01
1	 5.558126876982253e-01	 8.711289202812919e-01	-1.069946556675675e+01
1	 5.358060209788079e-01	 8.819539668184722e-01	-1.083741523340228e+01
1	 5.154899876712745e-01	 8.922746742864820e-01	-1.094170684692168e+01
1	 4.948802800036430e-01	 9.020912353519670e-01	-1.101698713307275e+01
1	 4.739928653376368e-01	 9.114046648473878e-01	-1.106849249070244e+01
1	 4.528439381382665e-01	 9.202167830650881e-01	-1.110197696040295e+01
1	 6.599770143573943e-01	 8.210550444796544e-01	-8.915485372313785e+00
1	 6.414790843554309e-01	 8.345654188377986e-01	-9.266990400875663e+00
1	 6.225936479267378e-01	 8.475761472133476e-01	-9.579333295338095e+00
1	 6.033345120932594e-01	 8.600831155342663e-01	-9.852827490229776e+00
1	 5.837159979249100e-01	 8.720830787899015e-01	-1.008853066263841e+01
1	 5.637528956545833e-01	 8.835736609973346e-01	-1.028821231994313e+01
1	 5.434604184478211e-01	 8.945533515775020e-01	-1.045431399036223e+01
1	 5.228541551156736e-01	 9.050214982206022e-01	-1.058990289405777e+01
1	 5.019500220617310e-01	 9.149782963456434e-01	-1.069862005551530e+01
1	 4.807642147537830e-01	 9.244247752827184e-01	-1.078462387479921e+01
1	 4.593131590072458e-01	 9.333627813284101e-01	-1.085253020602321e+01
1	 6.692725535698655e-01	 8.326193098892952e-01	-8.476638700143544e+00
1	 6.505140868668492e-01	 8.463199730175580e-01	-8.829527936051026e+00
1	 6.313626558479827e-01	 8.595139528291983e-01	-9.149190325537997e+00
1	 6.118322620022574e-01	 8.721970773069458e-01	-9.435508791689209e+00
1	 5.919374281068147e-01	 8.843660557353294e-01	-9.688998600409173e+00
1	 5.716931527097676e-01	 8.960184786665553e-01	-9.910782519885569e+00
1	 5.511148632487294e-01	 9.071528142455881e-01	-1.010255960068210e+01
1	 5.302183680976538e-01	 9.177684009750672e-01	-1.026656829036462e+01
1	 5.090198078370561e-01	 9.278654370263989e-01	-1.040554467052279e+01
1	 4.875356060421670e-01	 9.374449662274114e-01	-1.052267665629011e+01
1	 4.657824198802068e-01	 9.465088608791018e-01	-1.062155502881376e+01
1	 6.785681426685646e-01	 8.441836373632471e-01	-8.072587716745506e+00
1	 6.595491378663686e-01	 8.580745902829160e-01	-8.427256142003040e+00
1	 6.401317108300179e-01	 8.714518225140712e-01	-8.753940042590449e+00
1	 6.203300575165623e-01	 8.843111040939093e-01	-9.052140642057598e+00
1	 6.001589024114220e-01	 8.966490986019068e-01	-9.321890877259312e+00
1	 5.796334523790159e-01	 9.084633631252296e-01	-9.563737344104938e+00
1	 5.587693491301475e-01	 9.197523445327686e-01	-9.778716781310647e+00
1	 5.375826206028216e-01	 9.305153721395665e-01	-9.968327658801417e+00
1	 5.160896315556502e-01	 9.407526468694557e-01	-1.013449750321390e+01
1	 4.943070336725011e-01	 9.504652270480891e-01	-1.027954664096966e+01
1	 4.722517154736102e-01	 9.596550109810310e-01	-1.040614906935571e+01
1	 6.878637740620274e-01	 8.557480174567736e-01	-7.700986279094536e+00
1	 6.685842299752985e-01	 8.698292610337308e-01	-8.057514316583749e+00
1	 6.489008057113668e-01	 8.833897465181827e-01	-8.390676417234406e+00
1	 6.288278916961991e-01	 8.964251860015403e-01	-8.699638478183484e+00
1	 6.083804141243839e-01	 9.089321973580301e-01	-8.984008348706464e+00
1	 5.875737881775670e-01	 9.209083042096341e-01	-9.243823805462833e+00
1	 5.664238698406903e-01	 9.323519321490821e-01	-9.479535885704136e+00
1	 5.449469066167815e-01	 9.432624013037897e-01	-9.691988013877165e+00
1	 5.231594874435456e-01	 9.536399153500364e-01	-9.882391415538692e+00
1	 5.010784921144974e-01	 9.634855471113758e-01	-1.005229735672217e+01
1	 4.787210405039172e-01	 9.728012208980670e-01	-1.020356677647738e+01
1	 6.971594401587901e-01	 8.673124407251396e-01	-7.359613377980008e+00
1	 6.776193558149488e-01	 8.815839756698589e-01	-7.717783657995716e+00
1	 6.576699333305539e-01	 8.953277150917490e-01	-8.056648394874820e+00
1	 6.373257576011925e-01	 9.085393131362224e-01	-8.375082223809951e+00
1	 6.166019565313520e-01	 9.212153419720943e-01	-8.672322458892172e+00
1	 5.955141536206586e-01	 9.333532917560440e-01	-8.947962368185339e+00
1	 5.740784191289717e-01	 9.449515668045674e-01	-9.201940532179838e+00
1	 5.523112201251401e-01	 9.560094780574260e-01	-9.434526605365129e+00
1	 5.302293697267740e-01	 9.665272319433633e-01	-9.646303852656224e+00
1	 5.078499758378680e-01	 9.765059157838943e-01	-9.838148873241984e+00
1	 4.851903896875877e-01	 9.859474798940765e-01	-1.001120895363039e+01
1	 7.064551333673871e-01	 8.788768977236078e-01	-7.046364913116366e+00
1	 6.866545080066282e-01	 8.933387245911584e-01	-7.405677936357968e+00
1	 6.664390865261031e-01	 9.072657184849857e-01	-7.749249706396854e+00
1	 6.458236482915671e-01	 9.206534756043400e-01	-8.075705473881957e+00
1	 6.248235229179774e-01	 9.334985224124955e-01	-8.383964022667509e+00
1	 6.034545422235295e-01	 9.457983156007354e-01	-8.673235540748417e+00
1	 5.817329907436075e-01	 9.575512382092632e-01	-8.943016208157552e+00
1	 5.596755551135026e-01	 9.687565919901651e-01	-9.193079720918437e+00
1	 5.372992726313677e-01	 9.794145861246583e-01	-9.423466016449566e+00
1	 5.146214793123248e-01	 9.895263224322677e-01	-9.634467503664016e+00
1	 4.916597577410830e-01	 9.990937772329286e-01	-9.826613129857638e+00
1	 7.157508460963549e-01	 8.904413790074435e-01	-6.759246108622522e+00
1	 6.956896791716466e-01	 9.050934981974866e-01	-7.118934891559192e+00
1	 6.752082581365383e-01	 9.192037469481085e-01	-7.466009472284219e+00
1	 6.543215568273478e-01	 9.327676635122771e-01	-7.798885520934850e+00
1	 6.330451065699109e-01	 9.457817286476290e-01	-8.116212881077002e+00
1	 6.113949475014181e-01	 9.582433655799836e-01	-8.416877356890881e+00
1	 5.893875784332121e-01	 9.701509360732092e-01	-8.699999761644666e+00
1	 5.670399055674743e-01	 9.815037326916953e-01	-8.964932360483804e+00
1	 5.443691903833591e-01	 9.923019673691438e-01	-9.211252881962551e+00
1	 5.213929970075799e-01	 1.002546756423119e+00	-9.438756307999766e+00
1	 4.981291393808635e-01	 1.012240102178491e+00	-9.647444680452315e+00
1	 7.250465707542285e-01	 9.020058751319096e-01	-6.496364511448560e+00
1	 7.047248619313127e-01	 9.168482868887010e-01	-6.855408292273712e+00
1	 6.839774410003833e-01	 9.311417907313339e-01	-7.204583528905439e+00
1	 6.628194762685597e-01	 9.448818669664175e-01	-7.542134148056453e+00
1	 6.412667007728051e-01	 9.580649506458917e-01	-7.866488351922772e+00
1	 6.193353629695627e-01	 9.706884315300651e-01	-8.176263665118480e+00
1	 5.970421759463996e-01	 9.827506501064432e-01	-8.470269700407364e+00
1	 5.744042654726613e-01	 9.942508897517068e-01	-8.747508704341206e+00
1	 5.514391172087798e-01	 1.005189365152043e+00	-9.007173981174013e+00
1	 5.281645233933456e-01	 1.015567207123073e+00	-9.248646326478287e+00
1	 5.045985293233903e-01	 1.025386443994631e+00	-9.471488630083201e+00
1	 7.343422997495435e-01	 9.135703766522707e-01	-6.255923521137995e+00
1	 7.137600489069367e-01	 9.286030810646588e-01	-6.613060597602055e+00
1	 6.927466279561619e-01	 9.430798400848776e-01	-6.962746413031184e+00
1	 6.713173996752266e-01	 9.569960760731446e-01	-7.303089120552287e+00
1	 6.494882988123111e-01	 9.703481783756774e-01	-7.632340405016101e+00
1	 6.272757821432012e-01	 9.831335032872551e-01	-7.948903155116929e+00
1	 6.046967770317851e-01	 9.953503700190042e-01	-8.251337227317400e+00
1	 5.817686288146687e-01	 1.006998052759889e+00	-8.538363304504141e+00
1	 5.585090473336621e-01	 1.018076768948577e+00	-8.808864886171873e+00
1	 5.349360529393340e-01	 1.028587663898750e+00	-9.061888478171454e+00
1	 5.110679222851237e-01	 1.038532791945217e+00	-9.296642077963485e+00
1	 7.436380254908355e-01	 9.251348741237905e-01	-6.036216404470548e+00
1	 7.227952327198275e-01	 9.403578711252182e-01	-6.389956168649983e+00
1	 7.015158118423985e-01	 9.550178852589556e-01	-6.738383947033190e+00
1	 6.798153201073739e-01	 9.691102809388428e-01	-7.079506315226457e+00
1	 6.577098939740799e-01	 9.826314018053828e-01	-7.411441498756553e+00
1	 6.352161985375724e-01	 9.955785706878293e-01	-7.732429056647080e+00
1	 6.123513754379838e-01	 1.007950085520931e+00	-8.040837947510608e+00
1	 5.891329895791025e-01	 1.019745211305930e+00	-8.335172936236804e+00
1	 5.655789749840383e-01	 1.030964168233969e+00	-8.614079330578866e+00
1	 5.417075801152568e-01	 1.041608116116776e+00	-8.876346066735822e+00
1	 5.175373129825247e-01	 1.051679135294118e+00	-9.120907190677409e+00
1	 4.528439381382665e-01	 9.202167830650881e-01	-1.110197696040295e+01
1	 4.314513768232033e-01	 9.285296325490469e-01	-1.112257282004457e+01
1	 4.098302069345520e-01	 9.363472213109786e-01	-1.113187350141079e+01
1	 3.879970091915094e-01	 9.436736622717951e-01	-1.113083258558145e+01
1	 3.659684029576717e-01	 9.505137794457966e-01	-1.112061310407024e+01
1	 3.437610012650071e-01	 9.568730786461752e-01	-1.110256557777616e+01
1	 3.213913671440240e-01	 9.627577163271481e-01	-1.107820535205216e+01
1	 2.988759714563226e-01	 9.681744667976357e-01	-1.104918958421947e+01
1	 2.762311524069802e-01	 9.731306880439857e-01	-1.101729421725699e+01
1	 2.534730768946626e-01	 9.776342863994822e-01	-1.098439124601324e+01
1	 2.306177038372821e-01	 9.816936802964242e-01	-1.095242655129920e+01
1	 4.593131590072458e-01	 9.333627813284101e-01	-1.085253020602321e+01
1	 4.376149886466910e-01	 9.417943862059641e-01	-1.090590684357418e+01
1	 4.156849438654171e-01	 9.497236551845435e-01	-1.094563948253031e+01
1	 3.935398422506571e-01	 9.571547599412135e-01	-1.097278725110794e+01
1	 3.711965405861093e-01	 9.640925934049352e-01	-1.098862249465564e+01
1	 3.486718892333965e-01	 9.705427400435856e-01	-1.099460767964237e+01
1	 3.259826878383746e-01	 9.765114442609666e-01	-1.099237165376609e+01
1	 3.031456425612923e-01	 9.820055771421120e-01	-1.098368562923986e+01
1	 2.801773250107800e-01	 9.870326017877615e-01	-1.097043923155941e+01
1	 2.570941330418183e-01	 9.916005374791478e-01	-1.095461692654845e+01
1	 2.339122535574748e-01	 9.957179229122425e-01	-1.093827510543464e+01
1	 4.657824198802068e-01	 9.465088608791018e-01	-1.062155502881376e+01
1	 4.437786385842050e-01	 9.550592218841775e-01	-1.070446620194505e+01
1	 4.215397170000070e-01	 9.631001717696162e-01	-1.077176985165873e+01
1	 3.990827095843820e-01	 9.706359409690051e-01	-1.082459452785307e+01
1	 3.764247105426354e-01	 9.776714913264067e-01	-1.086428422426227e+01
1	 3.535828075675455e-01	 9.842124859648724e-01	-1.089237452248357e+01
1	 3.305740369218143e-01	 9.902652572383446e-01	-1.091056814048558e+01
1	 3.074153400658280e-01	 9.958367730085771e-01	-1.092071025929373e+01
1	 2.841235220132461e-01	 1.000934601491359e+00	-1.092476397523492e+01
1	 2.607152115768244e-01	 1.005566874916577e+00	-1.092478619410002e+01
1	 2.372068236462269e-01	 1.009742252244628e+00	-1.092290424909895e+01
1	 4.722517154736102e-01	 9.596550109810310e-01	-1.040614906935570e+01
1	 4.499423216018179e-01	 9.683241287506192e-01	-1.051556174048012e+01
1	 4.273945215566904e-01	 9.764767601419596e-01	-1.060777342476928e+01
1	 4.046256066658366e-01	 9.841171943454887e-01	-1.068394785329580e+01
1	 3.816529085574754e-01	 9.912504621207464e-01	-1.074546489960360e+01
1	 3.584937522568462e-01	 9.978823052463918e-01	-1.079389632695632e+01
1	 3.351654106447973e-01	 1.004019144026986e+00	-1.083098097749602e+01
1	 3.116850604831456e-01	 1.009668043101530e+00	-1.085859977964707e+01
1	 2.880697401918619e-01	 1.014836675801436e+00	-1.087875092279564e+01
1	 2.643363095427450e-01	 1.019533287305854e+00	-1.089352551633338e+01
1	 2.405014114133076e-01	 1.023766656840262e+00	-1.090508401481771e+01
1	 4.787210405039172e-01	 9.728012208980670e-01	-1.020356677647738e+01
1	 4.561060326656015e-01	 9.815890959722186e-01	-1.033664958547630e+01
1	 4.332493527538352e-01	 9.898534093773371e-01	-1.045129359604464e+01
1	 4.101685289681732e-01	 9.975985090609815e-01	-1.054866526288239e+01
1	 3.868811303608555e-01	 1.004829494698492e+00	-1.063014636500557e+01
1	 3.634047192906908e-01	 1.011552186724500e+00	-1.069730970821537e+01
1	 3.397568052577777e-01	 1.017773093394594e+00	-1.075189429665228e+01
1	 3.159548003264608e-01	 1.023499376125470e+00	-1.079578034848427e+01
1	 2.920159763241100e-01	 1.028738813364647e+00	-1.083096450305368e+01
1	 2.679574239826443e-01	 1.033499763241064e+00	-1.085953553450495e+01
1	 2.437960141684862e-01	 1.037791125245829e+00	-1.088365085131583e+01
1	 4.851903896875877e-01	 9.859474798940765e-01	-1.001120895363039e+01
1	 4.622697667416281e-01	 9.948541127159070e-01	-1.016532145822906e+01
1	 4.391042058098099e-01	 1.003230108551511e+00	-1.030009936470674e+01
1	 4.157114719645438e-01	 1.011079874105801e+00	-1.041668108160862e+01
1	 3.921093716830018e-01	 1.018408577970179e+00	-1.051641801751766e+01
1	 3.683157046584720e-01	 1.025222119235553e+00	-1.060085058016269e+01
1	 3.443482170112096e-01	 1.031527094108872e+00	-1.067168366216398e+01
1	 3.202245561089890e-01	 1.037330760784897e+00	-1.073076198334628e+01
1	 2.959622271874740e-01	 1.042641002827651e+00	-1.078004563193057e+01
1	 2.715785519395862e-01	 1.047466291316291e+00	-1.082158611482354e+01
1	 2.470906292215318e-01	 1.051815646008011e+00	-1.085750319190621e+01
1	 4.916597577410830e-01	 9.990937772329286e-01	-9.826613129857638e+00
1	 4.684335187959697e-01	 1.008119168148615e+00	-9.999295753095433e+00
1	 4.449590759429830e-01	 1.016606846740247e+00	-1.015207706965883e+01
1	 4.212544311281008e-01	 1.024561278470266e+00	-1.028603827097690e+01
1	 3.973376282541404e-01	 1.031987700846347e+00	-1.040246972821498e+01
1	 3.732267043495814e-01	 1.038892091615907e+00	-1.050284761941433e+01
1	 3.489396421555473e-01	 1.045281134937523e+00	-1.058881005180640e+01
1	 3.244943243439466e-01	 1.051162185784308e+00	-1.066213304034602e+01
1	 2.999084895594364e-01	 1.056543232837103e+00	-1.072470667652335e+01
1	 2.751996904566350e-01	 1.061432860125619e+00	-1.077851179016488e+01
1	 2.503852538822138e-01	 1.065840207673492e+00	-1.082559737244856e+01
1	 4.981291393808635e-01	 1.012240102178491e+00	-9.647444680452313e+00
1	 4.745972837946981e-01	 1.021384251437272e+00	-9.836409310195167e+00
1	 4.508139583717224e-01	 1.029983613019306e+00	-1.000522276764620e+01
1	 4.267974019319963e-01	 1.038042711144692e+00	-1.015488137179948e+01
1	 4.025658958044973e-01	 1.045566852237530e+00	-1.028658531462837e+01
1	 3.781377143534123e-01	 1.052562092701918e+00	-1.040171623814667e+01
1	 3.535310769412447e-01	 1.059035204648252e+00	-1.050181430673771e+01
1	 3.287641015445488e-01	 1.064993639828203e+00	-1.058855512321763e+01
1	 3.038547602174806e-01	 1.070445492039662e+00	-1.066372681125434e+01
1	 2.788208365768544e-01	 1.075399458263132e+00	-1.072920755668167e+01
1	 2.536798854603012e-01	 1.079864798788953e+00	-1.078694386712398e+01
1	 5.045985293233903e-01	 1.025386443994631e+00	-9.471488630083201e+00
1	 4.807610567038857e-01	 1.034649351748811e+00	-9.674609820462292e+00
1	 4.566688483143969e-01	 1.043360396464453e+00	-9.857635197231048e+00
1	 4.323403798493825e-01	 1.051524161119399e+00	-1.002144998941726e+01
1	 4.077941700642985e-01	 1.059146021054265e+00	-1.016713651488375e+01
1	 3.830487306593562e-01	 1.066232111329943e+00	-1.029595302018826e+01
1	 3.581225176187561e-01	 1.072789292008759e+00	-1.040931200790235e+01
1	 3.330338842240117e-01	 1.078825111621081e+00	-1.050875838365497e+01
1	 3.078010359390897e-01	 1.084347769081983e+00	-1.059594773094740e+01
1	 2.824419873433090e-01	 1.089366074322916e+00	-1.067262499348609e+01
1	 2.569745212655634e-01	 1.093889407901079e+00	-1.074060381352780e+01
1	 5.110679222851237e-01	 1.038532791945217e+00	-9.296642077963485e+00
1	 4.869248324896047e-01	 1.047914458250161e+00	-9.511948807061229e+00
1	 4.625237409893745e-01	 1.056737186151450e+00	-9.707509276716902e+00
1	 4.378833603534112e-01	 1.065005617384702e+00	-9.884072773311383e+00
1	 4.130224467637700e-01	 1.072725196207091e+00	-1.004257741913044e+01
1	 3.879597492568058e-01	 1.079902136336336e+00	-1.018413057934468e+01
1	 3.627139604385357e-01	 1.086543385786751e+00	-1.030998874125342e+01
1	 3.373036688955508e-01	 1.092656589867441e+00	-1.042153717829762e+01
1	 3.117473135017467e-01	 1.098250052610725e+00	-1.052026968922884e+01
1	 2.860631397990623e-01	 1.103332696899054e+00	-1.060776867680008e+01
1	 2.602691586077694e-01	 1.107914023556551e+00	-1.068568580146515e+01
1	 5.175373129825247e-01	 1.051679135294118e+00	-9.120907190677409e+00
1	 4.930886061179270e-01	 1.061179560108253e+00	-9.346575132775083e+00
1	 4.683786316150236e-01	 1.070113971156061e+00	-9.553130089337362e+00
1	 4.434263389172353e-01	 1.078487068930921e+00	-9.741161847881807e+00
1	 4.182507216331380e-01	 1.086304366606542e+00	-9.911439318277715e+00
1	 3.928707661351534e-01	 1.093572156557455e+00	-1.006489280304011e+01
1	 3.673054016510371e-01	 1.100297474749929e+00	-1.020259571779845e+01
1	 3.415734520723819e-01	 1.106488063271783e+00	-1.032574605118136e+01
1	 3.156935896829346e-01	 1.112152331272543e+00	-1.043564783380973e+01
1	 2.896842909871788e-01	 1.117299314585631e+00	-1.053369286282919e+01
1	 2.635637947966888e-01	 1.121938634302054e+00	-1.062134290239340e+01
1	 2.306177038372821e-01	 9.816936802964242e-01	-1.095242655129920e+01
1	 2.076791456684508e-01	 9.853180020131134e-01	-1.092365007471084e+01
1	 1.846744644584667e-01	 9.885162853320296e-01	-1.089895653537062e+01
1	 1.616188232546627e-01	 9.912982639881665e-01	-1.087823957347376e+01
1	 1.385270506335802e-01	 9.936740343365396e-01	-1.086132500023789e+01
1	 1.154136152499789e-01	 9.956540178012000e-01	-1.084797838924835e+01
1	 9.229260277661536e-02	 9.972489236794971e-01	-1.083791256817955e+01
1	 6.917769523648026e-02	 9.984697124756582e-01	-1.083079492738509e+01
1	 4.608215271279750e-02	 9.993275599243346e-01	-1.082625447383379e+01
1	 2.301879740688172e-02	 9.998338218507749e-01	-1.082388857068410e+01
1	 0.000000000000000e+00	 1.000000000000000e+00	-1.082326931419854e+01
1	 2.339122535574748e-01	 9.957179229122425e-01	-1.093827510543464e+01
1	 2.106460005981401e-01	 9.993940208268849e-01	-1.092317100066362e+01
1	 1.873126799789159e-01	 1.002637994060108e+00	-1.090977782534313e+01
1	 1.639276713629985e-01	 1.005459715400836e+00	-1.089822027585101e+01
1	 1.405060151646193e-01	 1.007869425438318e+00	-1.088856937506612e+01
1	 1.170623867344659e-01	 1.009877694474696e+00	-1.088084706993577e+01
1	 9.361107297002917e-02	 1.011495384797892e+00	-1.087503088242014e+01
1	 7.016595135258435e-02	 1.012733613491392e+00	-1.087105854989523e+01
1	 4.674047139590386e-02	 1.013603715943827e+00	-1.086883259843351e+01
1	 2.334763847636898e-02	 1.014117210207157e+00	-1.086822479985104e+01
1	 0.000000000000000e+00	 1.014285762337685e+00	-1.086908047080989e+01
1	 2.372068236462269e-01	 1.009742252244628e+00	-1.092290424909895e+01
1	 2.136128738698931e-01	 1.013470126677695e+00	-1.092044490592176e+01
1	 1.899509118092326e-01	 1.016759790108138e+00	-1.091753073291492e+01
1	 1.662365337446358e-01	 1.019621254379648e+00	-1.091449027455866e+01
1	 1.424849919293242e-01	 1.022064904316569e+00	-1.091161167135575e+01
1	 1.187111684111829e-01	 1.024101459100028e+00	-1.090914452981525e+01
1	 9.492955131367173e-02	 1.025741934009444e+00	-1.090730198214355e+01
1	 7.115421357755045e-02	 1.026997602708497e+00	-1.090626288991786e+01
1	 4.739879414830253e-02	 1.027879960240767e+00	-1.090617414912587e+01
1	 2.367648157849975e-02	 1.028400686885902e+00	-1.090715305744700e+01
1	 0.000000000000000e+00	 1.028571613012482e+00	-1.090928970839814e+01
1	 2.405014114133076e-01	 1.023766656840262e+00	-1.090508401481772e+01
1	 2.165797630611406e-01	 1.027546308069888e+00	-1.091437773773214e+01
1	 1.925891577952661e-01	 1.030881661943092e+00	-1.092124200333217e+01
1	 1.685454085144206e-01	 1.033782869359052e+00	-1.092618338196105e+01
1	 1.444639793119431e-01	 1.036260459377960e+00	-1.092968043512159e+01
1	 1.203599589340152e-01	 1.038325300060698e+00	-1.093218311554919e+01
1	 9.624803673113642e-02	 1.039988559678984e+00	-1.093411247732064e+01
1	 7.214248110458996e-02	 1.041261668477513e+00	-1.093586066710025e+01
1	 4.805712043257780e-02	 1.042156281155644e+00	-1.093779116689954e+01
1	 2.400532644483619e-02	 1.042684240221567e+00	-1.094023925861382e+01
1	 0.000000000000000e+00	 1.042857540357000e+00	-1.094351268101833e+01
1	 2.437960141684862e-01	 1.037791125245829e+00	-1.088365085131583e+01
1	 2.195466657493138e-01	 1.041622553507811e+00	-1.090393451568174e+01
1	 1.952274157828656e-01	 1.045003598031943e+00	-1.091999092735907e+01
1	 1.708542937871995e-01	 1.047944548773499e+00	-1.093248017121504e+01
1	 1.464429756967243e-01	 1.050456079029154e+00	-1.094204585497712e+01
1	 1.220087569568486e-01	 1.052549205740208e+00	-1.094931228900577e+01
1	 9.756652814601643e-02	 1.054235250171347e+00	-1.095488208106473e+01
1	 7.313075312691415e-02	 1.055525799148979e+00	-1.095933413267170e+01
1	 4.871544971131398e-02	 1.056432667028950e+00	-1.096322201943781e+01
1	 2.433417280694042e-02	 1.056967858548713e+00	-1.096707273444715e+01
1	 0.000000000000000e+00	 1.057143532703853e+00	-1.097138577114079e+01
1	 2.470906292215318e-01	 1.051815646008011e+00	-1.085750319190621e+01
1	 2.225135795118439e-01	 1.055698851495811e+00	-1.088813538957928e+01
1	 1.978656836178807e-01	 1.059125586841663e+00	-1.091290583422034e+01
1	 1.731631876778185e-01	 1.062106281057438e+00	-1.093260485483513e+01
1	 1.484219794679158e-01	 1.064651751676819e+00	-1.094801698191413e+01
1	 1.236575611335684e-01	 1.066773164522058e+00	-1.095991614888584e+01
1	 9.888502448190516e-02	 1.068481993851369e+00	-1.096906139876214e+01
1	 7.411902883773439e-02	 1.069789983073437e+00	-1.097619309671581e+01
1	 4.937378144709543e-02	 1.070709106201178e+00	-1.098202964208472e+01
1	 2.466302039637459e-02	 1.071251530201898e+00	-1.098726466703817e+01
1	 0.000000000000000e+00	 1.071429578385649e+00	-1.099256470386992e+01
1	 2.503852538822138e-01	 1.065840207673492e+00	-1.082559737244856e+01
1	 2.254805019261618e-01	 1.069775190538234e+00	-1.086605200829262e+01
1	 2.005039591461607e-01	 1.073247616839224e+00	-1.089916086118448e+01
1	 1.754720883011241e-01	 1.076268054645321e+00	-1.092582240948147e+01
1	 1.504009890097659e-01	 1.078847465727620e+00	-1.094693916838910e+01
1	 1.253063701180602e-01	 1.080997164789749e+00	-1.096341114784587e+01
1	 1.002035246623959e-01	 1.082728779083882e+00	-1.097612989159731e+01
1	 7.510730743026205e-02	 1.084054208601425e+00	-1.098597311105249e+01
1	 5.003211510250640e-02	 1.084985587012820e+00	-1.099379991756484e+01
1	 2.499186894470083e-02	 1.085535243515682e+00	-1.100044664795893e+01
1	 0.000000000000000e+00	 1.085715665735001e+00	-1.100672327047437e+01
1	 2.536798854603012e-01	 1.079864798788953e+00	-1.078694386712398e+01
1	 2.284474305696987e-01	 1.083851559139426e+00	-1.083680417129968e+01
1	 2.031422402135546e-01	 1.087369676491597e+00	-1.087797297465760e+01
1	 1.777809937719622e-01	 1.090429857971597e+00	-1.091143592460325e+01
1	 1.523800027065227e-01	 1.093043209588223e+00	-1.093819170679485e+01
1	 1.269551825642095e-01	 1.095221194926783e+00	-1.095924398735900e+01
1	 1.015220276110820e-01	 1.096975594233721e+00	-1.097559399863270e+01
1	 7.609558809770840e-02	 1.098318464083486e+00	-1.098823379359580e+01
1	 5.069045014013127e-02	 1.099262097804365e+00	-1.099814018185397e+01
1	 2.532071818348128e-02	 1.099818986824623e+00	-1.100626934898110e+01
1	 0.000000000000000e+00	 1.100001783084519e+00	-1.101355215129950e+01
1	 2.569745212655634e-01	 1.093889407901079e+00	-1.074060381352780e+01
1	 2.314143630198855e-01	 1.097927945803735e+00	-1.079955673760054e+01
1	 2.057805246659121e-01	 1.101491754265755e+00	-1.084859922023599e+01
1	 1.800899022051794e-01	 1.104591679470715e+00	-1.088878415486468e+01
1	 1.543590189424344e-01	 1.107238971665294e+00	-1.092118564943883e+01
1	 1.286039971259017e-01	 1.109445243316661e+00	-1.094688967437698e+01
1	 1.028405322515567e-01	 1.111222427665721e+00	-1.096698540322483e+01
1	 7.708387003328478e-02	 1.112582737870157e+00	-1.098255728150125e+01
1	 5.134878602255434e-02	 1.113538626916308e+00	-1.099467784488798e+01
1	 2.564956784427809e-02	 1.114102748463282e+00	-1.100440129496179e+01
1	 0.000000000000000e+00	 1.114287918766816e+00	-1.101275782915019e+01
1	 2.602691586077694e-01	 1.107914023556551e+00	-1.068568580146515e+01
1	 2.343812968541535e-01	 1.112004339035504e+00	-1.075351676920425e+01
1	 2.084188103490823e-01	 1.115613838628670e+00	-1.081033418144546e+01
1	 1.823988117156219e-01	 1.118753507577126e+00	-1.085723925831215e+01
1	 1.563380361017490e-01	 1.121434740365498e+00	-1.089536179395809e+01
1	 1.302528124570224e-01	 1.123669298342884e+00	-1.092584972546694e+01
1	 1.041590375074133e-01	 1.125469267744714e+00	-1.094985943099787e+01
1	 7.807215243020260e-02	 1.126847018311981e+00	-1.096854680169979e+01
1	 5.200712221235990e-02	 1.127815162689139e+00	-1.098305911594215e+01
1	 2.597841765865338e-02	 1.128386516766216e+00	-1.099452772985268e+01
1	 0.000000000000000e+00	 1.128574061114501e+00	-1.100406158513431e+01
1	 2.635637947966888e-01	 1.121938634302054e+00	-1.062134290239340e+01
1	 2.373482296499335e-01	 1.126080727339082e+00	-1.069793088868345e+01
1	 2.110570951089145e-01	 1.129735918047314e+00	-1.076250762892218e+01
1	 1.847077204181358e-01	 1.132915330725281e+00	-1.081620470404219e+01
1	 1.583170525687149e-01	 1.135630504095502e+00	-1.086018881970675e+01
1	 1.319016272114572e-01	 1.137893348388953e+00	-1.089565050553007e+01
1	 1.054775423022452e-01	 1.139716102835537e+00	-1.092379356787250e+01
1	 7.906043448167313e-02	 1.141111293759497e+00	-1.094582534855558e+01
1	 5.266545817213228e-02	 1.142091693463350e+00	-1.096294782453097e+01
1	 2.630726735816929e-02	 1.142670280067985e+00	-1.097634956768978e+01
1	 0.000000000000000e+00	 1.142860198460186e+00	-1.098719856975716e+01
1	 1.142860198460186e+00	 0.000000000000000e+00	 4.501251467996907e+00
1	 1.142670280067985e+00	 2.630726735816965e-02	 4.486074512440962e+00
1	 1.142091693463350e+00	 5.266545817213261e-02	 4.459290022978234e+00
1	 1.141111293759497e+00	 7.906043448167339e-02	 4.419694488977244e+00
1	 1.139716102835537e+00	 1.054775423022454e-01	 4.366072338879586e+00
1	 1.137893348388953e+00	 1.319016272114574e-01	 4.297202068494470e+00
1	 1.135630504095502e+00	 1.583170525687151e-01	 4.211863019770083e+00
1	 1.132915330725281e+00	 1.847077204181359e-01	 4.108842802466915e+00
1	 1.129735918047314e+00	 2.110570951089146e-01	 3.986945340515851e+00
1	 1.126080727339082e+00	 2.373482296499335e-01	 3.844999513067057e+00
1	 1.121938634302054e+00	 2.635637947966888e-01	 3.681868347433142e+00
1	 1.157145321350848e+00	 0.000000000000000e+00	 4.265673358308373e+00
1	 1.156953029083323e+00	 2.663609370653390e-02	 4.249401511511687e+00
1	 1.156367210464742e+00	 5.332374738429320e-02	 4.222103131418401e+00
1	 1.155374556304495e+00	 8.004864635632550e-02	 4.182565104223428e+00
1	 1.153961926262349e+00	 1.067959534713262e-01	 4.129566957924681e+00
1	 1.152116388389058e+00	 1.335503248849476e-01	 4.061887696718045e+00
1	 1.149825259788246e+00	 1.602959285071759e-01	 3.978313305547429e+00
1	 1.147076148246399e+00	 1.870164651665215e-01	 3.877644909630574e+00
1	 1.143856994661234e+00	 2.136951925256247e-01	 3.758707561944113e+00
1	 1.140156116082579e+00	 2.403149517652857e-01	 3.620359618690323e+00
1	 1.135962249164317e+00	 2.668581970349608e-01	 3.461502648822268e+00
1	 1.171430429241259e+00	 0.000000000000000e+00	 4.041824679402506e+00
1	 1.171235763100916e+00	 2.696491970997891e-02	 4.024697570925539e+00
1	 1.170642712476017e+00	 5.398203590584637e-02	 3.997118645726818e+00
1	 1.169637803872298e+00	 8.103685719410998e-02	 3.957873129583684e+00
1	 1.168207734730349e+00	 1.081143632569114e-01	 3.905743093960930e+00
1	 1.166339413454362e+00	 1.351990208281577e-01	 3.839514877026045e+00
1	 1.164020000575990e+00	 1.622748023686339e-01	 3.757987188506654e+00
1	 1.161236950898263e+00	 1.893252074914670e-01	 3.659979876564700e+00
1	 1.157978056447746e+00	 2.163332871729747e-01	 3.544343322032797e+00
1	 1.154231490046761e+00	 2.432816707661114e-01	 3.409968411420429e+00
1	 1.149985849301752e+00	 2.701525958145355e-01	 3.255797025217602e+00
1	 1.185715523798227e+00	 0.000000000000000e+00	 3.829013993006855e+00
1	 1.185518483787291e+00	 2.729374540682903e-02	 3.811255095170613e+00
1	 1.184918201162855e+00	 5.464032381352620e-02	 3.783606777731525e+00
1	 1.183901038127150e+00	 8.202506711023397e-02	 3.744860085465294e+00
1	 1.182453529901738e+00	 1.094327718127217e-01	 3.693806620271802e+00
1	 1.180562425244395e+00	 1.368477152333390e-01	 3.629246432608973e+00
1	 1.178214728114948e+00	 1.642536743838632e-01	 3.549996604696576e+00
1	 1.175397740333110e+00	 1.916339476622378e-01	 3.454900497961253e+00
1	 1.172099105054432e+00	 2.189713793586628e-01	 3.342837623570461e+00
1	 1.168306850873861e+00	 2.462483869984567e-01	 3.212734080191098e+00
1	 1.164009436350526e+00	 2.734469915196950e-01	 3.063573487496734e+00
1	 1.200000606688556e+00	 0.000000000000000e+00	 3.626582789152587e+00
1	 1.199801192808974e+00	 2.762257083540859e-02	 3.608400186379285e+00
1	 1.199193678190934e+00	 5.529861118406665e-02	 3.580872493651592e+00
1	 1.198164260733292e+00	 8.301327621990451e-02	 3.542803612879470e+00
1	 1.196699313438714e+00	 1.107511792924778e-01	 3.493001228179467e+00
1	 1.194785425418687e+00	 1.384964082927426e-01	 3.430285054647833e+00
1	 1.192409444061335e+00	 1.662325447836382e-01	 3.353495781292879e+00
1	 1.189558518203180e+00	 1.939426859480992e-01	 3.261504675822416e+00
1	 1.186220142128876e+00	 2.216094693903864e-01	 3.153223804757038e+00
1	 1.182382200206109e+00	 2.492151008083671e-01	 3.027616807050619e+00
1	 1.178033011946810e+00	 2.767413845347217e-01	 2.883710143253459e+00
1	 1.214285679579051e+00	 0.000000000000000e+00	 3.433903549227681e+00
1	 1.214083891832494e+00	 2.795139603404196e-02	 3.415490662121512e+00
1	 1.213469145225935e+00	 5.595689809420178e-02	 3.388253469725719e+00
1	 1.212427473354969e+00	 8.400148463832864e-02	 3.351015348702710e+00
1	 1.210945087003475e+00	 1.120695858499002e-01	 3.302606202456312e+00
1	 1.209008415636766e+00	 1.401451001986199e-01	 3.241870957140357e+00
1	 1.206604150071366e+00	 1.682114137987335e-01	 3.167678748887648e+00
1	 1.203719286160712e+00	 1.962514226183162e-01	 3.078932766093647e+00
1	 1.200341169318661e+00	 2.242475575758435e-01	 2.974580695950356e+00
1	 1.196457539685740e+00	 2.521818125418887e-01	 2.853625708751488e+00
1	 1.192056577726769e+00	 2.800357752438980e-01	 2.715137897001635e+00
1	 1.228570744136519e+00	 0.000000000000000e+00	 3.250377944181996e+00
1	 1.228366582524378e+00	 2.828022104105345e-02	 3.231914211507988e+00
1	 1.227744603933536e+00	 5.661518462066559e-02	 3.205118190488358e+00
1	 1.226690677656422e+00	 8.498969248071346e-02	 3.168838949193320e+00
1	 1.225190852258222e+00	 1.133879916387098e-01	 3.121934351958701e+00
1	 1.223231397558160e+00	 1.417937911432220e-01	 3.063279695363381e+00
1	 1.220798847801256e+00	 1.701902816599234e-01	 2.991777027360739e+00
1	 1.217880045857944e+00	 1.985601579421542e-01	 2.906365110437310e+00
1	 1.214462188271370e+00	 2.268856442227320e-01	 2.806029974802716e+00
1	 1.210532870954982e+00	 2.551485225450670e-01	 2.689815991742853e+00
1	 1.206080135326573e+00	 2.833301640315056e-01	 2.556837380624664e+00
1	 1.242855802027764e+00	 0.000000000000000e+00	 3.075435157008583e+00
1	 1.242649266551153e+00	 2.860904589476743e-02	 3.057086678473516e+00
1	 1.242020055979417e+00	 5.727347084019214e-02	 3.030864178214566e+00
1	 1.240953875301895e+00	 8.597789986226598e-02	 2.995648249833123e+00
1	 1.239436610865154e+00	 1.147063968126271e-01	 2.950330082992389e+00
1	 1.237454372842400e+00	 1.434424813188002e-01	 2.893820134803771e+00
1	 1.234993538907220e+00	 1.721691485979826e-01	 2.825057471364931e+00
1	 1.232040798947115e+00	 2.008688921888784e-01	 2.743019738248790e+00
1	 1.228583200634588e+00	 2.295237296387498e-01	 2.646733703823216e+00
1	 1.224608195656070e+00	 2.581152311639481e-01	 2.535286303393410e+00
1	 1.220103686382390e+00	 2.866245512818271e-01	 2.407836095542999e+00
1	 1.257140854919592e+00	 0.000000000000000e+00	 2.908530319614518e+00
1	 1.256931945579345e+00	 2.893787063350823e-02	 2.890450462122792e+00
1	 1.256295503029258e+00	 5.793175682951539e-02	 2.864916343098500e+00
1	 1.255217067955632e+00	 8.696610689819327e-02	 2.830845550649058e+00
1	 1.253682364486469e+00	 1.160248015253727e-01	 2.787167604054610e+00
1	 1.251677343149015e+00	 1.450911709176057e-01	 2.732832558587378e+00
1	 1.249188225045472e+00	 1.741480148436853e-01	 2.666820262726820e+00
1	 1.246201547080464e+00	 2.031776256277540e-01	 2.588150225371507e+00
1	 1.242704208055896e+00	 2.321618141315945e-01	 2.495892035853093e+00
1	 1.238683515431234e+00	 2.610819387445777e-01	 2.389176263833670e+00
1	 1.234127232530387e+00	 2.899189373791445e-01	 2.267205749756448e+00
1	 1.271425904478810e+00	 0.000000000000000e+00	 2.749143055083299e+00
1	 1.271214621275483e+00	 2.926669529560020e-02	 2.731473024930400e+00
1	 1.270570946748737e+00	 5.859004266536945e-02	 2.706725444668590e+00
1	 1.269480257281874e+00	 8.795431370370244e-02	 2.673860017144300e+00
1	 1.267928114784366e+00	 1.173432059306674e-01	 2.631849251618680e+00
1	 1.265900310137534e+00	 1.467398601318897e-01	 2.579686902511671e+00
1	 1.263382907872229e+00	 1.761268806278061e-01	 2.516397038207074e+00
1	 1.260362291910229e+00	 2.054863585280462e-01	 2.441043697184771e+00
1	 1.256825212182878e+00	 2.347998980089641e-01	 2.352741074245826e+00
1	 1.252758831922707e+00	 2.640486456330018e-01	 2.250664164210007e+00
1	 1.248150775406733e+00	 2.932133227077401e-01	 2.134059774432314e+00
1	 1.285710952372222e+00	 0.000000000000000e+00	 2.596776117130742e+00
1	 1.285497295306093e+00	 2.959551991936768e-02	 2.579645500405392e+00
1	 1.284846388803535e+00	 5.924832842448829e-02	 2.555766655786659e+00
1	 1.283743444944865e+00	 8.894252039400048e-02	 2.524146187846068e+00
1	 1.282173863421045e+00	 1.186616101822318e-01	 2.483803927545584e+00
1	 1.280123275467486e+00	 1.483885491539035e-01	 2.433781107756207e+00
1	 1.277577589043704e+00	 1.781057461811192e-01	 2.373149142090746e+00
1	 1.274523035088650e+00	 2.077950911590204e-01	 2.301018964834232e+00
1	 1.270946214663118e+00	 2.374379815785564e-01	 2.216550875718078e+00
1	 1.266834146772720e+00	 2.670153521752661e-01	 2.118964818405802e+00
1	 1.262174316647597e+00	 2.965077076518963e-01	 2.007551006073129e+00
1	 1.121938634302054e+00	 2.635637947966888e-01	 3.681868347433142e+00
1	 1.117299314585631e+00	 2.896842909871785e-01	 3.502085433273852e+00
1	 1.112152331272543e+00	 3.156935896829344e-01	 3.310357201440211e+00
1	 1.106488063271783e+00	 3.415734520723818e-01	 3.105961550319585e+00
1	 1.100297474749929e+00	 3.673054016510370e-01	 2.888304942087176e+00
1	 1.093572156557455e+00	 3.928707661351533e-01	 2.656936769059579e+00
1	 1.086304366606542e+00	 4.182507216331378e-01	 2.411563264770393e+00
1	 1.078487068930921e+00	 4.434263389172351e-01	 2.152060724287572e+00
1	 1.070113971156061e+00	 4.683786316150235e-01	 1.878487788072360e+00
1	 1.061179560108253e+00	 4.930886061179267e-01	 1.591096537857809e+00
1	 1.051679135294118e+00	 5.175373129825247e-01	 1.290342152269307e+00
1	 1.135962249164317e+00	 2.668581970349608e-01	 3.461502648822268e+00
1	 1.131264940507173e+00	 2.933051850388362e-01	 3.286920844336901e+00
1	 1.126053622738153e+00	 3.196395856405782e-01	 3.101598803824000e+00
1	 1.120318554507902e+00	 3.458429320534967e-01	 2.904887841825549e+00
1	 1.114050587040045e+00	 3.718965168269621e-01	 2.696249284126941e+00
1	 1.107241206075309e+00	 3.977814342839482e-01	 2.475266881439186e+00
1	 1.099882572754026e+00	 4.234786252445681e-01	 2.241658848624025e+00
1	 1.091967563164214e+00	 4.489689238761272e-01	 1.995289327421550e+00
1	 1.083489806280113e+00	 4.742331064869885e-01	 1.736179061558499e+00
1	 1.074443720016364e+00	 4.992519420589114e-01	 1.464515067779057e+00
1	 1.064824545126001e+00	 5.240062442908520e-01	 1.180659085326740e+00
1	 1.149985849301752e+00	 2.701525958145355e-01	 3.255797025217602e+00
1	 1.145230551764896e+00	 2.969260752888895e-01	 3.086777735668367e+00
1	 1.139954899607613e+00	 3.235855774551876e-01	 2.908082181109628e+00
1	 1.134149031222319e+00	 3.501124075518628e-01	 2.719129444853755e+00
1	 1.127803684889805e+00	 3.764876271823806e-01	 2.519431635849411e+00
1	 1.120910241241152e+00	 4.026920972766797e-01	 2.308604509863593e+00
1	 1.113460764644947e+00	 4.287065233668244e-01	 2.086377790030281e+00
1	 1.105448043243582e+00	 4.545115030154289e-01	 1.852605015425554e+00
1	 1.096865627360146e+00	 4.800875752118876e-01	 1.607272738299102e+00
1	 1.087707865997702e+00	 5.054152715285448e-01	 1.350508885707605e+00
1	 1.077969941155748e+00	 5.304751688069794e-01	 1.082590100053635e+00
1	 1.164009436350526e+00	 2.734469915196950e-01	 3.063573487496734e+00
1	 1.159196149988179e+00	 3.005469621597157e-01	 2.900393162369186e+00
1	 1.153856163502768e+00	 3.275315655870698e-01	 2.728471640259692e+00
1	 1.147979495028594e+00	 3.543818790655260e-01	 2.547290392119148e+00
1	 1.141556769903712e+00	 3.810787332528600e-01	 2.356408447276561e+00
1	 1.134579263649660e+00	 4.076027556861920e-01	 2.155471377250688e+00
1	 1.127038943863363e+00	 4.339344166097565e-01	 1.944220045903154e+00
1	 1.118928510741666e+00	 4.600540769816966e-01	 1.722498982629202e+00
1	 1.110241435956580e+00	 4.859420384726595e-01	 1.490264228220545e+00
1	 1.100971999599649e+00	 5.115785952457937e-01	 1.247590498571791e+00
1	 1.091115324916893e+00	 5.369440872855219e-01	 9.946775099587127e-01
1	 1.178033011946810e+00	 2.767413845347217e-01	 2.883710143253459e+00
1	 1.173161736806400e+00	 3.041678460736917e-01	 2.726564321655104e+00
1	 1.167757416045464e+00	 3.314775504965320e-01	 2.561495094452688e+00
1	 1.161809947540286e+00	 3.586513470925324e-01	 2.388041192678311e+00
1	 1.155309843686275e+00	 3.856698355739673e-01	 2.205804910557810e+00
1	 1.148248274895508e+00	 4.125134100853290e-01	 2.014459602280601e+00
1	 1.140617111993330e+00	 4.391623055832140e-01	 1.813757005377771e+00
1	 1.132408967231106e+00	 4.655966464214871e-01	 1.603534272849782e+00
1	 1.123617233629833e+00	 4.917964969522419e-01	 1.383720590011447e+00
1	 1.114236122369594e+00	 5.177419139296247e-01	 1.154343247950788e+00
1	 1.104260697942969e+00	 5.434130004810946e-01	 9.155330438836431e-01
1	 1.192056577726769e+00	 2.800357752438980e-01	 2.715137897001635e+00
1	 1.187127313848934e+00	 3.077887274531949e-01	 2.564145015099549e+00
1	 1.181658658857547e+00	 3.354235326438813e-01	 2.405940321560846e+00
1	 1.175640390370952e+00	 3.629208121309280e-01	 2.240114921584106e+00
1	 1.169062907841999e+00	 3.902609346812700e-01	 2.066310916353169e+00
1	 1.161917276573373e+00	 4.174240610469351e-01	 1.884227558518348e+00
1	 1.154195270618903e+00	 4.443901908970469e-01	 1.693627287979107e+00
1	 1.145889414284543e+00	 4.711392119813576e-01	 1.494341553032416e+00
1	 1.136993021940326e+00	 4.976509513335730e-01	 1.286276316588539e+00
1	 1.127500235854920e+00	 5.239052282990043e-01	 1.069417143449543e+00
1	 1.117406061767513e+00	 5.498819091483128e-01	 8.438337628886956e-01
1	 1.206080135326573e+00	 2.833301640315056e-01	 2.556837380624664e+00
1	 1.201092882745161e+00	 3.114096067206020e-01	 2.412042357726064e+00
1	 1.195559893560861e+00	 3.393695124894245e-01	 2.260651483695407e+00
1	 1.189470825134154e+00	 3.671902746787588e-01	 2.102303582387491e+00
1	 1.182815963975389e+00	 3.948520311103353e-01	 1.936677292362493e+00
1	 1.175586270277928e+00	 4.223347091438544e-01	 1.763496022469035e+00
1	 1.167773421324141e+00	 4.496180731611049e-01	 1.582532834976525e+00
1	 1.159369853474618e+00	 4.766817743078645e-01	 1.393615181787401e+00
1	 1.150368802448477e+00	 5.035054022995908e-01	 1.196629414634667e+00
1	 1.140764341603015e+00	 5.300685390728993e-01	 9.915249868028269e-01
1	 1.130551417924058e+00	 5.563508140417918e-01	 7.783182620406606e-01
1	 1.220103686382390e+00	 2.866245512818271e-01	 2.407836095542999e+00
1	 1.215058445124458e+00	 3.150304842982906e-01	 2.269213714086518e+00
1	 1.209461121777253e+00	 3.433154904934693e-01	 2.124525886811377e+00
1	 1.203301253443449e+00	 3.714597352340707e-01	 1.973454720530750e+00
1	 1.196569013690954e+00	 3.994431253967306e-01	 1.815712301297117e+00
1	 1.189255257603850e+00	 4.272453549489311e-01	 1.651044587315729e+00
1	 1.181351565693099e+00	 4.548459529852373e-01	 1.479235270331736e+00
1	 1.172850286373970e+00	 4.822243340475645e-01	 1.300109549094818e+00
1	 1.163744576714707e+00	 5.093598505332340e-01	 1.113537754545233e+00
1	 1.154028441161263e+00	 5.362318469702763e-01	 9.194387633139747e-01
1	 1.143696767946139e+00	 5.628197159161465e-01	 7.177831341771043e-01
1	 1.234127232530387e+00	 2.899189373791445e-01	 2.267205749756448e+00
1	 1.229024002616201e+00	 3.186513606086377e-01	 2.134663843267293e+00
1	 1.223362345128567e+00	 3.472614671163222e-01	 1.996510961274010e+00
1	 1.217131676912398e+00	 3.757291942949100e-01	 1.852468267672458e+00
1	 1.210322058593197e+00	 4.040342180760229e-01	 1.702278377653721e+00
1	 1.202924240145814e+00	 4.321559990350092e-01	 1.545708321203458e+00
1	 1.194929705309834e+00	 4.600738309792942e-01	 1.382552509792673e+00
1	 1.186330714555242e+00	 4.877668918470147e-01	 1.212635665603595e+00
1	 1.177120346299433e+00	 5.152142967174402e-01	 1.035815669270732e+00
1	 1.167292536077051e+00	 5.423951527101019e-01	 8.519862793602262e-01
1	 1.156842113367289e+00	 5.692886155259922e-01	 6.610796748056168e-01
1	 1.248150775406733e+00	 2.932133227077401e-01	 2.134059774432314e+00
1	 1.242989556849769e+00	 3.222722360740202e-01	 2.007442236389083e+00
1	 1.237263565236651e+00	 3.512074428182910e-01	 1.875601446005900e+00
1	 1.230962097154558e+00	 3.799986523593224e-01	 1.738293598779018e+00
1	 1.224075100286626e+00	 4.086253096837797e-01	 1.595289084506286e+00
1	 1.216593219498494e+00	 4.370666419749334e-01	 1.446374650833331e+00
1	 1.208507841758404e+00	 4.653017077531252e-01	 1.291355598614017e+00
1	 1.199811139591073e+00	 4.933094483527717e-01	 1.130057981891907e+00
1	 1.190496112763076e+00	 5.210687415351478e-01	 9.623307824771659e-01
1	 1.180556627897764e+00	 5.485584570113426e-01	 7.880480266093026e-01
1	 1.169987455721043e+00	 5.757575136259440e-01	 6.071108091700975e-01
1	 1.262174316647597e+00	 2.965077076518963e-01	 2.007551006073129e+00
1	 1.256955109454539e+00	 3.258931111168156e-01	 1.886640631626793e+00
1	 1.251164783723348e+00	 3.551534180596824e-01	 1.760836760378931e+00
1	 1.244792515783490e+00	 3.842681099253539e-01	 1.629926785432366e+00
1	 1.237828140375747e+00	 4.132164007555682e-01	 1.493706273201508e+00
1	 1.230262197256569e+00	 4.419772843415474e-01	 1.351980452840614e+00
1	 1.222085976622863e+00	 4.705295839165800e-01	 1.204565760120272e+00
1	 1.213291563054103e+00	 4.988520042113921e-01	 1.051291419800868e+00
1	 1.203871877666055e+00	 5.269231856692950e-01	 8.920010481863212e-01
1	 1.193820718170790e+00	 5.547217605929656e-01	 7.265542553117479e-01
1	 1.183132796540936e+00	 5.822264109706171e-01	 5.548282242025864e-01
1	 1.051679135294118e+00	 5.175373129825247e-01	 1.290342152269306e+00
1	 1.041608116116776e+00	 5.417075801152571e-01	 9.771891792357410e-01
1	 1.030964168233969e+00	 5.655789749840386e-01	 6.528817578844467e-01
1	 1.019745211305930e+00	 5.891329895791028e-01	 3.184782879452134e-01
1	 1.007950085520931e+00	 6.123513754379840e-01	-2.484364372017445e-02
1	 9.955785706878293e-01	 6.352161985375726e-01	-3.757912364940330e-01
1	 9.826314018053823e-01	 6.577098939740801e-01	-7.329618821087939e-01
1	 9.691102809388425e-01	 6.798153201073742e-01	-1.094850002053745e+00
1	 9.550178852589553e-01	 7.015158118423989e-01	-1.459855288332951e+00
1	 9.403578711252181e-01	 7.227952327198277e-01	-1.826292292174139e+00
1	 9.251348741237903e-01	 7.436380254908352e-01	-2.192401277641830e+00
1	 1.064824545126001e+00	 5.240062442908520e-01	 1.180659085326741e+00
1	 1.054627643757190e+00	 5.484786264475274e-01	 8.852078164882619e-01
1	 1.043850652389678e+00	 5.726484006014743e-01	 5.790875519202383e-01
1	 1.032491464680596e+00	 5.964968274030253e-01	 2.633049954268108e-01
1	 1.020548906321208e+00	 6.200054302940132e-01	-6.103448712530968e-02
1	 1.008022754368101e+00	 6.431560510859452e-01	-3.927312586759847e-01
1	 9.949137530071114e-01	 6.659309053234386e-01	-7.304970032293879e-01
1	 9.812236255783677e-01	 6.883126371053294e-01	-1.072961502732712e+00
1	 9.669550827157742e-01	 7.102843730320811e-01	-1.418680559169877e+00
1	 9.521118264813074e-01	 7.318297749475440e-01	-1.766144999402995e+00
1	 9.366985504033987e-01	 7.529330911458786e-01	-2.113790677444488e+00
1	 1.077969941155748e+00	 5.304751688069794e-01	 1.082590100053636e+00
1	 1.067647157727559e+00	 5.552496656704091e-01	 8.037767047449871e-01
1	 1.056737123014926e+00	 5.797178187962588e-01	 5.147015644666366e-01
1	 1.045237704671911e+00	 6.038606574951999e-01	 2.163204658158978e-01
1	 1.033147713892791e+00	 6.276594771135987e-01	-9.033073938040170e-02
1	 1.020466924981896e+00	 6.510958952978120e-01	-4.041408716856677e-01
1	 1.007196091312141e+00	 6.741519080410896e-01	-7.239291522238678e-01
1	 9.933369574985162e-01	 6.968099451814584e-01	-1.048451891124947e+00
1	 9.788922676380573e-01	 7.190529250151160e-01	-1.376410086886891e+00
1	 9.638657694951804e-01	 7.408643076892963e-01	-1.706457868240086e+00
1	 9.482622145405371e-01	 7.622281470413493e-01	-2.037211691618301e+00
1	 1.091115324916893e+00	 5.369440872855219e-01	 9.946775099587130e-01
1	 1.080666659546745e+00	 5.620206985737621e-01	 7.314789687081292e-01
1	 1.069623581613069e+00	 5.867872303930618e-01	 4.583572808098158e-01
1	 1.057983932766892e+00	 6.112244807146443e-01	 1.762182041314709e-01
1	 1.045746509705525e+00	 6.353135167896200e-01	-1.139691659731115e-01
1	 1.032911083981049e+00	 6.590357320994003e-01	-4.111774130329453e-01
1	 1.019478418153453e+00	 6.823729030860695e-01	-7.143266155184144e-01
1	 1.005450278112578e+00	 7.053072453270419e-01	-1.022290920580203e+00
1	 9.908294414185685e-01	 7.278214688144412e-01	-1.333905817611504e+00
1	 9.756197015382420e-01	 7.498988319990696e-01	-1.647976038352718e+00
1	 9.598258678844229e-01	 7.715231942616434e-01	-1.963283995725291e+00
1	 1.104260697942969e+00	 5.434130004810946e-01	 9.155330438836431e-01
1	 1.093686150733604e+00	 5.687917259474445e-01	 6.669652050742206e-01
1	 1.082510029687462e+00	 5.938566362165515e-01	 4.087532601668291e-01
1	 1.070730150452557e+00	 6.185882979203762e-01	 1.417539313090148e-01
1	 1.058345295229253e+00	 6.429675502149553e-01	-1.331276368504906e-01
1	 1.045355232817389e+00	 6.669755624169363e-01	-4.149431068883852e-01
1	 1.031760734964027e+00	 6.905938914174142e-01	-7.027068066387588e-01
1	 1.017563588833845e+00	 7.138045385333613e-01	-9.954021635066574e-01
1	 1.002766605450071e+00	 7.365900054529947e-01	-1.291988650113962e+00
1	 9.873736239818964e-01	 7.589333489308475e-01	-1.591409164173364e+00
1	 9.713895117842751e-01	 7.808182338911576e-01	-1.892597754490928e+00
1	 1.117406061767513e+00	 5.498819091483128e-01	 8.438337628886944e-01
1	 1.106705632806998e+00	 5.755627485813165e-01	 6.089495137561061e-01
1	 1.095396468741459e+00	 6.009260370913970e-01	 3.646493079931089e-01
1	 1.083476359215923e+00	 6.259521099714127e-01	 1.117419246497529e-01
1	 1.070944071933819e+00	 6.506215782824841e-01	-1.489285906298347e-01
1	 1.057799372942749e+00	 6.749153871766472e-01	-4.164883057877923e-01
1	 1.044043043176842e+00	 6.988148739941590e-01	-6.900392584533800e-01
1	 1.029676891075605e+00	 7.223018257916974e-01	-9.686657275930276e-01
1	 1.014703761125330e+00	 7.453585359537156e-01	-1.251440850031260e+00
1	 9.991275381975498e-01	 7.679678595386151e-01	-1.537433501918445e+00
1	 9.829531475893118e-01	 7.901132670142886e-01	-1.825715357368086e+00
1	 1.130551417924058e+00	 5.563508140417918e-01	 7.783182620406603e-01
1	 1.119725107285783e+00	 5.823337672652362e-01	 5.562058060293852e-01
1	 1.108282900278415e+00	 6.079954338422673e-01	 3.248629153699488e-01
1	 1.096222560544009e+00	 6.333159177267716e-01	 8.505161361774932e-02
1	 1.083542841289068e+00	 6.582756018850847e-01	-1.624422570916199e-01
1	 1.070243505808959e+00	 6.828552073047597e-01	-4.168145061444927e-01
1	 1.056325344224879e+00	 7.070358517753396e-01	-6.772484066306077e-01
1	 1.041790186251149e+00	 7.307991080933313e-01	-9.429207825045370e-01
1	 1.026640909837109e+00	 7.541270613395418e-01	-1.213008295636799e+00
1	 1.010881445556606e+00	 7.770023648763554e-01	-1.486693850984032e+00
1	 9.945167766487508e-01	 7.994082947154326e-01	-1.763173033000666e+00
1	 1.143696767946139e+00	 5.628197159161465e-01	 7.177831341771043e-01
1	 1.132744575688819e+00	 5.891047827890633e-01	 5.075643673192380e-01
1	 1.121169325801685e+00	 6.150648272938309e-01	 2.882659439802497e-01
1	 1.108968755923832e+00	 6.406797220454709e-01	 6.060441043717563e-02
1	 1.096141604764842e+00	 6.659296219156364e-01	-1.746896574055805e-01
1	 1.082687632867852e+00	 6.907950237275002e-01	-4.168771557707046e-01
1	 1.068607639541119e+00	 7.152568257199923e-01	-6.652161811109250e-01
1	 1.053903475773768e+00	 7.392963864295434e-01	-9.189679123031673e-01
1	 1.038578052978170e+00	 7.628955826334110e-01	-1.177402568711370e+00
1	 1.022635347430469e+00	 7.860368659980541e-01	-1.439805361436270e+00
1	 1.006080400311810e+00	 8.087033180789859e-01	-1.705482352331928e+00
1	 1.156842113367289e+00	 5.692886155259922e-01	 6.610796748056164e-01
1	 1.145764039534964e+00	 5.958757959426564e-01	 4.619086543698483e-01
1	 1.134055746814624e+00	 6.221342182707570e-01	 2.537815371348286e-01
1	 1.121714946842410e+00	 6.480435237865279e-01	 3.737075681018048e-02
1	 1.108740363830987e+00	 6.735836392670183e-01	-1.866453997721195e-01
1	 1.095131755571259e+00	 6.987348373710959e-01	-4.175882699550557e-01
1	 1.080889930558540e+00	 7.234777967871520e-01	-6.547844208671616e-01
1	 1.066016761056750e+00	 7.477936617916149e-01	-8.975713074573860e-01
1	 1.050515191941278e+00	 7.716641008582622e-01	-1.145302902838075e+00
1	 1.034389245190546e+00	 7.950713639576943e-01	-1.397355218249719e+00
1	 1.017644019927708e+00	 8.179983381893458e-01	-1.653131629216203e+00
1	 1.169987455721043e+00	 5.757575136259440e-01	 6.071108091700981e-01
1	 1.158783500343078e+00	 6.026468075158748e-01	 4.181723083598205e-01
1	 1.146942164820587e+00	 6.292036075977139e-01	 2.203812390680935e-01
1	 1.134461134786759e+00	 6.554073238089599e-01	 1.436736975532449e-02
1	 1.121339119957345e+00	 6.812376548321089e-01	-1.992402865719641e-01
1	 1.107575875371013e+00	 7.066746491617736e-01	-4.198188711548668e-01
1	 1.093172218710124e+00	 7.316987659358548e-01	-6.467571258535179e-01
1	 1.078130043513388e+00	 7.562909351708273e-01	-8.794608090588337e-01
1	 1.062452328119198e+00	 7.804326170370328e-01	-1.117358000336620e+00
1	 1.046143140208240e+00	 8.041058598092611e-01	-1.359904211988429e+00
1	 1.029207636845662e+00	 8.272933561309074e-01	-1.606587226596590e+00
1	 1.183132796540936e+00	 5.822264109706171e-01	 5.548282242025864e-01
1	 1.171802959632020e+00	 6.094178182985777e-01	 3.753363671657122e-01
1	 1.159828581322929e+00	 6.362729960993709e-01	 1.870823063023304e-01
1	 1.147207321243899e+00	 6.627711229717850e-01	-9.345328922392815e-03
1	 1.133937874613762e+00	 6.888916695037870e-01	-2.133637476861211e-01
1	 1.120019993718943e+00	 7.146144600257595e-01	-4.244012660240140e-01
1	 1.105454505428850e+00	 7.399197341251366e-01	-6.419025588074460e-01
1	 1.090243324556970e+00	 7.647882075584607e-01	-8.653338167424438e-01
1	 1.074389462904693e+00	 7.892011321926621e-01	-1.094187728054806e+00
1	 1.057897033854956e+00	 8.131403546067386e-01	-1.327988204763026e+00
1	 1.040771252414892e+00	 8.365883729880681e-01	-1.566294775594263e+00
1	 9.251348741237903e-01	 7.436380254908352e-01	-2.192401277641830e+00
1	 9.093545026181421e-01	 7.640292626408308e-01	-2.563855867965377e+00
1	 8.930233224044176e-01	 7.839546983243546e-01	-2.945744606748391e+00
1	 8.761488515538501e-01	 8.034008071342293e-01	-3.335314685267355e+00
1	 8.587395464156911e-01	 8.223548237211875e-01	-3.729740307474763e+00
1	 8.408047812142654e-01	 8.408047812142655e-01	-4.126143655989808e+00
1	 8.223548237211870e-01	 8.587395464156912e-01	-4.521616574597775e+00
1	 8.034008071342290e-01	 8.761488515538506e-01	-4.913242662021130e+00
1	 7.839546983243543e-01	 8.930233224044180e-01	-5.298119462540278e+00
1	 7.640292626408302e-01	 9.093545026181423e-01	-5.673380437157951e+00
1	 7.436380254908355e-01	 9.251348741237905e-01	-6.036216404470548e+00
1	 9.366985504033987e-01	 7.529330911458786e-01	-2.113790677444488e+00
1	 9.207209329469740e-01	 7.735792075268062e-01	-2.467479783450235e+00
1	 9.041856219770256e-01	 7.937537001796383e-01	-2.832442407934275e+00
1	 8.871002295365527e-01	 8.134428746370428e-01	-3.206061513171869e+00
1	 8.694733176745297e-01	 8.326338059899012e-01	-3.585642008529760e+00
1	 8.513143777879396e-01	 8.513143777879398e-01	-3.968430644145676e+00
1	 8.326338059899007e-01	 8.694733176745300e-01	-4.351636683859307e+00
1	 8.134428746370425e-01	 8.871002295365529e-01	-4.732453066645885e+00
1	 7.937537001796382e-01	 9.041856219770259e-01	-5.108077755235291e+00
1	 7.735792075268058e-01	 9.207209329469740e-01	-5.475734967021584e+00
1	 7.529330911458786e-01	 9.366985504033989e-01	-5.832695985886790e+00
1	 9.482622145405371e-01	 7.622281470413493e-01	-2.037211691618301e+00
1	 9.320873513404406e-01	 7.831291423855008e-01	-2.374661035345897e+00
1	 9.153479098286428e-01	 8.035526917460267e-01	-2.724123664861014e+00
1	 8.980515960197999e-01	 8.234849315956234e-01	-3.083113426177725e+00
1	 8.802070776624943e-01	 8.429127774654996e-01	-3.449061696361658e+00
1	 8.618239633262329e-01	 8.618239633262332e-01	-3.819336245005814e+00
1	 8.429127774654992e-01	 8.802070776624945e-01	-4.191260930119125e+00
1	 8.234849315956231e-01	 8.980515960198002e-01	-4.562135951697655e+00
1	 8.035526917460263e-01	 9.153479098286429e-01	-4.929258374442664e+00
1	 7.831291423855004e-01	 9.320873513404410e-01	-5.289942625976422e+00
1	 7.622281470413493e-01	 9.482622145405372e-01	-5.641540678636461e+00
1	 9.598258678844229e-01	 7.715231942616434e-01	-1.963283995725291e+00
1	 9.434537591247535e-01	 7.926790683310672e-01	-2.285891482984159e+00
1	 9.265101872616607e-01	 8.133516741667508e-01	-2.621156140144362e+00
1	 9.090029522813683e-01	 8.335269791815854e-01	-2.966717836599043e+00
1	 8.909408276319577e-01	 8.531917393472582e-01	-3.320130188041025e+00
1	 8.723335390553479e-01	 8.723335390553483e-01	-3.678878425341134e+00
1	 8.531917393472578e-01	 8.909408276319581e-01	-4.040398145614182e+00
1	 8.335269791815850e-01	 9.090029522813686e-01	-4.402094682293485e+00
1	 8.133516741667507e-01	 9.265101872616610e-01	-4.761362818139722e+00
1	 7.926790683310669e-01	 9.434537591247538e-01	-5.115606558614111e+00
1	 7.715231942616434e-01	 9.598258678844229e-01	-5.462258683142976e+00
1	 9.713895117842751e-01	 7.808182338911576e-01	-1.892597754490928e+00
1	 9.548201576261218e-01	 8.022289864776585e-01	-2.201639561285728e+00
1	 9.376724555784728e-01	 8.231506485850438e-01	-2.523890081327003e+00
1	 9.199542995990326e-01	 8.435690185665407e-01	-2.857110372646638e+00
1	 9.016745688352942e-01	 8.634706928344529e-01	-3.198972068724219e+00
1	 8.828431062014854e-01	 8.828431062014855e-01	-3.547074293898418e+00
1	 8.634706928344525e-01	 9.016745688352944e-01	-3.898961501536794e+00
1	 8.435690185665403e-01	 9.199542995990332e-01	-4.252141984876214e+00
1	 8.231506485850433e-01	 9.376724555784728e-01	-4.604106796600868e+00
1	 8.022289864776583e-01	 9.548201576261224e-01	-4.952348805499866e+00
1	 7.808182338911576e-01	 9.713895117842752e-01	-5.294381617161564e+00
1	 9.829531475893118e-01	 7.901132670142886e-01	-1.825715357368086e+00
1	 9.661865481707581e-01	 8.117788979394280e-01	-2.122351658281983e+00
1	 9.488347160814705e-01	 8.329496161441370e-01	-2.432659250778204e+00
1	 9.309056392505691e-01	 8.536110509221023e-01	-2.754515571200899e+00
1	 9.124083025248777e-01	 8.737496391263593e-01	-3.085706057820049e+00
1	 8.933526659908472e-01	 8.933526659908475e-01	-3.423940151452070e+00
1	 8.737496391263588e-01	 9.124083025248780e-01	-3.766868252381800e+00
1	 8.536110509221021e-01	 9.309056392505696e-01	-4.112099396131699e+00
1	 8.329496161441363e-01	 9.488347160814706e-01	-4.457219395970931e+00
1	 8.117788979394276e-01	 9.661865481707583e-01	-4.799809191246871e+00
1	 7.901132670142885e-01	 9.829531475893116e-01	-5.137463137906571e+00
1	 9.945167766487508e-01	 7.994082947154326e-01	-1.763173033000666e+00
1	 9.775529320848717e-01	 8.213288038305283e-01	-2.048453396519034e+00
1	 9.599969700730466e-01	 8.427485779872628e-01	-2.347781883731378e+00
1	 9.418569725137537e-01	 8.636530774198836e-01	-2.659147522246216e+00
1	 9.231420299530818e-01	 8.840285794222529e-01	-2.980445349606566e+00
1	 9.038622196496362e-01	 9.038622196496365e-01	-3.309491537363410e+00
1	 8.840285794222525e-01	 9.231420299530823e-01	-3.644039498131928e+00
1	 8.636530774198832e-01	 9.418569725137540e-01	-3.981796750358392e+00
1	 8.427485779872623e-01	 9.599969700730470e-01	-4.320442300201176e+00
1	 8.213288038305280e-01	 9.775529320848719e-01	-4.657644290176275e+00
1	 7.994082947154325e-01	 9.945167766487507e-01	-4.991077660320794e+00
1	 1.006080400311810e+00	 8.087033180789859e-01	-1.705482352331928e+00
1	 9.889193106946728e-01	 8.308787052651121e-01	-1.980350826078823e+00
1	 9.711592188555936e-01	 8.525475352576530e-01	-2.269561580242408e+00
1	 9.528083006663611e-01	 8.736950992314974e-01	-2.571210468856320e+00
1	 9.338757523722805e-01	 8.943075149214100e-01	-2.883297930354628e+00
1	 9.143717684040532e-01	 9.143717684040537e-01	-3.203743272928738e+00
1	 8.943075149214097e-01	 9.338757523722809e-01	-3.530399962846184e+00
1	 8.736950992314970e-01	 9.528083006663611e-01	-3.861071702194720e+00
1	 8.525475352576527e-01	 9.711592188555939e-01	-4.193529066650924e+00
1	 8.308787052651120e-01	 9.889193106946730e-01	-4.525526463319216e+00
1	 8.087033180789860e-01	 1.006080400311810e+00	-4.854819163750388e+00
1	 1.017644019927708e+00	 8.179983381893458e-01	-1.653131629216203e+00
1	 1.000285685326373e+00	 8.404286033573330e-01	-1.918431536248398e+00
1	 9.823214637315038e-01	 8.623464890985402e-01	-2.198288136325479e+00
1	 9.637596249861673e-01	 8.837371175285563e-01	-2.490899366266814e+00
1	 9.446094710348477e-01	 9.045864468231064e-01	-2.794366873826693e+00
1	 9.248813134803007e-01	 9.248813134803011e-01	-3.106709501771246e+00
1	 9.045864468231058e-01	 9.446094710348479e-01	-3.425877788346296e+00
1	 8.837371175285563e-01	 9.637596249861677e-01	-3.749769281891778e+00
1	 8.623464890985397e-01	 9.823214637315040e-01	-4.076244451085941e+00
1	 8.404286033573327e-01	 1.000285685326373e+00	-4.403142961085346e+00
1	 8.179983381893455e-01	 1.017644019927708e+00	-4.728300079992260e+00
1	 1.029207636845662e+00	 8.272933561309074e-01	-1.606587226596590e+00
1	 1.011652057306182e+00	 8.499784992213438e-01	-1.863065692236611e+00
1	 9.934837060031694e-01	 8.721454406531562e-01	-2.134238319051035e+00
1	 9.747109467509483e-01	 8.937791334826740e-01	-2.418400403253065e+00
1	 9.553431871931574e-01	 9.148653763266172e-01	-2.713750616851965e+00
1	 9.353908561045803e-01	 9.353908561045807e-01	-3.018403727509805e+00
1	 9.148653763266166e-01	 9.553431871931575e-01	-3.330404341813431e+00
1	 8.937791334826736e-01	 9.747109467509487e-01	-3.647741480570875e+00
1	 8.721454406531558e-01	 9.934837060031696e-01	-3.968363778187505e+00
1	 8.499784992213435e-01	 1.011652057306182e+00	-4.290195086432875e+00
1	 8.272933561309074e-01	 1.029207636845662e+00	-4.611150256313210e+00
1	 1.040771252414892e+00	 8.365883729880681e-01	-1.566294775594263e+00
1	 1.023018427960310e+00	 8.595283939712974e-01	-1.814607002768527e+00
1	 1.004645946972983e+00	 8.819443910647330e-01	-2.077676589964415e+00
1	 9.856622672384795e-01	 9.038211482654626e-01	-2.353891488745726e+00
1	 9.660769020995830e-01	 9.251443046312183e-01	-2.641543216528139e+00
1	 9.459003975030937e-01	 9.459003975030944e-01	-2.938838848916160e+00
1	 9.251443046312178e-01	 9.660769020995831e-01	-3.243914036213400e+00
1	 9.038211482654623e-01	 9.856622672384796e-01	-3.554846863133819e+00
1	 8.819443910647331e-01	 1.004645946972983e+00	-3.869672354032592e+00
1	 8.595283939712971e-01	 1.023018427960311e+00	-4.186397413833209e+00
1	 8.365883729880681e-01	 1.040771252414892e+00	-4.503015987609024e+00
1	 7.436380254908355e-01	 9.251348741237905e-01	-6.036216404470548e+00
1	 7.227952327198275e-01	 9.403578711252182e-01	-6.389956168649984e+00
1	 7.015158118423985e-01	 9.550178852589556e-01	-6.738383947033190e+00
1	 6.798153201073739e-01	 9.691102809388428e-01	-7.079506315226457e+00
1	 6.577098939740799e-01	 9.826314018053828e-01	-7.411441498756555e+00
1	 6.352161985375724e-01	 9.955785706878293e-01	-7.732429056647076e+00
1	 6.123513754379838e-01	 1.007950085520931e+00	-8.040837947510608e+00
1	 5.891329895791025e-01	 1.019745211305930e+00	-8.335172936236807e+00
1	 5.655789749840383e-01	 1.030964168233969e+00	-8.614079330578868e+00
1	 5.417075801152568e-01	 1.041608116116776e+00	-8.876346066735822e+00
1	 5.175373129825247e-01	 1.051679135294118e+00	-9.120907190677407e+00
1	 7.529330911458786e-01	 9.366985504033989e-01	-5.832695985886790e+00
1	 7.318297749475436e-01	 9.521118264813079e-01	-6.182425983924935e+00
1	 7.102843730320807e-01	 9.669550827157742e-01	-6.528758668599599e+00
1	 6.883126371053290e-01	 9.812236255783680e-01	-6.869622132349713e+00
1	 6.659309053234379e-01	 9.949137530071112e-01	-7.203029772708326e+00
1	 6.431560510859449e-01	 1.008022754368101e+00	-7.527091593882181e+00
1	 6.200054302940129e-01	 1.020548906321208e+00	-7.840024131062468e+00
1	 5.964968274030251e-01	 1.032491464680596e+00	-8.140158919115962e+00
1	 5.726484006014738e-01	 1.043850652389678e+00	-8.425949456312063e+00
1	 5.484786264475269e-01	 1.054627643757190e+00	-8.695976642307611e+00
1	 5.240062442908519e-01	 1.064824545126001e+00	-8.948952696998386e+00
1	 7.622281470413493e-01	 9.482622145405372e-01	-5.641540678636461e+00
1	 7.408643076892962e-01	 9.638657694951810e-01	-5.987612947412002e+00
1	 7.190529250151156e-01	 9.788922676380574e-01	-6.332008223600121e+00
1	 6.968099451814580e-01	 9.933369574985162e-01	-6.672588848417821e+00
1	 6.741519080410894e-01	 1.007196091312142e+00	-7.007278470609917e+00
1	 6.510958952978116e-01	 1.020466924981897e+00	-7.334074783727862e+00
1	 6.276594771135983e-01	 1.033147713892791e+00	-7.651061106625869e+00
1	 6.038606574951996e-01	 1.045237704671911e+00	-7.956416696058104e+00
1	 5.797178187962586e-01	 1.056737123014926e+00	-8.248425707190790e+00
1	 5.552496656704088e-01	 1.067647157727559e+00	-8.525484745233575e+00
1	 5.304751688069793e-01	 1.077969941155748e+00	-8.786108978476209e+00
1	 7.715231942616434e-01	 9.598258678844229e-01	-5.462258683142976e+00
1	 7.498988319990690e-01	 9.756197015382422e-01	-5.804938569596352e+00
1	 7.278214688144408e-01	 9.908294414185691e-01	-6.147480274593137e+00
1	 7.053072453270417e-01	 1.005450278112579e+00	-6.487692560696238e+00
1	 6.823729030860691e-01	 1.019478418153453e+00	-6.823423777744656e+00
1	 6.590357320993998e-01	 1.032911083981049e+00	-7.152575859316025e+00
1	 6.353135167896196e-01	 1.045746509705525e+00	-7.473117363657558e+00
1	 6.112244807146440e-01	 1.057983932766892e+00	-7.783095418763956e+00
1	 5.867872303930614e-01	 1.069623581613069e+00	-8.080646456276416e+00
1	 5.620206985737617e-01	 1.080666659546745e+00	-8.364005645137638e+00
1	 5.369440872855219e-01	 1.091115324916893e+00	-8.631514962682610e+00
1	 7.808182338911576e-01	 9.713895117842752e-01	-5.294381617161564e+00
1	 7.589333489308472e-01	 9.873736239818964e-01	-5.633851906625886e+00
1	 7.365900054529944e-01	 1.002766605450072e+00	-5.974553546641807e+00
1	 7.138045385333609e-01	 1.017563588833845e+00	-6.314253360941286e+00
1	 6.905938914174139e-01	 1.031760734964027e+00	-6.650738250979582e+00
1	 6.669755624169360e-01	 1.045355232817389e+00	-6.981830280579216e+00
1	 6.429675502149550e-01	 1.058345295229253e+00	-7.305400987528593e+00
1	 6.185882979203756e-01	 1.070730150452557e+00	-7.619384756069966e+00
1	 5.938566362165510e-01	 1.082510029687462e+00	-7.921791107411315e+00
1	 5.687917259474442e-01	 1.093686150733605e+00	-8.210715790578586e+00
1	 5.434130004810946e-01	 1.104260697942969e+00	-8.484350582293450e+00
1	 7.901132670142885e-01	 9.829531475893116e-01	-5.137463137906571e+00
1	 7.679678595386146e-01	 9.991275381975497e-01	-5.473827939614589e+00
1	 7.453585359537155e-01	 1.014703761125330e+00	-5.812635999767499e+00
1	 7.223018257916970e-01	 1.029676891075605e+00	-6.151623335410649e+00
1	 6.988148739941589e-01	 1.044043043176842e+00	-6.488528678977101e+00
1	 6.749153871766467e-01	 1.057799372942749e+00	-6.821109485365106e+00
1	 6.506215782824836e-01	 1.070944071933819e+00	-7.147157330138407e+00
1	 6.259521099714122e-01	 1.083476359215924e+00	-7.464512510409238e+00
1	 6.009260370913967e-01	 1.095396468741459e+00	-7.771077681503379e+00
1	 5.755627485813160e-01	 1.106705632806998e+00	-8.064830386657048e+00
1	 5.498819091483128e-01	 1.117406061767513e+00	-8.343834362958285e+00
1	 7.994082947154325e-01	 9.945167766487507e-01	-4.991077660320794e+00
1	 7.770023648763551e-01	 1.010881445556606e+00	-5.324366067031038e+00
1	 7.541270613395413e-01	 1.026640909837109e+00	-5.661163128921669e+00
1	 7.307991080933308e-01	 1.041790186251149e+00	-5.999184704424799e+00
1	 7.070358517753395e-01	 1.056325344224880e+00	-6.336134091712522e+00
1	 6.828552073047591e-01	 1.070243505808959e+00	-6.669718797468791e+00
1	 6.582756018850845e-01	 1.083542841289068e+00	-6.997666843062745e+00
1	 6.333159177267713e-01	 1.096222560544010e+00	-7.317742400585646e+00
1	 6.079954338422668e-01	 1.108282900278415e+00	-7.627760571228750e+00
1	 5.823337672652358e-01	 1.119725107285783e+00	-7.925601141646927e+00
1	 5.563508140417918e-01	 1.130551417924058e+00	-8.209221179478346e+00
1	 8.087033180789860e-01	 1.006080400311810e+00	-4.854819163750388e+00
1	 7.860368659980534e-01	 1.022635347430469e+00	-5.184988701072502e+00
1	 7.628955826334107e-01	 1.038578052978170e+00	-5.519596381214640e+00
1	 7.392963864295431e-01	 1.053903475773768e+00	-5.856348090249537e+00
1	 7.152568257199916e-01	 1.068607639541119e+00	-6.192923907281585e+00
1	 6.907950237274999e-01	 1.082687632867853e+00	-6.526995478955263e+00
1	 6.659296219156362e-01	 1.096141604764842e+00	-6.856243060157741e+00
1	 6.406797220454709e-01	 1.108968755923833e+00	-7.178371997478204e+00
1	 6.150648272938307e-01	 1.121169325801685e+00	-7.491128450601203e+00
1	 5.891047827890625e-01	 1.132744575688819e+00	-7.792314169049652e+00
1	 5.628197159161465e-01	 1.143696767946138e+00	-8.079800166748552e+00
1	 8.179983381893455e-01	 1.017644019927708e+00	-4.728300079992260e+00
1	 7.950713639576940e-01	 1.034389245190546e+00	-5.055239959751745e+00
1	 7.716641008582614e-01	 1.050515191941279e+00	-5.387421681073388e+00
1	 7.477936617916146e-01	 1.066016761056751e+00	-5.722550903090827e+00
1	 7.234777967871515e-01	 1.080889930558541e+00	-6.058296205077432e+00
1	 6.987348373710952e-01	 1.095131755571259e+00	-6.392306915293818e+00
1	 6.735836392670180e-01	 1.108740363830987e+00	-6.722230717729258e+00
1	 6.480435237865273e-01	 1.121714946842410e+00	-7.045730800508773e+00
1	 6.221342182707568e-01	 1.134055746814624e+00	-7.360502327087270e+00
1	 5.958757959426559e-01	 1.145764039534964e+00	-7.664288032706839e+00
1	 5.692886155259922e-01	 1.156842113367289e+00	-7.954892773152568e+00
1	 8.272933561309074e-01	 1.029207636845662e+00	-4.611150256313210e+00
1	 8.041058598092605e-01	 1.046143140208240e+00	-4.934684447167957e+00
1	 7.804326170370325e-01	 1.062452328119198e+00	-5.264148054838089e+00
1	 7.562909351708267e-01	 1.078130043513388e+00	-5.597255835912120e+00
1	 7.316987659358543e-01	 1.093172218710124e+00	-5.931676115395247e+00
1	 7.066746491617730e-01	 1.107575875371013e+00	-6.265048922856828e+00
1	 6.812376548321085e-01	 1.121339119957345e+00	-6.595004001447283e+00
1	 6.554073238089596e-01	 1.134461134786760e+00	-6.919178443801368e+00
1	 6.292036075977134e-01	 1.146942164820587e+00	-7.235233725054250e+00
1	 6.026468075158744e-01	 1.158783500343079e+00	-7.540871923718189e+00
1	 5.757575136259440e-01	 1.169987455721043e+00	-7.833850945203869e+00
1	 8.365883729880681e-01	 1.040771252414892e+00	-4.503015987609024e+00
1	 8.131403546067379e-01	 1.057897033854957e+00	-4.822906115102112e+00
1	 7.892011321926615e-01	 1.074389462904693e+00	-5.149306347062622e+00
1	 7.647882075584603e-01	 1.090243324556970e+00	-5.479949459607872e+00
1	 7.399197341251362e-01	 1.105454505428851e+00	-5.812514316409356e+00
1	 7.146144600257591e-01	 1.120019993718943e+00	-6.144644169264721e+00
1	 6.888916695037869e-01	 1.133937874613762e+00	-6.473964910145601e+00
1	 6.627711229717848e-01	 1.147207321243900e+00	-6.798103021944204e+00
1	 6.362729960993706e-01	 1.159828581322929e+00	-7.114702990335963e+00
1	 6.094178182985774e-01	 1.171802959632020e+00	-7.421443958912059e+00
1	 5.822264109706172e-01	 1.183132796540936e+00	-7.716055433224953e+00
1	 5.175373129825247e-01	 1.051679135294118e+00	-9.120907190677409e+00
1	 4.930886061179270e-01	 1.061179560108253e+00	-9.346575132775083e+00
1	 4.683786316150236e-01	 1.070113971156061e+00	-9.553130089337364e+00
1	 4.434263389172353e-01	 1.078487068930921e+00	-9.741161847881814e+00
1	 4.182507216331380e-01	 1.086304366606542e+00	-9.911439318277713e+00
1	 3.928707661351534e-01	 1.093572156557455e+00	-1.006489280304011e+01
1	 3.673054016510371e-01	 1.100297474749929e+00	-1.020259571779845e+01
1	 3.415734520723819e-01	 1.106488063271783e+00	-1.032574605118136e+01
1	 3.156935896829346e-01	 1.112152331272543e+00	-1.043564783380973e+01
1	 2.896842909871788e-01	 1.117299314585631e+00	-1.053369286282919e+01
1	 2.635637947966888e-01	 1.121938634302054e+00	-1.062134290239340e+01
1	 5.240062442908519e-01	 1.064824545126001e+00	-8.948952696998386e+00
1	 4.992519420589116e-01	 1.074443720016364e+00	-9.183716836635076e+00
1	 4.742331064869885e-01	 1.083489806280113e+00	-9.400125677184130e+00
1	 4.489689238761274e-01	 1.091967563164214e+00	-9.598602161604033e+00
1	 4.234786252445683e-01	 1.099882572754026e+00	-9.779738198062688e+00
1	 3.977814342839484e-01	 1.107241206075309e+00	-9.944278890761106e+00
1	 3.718965168269625e-01	 1.114050587040045e+00	-1.009310619570477e+01
1	 3.458429320534969e-01	 1.120318554507902e+00	-1.022722226630001e+01
1	 3.196395856405784e-01	 1.126053622738153e+00	-1.034773273684040e+01
1	 2.933051850388365e-01	 1.131264940507173e+00	-1.045583017161267e+01
1	 2.668581970349608e-01	 1.135962249164317e+00	-1.055277788436528e+01
1	 5.304751688069793e-01	 1.077969941155748e+00	-8.786108978476205e+00
1	 5.054152715285452e-01	 1.087707865997702e+00	-9.029177217686188e+00
1	 4.800875752118880e-01	 1.096865627360146e+00	-9.254623164241874e+00
1	 4.545115030154290e-01	 1.105448043243582e+00	-9.462710737656337e+00
1	 4.287065233668245e-01	 1.113460764644947e+00	-9.653863217616834e+00
1	 4.026920972766799e-01	 1.120910241241152e+00	-9.828649341186345e+00
1	 3.764876271823808e-01	 1.127803684889804e+00	-9.987768800023010e+00
1	 3.501124075518630e-01	 1.134149031222319e+00	-1.013203737936312e+01
1	 3.235855774551878e-01	 1.139954899607613e+00	-1.026237196631640e+01
1	 2.969260752888898e-01	 1.145230551764896e+00	-1.037977563748168e+01
1	 2.701525958145354e-01	 1.149985849301752e+00	-1.048532301579837e+01
1	 5.369440872855219e-01	 1.091115324916893e+00	-8.631514962682612e+00
1	 5.115785952457940e-01	 1.100971999599649e+00	-8.882104463060415e+00
1	 4.859420384726598e-01	 1.110241435956580e+00	-9.115784891895299e+00
1	 4.600540769816969e-01	 1.118928510741666e+00	-9.332668694608763e+00
1	 4.339344166097567e-01	 1.127038943863363e+00	-9.533018602695810e+00
1	 4.076027556861921e-01	 1.134579263649660e+00	-9.717235506215221e+00
1	 3.810787332528601e-01	 1.141556769903712e+00	-9.885845701655750e+00
1	 3.543818790655262e-01	 1.147979495028594e+00	-1.003948773498930e+01
1	 3.275315655870700e-01	 1.153856163502768e+00	-1.017889904801934e+01
1	 3.005469621597160e-01	 1.159196149988180e+00	-1.030490262126229e+01
1	 2.734469915196949e-01	 1.164009436350527e+00	-1.041839378926222e+01
1	 5.434130004810946e-01	 1.104260697942969e+00	-8.484350582293450e+00
1	 5.177419139296249e-01	 1.114236122369594e+00	-8.741687324396988e+00
1	 4.917964969522420e-01	 1.123617233629833e+00	-8.982813092332968e+00
1	 4.655966464214873e-01	 1.132408967231106e+00	-9.207696147966274e+00
1	 4.391623055832144e-01	 1.140617111993330e+00	-9.416446475906193e+00
1	 4.125134100853292e-01	 1.148248274895508e+00	-9.609305343110433e+00
1	 3.856698355739675e-01	 1.155309843686275e+00	-9.786634209506657e+00
1	 3.586513470925326e-01	 1.161809947540285e+00	-9.948903188663826e+00
1	 3.314775504965322e-01	 1.167757416045464e+00	-1.009667924822804e+01
1	 3.041678460736920e-01	 1.173161736806400e+00	-1.023061432750948e+01
1	 2.767413845347217e-01	 1.178033011946810e+00	-1.035143353489738e+01
1	 5.498819091483128e-01	 1.117406061767513e+00	-8.343834362958283e+00
1	 5.239052282990043e-01	 1.127500235854920e+00	-8.607152731665622e+00
1	 4.976509513335732e-01	 1.136993021940326e+00	-8.854947542034829e+00
1	 4.711392119813578e-01	 1.145889414284543e+00	-9.087049916270697e+00
1	 4.443901908970471e-01	 1.154195270618903e+00	-9.303424627549813e+00
1	 4.174240610469353e-01	 1.161917276573373e+00	-9.504161261342224e+00
1	 3.902609346812702e-01	 1.169062907841999e+00	-9.689464703668078e+00
1	 3.629208121309281e-01	 1.175640390370952e+00	-9.859645135666199e+00
1	 3.354235326438815e-01	 1.181658658857547e+00	-1.001510770680874e+01
1	 3.077887274531950e-01	 1.187127313848934e+00	-1.015634204919326e+01
1	 2.800357752438979e-01	 1.192056577726769e+00	-1.028391178312919e+01
1	 5.563508140417918e-01	 1.130551417924058e+00	-8.209221179478346e+00
1	 5.300685390728995e-01	 1.140764341603014e+00	-8.477763573486936e+00
1	 5.035054022995912e-01	 1.150368802448477e+00	-8.731463378989565e+00
1	 4.766817743078647e-01	 1.159369853474618e+00	-8.970021387260712e+00
1	 4.496180731611050e-01	 1.167773421324142e+00	-9.193264442009085e+00
1	 4.223347091438546e-01	 1.175586270277928e+00	-9.401138119670675e+00
1	 3.948520311103356e-01	 1.182815963975389e+00	-9.593698712822503e+00
1	 3.671902746787591e-01	 1.189470825134154e+00	-9.771104677530758e+00
1	 3.393695124894248e-01	 1.195559893560861e+00	-9.933607700571169e+00
1	 3.114096067206023e-01	 1.201092882745161e+00	-1.008154353486333e+01
1	 2.833301640315056e-01	 1.206080135326573e+00	-1.021532274162433e+01
1	 5.628197159161465e-01	 1.143696767946138e+00	-8.079800166748552e+00
1	 5.362318469702764e-01	 1.154028441161263e+00	-8.352816630552310e+00
1	 5.093598505332343e-01	 1.163744576714707e+00	-8.611669070466281e+00
1	 4.822243340475648e-01	 1.172850286373970e+00	-8.855934531210405e+00
1	 4.548459529852376e-01	 1.181351565693099e+00	-9.085308967156994e+00
1	 4.272453549489312e-01	 1.189255257603850e+00	-9.299601361376512e+00
1	 3.994431253967307e-01	 1.196569013690954e+00	-9.498727124252159e+00
1	 3.714597352340709e-01	 1.203301253443449e+00	-9.682700914973534e+00
1	 3.433154904934695e-01	 1.209461121777253e+00	-9.851629026406378e+00
1	 3.150304842982908e-01	 1.215058445124458e+00	-1.000570146843619e+01
1	 2.866245512818271e-01	 1.220103686382390e+00	-1.014518387729721e+01
1	 5.692886155259922e-01	 1.156842113367289e+00	-7.954892773152564e+00
1	 5.423951527101020e-01	 1.167292536077051e+00	-8.231640649962966e+00
1	 5.152142967174405e-01	 1.177120346299433e+00	-8.494904519363313e+00
1	 4.877668918470149e-01	 1.186330714555242e+00	-8.744144049738011e+00
1	 4.600738309792945e-01	 1.194929705309834e+00	-8.978931115413484e+00
1	 4.321559990350095e-01	 1.202924240145813e+00	-9.198945276649996e+00
1	 4.040342180760231e-01	 1.210322058593197e+00	-9.403968515907968e+00
1	 3.757291942949101e-01	 1.217131676912397e+00	-9.593879357223035e+00
1	 3.472614671163226e-01	 1.223362345128568e+00	-9.768646494678620e+00
1	 3.186513606086379e-01	 1.229024002616201e+00	-9.928322052644992e+00
1	 2.899189373791444e-01	 1.234127232530387e+00	-1.007303459500883e+01
1	 5.757575136259440e-01	 1.169987455721043e+00	-7.833850945203869e+00
1	 5.485584570113428e-01	 1.180556627897764e+00	-8.113594549404143e+00
1	 5.210687415351480e-01	 1.190496112763076e+00	-8.380539298233462e+00
1	 4.933094483527719e-01	 1.199811139591073e+00	-8.634033649428245e+00
1	 4.653017077531255e-01	 1.208507841758404e+00	-8.873531986092853e+00
1	 4.370666419749336e-01	 1.216593219498495e+00	-9.098591382135719e+00
1	 4.086253096837799e-01	 1.224075100286626e+00	-9.308867600935745e+00
1	 3.799986523593226e-01	 1.230962097154558e+00	-9.504110438600488e+00
1	 3.512074428182912e-01	 1.237263565236650e+00	-9.684158524197517e+00
1	 3.222722360740204e-01	 1.242989556849769e+00	-9.848933687998246e+00
1	 2.932133227077402e-01	 1.248150775406734e+00	-9.998435005352611e+00
1	 5.822264109706172e-01	 1.183132796540936e+00	-7.716055433224953e+00
1	 5.547217605929659e-01	 1.193820718170789e+00	-7.998065741054210e+00
1	 5.269231856692952e-01	 1.203871877666055e+00	-8.267971001054253e+00
1	 4.988520042113924e-01	 1.213291563054103e+00	-8.525014430559327e+00
1	 4.705295839165803e-01	 1.222085976622864e+00	-8.768539299607282e+00
1	 4.419772843415477e-01	 1.230262197256569e+00	-8.997986908519442e+00
1	 4.132164007555683e-01	 1.237828140375747e+00	-9.212893775912718e+00
1	 3.842681099253542e-01	 1.244792515783489e+00	-9.412888134005199e+00
1	 3.551534180596826e-01	 1.251164783723347e+00	-9.597685830869507e+00
1	 3.258931111168158e-01	 1.256955109454539e+00	-9.767085739818118e+00
1	 2.965077076518963e-01	 1.262174316647596e+00	-9.920964774596715e+00
1	 2.635637947966888e-01	 1.121938634302054e+00	-1.062134290239340e+01
1	 2.373482296499335e-01	 1.126080727339082e+00	-1.069793088868345e+01
1	 2.110570951089145e-01	 1.129735918047314e+00	-1.076250762892218e+01
1	 1.847077204181358e-01	 1.132915330725281e+00	-1.081620470404219e+01
1	 1.583170525687149e-01	 1.135630504095502e+00	-1.086018881970674e+01
1	 1.319016272114572e-01	 1.137893348388953e+00	-1.089565050553007e+01
1	 1.054775423022452e-01	 1.139716102835537e+00	-1.092379356787250e+01
1	 7.906043448167313e-02	 1.141111293759497e+00	-1.094582534855558e+01
1	 5.266545817213228e-02	 1.142091693463350e+00	-1.096294782453098e+01
1	 2.630726735816929e-02	 1.142670280067985e+00	-1.097634956768978e+01
1	 0.000000000000000e+00	 1.142860198460186e+00	-1.098719856975716e+01
1	 2.668581970349608e-01	 1.135962249164317e+00	-1.055277788436528e+01
1	 2.403149517652857e-01	 1.140156116082579e+00	-1.063777083152074e+01
1	 2.136951925256246e-01	 1.143856994661234e+00	-1.070985866728858e+01
1	 1.870164651665213e-01	 1.147076148246399e+00	-1.077018799019451e+01
1	 1.602959285071758e-01	 1.149825259788246e+00	-1.081994645157510e+01
1	 1.335503248849474e-01	 1.152116388389058e+00	-1.086035075684866e+01
1	 1.067959534713259e-01	 1.153961926262349e+00	-1.089263543427364e+01
1	 8.004864635632519e-02	 1.155374556304495e+00	-1.091804243040260e+01
1	 5.332374738429285e-02	 1.156367210464742e+00	-1.093781157306102e+01
1	 2.663609370653354e-02	 1.156953029083323e+00	-1.095317192579231e+01
1	 0.000000000000000e+00	 1.157145321350848e+00	-1.096533404247462e+01
1	 2.701525958145354e-01	 1.149985849301752e+00	-1.048532301579837e+01
1	 2.432816707661115e-01	 1.154231490046761e+00	-1.057810663655831e+01
1	 2.163332871729747e-01	 1.157978056447746e+00	-1.065719583047242e+01
1	 1.893252074914669e-01	 1.161236950898263e+00	-1.072373928837581e+01
1	 1.622748023686338e-01	 1.164020000575990e+00	-1.077893224263770e+01
1	 1.351990208281575e-01	 1.166339413454362e+00	-1.082400390590727e+01
1	 1.081143632569111e-01	 1.168207734730349e+00	-1.086020568253204e+01
1	 8.103685719410969e-02	 1.169637803872298e+00	-1.088880021802786e+01
1	 5.398203590584604e-02	 1.170642712476017e+00	-1.091105133274356e+01
1	 2.696491970997855e-02	 1.171235763100916e+00	-1.092821486813173e+01
1	 0.000000000000000e+00	 1.171430429241259e+00	-1.094153045798196e+01
1	 2.734469915196949e-01	 1.164009436350527e+00	-1.041839378926222e+01
1	 2.462483869984567e-01	 1.168306850873860e+00	-1.051839371625741e+01
1	 2.189713793586627e-01	 1.172099105054432e+00	-1.060400835029574e+01
1	 1.916339476622377e-01	 1.175397740333110e+00	-1.067637613332836e+01
1	 1.642536743838629e-01	 1.178214728114948e+00	-1.073668710011131e+01
1	 1.368477152333388e-01	 1.180562425244396e+00	-1.078616988648968e+01
1	 1.094327718127214e-01	 1.182453529901738e+00	-1.082607950709911e+01
1	 8.202506711023368e-02	 1.183901038127150e+00	-1.085768597334777e+01
1	 5.464032381352585e-02	 1.184918201162855e+00	-1.088226380265786e+01
1	 2.729374540682866e-02	 1.185518483787291e+00	-1.090108245155966e+01
1	 0.000000000000000e+00	 1.185715523798227e+00	-1.091539768853145e+01
1	 2.767413845347217e-01	 1.178033011946810e+00	-1.035143353489739e+01
1	 2.492151008083671e-01	 1.182382200206109e+00	-1.045811341978952e+01
1	 2.216094693903863e-01	 1.186220142128876e+00	-1.054980978489959e+01
1	 1.939426859480990e-01	 1.189558518203180e+00	-1.062763903838545e+01
1	 1.662325447836380e-01	 1.192409444061334e+00	-1.069277379684072e+01
1	 1.384964082927424e-01	 1.194785425418687e+00	-1.074642959198132e+01
1	 1.107511792924775e-01	 1.196699313438713e+00	-1.078985233532576e+01
1	 8.301327621990420e-02	 1.198164260733292e+00	-1.082430661653614e+01
1	 5.529861118406629e-02	 1.199193678190934e+00	-1.085106489076026e+01
1	 2.762257083540821e-02	 1.199801192808975e+00	-1.087139759145899e+01
1	 0.000000000000000e+00	 1.200000606688556e+00	-1.088656418802926e+01
1	 2.800357752438979e-01	 1.192056577726769e+00	-1.028391178312919e+01
1	 2.521818125418886e-01	 1.196457539685740e+00	-1.039677150758022e+01
1	 2.242475575758435e-01	 1.200341169318661e+00	-1.049413658802924e+01
1	 1.962514226183161e-01	 1.203719286160712e+00	-1.057709014404396e+01
1	 1.682114137987333e-01	 1.206604150071365e+00	-1.064677568534693e+01
1	 1.401451001986197e-01	 1.209008415636766e+00	-1.070438364271912e+01
1	 1.120695858499000e-01	 1.210945087003475e+00	-1.075113863756403e+01
1	 8.400148463832836e-02	 1.212427473354968e+00	-1.078828756993208e+01
1	 5.595689809420142e-02	 1.213469145225935e+00	-1.081708858422992e+01
1	 2.795139603404157e-02	 1.214083891832495e+00	-1.083880095270221e+01
1	 0.000000000000000e+00	 1.214285679579051e+00	-1.085467589928562e+01
1	 2.833301640315056e-01	 1.206080135326573e+00	-1.021532274162433e+01
1	 2.551485225450670e-01	 1.210532870954983e+00	-1.033389673229346e+01
1	 2.268856442227319e-01	 1.214462188271370e+00	-1.043654677814851e+01
1	 1.985601579421541e-01	 1.217880045857944e+00	-1.052431196083389e+01
1	 1.701902816599233e-01	 1.220798847801255e+00	-1.059829550160391e+01
1	 1.417937911432218e-01	 1.223231397558161e+00	-1.065965123935009e+01
1	 1.133879916387095e-01	 1.225190852258222e+00	-1.070957082029480e+01
1	 8.498969248071314e-02	 1.226690677656422e+00	-1.074927168261518e+01
1	 5.661518462066523e-02	 1.227744603933536e+00	-1.077998589863708e+01
1	 2.828022104105307e-02	 1.228366582524378e+00	-1.080294991799393e+01
1	 0.000000000000000e+00	 1.228570744136519e+00	-1.081939523751235e+01
1	 2.866245512818271e-01	 1.220103686382390e+00	-1.014518387729721e+01
1	 2.581152311639481e-01	 1.224608195656070e+00	-1.026903951768981e+01
1	 2.295237296387498e-01	 1.228583200634588e+00	-1.037661869934970e+01
1	 2.008688921888782e-01	 1.232040798947115e+00	-1.046890619889654e+01
1	 1.721691485979824e-01	 1.234993538907219e+00	-1.054695425132287e+01
1	 1.434424813188000e-01	 1.237454372842401e+00	-1.061186909527842e+01
1	 1.147063968126268e-01	 1.239436610865154e+00	-1.066479819560002e+01
1	 8.597789986226567e-02	 1.240953875301895e+00	-1.070691822915650e+01
1	 5.727347084019176e-02	 1.242020055979417e+00	-1.073942389959099e+01
1	 2.860904589476704e-02	 1.242649266551153e+00	-1.076351762737065e+01
1	 0.000000000000000e+00	 1.242855802027764e+00	-1.078040014393226e+01
1	 2.899189373791444e-01	 1.234127232530387e+00	-1.007303459500883e+01
1	 2.610819387445777e-01	 1.238683515431234e+00	-1.020177072757352e+01
1	 2.321618141315945e-01	 1.242704208055896e+00	-1.031394986675718e+01
1	 2.031776256277538e-01	 1.246201547080464e+00	-1.041049267737353e+01
1	 1.741480148436851e-01	 1.249188225045472e+00	-1.049239017218078e+01
1	 1.450911709176055e-01	 1.251677343149015e+00	-1.056069044190822e+01
1	 1.160248015253724e-01	 1.253682364486469e+00	-1.061648602090691e+01
1	 8.696610689819298e-02	 1.255217067955632e+00	-1.066090197664450e+01
1	 5.793175682951503e-02	 1.256295503029258e+00	-1.069508479110125e+01
1	 2.893787063350784e-02	 1.256931945579345e+00	-1.072019208319684e+01
1	 0.000000000000000e+00	 1.257140854919592e+00	-1.073738320392257e+01
1	 2.932133227077402e-01	 1.248150775406734e+00	-9.998435005352611e+00
1	 2.640486456330018e-01	 1.252758831922707e+00	-1.013168051774113e+01
1	 2.347998980089640e-01	 1.256825212182878e+00	-1.024815588977776e+01
1	 2.054863585280461e-01	 1.260362291910229e+00	-1.034870830732865e+01
1	 1.761268806278058e-01	 1.263382907872229e+00	-1.043425776601882e+01
1	 1.467398601318895e-01	 1.265900310137534e+00	-1.050578410095655e+01
1	 1.173432059306671e-01	 1.267928114784366e+00	-1.056431460347535e+01
1	 8.795431370370210e-02	 1.269480257281874e+00	-1.061091231461491e+01
1	 5.859004266536907e-02	 1.270570946748737e+00	-1.064666506540494e+01
1	 2.926669529559979e-02	 1.271214621275483e+00	-1.067267531550477e+01
1	 0.000000000000000e+00	 1.271425904478810e+00	-1.069005082461618e+01
1	 2.965077076518963e-01	 1.262174316647596e+00	-9.920964774596714e+00
1	 2.670153521752661e-01	 1.266834146772720e+00	-1.005837726447565e+01
1	 2.374379815785563e-01	 1.270946214663118e+00	-1.017886946714216e+01
1	 2.077950911590201e-01	 1.274523035088650e+00	-1.028320614248242e+01
1	 1.781057461811192e-01	 1.277577589043705e+00	-1.037222689556843e+01
1	 1.483885491539033e-01	 1.280123275467486e+00	-1.044683361861902e+01
1	 1.186616101822315e-01	 1.282173863421045e+00	-1.050797846459340e+01
1	 8.894252039400018e-02	 1.283743444944866e+00	-1.055665244299262e+01
1	 5.924832842448790e-02	 1.284846388803535e+00	-1.059387470947877e+01
1	 2.959551991936728e-02	 1.285497295306093e+00	-1.062068260298536e+01
1	 0.000000000000000e+00	 1.285710952372222e+00	-1.063812246733577e+01
1	 1.285710952372222e+00	 0.000000000000000e+00	 2.596776117130742e+00
1	 1.285497295306093e+00	 2.959551991936768e-02	 2.579645500405392e+00
1	 1.284846388803535e+00	 5.924832842448829e-02	 2.555766655786659e+00
1	 1.283743444944865e+00	 8.894252039400048e-02	 2.524146187846068e+00
1	 1.282173863421045e+00	 1.186616101822318e-01	 2.483803927545585e+00
1	 1.280123275467486e+00	 1.483885491539035e-01	 2.433781107756207e+00
1	 1.277577589043704e+00	 1.781057461811192e-01	 2.373149142090746e+00
1	 1.274523035088650e+00	 2.077950911590204e-01	 2.301018964834232e+00
1	 1.270946214663118e+00	 2.374379815785564e-01	 2.216550875718078e+00
1	 1.266834146772720e+00	 2.670153521752661e-01	 2.118964818405801e+00
1	 1.262174316647597e+00	 2.965077076518963e-01	 2.007551006073129e+00
1	 1.299996999436575e+00	 0.000000000000000e+00	 2.452082352922948e+00
1	 1.299780968341605e+00	 2.992436754283352e-02	 2.435567408299710e+00
1	 1.299122829357391e+00	 5.990666022752204e-02	 2.412604280585339e+00
1	 1.298007630249775e+00	 8.993079620458713e-02	 2.382247959614395e+00
1	 1.296420608479857e+00	 1.199801066498033e-01	 2.343566799932495e+00
1	 1.294347235625972e+00	 1.500373534937382e-01	 2.295650385086007e+00
1	 1.291773263065350e+00	 1.800847501464908e-01	 2.237617966819458e+00
1	 1.288684768743407e+00	 2.101039852746392e-01	 2.168627437959366e+00
1	 1.285068204839977e+00	 2.400762496692715e-01	 2.087884784269738e+00
1	 1.280910446123659e+00	 2.699822662242060e-01	 1.994653946275645e+00
1	 1.276198838767993e+00	 2.998023230222043e-01	 1.888267007193531e+00
1	 1.314283043168385e+00	 0.000000000000000e+00	 2.315716053579687e+00
1	 1.314064638045126e+00	 3.025321508956966e-02	 2.299841341745988e+00
1	 1.313399266580941e+00	 6.056499187694717e-02	 2.277809958705667e+00
1	 1.312271812227235e+00	 9.091907178457748e-02	 2.248723684756250e+00
1	 1.310667350215281e+00	 1.212986028097242e-01	 2.211697693446783e+00
1	 1.308571192466371e+00	 1.516861574488443e-01	 2.165868104296534e+00
1	 1.305968933775486e+00	 1.820637536500776e-01	 2.110400082993209e+00
1	 1.302846499094542e+00	 2.124128788514846e-01	 2.044496448953669e+00
1	 1.299190191722443e+00	 2.427145171443396e-01	 1.967406737178162e+00
1	 1.294986742190813e+00	 2.729491795807888e-01	 1.878436647624303e+00
1	 1.290223357616614e+00	 3.030969376236583e-01	 1.776957801088939e+00
1	 1.328569080234105e+00	 0.000000000000000e+00	 2.187183862921319e+00
1	 1.328348301083665e+00	 3.058206248284655e-02	 2.171965561327161e+00
1	 1.327675697142885e+00	 6.122332321915620e-02	 2.150873390590076e+00
1	 1.326535987548803e+00	 9.190734690337923e-02	 2.123054351689580e+00
1	 1.324914085302944e+00	 1.226170983543531e-01	 2.087668759441698e+00
1	 1.322795142669631e+00	 1.533349606345124e-01	 2.043897483291466e+00
1	 1.320164597861666e+00	 1.840427562301277e-01	 1.990949709118337e+00
1	 1.317008222837535e+00	 2.147217713508359e-01	 1.928071183149311e+00
1	 1.313312172015283e+00	 2.453527833881926e-01	 1.854552886661720e+00
1	 1.309063031689621e+00	 2.759160915527708e-01	 1.769740077032020e+00
1	 1.304247869921001e+00	 3.063915506875612e-01	 1.673041617060468e+00
1	 1.342855107300192e+00	 0.000000000000000e+00	 2.066013414947910e+00
1	 1.342631954124233e+00	 3.091090964593466e-02	 2.051459674535351e+00
1	 1.341952117711919e+00	 6.188165410054168e-02	 2.031305987852913e+00
1	 1.340800152886037e+00	 9.289562133040007e-02	 2.004743030735637e+00
1	 1.339160810418477e+00	 1.239355929760491e-01	 1.970974607231469e+00
1	 1.337019082916703e+00	 1.549837626660329e-01	 1.929224578099808e+00
1	 1.334360252011446e+00	 1.860217574248894e-01	 1.878744284801891e+00
1	 1.331169936667871e+00	 2.170306622339723e-01	 1.818820431395934e+00
1	 1.327434142423264e+00	 2.479910477852630e-01	 1.748783374873701e+00
1	 1.323139311335525e+00	 2.788830014479088e-01	 1.668015761923928e+00
1	 1.318272372408692e+00	 3.096861614452167e-01	 1.575961437085797e+00
1	 1.357141121033102e+00	 0.000000000000000e+00	 1.951752229081634e+00
1	 1.356915593833839e+00	 3.123975650210440e-02	 1.937863512237644e+00
1	 1.356228524956741e+00	 6.253998436749619e-02	 1.918639730572901e+00
1	 1.355064304910496e+00	 9.388389483504776e-02	 1.893313711897448e+00
1	 1.353407522237509e+00	 1.252540863671710e-01	 1.861131122075137e+00
1	 1.351243009888537e+00	 1.566325631586963e-01	 1.821357080848522e+00
1	 1.348555892912382e+00	 1.880007567726111e-01	 1.773283248564605e+00
1	 1.345331637281031e+00	 2.193395509621733e-01	 1.716235347637572e+00
1	 1.341556099651152e+00	 2.506293097199832e-01	 1.649581071242413e+00
1	 1.337215577843965e+00	 2.818499085739595e-01	 1.572738319751894e+00
1	 1.332296861807227e+00	 3.129807691279275e-01	 1.485183693003880e+00
1	 1.371427118099289e+00	 0.000000000000000e+00	 1.843966674437785e+00
1	 1.371199216879492e+00	 3.156860297462624e-02	 1.830736075343703e+00
1	 1.370504915546047e+00	 6.319831386641224e-02	 1.812426095985486e+00
1	 1.369328440293738e+00	 9.487216718673007e-02	 1.788310215257427e+00
1	 1.367654217435671e+00	 1.265725782200777e-01	 1.757674357016339e+00
1	 1.365466920266081e+00	 1.582813617277929e-01	 1.719823192841481e+00
1	 1.362751517252028e+00	 1.899797538115409e-01	 1.674086892019868e+00
1	 1.359493321372499e+00	 2.216484369967183e-01	 1.619828284119939e+00
1	 1.355678040403714e+00	 2.532675685767853e-01	 1.556450388706146e+00
1	 1.351291827930385e+00	 2.848168122386797e-01	 1.483404255330791e+00
1	 1.346321334844147e+00	 3.162753729669972e-01	 1.400197045103506e+00
1	 1.385713095165209e+00	 0.000000000000000e+00	 1.742240998144316e+00
1	 1.385482819928202e+00	 3.189744898677063e-02	 1.729654546610472e+00
1	 1.384781286148537e+00	 6.385664244368242e-02	 1.712235053423810e+00
1	 1.383592555707320e+00	 9.586043815485464e-02	 1.689295168754990e+00
1	 1.381900892688592e+00	 1.278910682271282e-01	 1.660159493250677e+00
1	 1.379690810730285e+00	 1.599301579886133e-01	 1.624170567326154e+00
1	 1.376947121717941e+00	 1.919587480799270e-01	 1.580695284909174e+00
1	 1.373654985637756e+00	 2.239573197988867e-01	 1.529131698627412e+00
1	 1.369799961385716e+00	 2.559058237401017e-01	 1.468916173151047e+00
1	 1.365368058310225e+00	 2.877837117498259e-01	 1.399530832546348e+00
1	 1.360345788246990e+00	 3.195699721937289e-01	 1.320511236242863e+00
1	 1.399999048897318e+00	 0.000000000000000e+00	 1.646176413136184e+00
1	 1.399766399646979e+00	 3.222629446180800e-02	 1.634213362932566e+00
1	 1.399057633432906e+00	 6.451496994569926e-02	 1.617654120777590e+00
1	 1.397856647822801e+00	 9.684870750882919e-02	 1.595849048532568e+00
1	 1.396147544671901e+00	 1.292095560806813e-01	 1.568159864127177e+00
1	 1.393914677962101e+00	 1.615789515564481e-01	 1.533965316971691e+00
1	 1.391142702997676e+00	 1.939377391160178e-01	 1.492667265934254e+00
1	 1.387816626772285e+00	 2.262661988299577e-01	 1.443697128606110e+00
1	 1.383921859301924e+00	 2.585440745943648e-01	 1.386522660824543e+00
1	 1.379444265698925e+00	 2.907506064151547e-01	 1.320655015123760e+00
1	 1.374370218743297e+00	 3.228645660394258e-01	 1.245656016106341e+00
1	 1.414284975962072e+00	 0.000000000000000e+00	 1.555390241220376e+00
1	 1.414049952702832e+00	 3.255513932300882e-02	 1.544023343842675e+00
1	 1.413333954067853e+00	 6.517329621885529e-02	 1.528287478121232e+00
1	 1.412120713311740e+00	 9.783697501806153e-02	 1.507569277427195e+00
1	 1.410394170061229e+00	 1.305280414730958e-01	 1.481266038285596e+00
1	 1.408138518642477e+00	 1.632277420465876e-01	 1.448791081484000e+00
1	 1.405338257778788e+00	 1.959167264580614e-01	 1.409579494734802e+00
1	 1.401978241471570e+00	 2.285750735512108e-01	 1.363094227444952e+00
1	 1.398043730857107e+00	 2.611823205240068e-01	 1.308832498919196e+00
1	 1.393520446811928e+00	 2.937174955424229e-01	 1.246332471575273e+00
1	 1.388394623060607e+00	 3.261591537353912e-01	 1.175180130640801e+00
1	 1.428570873025926e+00	 0.000000000000000e+00	 1.469515107543599e+00
1	 1.428333475762771e+00	 3.288398349364353e-02	 1.458710872288342e+00
1	 1.427610244722076e+00	 6.583162110954309e-02	 1.443755134510444e+00
1	 1.426384748845693e+00	 9.882524045195930e-02	 1.424069377538463e+00
1	 1.424640765532204e+00	 1.318465240967308e-01	 1.399084957791155e+00
1	 1.422362329452363e+00	 1.648765290743223e-01	 1.368248151149364e+00
1	 1.419533782748831e+00	 1.978957096443060e-01	 1.331025560732729e+00
1	 1.416139826431091e+00	 2.308839434239253e-01	 1.286909858564815e+00
1	 1.412165572756028e+00	 2.638205609134598e-01	 1.235425824906222e+00
1	 1.407596598364675e+00	 2.966843784393872e-01	 1.176136639835338e+00
1	 1.402418997926461e+00	 3.294537345129283e-01	 1.108650372109842e+00
1	 1.262174316647597e+00	 2.965077076518963e-01	 2.007551006073129e+00
1	 1.256955109454539e+00	 3.258931111168156e-01	 1.886640631626793e+00
1	 1.251164783723348e+00	 3.551534180596824e-01	 1.760836760378932e+00
1	 1.244792515783490e+00	 3.842681099253539e-01	 1.629926785432366e+00
1	 1.237828140375747e+00	 4.132164007555682e-01	 1.493706273201508e+00
1	 1.230262197256569e+00	 4.419772843415474e-01	 1.351980452840614e+00
1	 1.222085976622863e+00	 4.705295839165800e-01	 1.204565760120271e+00
1	 1.213291563054103e+00	 4.988520042113921e-01	 1.051291419800869e+00
1	 1.203871877666055e+00	 5.269231856692950e-01	 8.920010481863210e-01
1	 1.193820718170790e+00	 5.547217605929656e-01	 7.265542553117477e-01
1	 1.183132796540936e+00	 5.822264109706171e-01	 5.548282242025865e-01
1	 1.276198838767993e+00	 2.998023230222043e-01	 1.888267007193531e+00
1	 1.270921638882720e+00	 3.295142394221146e-01	 1.772864144501261e+00
1	 1.265066974533483e+00	 3.590996693027053e-01	 1.652852724461187e+00
1	 1.258623901783632e+00	 3.885378661189792e-01	 1.528048448134676e+00
1	 1.251582142423700e+00	 4.178078129515949e-01	 1.398269990098914e+00
1	 1.243932131093599e+00	 4.468882701834049e-01	 1.263339898746168e+00
1	 1.235665061212145e+00	 4.757578257441907e-01	 1.123085569851406e+00
1	 1.226772929407417e+00	 5.043949477444406e-01	 9.773402872191616e-01
1	 1.217248578138877e+00	 5.327780392929062e-01	 8.259443222767850e-01
1	 1.207085736202502e+00	 5.608854952672500e-01	 6.687460824894718e-01
1	 1.196279056813543e+00	 5.886957607827461e-01	 5.056032964832060e-01
1	 1.290223357616614e+00	 3.030969376236583e-01	 1.776957801088939e+00
1	 1.284888165052574e+00	 3.331353668823323e-01	 1.666913760016308e+00
1	 1.278969162100207e+00	 3.630459196247387e-01	 1.552510636949538e+00
1	 1.272455284556780e+00	 3.928076213160798e-01	 1.433590425002611e+00
1	 1.265336141262610e+00	 4.223992240759926e-01	 1.309993313181762e+00
1	 1.257602061741100e+00	 4.517992548790162e-01	 1.181558043262860e+00
1	 1.249244142632999e+00	 4.809860663514812e-01	 1.048122357063956e+00
1	 1.240254292615020e+00	 5.099378899836977e-01	 9.095235369240711e-01
1	 1.230625275490343e+00	 5.386328915499143e-01	 7.655990406485962e-01
1	 1.220350751138874e+00	 5.670492285028369e-01	 6.161872304138520e-01
1	 1.209425314018505e+00	 5.951651090848595e-01	 4.611281931639097e-01
1	 1.304247869921001e+00	 3.063915506875612e-01	 1.673041617060467e+00
1	 1.298854684705190e+00	 3.367564926525975e-01	 1.568200181292679e+00
1	 1.292871343179647e+00	 3.669921681050627e-01	 1.459216434117562e+00
1	 1.286286660875609e+00	 3.970773745204665e-01	 1.345956727405025e+00
1	 1.279090133683234e+00	 4.269906330575335e-01	 1.228281242590179e+00
1	 1.271271986009470e+00	 4.567102372825999e-01	 1.106043848590403e+00
1	 1.262823217717048e+00	 4.862143045186584e-01	 9.790920655760160e-01
1	 1.253735649531359e+00	 5.154808296359515e-01	 8.472671456621721e-01
1	 1.244001966599343e+00	 5.444877410743382e-01	 7.104042804037597e-01
1	 1.233615759884871e+00	 5.732129588616810e-01	 5.683329434183989e-01
1	 1.222571565088504e+00	 6.016344543676050e-01	 4.208773745352716e-01
1	 1.318272372408692e+00	 3.096861614452167e-01	 1.575961437085797e+00
1	 1.312821194581664e+00	 3.403776158880397e-01	 1.476159184418883e+00
1	 1.306773514527932e+00	 3.709384138229578e-01	 1.372401328070290e+00
1	 1.300118027512793e+00	 4.013471247359494e-01	 1.264576724462373e+00
1	 1.292844116476331e+00	 4.315820388249894e-01	 1.152564094139676e+00
1	 1.284941900709110e+00	 4.616212162483760e-01	 1.036231423994563e+00
1	 1.276402283295917e+00	 4.914425390259288e-01	 9.154354891607726e-01
1	 1.267216997010882e+00	 5.210237654079906e-01	 7.900215131722108e-01
1	 1.257378648344766e+00	 5.503425865001975e-01	 6.598229841370946e-01
1	 1.246880759345454e+00	 5.793766849057361e-01	 5.246616433186589e-01
1	 1.235717806956221e+00	 6.081037951216303e-01	 3.843476606223954e-01
1	 1.332296861807227e+00	 3.129807691279275e-01	 1.485183693003880e+00
1	 1.326787691423086e+00	 3.439987357437876e-01	 1.390250298771541e+00
1	 1.320675672901189e+00	 3.748846558577046e-01	 1.291520476379636e+00
1	 1.313949381241011e+00	 4.056168709663394e-01	 1.188903808361679e+00
1	 1.306598086432660e+00	 4.361734403071328e-01	 1.082296166840695e+00
1	 1.298611802650422e+00	 4.665321906305634e-01	 9.715787021899049e-01
1	 1.289981336201229e+00	 4.966707686534989e-01	 8.566169635545586e-01
1	 1.280698331908039e+00	 5.265666960066030e-01	 7.372601766517619e-01
1	 1.270755317605502e+00	 5.561974264615115e-01	 6.133407037307067e-01
1	 1.260145746425587e+00	 5.855404051969570e-01	 4.846737094028004e-01
1	 1.248864036554340e+00	 6.145731298375837e-01	 3.510570541990599e-01
1	 1.346321334844147e+00	 3.162753729669972e-01	 1.400197045103506e+00
1	 1.340754171970549e+00	 3.476198513749700e-01	 1.309955569793327e+00
1	 1.334577815055549e+00	 3.788308932885835e-01	 1.216051734845061e+00
1	 1.327780718832936e+00	 4.098866122154465e-01	 1.118414143066724e+00
1	 1.320352040342977e+00	 4.407648364327352e-01	 1.016954493675666e+00
1	 1.312281688643806e+00	 4.714431592833817e-01	 9.115661984261698e-01
1	 1.303560373264609e+00	 5.018989921815753e-01	 8.021231401922374e-01
1	 1.294179651077275e+00	 5.321096201385769e-01	 6.884786055478592e-01
1	 1.284131971260440e+00	 5.620522595922992e-01	 5.704644226401212e-01
1	 1.273410718030233e+00	 5.917041182972974e-01	 4.478903346521010e-01
1	 1.262010250815542e+00	 6.210424570061129e-01	 3.205436373435551e-01
1	 1.360345788246990e+00	 3.195699721937289e-01	 1.320511236242862e+00
1	 1.354720632965146e+00	 3.512409619367159e-01	 1.234778398279581e+00
1	 1.348479937747139e+00	 3.827771251948748e-01	 1.145494487382388e+00
1	 1.341612037061243e+00	 4.141563474870811e-01	 1.052605490406803e+00
1	 1.334105974998042e+00	 4.453562261305693e-01	 9.560376696268322e-01
1	 1.325951555499662e+00	 4.763541210610502e-01	 8.556958463116211e-01
1	 1.317139391317681e+00	 5.071272083903644e-01	 7.514618357736444e-01
1	 1.307660951373040e+00	 5.376525365107007e-01	 6.431930708767206e-01
1	 1.297508606188468e+00	 5.679070845265797e-01	 5.307214510090832e-01
1	 1.286675671064355e+00	 5.978678227687122e-01	 4.138524526917308e-01
1	 1.275156446672509e+00	 6.275117751178659e-01	 2.923645362303997e-01
1	 1.374370218743297e+00	 3.228645660394258e-01	 1.245656016106341e+00
1	 1.368687071147968e+00	 3.548620665841546e-01	 1.164242450710121e+00
1	 1.362382037732088e+00	 3.867233506558594e-01	 1.079368547532997e+00
1	 1.355443332698608e+00	 4.184260757850536e-01	 9.909961080185339e-01
1	 1.347859887188615e+00	 4.499476083294069e-01	 8.990647514383712e-01
1	 1.339621400028392e+00	 4.812650748177886e-01	 8.034899048935442e-01
1	 1.330718387192070e+00	 5.123554160600730e-01	 7.041609522460246e-01
1	 1.321142229649782e+00	 5.431954438297626e-01	 6.009395837503437e-01
1	 1.310885219268478e+00	 5.737618998983726e-01	 4.936583884124486e-01
1	 1.299940602432917e+00	 6.040315171731547e-01	 3.821197304209129e-01
1	 1.288302621057924e+00	 6.339810826634908e-01	 2.660949492853813e-01
1	 1.388394623060607e+00	 3.261591537353912e-01	 1.175180130640801e+00
1	 1.382653483260108e+00	 3.584831644724148e-01	 1.097890635604186e+00
1	 1.376284111766524e+00	 3.906695687508174e-01	 1.017213126530753e+00
1	 1.369274602517707e+00	 4.226957961131750e-01	 9.331237140614695e-01
1	 1.361613773705451e+00	 4.545389819580201e-01	 8.455742240421089e-01
1	 1.353291219040396e+00	 4.861760194078157e-01	 7.544899319588917e-01
1	 1.344297357719400e+00	 5.175836139709075e-01	 6.597674622248536e-01
1	 1.334623482761948e+00	 5.487383408025508e-01	 5.612728982179356e-01
1	 1.324261807379358e+00	 5.796167043416971e-01	 4.588401494465615e-01
1	 1.313205509040881e+00	 6.101952000725799e-01	 3.522696216797827e-01
1	 1.301448770904468e+00	 6.404503781336350e-01	 2.413272342247812e-01
1	 1.402418997926461e+00	 3.294537345129283e-01	 1.108650372109842e+00
1	 1.396619866042658e+00	 3.621042547566253e-01	 1.035284141278081e+00
1	 1.390186156606576e+00	 3.946157785590295e-01	 9.585858632687762e-01
1	 1.383105843291214e+00	 4.269655074752547e-01	 8.785445140346269e-01
1	 1.375367631339310e+00	 4.591303459451807e-01	 7.951230289815294e-01
1	 1.366961009346076e+00	 4.910869536853510e-01	 7.082558189208419e-01
1	 1.357876299731293e+00	 5.228118009030744e-01	 6.178464552735716e-01
1	 1.348104707563986e+00	 5.542812261358537e-01	 5.237655739212558e-01
1	 1.337638367399997e+00	 5.854714964905721e-01	 4.258490477690332e-01
1	 1.326470387793212e+00	 6.163588700289419e-01	 3.238964776814183e-01
1	 1.314594893144823e+00	 6.469196600189466e-01	 2.176700498579253e-01
1	 1.183132796540936e+00	 5.822264109706171e-01	 5.548282242025868e-01
1	 1.171802959632020e+00	 6.094178182985777e-01	 3.753363671657111e-01
1	 1.159828581322929e+00	 6.362729960993709e-01	 1.870823063023315e-01
1	 1.147207321243899e+00	 6.627711229717850e-01	-9.345328922392981e-03
1	 1.133937874613762e+00	 6.888916695037870e-01	-2.133637476861222e-01
1	 1.120019993718943e+00	 7.146144600257595e-01	-4.244012660240141e-01
1	 1.105454505428850e+00	 7.399197341251366e-01	-6.419025588074460e-01
1	 1.090243324556970e+00	 7.647882075584607e-01	-8.653338167424440e-01
1	 1.074389462904693e+00	 7.892011321926621e-01	-1.094187728054806e+00
1	 1.057897033854956e+00	 8.131403546067386e-01	-1.327988204763025e+00
1	 1.040771252414892e+00	 8.365883729880681e-01	-1.566294775594263e+00
1	 1.196279056813543e+00	 5.886957607827461e-01	 5.056032964832050e-01
1	 1.184823329568884e+00	 6.161893026801177e-01	 3.349058668491994e-01
1	 1.172715899167537e+00	 6.433428790699680e-01	 1.555255656430075e-01
1	 1.159954399234961e+00	 6.701354371961921e-01	-3.198863888478870e-02
1	 1.146537510492046e+00	 6.965462195362728e-01	-2.270977121645983e-01
1	 1.132464982472780e+00	 7.225548262406800e-01	-4.292776616566062e-01
1	 1.117737651234249e+00	 7.481412773310235e-01	-6.380245761992562e-01
1	 1.102357452866200e+00	 7.732860742889249e-01	-8.528595177784477e-01
1	 1.086327432635354e+00	 7.979702606633312e-01	-1.073333186548536e+00
1	 1.069651749630091e+00	 8.221754813233386e-01	-1.299030281203479e+00
1	 1.052335676803569e+00	 8.458840399867048e-01	-1.529573479988715e+00
1	 1.209425314018505e+00	 5.951651090848595e-01	 4.611281931639097e-01
1	 1.197843696467493e+00	 6.229607854811509e-01	 2.987013624266700e-01
1	 1.185603214004979e+00	 6.504127603904537e-01	 1.276589183563261e-01
1	 1.172701474251644e+00	 6.774997497018224e-01	-5.148844925909923e-02
1	 1.159137143430437e+00	 7.042007677823064e-01	-2.382436086767054e-01
1	 1.144909968322899e+00	 7.304951906025160e-01	-4.321279271815899e-01
1	 1.130020794173789e+00	 7.563628186182840e-01	-6.326860956570182e-01
1	 1.114471578349102e+00	 7.817839390363610e-01	-8.394907586493885e-01
1	 1.098265399580877e+00	 8.067393870877569e-01	-1.052146872153894e+00
1	 1.081406462662920e+00	 8.312106059317127e-01	-1.270295713545220e+00
1	 1.063900098494396e+00	 8.551797048164093e-01	-1.493618472197513e+00
1	 1.222571565088504e+00	 6.016344543676050e-01	 4.208773745352714e-01
1	 1.210864057289905e+00	 6.297322651218270e-01	 2.662189612383915e-01
1	 1.198490522828354e+00	 6.574826384113476e-01	 1.030019551493251e-01
1	 1.185448543319761e+00	 6.848640587704881e-01	-6.829985159241109e-02
1	 1.171736770489137e+00	 7.118553124559704e-01	-2.472293905761478e-01
1	 1.157354948365572e+00	 7.384355512586466e-01	-4.333510835964598e-01
1	 1.142303931381488e+00	 7.645843560686765e-01	-6.262554505436246e-01
1	 1.126585698179115e+00	 7.902817998180376e-01	-8.255634814140431e-01
1	 1.110203360955788e+00	 8.155085094198991e-01	-1.030930696285111e+00
1	 1.093161170210711e+00	 8.402457263237395e-01	-1.242050820127835e+00
1	 1.075464514789027e+00	 8.644753653082524e-01	-1.458659004271034e+00
1	 1.235717806956221e+00	 6.081037951216303e-01	 3.843476606223954e-01
1	 1.223884408998180e+00	 6.365037400222964e-01	 2.369762091594524e-01
1	 1.211377822630763e+00	 6.645525114831703e-01	 8.109470592217830e-02
1	 1.198195603465128e+00	 6.922283626840025e-01	-8.285857563928795e-02
1	 1.184336388728350e+00	 7.195098517713456e-01	-2.544648042898425e-01
1	 1.169799919697071e+00	 7.463759063564521e-01	-4.333291761829119e-01
1	 1.154587059991365e+00	 7.728058877639603e-01	-6.190853044057196e-01
1	 1.138699809529677e+00	 7.987796546512245e-01	-8.113993367045086e-01
1	 1.122141313974611e+00	 8.242776256137182e-01	-1.009973727068848e+00
1	 1.104915869530733e+00	 8.492808403912976e-01	-1.214550590616002e+00
1	 1.087028922989120e+00	 8.737710192933065e-01	-1.424914576870489e+00
1	 1.248864036554340e+00	 6.145731298375837e-01	 3.510570541990601e-01
1	 1.236904748554374e+00	 6.432752086027080e-01	 2.105109620819073e-01
1	 1.224265110405305e+00	 6.716223779564416e-01	 6.149656383094171e-02
1	 1.210942651713557e+00	 6.995926597241778e-01	-9.558200861017882e-02
1	 1.196935995208283e+00	 7.271643839425148e-01	-2.603423478003510e-01
1	 1.182244879413671e+00	 7.543162540433125e-01	-4.324281682048218e-01
1	 1.166870177137439e+00	 7.810274117858940e-01	-6.115134759558603e-01
1	 1.150813909574226e+00	 8.072775015531899e-01	-7.973064361766989e-01
1	 1.134079255851869e+00	 8.330467336231737e-01	-9.895528655914126e-01
1	 1.116670557880252e+00	 8.583159460262669e-01	-1.188039282543455e+00
1	 1.098593320396328e+00	 8.830666646026432e-01	-1.392595452808789e+00
1	 1.262010250815542e+00	 6.210424570061129e-01	 3.205436373435556e-01
1	 1.249925072920549e+00	 6.500466692832125e-01	 1.863803279101387e-01
1	 1.237152383145082e+00	 6.786922361816812e-01	 4.378527657810061e-02
1	 1.223689685090863e+00	 7.069569481728269e-01	-1.068701507340311e-01
1	 1.209535586989136e+00	 7.348189071835588e-01	-2.652381692392735e-01
1	 1.194689824611643e+00	 7.622565924666073e-01	-4.309987787651449e-01
1	 1.179153279953728e+00	 7.892489262162363e-01	-6.038637125073252e-01
1	 1.162927995486199e+00	 8.157753385412044e-01	-7.835800579455490e-01
1	 1.146017183802085e+00	 8.418158314022254e-01	-9.699334798917841e-01
1	 1.128425232516537e+00	 8.673510411205255e-01	-1.162750980583182e+00
1	 1.110157704312310e+00	 8.923622990673346e-01	-1.361903138504019e+00
1	 1.275156446672509e+00	 6.275117751178659e-01	 2.923645362304000e-01
1	 1.262945379058761e+00	 6.568181204839599e-01	 1.641596739822314e-01
1	 1.250039637843193e+00	 6.857620845094093e-01	 2.755600008075379e-02
1	 1.236436700622858e+00	 7.143212263117624e-01	-1.171065117299462e-01
1	 1.222135161131115e+00	 7.424734197085595e-01	-2.695129099125937e-01
1	 1.207134752387260e+00	 7.701969197737164e-01	-4.293772688507104e-01
1	 1.191436365574252e+00	 7.974704291367465e-01	-5.964464155803817e-01
1	 1.175042064439034e+00	 8.242731636325358e-01	-7.705033083968090e-01
1	 1.157955095039786e+00	 8.505849169048342e-01	-9.513699997493510e-01
1	 1.140179890696855e+00	 8.763861235659529e-01	-1.138910121232714e+00
1	 1.121722072038720e+00	 9.016579205184524e-01	-1.333030835660036e+00
1	 1.288302621057924e+00	 6.339810826634908e-01	 2.660949492853814e-01
1	 1.275965663931068e+00	 6.635895606250993e-01	 1.434416952453466e-01
1	 1.262926871492737e+00	 6.928319212901460e-01	 1.242041006207656e-02
1	 1.249183695335358e+00	 7.216854924227970e-01	-1.266589524072385e-01
1	 1.234734714694425e+00	 7.501279197315989e-01	-2.735124957258523e-01
1	 1.219579659836794e+00	 7.781372341120201e-01	-4.278861792644468e-01
1	 1.203719431133027e+00	 8.056919186291830e-01	-5.895593220956225e-01
1	 1.187156113606170e+00	 8.327709748444542e-01	-7.583477434904012e-01
1	 1.169892986779494e+00	 8.593539880849598e-01	-9.341064750656034e-01
1	 1.151934529678472e+00	 8.854211912544275e-01	-1.116731985384590e+00
1	 1.133286420877215e+00	 9.109535267870686e-01	-1.306163865300715e+00
1	 1.301448770904468e+00	 6.404503781336350e-01	 2.413272342247816e-01
1	 1.288985924499531e+00	 6.703609881267809e-01	 1.238355388903781e-01
1	 1.275814081086816e+00	 6.999017448744109e-01	-1.994132528382153e-03
1	 1.261930666254174e+00	 7.290497447877435e-01	-1.358804752729797e-01
1	 1.247334244739268e+00	 7.577824054667585e-01	-2.775688806568489e-01
1	 1.232024544056519e+00	 7.860775336288979e-01	-4.268350238463227e-01
1	 1.216002473764073e+00	 8.139133927753053e-01	-5.834881442935378e-01
1	 1.199270140161044e+00	 8.412687701942285e-01	-7.473739524190209e-01
1	 1.181830856235734e+00	 8.681230428965618e-01	-9.183771004134917e-01
1	 1.163689146718658e+00	 8.944562420778287e-01	-1.096423161051737e+00
1	 1.144850748129450e+00	 9.202491157042549e-01	-1.281480066111839e+00
1	 1.314594893144823e+00	 6.469196600189466e-01	 2.176700498579247e-01
1	 1.302006157726207e+00	 6.771324014091545e-01	 1.049659814949829e-01
1	 1.288701263618528e+00	 7.069715536127238e-01	-1.604536603277634e-02
1	 1.274677610405123e+00	 7.364139816884141e-01	-1.451099677153905e-01
1	 1.259933748325849e+00	 7.654368751281202e-01	-2.820007456315873e-01
1	 1.244469402142706e+00	 7.940178164717294e-01	-4.265209411118530e-01
1	 1.228285490601410e+00	 8.221348496568718e-01	-5.785071712690835e-01
1	 1.211384141277094e+00	 8.497665476991278e-01	-7.378321062563948e-01
1	 1.193768700623030e+00	 8.768920792936009e-01	-9.044067081219511e-01
1	 1.175443739074679e+00	 9.034912739280352e-01	-1.078181978336719e+00
1	 1.156415051097081e+00	 9.295446851010828e-01	-1.259150168888706e+00
1	 1.040771252414892e+00	 8.365883729880681e-01	-1.566294775594263e+00
1	 1.023018427960310e+00	 8.595283939712974e-01	-1.814607002768527e+00
1	 1.004645946972983e+00	 8.819443910647330e-01	-2.077676589964415e+00
1	 9.856622672384795e-01	 9.038211482654626e-01	-2.353891488745726e+00
1	 9.660769020995830e-01	 9.251443046312183e-01	-2.641543216528139e+00
1	 9.459003975030937e-01	 9.459003975030944e-01	-2.938838848916161e+00
1	 9.251443046312178e-01	 9.660769020995831e-01	-3.243914036213400e+00
1	 9.038211482654623e-01	 9.856622672384796e-01	-3.554846863133819e+00
1	 8.819443910647331e-01	 1.004645946972983e+00	-3.869672354032591e+00
1	 8.595283939712971e-01	 1.023018427960311e+00	-4.186397413833209e+00
1	 8.365883729880681e-01	 1.040771252414892e+00	-4.503015987609025e+00
1	 1.052335676803569e+00	 8.458840399867048e-01	-1.529573479988715e+00
1	 1.034385593637595e+00	 8.690789566902977e-01	-1.770292467798748e+00
1	 1.015808968688077e+00	 8.917440268656871e-01	-2.025784549726089e+00
1	 9.966143537184107e-01	 9.138638654388909e-01	-2.294526349886552e+00
1	 9.768113677779181e-01	 9.354239518974904e-01	-2.574898577167177e+00
1	 9.564106739936137e-01	 9.564106739936139e-01	-2.865197321190837e+00
1	 9.354239518974901e-01	 9.768113677779182e-01	-3.163646369258979e+00
1	 9.138638654388903e-01	 9.966143537184112e-01	-3.468410373330060e+00
1	 8.917440268656868e-01	 1.015808968688077e+00	-3.777608679304775e+00
1	 8.690789566902973e-01	 1.034385593637595e+00	-4.089329618440849e+00
1	 8.458840399867049e-01	 1.052335676803569e+00	-4.401645052967870e+00
1	 1.063900098494396e+00	 8.551797048164093e-01	-1.493618472197513e+00
1	 1.045752756663082e+00	 8.786295171809760e-01	-1.727269555547336e+00
1	 1.026971987799014e+00	 9.015436603802878e-01	-1.975687542674580e+00
1	 1.007566437643386e+00	 9.239065802693275e-01	-2.237434482134717e+00
1	 9.875458309520403e-01	 9.457035967655604e-01	-2.510977165068836e+00
1	 9.669209480321814e-01	 9.669209480321818e-01	-2.794697750394440e+00
1	 9.457035967655600e-01	 9.875458309520405e-01	-3.086905406072906e+00
1	 9.239065802693268e-01	 1.007566437643387e+00	-3.385848805196384e+00
1	 9.015436603802873e-01	 1.026971987799014e+00	-3.689729298812134e+00
1	 8.786295171809756e-01	 1.045752756663083e+00	-3.996714574689112e+00
1	 8.551797048164094e-01	 1.063900098494396e+00	-4.304952602998276e+00
1	 1.075464514789027e+00	 8.644753653082524e-01	-1.458659004271034e+00
1	 1.057119914384448e+00	 8.881800732149159e-01	-1.685730065088006e+00
1	 1.038135001701094e+00	 9.113432893219885e-01	-1.927540587865241e+00
1	 1.018518516457923e+00	 9.339492904134958e-01	-2.182734853452348e+00
1	 9.982802891172464e-01	 9.559832368368600e-01	-2.449862679036515e+00
1	 9.774312171664081e-01	 9.774312171664084e-01	-2.727389397683400e+00
1	 9.559832368368598e-01	 9.982802891172471e-01	-3.013706847379287e+00
1	 9.339492904134957e-01	 1.018518516457923e+00	-3.307145217664499e+00
1	 9.113432893219882e-01	 1.038135001701094e+00	-3.605985585121917e+00
1	 8.881800732149152e-01	 1.057119914384449e+00	-3.908472956049957e+00
1	 8.644753653082524e-01	 1.075464514789027e+00	-4.212829625983948e+00
1	 1.087028922989120e+00	 8.737710192933065e-01	-1.424914576870489e+00
1	 1.068487064149366e+00	 8.977306225636994e-01	-1.645857637821837e+00
1	 1.049298007789620e+00	 9.211429114042431e-01	-1.881492111731921e+00
1	 1.029470587606540e+00	 9.439919935281210e-01	-2.130541373183804e+00
1	 1.009014739768834e+00	 9.662628697128208e-01	-2.391635259955831e+00
1	 9.879414789439063e-01	 9.879414789439066e-01	-2.663319431582861e+00
1	 9.662628697128207e-01	 1.009014739768835e+00	-2.944065729199350e+00
1	 9.439919935281209e-01	 1.029470587606540e+00	-3.232283393770902e+00
1	 9.211429114042424e-01	 1.049298007789620e+00	-3.526330983028201e+00
1	 8.977306225636988e-01	 1.068487064149366e+00	-3.824528814304438e+00
1	 8.737710192933065e-01	 1.087028922989120e+00	-4.125171751427343e+00
1	 1.098593320396328e+00	 8.830666646026432e-01	-1.392595452808789e+00
1	 1.079854203305508e+00	 9.072811629989098e-01	-1.607828187148791e+00
1	 1.060461003459893e+00	 9.309425243405042e-01	-1.837684295396376e+00
1	 1.040422648533754e+00	 9.540346872699265e-01	-2.080963158635016e+00
1	 1.019749180402101e+00	 9.765424929948752e-01	-2.336371678395086e+00
1	 9.984517309122878e-01	 9.984517309122882e-01	-2.602533038470157e+00
1	 9.765424929948747e-01	 1.019749180402101e+00	-2.877996458181817e+00
1	 9.540346872699262e-01	 1.040422648533754e+00	-3.161247802890910e+00
1	 9.309425243405040e-01	 1.060461003459894e+00	-3.450720900828631e+00
1	 9.072811629989095e-01	 1.079854203305509e+00	-3.744809402072091e+00
1	 8.830666646026430e-01	 1.098593320396329e+00	-4.041879006101791e+00
1	 1.110157704312310e+00	 8.923622990673346e-01	-1.361903138504019e+00
1	 1.091221329200549e+00	 9.168316922921298e-01	-1.571810301292156e+00
1	 1.071623986107216e+00	 9.407421258442269e-01	-1.796253400276563e+00
1	 1.051374696684083e+00	 9.640773692956361e-01	-2.034104784996302e+00
1	 1.030483608512344e+00	 9.868221042844536e-01	-2.284145510483942e+00
1	 1.008961970619164e+00	 1.008961970619164e+00	-2.545073526154805e+00
1	 9.868221042844530e-01	 1.030483608512344e+00	-2.815512844725624e+00
1	 9.640773692956357e-01	 1.051374696684084e+00	-3.094023565332401e+00
1	 9.407421258442266e-01	 1.071623986107216e+00	-3.379112608394458e+00
1	 9.168316922921292e-01	 1.091221329200549e+00	-3.669245006429597e+00
1	 8.923622990673349e-01	 1.110157704312310e+00	-3.962855585346444e+00
1	 1.121722072038720e+00	 9.016579205184524e-01	-1.333030835660036e+00
1	 1.102588439182163e+00	 9.263822082149419e-01	-1.537965621212648e+00
1	 1.082786953126889e+00	 9.505417136288637e-01	-1.757330073559826e+00
1	 1.062326729502046e+00	 9.741200372619742e-01	-1.990066519810149e+00
1	 1.041218021594859e+00	 9.971017011829885e-01	-2.235027302915876e+00
1	 1.019472195612146e+00	 1.019472195612146e+00	-2.490982421053236e+00
1	 9.971017011829884e-01	 1.041218021594859e+00	-2.756628134054569e+00
1	 9.741200372619737e-01	 1.062326729502046e+00	-3.030596419119152e+00
1	 9.505417136288635e-01	 1.082786953126890e+00	-3.311465141543878e+00
1	 9.263822082149412e-01	 1.102588439182163e+00	-3.597768792818053e+00
1	 9.016579205184526e-01	 1.121722072038720e+00	-3.888009638503854e+00
1	 1.133286420877215e+00	 9.109535267870686e-01	-1.306163865300715e+00
1	 1.113955530598024e+00	 9.359327085389288e-01	-1.506449195391098e+00
1	 1.093949901914216e+00	 9.603412854078683e-01	-1.721039634978489e+00
1	 1.073278744432160e+00	 9.841626888256640e-01	-1.948944543087597e+00
1	 1.051952417144943e+00	 1.007381281291911e+00	-2.189084727851146e+00
1	 1.029982403438847e+00	 1.029982403438848e+00	-2.440299559415747e+00
1	 1.007381281291911e+00	 1.051952417144943e+00	-2.701355035389704e+00
1	 9.841626888256638e-01	 1.073278744432160e+00	-2.970952688807173e+00
1	 9.603412854078678e-01	 1.093949901914216e+00	-3.247739212268499e+00
1	 9.359327085389286e-01	 1.113955530598024e+00	-3.530316658504545e+00
1	 9.109535267870685e-01	 1.133286420877215e+00	-3.817253067490851e+00
1	 1.144850748129450e+00	 9.202491157042549e-01	-1.281480066111839e+00
1	 1.125322600795804e+00	 9.454831910356732e-01	-1.477409813114819e+00
1	 1.105112829864497e+00	 9.701408388946942e-01	-1.687502346209737e+00
1	 1.084230738918943e+00	 9.942053216434308e-01	-1.910831154087905e+00
1	 1.062686792657895e+00	 1.017660842212654e+00	-2.146382728434309e+00
1	 1.040492591646879e+00	 1.040492591646879e+00	-2.393063173025967e+00
1	 1.017660842212653e+00	 1.062686792657896e+00	-2.649705749354391e+00
1	 9.942053216434305e-01	 1.084230738918943e+00	-2.915079256190581e+00
1	 9.701408388946938e-01	 1.105112829864497e+00	-3.187897124399338e+00
1	 9.454831910356730e-01	 1.125322600795804e+00	-3.466827094922473e+00
1	 9.202491157042547e-01	 1.144850748129450e+00	-3.750501337573817e+00
1	 1.156415051097081e+00	 9.295446851010828e-01	-1.259150168888706e+00
1	 1.136689647123178e+00	 9.550336534767583e-01	-1.450990317772067e+00
1	 1.116275734373034e+00	 9.799403718027949e-01	-1.656833664115835e+00
1	 1.095182710406913e+00	 1.004247933371997e+00	-1.875814965694522e+00
1	 1.073421145629011e+00	 1.027940381546648e+00	-2.106983655582775e+00
1	 1.051002757783851e+00	 1.051002757783852e+00	-2.349309969759574e+00
1	 1.027940381546647e+00	 1.073421145629011e+00	-2.601691993735399e+00
1	 1.004247933371997e+00	 1.095182710406913e+00	-2.862963532764702e+00
1	 9.799403718027947e-01	 1.116275734373035e+00	-3.131902694331340e+00
1	 9.550336534767578e-01	 1.136689647123179e+00	-3.407241058269348e+00
1	 9.295446851010828e-01	 1.156415051097081e+00	-3.687673299494578e+00
1	 8.365883729880681e-01	 1.040771252414892e+00	-4.503015987609025e+00
1	 8.131403546067379e-01	 1.057897033854957e+00	-4.822906115102112e+00
1	 7.892011321926615e-01	 1.074389462904693e+00	-5.149306347062625e+00
1	 7.647882075584603e-01	 1.090243324556970e+00	-5.479949459607872e+00
1	 7.399197341251362e-01	 1.105454505428851e+00	-5.812514316409357e+00
1	 7.146144600257591e-01	 1.120019993718943e+00	-6.144644169264721e+00
1	 6.888916695037869e-01	 1.133937874613762e+00	-6.473964910145599e+00
1	 6.627711229717848e-01	 1.147207321243900e+00	-6.798103021944204e+00
1	 6.362729960993706e-01	 1.159828581322929e+00	-7.114702990335962e+00
1	 6.094178182985774e-01	 1.171802959632020e+00	-7.421443958912056e+00
1	 5.822264109706172e-01	 1.183132796540936e+00	-7.716055433224953e+00
1	 8.458840399867049e-01	 1.052335676803569e+00	-4.401645052967870e+00
1	 8.221754813233382e-01	 1.069651749630091e+00	-4.717849671387689e+00
1	 7.979702606633309e-01	 1.086327432635354e+00	-5.041067465473946e+00
1	 7.732860742889248e-01	 1.102357452866200e+00	-5.369054636170593e+00
1	 7.481412773310232e-01	 1.117737651234249e+00	-5.699507215477775e+00
1	 7.225548262406796e-01	 1.132464982472780e+00	-6.030079442208794e+00
1	 6.965462195362724e-01	 1.146537510492047e+00	-6.358402157041933e+00
1	 6.701354371961920e-01	 1.159954399234961e+00	-6.682100959171000e+00
1	 6.433428790699675e-01	 1.172715899167537e+00	-6.998813881126228e+00
1	 6.161893026801172e-01	 1.184823329568884e+00	-7.306208357325334e+00
1	 5.886957607827459e-01	 1.196279056813543e+00	-7.601997284847712e+00
1	 8.551797048164094e-01	 1.063900098494396e+00	-4.304952602998276e+00
1	 8.312106059317125e-01	 1.081406462662920e+00	-4.617648770914708e+00
1	 8.067393870877567e-01	 1.098265399580878e+00	-4.937808704784321e+00
1	 7.817839390363607e-01	 1.114471578349103e+00	-5.263214109296174e+00
1	 7.563628186182836e-01	 1.130020794173789e+00	-5.591580864707195e+00
1	 7.304951906025154e-01	 1.144909968322899e+00	-5.920577440204068e+00
1	 7.042007677823060e-01	 1.159137143430437e+00	-6.247843389009168e+00
1	 6.774997497018219e-01	 1.172701474251644e+00	-6.571007663443535e+00
1	 6.504127603904530e-01	 1.185603214004979e+00	-6.887706501546674e+00
1	 6.229607854811502e-01	 1.197843696467493e+00	-7.195600655121998e+00
1	 5.951651090848594e-01	 1.209425314018505e+00	-7.492391751456163e+00
1	 8.644753653082524e-01	 1.075464514789027e+00	-4.212829625983948e+00
1	 8.402457263237391e-01	 1.093161170210712e+00	-4.522166631444227e+00
1	 8.155085094198986e-01	 1.110203360955788e+00	-4.839368256733612e+00
1	 7.902817998180374e-01	 1.126585698179116e+00	-5.162243693763541e+00
1	 7.645843560686761e-01	 1.142303931381488e+00	-5.488531240730291e+00
1	 7.384355512586462e-01	 1.157354948365572e+00	-5.815916716545669e+00
1	 7.118553124559701e-01	 1.171736770489137e+00	-6.142052014202569e+00
1	 6.848640587704878e-01	 1.185448543319762e+00	-6.464573528004161e+00
1	 6.574826384113471e-01	 1.198490522828354e+00	-6.781120202140889e+00
1	 6.297322651218268e-01	 1.210864057289906e+00	-7.089350965672343e+00
1	 6.016344543676049e-01	 1.222571565088503e+00	-7.386961340804548e+00
1	 8.737710192933065e-01	 1.087028922989120e+00	-4.125171751427343e+00
1	 8.492808403912974e-01	 1.104915869530733e+00	-4.431272293361765e+00
1	 8.242776256137179e-01	 1.122141313974611e+00	-4.745591200275394e+00
1	 7.987796546512239e-01	 1.138699809529677e+00	-5.065967043402359e+00
1	 7.728058877639600e-01	 1.154587059991365e+00	-5.390163003009963e+00
1	 7.463759063564516e-01	 1.169799919697072e+00	-5.715885248361698e+00
1	 7.195098517713455e-01	 1.184336388728351e+00	-6.040801508653570e+00
1	 6.922283626840020e-01	 1.198195603465128e+00	-6.362559567356977e+00
1	 6.645525114831701e-01	 1.211377822630763e+00	-6.678805424170785e+00
1	 6.365037400222959e-01	 1.223884408998181e+00	-6.987200885691164e+00
1	 6.081037951216300e-01	 1.235717806956221e+00	-7.285440367195806e+00
1	 8.830666646026430e-01	 1.098593320396329e+00	-4.041879006101791e+00
1	 8.583159460262664e-01	 1.116670557880253e+00	-4.344840313539441e+00
1	 8.330467336231733e-01	 1.134079255851869e+00	-4.656329139394760e+00
1	 8.072775015531897e-01	 1.150813909574226e+00	-4.974215238798430e+00
1	 7.810274117858935e-01	 1.166870177137439e+00	-5.296289037117384e+00
1	 7.543162540433123e-01	 1.182244879413672e+00	-5.620279940871219e+00
1	 7.271643839425146e-01	 1.196935995208283e+00	-5.943874886609736e+00
1	 6.995926597241775e-01	 1.210942651713558e+00	-6.264736858459090e+00
1	 6.716223779564410e-01	 1.224265110405306e+00	-6.580523116075633e+00
1	 6.432752086027077e-01	 1.236904748554375e+00	-6.888902891007318e+00
1	 6.145731298375836e-01	 1.248864036554340e+00	-7.187574330214924e+00
1	 8.923622990673349e-01	 1.110157704312310e+00	-3.962855585346444e+00
1	 8.673510411205249e-01	 1.128425232516537e+00	-4.262750478326246e+00
1	 8.418158314022248e-01	 1.146017183802086e+00	-4.571439863556028e+00
1	 8.157753385412038e-01	 1.162927995486199e+00	-4.886826400760255e+00
1	 7.892489262162360e-01	 1.179153279953729e+00	-5.206730026547358e+00
1	 7.622565924666068e-01	 1.194689824611644e+00	-5.528906162617905e+00
1	 7.348189071835585e-01	 1.209535586989136e+00	-5.851064203968870e+00
1	 7.069569481728264e-01	 1.223689685090863e+00	-6.170886016827953e+00
1	 6.786922361816808e-01	 1.237152383145082e+00	-6.486044186392419e+00
1	 6.500466692832122e-01	 1.249925072920549e+00	-6.794219770087397e+00
1	 6.210424570061129e-01	 1.262010250815542e+00	-7.093119332280944e+00
1	 9.016579205184526e-01	 1.121722072038720e+00	-3.888009638503854e+00
1	 8.763861235659521e-01	 1.140179890696855e+00	-4.184887534287024e+00
1	 8.505849169048336e-01	 1.157955095039786e+00	-4.490787029148239e+00
1	 8.242731636325352e-01	 1.175042064439034e+00	-4.803645327688681e+00
1	 7.974704291367462e-01	 1.191436365574252e+00	-5.121314051012285e+00
1	 7.701969197737161e-01	 1.207134752387260e+00	-5.441577309444445e+00
1	 7.424734197085591e-01	 1.222135161131116e+00	-5.762170092420961e+00
1	 7.143212263117621e-01	 1.236436700622859e+00	-6.080796705045792e+00
1	 6.857620845094089e-01	 1.250039637843193e+00	-6.395148990507103e+00
1	 6.568181204839595e-01	 1.262945379058760e+00	-6.702924092589928e+00
1	 6.275117751178659e-01	 1.275156446672509e+00	-7.001841532217025e+00
1	 9.109535267870685e-01	 1.133286420877215e+00	-3.817253067490851e+00
1	 8.854211912544271e-01	 1.151934529678473e+00	-4.111140935422276e+00
1	 8.593539880849593e-01	 1.169892986779494e+00	-4.414239860428899e+00
1	 8.327709748444536e-01	 1.187156113606170e+00	-4.724523155142350e+00
1	 8.056919186291830e-01	 1.203719431133028e+00	-5.039876209323812e+00
1	 7.781372341120194e-01	 1.219579659836794e+00	-5.358114395155102e+00
1	 7.501279197315985e-01	 1.234734714694425e+00	-5.677001322104090e+00
1	 7.216854924227964e-01	 1.249183695335357e+00	-5.994267171347491e+00
1	 6.928319212901455e-01	 1.262926871492738e+00	-6.307626848821254e+00
1	 6.635895606250989e-01	 1.275965663931068e+00	-6.614797710448214e+00
1	 6.339810826634908e-01	 1.288302621057924e+00	-6.913516632266450e+00
1	 9.202491157042547e-01	 1.144850748129450e+00	-3.750501337573817e+00
1	 8.944562420778284e-01	 1.163689146718658e+00	-4.041404605704005e+00
1	 8.681230428965616e-01	 1.181830856235735e+00	-4.341672868587311e+00
1	 8.412687701942280e-01	 1.199270140161045e+00	-4.649317036030278e+00
1	 8.139133927753052e-01	 1.216002473764074e+00	-4.962258265124179e+00
1	 7.860775336288973e-01	 1.232024544056519e+00	-5.278345666980335e+00
1	 7.577824054667582e-01	 1.247334244739269e+00	-5.595374390759120e+00
1	 7.290497447877430e-01	 1.261930666254174e+00	-5.911103816165675e+00
1	 6.999017448744103e-01	 1.275814081086816e+00	-6.223275594112379e+00
1	 6.703609881267807e-01	 1.288985924499531e+00	-6.529631289182820e+00
1	 6.404503781336349e-01	 1.301448770904468e+00	-6.827929396190587e+00
1	 9.295446851010828e-01	 1.156415051097081e+00	-3.687673299494578e+00
1	 9.034912739280351e-01	 1.175443739074679e+00	-3.975576715855766e+00
1	 8.768920792936006e-01	 1.193768700623031e+00	-4.272965587660072e+00
1	 8.497665476991274e-01	 1.211384141277095e+00	-4.577889839987785e+00
1	 8.221348496568712e-01	 1.228285490601410e+00	-4.888308313868125e+00
1	 7.940178164717289e-01	 1.244469402142706e+00	-5.202106244107461e+00
1	 7.654368751281195e-01	 1.259933748325849e+00	-5.517113137528891e+00
1	 7.364139816884138e-01	 1.274677610405123e+00	-5.831120784676147e+00
1	 7.069715536127235e-01	 1.288701263618529e+00	-6.141901146046224e+00
1	 6.771324014091542e-01	 1.302006157726207e+00	-6.447223867327784e+00
1	 6.469196600189466e-01	 1.314594893144823e+00	-6.744873196273140e+00
1	 5.822264109706172e-01	 1.183132796540936e+00	-7.716055433224953e+00
1	 5.547217605929659e-01	 1.193820718170789e+00	-7.998065741054212e+00
1	 5.269231856692952e-01	 1.203871877666055e+00	-8.267971001054251e+00
1	 4.988520042113924e-01	 1.213291563054103e+00	-8.525014430559326e+00
1	 4.705295839165803e-01	 1.222085976622864e+00	-8.768539299607282e+00
1	 4.419772843415477e-01	 1.230262197256569e+00	-8.997986908519440e+00
1	 4.132164007555683e-01	 1.237828140375747e+00	-9.212893775912722e+00
1	 3.842681099253542e-01	 1.244792515783489e+00	-9.412888134005199e+00
1	 3.551534180596826e-01	 1.251164783723347e+00	-9.597685830869505e+00
1	 3.258931111168158e-01	 1.256955109454539e+00	-9.767085739818118e+00
1	 2.965077076518963e-01	 1.262174316647596e+00	-9.920964774596712e+00
1	 5.886957607827459e-01	 1.196279056813543e+00	-7.601997284847710e+00
1	 5.608854952672502e-01	 1.207085736202502e+00	-7.885812549339665e+00
1	 5.327780392929063e-01	 1.217248578138877e+00	-8.158204319266105e+00
1	 5.043949477444409e-01	 1.226772929407417e+00	-8.418316340223660e+00
1	 4.757578257441908e-01	 1.235665061212146e+00	-8.665386857390869e+00
1	 4.468882701834050e-01	 1.243932131093599e+00	-8.898747741308666e+00
1	 4.178078129515951e-01	 1.251582142423700e+00	-9.117822802060910e+00
1	 3.885378661189793e-01	 1.258623901783632e+00	-9.322125375010719e+00
1	 3.590996693027055e-01	 1.265066974533483e+00	-9.511255265727810e+00
1	 3.295142394221147e-01	 1.270921638882720e+00	-9.684895144048680e+00
1	 2.998023230222043e-01	 1.276198838767993e+00	-9.842806477521673e+00
1	 5.951651090848594e-01	 1.209425314018505e+00	-7.492391751456164e+00
1	 5.670492285028373e-01	 1.220350751138875e+00	-7.777808996158147e+00
1	 5.386328915499144e-01	 1.230625275490343e+00	-8.052450233647232e+00
1	 5.099378899836980e-01	 1.240254292615020e+00	-8.315365322622299e+00
1	 4.809860663514815e-01	 1.249244142632999e+00	-8.565693305472822e+00
1	 4.517992548790164e-01	 1.257602061741100e+00	-8.802662627127766e+00
1	 4.223992240759929e-01	 1.265336141262610e+00	-9.025590521538359e+00
1	 3.928076213160800e-01	 1.272455284556779e+00	-9.233881635868585e+00
1	 3.630459196247389e-01	 1.278969162100207e+00	-9.427025968553641e+00
1	 3.331353668823325e-01	 1.284888165052573e+00	-9.604596201386514e+00
1	 3.030969376236582e-01	 1.290223357616614e+00	-9.766244507836650e+00
1	 6.016344543676049e-01	 1.222571565088503e+00	-7.386961340804546e+00
1	 5.732129588616812e-01	 1.233615759884870e+00	-7.673771860609328e+00
1	 5.444877410743385e-01	 1.244001966599343e+00	-7.950421920454512e+00
1	 5.154808296359519e-01	 1.253735649531359e+00	-8.215872899130634e+00
1	 4.862143045186587e-01	 1.262823217717048e+00	-8.469170273848016e+00
1	 4.567102372826002e-01	 1.271271986009470e+00	-8.709444878529967e+00
1	 4.269906330575337e-01	 1.279090133683234e+00	-8.935913310197797e+00
1	 3.970773745204668e-01	 1.286286660875608e+00	-9.147877541050105e+00
1	 3.669921681050630e-01	 1.292871343179647e+00	-9.344723801449650e+00
1	 3.367564926525978e-01	 1.298854684705190e+00	-9.525920804648669e+00
1	 3.063915506875612e-01	 1.304247869921001e+00	-9.691017387773229e+00
1	 6.081037951216300e-01	 1.235717806956221e+00	-7.285440367195804e+00
1	 5.793766849057363e-01	 1.246880759345453e+00	-7.573429971686291e+00
1	 5.503425865001976e-01	 1.257378648344766e+00	-7.851844758736526e+00
1	 5.210237654079908e-01	 1.267216997010882e+00	-8.119562863936245e+00
1	 4.914425390259290e-01	 1.276402283295917e+00	-8.375541660317324e+00
1	 4.616212162483762e-01	 1.284941900709110e+00	-8.618820003908757e+00
1	 4.315820388249896e-01	 1.292844116476330e+00	-8.848519609029880e+00
1	 4.013471247359497e-01	 1.300118027512793e+00	-9.063845599041869e+00
1	 3.709384138229581e-01	 1.306773514527931e+00	-9.264086287346027e+00
1	 3.403776158880399e-01	 1.312821194581663e+00	-9.448612250565670e+00
1	 3.096861614452166e-01	 1.318272372408692e+00	-9.616874761108766e+00
1	 6.145731298375836e-01	 1.248864036554340e+00	-7.187574330214924e+00
1	 5.855404051969570e-01	 1.260145746425586e+00	-7.476523574175545e+00
1	 5.561974264615117e-01	 1.270755317605502e+00	-7.756455688159694e+00
1	 5.265666960066031e-01	 1.280698331908039e+00	-8.026170638153719e+00
1	 4.966707686534990e-01	 1.289981336201229e+00	-8.284542984839106e+00
1	 4.665321906305637e-01	 1.298611802650422e+00	-8.530525065611046e+00
1	 4.361734403071331e-01	 1.306598086432659e+00	-8.763149289129149e+00
1	 4.056168709663396e-01	 1.313949381241011e+00	-8.981529576819804e+00
1	 3.748846558577049e-01	 1.320675672901190e+00	-9.184861996197577e+00
1	 3.439987357437878e-01	 1.326787691423086e+00	-9.372424639477519e+00
1	 3.129807691279275e-01	 1.332296861807227e+00	-9.543576807702610e+00
1	 6.210424570061129e-01	 1.262010250815542e+00	-7.093119332280946e+00
1	 5.917041182972975e-01	 1.273410718030232e+00	-7.382803734177185e+00
1	 5.620522595922993e-01	 1.284131971260440e+00	-7.664002606959603e+00
1	 5.321096201385771e-01	 1.294179651077275e+00	-7.935442664295499e+00
1	 5.018989921815754e-01	 1.303560373264609e+00	-8.195920784222615e+00
1	 4.714431592833819e-01	 1.312281688643805e+00	-8.444308078156832e+00
1	 4.407648364327355e-01	 1.320352040342977e+00	-8.679553056339252e+00
1	 4.098866122154466e-01	 1.327780718832936e+00	-8.900683913408052e+00
1	 3.788308932885837e-01	 1.334577815055549e+00	-9.106809969532641e+00
1	 3.476198513749703e-01	 1.340754171970550e+00	-9.297122312538757e+00
1	 3.162753729669972e-01	 1.346321334844147e+00	-9.470893694614585e+00
1	 6.275117751178659e-01	 1.275156446672509e+00	-7.001841532217023e+00
1	 5.978678227687122e-01	 1.286675671064355e+00	-7.292031781387561e+00
1	 5.679070845265799e-01	 1.297508606188468e+00	-7.574243807122386e+00
1	 5.376525365107008e-01	 1.307660951373040e+00	-7.847135838188967e+00
1	 5.071272083903645e-01	 1.317139391317681e+00	-8.109432044253264e+00
1	 4.763541210610505e-01	 1.325951555499662e+00	-8.359927443672499e+00
1	 4.453562261305695e-01	 1.334105974998043e+00	-8.597491892714181e+00
1	 4.141563474870814e-01	 1.341612037061243e+00	-8.821073169702546e+00
1	 3.827771251948752e-01	 1.348479937747140e+00	-9.029699180587761e+00
1	 3.512409619367163e-01	 1.354720632965146e+00	-9.222479323725860e+00
1	 3.195699721937289e-01	 1.360345788246990e+00	-9.398605061165080e+00
1	 6.339810826634908e-01	 1.288302621057924e+00	-6.913516632266449e+00
1	 6.040315171731551e-01	 1.299940602432917e+00	-7.203978785518411e+00
1	 5.737618998983728e-01	 1.310885219268478e+00	-7.486947444137647e+00
1	 5.431954438297628e-01	 1.321142229649781e+00	-7.761016975664210e+00
1	 5.123554160600733e-01	 1.330718387192070e+00	-8.024843666576123e+00
1	 4.812650748177888e-01	 1.339621400028392e+00	-8.277151421880840e+00
1	 4.499476083294071e-01	 1.347859887188614e+00	-8.516736532166371e+00
1	 4.184260757850540e-01	 1.355443332698608e+00	-8.742471511970219e+00
1	 3.867233506558597e-01	 1.362382037732089e+00	-8.953308027486184e+00
1	 3.548620665841549e-01	 1.368687071147968e+00	-9.148278944162540e+00
1	 3.228645660394259e-01	 1.374370218743297e+00	-9.326499535514154e+00
1	 6.404503781336349e-01	 1.301448770904468e+00	-6.827929396190587e+00
1	 6.101952000725803e-01	 1.313205509040881e+00	-7.118425064440313e+00
1	 5.796167043416972e-01	 1.324261807379358e+00	-7.401891038879061e+00
1	 5.487383408025510e-01	 1.334623482761947e+00	-7.676862311555611e+00
1	 5.175836139709077e-01	 1.344297357719399e+00	-7.941931967881281e+00
1	 4.861760194078159e-01	 1.353291219040396e+00	-8.195757632203330e+00
1	 4.545389819580204e-01	 1.361613773705451e+00	-8.437066967886143e+00
1	 4.226957961131751e-01	 1.369274602517706e+00	-8.664662226642912e+00
1	 3.906695687508178e-01	 1.376284111766524e+00	-8.877423857125134e+00
1	 3.584831644724150e-01	 1.382653483260108e+00	-9.074313196477593e+00
1	 3.261591537353913e-01	 1.388394623060607e+00	-9.254374280530968e+00
1	 6.469196600189466e-01	 1.314594893144823e+00	-6.744873196273141e+00
1	 6.163588700289421e-01	 1.326470387793212e+00	-7.035159721829238e+00
1	 5.854714964905722e-01	 1.337638367399996e+00	-7.318861009364442e+00
1	 5.542812261358540e-01	 1.348104707563986e+00	-7.594457028755349e+00
1	 5.228118009030747e-01	 1.357876299731294e+00	-7.860482209130233e+00
1	 4.910869536853514e-01	 1.366961009346076e+00	-8.115532585729493e+00
1	 4.591303459451811e-01	 1.375367631339310e+00	-8.358271989307180e+00
1	 4.269655074752550e-01	 1.383105843291213e+00	-8.587437264215916e+00
1	 3.946157785590299e-01	 1.390186156606576e+00	-8.801842517621958e+00
1	 3.621042547566256e-01	 1.396619866042657e+00	-9.000382417094466e+00
1	 3.294537345129284e-01	 1.402418997926461e+00	-9.182034566903944e+00
1	 2.965077076518963e-01	 1.262174316647596e+00	-9.920964774596715e+00
1	 2.670153521752661e-01	 1.266834146772720e+00	-1.005837726447565e+01
1	 2.374379815785563e-01	 1.270946214663118e+00	-1.017886946714216e+01
1	 2.077950911590201e-01	 1.274523035088650e+00	-1.028320614248243e+01
1	 1.781057461811192e-01	 1.277577589043705e+00	-1.037222689556843e+01
1	 1.483885491539033e-01	 1.280123275467486e+00	-1.044683361861902e+01
1	 1.186616101822315e-01	 1.282173863421045e+00	-1.050797846459340e+01
1	 8.894252039400018e-02	 1.283743444944866e+00	-1.055665244299262e+01
1	 5.924832842448790e-02	 1.284846388803535e+00	-1.059387470947877e+01
1	 2.959551991936728e-02	 1.285497295306093e+00	-1.062068260298536e+01
1	 0.000000000000000e+00	 1.285710952372222e+00	-1.063812246733577e+01
1	 2.998023230222043e-01	 1.276198838767993e+00	-9.842806477521673e+00
1	 2.699822662242061e-01	 1.280910446123660e+00	-9.984082729055535e+00
1	 2.400762496692715e-01	 1.285068204839977e+00	-1.010832766187522e+01
1	 2.101039852746391e-01	 1.288684768743407e+00	-1.021622104503944e+01
1	 1.800847501464906e-01	 1.291773263065350e+00	-1.030851923138349e+01
1	 1.500373534937380e-01	 1.294347235625973e+00	-1.038604306208788e+01
1	 1.199801066498031e-01	 1.296420608479858e+00	-1.044966624536046e+01
1	 8.993079620458681e-02	 1.298007630249775e+00	-1.050030430028037e+01
1	 5.990666022752165e-02	 1.299122829357391e+00	-1.053890413865382e+01
1	 2.992436754283312e-02	 1.299780968341605e+00	-1.056643434044986e+01
1	 0.000000000000000e+00	 1.299996999436575e+00	-1.058387616227281e+01
1	 3.030969376236582e-01	 1.290223357616614e+00	-9.766244507836650e+00
1	 2.729491795807888e-01	 1.294986742190813e+00	-9.911106160201928e+00
1	 2.427145171443394e-01	 1.299190191722442e+00	-1.003884349441218e+01
1	 2.124128788514845e-01	 1.302846499094541e+00	-1.015005477873893e+01
1	 1.820637536500774e-01	 1.305968933775486e+00	-1.024541643765660e+01
1	 1.516861574488442e-01	 1.308571192466371e+00	-1.032567140894458e+01
1	 1.212986028097239e-01	 1.310667350215280e+00	-1.039161791973232e+01
1	 9.091907178457713e-02	 1.312271812227235e+00	-1.044409877288643e+01
1	 6.056499187694677e-02	 1.313399266580941e+00	-1.048399121768799e+01
1	 3.025321508956925e-02	 1.314064638045126e+00	-1.051219746210928e+01
1	 0.000000000000000e+00	 1.314283043168385e+00	-1.052963586841952e+01
1	 3.063915506875612e-01	 1.304247869921001e+00	-9.691017387773231e+00
1	 2.759160915527708e-01	 1.309063031689621e+00	-9.839192948045556e+00
1	 2.453527833881924e-01	 1.313312172015283e+00	-9.970169160497122e+00
1	 2.147217713508357e-01	 1.317008222837535e+00	-1.008446618292115e+01
1	 1.840427562301275e-01	 1.320164597861665e+00	-1.018268373885500e+01
1	 1.533349606345122e-01	 1.322795142669631e+00	-1.026548991747653e+01
1	 1.226170983543528e-01	 1.324914085302944e+00	-1.033361033956421e+01
1	 9.190734690337890e-02	 1.326535987548803e+00	-1.038781778115042e+01
1	 6.122332321915580e-02	 1.327675697142885e+00	-1.042892232977530e+01
1	 3.058206248284614e-02	 1.328348301083665e+00	-1.045776213223947e+01
1	 0.000000000000000e+00	 1.328569080234105e+00	-1.047519477769736e+01
1	 3.096861614452166e-01	 1.318272372408692e+00	-9.616874761108768e+00
1	 2.788830014479088e-01	 1.323139311335524e+00	-9.768099311772474e+00
1	 2.479910477852629e-01	 1.327434142423264e+00	-9.902067395116914e+00
1	 2.170306622339722e-01	 1.331169936667870e+00	-1.001922435327901e+01
1	 1.860217574248893e-01	 1.334360252011446e+00	-1.012009634393540e+01
1	 1.549837626660326e-01	 1.337019082916703e+00	-1.020527957357453e+01
1	 1.239355929760488e-01	 1.339160810418477e+00	-1.027542984619086e+01
1	 9.289562133039975e-02	 1.340800152886037e+00	-1.033125251913934e+01
1	 6.188165410054127e-02	 1.341952117711918e+00	-1.037349294188374e+01
1	 3.091090964593424e-02	 1.342631954124233e+00	-1.040292743797551e+01
1	 0.000000000000000e+00	 1.342855107300192e+00	-1.042035487605985e+01
1	 3.129807691279275e-01	 1.332296861807227e+00	-9.543576807702612e+00
1	 2.818499085739596e-01	 1.337215577843965e+00	-9.697591729535299e+00
1	 2.506293097199830e-01	 1.341556099651152e+00	-9.834310917648386e+00
1	 2.193395509621732e-01	 1.345331637281030e+00	-9.954108101878766e+00
1	 1.880007567726109e-01	 1.348555892912382e+00	-1.005743892065935e+01
1	 1.566325631586960e-01	 1.351243009888536e+00	-1.014483057855736e+01
1	 1.252540863671707e-01	 1.353407522237509e+00	-1.021687177077452e+01
1	 9.388389483504743e-02	 1.355064304910496e+00	-1.027420296634380e+01
1	 6.253998436749579e-02	 1.356228524956741e+00	-1.031750712644465e+01
1	 3.123975650210397e-02	 1.356915593833839e+00	-1.034750091946827e+01
1	 0.000000000000000e+00	 1.357141121033102e+00	-1.036492648042987e+01
1	 3.162753729669972e-01	 1.346321334844147e+00	-9.470893694614583e+00
1	 2.848168122386797e-01	 1.351291827930385e+00	-9.627446403985530e+00
1	 2.532675685767853e-01	 1.355678040403714e+00	-9.766681911674578e+00
1	 2.216484369967182e-01	 1.359493321372498e+00	-9.888905450919870e+00
1	 1.899797538115407e-01	 1.362751517252028e+00	-9.994505102755268e+00
1	 1.582813617277927e-01	 1.365466920266081e+00	-1.008394186899779e+01
1	 1.265725782200774e-01	 1.367654217435671e+00	-1.015773996587240e+01
1	 9.487216718672974e-02	 1.369328440293738e+00	-1.021647742988506e+01
1	 6.319831386641184e-02	 1.370504915546047e+00	-1.026077711292819e+01
1	 3.156860297462580e-02	 1.371199216879492e+00	-1.029129812939799e+01
1	 0.000000000000000e+00	 1.371427118099289e+00	-1.030872780457055e+01
1	 3.195699721937289e-01	 1.360345788246990e+00	-9.398605061165080e+00
1	 2.877837117498259e-01	 1.365368058310224e+00	-9.557448760857193e+00
1	 2.559058237401016e-01	 1.369799961385716e+00	-9.698971536968381e+00
1	 2.239573197988864e-01	 1.373654985637755e+00	-9.823413157800731e+00
1	 1.919587480799268e-01	 1.376947121717941e+00	-9.931097027556591e+00
1	 1.599301579886132e-01	 1.379690810730285e+00	-1.002242066624311e+01
1	 1.278910682271278e-01	 1.381900892688592e+00	-1.009784636597176e+01
1	 9.586043815485427e-02	 1.383592555707320e+00	-1.015789211503152e+01
1	 6.385664244368201e-02	 1.384781286148536e+00	-1.020312286714946e+01
1	 3.189744898677018e-02	 1.385482819928203e+00	-1.023414221972734e+01
1	 0.000000000000000e+00	 1.385713095165209e+00	-1.025158455180235e+01
1	 3.228645660394259e-01	 1.374370218743297e+00	-9.326499535514154e+00
1	 2.907506064151547e-01	 1.379444265698925e+00	-9.487392978240415e+00
1	 2.585440745943647e-01	 1.383921859301924e+00	-9.630979471346905e+00
1	 2.262661988299575e-01	 1.387816626772285e+00	-9.757436269253640e+00
1	 1.939377391160176e-01	 1.391142702997676e+00	-9.867024901940956e+00
1	 1.615789515564478e-01	 1.393914677962101e+00	-9.960082053507913e+00
1	 1.292095560806810e-01	 1.396147544671901e+00	-1.003701057492377e+01
1	 9.684870750882889e-02	 1.397856647822801e+00	-1.009827072200296e+01
1	 6.451496994569883e-02	 1.399057633432906e+00	-1.014437169632360e+01
1	 3.222629446180756e-02	 1.399766399646979e+00	-1.017586355374829e+01
1	 0.000000000000000e+00	 1.399999048897318e+00	-1.019332953264896e+01
1	 3.261591537353913e-01	 1.388394623060607e+00	-9.254374280530968e+00
1	 2.937174955424229e-01	 1.393520446811928e+00	-9.417081544377295e+00
1	 2.611823205240066e-01	 1.398043730857107e+00	-9.562513480284876e+00
1	 2.285750735512107e-01	 1.401978241471570e+00	-9.690787702495511e+00
1	 1.959167264580612e-01	 1.405338257778787e+00	-9.802106594568338e+00
1	 1.632277420465874e-01	 1.408138518642477e+00	-9.896748578591405e+00
1	 1.305280414730955e-01	 1.410394170061229e+00	-9.975059478374925e+00
1	 9.783697501806117e-02	 1.412120713311740e+00	-1.003744406720453e+01
1	 6.517329621885488e-02	 1.413333954067853e+00	-1.008435787805156e+01
1	 3.255513932300839e-02	 1.414049952702832e+00	-1.011629934163538e+01
1	 0.000000000000000e+00	 1.414284975962072e+00	-1.013380230565038e+01
1	 3.294537345129284e-01	 1.402418997926461e+00	-9.182034566903942e+00
1	 2.966843784393872e-01	 1.407596598364675e+00	-9.346324841982558e+00
1	 2.638205609134598e-01	 1.412165572756028e+00	-9.493389012344732e+00
1	 2.308839434239252e-01	 1.416139826431092e+00	-9.623287851502193e+00
1	 1.978957096443058e-01	 1.419533782748832e+00	-9.736167252579333e+00
1	 1.648765290743220e-01	 1.422362329452364e+00	-9.832249880424884e+00
1	 1.318465240967305e-01	 1.424640765532204e+00	-9.911826879446211e+00
1	 9.882524045195897e-02	 1.426384748845694e+00	-9.975249727181001e+00
1	 6.583162110954265e-02	 1.427610244722075e+00	-1.002292231156045e+01
1	 3.288398349364309e-02	 1.428333475762771e+00	-1.005529329785986e+01
1	 0.000000000000000e+00	 1.428570873025926e+00	-1.007284883972128e+01
1	 1.428570873025926e+00	 0.000000000000000e+00	 1.469515107543599e+00
1	 1.428333475762771e+00	 3.288398349364353e-02	 1.458710872288342e+00
1	 1.427610244722076e+00	 6.583162110954309e-02	 1.443755134510444e+00
1	 1.426384748845693e+00	 9.882524045195930e-02	 1.424069377538463e+00
1	 1.424640765532204e+00	 1.318465240967308e-01	 1.399084957791155e+00
1	 1.422362329452363e+00	 1.648765290743223e-01	 1.368248151149364e+00
1	 1.419533782748831e+00	 1.978957096443060e-01	 1.331025560732729e+00
1	 1.416139826431091e+00	 2.308839434239253e-01	 1.286909858564815e+00
1	 1.412165572756028e+00	 2.638205609134598e-01	 1.235425824906222e+00
1	 1.407596598364675e+00	 2.966843784393872e-01	 1.176136639835338e+00
1	 1.402418997926461e+00	 3.294537345129283e-01	 1.108650372109842e+00
1	 1.442856738422074e+00	 0.000000000000000e+00	 1.388774149484520e+00
1	 1.442616967160266e+00	 3.321282693534739e-02	 1.378510367326501e+00
1	 1.441886503729889e+00	 6.648994454095894e-02	 1.364301314164138e+00
1	 1.440648752760408e+00	 9.981350369522651e-02	 1.345602066219447e+00
1	 1.438887329422610e+00	 1.331650037977660e-01	 1.321876746453485e+00
1	 1.436586108732203e+00	 1.665253124472980e-01	 1.292603260649683e+00
1	 1.433729276251555e+00	 1.998746884438770e-01	 1.257278375464613e+00
1	 1.430301379998563e+00	 2.331928081787428e-01	 1.215423112880721e+00
1	 1.426287383351045e+00	 2.664587954549431e-01	 1.166588427306819e+00
1	 1.421672718714860e+00	 2.996512547599297e-01	 1.110361122910149e+00
1	 1.416443341704605e+00	 3.327483079876941e-01	 1.046369959768371e+00
1	 1.457142577150667e+00	 0.000000000000000e+00	 1.313420803378021e+00
1	 1.456900431894637e+00	 3.354166976321469e-02	 1.303689000322239e+00
1	 1.456162736088080e+00	 6.714826674351429e-02	 1.290205872134814e+00
1	 1.454912730048382e+00	 1.008017650937523e-01	 1.272459002501664e+00
1	 1.453133866718838e+00	 1.344834810376646e-01	 1.249944218727496e+00
1	 1.450809861460411e+00	 1.681740927425823e-01	 1.222170026707666e+00
1	 1.447924743255468e+00	 2.018536635494074e-01	 1.188662368988946e+00
1	 1.444462907130610e+00	 2.355016686237530e-01	 1.148969682249297e+00
1	 1.440409167584866e+00	 2.690970250718210e-01	 1.102668222838700e+00
1	 1.435748812789194e+00	 3.026181255424343e-01	 1.049367620884110e+00
1	 1.430467659303615e+00	 3.360428753127599e-01	 9.887166150015930e-01
1	 1.471428395878593e+00	 0.000000000000000e+00	 1.243153221171411e+00
1	 1.471183876631666e+00	 3.387051213070462e-02	 1.233942617433286e+00
1	 1.470438948459055e+00	 6.780658802442420e-02	 1.221162843954988e+00
1	 1.469176687366300e+00	 1.017900251087220e-01	 1.204332934405991e+00
1	 1.467380384069432e+00	 1.358019564317108e-01	 1.182979385507136e+00
1	 1.465033594274894e+00	 1.698228707295979e-01	 1.156640299836926e+00
1	 1.462120190385275e+00	 2.038326358844076e-01	 1.124869833392931e+00
1	 1.458624414436090e+00	 2.378105258364077e-01	 1.087242926079818e+00
1	 1.454530932047793e+00	 2.717352509952452e-01	 1.043360286094164e+00
1	 1.449824887156638e+00	 3.055849921714104e-01	 9.928535915452511e-01
1	 1.444491957268275e+00	 3.393374380255506e-01	 9.353908647118117e-01
1	 1.485714201272741e+00	 0.000000000000000e+00	 1.177681170124453e+00
1	 1.485467308037133e+00	 3.419935419127627e-02	 1.168978768755874e+00
1	 1.484715147505218e+00	 6.846490869090381e-02	 1.156878038675125e+00
1	 1.483440631370847e+00	 1.027782842013209e-01	 1.140928432928498e+00
1	 1.481626888122938e+00	 1.371204305951887e-01	 1.120686108947113e+00
1	 1.479257313813562e+00	 1.714716471777679e-01	 1.095717787911222e+00
1	 1.476315624265676e+00	 2.058116063723873e-01	 1.065604901067014e+00
1	 1.472785908523857e+00	 2.401193808941586e-01	 1.029948002955920e+00
1	 1.468652683330120e+00	 2.743734744563666e-01	 9.883714247879758e-01
1	 1.463900948386158e+00	 3.085518560313680e-01	 9.405281340536882e-01
1	 1.458516242143368e+00	 3.426319976634912e-01	 8.861047590353290e-01
1	 1.500000000000000e+00	 0.000000000000000e+00	 1.116725479600104e+00
1	 1.499750732776819e+00	 3.452819609838880e-02	 1.108516150893830e+00
1	 1.498991339888977e+00	 6.912322905016832e-02	 1.097068478118794e+00
1	 1.497704568718708e+00	 1.037665428327345e-01	 1.081961328940720e+00
1	 1.495873385527899e+00	 1.384389041433825e-01	 1.062779538017333e+00
1	 1.493481026714322e+00	 1.731204228565149e-01	 1.039117491430493e+00
1	 1.490511051521376e+00	 2.077905759368570e-01	 1.010582980786236e+00
1	 1.486947396002769e+00	 2.424282348744578e-01	 9.768013086796107e-01
1	 1.482774428022150e+00	 2.770116966863368e-01	 9.374196209520312e-01
1	 1.477977003046713e+00	 3.115187185068158e-01	 8.921114345117845e-01
1	 1.472540520473678e+00	 3.459265557640069e-01	 8.405813225460103e-01
1	 1.514285798727260e+00	 0.000000000000000e+00	 1.060017519195730e+00
1	 1.514034157516504e+00	 3.485703800550132e-02	 1.052284081107286e+00
1	 1.513267532272734e+00	 6.978154940943283e-02	 1.041461867905217e+00
1	 1.511968506066570e+00	 1.047548014641481e-01	 1.027158181990698e+00
1	 1.510119882932860e+00	 1.397573776915763e-01	 1.008985576034350e+00
1	 1.507704739615082e+00	 1.747691985352620e-01	 9.865651707802439e-01
1	 1.504706478777075e+00	 2.097695455013266e-01	 9.595302257387469e-01
1	 1.501108883481681e+00	 2.447370888547570e-01	 9.275299461512847e-01
1	 1.496896172714179e+00	 2.796499189163070e-01	 8.902335037875062e-01
1	 1.492053057707269e+00	 3.144855809822638e-01	 8.473342429440137e-01
1	 1.486564798803988e+00	 3.492211138645225e-01	 7.985540365492940e-01
1	 1.528571604121408e+00	 0.000000000000000e+00	 1.007298706162740e+00
1	 1.528317588921971e+00	 3.518588006607298e-02	 1.000022000973358e+00
1	 1.527543731318899e+00	 7.043987007591246e-02	 9.897960981591901e-01
1	 1.526232450071117e+00	 1.057430605567471e-01	 9.762557789160785e-01
1	 1.524366386986366e+00	 1.410758518550542e-01	 9.590403780761102e-01
1	 1.521928459153750e+00	 1.764179749834320e-01	 9.377968433895361e-01
1	 1.518901912657477e+00	 2.117485159893064e-01	 9.121830314097249e-01
1	 1.515270377569448e+00	 2.470459439125080e-01	 8.818712250012389e-01
1	 1.511017923996508e+00	 2.822881423774285e-01	 8.465518521016938e-01
1	 1.506129118936787e+00	 3.174524448422210e-01	 8.059373796297992e-01
1	 1.500589083679082e+00	 3.525156735024633e-01	 7.597663504309961e-01
1	 1.542857422849333e+00	 0.000000000000000e+00	 9.583200402147208e-01
1	 1.542601033659000e+00	 3.551472243356290e-02	 9.514790076442815e-01
1	 1.541819943689873e+00	 7.109819135682234e-02	 9.418187719825512e-01
1	 1.540496407389035e+00	 1.067313205717167e-01	 9.290006603353452e-01
1	 1.538612904336961e+00	 1.423943272491004e-01	 9.126898763415046e-01
1	 1.536152191968234e+00	 1.780667529704477e-01	 8.925583088479961e-01
1	 1.533097359787283e+00	 2.137274883243064e-01	 8.682875613840292e-01
1	 1.529431884874928e+00	 2.493548011251626e-01	 8.395721890427134e-01
1	 1.525139688459433e+00	 2.849263683008526e-01	 8.061231244104137e-01
1	 1.520205193304232e+00	 3.204193114711973e-01	 7.676712688853208e-01
1	 1.514613381643741e+00	 3.558102362152540e-01	 7.239712201761790e-01
1	 1.557143261577926e+00	 0.000000000000000e+00	 9.128416639637073e-01
1	 1.556884498393372e+00	 3.584356526143021e-02	 9.064134109292878e-01
1	 1.556096176048064e+00	 7.175651355937768e-02	 8.972867599029294e-01
1	 1.554760384677008e+00	 1.077195819702425e-01	 8.851486732254611e-01
1	 1.552859441633188e+00	 1.437128044889990e-01	 8.696893316586060e-01
1	 1.550375944696441e+00	 1.797155332657319e-01	 8.506047001849235e-01
1	 1.547292826791196e+00	 2.157064634298368e-01	 8.275992992730894e-01
1	 1.543593412006975e+00	 2.516636615701728e-01	 8.003891697582988e-01
1	 1.539261472693255e+00	 2.875645979177306e-01	 7.687050149278202e-01
1	 1.534281287378566e+00	 3.233861822537020e-01	 7.322954985299851e-01
1	 1.528637699242752e+00	 3.591048035403198e-01	 6.909306723117082e-01
1	 1.571429126974074e+00	 0.000000000000000e+00	 8.706324473523793e-01
1	 1.571167989790867e+00	 3.617240870313405e-02	 8.645923145555274e-01
1	 1.570372435055877e+00	 7.241483699079355e-02	 8.559657786452547e-01
1	 1.569024388591724e+00	 1.087078452135097e-01	 8.444645479243363e-01
1	 1.567106005523594e+00	 1.450312841900342e-01	 8.298029094761978e-01
1	 1.564599723976281e+00	 1.813643166387076e-01	 8.117000596441901e-01
1	 1.561488320293920e+00	 2.176854422294079e-01	 7.898826251022825e-01
1	 1.557754965574446e+00	 2.539725263249902e-01	 7.640873641616417e-01
1	 1.553383283288272e+00	 2.902028324592137e-01	 7.340640337948294e-01
1	 1.548357407728751e+00	 3.263530585742443e-01	 6.995784034017887e-01
1	 1.542662043020896e+00	 3.623993770150854e-01	 6.604153916533285e-01
1	 1.402418997926461e+00	 3.294537345129283e-01	 1.108650372109842e+00
1	 1.396619866042658e+00	 3.621042547566253e-01	 1.035284141278081e+00
1	 1.390186156606576e+00	 3.946157785590295e-01	 9.585858632687762e-01
1	 1.383105843291214e+00	 4.269655074752547e-01	 8.785445140346269e-01
1	 1.375367631339310e+00	 4.591303459451807e-01	 7.951230289815294e-01
1	 1.366961009346076e+00	 4.910869536853510e-01	 7.082558189208419e-01
1	 1.357876299731293e+00	 5.228118009030744e-01	 6.178464552735716e-01
1	 1.348104707563986e+00	 5.542812261358537e-01	 5.237655739212558e-01
1	 1.337638367399997e+00	 5.854714964905721e-01	 4.258490477690332e-01
1	 1.326470387793212e+00	 6.163588700289419e-01	 3.238964776814183e-01
1	 1.314594893144823e+00	 6.469196600189466e-01	 2.176700498579253e-01
1	 1.416443341704605e+00	 3.327483079876941e-01	 1.046369959768371e+00
1	 1.410586217866144e+00	 3.657253370143579e-01	 9.767390617651055e-01
1	 1.404088170630291e+00	 3.985619796201447e-01	 9.038201622576872e-01
1	 1.396937053405456e+00	 4.312352093732099e-01	 8.276139107890890e-01
1	 1.389121458485565e+00	 4.637216997552888e-01	 7.480933953764812e-01
1	 1.380630769350629e+00	 4.959978770775202e-01	 6.652014663314126e-01
1	 1.371455211643566e+00	 5.280399762466951e-01	 5.788482328046040e-01
1	 1.361585902483125e+00	 5.598240991830850e-01	 4.889087845027322e-01
1	 1.351014897769846e+00	 5.913262756620284e-01	 3.952211918737475e-01
1	 1.339735237142398e+00	 6.225225263232392e-01	 2.975848377771548e-01
1	 1.327740986245340e+00	 6.533889275647720e-01	 1.957591321239715e-01
1	 1.430467659303615e+00	 3.360428753127599e-01	 9.887166150015931e-01
1	 1.424552543618833e+00	 3.693464125129539e-01	 9.226521880569082e-01
1	 1.417990158703402e+00	 4.025081733152876e-01	 8.533354565381182e-01
1	 1.410768237701365e+00	 4.355049033013803e-01	 7.807777878657749e-01
1	 1.402875259958045e+00	 4.683130449952526e-01	 7.049615931308167e-01
1	 1.394300503838440e+00	 5.009087913030714e-01	 6.258374747470302e-01
1	 1.385034098208786e+00	 5.332681418315466e-01	 5.433215499514262e-01
1	 1.375067072237715e+00	 5.653669618841587e-01	 4.572930054017628e-01
1	 1.364391403170606e+00	 5.971810439051404e-01	 3.675919391351439e-01
1	 1.353000061731035e+00	 6.286861711126494e-01	 2.740175459877553e-01
1	 1.340887054807036e+00	 6.598581830352498e-01	 1.763267011021934e-01
1	 1.444491957268275e+00	 3.393374380255506e-01	 9.353908647118117e-01
1	 1.438518849818423e+00	 3.729674829421977e-01	 8.727277910501299e-01
1	 1.431892127313559e+00	 4.064543614859512e-01	 8.068404386666821e-01
1	 1.424599402633524e+00	 4.397745912522124e-01	 7.377499715412741e-01
1	 1.416629042175190e+00	 4.729043838076080e-01	 6.654473261711398e-01
1	 1.407970219188693e+00	 5.058196986536592e-01	 5.898901986481004e-01
1	 1.398612965763713e+00	 5.384963000973219e-01	 5.110002103576888e-01
1	 1.388548223118887e+00	 5.709098168256141e-01	 4.286603101057055e-01
1	 1.377767889844539e+00	 6.030358039519947e-01	 3.427124716449256e-01
1	 1.366264867749247e+00	 6.348498072733942e-01	 2.529557455188592e-01
1	 1.354033104964594e+00	 6.663274294492167e-01	 1.591447227211522e-01
1	 1.458516242143368e+00	 3.426319976634912e-01	 8.861047590353290e-01
1	 1.452485142982614e+00	 3.765885499918734e-01	 8.266815207782114e-01
1	 1.445794082948414e+00	 4.104005459736285e-01	 7.640550101779264e-01
1	 1.438430554656515e+00	 4.440442752181522e-01	 6.982552995272649e-01
1	 1.430382811555445e+00	 4.774957183348914e-01	 6.292810837069546e-01
1	 1.421639921780571e+00	 5.107306014209381e-01	 5.570965219221387e-01
1	 1.412191820645105e+00	 5.437244534837126e-01	 4.816282604860451e-01
1	 1.402029361417770e+00	 5.764526665939903e-01	 4.027626967712674e-01
1	 1.391144364033907e+00	 6.088905585346770e-01	 3.203435457569070e-01
1	 1.379529661387155e+00	 6.410134376816954e-01	 2.341697706438318e-01
1	 1.367179142852703e+00	 6.727966698255098e-01	 1.439939376444010e-01
1	 1.472540520473678e+00	 3.459265557640069e-01	 8.405813225460104e-01
1	 1.466451429629105e+00	 3.802096153517646e-01	 7.842398644854018e-01
1	 1.459696032095616e+00	 4.143467286198128e-01	 7.247097477706090e-01
1	 1.452261700224921e+00	 4.483139571916458e-01	 6.620290965739480e-01
1	 1.444136574517253e+00	 4.820870507196391e-01	 5.962036266144916e-01
1	 1.435309617993256e+00	 5.156415018965624e-01	 5.272033564444228e-01
1	 1.425770669189721e+00	 5.489526044304112e-01	 4.549595018590914e-01
1	 1.415510493425496e+00	 5.819955137758276e-01	 3.793616156296973e-01
1	 1.404520831980972e+00	 6.147453103852731e-01	 3.002550361936500e-01
1	 1.392794448834883e+00	 6.471770652137749e-01	 2.174387090740412e-01
1	 1.380325174606045e+00	 6.792659071829659e-01	 1.306634434833610e-01
1	 1.486564798803988e+00	 3.492211138645225e-01	 7.985540365492937e-01
1	 1.480417716275596e+00	 3.838306807116561e-01	 7.451396354020159e-01
1	 1.473597981242819e+00	 4.182929112659970e-01	 6.885453997356399e-01
1	 1.466092845793325e+00	 4.525836391651394e-01	 6.288166797816065e-01
1	 1.457890337479054e+00	 4.866783831043864e-01	 5.659655029179697e-01
1	 1.448979314205931e+00	 5.205524023721870e-01	 4.999671690650690e-01
1	 1.439349517734319e+00	 5.541807553771096e-01	 4.307570309329062e-01
1	 1.428991625433194e+00	 5.875383609576647e-01	 3.582275231655438e-01
1	 1.417897299927996e+00	 6.206000622358694e-01	 2.822255059803910e-01
1	 1.406059236282551e+00	 6.533406927458544e-01	 2.025499891217682e-01
1	 1.393471206359307e+00	 6.857351445404221e-01	 1.189503006787082e-01
1	 1.500589083679082e+00	 3.525156735024633e-01	 7.597663504309959e-01
1	 1.494384009439786e+00	 3.874517477613316e-01	 7.091274902107461e-01
1	 1.487499936877670e+00	 4.222390957536742e-01	 6.553124106456258e-01
1	 1.479923997816310e+00	 4.568533231310791e-01	 5.983728916752017e-01
1	 1.471644106859294e+00	 4.912697176316699e-01	 5.383265904631286e-01
1	 1.462649016797778e+00	 5.254633051394657e-01	 4.751535351426709e-01
1	 1.452928372615660e+00	 5.594089087635005e-01	 4.087928047938880e-01
1	 1.442472763731995e+00	 5.930812107260414e-01	 3.391394613158193e-01
1	 1.431273774117241e+00	 6.264548168185513e-01	 2.660418005152118e-01
1	 1.419324029920284e+00	 6.595043231541553e-01	 1.892989900324446e-01
1	 1.406617244247173e+00	 6.922043849167152e-01	 1.086591605005700e-01
1	 1.514613381643741e+00	 3.558102362152540e-01	 7.239712201761788e-01
1	 1.508350315639376e+00	 3.910728181905754e-01	 6.759594733428652e-01
1	 1.501401905487825e+00	 4.261852839243379e-01	 6.247704724726336e-01
1	 1.493755162748458e+00	 4.611230110819112e-01	 5.704616592410039e-01
1	 1.485397889076415e+00	 4.958610564440254e-01	 5.130556650190377e-01
1	 1.476318732147982e+00	 5.303742124900537e-01	 4.525367169023806e-01
1	 1.466507240170501e+00	 5.646370670292757e-01	 3.888472310037676e-01
1	 1.455953914613030e+00	 5.986240656674965e-01	 3.218846600666319e-01
1	 1.444650260790970e+00	 6.323095768654057e-01	 2.514986642097994e-01
1	 1.432588835938203e+00	 6.656679593149002e-01	 1.774886739832497e-01
1	 1.419763294404329e+00	 6.986736313306823e-01	 9.960191373269450e-02
1	 1.528637699242752e+00	 3.591048035403198e-01	 6.909306723117083e-01
1	 1.522316641392064e+00	 3.946938936891715e-01	 6.454005863798681e-01
1	 1.515303893560931e+00	 4.301314776194807e-01	 5.966881004356132e-01
1	 1.507586347044352e+00	 4.653927050100816e-01	 5.448555772565458e-01
1	 1.499151690548858e+00	 5.004524016839892e-01	 4.899299921739035e-01
1	 1.489988466635725e+00	 5.352851267156048e-01	 4.318992650229155e-01
1	 1.480086126735601e+00	 5.698652326141274e-01	 3.707087800406859e-01
1	 1.469435084367429e+00	 6.041669283685701e-01	 3.062581619433370e-01
1	 1.458026766191443e+00	 6.381643451085179e-01	 2.383983782500193e-01
1	 1.445853660526431e+00	 6.718316041043105e-01	 1.669292383554521e-01
1	 1.432909362965459e+00	 7.051428868011598e-01	 9.159735871113409e-02
1	 1.542662043020896e+00	 3.623993770150854e-01	 6.604153916533284e-01
1	 1.536282993215550e+00	 3.983149759469040e-01	 6.172243809616075e-01
1	 1.529205907584642e+00	 4.340776786805960e-01	 5.708422320024266e-01
1	 1.521417557158576e+00	 4.696624069080367e-01	 5.213355143667848e-01
1	 1.512905517695068e+00	 5.050437554940970e-01	 4.687349415093796e-01
1	 1.503658226640188e+00	 5.401960501077737e-01	 4.130316419730505e-01
1	 1.493665038647719e+00	 5.750934079577475e-01	 3.541736188972521e-01
1	 1.482916279286322e+00	 6.097098014158012e-01	 2.920624669999360e-01
1	 1.471403296560924e+00	 6.440191242799742e-01	 2.265504181312796e-01
1	 1.459118509875090e+00	 6.779952603986078e-01	 1.574377869893344e-01
1	 1.446055456065250e+00	 7.116121543469853e-01	 8.447088748483857e-02
1	 1.314594893144823e+00	 6.469196600189466e-01	 2.176700498579247e-01
1	 1.302006157726207e+00	 6.771324014091545e-01	 1.049659814949829e-01
1	 1.288701263618528e+00	 7.069715536127238e-01	-1.604536603277634e-02
1	 1.274677610405123e+00	 7.364139816884141e-01	-1.451099677153905e-01
1	 1.259933748325849e+00	 7.654368751281202e-01	-2.820007456315873e-01
1	 1.244469402142706e+00	 7.940178164717294e-01	-4.265209411118530e-01
1	 1.228285490601410e+00	 8.221348496568718e-01	-5.785071712690835e-01
1	 1.211384141277094e+00	 8.497665476991278e-01	-7.378321062563948e-01
1	 1.193768700623030e+00	 8.768920792936009e-01	-9.044067081219511e-01
1	 1.175443739074679e+00	 9.034912739280352e-01	-1.078181978336719e+00
1	 1.156415051097081e+00	 9.295446851010828e-01	-1.259150168888706e+00
1	 1.327740986245340e+00	 6.533889275647720e-01	 1.957591321239715e-01
1	 1.315026362092133e+00	 6.839037996823172e-01	 8.752155247878818e-02
1	 1.301588417584430e+00	 7.140413466803667e-01	-2.899112867188844e-02
1	 1.287424526301110e+00	 7.437782022657358e-01	-1.535511404626200e-01
1	 1.272533223984267e+00	 7.730913278227418e-01	-2.859576803099932e-01
1	 1.256914232643484e+00	 8.019580817142202e-01	-4.260400692386647e-01
1	 1.240568480212031e+00	 8.303562883147737e-01	-5.736605860501524e-01
1	 1.223498115541023e+00	 8.582643063677963e-01	-7.287169195876555e-01
1	 1.205706518548623e+00	 8.856610962530627e-01	-8.911441830505435e-01
1	 1.187198305375145e+00	 9.125262857509887e-01	-1.060916440647064e+00
1	 1.167979328430909e+00	 9.388402338930860e-01	-1.238047704752917e+00
1	 1.340887054807036e+00	 6.598581830352498e-01	 1.763267011021935e-01
1	 1.328046542154254e+00	 6.906751853161535e-01	 7.228461757769503e-02
1	 1.314475547494891e+00	 7.211111265516637e-01	-3.999886529198854e-02
1	 1.300171418403419e+00	 7.511424090970864e-01	-1.603215520054412e-01
1	 1.285132676124198e+00	 7.807457662295900e-01	-2.885081595282483e-01
1	 1.269359039914403e+00	 8.098983321353761e-01	-4.244132581636275e-01
1	 1.252851446894847e+00	 8.385777116264355e-01	-5.679238867352397e-01
1	 1.235612067192585e+00	 8.667620491743747e-01	-7.189617842378658e-01
1	 1.217644314190617e+00	 8.944300968440329e-01	-8.774851849836355e-01
1	 1.198952849734027e+00	 9.215612807088772e-01	-1.043490130716470e+00
1	 1.179543584178313e+00	 9.481357653336441e-01	-1.217011261086553e+00
1	 1.354033104964594e+00	 6.663274294492167e-01	 1.591447227211520e-01
1	 1.341066703988496e+00	 6.974465614704949e-01	 5.903846536821991e-02
1	 1.327362659363738e+00	 7.281808965257016e-01	-4.927383494446205e-02
1	 1.312918292660426e+00	 7.585066056189583e-01	-1.656148851343150e-01
1	 1.297732110625212e+00	 7.884001939206060e-01	-2.898341728926513e-01
1	 1.281803829762870e+00	 8.178385714405283e-01	-4.218106954545692e-01
1	 1.265134396381741e+00	 8.467991234284111e-01	-5.614553591320858e-01
1	 1.247726001884798e+00	 8.752597800843780e-01	-7.087129946775867e-01
1	 1.229582093119834e+00	 9.031990851586249e-01	-8.635639385699297e-01
1	 1.210707377636641e+00	 9.305962630179525e-01	-1.026025136850897e+00
1	 1.191107823735815e+00	 9.574312837605971e-01	-1.196150736080157e+00
1	 1.367179142852703e+00	 6.727966698255098e-01	 1.439939376444010e-01
1	 1.354086853670782e+00	 7.042179313051731e-01	 4.757472360126122e-02
1	 1.340249759204795e+00	 7.352506599015664e-01	-5.701339805553646e-02
1	 1.325665155020511e+00	 7.658707952678440e-01	-1.696173693275611e-01
1	 1.310331533366881e+00	 7.960546144677322e-01	-2.901107065062464e-01
1	 1.294248607996289e+00	 8.257788033350082e-01	-4.183960191705357e-01
1	 1.277417334404598e+00	 8.550205275572582e-01	-5.544071973688212e-01
1	 1.259839925270682e+00	 8.837575030633226e-01	-6.981112149722096e-01
1	 1.241519860907095e+00	 9.119680652889500e-01	-8.495095023467732e-01
1	 1.222461894568301e+00	 9.396312368944653e-01	-1.008638848099284e+00
1	 1.202672052499939e+00	 9.667267935117863e-01	-1.175571797593013e+00
1	 1.380325174606045e+00	 6.792659071829659e-01	 1.306634434833612e-01
1	 1.367106997277037e+00	 7.109892979800194e-01	 3.769296217374646e-02
1	 1.353136853031889e+00	 7.423204199783444e-01	-6.340739245804572e-02
1	 1.338412011432047e+00	 7.732349814802353e-01	-1.725081355596218e-01
1	 1.322930950228776e+00	 8.037090314429114e-01	-2.895060763393233e-01
1	 1.306693380422067e+00	 8.337190315241463e-01	-4.143266295952802e-01
1	 1.289700266695305e+00	 8.632419278495311e-01	-5.469257938080296e-01
1	 1.271953843003254e+00	 8.922552220767233e-01	-6.872917467126278e-01
1	 1.253457623123223e+00	 9.207370413271208e-01	-8.354460145440850e-01
1	 1.234216406014319e+00	 9.486662065546664e-01	-9.914441778091543e-01
1	 1.214236275867208e+00	 9.760222989250513e-01	-1.155376084362591e+00
1	 1.393471206359307e+00	 6.857351445404221e-01	 1.189503006787082e-01
1	 1.380127140883184e+00	 7.177606646548657e-01	 2.920031859278380e-02
1	 1.366023946858845e+00	 7.493901800551216e-01	-6.863848812028209e-02
1	 1.351158867843413e+00	 7.805991676926244e-01	-1.744595510086734e-01
1	 1.335530367090467e+00	 8.113634484180853e-01	-2.881822427138691e-01
1	 1.319138152847608e+00	 8.416592597132743e-01	-4.097539833104898e-01
1	 1.301983198985745e+00	 8.714633281417865e-01	-5.391520125364950e-01
1	 1.284067760735535e+00	 9.007529410900955e-01	-6.763847817670554e-01
1	 1.265395385339038e+00	 9.295060173652493e-01	-8.214929249628902e-01
1	 1.245970917460011e+00	 9.577011762148074e-01	-9.745497745173879e-01
1	 1.225800499234146e+00	 9.853178043382338e-01	-1.135661395814928e+00
1	 1.406617244247173e+00	 6.922043849167152e-01	 1.086591605005698e-01
1	 1.393147290565148e+00	 7.245320344895437e-01	 2.191114445956045e-02
1	 1.378911046699490e+00	 7.564599434309848e-01	-7.288252196661618e-02
1	 1.363905730202986e+00	 7.879633573415036e-01	-1.756375349797498e-01
1	 1.348129789831525e+00	 8.190178689651958e-01	-2.862951071384092e-01
1	 1.331582931080320e+00	 8.495994916077230e-01	-4.048238707649066e-01
1	 1.314266137007805e+00	 8.796847322705800e-01	-5.312214475061977e-01
1	 1.296181684120543e+00	 9.092506640689551e-01	-6.655156408479024e-01
1	 1.277333153125360e+00	 9.382749974954472e-01	-8.077652138404496e-01
1	 1.257725434390691e+00	 9.667361500911392e-01	-9.580602210053195e-01
1	 1.237364727997274e+00	 9.946133140891735e-01	-1.116521871222535e+00
1	 1.419763294404329e+00	 6.986736313306823e-01	 9.960191373269441e-02
1	 1.406167452398852e+00	 7.313034106438844e-01	 1.564667160951000e-02
1	 1.391798158567646e+00	 7.635297134050192e-01	-7.630881408145196e-02
1	 1.376652604459141e+00	 7.953275538633646e-01	-1.762018572618534e-01
1	 1.360729224331522e+00	 8.266722966561857e-01	-2.839947926382228e-01
1	 1.344027720927606e+00	 8.575397309128240e-01	-3.996766784100748e-01
1	 1.326549086493368e+00	 8.879061440724667e-01	-5.232646663220764e-01
1	 1.308295618811295e+00	 9.177483949788170e-01	-6.548049988138573e-01
1	 1.289270932053014e+00	 9.470439858098275e-01	-7.943735985458811e-01
1	 1.269479962291672e+00	 9.757711323999124e-01	-9.420762222859942e-01
1	 1.248928967553118e+00	 1.003908832515712e+00	-1.098048158900714e+00
1	 1.432909362965459e+00	 7.051428868011598e-01	 9.159735871113409e-02
1	 1.419187632460221e+00	 7.380747962777202e-01	 1.023469664530854e-02
1	 1.404685288477143e+00	 7.705994932763116e-01	-7.908046649297881e-02
1	 1.389399496560257e+00	 8.026917606947001e-01	-1.763064200481294e-01
1	 1.373328676470027e+00	 8.343267350629970e-01	-2.814259086417721e-01
1	 1.356472528196873e+00	 8.654799813339080e-01	-3.944476363946233e-01
1	 1.338832053174321e+00	 8.961275673840037e-01	-5.154074405991510e-01
1	 1.320409570460812e+00	 9.262461377851972e-01	-6.443690975596680e-01
1	 1.301208727692818e+00	 9.558129864005016e-01	-7.814247288887718e-01
1	 1.281234506648269e+00	 9.848061273573786e-01	-9.266947832348726e-01
1	 1.260493223298199e+00	 1.013204363955689e+00	-1.080327576082614e+00
1	 1.446055456065250e+00	 7.116121543469853e-01	 8.447088748483865e-02
1	 1.432207836825179e+00	 7.448461945508820e-01	 5.509282691329415e-03
1	 1.417572442441803e+00	 7.776692863439487e-01	-8.135464564623102e-02
1	 1.402146412454711e+00	 8.100559812720015e-01	-1.760995244659084e-01
1	 1.385928152126612e+00	 8.419811877575717e-01	-2.787278014068489e-01
1	 1.368917358695528e+00	 8.734202465763066e-01	-3.892670527368139e-01
1	 1.351115042782549e+00	 9.043490060417461e-01	-5.077709637444336e-01
1	 1.332523544722111e+00	 9.347438964536106e-01	-6.343199472842893e-01
1	 1.313146545615595e+00	 9.645820033595822e-01	-7.690213717657290e-01
1	 1.292989072945795e+00	 9.938411391797882e-01	-9.120093765237098e-01
1	 1.272057500629041e+00	 1.022499912746946e+00	-1.063444260066694e+00
1	 1.156415051097081e+00	 9.295446851010828e-01	-1.259150168888706e+00
1	 1.136689647123178e+00	 9.550336534767583e-01	-1.450990317772067e+00
1	 1.116275734373034e+00	 9.799403718027949e-01	-1.656833664115835e+00
1	 1.095182710406913e+00	 1.004247933371997e+00	-1.875814965694522e+00
1	 1.073421145629011e+00	 1.027940381546648e+00	-2.106983655582775e+00
1	 1.051002757783851e+00	 1.051002757783852e+00	-2.349309969759574e+00
1	 1.027940381546647e+00	 1.073421145629011e+00	-2.601691993735399e+00
1	 1.004247933371997e+00	 1.095182710406913e+00	-2.862963532764702e+00
1	 9.799403718027947e-01	 1.116275734373035e+00	-3.131902694331340e+00
1	 9.550336534767578e-01	 1.136689647123179e+00	-3.407241058269348e+00
1	 9.295446851010828e-01	 1.156415051097081e+00	-3.687673299494578e+00
1	 1.167979328430909e+00	 9.388402338930860e-01	-1.238047704752917e+00
1	 1.148056668253955e+00	 9.645840947479684e-01	-1.426038111536273e+00
1	 1.127438614137450e+00	 9.897398829888864e-01	-1.627864213519436e+00
1	 1.106134657618302e+00	 1.014290522839711e+00	-1.842719297958821e+00
1	 1.084155474805915e+00	 1.038219898094590e+00	-2.069713037233693e+00
1	 1.061512900623551e+00	 1.061512900623551e+00	-2.307877156537328e+00
1	 1.038219898094590e+00	 1.084155474805915e+00	-2.556172002569171e+00
1	 1.014290522839711e+00	 1.106134657618302e+00	-2.813493924631768e+00
1	 9.897398829888857e-01	 1.127438614137450e+00	-3.078683363911053e+00
1	 9.645840947479679e-01	 1.148056668253955e+00	-3.350533533477735e+00
1	 9.388402338930860e-01	 1.167979328430909e+00	-3.627799561075780e+00
1	 1.179543584178313e+00	 9.481357653336441e-01	-1.217011261086553e+00
1	 1.159423668166479e+00	 9.741345181918949e-01	-1.401375223663395e+00
1	 1.138601473064650e+00	 9.995393758827325e-01	-1.599408364353850e+00
1	 1.117086584386196e+00	 1.024333093561410e+00	-1.810359892899422e+00
1	 1.094889783945534e+00	 1.048499395454237e+00	-2.033397073005444e+00
1	 1.072023023844444e+00	 1.072023023844445e+00	-2.267610450913062e+00
1	 1.048499395454236e+00	 1.094889783945534e+00	-2.512019967367046e+00
1	 1.024333093561409e+00	 1.117086584386196e+00	-2.765581870919846e+00
1	 9.995393758827319e-01	 1.138601473064650e+00	-3.027196335130648e+00
1	 9.741345181918943e-01	 1.159423668166480e+00	-3.295715669066362e+00
1	 9.481357653336442e-01	 1.179543584178313e+00	-3.569952999965161e+00
1	 1.191107823735815e+00	 9.574312837605971e-01	-1.196150736080157e+00
1	 1.170790652165233e+00	 9.836849282653308e-01	-1.377099227623615e+00
1	 1.149764316363858e+00	 1.009338855057359e+00	-1.571551177647970e+00
1	 1.128038495821394e+00	 1.034375650223553e+00	-1.778809167547708e+00
1	 1.105624078057122e+00	 1.058778878422611e+00	-1.998095461972788e+00
1	 1.082533132351175e+00	 1.082533132351175e+00	-2.228556818662255e+00
1	 1.058778878422611e+00	 1.105624078057122e+00	-2.469270164472457e+00
1	 1.034375650223553e+00	 1.128038495821395e+00	-2.719249061775354e+00
1	 1.009338855057359e+00	 1.149764316363859e+00	-2.977450874263878e+00
1	 9.836849282653305e-01	 1.170790652165234e+00	-3.242784528138570e+00
1	 9.574312837605973e-01	 1.191107823735815e+00	-3.514118754041647e+00
1	 1.202672052499939e+00	 9.667267935117863e-01	-1.175571797593013e+00
1	 1.182157625554698e+00	 9.932353294250700e-01	-1.353303940667875e+00
1	 1.160927149244302e+00	 1.019138325085792e+00	-1.544374439558189e+00
1	 1.138990397034699e+00	 1.044418197512602e+00	-1.748136750485580e+00
1	 1.116358362149933e+00	 1.069058351796734e+00	-1.963865604046345e+00
1	 1.093043231048384e+00	 1.093043231048384e+00	-2.190761416291206e+00
1	 1.069058351796734e+00	 1.116358362149933e+00	-2.427955549188026e+00
1	 1.044418197512602e+00	 1.138990397034699e+00	-2.674516350583932e+00
1	 1.019138325085792e+00	 1.160927149244302e+00	-2.929455888883747e+00
1	 9.932353294250695e-01	 1.182157625554698e+00	-3.191737284692737e+00
1	 9.667267935117863e-01	 1.202672052499939e+00	-3.460282531010317e+00
1	 1.214236275867208e+00	 9.760222989250513e-01	-1.155376084362591e+00
1	 1.193524593639354e+00	 1.002785726127905e+00	-1.330079602444490e+00
1	 1.172089976915204e+00	 1.028937790541059e+00	-1.517956817048201e+00
1	 1.149942293136908e+00	 1.054460740115017e+00	-1.718409614347252e+00
1	 1.127092641233221e+00	 1.079337820373628e+00	-1.930762709161198e+00
1	 1.103553324840712e+00	 1.103553324840712e+00	-2.154267676884441e+00
1	 1.079337820373628e+00	 1.127092641233221e+00	-2.388107818362830e+00
1	 1.054460740115017e+00	 1.149942293136908e+00	-2.631403793487034e+00
1	 1.028937790541058e+00	 1.172089976915205e+00	-2.883219944606799e+00
1	 1.002785726127905e+00	 1.193524593639354e+00	-3.142571217999768e+00
1	 9.760222989250517e-01	 1.214236275867209e+00	-3.408430580923152e+00
1	 1.225800499234146e+00	 9.853178043382338e-01	-1.135661395814928e+00
1	 1.204891561723683e+00	 1.012336122830632e+00	-1.307513043496755e+00
1	 1.183252804585793e+00	 1.038737255996183e+00	-1.492374004749112e+00
1	 1.160894189238823e+00	 1.064503282717258e+00	-1.689692200814588e+00
1	 1.137826920316240e+00	 1.089617288950315e+00	-1.898839900279715e+00
1	 1.114063418632800e+00	 1.114063418632800e+00	-2.119117391088770e+00
1	 1.089617288950315e+00	 1.137826920316241e+00	-2.349757469433937e+00
1	 1.064503282717258e+00	 1.160894189238823e+00	-2.589930686660078e+00
1	 1.038737255996183e+00	 1.183252804585794e+00	-2.838751280889046e+00
1	 1.012336122830631e+00	 1.204891561723683e+00	-3.095283707298964e+00
1	 9.853178043382338e-01	 1.225800499234146e+00	-3.358549670256350e+00
1	 1.237364727997274e+00	 9.946133140891735e-01	-1.116521871222535e+00
1	 1.216258535112166e+00	 1.021886523990040e+00	-1.285687844304084e+00
1	 1.194415637465293e+00	 1.048536726024194e+00	-1.467698863577571e+00
1	 1.171846090451243e+00	 1.074545830005786e+00	-1.662046538597476e+00
1	 1.148561204408244e+00	 1.099896762323818e+00	-1.868148310613645e+00
1	 1.124573517329290e+00	 1.124573517329291e+00	-2.085350783552424e+00
1	 1.099896762323817e+00	 1.148561204408244e+00	-2.312933856154410e+00
1	 1.074545830005786e+00	 1.171846090451244e+00	-2.550115601498373e+00
1	 1.048536726024194e+00	 1.194415637465293e+00	-2.796057825935195e+00
1	 1.021886523990040e+00	 1.216258535112166e+00	-3.049872226791580e+00
1	 9.946133140891735e-01	 1.237364727997274e+00	-3.310627057442672e+00
1	 1.248928967553118e+00	 1.003908832515712e+00	-1.098048158900714e+00
1	 1.227625519109282e+00	 1.031436934062925e+00	-1.264684485480234e+00
1	 1.205578480762928e+00	 1.058336205198116e+00	-1.444001551646355e+00
1	 1.182798001884969e+00	 1.084588386667060e+00	-1.635532354854176e+00
1	 1.159295498518487e+00	 1.110176245291156e+00	-1.838737175440459e+00
1	 1.135083625834824e+00	 1.135083625834825e+00	-2.053006585113884e+00
1	 1.110176245291155e+00	 1.159295498518488e+00	-2.277665241222753e+00
1	 1.084588386667060e+00	 1.182798001884970e+00	-2.511976417846587e+00
1	 1.058336205198115e+00	 1.205578480762929e+00	-2.755147210779056e+00
1	 1.031436934062925e+00	 1.227625519109283e+00	-3.006334340912850e+00
1	 1.003908832515712e+00	 1.248928967553118e+00	-3.264650469764137e+00
1	 1.260493223298199e+00	 1.013204363955689e+00	-1.080327576082614e+00
1	 1.238992519019514e+00	 1.040987357506080e+00	-1.244580489696762e+00
1	 1.216741339687926e+00	 1.068135698090975e+00	-1.421349647962972e+00
1	 1.193749928650801e+00	 1.094630957387542e+00	-1.610207180473506e+00
1	 1.170029807656223e+00	 1.120455742649354e+00	-1.810653918861373e+00
1	 1.145593749054043e+00	 1.145593749054043e+00	-2.022122101013862e+00
1	 1.120455742649353e+00	 1.170029807656223e+00	-2.243978846012905e+00
1	 1.094630957387542e+00	 1.193749928650801e+00	-2.475530355397662e+00
1	 1.068135698090974e+00	 1.216741339687926e+00	-2.716026782588237e+00
1	 1.040987357506080e+00	 1.238992519019515e+00	-2.964667699864487e+00
1	 1.013204363955689e+00	 1.260493223298199e+00	-3.220608081517840e+00
1	 1.272057500629041e+00	 1.022499912746946e+00	-1.063444260066694e+00
1	 1.250359540147344e+00	 1.050537798776298e+00	-1.225450555858963e+00
1	 1.227904219449511e+00	 1.077935209275797e+00	-1.399808269375507e+00
1	 1.204701875859538e+00	 1.104673546853691e+00	-1.586126449609495e+00
1	 1.180764136830705e+00	 1.130735259195432e+00	-1.783944235823365e+00
1	 1.156103891891588e+00	 1.156103891891588e+00	-1.992733275383525e+00
1	 1.130735259195432e+00	 1.180764136830706e+00	-2.211900897589528e+00
1	 1.104673546853691e+00	 1.204701875859538e+00	-2.440794003377644e+00
1	 1.077935209275797e+00	 1.227904219449511e+00	-2.678703617242505e+00
1	 1.050537798776297e+00	 1.250359540147344e+00	-2.924870035391064e+00
1	 1.022499912746946e+00	 1.272057500629041e+00	-3.178488493373673e+00
1	 9.295446851010828e-01	 1.156415051097081e+00	-3.687673299494578e+00
1	 9.034912739280351e-01	 1.175443739074679e+00	-3.975576715855766e+00
1	 8.768920792936006e-01	 1.193768700623031e+00	-4.272965587660072e+00
1	 8.497665476991274e-01	 1.211384141277095e+00	-4.577889839987785e+00
1	 8.221348496568712e-01	 1.228285490601410e+00	-4.888308313868125e+00
1	 7.940178164717289e-01	 1.244469402142706e+00	-5.202106244107461e+00
1	 7.654368751281195e-01	 1.259933748325849e+00	-5.517113137528891e+00
1	 7.364139816884138e-01	 1.274677610405123e+00	-5.831120784676147e+00
1	 7.069715536127235e-01	 1.288701263618529e+00	-6.141901146046224e+00
1	 6.771324014091542e-01	 1.302006157726207e+00	-6.447223867327784e+00
1	 6.469196600189466e-01	 1.314594893144823e+00	-6.744873196273140e+00
1	 9.388402338930860e-01	 1.167979328430909e+00	-3.627799561075780e+00
1	 9.125262857509882e-01	 1.187198305375145e+00	-3.912751661547185e+00
1	 8.856610962530621e-01	 1.205706518548624e+00	-4.207284389729833e+00
1	 8.582643063677960e-01	 1.223498115541023e+00	-4.509487412907172e+00
1	 8.303562883147731e-01	 1.240568480212031e+00	-4.817358328697731e+00
1	 8.019580817142199e-01	 1.256914232643485e+00	-5.128819894970107e+00
1	 7.730913278227416e-01	 1.272533223984267e+00	-5.441737680040053e+00
1	 7.437782022657355e-01	 1.287424526301110e+00	-5.753937868535598e+00
1	 7.140413466803662e-01	 1.301588417584430e+00	-6.063224965842531e+00
1	 6.839037996823167e-01	 1.315026362092133e+00	-6.367399156956088e+00
1	 6.533889275647721e-01	 1.327740986245340e+00	-6.664273093211114e+00
1	 9.481357653336442e-01	 1.179543584178313e+00	-3.569952999965161e+00
1	 9.215612807088770e-01	 1.198952849734028e+00	-3.852071647797556e+00
1	 8.944300968440325e-01	 1.217644314190618e+00	-4.143848162870226e+00
1	 8.667620491743738e-01	 1.235612067192585e+00	-4.443412026753855e+00
1	 8.385777116264349e-01	 1.252851446894847e+00	-4.748799863257598e+00
1	 8.098983321353757e-01	 1.269359039914404e+00	-5.057972412393243e+00
1	 7.807457662295895e-01	 1.285132676124198e+00	-5.368831942567274e+00
1	 7.511424090970859e-01	 1.300171418403419e+00	-5.679239838941594e+00
1	 7.211111265516633e-01	 1.314475547494891e+00	-5.987034112967137e+00
1	 6.906751853161528e-01	 1.328046542154255e+00	-6.290046590520680e+00
1	 6.598581830352498e-01	 1.340887054807035e+00	-6.586119553231005e+00
1	 9.574312837605973e-01	 1.191107823735815e+00	-3.514118754041647e+00
1	 9.305962630179522e-01	 1.210707377636642e+00	-3.793510404340893e+00
1	 9.031990851586242e-01	 1.229582093119834e+00	-4.082619940027223e+00
1	 8.752597800843774e-01	 1.247726001884798e+00	-4.379616715034991e+00
1	 8.467991234284110e-01	 1.265134396381741e+00	-4.682576631254318e+00
1	 8.178385714405275e-01	 1.281803829762870e+00	-4.989498848688930e+00
1	 7.884001939206055e-01	 1.297732110625213e+00	-5.298322949894150e+00
1	 7.585066056189579e-01	 1.312918292660427e+00	-5.606946299407733e+00
1	 7.281808965257009e-01	 1.327362659363738e+00	-5.913241345507275e+00
1	 6.974465614704943e-01	 1.341066703988496e+00	-6.215072623585350e+00
1	 6.663274294492167e-01	 1.354033104964595e+00	-6.510313237100613e+00
1	 9.667267935117863e-01	 1.202672052499939e+00	-3.460282531010317e+00
1	 9.396312368944647e-01	 1.222461894568301e+00	-3.737042669809645e+00
1	 9.119680652889495e-01	 1.241519860907096e+00	-4.023564174787641e+00
1	 8.837575030633220e-01	 1.259839925270682e+00	-4.318056316847482e+00
1	 8.550205275572574e-01	 1.277417334404598e+00	-4.618634510817458e+00
1	 8.257788033350074e-01	 1.294248607996289e+00	-4.923336754123126e+00
1	 7.960546144677318e-01	 1.310331533366881e+00	-5.230140533927147e+00
1	 7.658707952678434e-01	 1.325665155020511e+00	-5.536979946434569e+00
1	 7.352506599015661e-01	 1.340249759204795e+00	-5.841762778262755e+00
1	 7.042179313051726e-01	 1.354086853670782e+00	-6.142387311275295e+00
1	 6.727966698255098e-01	 1.367179142852703e+00	-6.436758628469858e+00
1	 9.760222989250517e-01	 1.214236275867209e+00	-3.408430580923152e+00
1	 9.486662065546658e-01	 1.234216406014319e+00	-3.682644143346863e+00
1	 9.207370413271203e-01	 1.253457623123224e+00	-3.966646673386778e+00
1	 8.922552220767228e-01	 1.271953843003255e+00	-4.258687390559154e+00
1	 8.632419278495306e-01	 1.289700266695305e+00	-4.556921441100492e+00
1	 8.337190315241457e-01	 1.306693380422067e+00	-4.859426057643545e+00
1	 8.037090314429112e-01	 1.322930950228776e+00	-5.164217199712105e+00
1	 7.732349814802350e-01	 1.338412011432048e+00	-5.469266421927229e+00
1	 7.423204199783441e-01	 1.353136853031890e+00	-5.772517722619958e+00
1	 7.109892979800190e-01	 1.367106997277037e+00	-6.071904136603694e+00
1	 6.792659071829658e-01	 1.380325174606045e+00	-6.365363851581028e+00
1	 9.853178043382338e-01	 1.225800499234146e+00	-3.358549670256350e+00
1	 9.577011762148071e-01	 1.245970917460012e+00	-3.630291438959652e+00
1	 9.295060173652488e-01	 1.265395385339038e+00	-3.911834530567893e+00
1	 9.007529410900951e-01	 1.284067760735536e+00	-4.201468132380310e+00
1	 8.714633281417857e-01	 1.301983198985745e+00	-4.497387324739559e+00
1	 8.416592597132739e-01	 1.319138152847608e+00	-4.797708954364325e+00
1	 8.113634484180847e-01	 1.335530367090467e+00	-5.100487999041521e+00
1	 7.805991676926241e-01	 1.351158867843414e+00	-5.403734173973638e+00
1	 7.493901800551211e-01	 1.366023946858846e+00	-5.705428535497503e+00
1	 7.177606646548652e-01	 1.380127140883184e+00	-6.003539848523983e+00
1	 6.857351445404221e-01	 1.393471206359307e+00	-6.296040499306339e+00
1	 9.946133140891735e-01	 1.237364727997274e+00	-3.310627057442672e+00
1	 9.667361500911388e-01	 1.257725434390691e+00	-3.579962042434349e+00
1	 9.382749974954470e-01	 1.277333153125361e+00	-3.859096069041367e+00
1	 9.092506640689543e-01	 1.296181684120542e+00	-4.146358299504994e+00
1	 8.796847322705793e-01	 1.314266137007804e+00	-4.439983935786528e+00
1	 8.495994916077225e-01	 1.331582931080320e+00	-4.738129799365494e+00
1	 8.190178689651954e-01	 1.348129789831525e+00	-5.038890411155229e+00
1	 7.879633573415030e-01	 1.363905730202985e+00	-5.340314325436213e+00
1	 7.564599434309841e-01	 1.378911046699490e+00	-5.640420476769388e+00
1	 7.245320344895431e-01	 1.393147290565148e+00	-5.937214309070834e+00
1	 6.922043849167152e-01	 1.406617244247173e+00	-6.228703470835959e+00
1	 1.003908832515712e+00	 1.248928967553118e+00	-3.264650469764137e+00
1	 9.757711323999120e-01	 1.269479962291672e+00	-3.531634270647402e+00
1	 9.470439858098268e-01	 1.289270932053014e+00	-3.808400782310130e+00
1	 9.177483949788166e-01	 1.308295618811296e+00	-4.093319137525974e+00
1	 8.879061440724666e-01	 1.326549086493368e+00	-4.384664832760941e+00
1	 8.575397309128235e-01	 1.344027720927606e+00	-4.680635007397287e+00
1	 8.266722966561850e-01	 1.360729224331522e+00	-4.979364230074191e+00
1	 7.953275538633642e-01	 1.376652604459141e+00	-5.278940549850302e+00
1	 7.635297134050186e-01	 1.391798158567647e+00	-5.577421574615611e+00
1	 7.313034106438838e-01	 1.406167452398852e+00	-5.872850349000623e+00
1	 6.986736313306823e-01	 1.419763294404329e+00	-6.163270818391441e+00
1	 1.013204363955689e+00	 1.260493223298199e+00	-3.220608081517840e+00
1	 9.848061273573779e-01	 1.281234506648269e+00	-3.485287233117873e+00
1	 9.558129864005016e-01	 1.301208727692819e+00	-3.759719280644944e+00
1	 9.262461377851967e-01	 1.320409570460812e+00	-4.042313311848501e+00
1	 8.961275673840033e-01	 1.338832053174322e+00	-4.331385276492382e+00
1	 8.654799813339078e-01	 1.356472528196874e+00	-4.625172958109977e+00
1	 8.343267350629964e-01	 1.373328676470027e+00	-4.921851458141477e+00
1	 8.026917606946993e-01	 1.389399496560258e+00	-5.219548954159224e+00
1	 7.705994932763115e-01	 1.404685288477143e+00	-5.516362498290993e+00
1	 7.380747962777198e-01	 1.419187632460222e+00	-5.810373631384796e+00
1	 7.051428868011599e-01	 1.432909362965459e+00	-6.099663602383590e+00
1	 1.022499912746946e+00	 1.272057500629041e+00	-3.178488493373673e+00
1	 9.938411391797880e-01	 1.292989072945795e+00	-3.440900795658818e+00
1	 9.645820033595817e-01	 1.313146545615596e+00	-3.713023240008916e+00
1	 9.347438964536103e-01	 1.332523544722111e+00	-3.993304842848137e+00
1	 9.043490060417456e-01	 1.351115042782550e+00	-4.280102152447594e+00
1	 8.734202465763062e-01	 1.368917358695529e+00	-4.571693906457270e+00
1	 8.419811877575710e-01	 1.385928152126612e+00	-4.866296205374778e+00
1	 8.100559812720007e-01	 1.402146412454711e+00	-5.162077967851317e+00
1	 7.776692863439484e-01	 1.417572442441804e+00	-5.457176437839443e+00
1	 7.448461945508813e-01	 1.432207836825180e+00	-5.749712522649605e+00
1	 7.116121543469851e-01	 1.446055456065250e+00	-6.037805754477398e+00
1	 6.469196600189466e-01	 1.314594893144823e+00	-6.744873196273141e+00
1	 6.163588700289421e-01	 1.326470387793212e+00	-7.035159721829238e+00
1	 5.854714964905722e-01	 1.337638367399996e+00	-7.318861009364442e+00
1	 5.542812261358540e-01	 1.348104707563986e+00	-7.594457028755349e+00
1	 5.228118009030747e-01	 1.357876299731294e+00	-7.860482209130233e+00
1	 4.910869536853514e-01	 1.366961009346076e+00	-8.115532585729493e+00
1	 4.591303459451811e-01	 1.375367631339310e+00	-8.358271989307180e+00
1	 4.269655074752550e-01	 1.383105843291213e+00	-8.587437264215916e+00
1	 3.946157785590299e-01	 1.390186156606576e+00	-8.801842517621958e+00
1	 3.621042547566256e-01	 1.396619866042657e+00	-9.000382417094466e+00
1	 3.294537345129284e-01	 1.402418997926461e+00	-9.182034566903944e+00
1	 6.533889275647721e-01	 1.327740986245340e+00	-6.664273093211115e+00
1	 6.225225263232393e-01	 1.339735237142397e+00	-6.954207227261250e+00
1	 5.913262756620284e-01	 1.351014897769846e+00	-7.237979025011258e+00
1	 5.598240991830853e-01	 1.361585902483125e+00	-7.514017357031752e+00
1	 5.280399762466951e-01	 1.371455211643566e+00	-7.780802068039410e+00
1	 4.959978770775202e-01	 1.380630769350628e+00	-8.036871786896224e+00
1	 4.637216997552890e-01	 1.389121458485566e+00	-8.280830768216653e+00
1	 4.312352093732100e-01	 1.396937053405456e+00	-8.511354743547553e+00
1	 3.985619796201450e-01	 1.404088170630291e+00	-8.727195777370019e+00
1	 3.657253370143581e-01	 1.410586217866145e+00	-8.927186139010580e+00
1	 3.327483079876942e-01	 1.416443341704605e+00	-9.110241215703107e+00
1	 6.598581830352498e-01	 1.340887054807035e+00	-6.586119553231005e+00
1	 6.286861711126497e-01	 1.353000061731036e+00	-6.875656762856584e+00
1	 5.971810439051409e-01	 1.364391403170606e+00	-7.159430425204362e+00
1	 5.653669618841588e-01	 1.375067072237715e+00	-7.435821820711767e+00
1	 5.332681418315468e-01	 1.385034098208786e+00	-7.703259827013547e+00
1	 5.009087913030716e-01	 1.394300503838440e+00	-7.960229360268137e+00
1	 4.683130449952527e-01	 1.402875259958044e+00	-8.205278838242812e+00
1	 4.355049033013806e-01	 1.410768237701365e+00	-8.437026635272478e+00
1	 4.025081733152879e-01	 1.417990158703402e+00	-8.654166517425640e+00
1	 3.693464125129542e-01	 1.424552543618833e+00	-8.855472063035688e+00
1	 3.360428753127599e-01	 1.430467659303615e+00	-9.039800088929054e+00
1	 6.663274294492167e-01	 1.354033104964595e+00	-6.510313237100613e+00
1	 6.348498072733945e-01	 1.366264867749247e+00	-6.799403960133337e+00
1	 6.030358039519952e-01	 1.377767889844539e+00	-7.083106793837370e+00
1	 5.709098168256141e-01	 1.388548223118886e+00	-7.359758837395233e+00
1	 5.384963000973219e-01	 1.398612965763712e+00	-7.627741516105275e+00
1	 5.058196986536593e-01	 1.407970219188693e+00	-7.885489622977614e+00
1	 4.729043838076082e-01	 1.416629042175190e+00	-8.131499373292488e+00
1	 4.397745912522127e-01	 1.424599402633524e+00	-8.364335434708609e+00
1	 4.064543614859514e-01	 1.431892127313559e+00	-8.582636914612699e+00
1	 3.729674829421980e-01	 1.438518849818423e+00	-8.785122304167039e+00
1	 3.393374380255505e-01	 1.444491957268275e+00	-8.970593394649741e+00
1	 6.727966698255098e-01	 1.367179142852703e+00	-6.436758628469858e+00
1	 6.410134376816959e-01	 1.379529661387156e+00	-6.725348467362771e+00
1	 6.088905585346771e-01	 1.391144364033907e+00	-7.008903887664630e+00
1	 5.764526665939905e-01	 1.402029361417770e+00	-7.285721119743001e+00
1	 5.437244534837128e-01	 1.412191820645104e+00	-7.554137552665698e+00
1	 5.107306014209383e-01	 1.421639921780570e+00	-7.812541345733608e+00
1	 4.774957183348917e-01	 1.430382811555445e+00	-8.059380045202484e+00
1	 4.440442752181524e-01	 1.438430554656515e+00	-8.293168161571385e+00
1	 4.104005459736288e-01	 1.445794082948413e+00	-8.512493682755183e+00
1	 3.765885499918736e-01	 1.452485142982614e+00	-8.716023517115719e+00
1	 3.426319976634912e-01	 1.458516242143368e+00	-8.902507877385085e+00
1	 6.792659071829658e-01	 1.380325174606045e+00	-6.365363851581028e+00
1	 6.471770652137750e-01	 1.392794448834883e+00	-6.653393758067122e+00
1	 6.147453103852734e-01	 1.404520831980973e+00	-6.936721437386588e+00
1	 5.819955137758277e-01	 1.415510493425495e+00	-7.213605470765819e+00
1	 5.489526044304115e-01	 1.425770669189720e+00	-7.482342532264729e+00
1	 5.156415018965628e-01	 1.435309617993255e+00	-7.741277540609874e+00
1	 4.820870507196393e-01	 1.444136574517252e+00	-7.988812809439807e+00
1	 4.483139571916460e-01	 1.452261700224921e+00	-8.223416144438836e+00
1	 4.143467286198130e-01	 1.459696032095616e+00	-8.443627856565783e+00
1	 3.802096153517648e-01	 1.466451429629105e+00	-8.648066680089242e+00
1	 3.459265557640069e-01	 1.472540520473678e+00	-8.835434602067487e+00
1	 6.857351445404221e-01	 1.393471206359307e+00	-6.296040499306339e+00
1	 6.533406927458544e-01	 1.406059236282552e+00	-6.583446950366517e+00
1	 6.206000622358696e-01	 1.417897299927996e+00	-6.866462960004207e+00
1	 5.875383609576650e-01	 1.428991625433194e+00	-7.143312590710722e+00
1	 5.541807553771099e-01	 1.439349517734319e+00	-7.412255031455993e+00
1	 5.205524023721871e-01	 1.448979314205930e+00	-7.671595260855505e+00
1	 4.866783831043868e-01	 1.457890337479054e+00	-7.919693702943332e+00
1	 4.525836391651395e-01	 1.466092845793325e+00	-8.154974817426547e+00
1	 4.182929112659973e-01	 1.473597981242819e+00	-8.375934587777822e+00
1	 3.838306807116564e-01	 1.480417716275596e+00	-8.581146890823751e+00
1	 3.492211138645225e-01	 1.486564798803988e+00	-8.769268750241352e+00
1	 6.922043849167152e-01	 1.406617244247173e+00	-6.228703470835959e+00
1	 6.595043231541556e-01	 1.419324029920284e+00	-6.515418636464790e+00
1	 6.264548168185518e-01	 1.431273774117241e+00	-6.798035581704434e+00
1	 5.930812107260417e-01	 1.442472763731995e+00	-7.074746894785215e+00
1	 5.594089087635007e-01	 1.452928372615660e+00	-7.343777421610993e+00
1	 5.254633051394662e-01	 1.462649016797779e+00	-7.603395411940530e+00
1	 4.912697176316702e-01	 1.471644106859294e+00	-7.851922653310131e+00
1	 4.568533231310793e-01	 1.479923997816310e+00	-8.087743528274139e+00
1	 4.222390957536747e-01	 1.487499936877671e+00	-8.309312952718496e+00
1	 3.874517477613319e-01	 1.494384009439787e+00	-8.515163174062913e+00
1	 3.525156735024633e-01	 1.500589083679082e+00	-8.703909427700246e+00
1	 6.986736313306823e-01	 1.419763294404329e+00	-6.163270818391441e+00
1	 6.656679593149004e-01	 1.432588835938203e+00	-6.449222721615629e+00
1	 6.323095768654061e-01	 1.444650260790970e+00	-6.731349870593484e+00
1	 5.986240656674968e-01	 1.455953914613030e+00	-7.007816341016098e+00
1	 5.646370670292757e-01	 1.466507240170500e+00	-7.276815693104862e+00
1	 5.303742124900538e-01	 1.476318732147982e+00	-7.536582573107545e+00
1	 4.958610564440256e-01	 1.485397889076415e+00	-7.785403298592088e+00
1	 4.611230110819116e-01	 1.493755162748458e+00	-8.021625357102128e+00
1	 4.261852839243382e-01	 1.501401905487825e+00	-8.243665770581417e+00
1	 3.910728181905756e-01	 1.508350315639376e+00	-8.450018299741528e+00
1	 3.558102362152539e-01	 1.514613381643741e+00	-8.639259482819869e+00
1	 7.051428868011599e-01	 1.432909362965459e+00	-6.099663602383592e+00
1	 6.718316041043106e-01	 1.445853660526430e+00	-6.384776271960993e+00
1	 6.381643451085180e-01	 1.458026766191443e+00	-6.666319678645346e+00
1	 6.041669283685706e-01	 1.469435084367429e+00	-6.942432267592465e+00
1	 5.698652326141274e-01	 1.480086126735601e+00	-7.211279289187219e+00
1	 5.352851267156051e-01	 1.489988466635725e+00	-7.471064828754646e+00
1	 5.004524016839894e-01	 1.499151690548859e+00	-7.720042817019718e+00
1	 4.653927050100819e-01	 1.507586347044352e+00	-7.956526945154054e+00
1	 4.301314776194810e-01	 1.515303893560932e+00	-8.178899431711152e+00
1	 3.946938936891718e-01	 1.522316641392064e+00	-8.385618611185745e+00
1	 3.591048035403197e-01	 1.528637699242752e+00	-8.575225334899322e+00
1	 7.116121543469851e-01	 1.446055456065250e+00	-6.037805754477398e+00
1	 6.779952603986081e-01	 1.459118509875090e+00	-6.321999370675605e+00
1	 6.440191242799743e-01	 1.471403296560924e+00	-6.602861992278180e+00
1	 6.097098014158014e-01	 1.482916279286323e+00	-6.878509239087559e+00
1	 5.750934079577478e-01	 1.493665038647719e+00	-7.147080948922715e+00
1	 5.401960501077742e-01	 1.503658226640188e+00	-7.406753609022888e+00
1	 5.050437554940973e-01	 1.512905517695068e+00	-7.655751766021751e+00
1	 4.696624069080371e-01	 1.521417557158576e+00	-7.892358332887266e+00
1	 4.340776786805963e-01	 1.529205907584642e+00	-8.114923735261071e+00
1	 3.983149759469042e-01	 1.536282993215550e+00	-8.321873862691664e+00
1	 3.623993770150853e-01	 1.542662043020896e+00	-8.511716811873145e+00
1	 3.294537345129284e-01	 1.402418997926461e+00	-9.182034566903942e+00
1	 2.966843784393872e-01	 1.407596598364675e+00	-9.346324841982558e+00
1	 2.638205609134598e-01	 1.412165572756028e+00	-9.493389012344732e+00
1	 2.308839434239252e-01	 1.416139826431092e+00	-9.623287851502193e+00
1	 1.978957096443058e-01	 1.419533782748832e+00	-9.736167252579333e+00
1	 1.648765290743220e-01	 1.422362329452364e+00	-9.832249880424884e+00
1	 1.318465240967305e-01	 1.424640765532204e+00	-9.911826879446211e+00
1	 9.882524045195897e-02	 1.426384748845694e+00	-9.975249727181001e+00
1	 6.583162110954265e-02	 1.427610244722075e+00	-1.002292231156045e+01
1	 3.288398349364309e-02	 1.428333475762771e+00	-1.005529329785986e+01
1	 0.000000000000000e+00	 1.428570873025926e+00	-1.007284883972128e+01
1	 3.327483079876942e-01	 1.416443341704605e+00	-9.110241215703105e+00
1	 2.996512547599297e-01	 1.421672718714860e+00	-9.275937833684548e+00
1	 2.664587954549430e-01	 1.426287383351045e+00	-9.424467347919801e+00
1	 2.331928081787427e-01	 1.430301379998563e+00	-9.555835949449463e+00
1	 1.998746884438768e-01	 1.433729276251555e+00	-9.670135220313766e+00
1	 1.665253124472977e-01	 1.436586108732203e+00	-9.767534159467028e+00
1	 1.331650037977657e-01	 1.438887329422610e+00	-9.848271227638325e+00
1	 9.981350369522612e-02	 1.440648752760408e+00	-9.912646500547288e+00
1	 6.648994454095852e-02	 1.441886503729888e+00	-9.961014008423536e+00
1	 3.321282693534693e-02	 1.442616967160266e+00	-9.993774328355194e+00
1	 0.000000000000000e+00	 1.442856738422074e+00	-1.001136748483709e+01
1	 3.360428753127599e-01	 1.430467659303615e+00	-9.039800088929054e+00
1	 3.026181255424344e-01	 1.435748812789194e+00	-9.206777452648055e+00
1	 2.690970250718209e-01	 1.440409167584866e+00	-9.356648956965753e+00
1	 2.355016686237529e-01	 1.444462907130611e+00	-9.489367941155175e+00
1	 2.018536635494072e-01	 1.447924743255469e+00	-9.604973390945096e+00
1	 1.681740927425821e-01	 1.450809861460411e+00	-9.703582327833422e+00
1	 1.344834810376643e-01	 1.453133866718838e+00	-9.785382181600411e+00
1	 1.008017650937519e-01	 1.454912730048382e+00	-9.850623234836908e+00
1	 6.714826674351385e-02	 1.456162736088079e+00	-9.899611217433428e+00
1	 3.354166976321423e-02	 1.456900431894637e+00	-9.932700118068215e+00
1	 0.000000000000000e+00	 1.457142577150667e+00	-9.950285269025706e+00
1	 3.393374380255505e-01	 1.444491957268275e+00	-8.970593394649741e+00
1	 3.055849921714104e-01	 1.449824887156639e+00	-9.138726249692308e+00
1	 2.717352509952450e-01	 1.454530932047792e+00	-9.289817111060769e+00
1	 2.378105258364076e-01	 1.458624414436090e+00	-9.423768146892954e+00
1	 2.038326358844074e-01	 1.462120190385275e+00	-9.540567411306936e+00
1	 1.698228707295977e-01	 1.465033594274894e+00	-9.640281587007962e+00
1	 1.358019564317105e-01	 1.467380384069432e+00	-9.723048676347867e+00
1	 1.017900251087216e-01	 1.469176687366300e+00	-9.789070729077904e+00
1	 6.780658802442376e-02	 1.470438948459054e+00	-9.838606684735081e+00
1	 3.387051213070415e-02	 1.471183876631666e+00	-9.871965397200656e+00
1	 0.000000000000000e+00	 1.471428395878593e+00	-9.889498898695006e+00
1	 3.426319976634912e-01	 1.458516242143368e+00	-8.902507877385085e+00
1	 3.085518560313680e-01	 1.463900948386158e+00	-9.071671299203000e+00
1	 2.743734744563665e-01	 1.468652683330121e+00	-9.223859577903676e+00
1	 2.401193808941584e-01	 1.472785908523857e+00	-9.358925342977491e+00
1	 2.058116063723871e-01	 1.476315624265677e+00	-9.476807333488980e+00
1	 1.714716471777676e-01	 1.479257313813562e+00	-9.577523484155030e+00
1	 1.371204305951884e-01	 1.481626888122938e+00	-9.661163926105175e+00
1	 1.027782842013206e-01	 1.483440631370847e+00	-9.727883990002610e+00
1	 6.846490869090337e-02	 1.484715147505218e+00	-9.777897289463539e+00
1	 3.419935419127582e-02	 1.485467308037133e+00	-9.811468952797251e+00
1	 0.000000000000000e+00	 1.485714201272741e+00	-9.828909061239978e+00
1	 3.459265557640069e-01	 1.472540520473678e+00	-8.835434602067487e+00
1	 3.115187185068158e-01	 1.477977003046713e+00	-9.005503983727692e+00
1	 2.770116966863367e-01	 1.482774428022150e+00	-9.158668407236107e+00
1	 2.424282348744576e-01	 1.486947396002769e+00	-9.294732549614453e+00
1	 2.077905759368567e-01	 1.490511051521376e+00	-9.413587405122207e+00
1	 1.731204228565147e-01	 1.493481026714322e+00	-9.515203705258250e+00
1	 1.384389041433821e-01	 1.495873385527899e+00	-9.599625220624462e+00
1	 1.037665428327341e-01	 1.497704568718708e+00	-9.666962031784491e+00
1	 6.912322905016788e-02	 1.498991339888976e+00	-9.717383847049733e+00
1	 3.452819609838832e-02	 1.499750732776819e+00	-9.751113435687088e+00
1	 0.000000000000000e+00	 1.500000000000000e+00	-9.768420235603795e+00
1	 3.492211138645225e-01	 1.486564798803988e+00	-8.769268750241354e+00
1	 3.144855809822637e-01	 1.492053057707269e+00	-8.940119790774009e+00
1	 2.796499189163069e-01	 1.496896172714180e+00	-9.094139728892573e+00
1	 2.447370888547568e-01	 1.501108883481681e+00	-9.231086830768762e+00
1	 2.097695455013264e-01	 1.504706478777075e+00	-9.350805871545644e+00
1	 1.747691985352618e-01	 1.507704739615082e+00	-9.453221879978178e+00
1	 1.397573776915759e-01	 1.510119882932860e+00	-9.538333733043091e+00
1	 1.047548014641477e-01	 1.511968506066570e+00	-9.606207687119921e+00
1	 6.978154940943238e-02	 1.513267532272735e+00	-9.656970923669400e+00
1	 3.485703800550086e-02	 1.514034157516504e+00	-9.690805178362123e+00
1	 0.000000000000000e+00	 1.514285798727260e+00	-9.707940513571103e+00
1	 3.525156735024633e-01	 1.500589083679082e+00	-8.703909427700248e+00
1	 3.174524448422210e-01	 1.506129118936787e+00	-8.875418121012109e+00
1	 2.822881423774284e-01	 1.511017923996508e+00	-9.030173562184491e+00
1	 2.470459439125078e-01	 1.515270377569448e+00	-9.167889105264786e+00
1	 2.117485159893061e-01	 1.518901912657477e+00	-9.288364789075175e+00
1	 1.764179749834317e-01	 1.521928459153749e+00	-9.391481397461806e+00
1	 1.410758518550538e-01	 1.524366386986366e+00	-9.477194338524583e+00
1	 1.057430605567467e-01	 1.526232450071117e+00	-9.545527428912649e+00
1	 7.043987007591201e-02	 1.527543731318899e+00	-9.596566661105308e+00
1	 3.518588006607250e-02	 1.528317588921971e+00	-9.630454023076680e+00
1	 0.000000000000000e+00	 1.528571604121408e+00	-9.647381431090585e+00
1	 3.558102362152539e-01	 1.514613381643741e+00	-8.639259482819869e+00
1	 3.204193114711973e-01	 1.520205193304232e+00	-8.811302107141222e+00
1	 2.849263683008524e-01	 1.525139688459433e+00	-8.966673635882879e+00
1	 2.493548011251625e-01	 1.529431884874928e+00	-9.105043968389630e+00
1	 2.137274883243062e-01	 1.533097359787283e+00	-9.226169848655351e+00
1	 1.780667529704474e-01	 1.536152191968234e+00	-9.329889232393519e+00
1	 1.423943272491001e-01	 1.538612904336961e+00	-9.416115442983530e+00
1	 1.067313205717163e-01	 1.540496407389035e+00	-9.484831201872847e+00
1	 7.109819135682192e-02	 1.541819943689873e+00	-9.536082611347808e+00
1	 3.551472243356241e-02	 1.542601033659000e+00	-9.569973159504803e+00
1	 0.000000000000000e+00	 1.542857422849333e+00	-9.586657808976435e+00
1	 3.591048035403197e-01	 1.528637699242752e+00	-8.575225334899324e+00
1	 3.233861822537019e-01	 1.534281287378566e+00	-8.747678442735396e+00
1	 2.875645979177304e-01	 1.539261472693255e+00	-8.903547218118154e+00
1	 2.516636615701727e-01	 1.543593412006975e+00	-9.042459523324782e+00
1	 2.157064634298367e-01	 1.547292826791197e+00	-9.164130209226368e+00
1	 1.797155332657316e-01	 1.550375944696441e+00	-9.268355780628935e+00
1	 1.437128044889987e-01	 1.552859441633188e+00	-9.355008821246351e+00
1	 1.077195819702421e-01	 1.554760384677008e+00	-9.424032263393594e+00
1	 7.175651355937723e-02	 1.556096176048064e+00	-9.475433580307127e+00
1	 3.584356526142972e-02	 1.556884498393372e+00	-9.509278971341683e+00
1	 0.000000000000000e+00	 1.557143261577926e+00	-9.525687602385515e+00
1	 3.623993770150853e-01	 1.542662043020896e+00	-8.511716811873145e+00
1	 3.263530585742443e-01	 1.548357407728751e+00	-8.684457220432465e+00
1	 2.902028324592135e-01	 1.553383283288272e+00	-8.840704955566153e+00
1	 2.539725263249901e-01	 1.557754965574446e+00	-8.980047221779516e+00
1	 2.176854422294076e-01	 1.561488320293919e+00	-9.102158340187493e+00
1	 1.813643166387074e-01	 1.564599723976281e+00	-9.206794703801737e+00
1	 1.450312841900338e-01	 1.567106005523594e+00	-9.293789464046444e+00
1	 1.087078452135093e-01	 1.569024388591723e+00	-9.363047033113947e+00
1	 7.241483699079308e-02	 1.570372435055877e+00	-9.414537480057589e+00
1	 3.617240870313355e-02	 1.571167989790866e+00	-9.448290891278553e+00
1	 0.000000000000000e+00	 1.571429126974074e+00	-9.464391758511923e+00
1	 1.571429126974074e+00	 0.000000000000000e+00	 8.706324473523793e-01
1	 1.571167989790867e+00	 3.617240870313405e-02	 8.645923145555274e-01
1	 1.570372435055877e+00	 7.241483699079355e-02	 8.559657786452547e-01
1	 1.569024388591724e+00	 1.087078452135097e-01	 8.444645479243363e-01
1	 1.567106005523594e+00	 1.450312841900342e-01	 8.298029094761978e-01
1	 1.564599723976281e+00	 1.813643166387076e-01	 8.117000596441901e-01
1	 1.561488320293920e+00	 2.176854422294079e-01	 7.898826251022825e-01
1	 1.557754965574446e+00	 2.539725263249902e-01	 7.640873641616417e-01
1	 1.553383283288272e+00	 2.902028324592137e-01	 7.340640337948294e-01
1	 1.548357407728751e+00	 3.263530585742443e-01	 6.995784034017887e-01
1	 1.542662043020896e+00	 3.623993770150854e-01	 6.604153916533285e-01
1	 1.585715024037928e+00	 0.000000000000000e+00	 8.318241603522321e-01
1	 1.585451512850806e+00	 3.650125287376479e-02	 8.261517341450628e-01
1	 1.584648725710099e+00	 7.307316188147503e-02	 8.179956672262094e-01
1	 1.583288424125677e+00	 1.096961106474002e-01	 8.070915901022389e-01
1	 1.581352600994570e+00	 1.463497668136621e-01	 7.931771216808710e-01
1	 1.578823534786167e+00	 1.830131036664365e-01	 7.759939748371001e-01
1	 1.575683845263964e+00	 2.196644254156486e-01	 7.552902381022101e-01
1	 1.571916550533969e+00	 2.562813961977032e-01	 7.308228245260930e-01
1	 1.567505125187193e+00	 2.928410728486677e-01	 7.023600749815271e-01
1	 1.562433559281498e+00	 3.293199414712119e-01	 6.696844991198173e-01
1	 1.556686417886749e+00	 3.656939577926278e-01	 6.325956329077302e-01
1	 1.600000951102682e+00	 0.000000000000000e+00	 7.965821891503680e-01
1	 1.599735065906658e+00	 3.683009773493779e-02	 7.912606133020468e-01
1	 1.598925046345046e+00	 7.373148815458680e-02	 7.835487439291600e-01
1	 1.597552489614615e+00	 1.106843781565817e-01	 7.732053793987109e-01
1	 1.595599226383898e+00	 1.476682522060276e-01	 7.599907954892143e-01
1	 1.593047375466544e+00	 1.846618941565351e-01	 7.436686392221646e-01
1	 1.589879400045076e+00	 2.216434127576645e-01	 7.240079846978118e-01
1	 1.586078165233253e+00	 2.585902709189449e-01	 7.007855432610993e-01
1	 1.581626996742376e+00	 2.954793187783158e-01	 6.737880169031039e-01
1	 1.576509740394501e+00	 3.322868305985031e-01	 6.428145801231480e-01
1	 1.570710822204060e+00	 3.689885454886305e-01	 6.076794715874726e-01
1	 1.614286904834791e+00	 0.000000000000000e+00	 7.647367641528718e-01
1	 1.614018645625435e+00	 3.715894320989962e-02	 7.597465050474965e-01
1	 1.613201393629416e+00	 7.438981565648350e-02	 7.524505932069340e-01
1	 1.611816581730097e+00	 1.116726475104183e-01	 7.426302664754669e-01
1	 1.609845878367207e+00	 1.489867400594473e-01	 7.300678070540464e-01
1	 1.607271242698359e+00	 1.863106877242590e-01	 7.145482364883315e-01
1	 1.604074981324810e+00	 2.236224037936801e-01	 6.958611588802832e-01
1	 1.600239806367783e+00	 2.608991499499849e-01	 6.738027457960785e-01
1	 1.595748894658584e+00	 2.981175696325953e-01	 6.481778532647831e-01
1	 1.590585947783202e+00	 3.352537252638942e-01	 6.188022579420596e-01
1	 1.584735252700366e+00	 3.722831393344285e-01	 5.855049959960841e-01
1	 1.628572881900711e+00	 0.000000000000000e+00	 7.361240707824740e-01
1	 1.628302248674145e+00	 3.748778922189691e-02	 7.314430114108550e-01
1	 1.627477764231905e+00	 7.504814423351969e-02	 7.245329176391471e-01
1	 1.626080697143679e+00	 1.126609184782742e-01	 7.151967634553221e-01
1	 1.624092553620127e+00	 1.503052300662380e-01	 7.032382106800474e-01
1	 1.621495133162564e+00	 1.879594839848635e-01	 6.884631177253833e-01
1	 1.618270585790724e+00	 2.256013980619200e-01	 6.706811831223007e-01
1	 1.614401470633040e+00	 2.632080327520929e-01	 6.497077183103307e-01
1	 1.609870815640586e+00	 3.007558247959439e-01	 6.253655414275926e-01
1	 1.604662178163042e+00	 3.382206247751619e-01	 5.974869808609296e-01
1	 1.598759706103210e+00	 3.755777385613570e-01	 5.659159741529848e-01
1	 1.642858878966899e+00	 0.000000000000000e+00	 7.105859906096574e-01
1	 1.642585871719799e+00	 3.781663569417622e-02	 7.061895204756684e-01
1	 1.641754154821212e+00	 7.570647373205003e-02	 6.996332719734343e-01
1	 1.640344832526921e+00	 1.136491908295135e-01	 6.907412760796057e-01
1	 1.638339248818290e+00	 1.516237219187165e-01	 6.793379702553449e-01
1	 1.635719043540108e+00	 1.896082825536043e-01	 6.652495333223456e-01
1	 1.632466210130369e+00	 2.275803951006085e-01	 6.483053419675051e-01
1	 1.628563154724508e+00	 2.655169187865385e-01	 6.283395442658131e-01
1	 1.623992756393148e+00	 3.033940836527993e-01	 6.051927431606252e-01
1	 1.618738428249461e+00	 3.411875284400820e-01	 5.787137801854541e-01
1	 1.612784179140129e+00	 3.788723424007510e-01	 5.487616068855452e-01
1	 1.657144892699808e+00	 0.000000000000000e+00	 6.879698558660867e-01
1	 1.656869511429405e+00	 3.814548254998415e-02	 6.838309570187153e-01
1	 1.656030562066033e+00	 7.636480399842913e-02	 6.775948109155172e-01
1	 1.654608984551380e+00	 1.146374643335004e-01	 6.691058497118056e-01
1	 1.652585960637322e+00	 1.529422153091996e-01	 6.582087045668462e-01
1	 1.649942970511941e+00	 1.912570830457367e-01	 6.447493787255147e-01
1	 1.646661851031305e+00	 2.295593944479705e-01	 6.285765293921589e-01
1	 1.642724855337668e+00	 2.678258075145912e-01	 6.095428545599422e-01
1	 1.638114713621036e+00	 3.060323455875986e-01	 5.875065787951460e-01
1	 1.632814694757902e+00	 3.441544355664312e-01	 5.623330296266849e-01
1	 1.626808668538664e+00	 3.821669500839458e-01	 5.338962936851520e-01
1	 1.671430919765895e+00	 0.000000000000000e+00	 6.681282165401112e-01
1	 1.671153164469973e+00	 3.847432971256731e-02	 6.642175459298351e-01
1	 1.670306982635067e+00	 7.702313487901155e-02	 6.582660498459194e-01
1	 1.668873149888615e+00	 1.156257387595990e-01	 6.501379283594473e-01
1	 1.666832685752855e+00	 1.542607099300041e-01	 6.396974456690857e-01
1	 1.664166910759013e+00	 1.929058850765161e-01	 6.268099532273053e-01
1	 1.660857505181086e+00	 2.315383956422302e-01	 6.113430091154597e-01
1	 1.656886569168004e+00	 2.701346983975205e-01	 5.931675904839834e-01
1	 1.652236684029017e+00	 3.086706099847796e-01	 5.721593939792461e-01
1	 1.646890974403806e+00	 3.471213454619858e-01	 5.482002170174957e-01
1	 1.640833171026356e+00	 3.854615608422766e-01	 5.211794105639973e-01
1	 1.685716956831615e+00	 0.000000000000000e+00	 6.509186193083913e-01
1	 1.685436827508512e+00	 3.880317710517230e-02	 6.472045876546292e-01
1	 1.684583413197011e+00	 7.768146622015194e-02	 6.415006376969974e-01
1	 1.683137325210183e+00	 1.166140138771735e-01	 6.336901259423899e-01
1	 1.681079420840518e+00	 1.555792054734467e-01	 6.236564095326750e-01
1	 1.678390860962274e+00	 1.945546882611981e-01	 6.112837310133626e-01
1	 1.675053169267265e+00	 2.335173982216121e-01	 5.964581870907557e-01
1	 1.671048292910997e+00	 2.724435908965961e-01	 5.790687787277944e-01
1	 1.666358664321857e+00	 3.113088762287799e-01	 5.590085382859094e-01
1	 1.660967263902613e+00	 3.500882574345220e-01	 5.361757276303379e-01
1	 1.654857683330742e+00	 3.887561739070783e-01	 5.104750992010992e-01
1	 1.700003000563425e+00	 0.000000000000000e+00	 6.362033976077384e-01
1	 1.699720497212033e+00	 3.913202465104567e-02	 6.326522449532532e-01
1	 1.698859850420562e+00	 7.833979786820486e-02	 6.271571412752968e-01
1	 1.697401507187642e+00	 1.176022894555880e-01	 6.196200090875442e-01
1	 1.695326162575941e+00	 1.568977016318442e-01	 6.099427782503950e-01
1	 1.692614817802672e+00	 1.962034922150380e-01	 5.980281437472207e-01
1	 1.689248839977401e+00	 2.354964017243409e-01	 5.837803954615978e-01
1	 1.685210023262131e+00	 2.747524844730876e-01	 5.671063177227025e-01
1	 1.680480651204323e+00	 3.139471437040368e-01	 5.479161549776335e-01
1	 1.675043559969767e+00	 3.530551707918165e-01	 5.261246384142143e-01
1	 1.668882202179363e+00	 3.920507885096862e-01	 5.016520667138378e-01
1	 1.714289047627778e+00	 0.000000000000000e+00	 6.238494721977339e-01
1	 1.714004170247544e+00	 3.946087227343405e-02	 6.204253403155071e-01
1	 1.713136290974417e+00	 7.899812966952499e-02	 6.150988403619939e-01
1	 1.711665692492551e+00	 1.185905652642067e-01	 6.077898907779747e-01
1	 1.709572907634753e+00	 1.582161980975134e-01	 5.984184931271457e-01
1	 1.706838777961159e+00	 1.978522965532914e-01	 5.869053740199000e-01
1	 1.703444513999047e+00	 2.374754056886410e-01	 5.731726873141343e-01
1	 1.699371756916888e+00	 2.770613785882647e-01	 5.571447746614915e-01
1	 1.694602641381181e+00	 3.165854117949879e-01	 5.387489812771578e-01
1	 1.689119859320706e+00	 3.560220848416451e-01	 5.179165225142548e-01
1	 1.682906724299760e+00	 3.953454038814352e-01	 4.945833954355159e-01
1	 1.542662043020896e+00	 3.623993770150854e-01	 6.604153916533284e-01
1	 1.536282993215550e+00	 3.983149759469040e-01	 6.172243809616075e-01
1	 1.529205907584642e+00	 4.340776786805960e-01	 5.708422320024266e-01
1	 1.521417557158576e+00	 4.696624069080367e-01	 5.213355143667848e-01
1	 1.512905517695068e+00	 5.050437554940970e-01	 4.687349415093796e-01
1	 1.503658226640188e+00	 5.401960501077737e-01	 4.130316419730505e-01
1	 1.493665038647719e+00	 5.750934079577475e-01	 3.541736188972521e-01
1	 1.482916279286322e+00	 6.097098014158012e-01	 2.920624669999360e-01
1	 1.471403296560924e+00	 6.440191242799742e-01	 2.265504181312796e-01
1	 1.459118509875090e+00	 6.779952603986078e-01	 1.574377869893344e-01
1	 1.446055456065250e+00	 7.116121543469853e-01	 8.447088748483857e-02
1	 1.556686417886749e+00	 3.656939577926278e-01	 6.325956329077304e-01
1	 1.550249375998099e+00	 4.019360662311212e-01	 5.916082167506742e-01
1	 1.543107952424686e+00	 4.380238884888155e-01	 5.474188226143556e-01
1	 1.535248797932060e+00	 4.739321182701246e-01	 5.000976584280162e-01
1	 1.526659375328873e+00	 5.096351194812659e-01	 4.496786564576318e-01
1	 1.517328016945761e+00	 5.451069843853168e-01	 3.961556913524038e-01
1	 1.507243980659426e+00	 5.803215948899214e-01	 3.394789867627117e-01
1	 1.496397504088063e+00	 6.152526867491098e-01	 2.795517805655696e-01
1	 1.484779856581116e+00	 6.498739164288541e-01	 2.162273207081536e-01
1	 1.472383388626781e+00	 6.841589303549737e-01	 1.493062642234509e-01
1	 1.459201578304726e+00	 7.180814362322998e-01	 7.853455090434737e-02
1	 1.570710822204060e+00	 3.689885454886305e-01	 6.076794715874727e-01
1	 1.564215788110238e+00	 4.055571641194287e-01	 5.687687482511937e-01
1	 1.557010026459114e+00	 4.419701065838270e-01	 5.266442080572183e-01
1	 1.549080067751132e+00	 4.782018385983015e-01	 4.813792644342039e-01
1	 1.540413261845648e+00	 5.142264931099342e-01	 4.330106270583879e-01
1	 1.530997835957645e+00	 5.500179289753961e-01	 3.815344686347235e-01
1	 1.520822951186545e+00	 5.855497928008031e-01	 3.269027807821261e-01
1	 1.509878757199894e+00	 6.207955837219393e-01	 2.690199898973959e-01
1	 1.498156444691492e+00	 6.557287208722125e-01	 2.077399059073596e-01
1	 1.485648295234026e+00	 6.903226132544257e-01	 1.428630774089838e-01
1	 1.472347728150277e+00	 7.245507317024646e-01	 7.413462565915332e-02
1	 1.584735252700366e+00	 3.722831393344285e-01	 5.855049959960841e-01
1	 1.578182226293059e+00	 4.091782687669958e-01	 5.485489307274378e-01
1	 1.570912126444055e+00	 4.459163320449563e-01	 5.083661346805158e-01
1	 1.562911363388469e+00	 4.824715668964256e-01	 4.650328040311060e-01
1	 1.554167174036154e+00	 5.188178753089214e-01	 4.185879950024917e-01
1	 1.544667680486245e+00	 5.549288827322758e-01	 3.690297412713984e-01
1	 1.534401947060710e+00	 5.907780004706400e-01	 3.163113612498640e-01
1	 1.523360035476277e+00	 6.263384910411125e-01	 2.603380269478746e-01
1	 1.511533057770965e+00	 6.615835362440975e-01	 2.009636682121721e-01
1	 1.498913226601820e+00	 6.964863076589417e-01	 1.379882867683541e-01
1	 1.485493902534635e+00	 7.310200392481445e-01	 7.115575347995805e-02
1	 1.598759706103210e+00	 3.755777385613570e-01	 5.659159741529848e-01
1	 1.592148687287654e+00	 4.127993793289919e-01	 5.307972284320468e-01
1	 1.584814249135637e+00	 4.498625639515296e-01	 4.924376897571425e-01
1	 1.576742681616749e+00	 4.867413021683550e-01	 4.509159240313930e-01
1	 1.567921108691154e+00	 5.234092650070474e-01	 4.062729133298556e-01
1	 1.558337547341971e+00	 5.598398445102201e-01	 3.585081257987210e-01
1	 1.547980965113555e+00	 5.960062166796786e-01	 3.075757764356887e-01
1	 1.536841335771679e+00	 6.318814074134527e-01	 2.533813512781350e-01
1	 1.524909692698449e+00	 6.674383611785578e-01	 1.957784696672580e-01
1	 1.512178179635163e+00	 7.026500121304985e-01	 1.345661599244682e-01
1	 1.498640098390529e+00	 7.374893573600056e-01	 6.948662278236453e-02
1	 1.612784179140129e+00	 3.788723424007510e-01	 5.487616068855452e-01
1	 1.606115167835117e+00	 4.164204949605868e-01	 5.153673751179142e-01
1	 1.598716391289989e+00	 4.538088013828732e-01	 4.787170692991911e-01
1	 1.590574019208646e+00	 4.910110434179482e-01	 4.388912214339063e-01
1	 1.581675062601407e+00	 5.280006611331310e-01	 3.959323285677369e-01
1	 1.572007433335227e+00	 5.647508131634927e-01	 3.498408770274996e-01
1	 1.561560002176714e+00	 6.012344402081660e-01	 3.005715587753276e-01
1	 1.550322654940563e+00	 6.374243315457835e-01	 2.480297532170116e-01
1	 1.538286346352859e+00	 6.732931943096417e-01	 1.920683499921077e-01
1	 1.525443151239054e+00	 7.088137252310736e-01	 1.324849889732342e-01
1	 1.511786312650691e+00	 7.439586845287128e-01	 6.901979272238780e-02
1	 1.626808668538664e+00	 3.821669500839458e-01	 5.338962936851520e-01
1	 1.620081664676538e+00	 4.200416148169498e-01	 5.021181469304400e-01
1	 1.612618549663240e+00	 4.577550434183133e-01	 4.670673578765639e-01
1	 1.604405372936839e+00	 4.952807896490632e-01	 4.288260300733430e-01
1	 1.595429032557675e+00	 5.325920626159918e-01	 3.874377741314572e-01
1	 1.585677335276421e+00	 5.696617875463581e-01	 3.429036881305735e-01
1	 1.575139055081823e+00	 6.064626698363499e-01	 2.951785315970502e-01
1	 1.563803989837394e+00	 6.429672621449282e-01	 2.441671671958651e-01
1	 1.551663015613107e+00	 6.791480342713972e-01	 1.897213465107059e-01
1	 1.538708138318490e+00	 7.149774455226444e-01	 1.316369170125905e-01
1	 1.524932542247848e+00	 7.504280192449314e-01	 6.965152634742462e-02
1	 1.640833171026356e+00	 3.854615608422766e-01	 5.211794105639973e-01
1	 1.634048174553012e+00	 4.236627380532504e-01	 4.909131469399236e-01
1	 1.626520721011518e+00	 4.617012891371760e-01	 4.573563197207225e-01
1	 1.618236739574002e+00	 4.995505398655581e-01	 4.205922182049454e-01
1	 1.609183015350721e+00	 5.371834683844493e-01	 3.806651743140749e-01
1	 1.599347249975960e+00	 5.745727665130803e-01	 3.375765009765994e-01
1	 1.588718120660515e+00	 6.116909043444767e-01	 2.912806257541927e-01
1	 1.577285337316637e+00	 6.485101979177099e-01	 2.416814946506562e-01
1	 1.565039697358108e+00	 6.850028796978732e-01	 1.886293233104833e-01
1	 1.551973137778469e+00	 7.211411715671885e-01	 1.319177735625414e-01
1	 1.538078784114736e+00	 7.568973599993275e-01	 7.128163229888923e-02
1	 1.654857683330742e+00	 3.887561739070783e-01	 5.104750992010991e-01
1	 1.648014694205628e+00	 4.272838638246583e-01	 4.816206006239190e-01
1	 1.640422902090953e+00	 4.656475376187876e-01	 4.494562004444299e-01
1	 1.632068115892814e+00	 5.038202930712914e-01	 4.140659963758415e-01
1	 1.622937007771303e+00	 5.417748773673225e-01	 3.754946582372380e-01
1	 1.613017174244250e+00	 5.794837489179233e-01	 3.337433261025642e-01
1	 1.602297195744425e+00	 6.169191425127935e-01	 2.887657055763730e-01
1	 1.590766694232754e+00	 6.540531375709525e-01	 2.404644359240766e-01
1	 1.578416388466777e+00	 6.908577292231182e-01	 1.886878090833297e-01
1	 1.565238146523991e+00	 7.273049019266826e-01	 1.332269183490895e-01
1	 1.551225035184080e+00	 7.633667052825658e-01	 7.381331455942888e-02
1	 1.668882202179363e+00	 3.920507885096862e-01	 5.016520667138378e-01
1	 1.661981220375480e+00	 4.309049912863429e-01	 4.741131616557875e-01
1	 1.654325089657674e+00	 4.695937879424743e-01	 4.432435387534025e-01
1	 1.645899498665951e+00	 5.080900482701213e-01	 4.091277349782990e-01
1	 1.636691006610186e+00	 5.463662884934315e-01	 3.718103831775600e-01
1	 1.626687104891698e+00	 5.843947336151508e-01	 3.312920717584132e-01
1	 1.615876277165188e+00	 6.221473831215475e-01	 2.875254035914788e-01
1	 1.604248057440212e+00	 6.595960798114789e-01	 2.404113306385940e-01
1	 1.591793085818026e+00	 6.967125814811796e-01	 1.897958431382441e-01
1	 1.578503161460054e+00	 7.334686351631050e-01	 1.354670929603221e-01
1	 1.564371292388615e+00	 7.698360535853119e-01	 7.715302977180932e-02
1	 1.682906724299760e+00	 3.953454038814352e-01	 4.945833954355159e-01
1	 1.675947749803660e+00	 4.345261195934738e-01	 4.682677273986166e-01
1	 1.668227280467807e+00	 4.735400391875617e-01	 4.385989875673025e-01
1	 1.659730884666089e+00	 5.123598044659057e-01	 4.056617909203727e-01
1	 1.650445008658129e+00	 5.509577006915951e-01	 3.695003667219189e-01
1	 1.640357038728711e+00	 5.893057194590274e-01	 3.301143814948184e-01
1	 1.629455361754438e+00	 6.273756249509855e-01	 2.874549635071129e-01
1	 1.617729423793474e+00	 6.651390233461127e-01	 2.414210060465359e-01
1	 1.605169786290770e+00	 7.025674351061066e-01	 1.918558291092102e-01
1	 1.591768179491655e+00	 7.396323698384317e-01	 1.385442799156905e-01
1	 1.577517552661069e+00	 7.763054033982315e-01	 8.121035168799062e-02
1	 1.446055456065250e+00	 7.116121543469853e-01	 8.447088748483865e-02
1	 1.432207836825179e+00	 7.448461945508820e-01	 5.509282691329415e-03
1	 1.417572442441803e+00	 7.776692863439487e-01	-8.135464564623102e-02
1	 1.402146412454711e+00	 8.100559812720015e-01	-1.760995244659084e-01
1	 1.385928152126612e+00	 8.419811877575717e-01	-2.787278014068489e-01
1	 1.368917358695528e+00	 8.734202465763066e-01	-3.892670527368139e-01
1	 1.351115042782549e+00	 9.043490060417461e-01	-5.077709637444336e-01
1	 1.332523544722111e+00	 9.347438964536106e-01	-6.343199472842893e-01
1	 1.313146545615595e+00	 9.645820033595822e-01	-7.690213717657290e-01
1	 1.292989072945795e+00	 9.938411391797882e-01	-9.120093765237098e-01
1	 1.272057500629041e+00	 1.022499912746946e+00	-1.063444260066694e+00
1	 1.459201578304726e+00	 7.180814362322998e-01	 7.853455090434745e-02
1	 1.445228070050683e+00	 7.516176078332568e-01	 1.802680232643725e-03
1	 1.430459624972012e+00	 7.847390950822563e-01	-8.277916918493243e-02
1	 1.414893356603801e+00	 8.174202181726493e-01	-1.752094012780599e-01
1	 1.398527655710973e+00	 8.496356574188768e-01	-2.755095433676581e-01
1	 1.381362216779143e+00	 8.813605294190271e-01	-3.837253596363671e-01
1	 1.363398059616986e+00	 9.125704629231188e-01	-4.999276409110158e-01
1	 1.344637545834977e+00	 9.432416739582017e-01	-6.242126394257689e-01
1	 1.325084389999482e+00	 9.733510397561601e-01	-7.567021228529009e-01
1	 1.304743665298257e+00	 1.002876171029337e+00	-8.975430284803910e-01
1	 1.283621803593056e+00	 1.031795482142871e+00	-1.046906705845065e+00
1	 1.472347728150277e+00	 7.245507317024646e-01	 7.413462565915321e-02
1	 1.458248330617824e+00	 7.583890353349527e-01	-5.210700432676380e-04
1	 1.443346834564395e+00	 7.918089186665238e-01	-8.297248447898205e-02
1	 1.427640327520521e+00	 8.247844705375758e-01	-1.732373164101603e-01
1	 1.411127185753312e+00	 8.572901431539766e-01	-2.713556342579188e-01
1	 1.393807100995965e+00	 8.893008289357811e-01	-3.773907965947751e-01
1	 1.375681102244761e+00	 9.207919370690237e-01	-4.914300535555003e-01
1	 1.356751572386259e+00	 9.517394693076289e-01	-6.135848008263827e-01
1	 1.337022259451874e+00	 9.821200945672420e-01	-7.439904634919869e-01
1	 1.316498282334426e+00	 1.011911221851995e+00	-8.828059935410021e-01
1	 1.295186130841210e+00	 1.041091071059036e+00	-1.030212972119185e+00
1	 1.485493902534635e+00	 7.310200392481445e-01	 7.115575347995796e-02
1	 1.471268615488724e+00	 7.651604754761316e-01	-1.572672149801016e-03
1	 1.456234068212133e+00	 7.988787554472803e-01	-8.204052426991040e-02
1	 1.440387322230788e+00	 8.321487366486009e-01	-1.702843203223220e-01
1	 1.423726739313953e+00	 8.649446431769593e-01	-2.663621380402503e-01
1	 1.406252008442408e+00	 8.972411432739574e-01	-3.703543444164484e-01
1	 1.387964167800051e+00	 9.290134265612310e-01	-4.823640109466377e-01
1	 1.368865621549567e+00	 9.602372805191779e-01	-6.025169898101072e-01
1	 1.348960151187484e+00	 9.908891657468134e-01	-7.309616312552025e-01
1	 1.328252921311766e+00	 1.020946289539680e+00	-8.678681288951950e-01
1	 1.306750479675358e+00	 1.050386677326566e+00	-1.013427486748493e+00
1	 1.498640098390529e+00	 7.374893573600056e-01	 6.948662278236462e-02
1	 1.484288921625506e+00	 7.719319266769569e-01	-1.458946685267498e-03
1	 1.469121322908410e+00	 8.059486037750556e-01	-8.008550526188900e-02
1	 1.453134337760516e+00	 8.395130147875444e-01	-1.664479187124011e-01
1	 1.436326313453225e+00	 8.725991557019142e-01	-2.606217488492269e-01
1	 1.418696936214885e+00	 9.051814705809439e-01	-3.627037924059583e-01
1	 1.400247253417037e+00	 9.372349294815117e-01	-4.728123122847691e-01
1	 1.380979690498518e+00	 9.687351056101363e-01	-5.910869388522558e-01
1	 1.360898062421025e+00	 9.996582512488599e-01	-7.176882245367986e-01
1	 1.340007579487740e+00	 1.029981371984304e+00	-8.527968413188403e-01
1	 1.318314847397356e+00	 1.059682298776580e+00	-9.966124176606648e-01
1	 1.511786312650691e+00	 7.439586845287128e-01	 6.901979272238792e-02
1	 1.497309245990293e+00	 7.787033873575906e-01	-2.829996836058446e-04
1	 1.482008595646407e+00	 8.130184620003784e-01	-7.720608970015114e-02
1	 1.465881371135623e+00	 8.468773032362267e-01	-1.618222266527584e-01
1	 1.448925905231452e+00	 8.802536789429295e-01	-2.542239375274795e-01
1	 1.431141881409813e+00	 9.131218090041288e-01	-3.545238771559924e-01
1	 1.412530356229895e+00	 9.454564439116367e-01	-4.628548776067433e-01
1	 1.393093776406722e+00	 9.772329425977901e-01	-5.793696774800861e-01
1	 1.372835990367206e+00	 1.008427349027368e+00	-7.042403173427849e-01
1	 1.351762254119812e+00	 1.039016467077784e+00	-8.376571937615760e-01
1	 1.329879231309057e+00	 1.068977933240202e+00	-9.798277711623131e-01
1	 1.524932542247848e+00	 7.504280192449314e-01	 6.965152634742462e-02
1	 1.510329585545209e+00	 7.854748559381955e-01	 1.855617263727381e-03
1	 1.494895883419309e+00	 8.200883284737793e-01	-7.349753859651607e-02
1	 1.478628419382025e+00	 8.542416002764679e-01	-1.564981147588637e-01
1	 1.461525511708960e+00	 8.879082111140940e-01	-2.472550905865772e-01
1	 1.443586841123604e+00	 9.210621566909006e-01	-3.458964141606079e-01
1	 1.424813473372803e+00	 9.536779679333758e-01	-4.525688719236174e-01
1	 1.405207876447794e+00	 9.857307894994263e-01	-5.674376488199584e-01
1	 1.384773932240742e+00	 1.017196457036321e+00	-6.906855681464552e-01
1	 1.363516942465446e+00	 1.048051572712035e+00	-8.225120064244213e-01
1	 1.341443628712318e+00	 1.078273578548551e+00	-9.631314851675118e-01
1	 1.538078784114736e+00	 7.568973599993275e-01	 7.128163229888931e-02
1	 1.523349937252375e+00	 7.922463308389349e-01	 4.860755092686211e-03
1	 1.507783183220298e+00	 8.271582015457860e-01	-6.905185710159029e-02
1	 1.491375479525636e+00	 8.616059041900879e-01	-1.505633478662280e-01
1	 1.474125129946076e+00	 8.955627504294971e-01	-2.397986420456471e-01
1	 1.456031812452673e+00	 9.290025117886478e-01	-3.369004226828469e-01
1	 1.437096601979941e+00	 9.618994996285009e-01	-4.420288229958818e-01
1	 1.417321987795348e+00	 9.942286443323317e-01	-5.553608201711313e-01
1	 1.396711885256342e+00	 1.025965573229707e+00	-6.770893231647339e-01
1	 1.375271641782104e+00	 1.057086686778972e+00	-8.074219526566502e-01
1	 1.353008036908993e+00	 1.087569232532751e+00	-9.465795176480155e-01
1	 1.551225035184080e+00	 7.633667052825658e-01	 7.381331455942888e-02
1	 1.536370298073917e+00	 7.990178104799711e-01	 8.639523071825897e-03
1	 1.520670492042556e+00	 8.342280795669296e-01	-6.395793248917958e-02
1	 1.504122548592373e+00	 8.689702132589067e-01	-1.441027166598311e-01
1	 1.486724757003127e+00	 9.032172951032263e-01	-2.319351985700174e-01
1	 1.468476792493434e+00	 9.369428724447580e-01	-3.276122442765975e-01
1	 1.449379739185485e+00	 9.701210370787814e-01	-4.313067331233811e-01
1	 1.429436107622995e+00	 1.002726505113793e+00	-5.432067879601311e-01
1	 1.408649846628719e+00	 1.034734695561511e+00	-6.635147143860496e-01
1	 1.387026349327250e+00	 1.066121807170510e+00	-7.924456499793163e-01
1	 1.364572453200936e+00	 1.096864893023922e+00	-9.302259305884280e-01
1	 1.564371292388615e+00	 7.698360535853119e-01	 7.715302977180946e-02
1	 1.549390664971957e+00	 8.057892932814672e-01	 1.310215187386969e-02
1	 1.533557806879267e+00	 8.412979608877380e-01	-5.830166518729747e-02
1	 1.516869623608153e+00	 8.763345257647448e-01	-1.371981626703745e-01
1	 1.499324389940438e+00	 9.108718433493710e-01	-2.237426583037836e-01
1	 1.480921778342302e+00	 9.448832368066197e-01	-3.181056553358578e-01
1	 1.461662882123616e+00	 9.783425783659890e-01	-4.204721853018147e-01
1	 1.441550233104349e+00	 1.011224369861097e+00	-5.310408774062488e-01
1	 1.420587813572585e+00	 1.043503821985717e+00	-6.500227526582789e-01
1	 1.398781062358348e+00	 1.075156931778564e+00	-7.776397465218184e-01
1	 1.376136874890005e+00	 1.106160557853187e+00	-9.141229697107293e-01
1	 1.577517552661069e+00	 7.763054033982315e-01	 8.121035168799057e-02
1	 1.562411034908616e+00	 8.125607776635853e-01	 1.816186349000833e-02
1	 1.546445124723613e+00	 8.483678438587413e-01	-5.216609326116914e-02
1	 1.529616701598890e+00	 8.836988399894217e-01	-1.299288970241026e-01
1	 1.511924025818336e+00	 9.185263933820198e-01	-2.152963237639176e-01
1	 1.493366767095691e+00	 9.528236030216212e-01	-3.084519740195201e-01
1	 1.473946027928508e+00	 9.865641215718935e-01	-4.095924440743267e-01
1	 1.453664361413024e+00	 1.019722236591529e+00	-5.189262372064337e-01
1	 1.432525783302651e+00	 1.052272950456313e+00	-6.366724161248649e-01
1	 1.410535778132862e+00	 1.084192058495051e+00	-7.630590031389854e-01
1	 1.387701299278052e+00	 1.115456224851666e+00	-8.983211402146335e-01
1	 1.272057500629041e+00	 1.022499912746946e+00	-1.063444260066694e+00
1	 1.250359540147344e+00	 1.050537798776298e+00	-1.225450555858963e+00
1	 1.227904219449511e+00	 1.077935209275797e+00	-1.399808269375507e+00
1	 1.204701875859538e+00	 1.104673546853691e+00	-1.586126449609495e+00
1	 1.180764136830705e+00	 1.130735259195432e+00	-1.783944235823365e+00
1	 1.156103891891588e+00	 1.156103891891588e+00	-1.992733275383525e+00
1	 1.130735259195432e+00	 1.180764136830706e+00	-2.211900897589528e+00
1	 1.104673546853691e+00	 1.204701875859538e+00	-2.440794003377644e+00
1	 1.077935209275797e+00	 1.227904219449511e+00	-2.678703617242505e+00
1	 1.050537798776297e+00	 1.250359540147344e+00	-2.924870035391064e+00
1	 1.022499912746946e+00	 1.272057500629041e+00	-3.178488493373673e+00
1	 1.283621803593056e+00	 1.031795482142871e+00	-1.046906705845065e+00
1	 1.261726586471149e+00	 1.060088261216182e+00	-1.206789764632568e+00
1	 1.239067123954619e+00	 1.087734742182361e+00	-1.378860451298999e+00
1	 1.215653847344298e+00	 1.114716158580364e+00	-1.562762890399144e+00
1	 1.191498489798890e+00	 1.141014798527169e+00	-1.758072645914001e+00
1	 1.166614058025953e+00	 1.166614058025953e+00	-1.964298867501240e+00
1	 1.141014798527169e+00	 1.191498489798890e+00	-2.180887178430299e+00
1	 1.114716158580364e+00	 1.215653847344298e+00	-2.407223269147173e+00
1	 1.087734742182360e+00	 1.239067123954620e+00	-2.642637147092997e+00
1	 1.060088261216181e+00	 1.261726586471148e+00	-2.886407981186171e+00
1	 1.031795482142871e+00	 1.283621803593056e+00	-3.137769468620837e+00
1	 1.295186130841210e+00	 1.041091071059036e+00	-1.030212972119185e+00
1	 1.273093656664901e+00	 1.069638743711571e+00	-1.188085076786098e+00
1	 1.250230051901031e+00	 1.097534295667453e+00	-1.357983387768842e+00
1	 1.226605841827457e+00	 1.124758791395993e+00	-1.539585621816361e+00
1	 1.202232865308533e+00	 1.151294359445364e+00	-1.732502237212587e+00
1	 1.177124246231041e+00	 1.177124246231041e+00	-1.936278320197685e+00
1	 1.151294359445364e+00	 1.202232865308534e+00	-2.150396199288958e+00
1	 1.124758791395993e+00	 1.226605841827457e+00	-2.374278755336394e+00
1	 1.097534295667452e+00	 1.250230051901031e+00	-2.607293382034265e+00
1	 1.069638743711570e+00	 1.273093656664901e+00	-2.848756539507220e+00
1	 1.041091071059036e+00	 1.295186130841210e+00	-3.097938832846305e+00
1	 1.306750479675358e+00	 1.050386677326566e+00	-1.013427486748493e+00
1	 1.284460748076471e+00	 1.079189244034114e+00	-1.169395365259643e+00
1	 1.261393000684236e+00	 1.107333867444610e+00	-1.337230205473871e+00
1	 1.237557856753712e+00	 1.134801442957407e+00	-1.516641861409093e+00
1	 1.212967260855094e+00	 1.161573939551575e+00	-1.707274184957457e+00
1	 1.187634454054607e+00	 1.187634454054607e+00	-1.908706664025987e+00
1	 1.161573939551575e+00	 1.212967260855095e+00	-2.120456775303931e+00
1	 1.134801442957407e+00	 1.237557856753713e+00	-2.341983023209297e+00
1	 1.107333867444610e+00	 1.261393000684237e+00	-2.572688623653238e+00
1	 1.079189244034114e+00	 1.284460748076472e+00	-2.811925779266764e+00
1	 1.050386677326566e+00	 1.306750479675358e+00	-3.059000482004533e+00
1	 1.318314847397356e+00	 1.059682298776580e+00	-9.966124176606648e-01
1	 1.295827858053730e+00	 1.088739759955460e+00	-1.150777437948326e+00
1	 1.272555967699726e+00	 1.117133455227372e+00	-1.316652167654206e+00
1	 1.248509889567757e+00	 1.144844110921433e+00	-1.493977170583975e+00
1	 1.223701673934031e+00	 1.171853536447356e+00	-1.682428220220896e+00
1	 1.198144679044406e+00	 1.198144679044407e+00	-1.881617700935526e+00
1	 1.171853536447356e+00	 1.223701673934032e+00	-2.091096711048483e+00
1	 1.144844110921433e+00	 1.248509889567758e+00	-2.310357842846788e+00
1	 1.117133455227372e+00	 1.272555967699726e+00	-2.538838601933319e+00
1	 1.088739759955460e+00	 1.295827858053730e+00	-2.775925416399272e+00
1	 1.059682298776580e+00	 1.318314847397355e+00	-3.020958175595104e+00
1	 1.329879231309057e+00	 1.068977933240202e+00	-9.798277711623131e-01
1	 1.307194983944547e+00	 1.098290289247258e+00	-1.132286127544530e+00
1	 1.283718950342991e+00	 1.126933056729275e+00	-1.296298755183265e+00
1	 1.259461937714286e+00	 1.154886792944901e+00	-1.471635526679657e+00
1	 1.234436102040804e+00	 1.182133147734263e+00	-1.658002692770734e+00
1	 1.208654918748195e+00	 1.208654918748196e+00	-1.855044057765606e+00
1	 1.182133147734263e+00	 1.234436102040805e+00	-2.062342844548352e+00
1	 1.154886792944901e+00	 1.259461937714287e+00	-2.279424227629653e+00
1	 1.126933056729275e+00	 1.283718950342991e+00	-2.505758500193488e+00
1	 1.098290289247258e+00	 1.307194983944547e+00	-2.740764829297385e+00
1	 1.068977933240202e+00	 1.329879231309057e+00	-2.983815542686825e+00
1	 1.341443628712318e+00	 1.078273578548551e+00	-9.631314851675118e-01
1	 1.318562123096792e+00	 1.107840829681157e+00	-1.113974376735682e+00
1	 1.294881946009521e+00	 1.136732669663859e+00	-1.276217743458173e+00
1	 1.270413998637995e+00	 1.164929486684639e+00	-1.449659391314341e+00
1	 1.245170542670870e+00	 1.192412771013853e+00	-1.634034630682288e+00
1	 1.219165170713729e+00	 1.219165170713729e+00	-1.829017236973640e+00
1	 1.192412771013853e+00	 1.245170542670870e+00	-2.034221089023960e+00
1	 1.164929486684638e+00	 1.270413998637995e+00	-2.249202466938951e+00
1	 1.136732669663859e+00	 1.294881946009521e+00	-2.473462978738209e+00
1	 1.107840829681157e+00	 1.318562123096793e+00	-2.706453073450119e+00
1	 1.078273578548551e+00	 1.341443628712317e+00	-2.947576087630518e+00
1	 1.353008036908993e+00	 1.087569232532751e+00	-9.465795176480155e-01
1	 1.329929272858337e+00	 1.117391379028806e+00	-1.095893319035381e+00
1	 1.306044952094807e+00	 1.146532291744662e+00	-1.256455275349345e+00
1	 1.281366069783578e+00	 1.174972189797474e+00	-1.428089775230230e+00
1	 1.255904993319687e+00	 1.202692403887681e+00	-1.610559796895048e+00
1	 1.229675432488762e+00	 1.229675432488763e+00	-1.803567664763491e+00
1	 1.202692403887681e+00	 1.255904993319688e+00	-2.006756472493167e+00
1	 1.174972189797473e+00	 1.281366069783578e+00	-2.219712157180248e+00
1	 1.146532291744661e+00	 1.306044952094807e+00	-2.441966197295153e+00
1	 1.117391379028805e+00	 1.329929272858337e+00	-2.672998895330946e+00
1	 1.087569232532751e+00	 1.353008036908992e+00	-2.912243195478863e+00
1	 1.364572453200936e+00	 1.096864893023922e+00	-9.302259305884280e-01
1	 1.341296430577051e+00	 1.126941935061853e+00	-1.078092355506686e+00
1	 1.317207965994339e+00	 1.156331920685220e+00	-1.237055930442643e+00
1	 1.292318148595728e+00	 1.185014899940235e+00	-1.406966299842596e+00
1	 1.266639451482715e+00	 1.212972043957304e+00	-1.587612742895014e+00
1	 1.240185701621051e+00	 1.240185701621051e+00	-1.778724736767830e+00
1	 1.212972043957304e+00	 1.266639451482715e+00	-1.979973175361431e+00
1	 1.185014899940234e+00	 1.292318148595729e+00	-2.190972231231289e+00
1	 1.156331920685220e+00	 1.317207965994339e+00	-2.411281836312634e+00
1	 1.126941935061853e+00	 1.341296430577051e+00	-2.640410745579879e+00
1	 1.096864893023922e+00	 1.364572453200936e+00	-2.877820137130856e+00
1	 1.376136874890005e+00	 1.106160557853187e+00	-9.141229697107293e-01
1	 1.352663593600802e+00	 1.136492495551947e+00	-1.060619227619105e+00
1	 1.328370985103609e+00	 1.166131554199074e+00	-1.218062790792425e+00
1	 1.303270232519143e+00	 1.195057614769750e+00	-1.386327255687195e+00
1	 1.277373914655412e+00	 1.223251688824277e+00	-1.565226859691988e+00
1	 1.250695975658350e+00	 1.250695975658350e+00	-1.754516861428523e+00
1	 1.223251688824276e+00	 1.277373914655412e+00	-1.953894566117630e+00
1	 1.195057614769750e+00	 1.303270232519143e+00	-2.163000986405813e+00
1	 1.166131554199074e+00	 1.328370985103609e+00	-2.381423117183913e+00
1	 1.136492495551947e+00	 1.352663593600803e+00	-2.608696791521505e+00
1	 1.106160557853187e+00	 1.376136874890005e+00	-2.844310074217102e+00
1	 1.387701299278052e+00	 1.115456224851666e+00	-8.983211402146335e-01
1	 1.364030759277465e+00	 1.146043058270738e+00	-1.043520086464749e+00
1	 1.339534006818105e+00	 1.175931189999760e+00	-1.199517503388565e+00
1	 1.314222318998515e+00	 1.205100331942848e+00	-1.366209657946972e+00
1	 1.288108380333235e+00	 1.233531336090155e+00	-1.543434426249305e+00
1	 1.261206252148415e+00	 1.261206252148416e+00	-1.730971501209050e+00
1	 1.233531336090155e+00	 1.288108380333236e+00	-1.928543235246204e+00
1	 1.205100331942847e+00	 1.314222318998515e+00	-2.135816111019729e+00
1	 1.175931189999759e+00	 1.339534006818105e+00	-2.352402821460683e+00
1	 1.146043058270737e+00	 1.364030759277465e+00	-2.577864929057243e+00
1	 1.115456224851666e+00	 1.387701299278052e+00	-2.811716063740855e+00
1	 1.022499912746946e+00	 1.272057500629041e+00	-3.178488493373673e+00
1	 9.938411391797880e-01	 1.292989072945795e+00	-3.440900795658818e+00
1	 9.645820033595817e-01	 1.313146545615596e+00	-3.713023240008916e+00
1	 9.347438964536103e-01	 1.332523544722111e+00	-3.993304842848137e+00
1	 9.043490060417456e-01	 1.351115042782550e+00	-4.280102152447594e+00
1	 8.734202465763062e-01	 1.368917358695529e+00	-4.571693906457270e+00
1	 8.419811877575710e-01	 1.385928152126612e+00	-4.866296205374778e+00
1	 8.100559812720007e-01	 1.402146412454711e+00	-5.162077967851317e+00
1	 7.776692863439484e-01	 1.417572442441804e+00	-5.457176437839443e+00
1	 7.448461945508813e-01	 1.432207836825180e+00	-5.749712522649605e+00
1	 7.116121543469851e-01	 1.446055456065250e+00	-6.037805754477398e+00
1	 1.031795482142871e+00	 1.283621803593056e+00	-3.137769468620837e+00
1	 1.002876171029337e+00	 1.304743665298257e+00	-3.397968082166318e+00
1	 9.733510397561598e-01	 1.325084389999482e+00	-3.667825377613012e+00
1	 9.432416739582011e-01	 1.344637545834978e+00	-3.945830039582672e+00
1	 9.125704629231184e-01	 1.363398059616986e+00	-4.230379107693110e+00
1	 8.813605294190264e-01	 1.381362216779144e+00	-4.519792315593445e+00
1	 8.496356574188763e-01	 1.398527655710974e+00	-4.812326947862989e+00
1	 8.174202181726491e-01	 1.414893356603802e+00	-5.106192985021747e+00
1	 7.847390950822557e-01	 1.430459624972012e+00	-5.399568310725877e+00
1	 7.516176078332562e-01	 1.445228070050684e+00	-5.690613763927381e+00
1	 7.180814362322998e-01	 1.459201578304726e+00	-5.977487831852995e+00
1	 1.041091071059036e+00	 1.295186130841210e+00	-3.097938832846305e+00
1	 1.011911221851995e+00	 1.316498282334426e+00	-3.355993878235921e+00
1	 9.821200945672417e-01	 1.337022259451875e+00	-3.623651590630540e+00
1	 9.517394693076283e-01	 1.356751572386259e+00	-3.899439838151136e+00
1	 9.207919370690233e-01	 1.375681102244761e+00	-4.181795802436722e+00
1	 8.893008289357806e-01	 1.393807100995965e+00	-4.469079997320097e+00
1	 8.572901431539762e-01	 1.411127185753312e+00	-4.759590805749649e+00
1	 8.247844705375753e-01	 1.427640327520522e+00	-5.051579309666825e+00
1	 7.918089186665234e-01	 1.443346834564396e+00	-5.343264191115832e+00
1	 7.583890353349521e-01	 1.458248330617824e+00	-5.632846491229668e+00
1	 7.245507317024646e-01	 1.472347728150277e+00	-5.918524026406654e+00
1	 1.050386677326566e+00	 1.306750479675358e+00	-3.059000482004533e+00
1	 1.020946289539679e+00	 1.328252921311766e+00	-3.314976144327286e+00
1	 9.908891657468131e-01	 1.348960151187485e+00	-3.580494301642253e+00
1	 9.602372805191773e-01	 1.368865621549567e+00	-3.854121525232359e+00
1	 9.290134265612304e-01	 1.387964167800052e+00	-4.134334791468900e+00
1	 8.972411432739568e-01	 1.406252008442408e+00	-4.419535178296197e+00
1	 8.649446431769587e-01	 1.423726739313954e+00	-4.708062078822872e+00
1	 8.321487366486005e-01	 1.440387322230788e+00	-4.998207711302644e+00
1	 7.988787554472800e-01	 1.456234068212134e+00	-5.288231708118189e+00
1	 7.651604754761312e-01	 1.471268615488724e+00	-5.576375574427650e+00
1	 7.310200392481446e-01	 1.485493902534635e+00	-5.860876819409487e+00
1	 1.059682298776580e+00	 1.318314847397355e+00	-3.020958175595104e+00
1	 1.029981371984303e+00	 1.340007579487740e+00	-3.274912912627628e+00
1	 9.996582512488599e-01	 1.360898062421025e+00	-3.538346199177879e+00
1	 9.687351056101354e-01	 1.380979690498518e+00	-3.809862833562022e+00
1	 9.372349294815112e-01	 1.400247253417037e+00	-4.087979241560957e+00
1	 9.051814705809433e-01	 1.418696936214885e+00	-4.371136848911976e+00
1	 8.725991557019135e-01	 1.436326313453225e+00	-4.657715968267604e+00
1	 8.395130147875441e-01	 1.453134337760517e+00	-4.946049984587855e+00
1	 8.059486037750551e-01	 1.469121322908410e+00	-5.234439626048538e+00
1	 7.719319266769559e-01	 1.484288921625506e+00	-5.521167115288337e+00
1	 7.374893573600056e-01	 1.498640098390529e+00	-5.804510007713926e+00
1	 1.068977933240202e+00	 1.329879231309057e+00	-2.983815542686825e+00
1	 1.039016467077783e+00	 1.351762254119812e+00	-3.235802284025934e+00
1	 1.008427349027367e+00	 1.372835990367206e+00	-3.497200226246546e+00
1	 9.772329425977898e-01	 1.393093776406722e+00	-3.766651922632516e+00
1	 9.454564439116363e-01	 1.412530356229895e+00	-4.042712904950411e+00
1	 9.131218090041283e-01	 1.431141881409813e+00	-4.323864730175395e+00
1	 8.802536789429289e-01	 1.448925905231452e+00	-4.608528537565064e+00
1	 8.468773032362263e-01	 1.465881371135624e+00	-4.895078904841032e+00
1	 8.130184620003781e-01	 1.482008595646407e+00	-5.181857795158467e+00
1	 7.787033873575901e-01	 1.497309245990293e+00	-5.467188393997036e+00
1	 7.439586845287128e-01	 1.511786312650691e+00	-5.749388646634459e+00
1	 1.078273578548551e+00	 1.341443628712317e+00	-2.947576087630518e+00
1	 1.048051572712034e+00	 1.363516942465446e+00	-3.197642425243282e+00
1	 1.017196457036321e+00	 1.384773932240742e+00	-3.457049569459947e+00
1	 9.857307894994257e-01	 1.405207876447794e+00	-3.724477360390376e+00
1	 9.536779679333754e-01	 1.424813473372804e+00	-3.998520094197022e+00
1	 9.210621566909001e-01	 1.443586841123604e+00	-4.277699242310349e+00
1	 8.879082111140938e-01	 1.461525511708960e+00	-4.560476675413489e+00
1	 8.542416002764672e-01	 1.478628419382025e+00	-4.845268185857241e+00
1	 8.200883284737788e-01	 1.494895883419310e+00	-5.130457104911808e+00
1	 7.854748559381950e-01	 1.510329585545209e+00	-5.414407818444311e+00
1	 7.504280192449314e-01	 1.524932542247848e+00	-5.695478995781149e+00
1	 1.087569232532751e+00	 1.353008036908992e+00	-2.912243195478863e+00
1	 1.057086686778971e+00	 1.375271641782104e+00	-3.160431566110432e+00
1	 1.025965573229707e+00	 1.396711885256342e+00	-3.417887648713316e+00
1	 9.942286443323313e-01	 1.417321987795348e+00	-3.683328105871843e+00
1	 9.618994996285004e-01	 1.437096601979941e+00	-3.955385658327268e+00
1	 9.290025117886472e-01	 1.456031812452673e+00	-4.232621474964401e+00
1	 8.955627504294964e-01	 1.474125129946077e+00	-4.513538060549442e+00
1	 8.616059041900874e-01	 1.491375479525636e+00	-4.796592439886907e+00
1	 8.271582015457856e-01	 1.507783183220298e+00	-5.080209439655967e+00
1	 7.922463308389345e-01	 1.523349937252376e+00	-5.362794876112382e+00
1	 7.568973599993274e-01	 1.538078784114736e+00	-5.642748467669341e+00
1	 1.096864893023922e+00	 1.364572453200936e+00	-2.877820137130856e+00
1	 1.066121807170509e+00	 1.387026349327251e+00	-3.124167996983736e+00
1	 1.034734695561510e+00	 1.408649846628719e+00	-3.379708107390446e+00
1	 1.002726505113793e+00	 1.429436107622995e+00	-3.643193492720965e+00
1	 9.701210370787809e-01	 1.449379739185485e+00	-3.913294960191545e+00
1	 9.369428724447576e-01	 1.468476792493435e+00	-4.188613158930658e+00
1	 9.032172951032259e-01	 1.486724757003127e+00	-4.467691128356755e+00
1	 8.689702132589063e-01	 1.504122548592373e+00	-4.749027139648500e+00
1	 8.342280795669288e-01	 1.520670492042557e+00	-5.031087636545602e+00
1	 7.990178104799709e-01	 1.536370298073918e+00	-5.312320088406368e+00
1	 7.633667052825658e-01	 1.551225035184081e+00	-5.591165578941034e+00
1	 1.106160557853187e+00	 1.376136874890005e+00	-2.844310074217102e+00
1	 1.075156931778564e+00	 1.398781062358349e+00	-3.088850066291223e+00
1	 1.043503821985717e+00	 1.420587813572585e+00	-3.342504803062588e+00
1	 1.011224369861096e+00	 1.441550233104349e+00	-3.604063213538091e+00
1	 9.783425783659885e-01	 1.461662882123616e+00	-3.872233854962032e+00
1	 9.448832368066190e-01	 1.480921778342302e+00	-4.145656639294287e+00
1	 9.108718433493705e-01	 1.499324389940438e+00	-4.422915039158244e+00
1	 8.763345257647444e-01	 1.516869623608153e+00	-4.702548582255360e+00
1	 8.412979608877375e-01	 1.533557806879267e+00	-4.983065445586979e+00
1	 8.057892932814669e-01	 1.549390664971957e+00	-5.262954967287099e+00
1	 7.698360535853118e-01	 1.564371292388615e+00	-5.540699904044272e+00
1	 1.115456224851666e+00	 1.387701299278052e+00	-2.811716063740855e+00
1	 1.084192058495050e+00	 1.410535778132863e+00	-3.054476178201382e+00
1	 1.052272950456312e+00	 1.432525783302652e+00	-3.306271798651975e+00
1	 1.019722236591529e+00	 1.453664361413024e+00	-3.565927305010697e+00
1	 9.865641215718933e-01	 1.473946027928509e+00	-3.832188669705393e+00
1	 9.528236030216204e-01	 1.493366767095692e+00	-4.103734849921437e+00
1	 9.185263933820192e-01	 1.511924025818336e+00	-4.379189648091810e+00
1	 8.836988399894211e-01	 1.529616701598891e+00	-4.657133854945430e+00
1	 8.483678438587410e-01	 1.546445124723613e+00	-4.936117491678790e+00
1	 8.125607776635847e-01	 1.562411034908617e+00	-5.214671974070958e+00
1	 7.763054033982313e-01	 1.577517552661069e+00	-5.491322031227430e+00
1	 7.116121543469851e-01	 1.446055456065250e+00	-6.037805754477398e+00
1	 6.779952603986081e-01	 1.459118509875090e+00	-6.321999370675605e+00
1	 6.440191242799743e-01	 1.471403296560924e+00	-6.602861992278180e+00
1	 6.097098014158014e-01	 1.482916279286323e+00	-6.878509239087559e+00
1	 5.750934079577478e-01	 1.493665038647719e+00	-7.147080948922715e+00
1	 5.401960501077742e-01	 1.503658226640188e+00	-7.406753609022888e+00
1	 5.050437554940973e-01	 1.512905517695068e+00	-7.655751766021751e+00
1	 4.696624069080371e-01	 1.521417557158576e+00	-7.892358332887266e+00
1	 4.340776786805963e-01	 1.529205907584642e+00	-8.114923735261071e+00
1	 3.983149759469042e-01	 1.536282993215550e+00	-8.321873862691664e+00
1	 3.623993770150853e-01	 1.542662043020896e+00	-8.511716811873145e+00
1	 7.180814362322998e-01	 1.459201578304726e+00	-5.977487831852995e+00
1	 6.841589303549738e-01	 1.472383388626782e+00	-6.260728257159196e+00
1	 6.498739164288544e-01	 1.484779856581117e+00	-6.540860469667639e+00
1	 6.152526867491104e-01	 1.496397504088063e+00	-6.815979706049003e+00
1	 5.803215948899217e-01	 1.507243980659427e+00	-7.084202877615317e+00
1	 5.451069843853170e-01	 1.517328016945761e+00	-7.343681383163152e+00
1	 5.096351194812663e-01	 1.526659375328873e+00	-7.592612899176202e+00
1	 4.739321182701249e-01	 1.535248797932060e+00	-7.829252060524141e+00
1	 4.380238884888158e-01	 1.543107952424687e+00	-8.051919969377579e+00
1	 4.019360662311215e-01	 1.550249375998100e+00	-8.259012493711154e+00
1	 3.656939577926278e-01	 1.556686417886749e+00	-8.449007339002518e+00
1	 7.245507317024646e-01	 1.472347728150277e+00	-5.918524026406653e+00
1	 6.903226132544259e-01	 1.485648295234026e+00	-6.200823887303099e+00
1	 6.557287208722129e-01	 1.498156444691492e+00	-6.480224253135002e+00
1	 6.207955837219395e-01	 1.509878757199893e+00	-6.754802073109433e+00
1	 5.855497928008034e-01	 1.520822951186545e+00	-7.022653424535962e+00
1	 5.500179289753964e-01	 1.530997835957644e+00	-7.281906692949286e+00
1	 5.142264931099344e-01	 1.540413261845647e+00	-7.530734729441466e+00
1	 4.782018385983018e-01	 1.549080067751132e+00	-7.767365893176092e+00
1	 4.419701065838273e-01	 1.557010026459114e+00	-7.990093912159191e+00
1	 4.055571641194289e-01	 1.564215788110238e+00	-8.197286519557622e+00
1	 3.689885454886305e-01	 1.570710822204060e+00	-8.387392845690044e+00
1	 7.310200392481446e-01	 1.485493902534635e+00	-5.860876819409486e+00
1	 6.964863076589421e-01	 1.498913226601821e+00	-6.142246678127375e+00
1	 6.615835362440979e-01	 1.511533057770965e+00	-6.420911948599139e+00
1	 6.263384910411126e-01	 1.523360035476277e+00	-6.694933339448332e+00
1	 5.907780004706401e-01	 1.534401947060710e+00	-6.962388137864078e+00
1	 5.549288827322761e-01	 1.544667680486245e+00	-7.221383743131534e+00
1	 5.188178753089218e-01	 1.554167174036154e+00	-7.470070178260928e+00
1	 4.824715668964258e-01	 1.562911363388469e+00	-7.706651482617195e+00
1	 4.459163320449566e-01	 1.570912126444055e+00	-7.929395914045206e+00
1	 4.091782687669960e-01	 1.578182226293059e+00	-8.136644913743433e+00
1	 3.722831393344285e-01	 1.584735252700366e+00	-8.326820810544865e+00
1	 7.374893573600056e-01	 1.498640098390529e+00	-5.804510007713926e+00
1	 7.026500121304988e-01	 1.512178179635163e+00	-6.084958434541496e+00
1	 6.674383611785580e-01	 1.524909692698449e+00	-6.362883613298313e+00
1	 6.318814074134532e-01	 1.536841335771679e+00	-6.636332011828372e+00
1	 5.960062166796790e-01	 1.547980965113555e+00	-6.903364124166620e+00
1	 5.598398445102205e-01	 1.558337547341970e+00	-7.162068343882522e+00
1	 5.234092650070477e-01	 1.567921108691153e+00	-7.410573817430896e+00
1	 4.867413021683554e-01	 1.576742681616749e+00	-7.647062175431599e+00
1	 4.498625639515298e-01	 1.584814249135637e+00	-7.869778065858748e+00
1	 4.127993793289922e-01	 1.592148687287655e+00	-8.077038438395405e+00
1	 3.755777385613569e-01	 1.598759706103210e+00	-8.267240553165809e+00
1	 7.439586845287128e-01	 1.511786312650691e+00	-5.749388646634459e+00
1	 7.088137252310740e-01	 1.525443151239054e+00	-6.028922289077645e+00
1	 6.732931943096422e-01	 1.538286346352859e+00	-6.306100692761220e+00
1	 6.374243315457838e-01	 1.550322654940563e+00	-6.578958039115824e+00
1	 6.012344402081665e-01	 1.561560002176714e+00	-6.845539980704654e+00
1	 5.647508131634932e-01	 1.572007433335227e+00	-7.103917841053971e+00
1	 5.280006611331313e-01	 1.581675062601407e+00	-7.352201797398902e+00
1	 4.910110434179485e-01	 1.590574019208646e+00	-7.588552939374089e+00
1	 4.538088013828737e-01	 1.598716391289989e+00	-7.811194123180341e+00
1	 4.164204949605870e-01	 1.606115167835117e+00	-8.018419566527111e+00
1	 3.788723424007510e-01	 1.612784179140129e+00	-8.208603154131875e+00
1	 7.504280192449314e-01	 1.524932542247848e+00	-5.695478995781149e+00
1	 7.149774455226450e-01	 1.538708138318490e+00	-5.974102644739231e+00
1	 6.791480342713977e-01	 1.551663015613107e+00	-6.250525961036655e+00
1	 6.429672621449286e-01	 1.563803989837395e+00	-6.522772750186077e+00
1	 6.064626698363502e-01	 1.575139055081823e+00	-6.788875731239656e+00
1	 5.696617875463584e-01	 1.585677335276421e+00	-7.046891050039026e+00
1	 5.325920626159921e-01	 1.595429032557675e+00	-7.294911779268535e+00
1	 4.952807896490634e-01	 1.604405372936839e+00	-7.531080293536828e+00
1	 4.577550434183135e-01	 1.612618549663240e+00	-7.753599434631537e+00
1	 4.200416148169501e-01	 1.620081664676538e+00	-7.960742408328984e+00
1	 3.821669500839457e-01	 1.626808668538665e+00	-8.150861379128740e+00
1	 7.568973599993274e-01	 1.538078784114736e+00	-5.642748467669342e+00
1	 7.211411715671887e-01	 1.551973137778469e+00	-5.920465120778937e+00
1	 6.850028796978735e-01	 1.565039697358109e+00	-6.196123463986223e+00
1	 6.485101979177100e-01	 1.577285337316637e+00	-6.467738795011388e+00
1	 6.116909043444768e-01	 1.588718120660515e+00	-6.733332765129777e+00
1	 5.745727665130806e-01	 1.599347249975960e+00	-6.990948193024125e+00
1	 5.371834683844495e-01	 1.609183015350720e+00	-7.238662870289334e+00
1	 4.995505398655584e-01	 1.618236739574002e+00	-7.474602242096109e+00
1	 4.617012891371763e-01	 1.626520721011518e+00	-7.696950873834004e+00
1	 4.236627380532507e-01	 1.634048174553011e+00	-7.903962641236606e+00
1	 3.854615608422766e-01	 1.640833171026356e+00	-8.093969606963974e+00
1	 7.633667052825658e-01	 1.551225035184081e+00	-5.591165578941034e+00
1	 7.273049019266828e-01	 1.565238146523991e+00	-5.867976501231920e+00
1	 6.908577292231181e-01	 1.578416388466777e+00	-6.142858465459231e+00
1	 6.540531375709528e-01	 1.590766694232754e+00	-6.413820088742876e+00
1	 6.169191425127937e-01	 1.602297195744425e+00	-6.678873779521205e+00
1	 5.794837489179234e-01	 1.613017174244251e+00	-6.936050839429847e+00
1	 5.417748773673230e-01	 1.622937007771304e+00	-7.183415562624965e+00
1	 5.038202930712917e-01	 1.632068115892814e+00	-7.419078211425203e+00
1	 4.656475376187880e-01	 1.640422902090953e+00	-7.641206774826399e+00
1	 4.272838638246586e-01	 1.648014694205628e+00	-7.848037443552738e+00
1	 3.887561739070783e-01	 1.654857683330742e+00	-8.037883761240719e+00
1	 7.698360535853118e-01	 1.564371292388615e+00	-5.540699904044272e+00
1	 7.334686351631050e-01	 1.578503161460053e+00	-5.816604686043033e+00
1	 6.967125814811799e-01	 1.591793085818026e+00	-6.090697396179800e+00
1	 6.595960798114791e-01	 1.604248057440212e+00	-6.360981758610082e+00
1	 6.221473831215476e-01	 1.615876277165188e+00	-6.625462724452898e+00
1	 5.843947336151513e-01	 1.626687104891698e+00	-6.882161849353005e+00
1	 5.463662884934321e-01	 1.636691006610186e+00	-7.129131675207260e+00
1	 5.080900482701216e-01	 1.645899498665951e+00	-7.364468990377022e+00
1	 4.695937879424745e-01	 1.654325089657673e+00	-7.586326870735951e+00
1	 4.309049912863432e-01	 1.661981220375480e+00	-7.792925431414314e+00
1	 3.920507885096861e-01	 1.668882202179363e+00	-7.982561245474275e+00
1	 7.763054033982313e-01	 1.577517552661069e+00	-5.491322031227429e+00
1	 7.396323698384324e-01	 1.591768179491655e+00	-5.766318644635895e+00
1	 7.025674351061071e-01	 1.605169786290770e+00	-6.039607805188180e+00
1	 6.651390233461130e-01	 1.617729423793473e+00	-6.309190093474429e+00
1	 6.273756249509856e-01	 1.629455361754438e+00	-6.573064750704139e+00
1	 5.893057194590278e-01	 1.640357038728711e+00	-6.829245319835206e+00
1	 5.509577006915954e-01	 1.650445008658129e+00	-7.075774298495738e+00
1	 5.123598044659060e-01	 1.659730884666089e+00	-7.310736673550504e+00
1	 4.735400391875621e-01	 1.668227280467808e+00	-7.532272235514495e+00
1	 4.345261195934739e-01	 1.675947749803660e+00	-7.738586598909467e+00
1	 3.953454038814352e-01	 1.682906724299760e+00	-7.927960881451160e+00
1	 3.623993770150853e-01	 1.542662043020896e+00	-8.511716811873145e+00
1	 3.263530585742443e-01	 1.548357407728751e+00	-8.684457220432465e+00
1	 2.902028324592135e-01	 1.553383283288272e+00	-8.840704955566153e+00
1	 2.539725263249901e-01	 1.557754965574446e+00	-8.980047221779516e+00
1	 2.176854422294076e-01	 1.561488320293919e+00	-9.102158340187493e+00
1	 1.813643166387074e-01	 1.564599723976281e+00	-9.206794703801737e+00
1	 1.450312841900338e-01	 1.567106005523594e+00	-9.293789464046444e+00
1	 1.087078452135093e-01	 1.569024388591723e+00	-9.363047033113947e+00
1	 7.241483699079308e-02	 1.570372435055877e+00	-9.414537480057589e+00
1	 3.617240870313355e-02	 1.571167989790866e+00	-9.448290891278553e+00
1	 0.000000000000000e+00	 1.571429126974074e+00	-9.464391758511923e+00
1	 3.656939577926278e-01	 1.556686417886749e+00	-8.449007339002518e+00
1	 3.293199414712120e-01	 1.562433559281498e+00	-8.621954102456879e+00
1	 2.928410728486677e-01	 1.567505125187194e+00	-8.778500749491517e+00
1	 2.562813961977030e-01	 1.571916550533969e+00	-8.918193686369699e+00
1	 2.196644254156484e-01	 1.575683845263964e+00	-9.040666611786117e+00
1	 1.830131036664362e-01	 1.578823534786167e+00	-9.145635760128618e+00
1	 1.463497668136618e-01	 1.581352600994570e+00	-9.232894847207922e+00
1	 1.096961106473998e-01	 1.583288424125677e+00	-9.302309802646219e+00
1	 7.307316188147454e-02	 1.584648725710099e+00	-9.353813366873762e+00
1	 3.650125287376429e-02	 1.585451512850806e+00	-9.387399623851127e+00
1	 0.000000000000000e+00	 1.585715024037928e+00	-9.403118533440965e+00
1	 3.689885454886305e-01	 1.570710822204060e+00	-8.387392845690044e+00
1	 3.322868305985031e-01	 1.576509740394501e+00	-8.560506124464899e+00
1	 2.954793187783156e-01	 1.581626996742376e+00	-8.717308804846583e+00
1	 2.585902709189448e-01	 1.586078165233253e+00	-8.857304886471844e+00
1	 2.216434127576642e-01	 1.589879400045076e+00	-8.980085946659239e+00
1	 1.846618941565348e-01	 1.593047375466543e+00	-9.085326675904206e+00
1	 1.476682522060273e-01	 1.595599226383897e+00	-9.172780085549789e+00
1	 1.106843781565813e-01	 1.597552489614615e+00	-9.242272471511564e+00
1	 7.373148815458633e-02	 1.598925046345047e+00	-9.293698212171838e+00
1	 3.683009773493729e-02	 1.599735065906658e+00	-9.327014472146471e+00
1	 0.000000000000000e+00	 1.600000951102682e+00	-9.342235876790118e+00
1	 3.722831393344285e-01	 1.584735252700366e+00	-8.326820810544865e+00
1	 3.352537252638942e-01	 1.590585947783202e+00	-8.500059364930172e+00
1	 2.981175696325952e-01	 1.595748894658584e+00	-8.657074162942735e+00
1	 2.608991499499848e-01	 1.600239806367783e+00	-8.797325228613518e+00
1	 2.236224037936799e-01	 1.604074981324811e+00	-8.920360555252230e+00
1	 1.863106877242587e-01	 1.607271242698359e+00	-9.025811937464963e+00
1	 1.489867400594469e-01	 1.609845878367206e+00	-9.113390443548397e+00
1	 1.116726475104179e-01	 1.611816581730097e+00	-9.182881611929268e+00
1	 7.438981565648303e-02	 1.613201393629416e+00	-9.234140450043622e+00
1	 3.715894320989912e-02	 1.614018645625435e+00	-9.267086308063904e+00
1	 0.000000000000000e+00	 1.614286904834791e+00	-9.281697693407367e+00
1	 3.755777385613569e-01	 1.598759706103210e+00	-8.267240553165809e+00
1	 3.382206247751618e-01	 1.604662178163041e+00	-8.440561792370730e+00
1	 3.007558247959438e-01	 1.609870815640586e+00	-8.597743791455809e+00
1	 2.632080327520928e-01	 1.614401470633040e+00	-8.738201067886065e+00
1	 2.256013980619198e-01	 1.618270585790723e+00	-8.861436603373566e+00
1	 1.879594839848633e-01	 1.621495133162564e+00	-8.967037976738638e+00
1	 1.503052300662377e-01	 1.624092553620127e+00	-9.054673103862369e+00
1	 1.126609184782738e-01	 1.626080697143680e+00	-9.124085668291769e+00
1	 7.504814423351923e-02	 1.627477764231905e+00	-9.175090321280406e+00
1	 3.748778922189638e-02	 1.628302248674145e+00	-9.207567724496565e+00
1	 0.000000000000000e+00	 1.628572881900711e+00	-9.221459502519545e+00
1	 3.788723424007510e-01	 1.612784179140129e+00	-8.208603154131875e+00
1	 3.411875284400819e-01	 1.618738428249461e+00	-8.381963183202144e+00
1	 3.033940836527992e-01	 1.623992756393148e+00	-8.539266500696206e+00
1	 2.655169187865384e-01	 1.628563154724507e+00	-8.679880623244664e+00
1	 2.275803951006083e-01	 1.632466210130370e+00	-8.803262127194625e+00
1	 1.896082825536040e-01	 1.635719043540108e+00	-8.908953086663736e+00
1	 1.516237219187161e-01	 1.638339248818289e+00	-8.996577083938428e+00
1	 1.136491908295131e-01	 1.640344832526921e+00	-9.065834875764411e+00
1	 7.570647373204954e-02	 1.641754154821212e+00	-9.116499794812714e+00
1	 3.781663569417570e-02	 1.642585871719799e+00	-9.148412960489361e+00
1	 0.000000000000000e+00	 1.642858878966899e+00	-9.161478367516995e+00
1	 3.821669500839457e-01	 1.626808668538665e+00	-8.150861379128740e+00
1	 3.441544355664312e-01	 1.632814694757902e+00	-8.324215043837420e+00
1	 3.060323455875985e-01	 1.638114713621036e+00	-8.481592864206906e+00
1	 2.678258075145910e-01	 1.642724855337668e+00	-8.622313897187201e+00
1	 2.295593944479702e-01	 1.646661851031305e+00	-8.745786952643380e+00
1	 1.912570830457364e-01	 1.649942970511941e+00	-8.851507340981684e+00
1	 1.529422153091992e-01	 1.652585960637322e+00	-8.939053156928029e+00
1	 1.146374643335000e-01	 1.654608984551381e+00	-9.008081183093243e+00
1	 7.636480399842863e-02	 1.656030562066033e+00	-9.058322493210838e+00
1	 3.814548254998362e-02	 1.656869511429404e+00	-9.089577830266018e+00
1	 0.000000000000000e+00	 1.657144892699808e+00	-9.101712829368171e+00
1	 3.854615608422766e-01	 1.640833171026356e+00	-8.093969606963974e+00
1	 3.471213454619858e-01	 1.646890974403806e+00	-8.267270536779604e+00
1	 3.086706099847795e-01	 1.652236684029017e+00	-8.424675143431461e+00
1	 2.701346983975204e-01	 1.656886569168003e+00	-8.565452599549504e+00
1	 2.315383956422299e-01	 1.660857505181086e+00	-8.688962618930002e+00
1	 1.929058850765158e-01	 1.664166910759013e+00	-8.794652518139511e+00
1	 1.542607099300037e-01	 1.666832685752855e+00	-8.882053776657362e+00
1	 1.156257387595986e-01	 1.668873149888614e+00	-8.950778179369250e+00
1	 7.702313487901102e-02	 1.670306982635067e+00	-9.000513622004007e+00
1	 3.847432971256679e-02	 1.671153164469973e+00	-9.031019655893669e+00
1	 0.000000000000000e+00	 1.671430919765895e+00	-9.042122843446858e+00
1	 3.887561739070783e-01	 1.654857683330742e+00	-8.037883761240719e+00
1	 3.500882574345220e-01	 1.660967263902613e+00	-8.211084410470098e+00
1	 3.113088762287797e-01	 1.666358664321857e+00	-8.368467216210176e+00
1	 2.724435908965959e-01	 1.671048292910997e+00	-8.509250075173862e+00
1	 2.335173982216118e-01	 1.675053169267265e+00	-8.632742305958486e+00
1	 1.945546882611978e-01	 1.678390860962273e+00	-8.738342029060270e+00
1	 1.555792054734463e-01	 1.681079420840518e+00	-8.825533006410559e+00
1	 1.166140138771731e-01	 1.683137325210182e+00	-8.893881024514267e+00
1	 7.768146622015146e-02	 1.684583413197011e+00	-8.943029902591254e+00
1	 3.880317710517176e-02	 1.685436827508512e+00	-8.972697203369464e+00
1	 0.000000000000000e+00	 1.685716956831615e+00	-8.982669719569955e+00
1	 3.920507885096861e-01	 1.668882202179363e+00	-7.982561245474277e+00
1	 3.530551707918164e-01	 1.675043559969767e+00	-8.155612932672309e+00
1	 3.139471437040367e-01	 1.680480651204323e+00	-8.312924508879517e+00
1	 2.747524844730875e-01	 1.685210023262131e+00	-8.453661235221954e+00
1	 2.354964017243407e-01	 1.689248839977401e+00	-8.577080765396015e+00
1	 1.962034922150377e-01	 1.692614817802672e+00	-8.682530848552748e+00
1	 1.568977016318438e-01	 1.695326162575941e+00	-8.769446451301240e+00
1	 1.176022894555876e-01	 1.697401507187642e+00	-8.837346383269928e+00
1	 7.833979786820437e-02	 1.698859850420562e+00	-8.885829508533432e+00
1	 3.913202465104514e-02	 1.699720497212033e+00	-8.914570621927796e+00
1	 0.000000000000000e+00	 1.700003000563425e+00	-8.923316065056671e+00
1	 3.953454038814352e-01	 1.682906724299760e+00	-7.927960881451160e+00
1	 3.560220848416451e-01	 1.689119859320706e+00	-8.100813827184234e+00
1	 3.165854117949879e-01	 1.694602641381182e+00	-8.258003931764947e+00
1	 2.770613785882645e-01	 1.699371756916888e+00	-8.398642491920532e+00
1	 2.374754056886408e-01	 1.703444513999047e+00	-8.521934255187565e+00
1	 1.978522965532911e-01	 1.706838777961158e+00	-8.627175450149396e+00
1	 1.582161980975129e-01	 1.709572907634753e+00	-8.713751194024209e+00
1	 1.185905652642063e-01	 1.711665692492552e+00	-8.781132362485582e+00
1	 7.899812966952448e-02	 1.713136290974417e+00	-8.828872005028447e+00
1	 3.946087227343351e-02	 1.714004170247544e+00	-8.856601386380831e+00
1	 0.000000000000000e+00	 1.714289047627778e+00	-8.864025730633459e+00
1	 1.714289047627778e+00	 0.000000000000000e+00	 6.238494721977339e-01
1	 1.714004170247544e+00	 3.946087227343405e-02	 6.204253403155069e-01
1	 1.713136290974417e+00	 7.899812966952499e-02	 6.150988403619939e-01
1	 1.711665692492551e+00	 1.185905652642067e-01	 6.077898907779749e-01
1	 1.709572907634753e+00	 1.582161980975134e-01	 5.984184931271457e-01
1	 1.706838777961159e+00	 1.978522965532914e-01	 5.869053740199000e-01
1	 1.703444513999047e+00	 2.374754056886410e-01	 5.731726873141343e-01
1	 1.699371756916888e+00	 2.770613785882647e-01	 5.571447746614915e-01
1	 1.694602641381181e+00	 3.165854117949879e-01	 5.387489812771578e-01
1	 1.689119859320706e+00	 3.560220848416451e-01	 5.179165225142547e-01
1	 1.682906724299760e+00	 3.953454038814352e-01	 4.945833954355159e-01
1	 1.728574095521189e+00	 0.000000000000000e+00	 6.138443749450190e-01
1	 1.728286844278154e+00	 3.978969689590382e-02	 6.105497418480510e-01
1	 1.727411733029215e+00	 7.965641542658061e-02	 6.053789230585318e-01
1	 1.725928880155543e+00	 1.195787719521365e-01	 5.982710979812407e-01
1	 1.723818656271432e+00	 1.595346023467900e-01	 5.891656523116426e-01
1	 1.721061743291110e+00	 1.995009855734061e-01	 5.780026950007524e-01
1	 1.717639195170523e+00	 2.394542712406711e-01	 5.647236224558192e-01
1	 1.713532500095309e+00	 2.793701112187154e-01	 5.492717283427949e-01
1	 1.708723643861422e+00	 3.192234953648744e-01	 5.315928564054131e-01
1	 1.703195174170718e+00	 3.589887913849909e-01	 5.116360926805936e-01
1	 1.696930265540624e+00	 3.986397888273382e-01	 4.893544923833700e-01
1	 1.742859145080407e+00	 0.000000000000000e+00	 6.061734320742265e-01
1	 1.742569519974292e+00	 4.011852155654502e-02	 6.030562465404692e-01
1	 1.741687176748694e+00	 8.031470126013213e-02	 5.980619011120578e-01
1	 1.740192069481785e+00	 1.205669787550092e-01	 5.911518596481684e-01
1	 1.738064406569329e+00	 1.608530067495478e-01	 5.822879408212951e-01
1	 1.735284710279628e+00	 2.011496747855981e-01	 5.714326812121584e-01
1	 1.731833877997279e+00	 2.414331370233990e-01	 5.585497297426798e-01
1	 1.727693244925074e+00	 2.816788441184743e-01	 5.436042722175227e-01
1	 1.722844647988404e+00	 3.218615792426328e-01	 5.265634840909706e-01
1	 1.717270490662191e+00	 3.619554982746882e-01	 5.073970088658006e-01
1	 1.710953808416969e+00	 4.019341741579514e-01	 4.860774587729832e-01
1	 1.757144197972236e+00	 0.000000000000000e+00	 6.007091254073869e-01
1	 1.756852199002485e+00	 4.044734629376737e-02	 5.978257588447512e-01
1	 1.755962623798535e+00	 8.097298724705353e-02	 5.930365393891928e-01
1	 1.754455262135521e+00	 1.215551857881995e-01	 5.863281423796329e-01
1	 1.752310160190644e+00	 1.621714114596792e-01	 5.776877702065355e-01
1	 1.749507680586243e+00	 2.027983643822760e-01	 5.671033330809092e-01
1	 1.746028564135532e+00	 2.434120032677273e-01	 5.545636424410212e-01
1	 1.741853993058423e+00	 2.839875775568943e-01	 5.400586162785252e-01
1	 1.736965655409712e+00	 3.244996637360027e-01	 5.235794953671635e-01
1	 1.731345810437356e+00	 3.649222058567783e-01	 5.051190690539644e-01
1	 1.724977354564966e+00	 4.052285602575090e-01	 4.846719089299250e-01
1	 1.771429255863481e+00	 0.000000000000000e+00	 5.973280506910491e-01
1	 1.771134883029259e+00	 4.077617114598067e-02	 5.947430253705683e-01
1	 1.770238075844416e+00	 8.163127346421889e-02	 5.901951913016346e-01
1	 1.768718459780996e+00	 1.225433931670820e-01	 5.836992689721370e-01
1	 1.766555918797576e+00	 1.634898166310768e-01	 5.752707002888316e-01
1	 1.763730655870483e+00	 2.044470545558483e-01	 5.649256190050932e-01
1	 1.760223255241496e+00	 2.453908702045582e-01	 5.526808123352922e-01
1	 1.756014746147593e+00	 2.862963118033288e-01	 5.385536736556671e-01
1	 1.751086667772930e+00	 3.271377491527243e-01	 5.225621463044662e-01
1	 1.745421135138444e+00	 3.678889144773020e-01	 5.047246586194287e-01
1	 1.739000905620783e+00	 4.085229475102455e-01	 4.850600504871321e-01
1	 1.785714320420949e+00	 0.000000000000000e+00	 5.959107530452972e-01
1	 1.785417573721143e+00	 4.110499615159467e-02	 5.936964812017096e-01
1	 1.784513534552017e+00	 8.228955998850228e-02	 5.894336552646593e-01
1	 1.782981664082449e+00	 1.235316010070312e-01	 5.831677841685177e-01
1	 1.780801684052323e+00	 1.648082224176332e-01	 5.749453132273030e-01
1	 1.777953637791879e+00	 2.060957454987233e-01	 5.648133566321347e-01
1	 1.774417952971385e+00	 2.473697380647936e-01	 5.528193969841459e-01
1	 1.770175505844826e+00	 2.886050471271306e-01	 5.390109524873634e-01
1	 1.765207686725639e+00	 3.297758358005370e-01	 5.234352130066281e-01
1	 1.759496466407687e+00	 3.708556244823006e-01	 5.061386468295864e-01
1	 1.753024463220587e+00	 4.118173363003946e-01	 4.871665806519781e-01
1	 1.799999393311444e+00	 0.000000000000000e+00	 5.963415702502609e-01
1	 1.799700272744663e+00	 4.143382134901918e-02	 5.945781035324047e-01
1	 1.798789001587018e+00	 8.294784689677770e-02	 5.906510379924057e-01
1	 1.797244876704124e+00	 1.245198094234218e-01	 5.846393268029251e-01
1	 1.795047457617085e+00	 1.661266289732409e-01	 5.766230935834580e-01
1	 1.792176628009957e+00	 2.077444374033096e-01	 5.666830997914778e-01
1	 1.788612658981417e+00	 2.493486070793360e-01	 5.549001523464097e-01
1	 1.784336273802357e+00	 2.909137837976530e-01	 5.413544529422836e-01
1	 1.779328713915424e+00	 3.324139239871812e-01	 5.261248916080904e-01
1	 1.773571805887316e+00	 3.738223362178146e-01	 5.092882882772040e-01
1	 1.767048029000547e+00	 4.151117270121904e-01	 4.909185874140699e-01
1	 1.814284476201773e+00	 0.000000000000000e+00	 5.985084834380076e-01
1	 1.813982981766347e+00	 4.176264677666395e-02	 5.972832722199464e-01
1	 1.813064478615097e+00	 8.360613426591922e-02	 5.937496242530960e-01
1	 1.811508099310267e+00	 1.255080185316283e-01	 5.880225079874760e-01
1	 1.809293241154060e+00	 1.674450364517926e-01	 5.802183140534287e-01
1	 1.806399628184248e+00	 2.093931304620157e-01	 5.704540307702274e-01
1	 1.802807374927804e+00	 2.513274774790874e-01	 5.588463304809798e-01
1	 1.798497051672427e+00	 2.932225220842489e-01	 5.455105691071673e-01
1	 1.793449750989868e+00	 3.350520140203967e-01	 5.305597029969534e-01
1	 1.787647155219565e+00	 3.767890500298854e-01	 5.141031289705092e-01
1	 1.781071604596829e+00	 4.184061200298669e-01	 4.962454554214568e-01
1	 1.828569570758740e+00	 0.000000000000000e+00	 6.023029747848017e-01
1	 1.828265702452721e+00	 4.209147247293873e-02	 6.017106368753899e-01
1	 1.827339967301935e+00	 8.426442217280079e-02	 5.986347527307887e-01
1	 1.825771333565118e+00	 1.264962284470254e-01	 5.932287950101928e-01
1	 1.823539036325449e+00	 1.687634450071806e-01	 5.856479265576345e-01
1	 1.820622639974282e+00	 2.110418248672499e-01	 5.760478576394457e-01
1	 1.817002102466761e+00	 2.533063494949500e-01	 5.645835820430617e-01
1	 1.812657841107275e+00	 2.955312622562716e-01	 5.514079954747086e-01
1	 1.807570799596554e+00	 3.376901062079237e-01	 5.366704020050527e-01
1	 1.801722516046665e+00	 3.797557662645540e-01	 5.205149168262323e-01
1	 1.795095191645604e+00	 4.217005157376583e-01	 5.030787762697894e-01
1	 1.842854678649152e+00	 0.000000000000000e+00	 6.076198918237277e-01
1	 1.842548436470314e+00	 4.242029847625331e-02	 6.077619901373266e-01
1	 1.841615469313211e+00	 8.492271069429662e-02	 6.052146976622359e-01
1	 1.840034581132922e+00	 1.274844392849876e-01	 6.001724006341556e-01
1	 1.837784844793450e+00	 1.700818547932978e-01	 5.928314583971863e-01
1	 1.834845665039586e+00	 2.126905208114208e-01	 5.833887163569913e-01
1	 1.831196843254505e+00	 2.552852233578261e-01	 5.720398633164404e-01
1	 1.826818643759138e+00	 2.978400045830740e-01	 5.589776377817308e-01
1	 1.821691861383066e+00	 3.403282008575017e-01	 5.443898908226055e-01
1	 1.815797890010847e+00	 3.827224852678610e-01	 5.284575163266879e-01
1	 1.809118791783039e+00	 4.249949145197988e-01	 5.113522629650266e-01
1	 1.857139801539814e+00	 0.000000000000000e+00	 6.143573180211718e-01
1	 1.856831185485652e+00	 4.274912482501749e-02	 6.153421467958787e-01
1	 1.855890986314602e+00	 8.558099990728060e-02	 6.134005559378488e-01
1	 1.854297843677920e+00	 1.284726511608895e-01	 6.087701775070260e-01
1	 1.852030668220261e+00	 1.714002659640365e-01	 6.016909132040225e-01
1	 1.849068705039691e+00	 2.143392184869368e-01	 5.924030773896772e-01
1	 1.845391598947249e+00	 2.572640992986178e-01	 5.811453475374763e-01
1	 1.840979461280257e+00	 3.001487493340095e-01	 5.681525279634051e-01
1	 1.835812937996986e+00	 3.429662982768709e-01	 5.536531364100168e-01
1	 1.829873278754343e+00	 3.856892073858478e-01	 5.378668271165834e-01
1	 1.823142406645302e+00	 4.282893167605222e-01	 5.210016683348192e-01
1	 1.682906724299760e+00	 3.953454038814352e-01	 4.945833954355158e-01
1	 1.675947749803660e+00	 4.345261195934738e-01	 4.682677273986166e-01
1	 1.668227280467807e+00	 4.735400391875617e-01	 4.385989875673025e-01
1	 1.659730884666089e+00	 5.123598044659057e-01	 4.056617909203726e-01
1	 1.650445008658129e+00	 5.509577006915951e-01	 3.695003667219189e-01
1	 1.640357038728711e+00	 5.893057194590274e-01	 3.301143814948184e-01
1	 1.629455361754438e+00	 6.273756249509855e-01	 2.874549635071129e-01
1	 1.617729423793474e+00	 6.651390233461127e-01	 2.414210060465359e-01
1	 1.605169786290770e+00	 7.025674351061066e-01	 1.918558291092102e-01
1	 1.591768179491655e+00	 7.396323698384317e-01	 1.385442799156905e-01
1	 1.577517552661069e+00	 7.763054033982315e-01	 8.121035168799060e-02
1	 1.696930265540624e+00	 3.986397888273382e-01	 4.893544923833699e-01
1	 1.689913302408431e+00	 4.381469946384857e-01	 4.641728766352191e-01
1	 1.682128498954506e+00	 4.774860144314484e-01	 4.356164471436363e-01
1	 1.673561303295025e+00	 5.166292620345447e-01	 4.037691401425849e-01
1	 1.664198048747260e+00	 5.555487917659617e-01	 3.686740416167334e-01
1	 1.654026016486803e+00	 5.942163618280745e-01	 3.303291810274122e-01
1	 1.643033496618929e+00	 6.326035011166402e-01	 2.886835291333822e-01
1	 1.631209847256555e+00	 6.706815792066391e-01	 2.436332778639620e-01
1	 1.618545551193824e+00	 7.084218792418324e-01	 1.950184825650233e-01
1	 1.605032269764788e+00	 7.457956734213033e-01	 1.426201477230376e-01
1	 1.590662893481110e+00	 7.827743007438482e-01	 8.615783627418758e-02
1	 1.710953808416969e+00	 4.019341741579514e-01	 4.860774587729832e-01
1	 1.703878856642000e+00	 4.417678701064068e-01	 4.619410488801799e-01
1	 1.696029719062592e+00	 4.814319901362581e-01	 4.344110741765024e-01
1	 1.687391723537195e+00	 5.208987201019111e-01	 4.035696557030848e-01
1	 1.677951090440714e+00	 5.601398833766248e-01	 3.694576385101355e-01
1	 1.667694995839533e+00	 5.991270047707271e-01	 3.320703691563589e-01
1	 1.656611633067583e+00	 6.378313778929233e-01	 2.913536802544602e-01
1	 1.644690272292521e+00	 6.762241357145047e-01	 2.472001605397243e-01
1	 1.631921317657670e+00	 7.142763240612714e-01	 1.994457912947412e-01
1	 1.618296361585791e+00	 7.519589777238973e-01	 1.478670307287820e-01
1	 1.603808235835264e+00	 7.892431988448088e-01	 9.217842687938166e-02
1	 1.724977354564966e+00	 4.052285602575090e-01	 4.846719089299249e-01
1	 1.717844414133743e+00	 4.453887464195300e-01	 4.614910994589804e-01
1	 1.709930942413911e+00	 4.853779667621866e-01	 4.349012485311705e-01
1	 1.701222147006159e+00	 5.251681791659193e-01	 4.049815562161346e-01
1	 1.691704135342993e+00	 5.647309760590074e-01	 3.717695590872499e-01
1	 1.681363978381567e+00	 6.040376488596787e-01	 3.352569042818556e-01
1	 1.670189772684441e+00	 6.430592558895325e-01	 2.953853339184667e-01
1	 1.658170700473988e+00	 6.817666935161188e-01	 2.520429587069687e-01
1	 1.645297087242689e+00	 7.201307702472223e-01	 2.050609019182739e-01
1	 1.631560456501998e+00	 7.581222834650542e-01	 1.542103956095427e-01
1	 1.616953581256991e+00	 7.957120984556170e-01	 9.920040992360235e-02
1	 1.739000905620783e+00	 4.085229475102455e-01	 4.850600504871321e-01
1	 1.731809976513040e+00	 4.490096240001489e-01	 4.627445014767578e-01
1	 1.723832170630307e+00	 4.893239447694294e-01	 4.370079831760895e-01
1	 1.715052575315472e+00	 5.294376397244838e-01	 4.079256985853287e-01
1	 1.705457185058600e+00	 5.693220703485321e-01	 3.755308374007163e-01
1	 1.695032965707572e+00	 6.089482946676218e-01	 3.398103591966486e-01
1	 1.683767917053543e+00	 6.482871357161656e-01	 3.007009906260989e-01
1	 1.671651133373571e+00	 6.873092532578903e-01	 2.580855156759744e-01
1	 1.658672861509265e+00	 7.259852184824843e-01	 2.117894403008890e-01
1	 1.644824556060741e+00	 7.642855913636147e-01	 1.615781134361928e-01
1	 1.630098931279753e+00	 8.021810003307787e-01	 1.071543852538294e-01
1	 1.753024463220587e+00	 4.118173363003946e-01	 4.871665806519781e-01
1	 1.745775545409268e+00	 4.526305032705572e-01	 4.656252411074346e-01
1	 1.737733405333627e+00	 4.932699246181824e-01	 4.406548188598942e-01
1	 1.728883010078692e+00	 5.337071022755192e-01	 4.123254724739442e-01
1	 1.719210241192034e+00	 5.739131667806220e-01	 3.806650345786362e-01
1	 1.708701959412214e+00	 6.138589427672492e-01	 3.456548165136931e-01
1	 1.697346067758932e+00	 6.535150179825200e-01	 3.072256309966039e-01
1	 1.685131572563887e+00	 6.928518155862283e-01	 2.652541118918851e-01
1	 1.672048642017779e+00	 7.318396694498565e-01	 2.195594123889765e-01
1	 1.658088661809354e+00	 7.704489021384190e-01	 1.699003635044989e-01
1	 1.643244287437012e+00	 8.086499052247982e-01	 1.159731736142196e-01
1	 1.767048029000547e+00	 4.151117270121904e-01	 4.909185874140701e-01
1	 1.759741122451803e+00	 4.562513846530477e-01	 4.700597178701593e-01
1	 1.751634648145715e+00	 4.972159067686412e-01	 4.457677238049278e-01
1	 1.742713452909377e+00	 5.379765673169402e-01	 4.181066998016251e-01
1	 1.732963305347800e+00	 5.785042658906993e-01	 3.870981385475423e-01
1	 1.722370961090161e+00	 6.187695937312541e-01	 3.527167690745464e-01
1	 1.710924226384649e+00	 6.587429032982933e-01	 3.148866173555043e-01
1	 1.698612019617552e+00	 6.983943811475415e-01	 2.734773682288378e-01
1	 1.685424430328613e+00	 7.376941238321379e-01	 2.283011097689642e-01
1	 1.671352775295170e+00	 7.766122165083076e-01	 1.791095417462684e-01
1	 1.656389651262230e+00	 8.151188138921801e-01	 1.255917285234983e-01
1	 1.781071604596829e+00	 4.184061200298669e-01	 4.962454554214568e-01
1	 1.773706709270024e+00	 4.598722685699136e-01	 4.759766496181310e-01
1	 1.765535900688415e+00	 5.011618916810018e-01	 4.522749981406615e-01
1	 1.756543905421082e+00	 5.422460353466612e-01	 4.251975389902752e-01
1	 1.746716379130398e+00	 5.830953682141868e-01	 3.947584684938995e-01
1	 1.736039972336078e+00	 6.236802481323294e-01	 3.609250250638980e-01
1	 1.724502394514734e+00	 6.639707922731830e-01	 3.236135999727382e-01
1	 1.712092476107182e+00	 7.039369505882386e-01	 2.826861538538731e-01
1	 1.698800228002152e+00	 7.435485823121282e-01	 2.379470196889897e-01
1	 1.684616898065521e+00	 7.827755351921205e-01	 1.891401734684687e-01
1	 1.669535024288868e+00	 8.215877270874299e-01	 1.359470523165230e-01
1	 1.795095191645604e+00	 4.217005157376583e-01	 5.030787762697894e-01
1	 1.787672307493307e+00	 4.634931554434489e-01	 4.833069819820289e-01
1	 1.779437164583574e+00	 5.051078798154593e-01	 4.601071828177910e-01
1	 1.770374369227367e+00	 5.465155068625966e-01	 4.335283936994292e-01
1	 1.760469464144329e+00	 5.876864742865074e-01	 4.035765838049305e-01
1	 1.749708994744631e+00	 6.285909065431676e-01	 3.702106175728381e-01
1	 1.738080573733230e+00	 6.691986855168867e-01	 3.333384276968215e-01
1	 1.725572943605393e+00	 7.094795245547292e-01	 2.928134984106699e-01
1	 1.712176036598775e+00	 7.494030455726258e-01	 2.484317392992243e-01
1	 1.697881031667741e+00	 7.889388589086984e-01	 1.999288301835968e-01
1	 1.682680408050388e+00	 8.280566455650521e-01	 1.469781161222557e-01
1	 1.809118791783039e+00	 4.249949145197988e-01	 5.113522629650266e-01
1	 1.801637918751031e+00	 4.671140456959464e-01	 4.919838020263109e-01
1	 1.793338441453034e+00	 5.090538716322103e-01	 4.691969727597743e-01
1	 1.784204845941787e+00	 5.507849823626610e-01	 4.430318258073550e-01
1	 1.774222561994096e+00	 5.922775846430840e-01	 4.134851972456886e-01
1	 1.763378029910488e+00	 6.335015695364624e-01	 3.805067183693714e-01
1	 1.751658765624176e+00	 6.744265836391019e-01	 3.439950627464914e-01
1	 1.739053423684801e+00	 7.150221036934215e-01	 3.037945082886294e-01
1	 1.725551857678869e+00	 7.552575142964307e-01	 2.596918938818752e-01
1	 1.711145177649163e+00	 7.951021883768816e-01	 2.114140503092266e-01
1	 1.695825804080252e+00	 8.345255700795510e-01	 1.586257835644919e-01
1	 1.823142406645302e+00	 4.282893167605222e-01	 5.210016683348193e-01
1	 1.815603544672573e+00	 4.707349397496997e-01	 5.019422558914112e-01
1	 1.807239732918643e+00	 5.129998675914498e-01	 4.794791340236338e-01
1	 1.798035337177901e+00	 5.550544623447690e-01	 4.536424724093260e-01
1	 1.787975674284199e+00	 5.968686998193390e-01	 4.244190921441595e-01
1	 1.777047079428317e+00	 6.384122376849063e-01	 3.917485556496147e-01
1	 1.765236971771615e+00	 6.796544872495263e-01	 3.555194994358522e-01
1	 1.752533917918022e+00	 7.205646886507250e-01	 3.155662867572876e-01
1	 1.738927692802811e+00	 7.611119891663414e-01	 2.716660588559950e-01
1	 1.724409337557121e+00	 8.012655243155106e-01	 2.235362635283648e-01
1	 1.708971213911921e+00	 8.409945013854322e-01	 1.708327379848468e-01
1	 1.577517552661069e+00	 7.763054033982315e-01	 8.121035168799062e-02
1	 1.562411034908616e+00	 8.125607776635853e-01	 1.816186349000830e-02
1	 1.546445124723613e+00	 8.483678438587413e-01	-5.216609326116928e-02
1	 1.529616701598890e+00	 8.836988399894217e-01	-1.299288970241026e-01
1	 1.511924025818336e+00	 9.185263933820198e-01	-2.152963237639176e-01
1	 1.493366767095691e+00	 9.528236030216212e-01	-3.084519740195203e-01
1	 1.473946027928508e+00	 9.865641215718935e-01	-4.095924440743268e-01
1	 1.453664361413024e+00	 1.019722236591529e+00	-5.189262372064335e-01
1	 1.432525783302651e+00	 1.052272950456313e+00	-6.366724161248647e-01
1	 1.410535778132862e+00	 1.084192058495051e+00	-7.630590031389854e-01
1	 1.387701299278052e+00	 1.115456224851666e+00	-8.983211402146336e-01
1	 1.590662893481110e+00	 7.827743007438482e-01	 8.615783627418756e-02
1	 1.575430494197757e+00	 8.193317884469776e-01	 2.400195489325883e-02
1	 1.559331541226210e+00	 8.554372323608842e-01	-4.535737741988505e-02
1	 1.542362888056345e+00	 8.910626391525762e-01	-1.220907789227352e-01
1	 1.524522780475129e+00	 9.261804080539138e-01	-2.063820549881988e-01
1	 1.505810885444059e+00	 9.607634138857474e-01	-2.984274450010504e-01
1	 1.486228314647727e+00	 9.947850897612733e-01	-3.984346242170537e-01
1	 1.465777642457148e+00	 1.028219508979247e+00	-5.066214596321771e-01
1	 1.444462918088727e+00	 1.061041465612036e+00	-6.232145239228843e-01
1	 1.422289671780186e+00	 1.093226553292651e+00	-7.484473767646047e-01
1	 1.399264914847900e+00	 1.124751241708993e+00	-8.825586281714978e-01
1	 1.603808235835264e+00	 7.892431988448088e-01	 9.217842687938162e-02
1	 1.588449955006404e+00	 8.261028000209216e-01	 3.081596341510721e-02
1	 1.572217959232855e+00	 8.625066216883476e-01	-3.767165659946939e-02
1	 1.555109076001540e+00	 8.984264391753550e-01	-1.134699387283835e-01
1	 1.537121536602497e+00	 9.338344236192464e-01	-1.967763525613895e-01
1	 1.518255005244984e+00	 9.687032256766132e-01	-2.877994007167004e-01
1	 1.498510602800634e+00	 1.003006058910155e+00	-3.867574539200576e-01
1	 1.477890924915242e+00	 1.036716782358670e+00	-4.938773542575681e-01
1	 1.456400054268210e+00	 1.069809981791085e+00	-6.093927935905643e-01
1	 1.434043566799518e+00	 1.102261049144593e+00	-7.335424791669768e-01
1	 1.410828531767526e+00	 1.134046259651052e+00	-8.665681035243987e-01
1	 1.616953581256991e+00	 7.957120984556170e-01	 9.920040992360238e-02
1	 1.601469418853318e+00	 8.328738131751846e-01	 3.853523733464946e-02
1	 1.585104380246781e+00	 8.695760126657284e-01	-2.917455349461369e-02
1	 1.567855266921338e+00	 9.057902409167240e-01	-1.041290083411992e-01
1	 1.549720295670102e+00	 9.414884409708640e-01	-1.865389010544033e-01
1	 1.530699127950089e+00	 9.766430393204287e-01	-2.766246268913215e-01
1	 1.510792893819975e+00	 1.011227029977573e+00	-3.746148732970295e-01
1	 1.490004210200340e+00	 1.045214057721086e+00	-4.807450732562172e-01
1	 1.468337193233596e+00	 1.078578500016408e+00	-5.952556511053357e-01
1	 1.445797464561987e+00	 1.111295547104869e+00	-7.183900755353270e-01
1	 1.422392151385875e+00	 1.143341279762238e+00	-8.503927392955193e-01
1	 1.630098931279753e+00	 8.021810003307787e-01	 1.071543852538294e-01
1	 1.614488887257262e+00	 8.396448286995342e-01	 4.709333958277072e-02
1	 1.597990805771218e+00	 8.766454061176232e-01	-1.992957386249519e-02
1	 1.580601462302604e+00	 9.131540452356487e-01	-9.412859920298700e-02
1	 1.562319059147608e+00	 9.491424610016120e-01	-1.757274596550230e-01
1	 1.543143255010995e+00	 9.845828557434052e-01	-2.649580773760399e-01
1	 1.523075189138495e+00	 1.019448003922562e+00	-3.620590823783288e-01
1	 1.502117499725479e+00	 1.053711336057785e+00	-4.672741186467918e-01
1	 1.480274336377378e+00	 1.087347021310958e+00	-5.808499602248366e-01
1	 1.457551366438721e+00	 1.120330048227474e+00	-7.030344546630981e-01
1	 1.433955775051891e+00	 1.152636303126949e+00	-8.340743157207324e-01
1	 1.643244287437012e+00	 8.086499052247982e-01	 1.159731736142196e-01
1	 1.627508361736999e+00	 8.464158473837371e-01	 5.642595916435404e-02
1	 1.610877237309396e+00	 8.837148028686295e-01	-9.998191190969757e-03
1	 1.593347663632206e+00	 9.205178529910945e-01	-8.352738310514718e-02
1	 1.574917828504675e+00	 9.567964846043375e-01	-1.643979391716837e-01
1	 1.555587387879325e+00	 9.925226758717542e-01	-2.528529474104742e-01
1	 1.535357490188940e+00	 1.027668981704154e+00	-3.491406107003558e-01
1	 1.514230794903695e+00	 1.062208618360056e+00	-4.535124082839927e-01
1	 1.492211485092054e+00	 1.096115546697684e+00	-5.662210849592733e-01
1	 1.469305273800852e+00	 1.129364553566402e+00	-6.875184879860647e-01
1	 1.445519404114519e+00	 1.161931330829578e+00	-8.176532759420343e-01
1	 1.656389651262230e+00	 8.151188138921801e-01	 1.255917285234984e-01
1	 1.640527843811289e+00	 8.531868700175608e-01	 6.647082679941266e-02
1	 1.623763676364548e+00	 8.907842037433427e-01	 5.600726659537869e-04
1	 1.606093872397005e+00	 9.278816650420267e-01	-7.238216914775303e-02
1	 1.587516605210965e+00	 9.644505126718853e-01	-1.526044753695969e-01
1	 1.568031528006701e+00	 1.000462500631687e+00	-2.403607433955028e-01
1	 1.547639798404058e+00	 1.035889964281385e+00	-3.359083835804192e-01
1	 1.526344097148023e+00	 1.070705905619187e+00	-4.395063387064551e-01
1	 1.504148640770117e+00	 1.104884077199536e+00	-5.514129490682019e-01
1	 1.481059188019506e+00	 1.138399064175646e+00	-6.718836858084875e-01
1	 1.457083039922703e+00	 1.171226363954524e+00	-8.011687790474276e-01
1	 1.669535024288868e+00	 8.215877270874299e-01	 1.359470523165230e-01
1	 1.653547334998897e+00	 8.599578973907720e-01	 7.716763455054661e-02
1	 1.636650124439903e+00	 8.978536095663603e-01	 1.168757066301368e-02
1	 1.618840090083870e+00	 9.352454822474111e-01	-6.074797706198065e-02
1	 1.600115390736142e+00	 9.721045460971018e-01	-1.403994988414135e-01
1	 1.580475676844747e+00	 1.008402330949414e+00	-2.275313493689793e-01
1	 1.559922115216593e+00	 1.044110952613289e+00	-3.224097852598407e-01
1	 1.538457407871499e+00	 1.079203198826468e+00	-4.253008450147781e-01
1	 1.516085804804064e+00	 1.113652613839465e+00	-5.364680927458528e-01
1	 1.492813110465814e+00	 1.147433581109201e+00	-6.561702508722950e-01
1	 1.468646683825388e+00	 1.180521403586180e+00	-7.846587506044046e-01
1	 1.682680408050388e+00	 8.280566455650521e-01	 1.469781161222557e-01
1	 1.666566836818583e+00	 8.667289302931382e-01	 8.845795921868065e-02
1	 1.649536583038693e+00	 9.049230211622783e-01	 2.332845734055458e-02
1	 1.631586318179661e+00	 9.426093054662129e-01	-4.867810709480369e-02
1	 1.612714186549867e+00	 9.797585857728328e-01	-1.278338016020064e-01
1	 1.592919835845084e+00	 1.016342167751147e+00	-2.144130903646940e-01
1	 1.572204442059292e+00	 1.052331947658898e+00	-3.086907190865580e-01
1	 1.550570728487159e+00	 1.087700498973188e+00	-4.109394579421585e-01
1	 1.528022978586386e+00	 1.122421157640422e+00	-5.214277266487506e-01
1	 1.504567042510903e+00	 1.156468105421060e+00	-6.404171294147286e-01
1	 1.480210337171517e+00	 1.189816450808942e+00	-7.681599308241842e-01
1	 1.695825804080252e+00	 8.345255700795510e-01	 1.586257835644919e-01
1	 1.679586350789110e+00	 8.734999695144262e-01	 1.002851893025614e-01
1	 1.662423053664149e+00	 9.119924393556940e-01	 3.542861900785421e-02
1	 1.644332558171247e+00	 9.499731355573974e-01	-3.622420664253667e-02
1	 1.625312994121802e+00	 9.874126325919251e-01	-1.149566005851330e-01
1	 1.605364006459333e+00	 1.024282011963096e+00	-2.010527928237906e-01
1	 1.584486780364901e+00	 1.060552950377249e+00	-2.947956648979542e-01
1	 1.562684060408038e+00	 1.096197807050635e+00	-3.964643582700483e-01
1	 1.539960163509583e+00	 1.131189709625357e+00	-5.063317834098646e-01
1	 1.516320985525905e+00	 1.165502638165219e+00	-6.246620598506537e-01
1	 1.491774001310037e+00	 1.199111506707208e+00	-7.517079204852327e-01
1	 1.708971213911921e+00	 8.409945013854322e-01	 1.708327379848468e-01
1	 1.692605878429240e+00	 8.802710158444028e-01	 1.125944553300706e-01
1	 1.675309537819501e+00	 9.190618649712039e-01	 4.793560714943393e-02
1	 1.657078811545492e+00	 9.573369733799312e-01	-2.343633380832461e-02
1	 1.637911814921611e+00	 9.950666874472247e-01	-1.018155982088723e-01
1	 1.617808190139119e+00	 1.032221864511473e+00	-1.874958422173699e-01
1	 1.596769131566166e+00	 1.068773961727374e+00	-2.807677337546776e-01
1	 1.574797405047172e+00	 1.104695124050099e+00	-3.819164287317307e-01
1	 1.551897360966147e+00	 1.139958270817221e+00	-4.912189667746903e-01
1	 1.528074940881947e+00	 1.174537180395669e+00	-6.089416192075282e-01
1	 1.503337677589890e+00	 1.208406572365371e+00	-7.353372247368231e-01
1	 1.387701299278052e+00	 1.115456224851666e+00	-8.983211402146336e-01
1	 1.364030759277465e+00	 1.146043058270738e+00	-1.043520086464749e+00
1	 1.339534006818105e+00	 1.175931189999760e+00	-1.199517503388565e+00
1	 1.314222318998515e+00	 1.205100331942848e+00	-1.366209657946972e+00
1	 1.288108380333235e+00	 1.233531336090155e+00	-1.543434426249305e+00
1	 1.261206252148415e+00	 1.261206252148416e+00	-1.730971501209050e+00
1	 1.233531336090155e+00	 1.288108380333236e+00	-1.928543235246203e+00
1	 1.205100331942847e+00	 1.314222318998515e+00	-2.135816111019729e+00
1	 1.175931189999759e+00	 1.339534006818105e+00	-2.352402821460683e+00
1	 1.146043058270737e+00	 1.364030759277465e+00	-2.577864929057244e+00
1	 1.115456224851666e+00	 1.387701299278052e+00	-2.811716063740855e+00
1	 1.399264914847900e+00	 1.124751241708993e+00	-8.825586281714978e-01
1	 1.375397129932205e+00	 1.155592953020909e+00	-1.026528538914595e+00
1	 1.350696247788508e+00	 1.185730140411611e+00	-1.181150314980455e+00
1	 1.325173639486599e+00	 1.215142346725971e+00	-1.346341689078244e+00
1	 1.298842095240169e+00	 1.243810264395152e+00	-1.521962922252615e+00
1	 1.271715793547383e+00	 1.271715793547383e+00	-1.707816848580921e+00
1	 1.243810264395151e+00	 1.298842095240169e+00	-1.903649545465400e+00
1	 1.215142346725971e+00	 1.325173639486600e+00	-2.109151624944360e+00
1	 1.185730140411611e+00	 1.350696247788508e+00	-2.323960129877041e+00
1	 1.155592953020908e+00	 1.375397129932205e+00	-2.547661007619088e+00
1	 1.124751241708993e+00	 1.399264914847900e+00	-2.779792123224928e+00
1	 1.410828531767526e+00	 1.134046259651052e+00	-8.665681035243987e-01
1	 1.386763501913673e+00	 1.165142848885558e+00	-1.009373505516195e+00
1	 1.361858490061780e+00	 1.195529091967020e+00	-1.162687548365603e+00
1	 1.336124961252898e+00	 1.225184362681042e+00	-1.326448304895989e+00
1	 1.309575811399881e+00	 1.254089193899776e+00	-1.500537235748498e+00
1	 1.282225336172927e+00	 1.282225336172928e+00	-1.684779080187686e+00
1	 1.254089193899775e+00	 1.309575811399881e+00	-1.878942363746855e+00
1	 1.225184362681042e+00	 1.336124961252899e+00	-2.082740520438667e+00
1	 1.195529091967019e+00	 1.361858490061780e+00	-2.295833615818280e+00
1	 1.165142848885558e+00	 1.386763501913674e+00	-2.517830646023657e+00
1	 1.134046259651052e+00	 1.410828531767526e+00	-2.748292377351981e+00
1	 1.422392151385875e+00	 1.143341279762238e+00	-8.503927392955193e-01
1	 1.398129876547819e+00	 1.174692746978819e+00	-9.920954905382739e-01
1	 1.373020734940072e+00	 1.205328045809172e+00	-1.144166828094234e+00
1	 1.347076285574974e+00	 1.235226380979596e+00	-1.306564059426345e+00
1	 1.320309530064563e+00	 1.264368125803190e+00	-1.479188680907798e+00
1	 1.292734881251103e+00	 1.292734881251103e+00	-1.661886123660629e+00
1	 1.264368125803190e+00	 1.320309530064563e+00	-1.854446108161262e+00
1	 1.235226380979596e+00	 1.347076285574974e+00	-2.056603607503509e+00
1	 1.205328045809172e+00	 1.373020734940072e+00	-2.268040407890154e+00
1	 1.174692746978818e+00	 1.398129876547820e+00	-2.488387243828719e+00
1	 1.143341279762238e+00	 1.422392151385875e+00	-2.717226474953053e+00
1	 1.433955775051891e+00	 1.152636303126949e+00	-8.340743157207324e-01
1	 1.409496255160591e+00	 1.184242648414825e+00	-9.747336915425778e-01
1	 1.384182983725537e+00	 1.215127003081255e+00	-1.125624564894085e+00
1	 1.358027613730387e+00	 1.245268402793169e+00	-1.286722391912591e+00
1	 1.331043252486407e+00	 1.274647061304560e+00	-1.457947561621196e+00
1	 1.303244430007965e+00	 1.303244430007966e+00	-1.639165005586430e+00
1	 1.274647061304560e+00	 1.331043252486408e+00	-1.830184408940336e+00
1	 1.245268402793168e+00	 1.358027613730388e+00	-2.030761024686377e+00
1	 1.215127003081255e+00	 1.384182983725537e+00	-2.240597081998630e+00
1	 1.184242648414824e+00	 1.409496255160592e+00	-2.459343768186419e+00
1	 1.152636303126949e+00	 1.433955775051891e+00	-2.686603753450794e+00
1	 1.445519404114519e+00	 1.161931330829578e+00	-8.176532759420343e-01
1	 1.420862639077938e+00	 1.193792554307709e+00	-9.573260516319037e-01
1	 1.395345237720325e+00	 1.224925964926454e+00	-1.107096004201733e+00
1	 1.368978946996702e+00	 1.255310429293297e+00	-1.266955671383720e+00
1	 1.341776979917606e+00	 1.284926001603051e+00	-1.436843211886284e+00
1	 1.313753983669569e+00	 1.313753983669570e+00	-1.616641887523649e+00
1	 1.284926001603050e+00	 1.341776979917607e+00	-1.806180139963997e+00
1	 1.255310429293297e+00	 1.368978946996703e+00	-2.005232265912126e+00
1	 1.224925964926455e+00	 1.395345237720325e+00	-2.213519683429645e+00
1	 1.193792554307708e+00	 1.420862639077939e+00	-2.430712771110477e+00
1	 1.161931330829579e+00	 1.445519404114519e+00	-2.656433251286299e+00
1	 1.457083039922703e+00	 1.171226363954524e+00	-8.011687790474276e-01
1	 1.432229029625809e+00	 1.203342465771605e+00	-9.399093092095699e-01
1	 1.406507498226588e+00	 1.234724932487957e+00	-1.088615272382398e+00
1	 1.379930286651479e+00	 1.265352461651516e+00	-1.247295239100018e+00
1	 1.352510713610353e+00	 1.295204947897826e+00	-1.415904034271137e+00
1	 1.324263543461969e+00	 1.324263543461970e+00	-1.594342100303803e+00
1	 1.295204947897825e+00	 1.352510713610354e+00	-1.782455448747815e+00
1	 1.265352461651516e+00	 1.379930286651479e+00	-1.980036206035684e+00
1	 1.234724932487956e+00	 1.406507498226588e+00	-2.186823747877192e+00
1	 1.203342465771604e+00	 1.432229029625810e+00	-2.402506405921073e+00
1	 1.171226363954523e+00	 1.457083039922703e+00	-2.626723719754146e+00
1	 1.468646683825388e+00	 1.180521403586180e+00	-7.846587506044046e-01
1	 1.443595428130154e+00	 1.212892383920647e+00	-9.225190453875427e-01
1	 1.417669766546477e+00	 1.244523906908949e+00	-1.070215420765727e+00
1	 1.390881633972279e+00	 1.275394501039364e+00	-1.227771448993132e+00
1	 1.363244454816839e+00	 1.305483901388050e+00	-1.395157536560173e+00
1	 1.334773110611222e+00	 1.334773110611222e+00	-1.572290176711474e+00
1	 1.305483901388049e+00	 1.363244454816840e+00	-1.759031785013371e+00
1	 1.275394501039363e+00	 1.390881633972279e+00	-1.955191125187476e+00
1	 1.244523906908948e+00	 1.417669766546476e+00	-2.160524321477697e+00
1	 1.212892383920646e+00	 1.443595428130154e+00	-2.374736442912595e+00
1	 1.180521403586179e+00	 1.468646683825388e+00	-2.597483634278170e+00
1	 1.480210337171517e+00	 1.189816450808942e+00	-7.681599308241842e-01
1	 1.454961835916920e+00	 1.222442309868967e+00	-9.051897291718164e-01
1	 1.428832043982143e+00	 1.254322889332617e+00	-1.051928467616874e+00
1	 1.401832990236666e+00	 1.285436548628375e+00	-1.208413706209926e+00
1	 1.373978204789257e+00	 1.315762863272888e+00	-1.374630366681977e+00
1	 1.345282686343380e+00	 1.345282686343381e+00	-1.550509882632362e+00
1	 1.315762863272887e+00	 1.373978204789257e+00	-1.735929927919177e+00
1	 1.285436548628374e+00	 1.401832990236666e+00	-1.930714731977249e+00
1	 1.254322889332617e+00	 1.428832043982143e+00	-2.134635979905134e+00
1	 1.222442309868966e+00	 1.454961835916921e+00	-2.347414284286781e+00
1	 1.189816450808942e+00	 1.480210337171518e+00	-2.568721205158474e+00
1	 1.491774001310037e+00	 1.199111506707208e+00	-7.517079204852327e-01
1	 1.466328254312057e+00	 1.231992244730699e+00	-8.879547605457011e-01
1	 1.439994331835738e+00	 1.264121880902148e+00	-1.033785438155091e+00
1	 1.412784356722201e+00	 1.295478605590086e+00	-1.189250503863316e+00
1	 1.384711964779798e+00	 1.326041834751505e+00	-1.354348346012176e+00
1	 1.355792271884501e+00	 1.355792271884501e+00	-1.529024246752098e+00
1	 1.326041834751504e+00	 1.384711964779799e+00	-1.713170012024679e+00
1	 1.295478605590085e+00	 1.412784356722201e+00	-1.906624185618456e+00
1	 1.264121880902147e+00	 1.439994331835739e+00	-2.109172846577811e+00
1	 1.231992244730698e+00	 1.466328254312057e+00	-2.320550978391185e+00
1	 1.199111506707207e+00	 1.491774001310037e+00	-2.540444387818626e+00
1	 1.503337677589890e+00	 1.208406572365371e+00	-7.353372247368231e-01
1	 1.477694684641512e+00	 1.241542189619976e+00	-8.708465115642017e-01
1	 1.451156631409414e+00	 1.273920882760728e+00	-1.015816402724826e+00
1	 1.423735734706447e+00	 1.305520673096032e+00	-1.170309458086508e+00
1	 1.395445736040656e+00	 1.336320817023064e+00	-1.334336501138919e+00
1	 1.366301868460640e+00	 1.366301868460640e+00	-1.507855588884199e+00
1	 1.336320817023063e+00	 1.395445736040656e+00	-1.690771552055737e+00
1	 1.305520673096032e+00	 1.423735734706447e+00	-1.882936117031348e+00
1	 1.273920882760727e+00	 1.451156631409415e+00	-2.084148610024559e+00
1	 1.241542189619975e+00	 1.477694684641513e+00	-2.294157233300314e+00
1	 1.208406572365371e+00	 1.503337677589890e+00	-2.512660892579674e+00
1	 1.115456224851666e+00	 1.387701299278052e+00	-2.811716063740855e+00
1	 1.084192058495050e+00	 1.410535778132863e+00	-3.054476178201382e+00
1	 1.052272950456312e+00	 1.432525783302652e+00	-3.306271798651974e+00
1	 1.019722236591529e+00	 1.453664361413024e+00	-3.565927305010697e+00
1	 9.865641215718933e-01	 1.473946027928509e+00	-3.832188669705393e+00
1	 9.528236030216204e-01	 1.493366767095692e+00	-4.103734849921437e+00
1	 9.185263933820192e-01	 1.511924025818336e+00	-4.379189648091810e+00
1	 8.836988399894211e-01	 1.529616701598891e+00	-4.657133854945430e+00
1	 8.483678438587410e-01	 1.546445124723613e+00	-4.936117491678790e+00
1	 8.125607776635847e-01	 1.562411034908617e+00	-5.214671974070959e+00
1	 7.763054033982313e-01	 1.577517552661069e+00	-5.491322031227429e+00
1	 1.124751241708993e+00	 1.399264914847900e+00	-2.779792123224928e+00
1	 1.093226553292651e+00	 1.422289671780187e+00	-3.020810056680933e+00
1	 1.061041465612035e+00	 1.444462918088727e+00	-3.270783912101303e+00
1	 1.028219508979247e+00	 1.465777642457148e+00	-3.528572735333864e+00
1	 9.947850897612730e-01	 1.486228314647728e+00	-3.792959212560653e+00
1	 9.607634138857468e-01	 1.505810885444059e+00	-4.062660730870757e+00
1	 9.261804080539133e-01	 1.524522780475130e+00	-4.336340894722214e+00
1	 8.910626391525756e-01	 1.542362888056346e+00	-4.612621317955341e+00
1	 8.554372323608835e-01	 1.559331541226210e+00	-4.890093513192483e+00
1	 8.193317884469768e-01	 1.575430494197757e+00	-5.167330706524051e+00
1	 7.827743007438484e-01	 1.590662893481111e+00	-5.442899414950818e+00
1	 1.134046259651052e+00	 1.410828531767526e+00	-2.748292377351981e+00
1	 1.102261049144592e+00	 1.434043566799519e+00	-2.987615752772505e+00
1	 1.069809981791084e+00	 1.456400054268210e+00	-3.235816318950184e+00
1	 1.036716782358669e+00	 1.477890924915242e+00	-3.491786688185032e+00
1	 1.003006058910155e+00	 1.498510602800635e+00	-3.754345210357349e+00
1	 9.687032256766124e-01	 1.518255005244984e+00	-4.022246708424543e+00
1	 9.338344236192458e-01	 1.537121536602498e+00	-4.294193656581156e+00
1	 8.984264391753546e-01	 1.555109076001540e+00	-4.568847626043948e+00
1	 8.625066216883469e-01	 1.572217959232856e+00	-4.844840825539802e+00
1	 8.261028000209207e-01	 1.588449955006404e+00	-5.120787569465993e+00
1	 7.892431988448086e-01	 1.603808235835264e+00	-5.395295515986511e+00
1	 1.143341279762238e+00	 1.422392151385875e+00	-2.717226474953053e+00
1	 1.111295547104868e+00	 1.445797464561987e+00	-2.954899173316869e+00
1	 1.078578500016408e+00	 1.468337193233596e+00	-3.201371219659769e+00
1	 1.045214057721085e+00	 1.490004210200339e+00	-3.455567713822608e+00
1	 1.011227029977573e+00	 1.510792893819975e+00	-3.716341639502250e+00
1	 9.766430393204278e-01	 1.530699127950088e+00	-3.982484281136963e+00
1	 9.414884409708635e-01	 1.549720295670103e+00	-4.252736069365406e+00
1	 9.057902409167238e-01	 1.567855266921338e+00	-4.525797685275489e+00
1	 8.695760126657278e-01	 1.585104380246782e+00	-4.800341255736774e+00
1	 8.328738131751842e-01	 1.601469418853318e+00	-5.075021477847724e+00
1	 7.957120984556170e-01	 1.616953581256991e+00	-5.348486519563112e+00
1	 1.152636303126949e+00	 1.433955775051891e+00	-2.686603753450794e+00
1	 1.120330048227473e+00	 1.457551366438722e+00	-2.922666034466343e+00
1	 1.087347021310957e+00	 1.480274336377378e+00	-3.167450743579266e+00
1	 1.053711336057784e+00	 1.502117499725479e+00	-3.419914409162773e+00
1	 1.019448003922562e+00	 1.523075189138495e+00	-3.678943638372062e+00
1	 9.845828557434048e-01	 1.543143255010995e+00	-3.943365221752982e+00
1	 9.491424610016117e-01	 1.562319059147609e+00	-4.211956651479302e+00
1	 9.131540452356479e-01	 1.580601462302605e+00	-4.483456888646152e+00
1	 8.766454061176228e-01	 1.597990805771218e+00	-4.756577217103383e+00
1	 8.396448286995335e-01	 1.614488887257262e+00	-5.030012026914060e+00
1	 8.021810003307788e-01	 1.630098931279753e+00	-5.302449379315412e+00
1	 1.161931330829579e+00	 1.445519404114519e+00	-2.656433251286299e+00
1	 1.129364553566401e+00	 1.469305273800852e+00	-2.890921869282680e+00
1	 1.096115546697683e+00	 1.492211485092054e+00	-3.134056951760575e+00
1	 1.062208618360055e+00	 1.514230794903695e+00	-3.384825415883209e+00
1	 1.027668981704154e+00	 1.535357490188941e+00	-3.642146500804918e+00
1	 9.925226758717538e-01	 1.555587387879325e+00	-3.904881566211458e+00
1	 9.567964846043366e-01	 1.574917828504675e+00	-4.171844288697805e+00
1	 9.205178529910941e-01	 1.593347663632206e+00	-4.441811096579097e+00
1	 8.837148028686287e-01	 1.610877237309397e+00	-4.713531685784539e+00
1	 8.464158473837365e-01	 1.627508361736999e+00	-4.985739464966461e+00
1	 8.086499052247982e-01	 1.643244287437012e+00	-5.257161786524257e+00
1	 1.171226363954523e+00	 1.457083039922703e+00	-2.626723719754146e+00
1	 1.138399064175645e+00	 1.481059188019506e+00	-2.859672034972893e+00
1	 1.104884077199535e+00	 1.504148640770118e+00	-3.101191839638676e+00
1	 1.070705905619187e+00	 1.526344097148023e+00	-3.350299418617237e+00
1	 1.035889964281384e+00	 1.547639798404058e+00	-3.605945669901869e+00
1	 1.000462500631686e+00	 1.568031528006702e+00	-3.867025603171979e+00
1	 9.644505126718846e-01	 1.587516605210966e+00	-4.132388219559967e+00
1	 9.278816650420263e-01	 1.606093872397006e+00	-4.400846618348218e+00
1	 8.907842037433419e-01	 1.623763676364548e+00	-4.671188178389384e+00
1	 8.531868700175602e-01	 1.640527843811290e+00	-4.942184667423106e+00
1	 8.151188138921801e-01	 1.656389651262230e+00	-5.212602140821373e+00
1	 1.180521403586179e+00	 1.468646683825388e+00	-2.597483634278170e+00
1	 1.147433581109200e+00	 1.492813110465814e+00	-2.828921719783287e+00
1	 1.113652613839465e+00	 1.516085804804064e+00	-3.068857339585547e+00
1	 1.079203198826468e+00	 1.538457407871499e+00	-3.316335143233288e+00
1	 1.044110952613288e+00	 1.559922115216593e+00	-3.570336732121289e+00
1	 1.008402330949413e+00	 1.580475676844747e+00	-3.829789864036664e+00
1	 9.721045460971011e-01	 1.600115390736142e+00	-4.093578021452685e+00
1	 9.352454822474106e-01	 1.618840090083870e+00	-4.360550194379874e+00
1	 8.978536095663595e-01	 1.636650124439903e+00	-4.629530730687424e+00
1	 8.599578973907713e-01	 1.653547334998898e+00	-4.899329112104759e+00
1	 8.215877270874299e-01	 1.669535024288868e+00	-5.168749522278668e+00
1	 1.189816450808942e+00	 1.480210337171518e+00	-2.568721205158474e+00
1	 1.156468105421060e+00	 1.504567042510904e+00	-2.798675949570147e+00
1	 1.122421157640422e+00	 1.528022978586387e+00	-3.037055323344315e+00
1	 1.087700498973187e+00	 1.550570728487159e+00	-3.282931355194964e+00
1	 1.052331947658898e+00	 1.572204442059292e+00	-3.535315411650200e+00
1	 1.016342167751146e+00	 1.592919835845083e+00	-3.793167113439686e+00
1	 9.797585857728321e-01	 1.612714186549867e+00	-4.055403597346951e+00
1	 9.426093054662122e-01	 1.631586318179662e+00	-4.320908979384474e+00
1	 9.049230211622777e-01	 1.649536583038693e+00	-4.588543877303336e+00
1	 8.667289302931375e-01	 1.666566836818584e+00	-4.857154855679302e+00
1	 8.280566455650521e-01	 1.682680408050388e+00	-5.125583664806046e+00
1	 1.199111506707207e+00	 1.491774001310037e+00	-2.540444387818626e+00
1	 1.165502638165218e+00	 1.516320985525906e+00	-2.768939594064857e+00
1	 1.131189709625356e+00	 1.539960163509583e+00	-3.005787604350004e+00
1	 1.096197807050634e+00	 1.562684060408039e+00	-3.250086857997461e+00
1	 1.060552950377248e+00	 1.584486780364901e+00	-3.500877565037424e+00
1	 1.024282011963095e+00	 1.605364006459333e+00	-3.757150340179364e+00
1	 9.874126325919247e-01	 1.625312994121803e+00	-4.017855163150998e+00
1	 9.499731355573968e-01	 1.644332558171248e+00	-4.281910526272567e+00
1	 9.119924393556934e-01	 1.662423053664148e+00	-4.548212632356393e+00
1	 8.734999695144252e-01	 1.679586350789110e+00	-4.815644511202221e+00
1	 8.345255700795510e-01	 1.695825804080252e+00	-5.083084930786801e+00
1	 1.208406572365371e+00	 1.503337677589890e+00	-2.512660892579674e+00
1	 1.174537180395669e+00	 1.528074940881948e+00	-2.739717372849733e+00
1	 1.139958270817220e+00	 1.551897360966147e+00	-2.975055939943369e+00
1	 1.104695124050098e+00	 1.574797405047172e+00	-3.217800491676174e+00
1	 1.068773961727374e+00	 1.596769131566166e+00	-3.467019176074455e+00
1	 1.032221864511472e+00	 1.617808190139118e+00	-3.721732748568745e+00
1	 9.950666874472238e-01	 1.637911814921611e+00	-3.980923235647520e+00
1	 9.573369733799303e-01	 1.657078811545492e+00	-4.243542770813741e+00
1	 9.190618649712032e-01	 1.675309537819501e+00	-4.508522470993728e+00
1	 8.802710158444024e-01	 1.692605878429240e+00	-4.774781226693750e+00
1	 8.409945013854322e-01	 1.708971213911920e+00	-5.041234286883916e+00
1	 7.763054033982313e-01	 1.577517552661069e+00	-5.491322031227430e+00
1	 7.396323698384324e-01	 1.591768179491655e+00	-5.766318644635895e+00
1	 7.025674351061071e-01	 1.605169786290770e+00	-6.039607805188180e+00
1	 6.651390233461130e-01	 1.617729423793473e+00	-6.309190093474429e+00
1	 6.273756249509856e-01	 1.629455361754438e+00	-6.573064750704139e+00
1	 5.893057194590278e-01	 1.640357038728711e+00	-6.829245319835204e+00
1	 5.509577006915954e-01	 1.650445008658129e+00	-7.075774298495738e+00
1	 5.123598044659060e-01	 1.659730884666089e+00	-7.310736673550505e+00
1	 4.735400391875621e-01	 1.668227280467808e+00	-7.532272235514496e+00
1	 4.345261195934739e-01	 1.675947749803660e+00	-7.738586598909467e+00
1	 3.953454038814352e-01	 1.682906724299760e+00	-7.927960881451160e+00
1	 7.827743007438484e-01	 1.590662893481111e+00	-5.442899414950818e+00
1	 7.457956734213037e-01	 1.605032269764788e+00	-5.716991525434722e+00
1	 7.084218792418324e-01	 1.618545551193824e+00	-5.989467262659565e+00
1	 6.706815792066391e-01	 1.631209847256555e+00	-6.258326972950857e+00
1	 6.326035011166404e-01	 1.643033496618929e+00	-6.521567178533761e+00
1	 5.942163618280748e-01	 1.654026016486803e+00	-6.777196453862368e+00
1	 5.555487917659618e-01	 1.664198048747260e+00	-7.023250322488114e+00
1	 5.166292620345450e-01	 1.673561303295024e+00	-7.257805040139666e+00
1	 4.774860144314489e-01	 1.682128498954505e+00	-7.478990158314709e+00
1	 4.381469946384860e-01	 1.689913302408431e+00	-7.684999790909250e+00
1	 3.986397888273381e-01	 1.696930265540623e+00	-7.874102533578474e+00
1	 7.892431988448086e-01	 1.603808235835264e+00	-5.395295515986511e+00
1	 7.519589777238975e-01	 1.618296361585791e+00	-5.668491998319794e+00
1	 7.142763240612719e-01	 1.631921317657671e+00	-5.940148992477130e+00
1	 6.762241357145049e-01	 1.644690272292521e+00	-6.208270631659171e+00
1	 6.378313778929237e-01	 1.656611633067583e+00	-6.470854903290381e+00
1	 5.991270047707274e-01	 1.667694995839532e+00	-6.725909716380292e+00
1	 5.601398833766249e-01	 1.677951090440714e+00	-6.971467999487249e+00
1	 5.208987201019113e-01	 1.687391723537195e+00	-7.205601691271670e+00
1	 4.814319901362585e-01	 1.696029719062592e+00	-7.426434514462027e+00
1	 4.417678701064070e-01	 1.703878856641999e+00	-7.632153452543923e+00
1	 4.019341741579514e-01	 1.710953808416969e+00	-7.821018875951519e+00
1	 7.957120984556170e-01	 1.616953581256991e+00	-5.348486519563112e+00
1	 7.581222834650545e-01	 1.631560456501998e+00	-5.620794185434827e+00
1	 7.201307702472227e-01	 1.645297087242690e+00	-5.891626125358466e+00
1	 6.817666935161193e-01	 1.658170700473988e+00	-6.158994174309052e+00
1	 6.430592558895327e-01	 1.670189772684440e+00	-6.420901860290416e+00
1	 6.040376488596789e-01	 1.681363978381566e+00	-6.675360619379227e+00
1	 5.647309760590077e-01	 1.691704135342993e+00	-6.920405052719179e+00
1	 5.251681791659194e-01	 1.701222147006158e+00	-7.154107084254125e+00
1	 4.853779667621870e-01	 1.709930942413911e+00	-7.374588906966077e+00
1	 4.453887464195303e-01	 1.717844414133743e+00	-7.580034634059908e+00
1	 4.052285602575090e-01	 1.724977354564966e+00	-7.768700599238466e+00
1	 8.021810003307788e-01	 1.630098931279753e+00	-5.302449379315412e+00
1	 7.642855913636152e-01	 1.644824556060741e+00	-5.573873043942234e+00
1	 7.259852184824847e-01	 1.658672861509265e+00	-5.843872659086873e+00
1	 6.873092532578907e-01	 1.671651133373571e+00	-6.110471573581551e+00
1	 6.482871357161660e-01	 1.683767917053543e+00	-6.371682826093415e+00
1	 6.089482946676221e-01	 1.695032965707572e+00	-6.625525465293833e+00
1	 5.693220703485324e-01	 1.705457185058600e+00	-6.870039924579175e+00
1	 5.294376397244840e-01	 1.715052575315472e+00	-7.103302307413760e+00
1	 4.893239447694297e-01	 1.723832170630307e+00	-7.323437468415367e+00
1	 4.490096240001493e-01	 1.731809976513040e+00	-7.528630804101366e+00
1	 4.085229475102454e-01	 1.739000905620783e+00	-7.717138695075191e+00
1	 8.086499052247982e-01	 1.643244287437012e+00	-5.257161786524257e+00
1	 7.704489021384195e-01	 1.658088661809354e+00	-5.527704332600452e+00
1	 7.318396694498567e-01	 1.672048642017778e+00	-5.796863423808457e+00
1	 6.928518155862287e-01	 1.685131572563887e+00	-6.062677635391967e+00
1	 6.535150179825203e-01	 1.697346067758932e+00	-6.323173384835945e+00
1	 6.138589427672496e-01	 1.708701959412215e+00	-6.576381315370652e+00
1	 5.739131667806222e-01	 1.719210241192035e+00	-6.820351747851996e+00
1	 5.337071022755197e-01	 1.728883010078692e+00	-7.053169054843741e+00
1	 4.932699246181828e-01	 1.737733405333628e+00	-7.272964839783348e+00
1	 4.526305032705575e-01	 1.745775545409268e+00	-7.477929832963266e+00
1	 4.118173363003946e-01	 1.753024463220587e+00	-7.666324444015114e+00
1	 8.151188138921801e-01	 1.656389651262230e+00	-5.212602140821373e+00
1	 7.766122165083079e-01	 1.671352775295169e+00	-5.482264579932812e+00
1	 7.376941238321383e-01	 1.685424430328613e+00	-5.750574048982135e+00
1	 6.983943811475419e-01	 1.698612019617553e+00	-6.015587965807238e+00
1	 6.587429032982937e-01	 1.710924226384649e+00	-6.275349896169123e+00
1	 6.187695937312543e-01	 1.722370961090161e+00	-6.527905959542577e+00
1	 5.785042658906995e-01	 1.732963305347800e+00	-6.771320318302856e+00
1	 5.379765673169407e-01	 1.742713452909376e+00	-7.003689602354006e+00
1	 4.972159067686416e-01	 1.751634648145715e+00	-7.223156150243439e+00
1	 4.562513846530479e-01	 1.759741122451803e+00	-7.427919976642539e+00
1	 4.151117270121904e-01	 1.767048029000546e+00	-7.616249404053376e+00
1	 8.215877270874299e-01	 1.669535024288868e+00	-5.168749522278668e+00
1	 7.827755351921207e-01	 1.684616898065521e+00	-5.437531053900698e+00
1	 7.435485823121284e-01	 1.698800228002152e+00	-5.704980931891462e+00
1	 7.039369505882389e-01	 1.712092476107183e+00	-5.969178939526580e+00
1	 6.639707922731833e-01	 1.724502394514735e+00	-6.228189464710951e+00
1	 6.236802481323296e-01	 1.736039972336078e+00	-6.480077887726675e+00
1	 5.830953682141872e-01	 1.746716379130398e+00	-6.722926068563687e+00
1	 5.422460353466614e-01	 1.756543905421082e+00	-6.954846784557811e+00
1	 5.011618916810020e-01	 1.765535900688415e+00	-7.173996997938285e+00
1	 4.598722685699141e-01	 1.773706709270024e+00	-7.378589861642395e+00
1	 4.184061200298669e-01	 1.781071604596829e+00	-7.566905399692970e+00
1	 8.280566455650521e-01	 1.682680408050388e+00	-5.125583664806046e+00
1	 7.889388589086984e-01	 1.697881031667741e+00	-5.393481732998521e+00
1	 7.494030455726264e-01	 1.712176036598776e+00	-5.660061207632498e+00
1	 7.094795245547295e-01	 1.725572943605394e+00	-5.923427669839937e+00
1	 6.691986855168869e-01	 1.738080573733230e+00	-6.181669910931195e+00
1	 6.285909065431682e-01	 1.749708994744632e+00	-6.432876262467683e+00
1	 5.876864742865079e-01	 1.760469464144329e+00	-6.675150043243630e+00
1	 5.465155068625969e-01	 1.770374369227367e+00	-6.906623973032830e+00
1	 5.051078798154598e-01	 1.779437164583574e+00	-7.125473431650449e+00
1	 4.634931554434493e-01	 1.787672307493307e+00	-7.329928470489600e+00
1	 4.217005157376584e-01	 1.795095191645604e+00	-7.518284511523778e+00
1	 8.345255700795510e-01	 1.695825804080252e+00	-5.083084930786801e+00
1	 7.951021883768820e-01	 1.711145177649163e+00	-5.350095278693548e+00
1	 7.552575142964307e-01	 1.725551857678868e+00	-5.615792720498329e+00
1	 7.150221036934218e-01	 1.739053423684801e+00	-5.878311979984100e+00
1	 6.744265836391021e-01	 1.751658765624176e+00	-6.135769743390561e+00
1	 6.335015695364629e-01	 1.763378029910489e+00	-6.386280892854384e+00
1	 5.922775846430843e-01	 1.774222561994095e+00	-6.627973875197473e+00
1	 5.507849823626615e-01	 1.784204845941787e+00	-6.859005055498035e+00
1	 5.090538716322107e-01	 1.793338441453034e+00	-7.077571933325907e+00
1	 4.671140456959468e-01	 1.801637918751031e+00	-7.281925127925093e+00
1	 4.249949145197989e-01	 1.809118791783039e+00	-7.470379066286213e+00
1	 8.409945013854322e-01	 1.708971213911920e+00	-5.041234286883916e+00
1	 8.012655243155109e-01	 1.724409337557121e+00	-5.307351009137850e+00
1	 7.611119891663416e-01	 1.738927692802811e+00	-5.572153996684239e+00
1	 7.205646886507253e-01	 1.752533917918023e+00	-5.833810375820938e+00
1	 6.796544872495266e-01	 1.765236971771615e+00	-6.090468132261595e+00
1	 6.384122376849063e-01	 1.777047079428316e+00	-6.340272209639893e+00
1	 5.968686998193392e-01	 1.787975674284199e+00	-6.581379762889625e+00
1	 5.550544623447694e-01	 1.798035337177901e+00	-6.811974415951990e+00
1	 5.129998675914502e-01	 1.807239732918643e+00	-7.030279401404285e+00
1	 4.707349397497000e-01	 1.815603544672573e+00	-7.234569487732418e+00
1	 4.282893167605222e-01	 1.823142406645302e+00	-7.423181627393570e+00
1	 3.953454038814352e-01	 1.682906724299760e+00	-7.927960881451160e+00
1	 3.560220848416451e-01	 1.689119859320706e+00	-8.100813827184234e+00
1	 3.165854117949879e-01	 1.694602641381182e+00	-8.258003931764947e+00
1	 2.770613785882645e-01	 1.699371756916888e+00	-8.398642491920533e+00
1	 2.374754056886408e-01	 1.703444513999047e+00	-8.521934255187565e+00
1	 1.978522965532911e-01	 1.706838777961158e+00	-8.627175450149396e+00
1	 1.582161980975129e-01	 1.709572907634753e+00	-8.713751194024209e+00
1	 1.185905652642063e-01	 1.711665692492552e+00	-8.781132362485582e+00
1	 7.899812966952448e-02	 1.713136290974417e+00	-8.828872005028446e+00
1	 3.946087227343351e-02	 1.714004170247544e+00	-8.856601386380833e+00
1	 0.000000000000000e+00	 1.714289047627778e+00	-8.864025730633459e+00
1	 3.986397888273381e-01	 1.696930265540623e+00	-7.874102533578476e+00
1	 3.589887913849910e-01	 1.703195174170719e+00	-8.046757344182577e+00
1	 3.192234953648744e-01	 1.708723643861422e+00	-8.203829765139254e+00
1	 2.793701112187151e-01	 1.713532500095309e+00	-8.344368702576119e+00
1	 2.394542712406707e-01	 1.717639195170523e+00	-8.467517611819424e+00
1	 1.995009855734057e-01	 1.721061743291110e+00	-8.572512922460932e+00
1	 1.595346023467897e-01	 1.723818656271432e+00	-8.658681792194407e+00
1	 1.195787719521360e-01	 1.725928880155542e+00	-8.725439274639200e+00
1	 7.965641542658011e-02	 1.727411733029215e+00	-8.772284985471456e+00
1	 3.978969689590328e-02	 1.728286844278154e+00	-8.798799348947380e+00
1	 0.000000000000000e+00	 1.728574095521189e+00	-8.804639503552067e+00
1	 4.019341741579514e-01	 1.710953808416969e+00	-7.821018875951519e+00
1	 3.619554982746881e-01	 1.717270490662191e+00	-7.993528810247666e+00
1	 3.218615792426328e-01	 1.722844647988404e+00	-8.150541764588256e+00
1	 2.816788441184740e-01	 1.727693244925074e+00	-8.291028996040740e+00
1	 2.414331370233987e-01	 1.731833877997279e+00	-8.414057399671162e+00
1	 2.011496747855978e-01	 1.735284710279628e+00	-8.518788457601817e+00
1	 1.608530067495474e-01	 1.738064406569329e+00	-8.604476456138096e+00
1	 1.205669787550088e-01	 1.740192069481785e+00	-8.670466056210364e+00
1	 8.031470126013159e-02	 1.741687176748694e+00	-8.716189302371312e+00
1	 4.011852155654447e-02	 1.742569519974292e+00	-8.741162154119227e+00
1	 0.000000000000000e+00	 1.742859145080407e+00	-8.744980620612628e+00
1	 4.052285602575090e-01	 1.724977354564966e+00	-7.768700599238466e+00
1	 3.649222058567783e-01	 1.731345810437356e+00	-7.941121234569448e+00
1	 3.244996637360026e-01	 1.736965655409712e+00	-8.098132779277627e+00
1	 2.839875775568942e-01	 1.741853993058424e+00	-8.238614011452835e+00
1	 2.434120032677271e-01	 1.746028564135532e+00	-8.361540420450583e+00
1	 2.027983643822757e-01	 1.749507680586244e+00	-8.465983807146699e+00
1	 1.621714114596788e-01	 1.752310160190644e+00	-8.551111079665132e+00
1	 1.215551857881991e-01	 1.754455262135521e+00	-8.616182329546850e+00
1	 8.097298724705299e-02	 1.755962623798535e+00	-8.660548274425587e+00
1	 4.044734629376683e-02	 1.756852199002485e+00	-8.683647152763458e+00
1	 0.000000000000000e+00	 1.757144197972236e+00	-8.685001154304546e+00
1	 4.085229475102454e-01	 1.739000905620783e+00	-7.717138695075191e+00
1	 3.678889144773020e-01	 1.745421135138444e+00	-7.889527852498276e+00
1	 3.271377491527241e-01	 1.751086667772930e+00	-8.046595889668865e+00
1	 2.862963118033286e-01	 1.756014746147594e+00	-8.187114690514379e+00
1	 2.453908702045579e-01	 1.760223255241496e+00	-8.309953902210955e+00
1	 2.044470545558480e-01	 1.763730655870484e+00	-8.414081311947546e+00
1	 1.634898166310764e-01	 1.766555918797576e+00	-8.498562334891057e+00
1	 1.225433931670815e-01	 1.768718459780995e+00	-8.562558697732335e+00
1	 8.163127346421838e-02	 1.770238075844416e+00	-8.605326404605892e+00
1	 4.077617114598011e-02	 1.771134883029259e+00	-8.626213072808140e+00
1	 0.000000000000000e+00	 1.771429255863481e+00	-8.624654724817733e+00
1	 4.118173363003946e-01	 1.753024463220587e+00	-7.666324444015114e+00
1	 3.708556244823005e-01	 1.759496466407687e+00	-7.838742116486353e+00
1	 3.297758358005368e-01	 1.765207686725638e+00	-7.995924398254375e+00
1	 2.886050471271304e-01	 1.770175505844825e+00	-8.136522265375033e+00
1	 2.473697380647935e-01	 1.774417952971386e+00	-8.259285482283889e+00
1	 2.060957454987230e-01	 1.777953637791879e+00	-8.363063878550669e+00
1	 1.648082224176328e-01	 1.780801684052323e+00	-8.446807641096266e+00
1	 1.235316010070308e-01	 1.782981664082448e+00	-8.509566705353908e+00
1	 8.228955998850176e-02	 1.784513534552017e+00	-8.550489332791550e+00
1	 4.110499615159411e-02	 1.785417573721143e+00	-8.568819964175066e+00
1	 0.000000000000000e+00	 1.785714320420949e+00	-8.563896438163452e+00
1	 4.151117270121904e-01	 1.767048029000546e+00	-7.616249404053376e+00
1	 3.738223362178146e-01	 1.773571805887316e+00	-7.788757687460601e+00
1	 3.324139239871811e-01	 1.779328713915424e+00	-7.946111820733892e+00
1	 2.909137837976528e-01	 1.784336273802357e+00	-8.086828247092843e+00
1	 2.493486070793357e-01	 1.788612658981417e+00	-8.209523191025124e+00
1	 2.077444374033094e-01	 1.792176628009957e+00	-8.312914956737320e+00
1	 1.661266289732406e-01	 1.795047457617085e+00	-8.395825135068579e+00
1	 1.245198094234214e-01	 1.797244876704125e+00	-8.457178801137898e+00
1	 8.294784689677716e-02	 1.798789001587017e+00	-8.496003790659264e+00
1	 4.143382134901862e-02	 1.799700272744663e+00	-8.511429146335052e+00
1	 0.000000000000000e+00	 1.799999393311444e+00	-8.502682827242497e+00
1	 4.184061200298669e-01	 1.781071604596829e+00	-7.566905399692970e+00
1	 3.767890500298854e-01	 1.787647155219566e+00	-7.739568426603192e+00
1	 3.350520140203967e-01	 1.793449750989868e+00	-7.897151877607572e+00
1	 2.932225220842488e-01	 1.798497051672427e+00	-8.038024414640450e+00
1	 2.513274774790871e-01	 1.802807374927803e+00	-8.160655436328375e+00
1	 2.093931304620154e-01	 1.806399628184248e+00	-8.263618518125330e+00
1	 1.674450364517922e-01	 1.809293241154060e+00	-8.345593642847104e+00
1	 1.255080185316279e-01	 1.811508099310267e+00	-8.405368302351533e+00
1	 8.360613426591867e-02	 1.813064478615097e+00	-8.441837558704190e+00
1	 4.176264677666337e-02	 1.813982981766347e+00	-8.454003158341791e+00
1	 0.000000000000000e+00	 1.814284476201773e+00	-8.440971795697877e+00
1	 4.217005157376584e-01	 1.795095191645604e+00	-7.518284511523779e+00
1	 3.797557662645539e-01	 1.801722516046665e+00	-7.691168387517354e+00
1	 3.376901062079234e-01	 1.807570799596554e+00	-7.849038486163718e+00
1	 2.955312622562715e-01	 1.812657841107276e+00	-7.990102804426832e+00
1	 2.533063494949497e-01	 1.817002102466761e+00	-8.112670988865208e+00
1	 2.110418248672496e-01	 1.820622639974282e+00	-8.215159035773956e+00
1	 1.687634450071802e-01	 1.823539036325449e+00	-8.296092652791060e+00
1	 1.264962284470250e-01	 1.825771333565119e+00	-8.354109360873595e+00
1	 8.426442217280029e-02	 1.827339967301935e+00	-8.387959425276465e+00
1	 4.209147247293815e-02	 1.828265702452721e+00	-8.396505711207995e+00
1	 0.000000000000000e+00	 1.828569570758740e+00	-8.378722564400308e+00
1	 4.249949145197989e-01	 1.809118791783039e+00	-7.470379066286213e+00
1	 3.827224852678611e-01	 1.815797890010847e+00	-7.643551808757815e+00
1	 3.403282008575016e-01	 1.821691861383066e+00	-7.801765752838641e+00
1	 2.978400045830739e-01	 1.826818643759138e+00	-7.943055700306247e+00
1	 2.552852233578258e-01	 1.831196843254504e+00	-8.065558968011684e+00
1	 2.126905208114204e-01	 1.834845665039586e+00	-8.167521464737945e+00
1	 1.700818547932973e-01	 1.837784844793450e+00	-8.247302289901119e+00
1	 1.274844392849872e-01	 1.840034581132922e+00	-8.303376930843383e+00
1	 8.492271069429605e-02	 1.841615469313210e+00	-8.334339147522908e+00
1	 4.242029847625274e-02	 1.842548436470314e+00	-8.338901642497621e+00
1	 0.000000000000000e+00	 1.842854678649152e+00	-8.315895620423003e+00
1	 4.282893167605222e-01	 1.823142406645302e+00	-7.423181627393570e+00
1	 3.856892073858478e-01	 1.829873278754343e+00	-7.596713106706086e+00
1	 3.429662982768709e-01	 1.835812937996986e+00	-7.755327965929920e+00
1	 3.001487493340093e-01	 1.840979461280257e+00	-7.896875624048670e+00
1	 2.572640992986176e-01	 1.845391598947249e+00	-8.019308828424617e+00
1	 2.143392184869364e-01	 1.849068705039692e+00	-8.120691223518786e+00
1	 1.714002659640361e-01	 1.852030668220261e+00	-8.199203291326747e+00
1	 1.284726511608891e-01	 1.854297843677920e+00	-8.253146737803219e+00
1	 8.558099990728006e-02	 1.855890986314603e+00	-8.280947414132362e+00
1	 4.274912482501691e-02	 1.856831185485652e+00	-8.281156873013675e+00
1	 0.000000000000000e+00	 1.857139801539814e+00	-8.252452668372188e+00
1	 1.857139801539814e+00	 0.000000000000000e+00	 6.143573180211718e-01
1	 1.856831185485652e+00	 4.274912482501749e-02	 6.153421467958787e-01
1	 1.855890986314602e+00	 8.558099990728060e-02	 6.134005559378489e-01
1	 1.854297843677920e+00	 1.284726511608895e-01	 6.087701775070260e-01
1	 1.852030668220261e+00	 1.714002659640365e-01	 6.016909132040225e-01
1	 1.849068705039691e+00	 2.143392184869368e-01	 5.924030773896772e-01
1	 1.845391598947249e+00	 2.572640992986178e-01	 5.811453475374763e-01
1	 1.840979461280257e+00	 3.001487493340095e-01	 5.681525279634050e-01
1	 1.835812937996986e+00	 3.429662982768709e-01	 5.536531364100168e-01
1	 1.829873278754343e+00	 3.856892073858478e-01	 5.378668271165834e-01
1	 1.823142406645302e+00	 4.282893167605222e-01	 5.210016683348192e-01
1	 1.871425938885499e+00	 0.000000000000000e+00	 6.225138858080690e-01
1	 1.871114948787420e+00	 4.307797452551081e-02	 6.244769296775562e-01
1	 1.870167517088809e+00	 8.623933586883083e-02	 6.232296694458399e-01
1	 1.868562119125425e+00	 1.294609332147644e-01	 6.190604716409875e-01
1	 1.866277503311067e+00	 1.727187707617287e-01	 6.122597158132688e-01
1	 1.863292755085735e+00	 2.159880332445210e-01	 6.031174290224283e-01
1	 1.859587362677221e+00	 2.592431157688597e-01	 5.919206841294712e-01
1	 1.855141284428371e+00	 3.024576580397680e-01	 5.789507701607837e-01
1	 1.849935017415582e+00	 3.456045830397631e-01	 5.644801477186734e-01
1	 1.843949667057868e+00	 3.886561401843552e-01	 5.487692075084684e-01
1	 1.837167017390747e+00	 4.315839529516940e-01	 5.320628554723240e-01
1	 1.885712081233184e+00	 0.000000000000000e+00	 6.319627692799220e-01
1	 1.885398717090345e+00	 4.340682434133453e-02	 6.351137612456143e-01
1	 1.884444052861604e+00	 8.689767206117580e-02	 6.347021574050528e-01
1	 1.882826399567176e+00	 1.304492156149813e-01	 6.310794276840297e-01
1	 1.880524343389939e+00	 1.740372760213404e-01	 6.245976876996466e-01
1	 1.877516810111782e+00	 2.176368485795780e-01	 6.156065757504696e-01
1	 1.873783131377193e+00	 2.612221329320474e-01	 6.044498392393771e-01
1	 1.869303112534495e+00	 3.047665675538066e-01	 5.914616434310886e-01
1	 1.864057101778160e+00	 3.482428687260726e-01	 5.769626215456458e-01
1	 1.858026060289259e+00	 3.916230740211588e-01	 5.612556917501478e-01
1	 1.851191633045813e+00	 4.348785902957209e-01	 5.446216735431983e-01
1	 1.899998216915481e+00	 0.000000000000000e+00	 6.424242271110324e-01
1	 1.899682478728979e+00	 4.373567400390595e-02	 6.470485075696503e-01
1	 1.898720581973453e+00	 8.755600794664044e-02	 6.476803907868263e-01
1	 1.897090673353649e+00	 1.314374975544066e-01	 6.447463497155322e-01
1	 1.894771176821610e+00	 1.753557806660619e-01	 6.386710372488255e-01
1	 1.891740858501185e+00	 2.192856631455580e-01	 6.298731608038391e-01
1	 1.887978893453634e+00	 2.632011491719851e-01	 6.187610014658019e-01
1	 1.883464934032833e+00	 3.070754759905426e-01	 6.057275974163510e-01
1	 1.878179179551402e+00	 3.508811531812545e-01	 5.911456192748693e-01
1	 1.872102446952540e+00	 3.945900064733498e-01	 5.753619734256522e-01
1	 1.865216242156835e+00	 4.381732261021032e-01	 5.586921782605825e-01
1	 1.914284334264999e+00	 0.000000000000000e+00	 6.536268655230288e-01
1	 1.913966222037872e+00	 4.406452324464238e-02	 6.600831259915798e-01
1	 1.912997092764816e+00	 8.821434298754971e-02	 6.620308469949225e-01
1	 1.911354928835323e+00	 1.324257782259066e-01	 6.599829489259379e-01
1	 1.909017991970809e+00	 1.766742836190831e-01	 6.544469798657182e-01
1	 1.905964888637292e+00	 2.209344755959106e-01	 6.459197467855928e-01
1	 1.902174637313011e+00	 2.651801628724775e-01	 6.348815161713932e-01
1	 1.897626737357590e+00	 3.093843814643931e-01	 6.217898127816587e-01
1	 1.892301239201991e+00	 3.535194342507644e-01	 6.070728553682945e-01
1	 1.886178815551731e+00	 3.975569351180192e-01	 5.911226789262339e-01
1	 1.879240833270147e+00	 4.414678576803407e-01	 5.742880042271615e-01
1	 1.928570421614352e+00	 0.000000000000000e+00	 6.653073290728511e-01
1	 1.928249935351575e+00	 4.439337179496115e-02	 6.740254395211750e-01
1	 1.927273573576156e+00	 8.887267664622857e-02	 6.776239578031633e-01
1	 1.925619154362675e+00	 1.334140568223477e-01	 6.767132545117462e-01
1	 1.923264777202266e+00	 1.779927838035942e-01	 6.718937007363514e-01
1	 1.920188888903455e+00	 2.225832845840858e-01	 6.637488187226828e-01
1	 1.916370351361791e+00	 2.671591724173291e-01	 6.528379167800550e-01
1	 1.911788510942970e+00	 3.116932820897748e-01	 6.396882482792090e-01
1	 1.906423269196610e+00	 3.561577097800575e-01	 6.247867473133282e-01
1	 1.900255154590854e+00	 4.005238575322578e-01	 6.085714070324679e-01
1	 1.893265394932085e+00	 4.447624823399337e-01	 5.914223805816718e-01
1	 1.942856467296148e+00	 0.000000000000000e+00	 6.772100050518548e-01
1	 1.942533607004642e+00	 4.472221938627953e-02	 6.886889211623985e-01
1	 1.941550012747933e+00	 8.953100838500189e-02	 6.943339639865460e-01
1	 1.939883338286183e+00	 1.344023325365960e-01	 6.948635284926250e-01
1	 1.937511520880712e+00	 1.793112801427852e-01	 6.909803192288692e-01
1	 1.934412847683026e+00	 2.242320887635338e-01	 6.833627869824976e-01
1	 1.930566024006441e+00	 2.691381761903444e-01	 6.726559546964769e-01
1	 1.925950243223175e+00	 3.140021759811051e-01	 6.594616857405646e-01
1	 1.920545258001943e+00	 3.587959776145891e-01	 6.443284633716165e-01
1	 1.914331452573932e+00	 4.034907712931571e-01	 6.277407667539593e-01
1	 1.907289915688981e+00	 4.480570973903820e-01	 6.101081459566172e-01
1	 1.957142459643000e+00	 0.000000000000000e+00	 6.890867408020546e-01
1	 1.956817225331620e+00	 4.505106575001486e-02	 7.038924876642636e-01
1	 1.955826398620612e+00	 9.018933766619465e-02	 7.120387763047901e-01
1	 1.954147468956323e+00	 1.353906045615179e-01	 7.143621842509487e-01
1	 1.951758211370878e+00	 1.806297715598461e-01	 7.116768548501093e-01
1	 1.948636753359356e+00	 2.258808867877044e-01	 7.047639900619334e-01
1	 1.944761643653427e+00	 2.711171725753280e-01	 6.943606279181747e-01
1	 1.940111922632410e+00	 3.163110612528009e-01	 6.811477731028278e-01
1	 1.934667194084671e+00	 3.614342355998145e-01	 6.657379682412725e-01
1	 1.928407698004987e+00	 4.064576739778080e-01	 6.486624135154870e-01
1	 1.921314384087171e+00	 4.513517001411860e-01	 6.303577627823277e-01
1	 1.971428386987518e+00	 0.000000000000000e+00	 7.006965732957526e-01
1	 1.971100778667064e+00	 4.537991061758444e-02	 7.194603022191475e-01
1	 1.970102719534652e+00	 9.084766395213176e-02	 7.306198425165487e-01
1	 1.968411534723574e+00	 1.363788720899798e-01	 7.351397086051289e-01
1	 1.966004837037493e+00	 1.819482569779670e-01	 7.339541946790443e-01
1	 1.962860594315794e+00	 2.275296773100474e-01	 7.279546972553517e-01
1	 1.958957198709218e+00	 2.730961599560843e-01	 7.179762084062216e-01
1	 1.954273537604879e+00	 3.186199360192795e-01	 7.047830655681818e-01
1	 1.948789065911478e+00	 3.640724815811890e-01	 6.890540667380899e-01
1	 1.942483879388040e+00	 4.094245631633016e-01	 6.713670837732595e-01
1	 1.935338788672990e+00	 4.546462879018455e-01	 6.521833309704482e-01
1	 1.985714237662315e+00	 0.000000000000000e+00	 7.118054703623350e-01
1	 1.985384255345523e+00	 4.570875372040557e-02	 7.352215856590122e-01
1	 1.984378963830518e+00	 9.150598670513820e-02	 7.499620201214844e-01
1	 1.982675523938412e+00	 1.373671343148479e-01	 7.571285872393344e-01
1	 1.980251386245289e+00	 1.832667353203382e-01	 7.577840622027842e-01
1	 1.977084358935692e+00	 2.291784589840129e-01	 7.529371112077297e-01
1	 1.973152677580279e+00	 2.750751367164180e-01	 7.435262682770997e-01
1	 1.968435076574785e+00	 3.209287983949576e-01	 7.304030649906316e-01
1	 1.962910861949046e+00	 3.667107134041679e-01	 7.143144455953713e-01
1	 1.956559985227112e+00	 4.123914364267289e-01	 6.958846281401914e-01
1	 1.949363117992771e+00	 4.579408579818608e-01	 6.755966010080449e-01
1	 2.000000000000000e+00	 0.000000000000000e+00	 7.221860829811816e-01
1	 1.999667643701550e+00	 4.603759478989555e-02	 7.510104357255960e-01
1	 1.998655119848670e+00	 9.216430538753885e-02	 7.699534545443273e-01
1	 1.996939424951317e+00	 1.383553904289885e-01	 7.802632333221103e-01
1	 1.994497847358994e+00	 1.845852055101493e-01	 7.831389874853537e-01
1	 1.991308035602400e+00	 2.308272304630508e-01	 7.797133703584195e-01
1	 1.987348068673079e+00	 2.770541012401335e-01	 7.710337048744145e-01
1	 1.982596527976333e+00	 3.232376464942529e-01	 7.580422575783510e-01
1	 1.977032570664059e+00	 3.693489289142068e-01	 7.415557134761854e-01
1	 1.970636004026227e+00	 4.153582913451809e-01	 7.222440430945998e-01
1	 1.963387360592848e+00	 4.612354076907317e-01	 7.006089864916989e-01
1	 1.823142406645302e+00	 4.282893167605222e-01	 5.210016683348192e-01
1	 1.815603544672573e+00	 4.707349397496997e-01	 5.019422558914114e-01
1	 1.807239732918643e+00	 5.129998675914498e-01	 4.794791340236338e-01
1	 1.798035337177901e+00	 5.550544623447690e-01	 4.536424724093260e-01
1	 1.787975674284199e+00	 5.968686998193390e-01	 4.244190921441596e-01
1	 1.777047079428317e+00	 6.384122376849063e-01	 3.917485556496147e-01
1	 1.765236971771615e+00	 6.796544872495263e-01	 3.555194994358522e-01
1	 1.752533917918022e+00	 7.205646886507250e-01	 3.155662867572876e-01
1	 1.738927692802811e+00	 7.611119891663414e-01	 2.716660588559950e-01
1	 1.724409337557121e+00	 8.012655243155106e-01	 2.235362635283648e-01
1	 1.708971213911921e+00	 8.409945013854322e-01	 1.708327379848468e-01
1	 1.837167017390747e+00	 4.315839529516940e-01	 5.320628554723240e-01
1	 1.829570162359090e+00	 4.743560909394626e-01	 5.132303414768573e-01
1	 1.821142011580398e+00	 5.169461437735805e-01	 4.910160211237750e-01
1	 1.811866810582170e+00	 5.593242455217806e-01	 4.654373327108544e-01
1	 1.801729763247288e+00	 6.014601410312405e-01	 4.364685902834791e-01
1	 1.790717099649317e+00	 6.433232545618968e-01	 4.040372089666259e-01
1	 1.778816142170903e+00	 6.848827621168463e-01	 3.680201780567069e-01
1	 1.766015369464010e+00	 7.261076672119187e-01	 3.282408573494840e-01
1	 1.752304477807102e+00	 7.669668797889304e-01	 2.844661736367949e-01
1	 1.737674439414772e+00	 8.074292979405400e-01	 2.364042941632110e-01
1	 1.722117557260229e+00	 8.474638920795502e-01	 1.837028519118907e-01
1	 1.851191633045813e+00	 4.348785902957209e-01	 5.446216735431982e-01
1	 1.843536784934809e+00	 4.779772433962460e-01	 5.259285262194772e-01
1	 1.835044295108718e+00	 5.208924213364344e-01	 5.038871124146669e-01
1	 1.825698288828111e+00	 5.635940301926754e-01	 4.784974417473309e-01
1	 1.815483857024859e+00	 6.060515838495604e-01	 4.497172982634764e-01
1	 1.804387124655278e+00	 6.482342731571334e-01	 4.174586993580304e-01
1	 1.792395317323264e+00	 6.901110388134489e-01	 3.815846057096366e-01
1	 1.779496825728795e+00	 7.316506477125575e-01	 3.419059545889463e-01
1	 1.765681267493491e+00	 7.728217724601689e-01	 2.981790900668693e-01
1	 1.750939545915385e+00	 8.135930737223795e-01	 2.501036632640464e-01
1	 1.735263905209901e+00	 8.539332850375116e-01	 1.973210736755458e-01
1	 1.865216242156835e+00	 4.381732261021032e-01	 5.586921782605824e-01
1	 1.857503400993457e+00	 4.815983941629300e-01	 5.400246582790326e-01
1	 1.848946572149907e+00	 5.248386970574064e-01	 5.180574512524018e-01
1	 1.839529760619886e+00	 5.678638128706813e-01	 4.927685894289494e-01
1	 1.829237944384306e+00	 6.106430245248657e-01	 4.640954410140638e-01
1	 1.818057143282288e+00	 6.531452894602179e-01	 4.319314990931900e-01
1	 1.805974486139023e+00	 6.953393130698571e-01	 3.961234231690815e-01
1	 1.792978275702542e+00	 7.371936256261624e-01	 3.564684010258866e-01
1	 1.779058050937662e+00	 7.786766623988440e-01	 3.127118994210711e-01
1	 1.764204646225886e+00	 8.197568466275468e-01	 2.645458714168696e-01
1	 1.748410247024885e+00	 8.604026749762184e-01	 2.116074858424718e-01
1	 1.879240833270147e+00	 4.414678576803407e-01	 5.742880042271616e-01
1	 1.871469999128758e+00	 4.852195402823947e-01	 5.555069472605669e-01
1	 1.862848831350267e+00	 5.287849677138905e-01	 5.334931234519981e-01
1	 1.853361214661657e+00	 5.721335900690259e-01	 5.081981831346434e-01
1	 1.842992014093027e+00	 6.152344593077239e-01	 4.795353258249337e-01
1	 1.831727144366439e+00	 6.580562994607521e-01	 4.473765138581373e-01
1	 1.819553637528504e+00	 7.005675806165934e-01	 4.115499385859533e-01
1	 1.806459708375416e+00	 7.427365964262533e-01	 3.718378006914977e-01
1	 1.792434817215295e+00	 7.845315448237445e-01	 3.279744665016886e-01
1	 1.777469729513201e+00	 8.259206116225587e-01	 2.796450611248592e-01
1	 1.761556571969129e+00	 8.668720566125698e-01	 2.264845566805367e-01
1	 1.893265394932085e+00	 4.447624823399337e-01	 5.914223805816720e-01
1	 1.885436567934439e+00	 4.888406787975204e-01	 5.723639508710887e-01
1	 1.876751061356101e+00	 5.327312300832813e-01	 5.501612187170574e-01
1	 1.867192639657584e+00	 5.764033583009371e-01	 5.247351878419139e-01
1	 1.856746054918420e+00	 6.198258844487023e-01	 4.959712652543862e-01
1	 1.845397116743821e+00	 6.629672991483387e-01	 4.637169926592353e-01
1	 1.833132760402026e+00	 7.057958371841795e-01	 4.277800287224182e-01
1	 1.819941112737581e+00	 7.482795555863506e-01	 3.879264361019916e-01
1	 1.805811555402071e+00	 7.903864149536577e-01	 3.438793269314157e-01
1	 1.790734784944258e+00	 8.320843636739326e-01	 2.953179189692721e-01
1	 1.774702869306581e+00	 8.733414246634675e-01	 2.418770518021356e-01
1	 1.907289915688981e+00	 4.480570973903820e-01	 6.101081459566172e-01
1	 1.899403096004228e+00	 4.924618067511872e-01	 5.905845621635898e-01
1	 1.890653250813712e+00	 5.366774809429736e-01	 5.680297937671950e-01
1	 1.881024024311834e+00	 5.806731140796429e-01	 5.423300688920040e-01
1	 1.870500055627877e+00	 6.244172961983684e-01	 5.133395034315648e-01
1	 1.859067049250523e+00	 6.678782845125785e-01	 4.808784416927435e-01
1	 1.846711843669914e+00	 7.110240785031383e-01	 4.447320445341578e-01
1	 1.833422477779206e+00	 7.538224985799745e-01	 4.046491697963764e-01
1	 1.819188254573673e+00	 7.962412680073720e-01	 3.603415889673380e-01
1	 1.803999801685983e+00	 8.382480977481868e-01	 3.114835820770711e-01
1	 1.787849128301191e+00	 8.798107738458119e-01	 2.577119496968615e-01
1	 1.921314384087171e+00	 4.513517001411860e-01	 6.303577627823277e-01
1	 1.913369571931849e+00	 4.960829211862750e-01	 6.101579973384059e-01
1	 1.904555388369401e+00	 5.406237170703617e-01	 5.870678370767392e-01
1	 1.894855357328564e+00	 5.849428539183713e-01	 5.609347372561541e-01
1	 1.884254004988798e+00	 6.290086908072895e-01	 5.315781455791350e-01
1	 1.872736930722637e+00	 6.727892515430747e-01	 4.987885419781125e-01
1	 1.860290876242493e+00	 7.162523003039925e-01	 4.623267208785340e-01
1	 1.846903792490453e+00	 7.593654208806461e-01	 4.219233501768377e-01
1	 1.832564903805781e+00	 8.020960992036745e-01	 3.772788396054534e-01
1	 1.817264768905303e+00	 8.444118088118374e-01	 3.280635486757586e-01
1	 1.800995338216907e+00	 8.862800988765028e-01	 2.739183609552260e-01
1	 1.935338788672990e+00	 4.546462879018455e-01	 6.521833309704482e-01
1	 1.927335984311028e+00	 4.997040191456642e-01	 6.310737840738040e-01
1	 1.918457462669473e+00	 5.445699352428400e-01	 6.072452351431068e-01
1	 1.908686627411940e+00	 5.892125743303499e-01	 5.805024971762643e-01
1	 1.898007891768577e+00	 6.336000645260323e-01	 5.506270905934216e-01
1	 1.886406749996252e+00	 6.777001962294286e-01	 5.173770705645407e-01
1	 1.873869847030084e+00	 7.214804983172646e-01	 4.804870901397832e-01
1	 1.860385045861490e+00	 7.649083179618846e-01	 4.396687214339789e-01
1	 1.845941492174076e+00	 8.079509037613540e-01	 3.946110547585919e-01
1	 1.830529675769143e+00	 8.505754918314030e-01	 3.449815925285127e-01
1	 1.814141488317677e+00	 8.927493944724415e-01	 2.904274509966505e-01
1	 1.949363117992771e+00	 4.579408579818608e-01	 6.755966010080448e-01
1	 1.941302321735491e+00	 5.033250976722348e-01	 6.533217503591087e-01
1	 1.932359462360228e+00	 5.485161322378032e-01	 6.285327402079678e-01
1	 1.922517823266122e+00	 5.934822718288065e-01	 6.009879960607026e-01
1	 1.911761704734611e+00	 6.381914136051650e-01	 5.704279665283509e-01
1	 1.900076495907460e+00	 6.826111145612423e-01	 5.365758251311605e-01
1	 1.887448744943010e+00	 7.267086682734761e-01	 4.991383995744504e-01
1	 1.873866226882480e+00	 7.704511852972111e-01	 4.578073373516402e-01
1	 1.859318008754241e+00	 8.138056768991979e-01	 4.122605133030433e-01
1	 1.843794511444432e+00	 8.567391417734002e-01	 3.621636810546787e-01
1	 1.827287567867451e+00	 8.992186553505289e-01	 3.071723661255761e-01
1	 1.963387360592848e+00	 4.612354076907317e-01	 7.006089864916989e-01
1	 1.955268572798965e+00	 5.069461538088669e-01	 6.768920138053549e-01
1	 1.946261376087971e+00	 5.524623048326455e-01	 6.509019393588036e-01
1	 1.936348933595271e+00	 5.977519429269690e-01	 6.223471765227961e-01
1	 1.925515432654296e+00	 6.427827342952540e-01	 5.909240688383195e-01
1	 1.913746157292350e+00	 6.875220025281178e-01	 5.563185518116542e-01
1	 1.901027558891593e+00	 7.319368059031507e-01	 5.182080321913912e-01
1	 1.887347324543591e+00	 7.759940183601458e-01	 4.762634787977262e-01
1	 1.872694442621957e+00	 8.196604138359943e-01	 4.301517148008426e-01
1	 1.857059265098094e+00	 8.629027536043464e-01	 3.795378969517431e-01
1	 1.840433566130177e+00	 9.056878762276653e-01	 3.240881627497540e-01
1	 1.708971213911921e+00	 8.409945013854322e-01	 1.708327379848468e-01
1	 1.692605878429240e+00	 8.802710158444028e-01	 1.125944553300706e-01
1	 1.675309537819501e+00	 9.190618649712039e-01	 4.793560714943396e-02
1	 1.657078811545492e+00	 9.573369733799312e-01	-2.343633380832455e-02
1	 1.637911814921611e+00	 9.950666874472247e-01	-1.018155982088723e-01
1	 1.617808190139119e+00	 1.032221864511473e+00	-1.874958422173699e-01
1	 1.596769131566166e+00	 1.068773961727374e+00	-2.807677337546776e-01
1	 1.574797405047172e+00	 1.104695124050099e+00	-3.819164287317307e-01
1	 1.551897360966147e+00	 1.139958270817221e+00	-4.912189667746903e-01
1	 1.528074940881947e+00	 1.174537180395669e+00	-6.089416192075282e-01
1	 1.503337677589890e+00	 1.208406572365371e+00	-7.353372247368231e-01
1	 1.722117557260229e+00	 8.474638920795502e-01	 1.837028519118907e-01
1	 1.705626330646489e+00	 8.870425430173238e-01	 1.254838032634086e-01
1	 1.688196937103913e+00	 9.261317926190925e-01	 6.094119142573512e-02
1	 1.669825970090350e+00	 9.647013341425724e-01	-1.022867448489206e-02
1	 1.650511530422169e+00	 1.002721285852451e+00	-8.832992311947180e-02
1	 1.630253257538177e+00	 1.040162280905763e+00	-1.736646937661999e-01
1	 1.609052354994264e+00	 1.076995556889963e+00	-2.665305861148682e-01
1	 1.586911609911249e+00	 1.113193044483923e+00	-3.672180154293090e-01
1	 1.563835406138682e+00	 1.148727454705887e+00	-4.760075051813901e-01
1	 1.539829730941159e+00	 1.183572364211581e+00	-5.931669522179732e-01
1	 1.514902175060389e+00	 1.217702298110054e+00	-7.189489019064340e-01
1	 1.735263905209901e+00	 8.539332850375116e-01	 1.973210736755458e-01
1	 1.718646787421024e+00	 8.938140725599182e-01	 1.390378137510561e-01
1	 1.701084340899041e+00	 9.332017227411900e-01	 7.452868450702449e-02
1	 1.682573133096854e+00	 9.720656974825775e-01	 3.480666755993789e-03
1	 1.663111250332794e+00	 1.010375886936732e+00	-7.441857181973388e-02
1	 1.642698329293209e+00	 1.048102700079252e+00	-1.594781225067411e-01
1	 1.621335582721734e+00	 1.085217154930274e+00	-2.520011699075123e-01
1	 1.599025819015587e+00	 1.121690967892286e+00	-3.522822456439157e-01
1	 1.575773455489876e+00	 1.157496641664130e+00	-4.606044356488443e-01
1	 1.551584525114940e+00	 1.192607551190254e+00	-5.772365780781437e-01
1	 1.526466676578907e+00	 1.226998027108758e+00	-7.024304909729048e-01
1	 1.748410247024885e+00	 8.604026749762184e-01	 2.116074858424718e-01
1	 1.731667238119636e+00	 9.005855989422995e-01	 1.531869229652534e-01
1	 1.713971738680369e+00	 9.402716495638588e-01	 8.863821030903424e-02
1	 1.695320290155044e+00	 9.794300573857910e-01	 1.764080059625911e-02
1	 1.675710964363958e+00	 1.018030484448819e+00	-6.012417965874961e-02
1	 1.655143395241000e+00	 1.056043115547207e+00	-1.449712707638608e-01
1	 1.633618804717539e+00	 1.093438749133876e+00	-2.372079194982738e-01
1	 1.611140022467182e+00	 1.130188887335035e+00	-3.371316506132479e-01
1	 1.587711499270573e+00	 1.166265824530218e+00	-4.450272062375245e-01
1	 1.563339313803775e+00	 1.201642733952688e+00	-5.611636918416490e-01
1	 1.538031172701298e+00	 1.236293751769691e+00	-6.857917692646267e-01
1	 1.761556571969129e+00	 8.668720566125698e-01	 2.264845566805366e-01
1	 1.744687672109121e+00	 9.073571166345787e-01	 1.678636436481448e-01
1	 1.726859119923383e+00	 9.473415673134628e-01	 1.032116800451473e-01
1	 1.708067430854960e+00	 9.867944078380598e-01	 3.220235665801774e-02
1	 1.688310662226134e+00	 1.025685072137461e+00	-4.548810953120191e-02
1	 1.667588445218332e+00	 1.063983520824892e+00	-1.301782321754016e-01
1	 1.645902010950641e+00	 1.101660332786341e+00	-2.221784208888946e-01
1	 1.623254210373027e+00	 1.138686795872015e+00	-3.217880894947034e-01
1	 1.599649527731620e+00	 1.175034996142415e+00	-4.292927447160221e-01
1	 1.575094087408144e+00	 1.210677905119885e+00	-5.449610952549090e-01
1	 1.549595653983415e+00	 1.245589464501062e+00	-6.690422228285271e-01
1	 1.774702869306581e+00	 8.733414246634675e-01	 2.418770518021356e-01
1	 1.757708078756272e+00	 9.141286201068685e-01	 1.830024881968247e-01
1	 1.739746474103564e+00	 9.544114702163639e-01	 1.181927260169822e-01
1	 1.720814544786643e+00	 9.941587428252298e-01	 4.711742722468243e-02
1	 1.700910333629795e+00	 1.033339643751411e+00	-3.055049903588680e-02
1	 1.680033469061990e+00	 1.071923909427571e+00	-1.151320905715600e-01
1	 1.658185191390005e+00	 1.109881899173237e+00	-2.069394431853093e-01
1	 1.635368372840116e+00	 1.147184686563073e+00	-3.062727743119792e-01
1	 1.611587531123863e+00	 1.183804149338989e+00	-4.134174778926215e-01
1	 1.586848836328530e+00	 1.219713057312842e+00	-5.286412113913661e-01
1	 1.561160110981111e+00	 1.254885157711081e+00	-6.521910572903369e-01
1	 1.787849128301191e+00	 8.798107738458119e-01	 2.577119496968615e-01
1	 1.770728447427880e+00	 9.209001038292814e-01	 1.985398951340858e-01
1	 1.752633790696398e+00	 9.614813524989267e-01	 1.335266383194082e-01
1	 1.733561621540131e+00	 1.001523056333147e+00	 6.233951343938177e-02
1	 1.713509968285415e+00	 1.040994193039420e+00	-1.535030555836969e-02
1	 1.692478456608756e+00	 1.079864274870510e+00	-9.986495714283988e-02
1	 1.670468336004593e+00	 1.118103441580136e+00	-1.915169686806083e-01
1	 1.647482499975440e+00	 1.155682552468055e+00	-2.906062938035803e-01
1	 1.623525499698146e+00	 1.192573276958207e+00	-3.974173500958639e-01
1	 1.598603550965414e+00	 1.228748183152560e+00	-5.122160986415043e-01
1	 1.572724534250239e+00	 1.264180823807955e+00	-6.352472082368190e-01
1	 1.800995338216907e+00	 8.862800988765028e-01	 2.739183609552260e-01
1	 1.783748767490742e+00	 9.276715622719288e-01	 2.144141587922475e-01
1	 1.765521059177368e+00	 9.685512083875137e-01	 1.491603043114409e-01
1	 1.746308650705469e+00	 1.008887342347659e+00	 7.782347385440824e-02
1	 1.726109555903467e+00	 1.048648713750238e+00	 7.465061637418335e-05
1	 1.704923397695415e+00	 1.087804610668973e+00	-8.440800598384901e-02
1	 1.682751434763369e+00	 1.126324953292607e+00	-1.759362216234035e-01
1	 1.659596581885995e+00	 1.164180386646806e+00	-2.748086362291954e-01
1	 1.635463423705317e+00	 1.201342371838334e+00	-3.813078408476028e-01
1	 1.610358221719277e+00	 1.237783275260038e+00	-4.956974640915760e-01
1	 1.584288914346650e+00	 1.273476455199893e+00	-6.182193511443057e-01
1	 1.814141488317677e+00	 8.927493944724415e-01	 2.904274509966504e-01
1	 1.796769028311650e+00	 9.344429899049237e-01	 2.305653620474512e-01
1	 1.778408269021958e+00	 9.756210321084881e-01	 1.650421507130097e-01
1	 1.759055621872693e+00	 1.016251594854609e+00	 9.352547521269677e-02
1	 1.738709086194424e+00	 1.056303199632616e+00	 1.568764506163295e-02
1	 1.717368282158750e+00	 1.095744910338224e+00	-6.879150809513773e-02
1	 1.695034477635295e+00	 1.134546427596219e+00	-1.602216957382014e-01
1	 1.671710608678773e+00	 1.172678182159173e+00	-2.588992111866779e-01
1	 1.647401293396220e+00	 1.210111426817637e+00	-3.651039817693633e-01
1	 1.622112838990602e+00	 1.246818326256276e+00	-4.790966763219126e-01
1	 1.595853241826199e+00	 1.282772044295103e+00	-6.011159108765426e-01
1	 1.827287567867451e+00	 8.992186553505289e-01	 3.071723661255761e-01
1	 1.809789219257397e+00	 9.412143811983774e-01	 2.469353119511262e-01
1	 1.791295409705652e+00	 9.826908178882128e-01	 1.811220881956548e-01
1	 1.771802524631845e+00	 1.023615807839846e+00	 1.094029453491681e-01
1	 1.751308548868758e+00	 1.063957644435306e+00	 3.145300974295773e-02
1	 1.729813099835545e+00	 1.103685167393529e+00	-5.304486392056484e-02
1	 1.707317454589336e+00	 1.142767857776545e+00	-1.443971805604415e-01
1	 1.683824570460768e+00	 1.181175932065001e+00	-2.428968704893887e-01
1	 1.659339099021701e+00	 1.218880434734381e+00	-3.488203727605117e-01
1	 1.633867393179869e+00	 1.255853328762274e+00	-4.624247776540087e-01
1	 1.607417507244739e+00	 1.292067583501795e+00	-5.839450707734487e-01
1	 1.840433566130177e+00	 9.056878762276653e-01	 3.240881627497539e-01
1	 1.822809329694776e+00	 9.479857306224022e-01	 2.634674781141175e-01
1	 1.804182470703934e+00	 9.897605599530511e-01	 1.973514583427403e-01
1	 1.784549348572964e+00	 1.030979975289214e+00	 1.254145281061940e-01
1	 1.763907933636944e+00	 1.071612041907058e+00	 4.733609523987592e-02
1	 1.742257840562584e+00	 1.111625375350152e+00	-3.719663449323718e-02
1	 1.719600355594455e+00	 1.150989237119153e+00	-1.284857866453807e-01
1	 1.695938457338973e+00	 1.189673629424137e+00	-2.268199281507486e-01
1	 1.671276830832606e+00	 1.227649388426834e+00	-3.324711974846609e-01
1	 1.645621874687561e+00	 1.264888275399031e+00	-4.456924958739459e-01
1	 1.618981701158121e+00	 1.301363065228178e+00	-5.667147813512405e-01
1	 1.503337677589890e+00	 1.208406572365371e+00	-7.353372247368231e-01
1	 1.477694684641512e+00	 1.241542189619976e+00	-8.708465115642018e-01
1	 1.451156631409414e+00	 1.273920882760728e+00	-1.015816402724826e+00
1	 1.423735734706447e+00	 1.305520673096032e+00	-1.170309458086508e+00
1	 1.395445736040656e+00	 1.336320817023064e+00	-1.334336501138919e+00
1	 1.366301868460640e+00	 1.366301868460640e+00	-1.507855588884199e+00
1	 1.336320817023063e+00	 1.395445736040656e+00	-1.690771552055737e+00
1	 1.305520673096032e+00	 1.423735734706447e+00	-1.882936117031348e+00
1	 1.273920882760727e+00	 1.451156631409415e+00	-2.084148610024559e+00
1	 1.241542189619975e+00	 1.477694684641513e+00	-2.294157233300314e+00
1	 1.208406572365371e+00	 1.503337677589890e+00	-2.512660892579674e+00
1	 1.514902175060389e+00	 1.217702298110054e+00	-7.189489019064340e-01
1	 1.489061922154348e+00	 1.251092812695976e+00	-8.537530091126907e-01
1	 1.462319723670283e+00	 1.283720580492737e+00	-9.978938084272526e-01
1	 1.434687890399449e+00	 1.315563453736617e+00	-1.151445611466597e+00
1	 1.406180269557087e+00	 1.346600529253643e+00	-1.314431572414598e+00
1	 1.376812211372734e+00	 1.376812211372734e+00	-1.486822573816974e+00
1	 1.346600529253642e+00	 1.406180269557087e+00	-1.668536677077990e+00
1	 1.315563453736616e+00	 1.434687890399449e+00	-1.859439150272905e+00
1	 1.283720580492737e+00	 1.462319723670283e+00	-2.059343075192577e+00
1	 1.251092812695975e+00	 1.489061922154348e+00	-2.268010524753042e+00
1	 1.217702298110054e+00	 1.514902175060389e+00	-2.485154291343594e+00
1	 1.526466676578907e+00	 1.226998027108758e+00	-7.024304909729048e-01
1	 1.500429163646209e+00	 1.260643439115263e+00	-8.365485660228847e-01
1	 1.473482819838770e+00	 1.293520281655245e+00	-9.798770419947658e-01
1	 1.445640049926278e+00	 1.325606237892797e+00	-1.132502429422104e+00
1	 1.416914806831205e+00	 1.356880245082748e+00	-1.294461011398551e+00
1	 1.387322557964068e+00	 1.387322557964069e+00	-1.465737641414431e+00
1	 1.356880245082748e+00	 1.416914806831205e+00	-1.646265095751640e+00
1	 1.325606237892796e+00	 1.445640049926279e+00	-1.835923994397118e+00
1	 1.293520281655244e+00	 1.473482819838770e+00	-2.034543293911181e+00
1	 1.260643439115263e+00	 1.500429163646209e+00	-2.241901345040973e+00
1	 1.226998027108757e+00	 1.526466676578907e+00	-2.457727497409136e+00
1	 1.538031172701298e+00	 1.236293751769691e+00	-6.857917692646267e-01
1	 1.511796399834000e+00	 1.270194061077886e+00	-8.192404903741585e-01
1	 1.484645910798441e+00	 1.303319978244912e+00	-9.617719999921595e-01
1	 1.456592204342702e+00	 1.335649017362756e+00	-1.113485444821799e+00
1	 1.427649339096438e+00	 1.367159956115121e+00	-1.274431018240407e+00
1	 1.397832899651095e+00	 1.397832899651095e+00	-1.444608666371649e+00
1	 1.367159956115120e+00	 1.427649339096439e+00	-1.623967334127866e+00
1	 1.335649017362756e+00	 1.456592204342703e+00	-1.812404766627965e+00
1	 1.303319978244911e+00	 1.484645910798441e+00	-2.009767871131273e+00
1	 1.270194061077885e+00	 1.511796399834000e+00	-2.215853634202285e+00
1	 1.236293751769691e+00	 1.538031172701298e+00	-2.430410578535007e+00
1	 1.549595653983415e+00	 1.245589464501062e+00	-6.690422228285271e-01
1	 1.523163621434620e+00	 1.279744670783892e+00	-8.018358726501356e-01
1	 1.495808987432858e+00	 1.313119662258399e+00	-9.435844034733456e-01
1	 1.467544344704487e+00	 1.345691783944678e+00	-1.094400025807272e+00
1	 1.438383857586212e+00	 1.377439653955503e+00	-1.254347608353419e+00
1	 1.408343227850264e+00	 1.408343227850265e+00	-1.423443288560313e+00
1	 1.377439653955501e+00	 1.438383857586212e+00	-1.601653604187752e+00
1	 1.345691783944678e+00	 1.467544344704487e+00	-1.788895162827863e+00
1	 1.313119662258398e+00	 1.495808987432858e+00	-1.985034856409739e+00
1	 1.279744670783891e+00	 1.523163621434620e+00	-2.189890617589881e+00
1	 1.245589464501063e+00	 1.549595653983416e+00	-2.403232704893146e+00
1	 1.561160110981111e+00	 1.254885157711081e+00	-6.521910572903369e-01
1	 1.534530819164973e+00	 1.289295260433329e+00	-7.843415938738296e-01
1	 1.506972040625587e+00	 1.322919325692369e+00	-9.253198045612839e-01
1	 1.478496462067399e+00	 1.355734529436747e+00	-1.075251381976577e+00
1	 1.449118353533953e+00	 1.387719330208632e+00	-1.234216619341982e+00
1	 1.418853533978028e+00	 1.418853533978028e+00	-1.402248921814103e+00
1	 1.387719330208631e+00	 1.449118353533954e+00	-1.579333815565714e+00
1	 1.355734529436746e+00	 1.478496462067399e+00	-1.765408473198522e+00
1	 1.322919325692368e+00	 1.506972040625587e+00	-1.960361764579065e+00
1	 1.289295260433328e+00	 1.534530819164974e+00	-2.164034832446536e+00
1	 1.254885157711081e+00	 1.561160110981111e+00	-2.376222182425967e+00
1	 1.572724534250239e+00	 1.264180823807955e+00	-6.352472082368190e-01
1	 1.545897983741961e+00	 1.298845822226245e+00	-7.667643333847148e-01
1	 1.518135061260190e+00	 1.332718960543483e+00	-9.069835927383333e-01
1	 1.489448547487204e+00	 1.365777245637144e+00	-1.056044570295674e+00
1	 1.459852818173088e+00	 1.397998976479250e+00	-1.214043717624272e+00
1	 1.429363809450838e+00	 1.429363809450839e+00	-1.381032762327361e+00
1	 1.397998976479250e+00	 1.459852818173088e+00	-1.557017586756958e+00
1	 1.365777245637144e+00	 1.489448547487205e+00	-1.741957597290620e+00
1	 1.332718960543482e+00	 1.518135061260191e+00	-1.935765595506965e+00
1	 1.298845822226245e+00	 1.545897983741961e+00	-2.138308153310414e+00
1	 1.264180823807955e+00	 1.572724534250238e+00	-2.349406484735365e+00
1	 1.584288914346650e+00	 1.273476455199893e+00	-6.182193511443057e-01
1	 1.557265105882484e+00	 1.308396348362689e+00	-7.491105762759900e-01
1	 1.529298040220234e+00	 1.342518558808402e+00	-8.885810008616867e-01
1	 1.500400592019669e+00	 1.375819924344055e+00	-1.036784500751555e+00
1	 1.470587242737042e+00	 1.408278584372098e+00	-1.193834404765371e+00
1	 1.439874045685145e+00	 1.439874045685146e+00	-1.359801796686736e+00
1	 1.408278584372098e+00	 1.470587242737043e+00	-1.534714255835096e+00
1	 1.375819924344054e+00	 1.500400592019670e+00	-1.718555058357561e+00
1	 1.342518558808402e+00	 1.529298040220234e+00	-1.911262852992630e+00
1	 1.308396348362688e+00	 1.557265105882484e+00	-2.112731816310257e+00
1	 1.273476455199893e+00	 1.584288914346650e+00	-2.322812283578078e+00
1	 1.595853241826199e+00	 1.282772044295103e+00	-6.011159108765426e-01
1	 1.568632176303445e+00	 1.317946831042709e+00	-7.313866205091603e-01
1	 1.540460968389281e+00	 1.352318112483789e+00	-8.701171109178715e-01
1	 1.511352586720562e+00	 1.385862557355662e+00	-1.017475941760140e+00
1	 1.481321618459244e+00	 1.418558145491916e+00	-1.173594023535804e+00
1	 1.450384234097401e+00	 1.450384234097401e+00	-1.338562809554416e+00
1	 1.418558145491915e+00	 1.481321618459244e+00	-1.512432890704897e+00
1	 1.385862557355662e+00	 1.511352586720562e+00	-1.695213017086633e+00
1	 1.352318112483789e+00	 1.540460968389282e+00	-1.886869562843296e+00
1	 1.317946831042709e+00	 1.568632176303445e+00	-2.087326442406696e+00
1	 1.282772044295103e+00	 1.595853241826199e+00	-2.296465478038301e+00
1	 1.607417507244739e+00	 1.292067583501795e+00	-5.839450707734487e-01
1	 1.579999185721744e+00	 1.327497262466353e+00	-7.135985837222451e-01
1	 1.551623836650896e+00	 1.362117613566305e+00	-8.515968595294172e-01
1	 1.522304522645647e+00	 1.395905136470149e+00	-9.981235253412722e-01
1	 1.492055936573117e+00	 1.428837651443444e+00	-1.153327763709048e+00
1	 1.460894366104057e+00	 1.460894366104057e+00	-1.317322391020485e+00
1	 1.428837651443443e+00	 1.492055936573118e+00	-1.490182298913455e+00
1	 1.395905136470148e+00	 1.522304522645648e+00	-1.671943284738607e+00
1	 1.362117613566304e+00	 1.551623836650896e+00	-1.862601290172061e+00
1	 1.327497262466353e+00	 1.579999185721745e+00	-2.062112059632488e+00
1	 1.292067583501795e+00	 1.607417507244739e+00	-2.270391222443557e+00
1	 1.618981701158121e+00	 1.301363065228178e+00	-5.667147813512405e-01
1	 1.591366124854286e+00	 1.337047634833670e+00	-6.957524097468086e-01
1	 1.562786635888641e+00	 1.371917054052611e+00	-8.330250432260600e-01
1	 1.533256390850693e+00	 1.405947653485699e+00	-9.787317520723907e-01
1	 1.502790188312090e+00	 1.439117093831422e+00	-1.133040667611097e+00
1	 1.471404433121564e+00	 1.471404433121565e+00	-1.296086943640750e+00
1	 1.439117093831422e+00	 1.502790188312090e+00	-1.467971037041627e+00
1	 1.405947653485699e+00	 1.533256390850694e+00	-1.648757335725626e+00
1	 1.371917054052610e+00	 1.562786635888642e+00	-1.838473155956112e+00
1	 1.337047634833670e+00	 1.591366124854286e+00	-2.037108124381683e+00
1	 1.301363065228178e+00	 1.618981701158121e+00	-2.244613953086996e+00
1	 1.208406572365371e+00	 1.503337677589890e+00	-2.512660892579674e+00
1	 1.174537180395669e+00	 1.528074940881948e+00	-2.739717372849733e+00
1	 1.139958270817220e+00	 1.551897360966147e+00	-2.975055939943369e+00
1	 1.104695124050098e+00	 1.574797405047172e+00	-3.217800491676174e+00
1	 1.068773961727374e+00	 1.596769131566166e+00	-3.467019176074455e+00
1	 1.032221864511472e+00	 1.617808190139118e+00	-3.721732748568744e+00
1	 9.950666874472238e-01	 1.637911814921611e+00	-3.980923235647519e+00
1	 9.573369733799303e-01	 1.657078811545492e+00	-4.243542770813741e+00
1	 9.190618649712032e-01	 1.675309537819501e+00	-4.508522470993727e+00
1	 8.802710158444024e-01	 1.692605878429240e+00	-4.774781226693751e+00
1	 8.409945013854322e-01	 1.708971213911920e+00	-5.041234286883916e+00
1	 1.217702298110054e+00	 1.514902175060389e+00	-2.485154291343594e+00
1	 1.183572364211580e+00	 1.539829730941159e+00	-2.710808592736415e+00
1	 1.148727454705886e+00	 1.563835406138682e+00	-2.944684147694878e+00
1	 1.113193044483922e+00	 1.586911609911249e+00	-3.185927881760829e+00
1	 1.076995556889963e+00	 1.609052354994264e+00	-3.433633002833397e+00
1	 1.040162280905762e+00	 1.630253257538177e+00	-3.686847119371145e+00
1	 1.002721285852451e+00	 1.650511530422170e+00	-3.944580649112565e+00
1	 9.647013341425719e-01	 1.669825970090350e+00	-4.205815388366752e+00
1	 9.261317926190918e-01	 1.688196937103913e+00	-4.469513114290164e+00
1	 8.870425430173231e-01	 1.705626330646489e+00	-4.734624097667371e+00
1	 8.474638920795503e-01	 1.722117557260229e+00	-5.000095411263540e+00
1	 1.226998027108757e+00	 1.526466676578907e+00	-2.457727497409136e+00
1	 1.192607551190254e+00	 1.551584525114940e+00	-2.682037390216789e+00
1	 1.157496641664129e+00	 1.575773455489876e+00	-2.914524206168999e+00
1	 1.121690967892286e+00	 1.599025819015588e+00	-3.154354050338878e+00
1	 1.085217154930273e+00	 1.621335582721735e+00	-3.400640413127459e+00
1	 1.048102700079251e+00	 1.642698329293210e+00	-3.652452118622699e+00
1	 1.010375886936732e+00	 1.663111250332794e+00	-3.908821556178532e+00
1	 9.720656974825767e-01	 1.682573133096854e+00	-4.168753067998204e+00
1	 9.332017227411892e-01	 1.701084340899041e+00	-4.431231367852133e+00
1	 8.938140725599177e-01	 1.718646787421024e+00	-4.695229871086173e+00
1	 8.539332850375116e-01	 1.735263905209901e+00	-4.959718823493558e+00
1	 1.236293751769691e+00	 1.538031172701298e+00	-2.430410578535007e+00
1	 1.201642733952688e+00	 1.563339313803775e+00	-2.653438730626894e+00
1	 1.166265824530217e+00	 1.587711499270573e+00	-2.884612828660825e+00
1	 1.130188887335034e+00	 1.611140022467182e+00	-3.123114419619331e+00
1	 1.093438749133876e+00	 1.633618804717538e+00	-3.368072627631716e+00
1	 1.056043115547206e+00	 1.655143395241000e+00	-3.618572000320629e+00
1	 1.018030484448818e+00	 1.675710964363958e+00	-3.873660639579336e+00
1	 9.794300573857903e-01	 1.695320290155044e+00	-4.132358490843857e+00
1	 9.402716495638580e-01	 1.713971738680371e+00	-4.393665667179110e+00
1	 9.005855989422986e-01	 1.731667238119637e+00	-4.656570689412971e+00
1	 8.604026749762183e-01	 1.748410247024885e+00	-4.920058530840766e+00
1	 1.245589464501063e+00	 1.549595653983416e+00	-2.403232704893146e+00
1	 1.210677905119885e+00	 1.575094087408144e+00	-2.625046535598172e+00
1	 1.175034996142414e+00	 1.599649527731621e+00	-2.854985632717453e+00
1	 1.138686795872015e+00	 1.623254210373027e+00	-3.092243354776466e+00
1	 1.101660332786340e+00	 1.645902010950641e+00	-3.335959935596626e+00
1	 1.063983520824891e+00	 1.667588445218332e+00	-3.585230295181733e+00
1	 1.025685072137460e+00	 1.688310662226134e+00	-3.839112144624994e+00
1	 9.867944078380592e-01	 1.708067430854960e+00	-4.096634258950908e+00
1	 9.473415673134616e-01	 1.726859119923383e+00	-4.356804793899959e+00
1	 9.073571166345781e-01	 1.744687672109121e+00	-4.618619527433324e+00
1	 8.668720566125701e-01	 1.761556571969129e+00	-4.881069913897399e+00
1	 1.254885157711081e+00	 1.561160110981111e+00	-2.376222182425967e+00
1	 1.219713057312841e+00	 1.586848836328531e+00	-2.596893721836637e+00
1	 1.183804149338989e+00	 1.611587531123863e+00	-2.825677180856159e+00
1	 1.147184686563072e+00	 1.635368372840115e+00	-3.061774203246789e+00
1	 1.109881899173236e+00	 1.658185191390005e+00	-3.304331729505417e+00
1	 1.071923909427571e+00	 1.680033469061990e+00	-3.552449837602724e+00
1	 1.033339643751411e+00	 1.700910333629796e+00	-3.805189895584875e+00
1	 9.941587428252290e-01	 1.720814544786643e+00	-4.061582898396497e+00
1	 9.544114702163635e-01	 1.739746474103565e+00	-4.320637863145127e+00
1	 9.141286201068681e-01	 1.757708078756272e+00	-4.581350161617202e+00
1	 8.733414246634674e-01	 1.774702869306581e+00	-4.842709675894909e+00
1	 1.264180823807955e+00	 1.572724534250238e+00	-2.349406484735365e+00
1	 1.228748183152559e+00	 1.598603550965414e+00	-2.569012238194867e+00
1	 1.192573276958206e+00	 1.623525499698147e+00	-2.796721019490326e+00
1	 1.155682552468054e+00	 1.647482499975440e+00	-3.031739332296233e+00
1	 1.118103441580135e+00	 1.670468336004593e+00	-3.273216538206123e+00
1	 1.079864274870509e+00	 1.692478456608757e+00	-3.520252791433919e+00
1	 1.040994193039419e+00	 1.713509968285416e+00	-3.771907311349681e+00
1	 1.001523056333147e+00	 1.733561621540132e+00	-4.027206862268882e+00
1	 9.614813524989264e-01	 1.752633790696398e+00	-4.285154311474745e+00
1	 9.209001038292806e-01	 1.770728447427881e+00	-4.544737140829394e+00
1	 8.798107738458119e-01	 1.787849128301191e+00	-4.804935794249224e+00
1	 1.273476455199893e+00	 1.584288914346650e+00	-2.322812283578078e+00
1	 1.237783275260037e+00	 1.610358221719277e+00	-2.541433101124105e+00
1	 1.201342371838334e+00	 1.635463423705318e+00	-2.768149716154329e+00
1	 1.164180386646805e+00	 1.659596581885995e+00	-3.002170164945864e+00
1	 1.126324953292606e+00	 1.682751434763369e+00	-3.242642058595678e+00
1	 1.087804610668972e+00	 1.704923397695415e+00	-3.488660674626605e+00
1	 1.048648713750237e+00	 1.726109555903467e+00	-3.739277420409094e+00
1	 1.008887342347658e+00	 1.746308650705469e+00	-3.993508533518419e+00
1	 9.685512083875132e-01	 1.765521059177368e+00	-4.250343885334052e+00
1	 9.276715622719285e-01	 1.783748767490743e+00	-4.508755758319736e+00
1	 8.862800988765027e-01	 1.800995338216907e+00	-4.767707474223142e+00
1	 1.282772044295103e+00	 1.595853241826199e+00	-2.296465478038301e+00
1	 1.246818326256276e+00	 1.622112838990602e+00	-2.514186428588498e+00
1	 1.210111426817636e+00	 1.647401293396220e+00	-2.739994895113594e+00
1	 1.172678182159172e+00	 1.671710608678773e+00	-2.973097214338809e+00
1	 1.134546427596219e+00	 1.695034477635296e+00	-3.212635185929724e+00
1	 1.095744910338224e+00	 1.717368282158750e+00	-3.457694382811339e+00
1	 1.056303199632615e+00	 1.738709086194423e+00	-3.707312875179753e+00
1	 1.016251594854609e+00	 1.759055621872693e+00	-3.960490227684841e+00
1	 9.756210321084874e-01	 1.778408269021958e+00	-4.216196630009996e+00
1	 9.344429899049229e-01	 1.796769028311650e+00	-4.473382024928571e+00
1	 8.927493944724416e-01	 1.814141488317677e+00	-4.730985104599091e+00
1	 1.292067583501795e+00	 1.607417507244739e+00	-2.270391222443557e+00
1	 1.255853328762274e+00	 1.633867393179869e+00	-2.487301472518257e+00
1	 1.218880434734381e+00	 1.659339099021702e+00	-2.712287271440720e+00
1	 1.181175932065001e+00	 1.683824570460768e+00	-2.944550116627295e+00
1	 1.142767857776545e+00	 1.707317454589337e+00	-3.183222042826574e+00
1	 1.103685167393528e+00	 1.729813099835545e+00	-3.427374211860446e+00
1	 1.063957644435305e+00	 1.751308548868758e+00	-3.676025965715862e+00
1	 1.023615807839845e+00	 1.771802524631845e+00	-3.928154195506861e+00
1	 9.826908178882120e-01	 1.791295409705652e+00	-4.182702879063119e+00
1	 9.412143811983766e-01	 1.809789219257397e+00	-4.438592643446242e+00
1	 8.992186553505291e-01	 1.827287567867451e+00	-4.694730215261115e+00
1	 1.301363065228178e+00	 1.618981701158121e+00	-2.244613953086996e+00
1	 1.264888275399030e+00	 1.645621874687561e+00	-2.460806649875518e+00
1	 1.227649388426834e+00	 1.671276830832607e+00	-2.685056683634734e+00
1	 1.189673629424137e+00	 1.695938457338974e+00	-2.916557662452988e+00
1	 1.150989237119153e+00	 1.719600355594456e+00	-3.154428007031283e+00
1	 1.111625375350151e+00	 1.742257840562584e+00	-3.397719879485922e+00
1	 1.071612041907057e+00	 1.763907933636944e+00	-3.645428632833890e+00
1	 1.030979975289214e+00	 1.784549348572964e+00	-3.896502625420819e+00
1	 9.897605599530503e-01	 1.804182470703934e+00	-4.149853244211753e+00
1	 9.479857306224013e-01	 1.822809329694776e+00	-4.404364984069112e+00
1	 9.056878762276651e-01	 1.840433566130176e+00	-4.658905436590762e+00
1	 8.409945013854322e-01	 1.708971213911920e+00	-5.041234286883916e+00
1	 8.012655243155109e-01	 1.724409337557121e+00	-5.307351009137850e+00
1	 7.611119891663416e-01	 1.738927692802811e+00	-5.572153996684238e+00
1	 7.205646886507253e-01	 1.752533917918023e+00	-5.833810375820938e+00
1	 6.796544872495266e-01	 1.765236971771615e+00	-6.090468132261593e+00
1	 6.384122376849063e-01	 1.777047079428316e+00	-6.340272209639893e+00
1	 5.968686998193392e-01	 1.787975674284199e+00	-6.581379762889625e+00
1	 5.550544623447694e-01	 1.798035337177901e+00	-6.811974415951989e+00
1	 5.129998675914502e-01	 1.807239732918643e+00	-7.030279401404285e+00
1	 4.707349397497000e-01	 1.815603544672573e+00	-7.234569487732417e+00
1	 4.282893167605222e-01	 1.823142406645302e+00	-7.423181627393570e+00
1	 8.474638920795503e-01	 1.722117557260229e+00	-5.000095411263539e+00
1	 8.074292979405404e-01	 1.737674439414771e+00	-5.265300149923233e+00
1	 7.669668797889307e-01	 1.752304477807102e+00	-5.529168805693979e+00
1	 7.261076672119189e-01	 1.766015369464010e+00	-5.789906917726953e+00
1	 6.848827621168465e-01	 1.778816142170903e+00	-6.045700680690373e+00
1	 6.433232545618970e-01	 1.790717099649317e+00	-6.294732790982976e+00
1	 6.014601410312407e-01	 1.801729763247288e+00	-6.535197465663603e+00
1	 5.593242455217809e-01	 1.811866810582170e+00	-6.765314485342316e+00
1	 5.169461437735808e-01	 1.821142011580397e+00	-6.983342139971588e+00
1	 4.743560909394629e-01	 1.829570162359090e+00	-7.187588984167961e+00
1	 4.315839529516940e-01	 1.837167017390746e+00	-7.376424335705181e+00
1	 8.539332850375116e-01	 1.735263905209901e+00	-4.959718823493557e+00
1	 8.135930737223799e-01	 1.750939545915384e+00	-5.223971341526056e+00
1	 7.728217724601693e-01	 1.765681267493491e+00	-5.486832863251578e+00
1	 7.316506477125579e-01	 1.779496825728795e+00	-5.746555942056011e+00
1	 6.901110388134490e-01	 1.792395317323264e+00	-6.001375220000958e+00
1	 6.482342731571338e-01	 1.804387124655278e+00	-6.249522827338962e+00
1	 6.060515838495607e-01	 1.815483857024858e+00	-6.489242968142508e+00
1	 5.635940301926756e-01	 1.825698288828111e+00	-6.718805548171639e+00
1	 5.208924213364347e-01	 1.835044295108718e+00	-6.936518728125205e+00
1	 4.779772433962463e-01	 1.843536784934809e+00	-7.140740312412495e+00
1	 4.348785902957209e-01	 1.851191633045813e+00	-7.329887909888354e+00
1	 8.604026749762183e-01	 1.748410247024885e+00	-4.920058530840767e+00
1	 8.197568466275470e-01	 1.764204646225886e+00	-5.183303011721101e+00
1	 7.786766623988444e-01	 1.779058050937662e+00	-5.445075637497460e+00
1	 7.371936256261629e-01	 1.792978275702541e+00	-5.703684269332623e+00
1	 6.953393130698574e-01	 1.805974486139023e+00	-5.957421900859289e+00
1	 6.531452894602180e-01	 1.818057143282288e+00	-6.204581420113666e+00
1	 6.106430245248660e-01	 1.829237944384306e+00	-6.443469566544509e+00
1	 5.678638128706814e-01	 1.839529760619885e+00	-6.672419947145204e+00
1	 5.248386970574066e-01	 1.848946572149907e+00	-6.889805001878868e+00
1	 4.815983941629303e-01	 1.857503400993456e+00	-7.094046834604161e+00
1	 4.381732261021031e-01	 1.865216242156835e+00	-7.283626851022243e+00
1	 8.668720566125701e-01	 1.761556571969129e+00	-4.881069913897397e+00
1	 8.259206116225591e-01	 1.777469729513201e+00	-5.143235426106383e+00
1	 7.845315448237447e-01	 1.792434817215295e+00	-5.403828701090014e+00
1	 7.427365964262537e-01	 1.806459708375415e+00	-5.661220902728004e+00
1	 7.005675806165935e-01	 1.819553637528503e+00	-5.913772956174784e+00
1	 6.580562994607525e-01	 1.831727144366439e+00	-6.159849484745211e+00
1	 6.152344593077244e-01	 1.842992014093028e+00	-6.397831946410738e+00
1	 5.721335900690260e-01	 1.853361214661656e+00	-6.626130844871265e+00
1	 5.287849677138907e-01	 1.862848831350267e+00	-6.843196915182749e+00
1	 4.852195402823951e-01	 1.871469999128757e+00	-7.047531208744322e+00
1	 4.414678576803406e-01	 1.879240833270148e+00	-7.237694026491201e+00
1	 8.733414246634674e-01	 1.774702869306581e+00	-4.842709675894911e+00
1	 8.320843636739330e-01	 1.790734784944258e+00	-5.103710620195475e+00
1	 7.903864149536578e-01	 1.805811555402070e+00	-5.363025653396941e+00
1	 7.482795555863507e-01	 1.819941112737581e+00	-5.619096947330100e+00
1	 7.057958371841797e-01	 1.833132760402026e+00	-5.870362624058707e+00
1	 6.629672991483389e-01	 1.845397116743820e+00	-6.115269683566741e+00
1	 6.198258844487028e-01	 1.856746054918419e+00	-6.352286131170279e+00
1	 5.764033583009375e-01	 1.867192639657585e+00	-6.579912193493074e+00
1	 5.327312300832817e-01	 1.876751061356101e+00	-6.796690535538931e+00
1	 4.888406787975209e-01	 1.885436567934440e+00	-7.001215414756142e+00
1	 4.447624823399336e-01	 1.893265394932085e+00	-7.192140730480301e+00
1	 8.798107738458119e-01	 1.787849128301191e+00	-4.804935794249224e+00
1	 8.382480977481868e-01	 1.803999801685982e+00	-5.064672334498944e+00
1	 7.962412680073720e-01	 1.819188254573673e+00	-5.322602046110994e+00
1	 7.538224985799749e-01	 1.833422477779206e+00	-5.577245532966590e+00
1	 7.110240785031388e-01	 1.846711843669915e+00	-5.827127074174070e+00
1	 6.678782845125789e-01	 1.859067049250523e+00	-6.070786361624045e+00
1	 6.244172961983688e-01	 1.870500055627877e+00	-6.306789432969203e+00
1	 5.806731140796434e-01	 1.881024024311833e+00	-6.533738705657554e+00
1	 5.366774809429741e-01	 1.890653250813712e+00	-6.750282039810821e+00
1	 4.924618067511876e-01	 1.899403096004228e+00	-6.955120779396040e+00
1	 4.480570973903820e-01	 1.907289915688981e+00	-7.147016741808019e+00
1	 8.862800988765027e-01	 1.800995338216907e+00	-4.767707474223142e+00
1	 8.444118088118379e-01	 1.817264768905302e+00	-5.026065952442848e+00
1	 8.020960992036750e-01	 1.832564903805781e+00	-5.282495312116867e+00
1	 7.593654208806463e-01	 1.846903792490453e+00	-5.535601740400960e+00
1	 7.162523003039928e-01	 1.860290876242493e+00	-5.784004337303712e+00
1	 6.727892515430750e-01	 1.872736930722637e+00	-6.026345485297662e+00
1	 6.290086908072897e-01	 1.884254004988797e+00	-6.261300405648071e+00
1	 5.849428539183718e-01	 1.894855357328564e+00	-6.487585826752685e+00
1	 5.406237170703621e-01	 1.904555388369402e+00	-6.703967710214227e+00
1	 4.960829211862753e-01	 1.913369571931849e+00	-6.909268000076479e+00
1	 4.513517001411860e-01	 1.921314384087171e+00	-7.102370379231380e+00
1	 8.927493944724416e-01	 1.814141488317677e+00	-4.730985104599091e+00
1	 8.505754918314032e-01	 1.830529675769143e+00	-4.987838440980034e+00
1	 8.079509037613544e-01	 1.845941492174077e+00	-5.242644697443397e+00
1	 7.649083179618851e-01	 1.860385045861490e+00	-5.494102530729956e+00
1	 7.214804983172648e-01	 1.873869847030084e+00	-5.740934237973863e+00
1	 6.777001962294289e-01	 1.886406749996252e+00	-5.981894583588091e+00
1	 6.336000645260328e-01	 1.898007891768577e+00	-6.215778799759518e+00
1	 5.892125743303502e-01	 1.908686627411939e+00	-6.441429708348914e+00
1	 5.445699352428404e-01	 1.918457462669473e+00	-6.657743930483776e+00
1	 4.997040191456646e-01	 1.927335984311028e+00	-6.863677167655095e+00
1	 4.546462879018455e-01	 1.935338788672990e+00	-7.058248554351956e+00
1	 8.992186553505291e-01	 1.827287567867451e+00	-4.694730215261115e+00
1	 8.567391417734005e-01	 1.843794511444431e+00	-4.949938293759966e+00
1	 8.138056768991981e-01	 1.859318008754242e+00	-5.202991196147097e+00
1	 7.704511852972115e-01	 1.873866226882480e+00	-5.452686677822009e+00
1	 7.267086682734767e-01	 1.887448744943010e+00	-5.697858329979561e+00
1	 6.826111145612430e-01	 1.900076495907461e+00	-5.937382691929407e+00
1	 6.381914136051653e-01	 1.911761704734611e+00	-6.170185519522921e+00
1	 5.934822718288069e-01	 1.922517823266122e+00	-6.395247182784564e+00
1	 5.485161322378036e-01	 1.932359462360229e+00	-6.611607182202793e+00
1	 5.033250976722351e-01	 1.941302321735491e+00	-6.818367788242044e+00
1	 4.579408579818608e-01	 1.949363117992770e+00	-7.014696822242902e+00
1	 9.056878762276651e-01	 1.840433566130176e+00	-4.658905436590762e+00
1	 8.629027536043467e-01	 1.857059265098094e+00	-4.912315476728313e+00
1	 8.196604138359946e-01	 1.872694442621957e+00	-5.163477487979688e+00
1	 7.759940183601461e-01	 1.887347324543590e+00	-5.411294703644888e+00
1	 7.319368059031509e-01	 1.901027558891593e+00	-5.654719834667389e+00
1	 6.875220025281183e-01	 1.913746157292350e+00	-5.892760298405727e+00
1	 6.427827342952547e-01	 1.925515432654296e+00	-6.124482581620161e+00
1	 5.977519429269694e-01	 1.936348933595271e+00	-6.349015738838294e+00
1	 5.524623048326459e-01	 1.946261376087971e+00	-6.565554041291704e+00
1	 5.069461538088672e-01	 1.955268572798964e+00	-6.773358804075365e+00
1	 4.612354076907317e-01	 1.963387360592848e+00	-6.971759429911198e+00
1	 4.282893167605222e-01	 1.823142406645302e+00	-7.423181627393570e+00
1	 3.856892073858478e-01	 1.829873278754343e+00	-7.596713106706086e+00
1	 3.429662982768709e-01	 1.835812937996986e+00	-7.755327965929920e+00
1	 3.001487493340093e-01	 1.840979461280257e+00	-7.896875624048670e+00
1	 2.572640992986176e-01	 1.845391598947249e+00	-8.019308828424617e+00
1	 2.143392184869364e-01	 1.849068705039692e+00	-8.120691223518786e+00
1	 1.714002659640361e-01	 1.852030668220261e+00	-8.199203291326747e+00
1	 1.284726511608891e-01	 1.854297843677920e+00	-8.253146737803219e+00
1	 8.558099990728006e-02	 1.855890986314603e+00	-8.280947414132363e+00
1	 4.274912482501691e-02	 1.856831185485652e+00	-8.281156873013673e+00
1	 0.000000000000000e+00	 1.857139801539814e+00	-8.252452668372188e+00
1	 4.315839529516940e-01	 1.837167017390746e+00	-7.376424335705182e+00
1	 3.886561401843551e-01	 1.843949667057867e+00	-7.550415015113995e+00
1	 3.456045830397630e-01	 1.849935017415582e+00	-7.709539570840717e+00
1	 3.024576580397679e-01	 1.855141284428371e+00	-7.851444727341433e+00
1	 2.592431157688595e-01	 1.859587362677220e+00	-7.973880119537641e+00
1	 2.159880332445207e-01	 1.863292755085735e+00	-8.074707630280228e+00
1	 1.727187707617282e-01	 1.866277503311066e+00	-8.151908935199776e+00
1	 1.294609332147639e-01	 1.868562119125425e+00	-8.203591324835420e+00
1	 8.623933586883026e-02	 1.870167517088808e+00	-8.227991891488069e+00
1	 4.307797452551022e-02	 1.871114948787420e+00	-8.223480182200687e+00
1	 0.000000000000000e+00	 1.871425938885499e+00	-8.188559429806386e+00
1	 4.348785902957209e-01	 1.851191633045813e+00	-7.329887909888354e+00
1	 3.916230740211588e-01	 1.858026060289259e+00	-7.504485025509473e+00
1	 3.482428687260724e-01	 1.864057101778160e+00	-7.664287736439785e+00
1	 3.047665675538065e-01	 1.869303112534495e+00	-7.806718008687556e+00
1	 2.612221329320471e-01	 1.873783131377193e+00	-7.929297911135564e+00
1	 2.176368485795777e-01	 1.877516810111782e+00	-8.029661156465249e+00
1	 1.740372760213400e-01	 1.880524343389939e+00	-8.105562667417995e+00
1	 1.304492156149808e-01	 1.882826399567176e+00	-8.154886230434480e+00
1	 8.689767206117521e-02	 1.884444052861604e+00	-8.175650319927991e+00
1	 4.340682434133394e-02	 1.885398717090345e+00	-8.166012193703006e+00
1	 0.000000000000000e+00	 1.885712081233184e+00	-8.124270373485444e+00
1	 4.381732261021031e-01	 1.865216242156835e+00	-7.283626851022243e+00
1	 3.945900064733499e-01	 1.872102446952540e+00	-7.459003212048042e+00
1	 3.508811531812543e-01	 1.878179179551401e+00	-7.619664182223481e+00
1	 3.070754759905426e-01	 1.883464934032833e+00	-7.762785738278742e+00
1	 2.632011491719848e-01	 1.887978893453635e+00	-7.885638788348797e+00
1	 2.192856631455576e-01	 1.891740858501185e+00	-7.985603344177348e+00
1	 1.753557806660615e-01	 1.894771176821610e+00	-8.060180519291233e+00
1	 1.314374975544061e-01	 1.897090673353649e+00	-8.107002403897319e+00
1	 8.755600794663987e-02	 1.898720581973453e+00	-8.123839892811439e+00
1	 4.373567400390536e-02	 1.899682478728979e+00	-8.108608563934316e+00
1	 0.000000000000000e+00	 1.899998216915481e+00	-8.059372721763012e+00
1	 4.414678576803406e-01	 1.879240833270148e+00	-7.237694026491202e+00
1	 3.975569351180192e-01	 1.886178815551730e+00	-7.414047252191589e+00
1	 3.535194342507643e-01	 1.892301239201991e+00	-7.575757884061603e+00
1	 3.093843814643928e-01	 1.897626737357590e+00	-7.719735486788086e+00
1	 2.651801628724773e-01	 1.902174637313011e+00	-7.842977046130016e+00
1	 2.209344755959103e-01	 1.905964888637292e+00	-7.942584193535768e+00
1	 1.766742836190827e-01	 1.909017991970809e+00	-8.015778040433563e+00
1	 1.324257782259062e-01	 1.911354928835323e+00	-8.059911658256066e+00
1	 8.821434298754918e-02	 1.912997092764816e+00	-8.072480270830360e+00
1	 4.406452324464179e-02	 1.913966222037871e+00	-8.051129251557422e+00
1	 0.000000000000000e+00	 1.914284334264999e+00	-7.993660038901989e+00
1	 4.447624823399336e-01	 1.893265394932085e+00	-7.192140730480301e+00
1	 4.005238575322579e-01	 1.900255154590855e+00	-7.369692515484112e+00
1	 3.561577097800574e-01	 1.906423269196610e+00	-7.532655175849869e+00
1	 3.116932820897747e-01	 1.911788510942969e+00	-7.677652225417209e+00
1	 2.671591724173288e-01	 1.916370351361791e+00	-7.801384774165811e+00
1	 2.225832845840856e-01	 1.920188888903456e+00	-7.900652219892461e+00
1	 1.779927838035937e-01	 1.923264777202266e+00	-7.972370316711464e+00
1	 1.334140568223472e-01	 1.925619154362675e+00	-8.013586638377051e+00
1	 8.887267664622797e-02	 1.927273573576155e+00	-8.021493490670426e+00
1	 4.439337179496055e-02	 1.928249935351575e+00	-7.993438358108795e+00
1	 0.000000000000000e+00	 1.928570421614352e+00	-7.926931996040182e+00
1	 4.480570973903820e-01	 1.907289915688981e+00	-7.147016741808018e+00
1	 4.034907712931571e-01	 1.914331452573932e+00	-7.326012148419697e+00
1	 3.587959776145891e-01	 1.920545258001943e+00	-7.490439846687623e+00
1	 3.140021759811049e-01	 1.925950243223175e+00	-7.636618421539459e+00
1	 2.691381761903441e-01	 1.930566024006441e+00	-7.760931938050040e+00
1	 2.242320887635335e-01	 1.934412847683027e+00	-7.859854508529745e+00
1	 1.793112801427847e-01	 1.937511520880713e+00	-7.929971987402071e+00
1	 1.344023325365955e-01	 1.939883338286182e+00	-7.968000790463490e+00
1	 8.953100838500133e-02	 1.941550012747933e+00	-7.970803877693178e+00
1	 4.472221938627893e-02	 1.942533607004641e+00	-7.935403975638006e+00
1	 0.000000000000000e+00	 1.942856467296148e+00	-7.858994146502240e+00
1	 4.513517001411860e-01	 1.921314384087171e+00	-7.102370379231380e+00
1	 4.064576739778081e-01	 1.928407698004986e+00	-7.283077155601925e+00
1	 3.614342355998144e-01	 1.934667194084671e+00	-7.449193233808472e+00
1	 3.163110612528008e-01	 1.940111922632410e+00	-7.596714130163635e+00
1	 2.711171725753277e-01	 1.944761643653427e+00	-7.721686456910491e+00
1	 2.258808867877040e-01	 1.948636753359356e+00	-7.820236766968098e+00
1	 1.806297715598457e-01	 1.951758211370878e+00	-7.888597261601475e+00
1	 1.353906045615175e-01	 1.954147468956323e+00	-7.923128332891534e+00
1	 9.018933766619409e-02	 1.955826398620612e+00	-7.920337962433353e+00
1	 4.505106575001425e-02	 1.956817225331620e+00	-7.876898041005550e+00
1	 0.000000000000000e+00	 1.957142459643000e+00	-7.789657710929711e+00
1	 4.546462879018455e-01	 1.935338788672990e+00	-7.058248554351956e+00
1	 4.094245631633016e-01	 1.942483879388039e+00	-7.240956477382023e+00
1	 3.640724815811889e-01	 1.948789065911478e+00	-7.408994311480078e+00
1	 3.186199360192792e-01	 1.954273537604879e+00	-7.558017081429724e+00
1	 2.730961599560841e-01	 1.958957198709218e+00	-7.683714277667662e+00
1	 2.275296773100471e-01	 1.962860594315794e+00	-7.781843375005060e+00
1	 1.819482569779667e-01	 1.966004837037493e+00	-7.848259933921459e+00
1	 1.363788720899793e-01	 1.968411534723574e+00	-7.878944228310603e+00
1	 9.084766395213119e-02	 1.970102719534653e+00	-7.870024400719164e+00
1	 4.537991061758383e-02	 1.971100778667064e+00	-7.817796196500735e+00
1	 0.000000000000000e+00	 1.971428386987518e+00	-7.718739371732428e+00
1	 4.579408579818608e-01	 1.949363117992770e+00	-7.014696822242902e+00
1	 4.123914364267289e-01	 1.956559985227112e+00	-7.199717064152991e+00
1	 3.667107134041679e-01	 1.962910861949047e+00	-7.369919776074182e+00
1	 3.209287983949575e-01	 1.968435076574785e+00	-7.520602764335841e+00
1	 2.750751367164178e-01	 1.973152677580279e+00	-7.647079446095157e+00
1	 2.291784589840126e-01	 1.977084358935692e+00	-7.744717432597901e+00
1	 1.832667353203377e-01	 1.980251386245289e+00	-7.808973399509564e+00
1	 1.373671343148474e-01	 1.982675523938413e+00	-7.835424156946265e+00
1	 9.150598670513761e-02	 1.984378963830518e+00	-7.819793897231996e+00
1	 4.570875372040495e-02	 1.985384255345523e+00	-7.757977656463687e+00
1	 0.000000000000000e+00	 1.985714237662315e+00	-7.646061076392908e+00
1	 4.612354076907317e-01	 1.963387360592848e+00	-6.971759429911198e+00
1	 4.153582913451808e-01	 1.970636004026227e+00	-7.159423947467245e+00
1	 3.693489289142067e-01	 1.977032570664059e+00	-7.332044127499011e+00
1	 3.232376464942527e-01	 1.982596527976333e+00	-7.484544506885030e+00
1	 2.770541012401332e-01	 1.987348068673079e+00	-7.611844174841314e+00
1	 2.308272304630504e-01	 1.991308035602400e+00	-7.708900805699440e+00
1	 1.845852055101490e-01	 1.994497847358994e+00	-7.770750668427299e+00
1	 1.383553904289880e-01	 1.996939424951316e+00	-7.792544491043812e+00
1	 9.216430538753825e-02	 1.998655119848669e+00	-7.769579132336369e+00
1	 4.603759478989493e-02	 1.999667643701550e+00	-7.697325079610140e+00
1	 0.000000000000000e+00	 2.000000000000000e+00	-7.571449849182422e+00
