x	y	stress_xx
 1.0000000000e+000	 0.0000000000e+000	 2.9788078139e-001
 9.9995537907e-001	 9.4463922618e-003	 2.9606669174e-001
 9.9982082766e-001	 1.8928670806e-002	 2.9910372084e-001
 9.9959532214e-001	 2.8445738363e-002	 3.0720766393e-001
 9.9927785191e-001	 3.7996469419e-002	 3.2059119261e-001
 9.9886742018e-001	 4.7579710273e-002	 3.3946336038e-001
 9.9836304482e-001	 5.7194279111e-002	 3.6402908297e-001
 9.9776375910e-001	 6.6838966101e-002	 3.9448859376e-001
 9.9706861257e-001	 7.6512533521e-002	 4.3103687447e-001
 9.9627667181e-001	 8.6213715910e-002	 4.7386306194e-001
 9.9538702132e-001	 9.5941220239e-002	 5.2314983129e-001
 1.0266668589e+000	 0.0000000000e+000	 7.9246712259e-001
 1.0266210481e+000	 9.6982978697e-003	 7.9387465708e-001
 1.0264829086e+000	 1.9433438997e-002	 7.9893761538e-001
 1.0262513896e+000	 2.9204296851e-002	 8.0776961868e-001
 1.0259254534e+000	 3.9009715904e-002	 8.2048188114e-001
 1.0255040767e+000	 4.8848511690e-002	 8.3718335273e-001
 1.0249862513e+000	 5.8719470879e-002	 8.5798035482e-001
 1.0243709845e+000	 6.8621351376e-002	 8.8297619071e-001
 1.0236573006e+000	 7.8552882455e-002	 9.1227073150e-001
 1.0228442412e+000	 8.8512764906e-002	 9.4595997738e-001
 1.0219308666e+000	 9.8499671221e-002	 9.8413559488e-001
 1.0533340711e+000	 0.0000000000e+000	 1.2858709685e+000
 1.0532870704e+000	 9.9502068155e-003	 1.2888947545e+000
 1.0531453428e+000	 1.9938213876e-002	 1.2946338843e+000
 1.0529078102e+000	 2.9962865390e-002	 1.3031128192e+000
 1.0525734079e+000	 4.0022975815e-002	 1.3143547575e+000
 1.0521410862e+000	 5.0117329919e-002	 1.3283817388e+000
 1.0516098105e+000	 6.0244682856e-002	 1.3452144096e+000
 1.0509785624e+000	 7.0403760268e-002	 1.3648717632e+000
 1.0502463409e+000	 8.0593258423e-002	 1.3873708535e+000
 1.0494121627e+000	 9.0811844365e-002	 1.4127264840e+000
 1.0484750635e+000	 1.0105815610e-001	 1.4409508709e+000
 1.0800015900e+000	 0.0000000000e+000	 1.7634794770e+000
 1.0799533994e+000	 1.0202118658e-002	 1.7668020791e+000
 1.0798080836e+000	 2.0442994561e-002	 1.7721128581e+000
 1.0795645373e+000	 3.0721442652e-002	 1.7793598571e+000
 1.0792216689e+000	 4.1036247378e-002	 1.7884907643e+000
 1.0787784020e+000	 5.1386162739e-002	 1.7994529941e+000
 1.0782336758e+000	 6.1769912372e-002	 1.8121935575e+000
 1.0775864463e+000	 7.2186189658e-002	 1.8266589057e+000
 1.0768356869e+000	 8.2633657856e-002	 1.8427947473e+000
 1.0759803897e+000	 9.3110950263e-002	 1.8605458372e+000
 1.0750195657e+000	 1.0361667041e-001	 1.8798557397e+000
 1.1066693690e+000	 0.0000000000e+000	 2.2119191282e+000
 1.1066199883e+000	 1.0454032957e-002	 2.2144941022e+000
 1.1064710844e+000	 2.0947780166e-002	 2.2185043253e+000
 1.1062215244e+000	 3.1480027311e-002	 2.2238333035e+000
 1.1058701898e+000	 4.2049528821e-002	 2.2303648886e+000
 1.1054159776e+000	 5.2655007930e-002	 2.2379833476e+000
 1.1048578008e+000	 6.3295156760e-002	 2.2465733154e+000
 1.1041945896e+000	 7.3968636427e-002	 2.2560197178e+000
 1.1034252923e+000	 8.4674077182e-002	 2.2662076660e+000
 1.1025488757e+000	 9.5410078577e-002	 2.2770223213e+000
 1.1015643267e+000	 1.0617520966e-001	 2.2883487306e+000
 1.1333373612e+000	 0.0000000000e+000	 2.6189092369e+000
 1.1332867906e+000	 1.0705949271e-002	 2.6199472894e+000
 1.1331342985e+000	 2.1452569810e-002	 2.6220061338e+000
 1.1328787247e+000	 3.2238618038e-002	 2.6249158502e+000
 1.1325189238e+000	 4.3062818369e-002	 2.6285073850e+000
 1.1320537662e+000	 5.3923863272e-002	 2.6326126200e+000
 1.1314821387e+000	 6.4820413349e-002	 2.6370643838e+000
 1.1308029458e+000	 7.5751097454e-002	 2.6416964308e+000
 1.1300151103e+000	 8.6714512831e-002	 2.6463433892e+000
 1.1291175742e+000	 9.7709225283e-002	 2.6508406755e+000
 1.1281093001e+000	 1.0873376937e-001	 2.6550243769e+000
 1.1600055201e+000	 0.0000000000e+000	 2.9731362543e+000
 1.1599537596e+000	 1.0957867160e-002	 2.9720934872e+000
 1.1597976792e+000	 2.1957362609e-002	 2.9717622868e+000
 1.1595360916e+000	 3.2997213506e-002	 2.9719297282e+000
 1.1591678243e+000	 4.4076114251e-002	 2.9723841237e+000
 1.1586917213e+000	 5.5192726543e-002	 2.9729150974e+000
 1.1581066431e+000	 6.6345679470e-002	 2.9733136332e+000
 1.1574114683e+000	 7.7533569621e-002	 2.9733720874e+000
 1.1566050945e+000	 8.8754961232e-002	 2.9728841649e+000
 1.1556864388e+000	 1.0000838636e-001	 2.9716448602e+000
 1.1546544394e+000	 1.1129234508e-001	 2.9694503610e+000
 1.1866737990e+000	 0.0000000000e+000	 3.2641450120e+000
 1.1866208486e+000	 1.1209786182e-002	 3.2607129701e+000
 1.1864611799e+000	 2.2462157679e-002	 3.2577574664e+000
 1.1861935784e+000	 3.3755812387e-002	 3.2550323741e+000
 1.1858168448e+000	 4.5089414691e-002	 3.2522930566e+000
 1.1853297962e+000	 5.6461595524e-002	 3.2492964476e+000
 1.1847312672e+000	 6.7870952455e-002	 3.2458011138e+000
 1.1840201105e+000	 7.9316049809e-002	 3.2415672778e+000
 1.1831951983e+000	 9.0795418814e-002	 3.2363568008e+000
 1.1822554230e+000	 1.0230755778e-001	 3.2299331241e+000
 1.1811996981e+000	 1.1385093230e-001	 3.2220611701e+000
 1.2133421513e+000	 0.0000000000e+000	 3.4822443036e+000
 1.2132880108e+000	 1.1461705896e-002	 3.4763415871e+000
 1.2131247539e+000	 2.2966954137e-002	 3.4707254597e+000
 1.2128511386e+000	 3.4514413354e-002	 3.4651258448e+000
 1.2124659385e+000	 4.6102717918e-002	 3.4592743235e+000
 1.2119679444e+000	 5.7730467994e-002	 3.4529042127e+000
 1.2113559645e+000	 6.9396229633e-002	 3.4457506217e+000
 1.2106288259e+000	 8.1098534898e-002	 3.4375504638e+000
 1.2097853753e+000	 9.2835882007e-002	 3.4280424212e+000
 1.2088244802e+000	 1.0460673552e-001	 3.4169668641e+000
 1.2077450298e+000	 1.1640952656e-001	 3.4040657231e+000
 1.2400105302e+000	 0.0000000000e+000	 3.6184246453e+000
 1.2399551998e+000	 1.1713625863e-002	 3.6101898852e+000
 1.2397883546e+000	 2.3471751099e-002	 3.6020693956e+000
 1.2395087254e+000	 3.5273015080e-002	 3.5937779132e+000
 1.2391150589e+000	 4.7116022158e-002	 3.5850319453e+000
 1.2386061193e+000	 5.8999341732e-002	 3.5755498338e+000
 1.2379806885e+000	 7.0921508337e-002	 3.5650517849e+000
 1.2372375679e+000	 8.2881021769e-002	 3.5532598467e+000
 1.2363755789e+000	 9.4876347240e-002	 3.5398978346e+000
 1.2353935640e+000	 1.0690591556e-001	 3.5246912035e+000
 1.2342903880e+000	 1.1896812337e-001	 3.5073668667e+000
 1.2666788891e+000	 0.0000000000e+000	 3.6642864246e+000
 1.2666223687e+000	 1.1965545641e-002	 3.6540724469e+000
 1.2664519353e+000	 2.3976547683e-002	 3.6437920533e+000
 1.2661662922e+000	 3.6031616237e-002	 3.6331531235e+000
 1.2657641593e+000	 4.8129325638e-002	 3.6218653984e+000
 1.2652442741e+000	 6.0268214518e-002	 3.6096405111e+000
 1.2646053925e+000	 7.2446785896e-002	 3.5961919693e+000
 1.2638462899e+000	 8.4663507302e-002	 3.5812350776e+000
 1.2629657625e+000	 9.6916810941e-002	 3.5644868002e+000
 1.2619626278e+000	 1.0920509388e-001	 3.5456655625e+000
 1.2608357263e+000	 1.2152671826e-001	 3.5244909927e+000
 9.9538702132e-001	 9.5941220239e-002	 5.2314983129e-001
 9.9439891999e-001	 1.0569226494e-001	 5.7887982234e-001
 9.9331136502e-001	 1.1546697758e-001	 6.4078570800e-001
 9.9212350004e-001	 1.2526400575e-001	 7.0864417627e-001
 9.9083448984e-001	 1.3508197105e-001	 7.8222911281e-001
 9.8944352116e-001	 1.4491946945e-001	 8.6131167855e-001
 9.8794980354e-001	 1.5477507159e-001	 9.4566038218e-001
 9.8635257014e-001	 1.6464732318e-001	 1.0350411483e+000
 9.8465107850e-001	 1.7453474535e-001	 1.1292173818e+000
 9.8284461142e-001	 1.8443583512e-001	 1.2279500294e+000
 9.8093247774e-001	 1.9434906582e-001	 1.3309976393e+000
 1.0219308666e+000	 9.8499671221e-002	 9.8413559488e-001
 1.0209164157e+000	 1.0851074566e-001	 1.0270155816e+000
 1.0197998590e+000	 1.1854611918e-001	 1.0746360721e+000
 1.0185803174e+000	 1.2860440331e-001	 1.1267928910e+000
 1.0172569334e+000	 1.3868418291e-001	 1.1832801566e+000
 1.0158288719e+000	 1.4878401649e-001	 1.2438903177e+000
 1.0142953215e+000	 1.5890243659e-001	 1.3084141822e+000
 1.0126554949e+000	 1.6903795012e-001	 1.3766409369e+000
 1.0109086299e+000	 1.7918903878e-001	 1.4483581593e+000
 1.0090539900e+000	 1.8935415951e-001	 1.5233518238e+000
 1.0070908657e+000	 1.9953174493e-001	 1.6014063021e+000
 1.0484750635e+000	 1.0105815610e-001	 1.4409508709e+000
 1.0474342627e+000	 1.1132926372e-001	 1.4724238492e+000
 1.0462887040e+000	 1.2162530158e-001	 1.5073992135e+000
 1.0450374853e+000	 1.3194484514e-001	 1.5456840450e+000
 1.0436797270e+000	 1.4228644250e-001	 1.5870846710e+000
 1.0422145723e+000	 1.5264861474e-001	 1.6314066660e+000
 1.0406411886e+000	 1.6302985627e-001	 1.6784548383e+000
 1.0389587683e+000	 1.7342863523e-001	 1.7280332055e+000
 1.0371665291e+000	 1.8384339388e-001	 1.7799449583e+000
 1.0352637158e+000	 1.9427254907e-001	 1.8339924146e+000
 1.0332496003e+000	 2.0471449272e-001	 1.8899769646e+000
 1.0750195657e+000	 1.0361667041e-001	 1.8798557397e+000
 1.0739524147e+000	 1.1414781419e-001	 1.9012113110e+000
 1.0727778536e+000	 1.2470451939e-001	 1.9250178709e+000
 1.0714949575e+000	 1.3528532538e-001	 1.9510866667e+000
 1.0701028245e+000	 1.4588874352e-001	 1.9792290207e+000
 1.0686005761e+000	 1.5651325743e-001	 2.0092562957e+000
 1.0669873587e+000	 1.6715732342e-001	 2.0409798445e+000
 1.0652623441e+000	 1.7781937083e-001	 2.0742109427e+000
 1.0634247304e+000	 1.8849780250e-001	 2.1087607065e+000
 1.0614737431e+000	 1.9919099519e-001	 2.1444399979e+000
 1.0594086357e+000	 2.0989730011e-001	 2.1810593173e+000
 1.1015643267e+000	 1.0617520966e-001	 2.2883487306e+000
 1.1004708253e+000	 1.1696639215e-001	 2.3007428804e+000
 1.0992672615e+000	 1.2778376722e-001	 2.3147132801e+000
 1.0979526877e+000	 1.3862583819e-001	 2.3300689943e+000
 1.0965261796e+000	 1.4949107966e-001	 2.3466198850e+000
 1.0949868371e+000	 1.6037793781e-001	 2.3641765441e+000
 1.0933337856e+000	 1.7128483081e-001	 2.3825502056e+000
 1.0915661763e+000	 1.8221014925e-001	 2.4015526379e+000
 1.0896831877e+000	 1.9315225650e-001	 2.4209960171e+000
 1.0876840259e+000	 2.0410948927e-001	 2.4406927842e+000
 1.0855679261e+000	 2.1508015803e-001	 2.4604554868e+000
 1.1281093001e+000	 1.0873376937e-001	 2.6550243769e+000
 1.1269894479e+000	 1.1978499265e-001	 2.6594970774e+000
 1.1257568813e+000	 1.3086303968e-001	 2.6648382928e+000
 1.1244106295e+000	 1.4196637773e-001	 2.6708492571e+000
 1.1229497461e+000	 1.5309344462e-001	 2.6773326360e+000
 1.1213733093e+000	 1.6424264910e-001	 2.6840924266e+000
 1.1196804233e+000	 1.7541237123e-001	 2.6909338330e+000
 1.1178702190e+000	 1.8660096279e-001	 2.6976631174e+000
 1.1159418550e+000	 1.9780674774e-001	 2.7040874297e+000
 1.1138945184e+000	 2.0902802269e-001	 2.7100146162e+000
 1.1117274258e+000	 2.2026305741e-001	 2.7152530108e+000
 1.1546544394e+000	 1.1129234508e-001	 2.9694503610e+000
 1.1535082364e+000	 1.2260361077e-001	 2.9669412884e+000
 1.1522466666e+000	 1.3394233139e-001	 2.9647506782e+000
 1.1508687367e+000	 1.4530693814e-001	 2.9626669536e+000
 1.1493734777e+000	 1.5669583209e-001	 2.9604805330e+000
 1.1477599464e+000	 1.6810738454e-001	 2.9579836968e+000
 1.1460272257e+000	 1.7953993743e-001	 2.9549704249e+000
 1.1441744261e+000	 1.9099180377e-001	 2.9512362064e+000
 1.1422006864e+000	 2.0246126806e-001	 2.9465778233e+000
 1.1401051746e+000	 2.1394658685e-001	 2.9407931103e+000
 1.1378870890e+000	 2.2544598918e-001	 2.9336806937e+000
 1.1811996981e+000	 1.1385093230e-001	 3.2220611701e+000
 1.1800271441e+000	 1.2542224157e-001	 3.2134237814e+000
 1.1787365711e+000	 1.3702163695e-001	 3.2047034353e+000
 1.1773269629e+000	 1.4864751358e-001	 3.1956714031e+000
 1.1757973282e+000	 1.6029823577e-001	 3.1861014624e+000
 1.1741467021e+000	 1.7197213737e-001	 3.1757697284e+000
 1.1723741466e+000	 1.8366752221e-001	 3.1644544521e+000
 1.1704787516e+000	 1.9538266450e-001	 3.1519357859e+000
 1.1684596360e+000	 2.0711580933e-001	 3.1379955185e+000
 1.1663159489e+000	 2.1886517314e-001	 3.1224167838e+000
 1.1640468699e+000	 2.3062894428e-001	 3.1049837440e+000
 1.2077450298e+000	 1.1640952656e-001	 3.4040657231e+000
 1.2065461248e+000	 1.2824088012e-001	 3.3900799009e+000
 1.2052265485e+000	 1.4010095098e-001	 3.3757494995e+000
 1.2037852618e+000	 1.5198809821e-001	 3.3608249144e+000
 1.2022212514e+000	 1.6390064935e-001	 3.3450595231e+000
 1.2005335305e+000	 1.7583690083e-001	 3.3282094789e+000
 1.1987211399e+000	 1.8779511834e-001	 3.3100334657e+000
 1.1967831493e+000	 1.9977353732e-001	 3.2902924157e+000
 1.1947186578e+000	 2.1177036340e-001	 3.2687491929e+000
 1.1925267952e+000	 2.2378377296e-001	 3.2451682453e+000
 1.1902067228e+000	 2.3581191362e-001	 3.2193152295e+000
 1.2342903880e+000	 1.1896812337e-001	 3.5073668667e+000
 1.2330651319e+000	 1.3105952148e-001	 3.4887503078e+000
 1.2317165523e+000	 1.4318026809e-001	 3.4696586782e+000
 1.2302435872e+000	 1.5532868618e-001	 3.4498183723e+000
 1.2286452010e+000	 1.6750306654e-001	 3.4289592258e+000
 1.2269203852e+000	 1.7970166815e-001	 3.4068142663e+000
 1.2250681596e+000	 1.9192271859e-001	 3.3831194211e+000
 1.2230875734e+000	 2.0416441451e-001	 3.3576131819e+000
 1.2209777059e+000	 2.1642492212e-001	 3.3300362314e+000
 1.2187376677e+000	 2.2870237769e-001	 3.3001310340e+000
 1.2163666018e+000	 2.4099488815e-001	 3.2676413947e+000
 1.2608357263e+000	 1.2152671826e-001	 3.5244909927e+000
 1.2595841192e+000	 1.3387816074e-001	 3.5019094912e+000
 1.2582065363e+000	 1.4625958289e-001	 3.4788450134e+000
 1.2567018928e+000	 1.5866927164e-001	 3.4549974136e+000
 1.2550691308e+000	 1.7110548102e-001	 3.4300704464e+000
 1.2533072201e+000	 1.8356643257e-001	 3.4037714702e+000
 1.2514151596e+000	 1.9605031575e-001	 3.3758111012e+000
 1.2493919777e+000	 2.0855528842e-001	 3.3459028197e+000
 1.2472367342e+000	 2.2107947735e-001	 3.3137625326e+000
 1.2449485205e+000	 2.3362097874e-001	 3.2791080954e+000
 1.2425264611e+000	 2.4617785878e-001	 3.2416587988e+000
 9.8093247774e-001	 1.9434906582e-001	 1.3309976393e+000
 9.7891370242e-001	 2.0427437664e-001	 1.4385656659e+000
 9.7678792810e-001	 2.1420870614e-001	 1.5507691669e+000
 9.7455454705e-001	 2.2415045650e-001	 1.6672738081e+000
 9.7221298076e-001	 2.3409800832e-001	 1.7877416200e+000
 9.6976268070e-001	 2.4404972108e-001	 1.9118311861e+000
 9.6720312906e-001	 2.5400393389e-001	 2.0391978407e+000
 9.6453383948e-001	 2.6395896607e-001	 2.1694938790e+000
 9.6175435779e-001	 2.7391311782e-001	 2.3023687802e+000
 9.5886426270e-001	 2.8386467101e-001	 2.4374694457e+000
 9.5586316651e-001	 2.9381188981e-001	 2.5744404527e+000
 1.0070908657e+000	 1.9953174493e-001	 1.6014063021e+000
 1.0050182560e+000	 2.0972173262e-001	 1.6827573589e+000
 1.0028357939e+000	 2.1992097947e-001	 1.7675766319e+000
 1.0005428556e+000	 2.3012784510e-001	 1.8555852772e+000
 9.9813884713e-001	 2.4034066687e-001	 1.9465023825e+000
 9.9562320526e-001	 2.5055776055e-001	 2.0400450627e+000
 9.9299539842e-001	 2.6077742095e-001	 2.1359285613e+000
 9.9025492727e-001	 2.7099792256e-001	 2.2338663607e+000
 9.8740132554e-001	 2.8121752028e-001	 2.3335703020e+000
 9.8443416069e-001	 2.9143445013e-001	 2.4347507168e+000
 9.8135303469e-001	 3.0164693001e-001	 2.5371165726e+000
 1.0332496003e+000	 2.0471449272e-001	 1.8899769646e+000
 1.0311231554e+000	 2.1516916078e-001	 1.9481790314e+000
 1.0288840049e+000	 2.2563332850e-001	 2.0088381077e+000
 1.0265315086e+000	 2.3610531289e-001	 2.0717185345e+000
 1.0240650570e+000	 2.4658340814e-001	 2.1365839631e+000
 1.0214840725e+000	 2.5706588626e-001	 2.2031973657e+000
 1.0187880095e+000	 2.6755099776e-001	 2.2713210489e+000
 1.0159763559e+000	 2.7803697233e-001	 2.3407166721e+000
 1.0130486331e+000	 2.8852201952e-001	 2.4111452738e+000
 1.0100043975e+000	 2.9900432955e-001	 2.4823673074e+000
 1.0068432406e+000	 3.0948207403e-001	 2.5541426882e+000
 1.0594086357e+000	 2.0989730011e-001	 2.1810593173e+000
 1.0572283551e+000	 2.2061665158e-001	 2.2189567345e+000
 1.0549325155e+000	 2.3134574322e-001	 2.2584497361e+000
 1.0525204604e+000	 2.4208284943e-001	 2.2993346960e+000
 1.0499915651e+000	 2.5282622120e-001	 2.3414084999e+000
 1.0473452371e+000	 2.6357408681e-001	 2.3844684774e+000
 1.0445809173e+000	 2.7432465247e-001	 2.4283123336e+000
 1.0416980803e+000	 2.8507610305e-001	 2.4727380837e+000
 1.0386962356e+000	 2.9582660277e-001	 2.5175439923e+000
 1.0355749283e+000	 3.0657429603e-001	 2.5625285215e+000
 1.0323337397e+000	 3.1731730815e-001	 2.6074902886e+000
 1.0855679261e+000	 2.1508015803e-001	 2.4604554868e+000
 1.0833338093e+000	 2.2606419549e-001	 2.4806916351e+000
 1.0809812800e+000	 2.3705821364e-001	 2.5018058597e+000
 1.0785096656e+000	 2.4806044425e-001	 2.5236164925e+000
 1.0759183259e+000	 2.5906909513e-001	 2.5459434125e+000
 1.0732066539e+000	 2.7008235081e-001	 2.5686079038e+000
 1.0703740765e+000	 2.8109837322e-001	 2.5914325096e+000
 1.0674200555e+000	 2.9211530239e-001	 2.6142408883e+000
 1.0643440882e+000	 3.0313125724e-001	 2.6368576721e+000
 1.0611457085e+000	 3.1414433632e-001	 2.6591083329e+000
 1.0578244873e+000	 3.2515261867e-001	 2.6808190584e+000
 1.1117274258e+000	 2.2026305741e-001	 2.7152530108e+000
 1.1094394723e+000	 2.3151178299e-001	 2.7202903148e+000
 1.1070302529e+000	 2.4277072976e-001	 2.7256265924e+000
 1.1044990787e+000	 2.5403808688e-001	 2.7310930728e+000
 1.1018452941e+000	 2.6531201900e-001	 2.7365234111e+000
 1.0990682775e+000	 2.7659066688e-001	 2.7417534735e+000
 1.0961674420e+000	 2.8787214816e-001	 2.7466211184e+000
 1.0931422364e+000	 2.9915455805e-001	 2.7509659762e+000
 1.0899921460e+000	 3.1043597014e-001	 2.7546292318e+000
 1.0867166932e+000	 3.2171443716e-001	 2.7574534129e+000
 1.0833154388e+000	 3.3298799187e-001	 2.7592821887e+000
 1.1378870890e+000	 2.2544598918e-001	 2.9336806937e+000
 1.1355452985e+000	 2.3695940452e-001	 2.9258183069e+000
 1.1330793886e+000	 2.4848328157e-001	 2.9178089960e+000
 1.1304886542e+000	 2.6001576688e-001	 2.9094887871e+000
 1.1277724244e+000	 2.7155498189e-001	 2.9006968621e+000
 1.1249300628e+000	 2.8309902363e-001	 2.8912752729e+000
 1.1219609688e+000	 2.9464596544e-001	 2.8810686503e+000
 1.1188645781e+000	 3.0619385771e-001	 2.8699239097e+000
 1.1156403640e+000	 3.1774072869e-001	 2.8576899591e+000
 1.1122878377e+000	 3.2928458532e-001	 2.8442174126e+000
 1.1088065496e+000	 3.4082341404e-001	 2.8293583153e+000
 1.1640468699e+000	 2.3062894428e-001	 3.1049837440e+000
 1.1616512422e+000	 2.4240705058e-001	 3.0863732193e+000
 1.1591286415e+000	 2.5419585909e-001	 3.0672981516e+000
 1.1564783467e+000	 2.6599347377e-001	 3.0475921779e+000
 1.1536996713e+000	 2.7779797287e-001	 3.0270926801e+000
 1.1507919644e+000	 2.8960740966e-001	 3.0056404279e+000
 1.1477546116e+000	 3.0141981319e-001	 2.9830792142e+000
 1.1445870356e+000	 3.1323318903e-001	 2.9592554875e+000
 1.1412886975e+000	 3.2504552012e-001	 2.9340179848e+000
 1.1378590973e+000	 3.3685476754e-001	 2.9072173723e+000
 1.1342977751e+000	 3.4865887146e-001	 2.8787058961e+000
 1.1902067228e+000	 2.3581191362e-001	 3.2193152295e+000
 1.1877572576e+000	 2.4785471161e-001	 3.1919744315e+000
 1.1851779660e+000	 2.5990845232e-001	 3.1639750665e+000
 1.1824681106e+000	 2.7197119710e-001	 3.1351420732e+000
 1.1796269895e+000	 2.8404098101e-001	 3.1053045907e+000
 1.1766539372e+000	 2.9611581358e-001	 3.0742955272e+000
 1.1735483253e+000	 3.0819367957e-001	 3.0419511205e+000
 1.1703095637e+000	 3.2027253972e-001	 3.0081104939e+000
 1.1669371014e+000	 3.3235033162e-001	 2.9726152137e+000
 1.1634304272e+000	 3.4442497057e-001	 2.9353088547e+000
 1.1597890707e+000	 3.5649435043e-001	 2.8960365779e+000
 1.2163666018e+000	 2.4099488815e-001	 3.2676413947e+000
 1.2138632991e+000	 2.5330237808e-001	 3.2334668715e+000
 1.2112273166e+000	 2.6562105126e-001	 3.1985588837e+000
 1.2084579005e+000	 2.7794892640e-001	 3.1627282080e+000
 1.2055543337e+000	 2.9028399540e-001	 3.1257901497e+000
 1.2025159358e+000	 3.0262422402e-001	 3.0875640332e+000
 1.1993420648e+000	 3.1496755272e-001	 3.0478726826e+000
 1.1960321176e+000	 3.2731189744e-001	 3.0065418979e+000
 1.1925855311e+000	 3.3965515044e-001	 2.9633999338e+000
 1.1890017827e+000	 3.5199518117e-001	 2.9182769865e+000
 1.1852803918e+000	 3.6432983724e-001	 2.8710046959e+000
 1.2425264611e+000	 2.4617785878e-001	 3.2416587988e+000
 1.2399693210e+000	 2.5875004047e-001	 3.2024367988e+000
 1.2372766476e+000	 2.7133364591e-001	 3.1625212866e+000
 1.2344476710e+000	 2.8392665122e-001	 3.1217042335e+000
 1.2314816584e+000	 2.9652700510e-001	 3.0797823461e+000
 1.2283779150e+000	 3.0913262957e-001	 3.0365564720e+000
 1.2251357850e+000	 3.2174142079e-001	 2.9918309949e+000
 1.2217546522e+000	 3.3435124988e-001	 2.9454132257e+000
 1.2182339414e+000	 3.4695996377e-001	 2.8971127960e+000
 1.2145731190e+000	 3.5956538610e-001	 2.8467410627e+000
 1.2107716938e+000	 3.7216531816e-001	 2.7941105293e+000
 9.5586316651e-001	 2.9381188981e-001	 2.5744404527e+000
 9.5275071551e-001	 3.0375302140e-001	 2.7129411542e+000
 9.4952658997e-001	 3.1368629624e-001	 2.8525785078e+000
 9.4619050544e-001	 3.2360992937e-001	 2.9929203533e+000
 9.4274221361e-001	 3.3352212132e-001	 3.1335395626e+000
 9.3918150291e-001	 3.4342105900e-001	 3.2740146153e+000
 9.3550819912e-001	 3.5330491665e-001	 3.4139301916e+000
 9.3172216582e-001	 3.6317185667e-001	 3.5528777825e+000
 9.2782330500e-001	 3.7302003062e-001	 3.6904563206e+000
 9.2381155749e-001	 3.8284758015e-001	 3.8262728277e+000
 9.1968690347e-001	 3.9265263800e-001	 3.9599430840e+000
 9.8135303469e-001	 3.0164693001e-001	 2.5371165726e+000
 9.7815758441e-001	 3.1185316035e-001	 2.6405665908e+000
 9.7484748157e-001	 3.2205132444e-001	 2.7449614075e+000
 9.7142243413e-001	 3.3223958969e-001	 2.8499544802e+000
 9.6788218719e-001	 3.4241610866e-001	 2.9552029676e+000
 9.6422652353e-001	 3.5257901993e-001	 3.0603681302e+000
 9.6045526426e-001	 3.6272644901e-001	 3.1651157505e+000
 9.5656826934e-001	 3.7285650933e-001	 3.2691165737e+000
 9.5256543815e-001	 3.8296730315e-001	 3.3720467714e+000
 9.4844670994e-001	 3.9305692255e-001	 3.4735884280e+000
 9.4421206435e-001	 4.0312345050e-001	 3.5734300513e+000
 1.0068432406e+000	 3.0948207403e-001	 2.5541426882e+000
 1.0035647899e+000	 3.1995340664e-001	 2.6265433558e+000
 1.0001687087e+000	 3.3041646348e-001	 2.6996198538e+000
 9.9665469716e-001	 3.4086936436e-001	 2.7731014764e+000
 9.9302249388e-001	 3.5131021386e-001	 2.8467201480e+000
 9.8927187599e-001	 3.6173710219e-001	 2.9202106596e+000
 9.8540265995e-001	 3.7214810621e-001	 2.9933109276e+000
 9.8141470208e-001	 3.8254129032e-001	 3.0657622770e+000
 9.7730789914e-001	 3.9291470747e-001	 3.1373097498e+000
 9.7308218881e-001	 4.0326640023e-001	 3.2077024420e+000
 9.6873755019e-001	 4.1359440173e-001	 3.2766938679e+000
 1.0323337397e+000	 3.1731730815e-001	 2.6074902886e+000
 1.0289722877e+000	 3.2805374608e-001	 2.6526195471e+000
 1.0254902270e+000	 3.3878169871e-001	 2.6981040586e+000
 1.0218872503e+000	 3.4949923827e-001	 2.7437401067e+000
 1.0181630897e+000	 3.6020442133e-001	 2.7893257667e+000
 1.0143175165e+000	 3.7089528978e-001	 2.8346609879e+000
 1.0103503425e+000	 3.8156987176e-001	 2.8795477011e+000
 1.0062614206e+000	 3.9222618267e-001	 2.9237899530e+000
 1.0020506447e+000	 4.0286222620e-001	 2.9671940714e+000
 9.9771795098e-001	 4.1347599532e-001	 3.0095688606e+000
 9.9326331808e-001	 4.2406547339e-001	 3.0507258328e+000
 1.0578244873e+000	 3.2515261867e-001	 2.6808190584e+000
 1.0543800331e+000	 3.3615416449e-001	 2.7022537044e+000
 1.0508119921e+000	 3.4714701551e-001	 2.7236946067e+000
 1.0471200496e+000	 3.5812919632e-001	 2.7449970621e+000
 1.0433039306e+000	 3.6909871553e-001	 2.7660175287e+000
 1.0393634012e+000	 3.8005356666e-001	 2.7866135614e+000
 1.0352982684e+000	 3.9099172917e-001	 2.8066437759e+000
 1.0311083813e+000	 4.0191116946e-001	 2.8259678433e+000
 1.0267936314e+000	 4.1280984191e-001	 2.8444465189e+000
 1.0223539533e+000	 4.2368568994e-001	 2.8619417070e+000
 1.0177893251e+000	 4.3453664713e-001	 2.8783165662e+000
 1.0833154388e+000	 3.3298799187e-001	 2.7592821887e+000
 1.0797879818e+000	 3.4425464771e-001	 2.7604175735e+000
 1.0761339599e+000	 3.5551239922e-001	 2.7612029633e+000
 1.0723530506e+000	 3.6675922341e-001	 2.7615455128e+000
 1.0684449726e+000	 3.7799308087e-001	 2.7613530896e+000
 1.0644094862e+000	 3.8921191680e-001	 2.7605340706e+000
 1.0602463938e+000	 4.0041366195e-001	 2.7589971678e+000
 1.0559555408e+000	 4.1159623372e-001	 2.7566512900e+000
 1.0515368161e+000	 4.2275753719e-001	 2.7534054413e+000
 1.0469901528e+000	 4.3389546624e-001	 2.7491686636e+000
 1.0423155283e+000	 4.4500790464e-001	 2.7438500225e+000
 1.1088065496e+000	 3.4082341404e-001	 2.8293583153e+000
 1.1051960893e+000	 3.5235518156e-001	 2.8134258448e+000
 1.1014560858e+000	 3.6387783522e-001	 2.7967992682e+000
 1.0975862094e+000	 3.7538930443e-001	 2.7794312175e+000
 1.0935861718e+000	 3.8688750181e-001	 2.7612747493e+000
 1.0894557277e+000	 3.9837032417e-001	 2.7422830043e+000
 1.0851946751e+000	 4.0983565361e-001	 2.7224089005e+000
 1.0808028555e+000	 4.2128135850e-001	 2.7016048660e+000
 1.0762801555e+000	 4.3270529465e-001	 2.6798226139e+000
 1.0716265062e+000	 4.4410530635e-001	 2.6570129660e+000
 1.0668418848e+000	 4.5547922759e-001	 2.6331257277e+000
 1.1342977751e+000	 3.4865887146e-001	 2.8787058961e+000
 1.1306043111e+000	 3.6045575185e-001	 2.8487886272e+000
 1.1267783258e+000	 3.7224330886e-001	 2.8178631246e+000
 1.1228194817e+000	 3.8401942429e-001	 2.7859218563e+000
 1.1187274841e+000	 3.9578196276e-001	 2.7529575614e+000
 1.1145020820e+000	 4.0752877276e-001	 2.7189627756e+000
 1.1101430686e+000	 4.1925768767e-001	 2.6839293946e+000
 1.1056502821e+000	 4.3096652687e-001	 2.6478482806e+000
 1.1010236061e+000	 4.4265309687e-001	 2.6107089175e+000
 1.0962629705e+000	 4.5431519240e-001	 2.5724991203e+000
 1.0913683516e+000	 4.6595059765e-001	 2.5332048031e+000
 1.1597890707e+000	 3.5649435043e-001	 2.8960365779e+000
 1.1560126028e+000	 3.6855634442e-001	 2.8550831601e+000
 1.1521006353e+000	 3.8060880550e-001	 2.8128538496e+000
 1.1480528233e+000	 3.9264956787e-001	 2.7693760160e+000
 1.1438688655e+000	 4.0467644817e-001	 2.7246772581e+000
 1.1395485051e+000	 4.1668724653e-001	 2.6787847966e+000
 1.1350915308e+000	 4.2867974763e-001	 2.6317249070e+000
 1.1304977770e+000	 4.4065172187e-001	 2.5835224032e+000
 1.1257671249e+000	 4.5260092644e-001	 2.5342001735e+000
 1.1208995025e+000	 4.6452510652e-001	 2.4837787794e+000
 1.1158948859e+000	 4.7642199651e-001	 2.4322761187e+000
 1.1852803918e+000	 3.6432983724e-001	 2.8710046959e+000
 1.1814209198e+000	 3.7665694509e-001	 2.8218418697e+000
 1.1774229702e+000	 3.8897431050e-001	 2.7711972551e+000
 1.1732861903e+000	 4.0127972008e-001	 2.7191288702e+000
 1.1690102721e+000	 4.1357094248e-001	 2.6656950091e+000
 1.1645949533e+000	 4.2584572945e-001	 2.6109534987e+000
 1.1600400179e+000	 4.3810181702e-001	 2.5549610027e+000
 1.1553452968e+000	 4.5033692655e-001	 2.4977723797e+000
 1.1505106683e+000	 4.6254876595e-001	 2.4394401026e+000
 1.1455360592e+000	 4.7473503085e-001	 2.3800137457e+000
 1.1404214447e+000	 4.8689340584e-001	 2.3195395469e+000
 1.2107716938e+000	 3.7216531816e-001	 2.7941105293e+000
 1.2068292178e+000	 3.8475753968e-001	 2.7394543614e+000
 1.2027452861e+000	 3.9733980923e-001	 2.6831865262e+000
 1.1985195382e+000	 4.0990986582e-001	 2.6253920972e+000
 1.1941516598e+000	 4.2246543011e-001	 2.5661565347e+000
 1.1896413827e+000	 4.3500420550e-001	 2.5055648047e+000
 1.1849884863e+000	 4.4752387933e-001	 2.4437005504e+000
 1.1801927979e+000	 4.6002212396e-001	 2.3806453232e+000
 1.1752541932e+000	 4.7249659800e-001	 2.3164778838e+000
 1.1701725973e+000	 4.8494494752e-001	 2.2512735780e+000
 1.1649479851e+000	 4.9736480731e-001	 2.1851037976e+000
 9.1968690347e-001	 3.9265263800e-001	 3.9599430840e+000
 9.1545000704e-001	 4.0243186398e-001	 4.0914688784e+000
 9.1110031866e-001	 4.1218484971e-001	 4.2207721755e+000
 9.0663793965e-001	 4.2190970867e-001	 4.3472960726e+000
 9.0206301214e-001	 4.3160454958e-001	 4.4704839800e+000
 8.9737571948e-001	 4.4126747746e-001	 4.5897805724e+000
 8.9257628643e-001	 4.5089659477e-001	 4.7046327802e+000
 8.8766497944e-001	 4.6049000248e-001	 4.8144908205e+000
 8.8264210687e-001	 4.7004580118e-001	 4.9188092651e+000
 8.7750801914e-001	 4.7956209226e-001	 5.0170481454e+000
 8.7226310887e-001	 4.8903697900e-001	 5.1086740918e+000
 9.4421206435e-001	 4.0312345050e-001	 3.5734300513e+000
 9.3986218320e-001	 4.1316345771e-001	 3.6714126400e+000
 9.3539650230e-001	 4.2317652494e-001	 3.7673863307e+000
 9.3081512565e-001	 4.3316071535e-001	 3.8610135416e+000
 9.2611819920e-001	 4.4311408720e-001	 3.9519565557e+000
 9.2130591116e-001	 4.5303469502e-001	 4.0398781097e+000
 9.1637849231e-001	 4.6292059064e-001	 4.1244420230e+000
 9.1133621619e-001	 4.7276982440e-001	 4.2053138677e+000
 9.0617939939e-001	 4.8258044624e-001	 4.2821616781e+000
 9.0090840166e-001	 4.9235050691e-001	 4.3546566993e+000
 8.9552362611e-001	 5.0207805912e-001	 4.4224741741e+000
 9.6873755019e-001	 4.1359440173e-001	 3.2766938679e+000
 9.6427468282e-001	 4.2389519365e-001	 3.3439963938e+000
 9.5969300786e-001	 4.3416834581e-001	 3.4094000472e+000
 9.5499263200e-001	 4.4441187110e-001	 3.4727471251e+000
 9.5017370499e-001	 4.5462377733e-001	 3.5338793718e+000
 9.4523641993e-001	 4.6480206850e-001	 3.5926382638e+000
 9.4018101357e-001	 4.7494474584e-001	 3.6488653371e+000
 9.3500776659e-001	 4.8504980903e-001	 3.7024025568e+000
 9.2971700378e-001	 4.9511525738e-001	 3.7530927310e+000
 9.2430909425e-001	 5.0513909100e-001	 3.8007799660e+000
 9.1878445156e-001	 5.1511931203e-001	 3.8453101662e+000
 9.9326331808e-001	 4.2406547339e-001	 3.0507258328e+000
 9.8868746319e-001	 4.3462705299e-001	 3.0902757593e+000
 9.8398979283e-001	 4.4516029309e-001	 3.1279567298e+000
 9.7917041640e-001	 4.5566315623e-001	 3.1637544841e+000
 9.7422948742e-001	 4.6613359982e-001	 3.1976538039e+000
 9.6916720389e-001	 4.7656957730e-001	 3.2296385498e+000
 9.6398380856e-001	 4.8696903931e-001	 3.2596917424e+000
 9.5867958921e-001	 4.9732993488e-001	 3.2877956913e+000
 9.5325487885e-001	 5.0765021267e-001	 3.3139321710e+000
 9.4771005594e-001	 5.1792782216e-001	 3.3380826455e+000
 9.4204554451e-001	 5.2816071491e-001	 3.3602285400e+000
 1.0177893251e+000	 4.3453664713e-001	 2.8783165662e+000
 1.0131004816e+000	 4.4535901697e-001	 2.8931026963e+000
 1.0082868147e+000	 4.5615234754e-001	 2.9059912247e+000
 1.0033484365e+000	 4.6691455107e-001	 2.9170776218e+000
 9.9828550439e-001	 4.7764353453e-001	 2.9264559875e+000
 9.9309822118e-001	 4.8833720083e-001	 2.9342188919e+000
 9.8778683563e-001	 4.9899345001e-001	 2.9404572656e+000
 9.8235164262e-001	 5.0961018045e-001	 2.9452603426e+000
 9.7679298341e-001	 5.2018529017e-001	 2.9487156553e+000
 9.7111124578e-001	 5.3071667801e-001	 2.9509090849e+000
 9.6530686424e-001	 5.4120224495e-001	 2.9519249661e+000
 1.0423155283e+000	 4.4500790464e-001	 2.7438500225e+000
 1.0375136953e+000	 4.5609106680e-001	 2.7369202018e+000
 1.0325840309e+000	 4.6714448992e-001	 2.7280254584e+000
 1.0275266501e+000	 4.7816603591e-001	 2.7173397554e+000
 1.0223417138e+000	 4.8915356131e-001	 2.7050352458e+000
 1.0170294299e+000	 5.0010491850e-001	 2.6912819667e+000
 1.0115900531e+000	 5.1101795690e-001	 2.6762475899e+000
 1.0060238854e+000	 5.2189052427e-001	 2.6600972305e+000
 1.0003312763e+000	 5.3272046795e-001	 2.6429933168e+000
 9.9451262283e-001	 5.4350563617e-001	 2.6250955208e+000
 9.8856837007e-001	 5.5424387931e-001	 2.6065607525e+000
 1.0668418848e+000	 4.5547922759e-001	 2.6331257277e+000
 1.0619270615e+000	 4.6682318370e-001	 2.6075851497e+000
 1.0568813990e+000	 4.7813670099e-001	 2.5799921022e+000
 1.0517050147e+000	 4.8941759107e-001	 2.5505700582e+000
 1.0463980736e+000	 5.0066366003e-001	 2.5195401921e+000
 1.0409607882e+000	 5.1187270971e-001	 2.4871209749e+000
 1.0353934194e+000	 5.2304253894e-001	 2.4535278335e+000
 1.0296962761e+000	 5.3417094483e-001	 2.4189728763e+000
 1.0238697162e+000	 5.4525572408e-001	 2.3836646884e+000
 1.0179141461e+000	 5.5629467426e-001	 2.3478081965e+000
 1.0118300213e+000	 5.6728559518e-001	 2.3116046066e+000
 1.0913683516e+000	 4.6595059765e-001	 2.5332048031e+000
 1.0863405376e+000	 4.7755534890e-001	 2.4922148469e+000
 1.0811788764e+000	 4.8912896153e-001	 2.4490818565e+000
 1.0758834882e+000	 5.0066919685e-001	 2.4040518916e+000
 1.0704545416e+000	 5.1217381054e-001	 2.3573681537e+000
 1.0648922542e+000	 5.2364055388e-001	 2.3092705271e+000
 1.0591968927e+000	 5.3506717509e-001	 2.2599951934e+000
 1.0533687734e+000	 5.4645142066e-001	 2.2097743221e+000
 1.0474082621e+000	 5.5779103660e-001	 2.1588358410e+000
 1.0413157747e+000	 5.6908376989e-001	 2.1074032868e+000
 1.0350917771e+000	 5.8032736974e-001	 2.0556957389e+000
 1.1158948859e+000	 4.7642199651e-001	 2.4322761187e+000
 1.1107540809e+000	 4.8828754360e-001	 2.3790536607e+000
 1.1054764206e+000	 5.0012125229e-001	 2.3236107224e+000
 1.1000620281e+000	 5.1192083358e-001	 2.2661909138e+000
 1.0945110757e+000	 5.2368399270e-001	 2.2070343322e+000
 1.0888237859e+000	 5.3540843040e-001	 2.1463770914e+000
 1.0830004315e+000	 5.4709184431e-001	 2.0844509362e+000
 1.0770413357e+000	 5.5873193024e-001	 2.0214829444e+000
 1.0709468727e+000	 5.7032638360e-001	 1.9576953198e+000
 1.0647174677e+000	 5.8187290068e-001	 1.8933052779e+000
 1.0583535970e+000	 5.9336918015e-001	 1.8285250265e+000
 1.1404214447e+000	 4.8689340584e-001	 2.3195395469e+000
 1.1351676485e+000	 4.9901974903e-001	 2.2573566961e+000
 1.1297739892e+000	 5.1111355404e-001	 2.1929042536e+000
 1.1242405922e+000	 5.2317248155e-001	 2.1264000752e+000
 1.1185676339e+000	 5.3519418636e-001	 2.0580577297e+000
 1.1127553416e+000	 5.4717631868e-001	 1.9880860572e+000
 1.1068039941e+000	 5.5911652554e-001	 1.9166888261e+000
 1.1007139217e+000	 5.7101245211e-001	 1.8440644899e+000
 1.0944855069e+000	 5.8286174312e-001	 1.7704060497e+000
 1.0881191840e+000	 5.9466204427e-001	 1.6959010226e+000
 1.0816154401e+000	 6.0641100360e-001	 1.6207315183e+000
 1.1649479851e+000	 4.9736480731e-001	 2.1851037976e+000
 1.1595811979e+000	 5.0975194641e-001	 2.1172880128e+000
 1.1540715394e+000	 5.2210584754e-001	 2.0471962871e+000
 1.1484191381e+000	 5.3442412108e-001	 1.9749990120e+000
 1.1426241741e+000	 5.4670437139e-001	 1.9008613718e+000
 1.1366868794e+000	 5.5894419814e-001	 1.8249429701e+000
 1.1306075389e+000	 5.7114119775e-001	 1.7473975685e+000
 1.1243864900e+000	 5.8329296476e-001	 1.6683729428e+000
 1.1180241233e+000	 5.9539709325e-001	 1.5880108575e+000
 1.1115208828e+000	 6.0745117825e-001	 1.5064471643e+000
 1.1048772657e+000	 6.1945281727e-001	 1.4238120229e+000
 8.7226310887e-001	 4.8903697900e-001	 5.1086740918e+000
 8.6690699948e-001	 4.9846997940e-001	 5.1926113548e+000
 8.6144094757e-001	 5.0785777912e-001	 5.2682959868e+000
 8.5586547377e-001	 5.1719849384e-001	 5.3360176021e+000
 8.5018114112e-001	 5.2649024586e-001	 5.3960789649e+000
 8.4438855498e-001	 5.3573116523e-001	 5.4487958233e+000
 8.3848836297e-001	 5.4491939094e-001	 5.4944967450e+000
 8.3248125485e-001	 5.5405307210e-001	 5.5335229544e+000
 8.2636796230e-001	 5.6313036914e-001	 5.5662281699e+000
 8.2014925879e-001	 5.7214945494e-001	 5.5929784408e+000
 8.1382595926e-001	 5.8110851606e-001	 5.6141519817e+000
 8.9552362611e-001	 5.0207805912e-001	 4.4224741741e+000
 8.9002468611e-001	 5.1176260801e-001	 4.4846764433e+000
 8.8441287176e-001	 5.2140075085e-001	 4.5405326927e+000
 8.7868871760e-001	 5.3099055310e-001	 4.5900691639e+000
 8.7285280165e-001	 5.4053008696e-001	 4.6333227749e+000
 8.6690574543e-001	 5.5001743262e-001	 4.6703414425e+000
 8.6084821383e-001	 5.5945067945e-001	 4.7011844196e+000
 8.5468091501e-001	 5.6882792720e-001	 4.7259226446e+000
 8.4840460015e-001	 5.7814728723e-001	 4.7446391016e+000
 8.4202006336e-001	 5.8740688373e-001	 4.7574291885e+000
 8.3552814128e-001	 5.9660485487e-001	 4.7644010909e+000
 9.1878445156e-001	 5.1511931203e-001	 3.8453101662e+000
 9.1314267905e-001	 5.2505541274e-001	 3.8859258349e+000
 9.0738510034e-001	 5.3494390203e-001	 3.9218354464e+000
 9.0151226383e-001	 5.4478279510e-001	 3.9528607905e+000
 8.9552476258e-001	 5.5457011409e-001	 3.9788321596e+000
 8.8942323424e-001	 5.6430388931e-001	 3.9995890762e+000
 8.8320836097e-001	 5.7398216050e-001	 4.0149810485e+000
 8.7688086931e-001	 5.8360297806e-001	 4.0248683480e+000
 8.7044152999e-001	 5.9316440431e-001	 4.0291228082e+000
 8.6389115771e-001	 6.0266451468e-001	 4.0276286398e+000
 8.5723061087e-001	 6.1210139900e-001	 4.0202832596e+000
 9.4204554451e-001	 5.2816071491e-001	 3.3602285400e+000
 9.3626093785e-001	 5.3834837034e-001	 3.3798186733e+000
 9.3035759310e-001	 5.4848720896e-001	 3.3960861311e+000
 9.2433607253e-001	 5.5857519572e-001	 3.4087027412e+000
 9.1819698423e-001	 5.6861030267e-001	 3.4173469230e+000
 9.1194098199e-001	 5.7859051029e-001	 3.4217047437e+000
 9.0556876524e-001	 5.8851380866e-001	 3.4214710123e+000
 8.9908107892e-001	 5.9837819884e-001	 3.4163504074e+000
 8.9247871325e-001	 6.0818169408e-001	 3.4060586348e+000
 8.8576250357e-001	 6.1792232109e-001	 3.3903236109e+000
 8.7893333002e-001	 6.2759812135e-001	 3.3688866669e+000
 9.6530686424e-001	 5.4120224495e-001	 2.9519249661e+000
 9.5937942204e-001	 5.5164145755e-001	 2.9514301860e+000
 9.5333030983e-001	 5.6203064793e-001	 2.9487489241e+000
 9.4716010376e-001	 5.7236773080e-001	 2.9434535109e+000
 9.4086942694e-001	 5.8265062815e-001	 2.9351211874e+000
 9.3445894929e-001	 5.9287727056e-001	 2.9233354148e+000
 9.2792938752e-001	 6.0304559850e-001	 2.9076872339e+000
 9.2128150497e-001	 6.1315356367e-001	 2.8877766679e+000
 9.1451611137e-001	 6.2319913026e-001	 2.8632141657e+000
 9.0763406268e-001	 6.3318027626e-001	 2.8336220789e+000
 9.0063626078e-001	 6.4309499478e-001	 2.7986361675e+000
 9.8856837007e-001	 5.5424387931e-001	 2.6065607525e+000
 9.8249809118e-001	 5.6493465109e-001	 2.5872726624e+000
 9.7630321034e-001	 5.7557419525e-001	 2.5666959184e+000
 9.6998431758e-001	 5.8616037623e-001	 2.5443501536e+000
 9.6354205101e-001	 5.9669106594e-001	 2.5197584245e+000
 9.5697709672e-001	 6.0716414512e-001	 2.4924487060e+000
 9.5029018868e-001	 6.1757750460e-001	 2.4619554455e+000
 9.4348210862e-001	 6.2792904671e-001	 2.4278211719e+000
 9.3655368578e-001	 6.3821668658e-001	 2.3895981540e+000
 9.2950579675e-001	 6.4843835349e-001	 2.3468501022e+000
 9.2233936515e-001	 6.5859199218e-001	 2.2991539063e+000
 1.0118300213e+000	 5.6728559518e-001	 2.3116046066e+000
 1.0056169048e+000	 5.7822792772e-001	 2.2751411552e+000
 9.9927625442e-001	 5.8911782720e-001	 2.2380568584e+000
 9.9280867404e-001	 5.9995310785e-001	 2.1998621004e+000
 9.8621481679e-001	 6.1073159149e-001	 2.1600693640e+000
 9.7949538489e-001	 6.2145110897e-001	 2.1181948429e+000
 9.7265112959e-001	 6.3210950151e-001	 2.0737601267e+000
 9.6568285101e-001	 6.4270462208e-001	 2.0262939493e+000
 9.5859139792e-001	 6.5323433675e-001	 1.9753339976e+000
 9.5137766752e-001	 6.6369652607e-001	 1.9204287721e+000
 9.4404260515e-001	 6.7408908643e-001	 1.8615132422e+000
 1.0350917771e+000	 5.8032736974e-001	 2.0556957389e+000
 1.0287358225e+000	 5.9152126415e-001	 2.0039800210e+000
 1.0222494019e+000	 6.0266152010e-001	 1.9520891968e+000
 1.0156331332e+000	 6.1374590153e-001	 1.8995647794e+000
 1.0088876846e+000	 6.2477218021e-001	 1.8459491822e+000
 1.0020137744e+000	 6.3573813710e-001	 1.7907873888e+000
 9.9501217112e-001	 6.4664156381e-001	 1.7336287046e+000
 9.8788369330e-001	 6.5748026394e-001	 1.6740285845e+000
 9.8062920921e-001	 6.6825205450e-001	 1.6115662990e+000
 9.7324963670e-001	 6.7895476732e-001	 1.5467384954e+000
 9.6574594281e-001	 6.8958625042e-001	 1.4796226903e+000
 1.0583535970e+000	 5.9336918015e-001	 1.8285250265e+000
 1.0518548037e+000	 6.0481463715e-001	 1.7637670920e+000
 1.0452226125e+000	 6.1620525025e-001	 1.6990653484e+000
 1.0384576551e+000	 6.2753873314e-001	 1.6340299897e+000
 1.0315606147e+000	 6.3881280753e-001	 1.5682710060e+000
 1.0245322258e+000	 6.5002520452e-001	 1.5013998520e+000
 1.0173732741e+000	 6.6117366607e-001	 1.4330312076e+000
 1.0100845966e+000	 6.7225594642e-001	 1.3629735133e+000
 1.0026670811e+000	 6.8326981354e-001	 1.2919427373e+000
 9.9512166602e-001	 6.9421305052e-001	 1.2196868536e+000
 9.8744934015e-001	 7.0508345701e-001	 1.1457934794e+000
 1.0816154401e+000	 6.0641100360e-001	 1.6207315183e+000
 1.0749738080e+000	 6.1810802343e-001	 1.5454128284e+000
 1.0681958461e+000	 6.2974899393e-001	 1.4701745528e+000
 1.0612821999e+000	 6.4133157855e-001	 1.3947305111e+000
 1.0542335675e+000	 6.5285344890e-001	 1.3187932760e+000
 1.0470506997e+000	 6.6431228622e-001	 1.2420757832e+000
 1.0397343995e+000	 6.7570578286e-001	 1.1647516828e+000
 1.0322855222e+000	 6.8703164368e-001	 1.0874597422e+000
 1.0247049750e+000	 6.9828758759e-001	 1.0098687294e+000
 1.0169937172e+000	 7.0947134897e-001	 9.3164373265e-001
 1.0091527592e+000	 7.2058067910e-001	 8.5248007489e-001
 1.1048772657e+000	 6.1945281727e-001	 1.4238120229e+000
 1.0980927950e+000	 6.3140139974e-001	 1.3406722427e+000
 1.0911690624e+000	 6.4329272745e-001	 1.2574371929e+000
 1.0841067275e+000	 6.5512441360e-001	 1.1739568503e+000
 1.0769065033e+000	 6.6689407973e-001	 1.0900791334e+000
 1.0695691567e+000	 6.7859935721e-001	 1.0063823239e+000
 1.0620955081e+000	 6.9023788874e-001	 9.2331421836e-001
 1.0544864310e+000	 7.0180732985e-001	 8.4062030770e-001
 1.0467428524e+000	 7.1330535038e-001	 7.5807589184e-001
 1.0388657520e+000	 7.2472963597e-001	 6.7548708808e-001
 1.0308561619e+000	 7.3607788956e-001	 5.9269175229e-001
 8.1382595926e-001	 5.8110851606e-001	 5.6141519817e+000
 8.0739891962e-001	 5.9000575367e-001	 5.6302380299e+000
 8.0086903579e-001	 5.9883938412e-001	 5.6408753094e+000
 7.9423724396e-001	 6.0760764065e-001	 5.6451894283e+000
 7.8750452048e-001	 6.1630877477e-001	 5.6423266462e+000
 7.8067188138e-001	 6.2494105736e-001	 5.6314561096e+000
 7.7374038194e-001	 6.3350277976e-001	 5.6117720704e+000
 7.6671111609e-001	 6.4199225496e-001	 5.5824960780e+000
 7.5958521594e-001	 6.5040781861e-001	 5.5428791402e+000
 7.5236385116e-001	 6.5874783014e-001	 5.4922038430e+000
 7.4504822833e-001	 6.6701067379e-001	 5.4297871603e+000
 8.3552814128e-001	 5.9660485487e-001	 4.7644010909e+000
 8.2892971269e-001	 6.0573935386e-001	 4.7660786382e+000
 8.2222569736e-001	 6.1480854948e-001	 4.7624515569e+000
 8.1541705648e-001	 6.2381062787e-001	 4.7528512510e+000
 8.0850479241e-001	 6.3274379391e-001	 4.7366301346e+000
 8.0148994829e-001	 6.4160627235e-001	 4.7131636257e+000
 7.9437360752e-001	 6.5039630900e-001	 4.6818521212e+000
 7.8715689323e-001	 6.5911217184e-001	 4.6421229462e+000
 7.7984096771e-001	 6.6775215214e-001	 4.5934407538e+000
 7.7242703182e-001	 6.7631456557e-001	 4.5359690710e+000
 7.6491632430e-001	 6.8479775331e-001	 4.4696236589e+000
 8.5723061087e-001	 6.1210139900e-001	 4.0202832596e+000
 8.5046079104e-001	 6.2147316252e-001	 4.0076230770e+000
 8.4358264192e-001	 6.3077792643e-001	 3.9899125589e+000
 8.3659714963e-001	 6.4001382979e-001	 3.9666661868e+000
 8.2950534259e-001	 6.4917903082e-001	 3.9374193129e+000
 8.2230829104e-001	 6.5827170817e-001	 3.9017299502e+000
 8.1500710650e-001	 6.6729006209e-001	 3.8591832318e+000
 8.0760294129e-001	 6.7623231556e-001	 3.8100724196e+000
 8.0009698788e-001	 6.8509671548e-001	 3.7545355195e+000
 7.9249047831e-001	 6.9388153377e-001	 3.6921976714e+000
 7.8478468353e-001	 7.0258506851e-001	 3.6227169362e+000
 8.7893333002e-001	 6.2759812135e-001	 3.3688866669e+000
 8.7199211700e-001	 6.3720715211e-001	 3.3422747568e+000
 8.6493983207e-001	 6.4674748704e-001	 3.3109547957e+000
 8.5777748635e-001	 6.5621721804e-001	 3.2746030559e+000
 8.5050613428e-001	 6.6561445672e-001	 3.2329160584e+000
 8.4312687320e-001	 6.7493733563e-001	 3.1861245358e+000
 8.3564084277e-001	 6.8418400945e-001	 3.1347341145e+000
 8.2804922448e-001	 6.9335265616e-001	 3.0784802168e+000
 8.2035324099e-001	 7.0244147828e-001	 3.0171195295e+000
 8.1255415554e-001	 7.1144870399e-001	 2.9504396469e+000
 8.0465327125e-001	 7.2037258827e-001	 2.8782597675e+000
 9.0063626078e-001	 6.4309499478e-001	 2.7986361675e+000
 8.9352365288e-001	 6.5294129511e-001	 2.7587518353e+000
 8.8629723046e-001	 6.6271720334e-001	 2.7145697061e+000
 8.7895802958e-001	 6.7242076426e-001	 2.6661498077e+000
 8.7150713073e-001	 6.8205004287e-001	 2.6143385465e+000
 8.6394565833e-001	 6.9160312559e-001	 2.5590684671e+000
 8.5627478021e-001	 7.0107812152e-001	 2.5001825175e+000
 8.4849570701e-001	 7.1047316368e-001	 2.4375522203e+000
 8.4060969159e-001	 7.1978641019e-001	 2.3710782512e+000
 8.3261802838e-001	 7.2901604548e-001	 2.3006909455e+000
 8.2452205268e-001	 7.3816028145e-001	 2.2263507330e+000
 9.2233936515e-001	 6.5859199218e-001	 2.2991539063e+000
 9.1505536101e-001	 6.6867556397e-001	 2.2469792687e+000
 9.0765479969e-001	 6.7868704739e-001	 2.1919354133e+000
 9.0013874224e-001	 6.8862444011e-001	 2.1343868743e+000
 8.9250829517e-001	 6.9848576050e-001	 2.0742509024e+000
 8.8476461001e-001	 7.0826904886e-001	 2.0114714406e+000
 8.7690888272e-001	 7.1797236874e-001	 1.9460196121e+000
 8.6894235311e-001	 7.2759380816e-001	 1.8778941372e+000
 8.6086630424e-001	 7.3713148085e-001	 1.8071216773e+000
 8.5268206173e-001	 7.4658352751e-001	 1.7337571060e+000
 8.4439099306e-001	 7.5594811693e-001	 1.6578837059e+000
 9.4404260515e-001	 6.7408908643e-001	 1.8615132422e+000
 9.3658720370e-001	 6.8440993117e-001	 1.7999644452e+000
 9.2901250240e-001	 6.9465699125e-001	 1.7364675462e+000
 9.2131958727e-001	 7.0482821723e-001	 1.6710279932e+000
 9.1350959087e-001	 7.1492158085e-001	 1.6036767847e+000
 9.0558369180e-001	 7.2493507629e-001	 1.5344708235e+000
 8.9754311418e-001	 7.3486672154e-001	 1.4634931985e+000
 8.8938912699e-001	 7.4471455963e-001	 1.3908533914e+000
 8.8112304349e-001	 7.5447665992e-001	 1.3166874094e+000
 8.7274622048e-001	 7.6415111933e-001	 1.2411578421e+000
 8.6426005761e-001	 7.7373606358e-001	 1.1644538433e+000
 9.6574594281e-001	 6.8958625042e-001	 1.4796226903e+000
 9.5811914328e-001	 7.0014436917e-001	 1.4104319826e+000
 9.5037030122e-001	 7.1062700697e-001	 1.3397453973e+000
 9.4250052761e-001	 7.2103206726e-001	 1.2676684568e+000
 9.3451098106e-001	 7.3135747515e-001	 1.1943313818e+000
 9.2640286727e-001	 7.4160117871e-001	 1.1198892618e+000
 9.1817743849e-001	 7.5176115036e-001	 1.0445221504e+000
 9.0983599288e-001	 7.6183538815e-001	 9.6843508369e-001
 9.0137987388e-001	 7.7182191703e-001	 8.9185802207e-001
 8.9281046950e-001	 7.8171879020e-001	 8.1504571416e-001
 8.8412921157e-001	 7.9152409026e-001	 7.3827748439e-001
 9.8744934015e-001	 7.0508345701e-001	 1.1457934794e+000
 9.7965114206e-001	 7.1587885043e-001	 1.0703661586e+000
 9.7172815876e-001	 7.2659706660e-001	 9.9388498003e-001
 9.6368152620e-001	 7.3723596185e-001	 9.1654232661e-001
 9.5551242900e-001	 7.4779341464e-001	 8.3855418079e-001
 9.4722209999e-001	 7.5826732696e-001	 7.6016013189e-001
 9.3881181954e-001	 7.6865562564e-001	 6.8162330478e-001
 9.3028291499e-001	 7.7895626374e-001	 6.0323020947e-001
 9.2163675998e-001	 7.8916722184e-001	 5.2529051155e-001
 9.1287477370e-001	 7.9928650937e-001	 4.4813672366e-001
 9.0399842016e-001	 8.0931216586e-001	 3.7212381873e-001
 1.0091527592e+000	 7.2058067910e-001	 8.5248007489e-001
 1.0011831624e+000	 7.3161334743e-001	 7.7235202835e-001
 9.9308603765e-001	 7.4256714220e-001	 6.9158826441e-001
 9.8486254595e-001	 7.5343987263e-001	 6.1045576545e-001
 9.7651389794e-001	 7.6422937057e-001	 5.2924379050e-001
 9.6804135352e-001	 7.7493349187e-001	 4.4826373765e-001
 9.5944622121e-001	 7.8555011781e-001	 3.6784892506e-001
 9.5072985754e-001	 7.9607715645e-001	 2.8835429064e-001
 9.4189366633e-001	 8.0651254399e-001	 2.1015601040e-001
 9.3293909795e-001	 8.1685424611e-001	 1.3365103605e-001
 9.2386764861e-001	 8.2710025924e-001	 5.9256552970e-002
 1.0308561619e+000	 7.3607788956e-001	 5.9269175229e-001
 1.0227151665e+000	 7.4734783261e-001	 5.0951526495e-001
 1.0144439005e+000	 7.5853720581e-001	 4.2608457092e-001
 1.0060435498e+000	 7.6964377126e-001	 3.4272986357e-001
 9.9751535112e-001	 7.8066531416e-001	 2.5980208659e-001
 9.8886059143e-001	 7.9159964427e-001	 1.7767266945e-001
 9.8008060741e-001	 8.0244459730e-001	 9.6733179050e-002
 9.7117678475e-001	 8.1319803631e-001	 1.7394887576e-002
 9.6215055747e-001	 8.2385785312e-001	-5.9911743086e-002
 9.5300340716e-001	 8.3442196966e-001	-1.3473765948e-001
 9.4373686216e-001	 8.4488833928e-001	-2.0661589607e-001
 7.4504822833e-001	 6.6701067379e-001	 5.4297871603e+000
 7.3764070856e-001	 6.7519353820e-001	 5.3564418619e+000
 7.3014148001e-001	 6.8329610677e-001	 5.2732716830e+000
 7.2255185597e-001	 6.9131684565e-001	 5.1802185648e+000
 7.1487318379e-001	 6.9925424984e-001	 5.0772507987e+000
 7.0710684408e-001	 7.0710684408e-001	 4.9643634004e+000
 6.9925424984e-001	 7.1487318379e-001	 4.8415784306e+000
 6.9131684565e-001	 7.2255185597e-001	 4.7089452586e+000
 6.8329610677e-001	 7.3014148001e-001	 4.5665407712e+000
 6.7519353820e-001	 7.3764070856e-001	 4.4144695272e+000
 6.6701067379e-001	 7.4504822833e-001	 4.2528638550e+000
 7.6491632430e-001	 6.8479775331e-001	 4.4696236589e+000
 7.5731126925e-001	 6.9319882901e-001	 4.3944606444e+000
 7.4961205982e-001	 7.0151746763e-001	 4.3109084253e+000
 7.4182004435e-001	 7.0975209443e-001	 4.2190751195e+000
 7.3393660611e-001	 7.1790116425e-001	 4.1190905037e+000
 7.2596316251e-001	 7.2596316251e-001	 4.0111060762e+000
 7.1790116425e-001	 7.3393660611e-001	 3.8952950735e+000
 7.0975209443e-001	 7.4182004435e-001	 3.7718524373e+000
 7.0151746763e-001	 7.4961205982e-001	 3.6409947349e+000
 6.9319882901e-001	 7.5731126925e-001	 3.5029600335e+000
 6.8479775331e-001	 7.6491632430e-001	 3.3580077289e+000
 7.8478468353e-001	 7.0258506851e-001	 3.6227169362e+000
 7.7698209058e-001	 7.1120435840e-001	 3.5458964224e+000
 7.6908289763e-001	 7.1973906993e-001	 3.4618844100e+000
 7.6108848804e-001	 7.2818758747e-001	 3.3709282955e+000
 7.5300028102e-001	 7.3654832574e-001	 3.2732932241e+000
 7.4481973079e-001	 7.4481973079e-001	 3.1692618791e+000
 7.3654832574e-001	 7.5300028102e-001	 3.0591342292e+000
 7.2818758747e-001	 7.6108848804e-001	 2.9432272332e+000
 7.1973906993e-001	 7.6908289763e-001	 2.8218745038e+000
 7.1120435840e-001	 7.7698209058e-001	 2.6954259331e+000
 7.0258506851e-001	 7.8478468353e-001	 2.5642472798e+000
 8.0465327125e-001	 7.2037258827e-001	 2.8782597675e+000
 7.9665313812e-001	 7.2921009484e-001	 2.8000774023e+000
 7.8855395935e-001	 7.3796088178e-001	 2.7157058702e+000
 7.8035715332e-001	 7.4662329252e-001	 2.6255070929e+000
 7.7206417516e-001	 7.5519570166e-001	 2.5298575753e+000
 7.6367651593e-001	 7.6367651593e-001	 2.4291479571e+000
 7.5519570166e-001	 7.7206417516e-001	 2.3237825238e+000
 7.4662329252e-001	 7.8035715332e-001	 2.2141786800e+000
 7.3796088178e-001	 7.8855395935e-001	 2.1007663880e+000
 7.2921009484e-001	 7.9665313812e-001	 1.9839875713e+000
 7.2037258827e-001	 8.0465327125e-001	 1.8642954875e+000
 8.2452205268e-001	 7.3816028145e-001	 2.2263507330e+000
 8.1632437745e-001	 7.4721600684e-001	 2.1472199757e+000
 8.0802521092e-001	 7.5618287128e-001	 2.0627454378e+000
 7.9962600647e-001	 7.6505917732e-001	 1.9733807633e+000
 7.9112825518e-001	 7.7384325940e-001	 1.8795917285e+000
 7.8253348491e-001	 7.8253348491e-001	 1.7818555856e+000
 7.7384325940e-001	 7.9112825518e-001	 1.6806603704e+000
 7.6505917732e-001	 7.9962600647e-001	 1.5765041735e+000
 7.5618287128e-001	 8.0802521092e-001	 1.4698943803e+000
 7.4721600684e-001	 8.1632437745e-001	 1.3613468800e+000
 7.3816028145e-001	 8.2452205268e-001	 1.2513852488e+000
 8.4439099306e-001	 7.5594811693e-001	 1.6578837059e+000
 8.3599577415e-001	 7.6522206289e-001	 1.5783200106e+000
 8.2749661825e-001	 7.7440500656e-001	 1.4941357081e+000
 8.1889501376e-001	 7.8349520960e-001	 1.4058551442e+000
 8.1019248770e-001	 7.9249096632e-001	 1.3140130306e+000
 8.0139060475e-001	 8.0139060475e-001	 1.2191536127e+000
 7.9249096632e-001	 8.1019248770e-001	 1.1218298018e+000
 7.8349520960e-001	 8.1889501376e-001	 1.0226022723e+000
 7.7440500656e-001	 8.2749661825e-001	 9.2203852870e-001
 7.6522206289e-001	 8.3599577415e-001	 8.2071194504e-001
 7.5594811693e-001	 8.4439099306e-001	 7.1920077988e-001
 8.6426005761e-001	 7.7373606358e-001	 1.1644538433e+000
 8.5566729379e-001	 7.8322823146e-001	 1.0850604037e+000
 8.4696814727e-001	 7.9262725572e-001	 1.0016787602e+000
 8.3816414148e-001	 8.0193135710e-001	 9.1488457068e-001
 8.2925683937e-001	 8.1113878977e-001	 8.2526275372e-001
 8.2024784244e-001	 8.2024784244e-001	 7.3340650949e-001
 8.1113878977e-001	 8.2925683937e-001	 6.3991630316e-001
 8.0193135710e-001	 8.3816414148e-001	 5.4539881407e-001
 7.9262725572e-001	 8.4696814727e-001	 4.5046585424e-001
 7.8322823146e-001	 8.5566729379e-001	 3.5573325984e-001
 7.7373606358e-001	 8.6426005761e-001	 2.6181975967e-001
 8.8412921157e-001	 7.9152409026e-001	 7.3827748439e-001
 8.7533890194e-001	 8.0123448106e-001	 6.5973233809e-001
 8.6643976390e-001	 8.1084958688e-001	 5.7776912279e-001
 8.5743335591e-001	 8.2036758756e-001	 4.9299691694e-001
 8.4832127683e-001	 8.2978669714e-001	 4.0603359495e-001
 8.3910516497e-001	 8.3910516497e-001	 3.1750472779e-001
 8.2978669714e-001	 8.4832127683e-001	 2.2804244380e-001
 8.2036758756e-001	 8.5743335591e-001	 1.3828425328e-001
 8.1084958688e-001	 8.6643976390e-001	 4.8871840997e-002
 8.0123448106e-001	 8.7533890194e-001	-3.9550169321e-002
 7.9152409026e-001	 8.8412921157e-001	-1.2633547407e-001
 9.0399842016e-001	 8.0931216586e-001	 3.7212381873e-001
 8.9501056419e-001	 8.1924078017e-001	 2.9516813902e-001
 8.8591143408e-001	 8.2907196814e-001	 2.1532811988e-001
 8.7670262332e-001	 8.3880386871e-001	 1.3322974855e-001
 8.6738576670e-001	 8.4843465578e-001	 4.9507966315e-002
 8.5796253937e-001	 8.5796253937e-001	-3.5194525819e-002
 8.4843465578e-001	 8.6738576670e-001	-1.2022850510e-001
 8.3880386871e-001	 8.7670262332e-001	-2.0493950456e-001
 8.2907196814e-001	 8.8591143408e-001	-2.8866912581e-001
 8.1924078017e-001	 8.9501056419e-001	-3.7075638225e-001
 8.0931216586e-001	 9.0399842016e-001	-4.5053906824e-001
 9.2386764861e-001	 8.2710025924e-001	 5.9256552970e-002
 9.1468224610e-001	 8.3724709728e-001	-1.5316017077e-002
 9.0538312372e-001	 8.4729436762e-001	-9.2252116524e-002
 8.9597190999e-001	 8.5724016829e-001	-1.7092408648e-001
 8.8645027563e-001	 8.6708263307e-001	-2.5069454795e-001
 8.7681993261e-001	 8.7681993261e-001	-3.3091766717e-001
 8.6708263307e-001	 8.8645027563e-001	-4.1094046996e-001
 8.5724016829e-001	 8.9597190999e-001	-4.9010420057e-001
 8.4729436762e-001	 9.0538312372e-001	-5.6774572039e-001
 8.3724709728e-001	 9.1468224610e-001	-6.4319894141e-001
 8.2710025924e-001	 9.2386764861e-001	-7.1579628924e-001
 9.4373686216e-001	 8.4488833928e-001	-2.0661589607e-001
 9.3435391325e-001	 8.5525340088e-001	-2.7796899194e-001
 9.2485479875e-001	 8.6551675343e-001	-3.5115639046e-001
 9.1524118220e-001	 8.7567645404e-001	-4.2556281767e-001
 9.0551477026e-001	 8.8573059636e-001	-5.0056191758e-001
 8.9567731170e-001	 8.9567731170e-001	-5.7551756605e-001
 8.8573059636e-001	 9.0551477026e-001	-6.4978524046e-001
 8.7567645404e-001	 9.1524118220e-001	-7.2271344051e-001
 8.6551675343e-001	 9.2485479875e-001	-7.9364515503e-001
 8.5525340088e-001	 9.3435391325e-001	-8.6191936938e-001
 8.4488833928e-001	 9.4373686216e-001	-9.2687260792e-001
 6.6701067379e-001	 7.4504822833e-001	 4.2528638550e+000
 6.5874783014e-001	 7.5236385116e-001	 4.0815675884e+000
 6.5040781861e-001	 7.5958521594e-001	 3.9004751373e+000
 6.4199225496e-001	 7.6671111609e-001	 3.7096164761e+000
 6.3350277976e-001	 7.7374038194e-001	 3.5090329429e+000
 6.2494105736e-001	 7.8067188138e-001	 3.2987786243e+000
 6.1630877477e-001	 7.8750452048e-001	 3.0789208433e+000
 6.0760764065e-001	 7.9423724396e-001	 2.8495406239e+000
 5.9883938412e-001	 8.0086903579e-001	 2.6107331304e+000
 5.9000575367e-001	 8.0739891962e-001	 2.3626080776e+000
 5.8110851606e-001	 8.1382595926e-001	 2.1052901122e+000
 6.8479775331e-001	 7.6491632430e-001	 3.3580077289e+000
 6.7631456557e-001	 7.7242703182e-001	 3.2051871858e+000
 6.6775215214e-001	 7.7984096771e-001	 3.0435017325e+000
 6.5911217184e-001	 7.8715689323e-001	 2.8736475813e+000
 6.5039630900e-001	 7.9437360752e-001	 2.6966889149e+000
 6.4160627235e-001	 8.0148994829e-001	 2.5128666853e+000
 6.3274379391e-001	 8.0850479241e-001	 2.3224159332e+000
 6.2381062787e-001	 8.1541705648e-001	 2.1255765593e+000
 6.1480854948e-001	 8.2222569736e-001	 1.9225935279e+000
 6.0573935386e-001	 8.2892971269e-001	 1.7137170593e+000
 5.9660485487e-001	 8.3552814128e-001	 1.4992028072e+000
 7.0258506851e-001	 7.8478468353e-001	 2.5642472798e+000
 6.9388153377e-001	 7.9249047831e-001	 2.4271502893e+000
 6.8509671548e-001	 8.0009698788e-001	 2.2829313637e+000
 6.7623231556e-001	 8.0760294129e-001	 2.1318869916e+000
 6.6729006209e-001	 8.1500710650e-001	 1.9743162275e+000
 6.5827170817e-001	 8.2230829104e-001	 1.8112309331e+000
 6.4917903082e-001	 8.2950534259e-001	 1.6438906122e+000
 6.4001382979e-001	 8.3659714963e-001	 1.4726670420e+000
 6.3077792643e-001	 8.4358264192e-001	 1.2979261371e+000
 6.2147316252e-001	 8.5046079104e-001	 1.1200314677e+000
 6.1210139900e-001	 8.5723061087e-001	 9.3934427950e-001
 7.2037258827e-001	 8.0465327125e-001	 1.8642954875e+000
 7.1144870399e-001	 8.1255415554e-001	 1.7402614212e+000
 7.0244147828e-001	 8.2035324099e-001	 1.6104621005e+000
 6.9335265616e-001	 8.2804922448e-001	 1.4753114161e+000
 6.8418400945e-001	 8.3564084277e-001	 1.3352211534e+000
 6.7493733563e-001	 8.4312687320e-001	 1.1906003463e+000
 6.6561445672e-001	 8.5050613428e-001	 1.0418667370e+000
 6.5621721804e-001	 8.5777748635e-001	 8.9052379923e-001
 6.4674748704e-001	 8.6493983207e-001	 7.3772986860e-001
 6.3720715211e-001	 8.7199211700e-001	 5.8393706496e-001
 6.2759812135e-001	 8.7893333002e-001	 4.2958907212e-001
 7.3816028145e-001	 8.2452205268e-001	 1.2513852488e+000
 7.2901604548e-001	 8.3261802838e-001	 1.1383466566e+000
 7.1978641019e-001	 8.4060969159e-001	 1.0205852247e+000
 7.1047316368e-001	 8.4849570701e-001	 8.9860193473e-001
 7.0107812152e-001	 8.5627478021e-001	 7.7289232732e-001
 6.9160312559e-001	 8.6394565833e-001	 6.4394563875e-001
 6.8205004287e-001	 8.7150713073e-001	 5.1224394965e-001
 6.7242076426e-001	 8.7895802958e-001	 3.7826134874e-001
 6.6271720334e-001	 8.8629723046e-001	 2.4263102649e-001
 6.5294129511e-001	 8.9352365288e-001	 1.0731607996e-001
 6.4309499478e-001	 9.0063626078e-001	-2.6832228413e-002
 7.5594811693e-001	 8.4439099306e-001	 7.1920077988e-001
 7.4658352751e-001	 8.5268206173e-001	 6.1562277895e-001
 7.3713148085e-001	 8.6086630424e-001	 5.0811543748e-001
 7.2759380816e-001	 8.6894235311e-001	 3.9723906423e-001
 7.1797236874e-001	 8.7690888272e-001	 2.8354646330e-001
 7.0826904886e-001	 8.8476461001e-001	 1.6758189218e-001
 6.9848576050e-001	 8.9250829517e-001	 4.9880035517e-002
 6.8862444011e-001	 9.0013874224e-001	-6.9035001240e-002
 6.7868704739e-001	 9.0765479969e-001	-1.8865067478e-001
 6.6867556397e-001	 9.1505536101e-001	-3.0846695957e-001
 6.5859199218e-001	 9.2233936515e-001	-4.2728802225e-001
 7.7373606358e-001	 8.6426005761e-001	 2.6181975967e-001
 7.6415111933e-001	 8.7274622048e-001	 1.6664596337e-001
 7.5447665992e-001	 8.8112304349e-001	 6.8146836632e-002
 7.4471455963e-001	 8.8938912699e-001	-3.3083411988e-002
 7.3486672154e-001	 8.9754311418e-001	-1.3645892702e-001
 7.2493507629e-001	 9.0558369180e-001	-2.4140339113e-001
 7.1492158085e-001	 9.1350959087e-001	-3.4735119299e-001
 7.0482821723e-001	 9.2131958727e-001	-4.5374857343e-001
 6.9465699125e-001	 9.2901250240e-001	-5.6005474562e-001
 6.8440993117e-001	 9.3658720370e-001	-6.6574298489e-001
 6.7408908643e-001	 9.4404260515e-001	-7.7030168415e-001
 7.9152409026e-001	 8.8412921157e-001	-1.2633547407e-001
 7.8171879020e-001	 8.9281046950e-001	-2.1373137606e-001
 7.7182191703e-001	 9.0137987388e-001	-3.0398393200e-001
 7.6183538815e-001	 9.0983599288e-001	-3.9648831140e-001
 7.5176115036e-001	 9.1817743849e-001	-4.9064772093e-001
 7.4160117871e-001	 9.2640286727e-001	-5.8587469950e-001
 7.3135747515e-001	 9.3451098106e-001	-6.8159239713e-001
 7.2103206726e-001	 9.4250052761e-001	-7.7723583272e-001
 7.1062700697e-001	 9.5037030122e-001	-8.7225312576e-001
 7.0014436917e-001	 9.5811914328e-001	-9.6610669722e-001
 6.8958625042e-001	 9.6574594281e-001	-1.0582744349e+000
 8.0931216586e-001	 9.0399842016e-001	-4.5053906824e-001
 7.9928650937e-001	 9.1287477370e-001	-5.3039682794e-001
 7.8916722184e-001	 9.2163675998e-001	-6.1272845037e-001
 7.7895626374e-001	 9.3028291499e-001	-6.9693977632e-001
 7.6865562564e-001	 9.3881181954e-001	-7.8244324923e-001
 7.5826732696e-001	 9.4722209999e-001	-8.6865928957e-001
 7.4779341464e-001	 9.5551242900e-001	-9.5501765644e-001
 7.3723596185e-001	 9.6368152620e-001	-1.0409587909e+000
 7.2659706660e-001	 9.7172815876e-001	-1.1259351357e+000
 7.1587885043e-001	 9.7965114206e-001	-1.2094124262e+000
 7.0508345701e-001	 9.8744934015e-001	-1.2908709469e+000
 8.2710025924e-001	 9.2386764861e-001	-7.1579628924e-001
 8.1685424611e-001	 9.3293909795e-001	-7.8800835485e-001
 8.0651254399e-001	 9.4189366633e-001	-8.6235214542e-001
 7.9607715645e-001	 9.5072985754e-001	-9.3826362762e-001
 7.8555011781e-001	 9.5944622121e-001	-1.0151828589e+000
 7.7493349187e-001	 9.6804135352e-001	-1.0925554125e+000
 7.6422937057e-001	 9.7651389794e-001	-1.1698337956e+000
 7.5343987263e-001	 9.8486254595e-001	-1.2464788545e+000
 7.4256714220e-001	 9.9308603765e-001	-1.3219611611e+000
 7.3161334743e-001	 1.0011831624e+000	-1.3957623741e+000
 7.2058067910e-001	 1.0091527592e+000	-1.4673765710e+000
 8.4488833928e-001	 9.4373686216e-001	-9.2687260792e-001
 8.3442196966e-001	 9.5300340716e-001	-9.9101965844e-001
 8.2385785312e-001	 9.6215055747e-001	-1.0569555069e+000
 8.1319803631e-001	 9.7117678475e-001	-1.1241639918e+000
 8.0244459730e-001	 9.8008060741e-001	-1.1921294894e+000
 7.9159964427e-001	 9.8886059143e-001	-1.2603383641e+000
 7.8066531416e-001	 9.9751535112e-001	-1.3282804180e+000
 7.6964377126e-001	 1.0060435498e+000	-1.3954503369e+000
 7.5853720581e-001	 1.0144439005e+000	-1.4613491231e+000
 7.4734783261e-001	 1.0227151665e+000	-1.5254855116e+000
 7.3607788956e-001	 1.0308561619e+000	-1.5873773606e+000
 5.8110851606e-001	 8.1382595926e-001	 2.1052901122e+000
 5.7214945494e-001	 8.2014925879e-001	 1.8385404937e+000
 5.6313036914e-001	 8.2636796230e-001	 1.5629008989e+000
 5.5405307210e-001	 8.3248125485e-001	 1.2796563484e+000
 5.4491939094e-001	 8.3848836297e-001	 9.9006177278e-001
 5.3573116523e-001	 8.4438855498e-001	 6.9534055296e-001
 5.2649024586e-001	 8.5018114112e-001	 3.9668312009e-001
 5.1719849384e-001	 8.5586547377e-001	 9.5245617858e-002
 5.0785777912e-001	 8.6144094757e-001	-2.0785137262e-001
 4.9846997940e-001	 8.6690699948e-001	-5.1152404361e-001
 4.8903697900e-001	 8.7226310887e-001	-8.1472650626e-001
 5.9660485487e-001	 8.3552814128e-001	 1.4992028072e+000
 5.8740688373e-001	 8.4202006336e-001	 1.2779887810e+000
 5.7814728723e-001	 8.4840460015e-001	 1.0494558049e+000
 5.6882792720e-001	 8.5468091501e-001	 8.1451204497e-001
 5.5945067945e-001	 8.6084821383e-001	 5.7404372043e-001
 5.5001743262e-001	 8.6690574543e-001	 3.2891417463e-001
 5.4053008696e-001	 8.7285280165e-001	 7.9962984116e-002
 5.3099055310e-001	 8.7868871760e-001	-1.7199489369e-001
 5.2140075085e-001	 8.8441287176e-001	-4.2616993363e-001
 5.1176260801e-001	 8.9002468611e-001	-6.8179881652e-001
 5.0207805912e-001	 8.9552362611e-001	-9.3814516290e-001
 6.1210139900e-001	 8.5723061087e-001	 9.3934427950e-001
 6.0266451468e-001	 8.6389115771e-001	 7.5433711644e-001
 5.9316440431e-001	 8.7044152999e-001	 5.6365697586e-001
 5.8360297806e-001	 8.7688086931e-001	 3.6791356246e-001
 5.7398216050e-001	 8.8320836097e-001	 1.6770085712e-001
 5.6430388931e-001	 8.8942323424e-001	-3.6403376241e-002
 5.5457011409e-001	 8.9552476258e-001	-2.4383806366e-001
 5.4478279510e-001	 9.0151226383e-001	-4.5405927462e-001
 5.3494390203e-001	 9.0738510034e-001	-6.6654065626e-001
 5.2505541274e-001	 9.1314267905e-001	-8.8077384850e-001
 5.1511931203e-001	 9.1878445156e-001	-1.0962688803e+000
 6.2759812135e-001	 8.7893333002e-001	 4.2958907212e-001
 6.1792232109e-001	 8.8576250357e-001	 2.7296112893e-001
 6.0818169408e-001	 8.9247871325e-001	 1.1229875996e-001
 5.9837819884e-001	 8.9908107892e-001	-5.2013692871e-002
 5.8851380866e-001	 9.0556876524e-001	-2.1960319424e-001
 5.7859051029e-001	 9.1194098199e-001	-3.9010816214e-001
 5.6861030267e-001	 9.1819698423e-001	-5.6317860922e-001
 5.5857519572e-001	 9.2433607253e-001	-7.3847627977e-001
 5.4848720896e-001	 9.3035759310e-001	-9.1567478349e-001
 5.3834837034e-001	 9.3626093785e-001	-1.0944597267e+000
 5.2816071491e-001	 9.4204554451e-001	-1.2745288416e+000
 6.4309499478e-001	 9.0063626078e-001	-2.6832228413e-002
 6.3318027626e-001	 9.0763406268e-001	-1.6154880683e-001
 6.2319913026e-001	 9.1451611137e-001	-2.9874281053e-001
 6.1315356367e-001	 9.2128150497e-001	-4.3818695932e-001
 6.0304559850e-001	 9.2792938752e-001	-5.7966256332e-001
 5.9287727056e-001	 9.3445894929e-001	-7.2295940837e-001
 5.8265062815e-001	 9.4086942694e-001	-8.6787564728e-001
 5.7236773080e-001	 9.4716010376e-001	-1.0142176986e+000
 5.6203064793e-001	 9.5333030983e-001	-1.1618001543e+000
 5.5164145755e-001	 9.5937942204e-001	-1.3104456983e+000
 5.4120224495e-001	 9.6530686424e-001	-1.4599850359e+000
 6.5859199218e-001	 9.2233936515e-001	-4.2728802225e-001
 6.4843835349e-001	 9.2950579675e-001	-5.4532553929e-001
 6.3821668658e-001	 9.3655368578e-001	-6.6443190103e-001
 6.2792904671e-001	 9.4348210862e-001	-7.8447294826e-001
 6.1757750460e-001	 9.5029018868e-001	-9.0532200059e-001
 6.0716414512e-001	 9.5697709672e-001	-1.0268595612e+000
 5.9669106594e-001	 9.6354205101e-001	-1.1489730354e+000
 5.8616037623e-001	 9.6998431758e-001	-1.2715564657e+000
 5.7557419525e-001	 9.7630321034e-001	-1.3945102845e+000
 5.6493465109e-001	 9.8249809118e-001	-1.5177410871e+000
 5.5424387931e-001	 9.8856837007e-001	-1.6411614254e+000
 6.7408908643e-001	 9.4404260515e-001	-7.7030168415e-001
 6.6369652607e-001	 9.5137766752e-001	-8.7517123788e-001
 6.5323433675e-001	 9.5859139792e-001	-9.8050507466e-001
 6.4270462208e-001	 9.6568285101e-001	-1.0856070397e+000
 6.3210950151e-001	 9.7265112959e-001	-1.1903840121e+000
 6.2145110897e-001	 9.7949538489e-001	-1.2947503552e+000
 6.1073159149e-001	 9.8621481679e-001	-1.3986275357e+000
 5.9995310785e-001	 9.9280867404e-001	-1.5019437660e+000
 5.8911782720e-001	 9.9927625442e-001	-1.6046336695e+000
 5.7822792772e-001	 1.0056169048e+000	-1.7066379722e+000
 5.6728559518e-001	 1.0118300213e+000	-1.8079032225e+000
 6.8958625042e-001	 9.6574594281e-001	-1.0582744349e+000
 6.7895476732e-001	 9.7324963670e-001	-1.1501556711e+000
 6.6825205450e-001	 9.8062920921e-001	-1.2434386850e+000
 6.5748026394e-001	 9.8788369330e-001	-1.3371228991e+000
 6.4664156381e-001	 9.9501217112e-001	-1.4295280169e+000
 6.3573813710e-001	 1.0020137744e+000	-1.5205223722e+000
 6.2477218021e-001	 1.0088876846e+000	-1.6100096784e+000
 6.1374590153e-001	 1.0156331332e+000	-1.6979021464e+000
 6.0266152010e-001	 1.0222494019e+000	-1.7841201276e+000
 5.9152126415e-001	 1.0287358225e+000	-1.8685917856e+000
 5.8032736974e-001	 1.0350917771e+000	-1.9512528003e+000
 7.0508345701e-001	 9.8744934015e-001	-1.2908709469e+000
 6.9421305052e-001	 9.9512166602e-001	-1.3716378102e+000
 6.8326981354e-001	 1.0026670811e+000	-1.4532732287e+000
 6.7225594642e-001	 1.0100845966e+000	-1.5356296535e+000
 6.6117366607e-001	 1.0173732741e+000	-1.6182396762e+000
 6.5002520452e-001	 1.0245322258e+000	-1.6989360152e+000
 6.3881280753e-001	 1.0315606147e+000	-1.7772171661e+000
 6.2753873314e-001	 1.0384576551e+000	-1.8529321719e+000
 6.1620525025e-001	 1.0452226125e+000	-1.9259415637e+000
 6.0481463715e-001	 1.0518548037e+000	-1.9961170721e+000
 5.9336918015e-001	 1.0583535970e+000	-2.0633413706e+000
 7.2058067910e-001	 1.0091527592e+000	-1.4673765710e+000
 7.0947134897e-001	 1.0169937172e+000	-1.5381760019e+000
 6.9828758759e-001	 1.0247049750e+000	-1.6096678662e+000
 6.8703164368e-001	 1.0322855222e+000	-1.6815735214e+000
 6.7570578286e-001	 1.0397343995e+000	-1.7536347038e+000
 6.6431228622e-001	 1.0470506997e+000	-1.8255521798e+000
 6.5285344890e-001	 1.0542335675e+000	-1.8951989318e+000
 6.4133157855e-001	 1.0612821999e+000	-1.9614305869e+000
 6.2974899393e-001	 1.0681958461e+000	-2.0240049815e+000
 6.1810802343e-001	 1.0749738080e+000	-2.0826961285e+000
 6.0641100360e-001	 1.0816154401e+000	-2.1372940547e+000
 7.3607788956e-001	 1.0308561619e+000	-1.5873773606e+000
 7.2472963597e-001	 1.0388657520e+000	-1.6486054647e+000
 7.1330535038e-001	 1.0467428524e+000	-1.7107477199e+000
 7.0180732985e-001	 1.0544864310e+000	-1.7733449307e+000
 6.9023788874e-001	 1.0620955081e+000	-1.8359650639e+000
 6.7859935721e-001	 1.0695691567e+000	-1.8982044166e+000
 6.6689407973e-001	 1.0769065033e+000	-1.9596886995e+000
 6.5512441360e-001	 1.0841067275e+000	-2.0186182871e+000
 6.4329272745e-001	 1.0911690624e+000	-2.0730759403e+000
 6.3140139974e-001	 1.0980927950e+000	-2.1226986259e+000
 6.1945281727e-001	 1.1048772657e+000	-2.1671463753e+000
 4.8903697900e-001	 8.7226310887e-001	-8.1472650626e-001
 4.7956209226e-001	 8.7750801914e-001	-1.1180343571e+000
 4.7004580118e-001	 8.8264210687e-001	-1.4225989936e+000
 4.6049000248e-001	 8.8766497944e-001	-1.7281343549e+000
 4.5089659477e-001	 8.9257628643e-001	-2.0343587907e+000
 4.4126747746e-001	 8.9737571948e-001	-2.3409952297e+000
 4.3160454958e-001	 9.0206301214e-001	-2.6477713517e+000
 4.2190970867e-001	 9.0663793965e-001	-2.9544197622e+000
 4.1218484971e-001	 9.1110031866e-001	-3.2606781695e+000
 4.0243186398e-001	 9.1545000704e-001	-3.5662895641e+000
 3.9265263800e-001	 9.1968690347e-001	-3.8710023982e+000
 5.0207805912e-001	 8.9552362611e-001	-9.3814516290e-001
 4.9235050691e-001	 9.0090840166e-001	-1.1953588680e+000
 4.8258044624e-001	 9.0617939939e-001	-1.4539088197e+000
 4.7276982440e-001	 9.1133621619e-001	-1.7134483076e+000
 4.6292059064e-001	 9.1637849231e-001	-1.9736387718e+000
 4.5303469502e-001	 9.2130591116e-001	-2.2341500585e+000
 4.4311408720e-001	 9.2611819920e-001	-2.4946606733e+000
 4.3316071535e-001	 9.3081512565e-001	-2.7548580322e+000
 4.2317652494e-001	 9.3539650230e-001	-3.0144387081e+000
 4.1316345771e-001	 9.3986218320e-001	-3.2731086747e+000
 4.0312345050e-001	 9.4421206435e-001	-3.5305835436e+000
 5.1511931203e-001	 9.1878445156e-001	-1.0962688803e+000
 5.0513909100e-001	 9.2430909425e-001	-1.3130342680e+000
 4.9511525738e-001	 9.2971700378e-001	-1.5311912151e+000
 4.8504980903e-001	 9.3500776659e-001	-1.7503443097e+000
 4.7494474584e-001	 9.4018101357e-001	-1.9701099893e+000
 4.6480206850e-001	 9.4523641993e-001	-2.1901168655e+000
 4.5462377733e-001	 9.5017370499e-001	-2.4100060424e+000
 4.4441187110e-001	 9.5499263200e-001	-2.6294314275e+000
 4.3416834581e-001	 9.5969300786e-001	-2.8480600335e+000
 4.2389519365e-001	 9.6427468282e-001	-3.0655722713e+000
 4.1359440173e-001	 9.6873755019e-001	-3.2816622319e+000
 5.2816071491e-001	 9.4204554451e-001	-1.2745288416e+000
 5.1792782216e-001	 9.4771005594e-001	-1.4559719827e+000
 5.0765021267e-001	 9.5325487885e-001	-1.6388322183e+000
 4.9732993488e-001	 9.5867958921e-001	-1.8226764003e+000
 4.8696903931e-001	 9.6398380856e-001	-2.0070868892e+000
 4.7656957730e-001	 9.6916720389e-001	-2.1916619331e+000
 4.6613359982e-001	 9.7422948742e-001	-2.3760160351e+000
 4.5566315623e-001	 9.7917041640e-001	-2.5597803087e+000
 4.4516029309e-001	 9.8398979283e-001	-2.7426028216e+000
 4.3462705299e-001	 9.8868746319e-001	-2.9241489243e+000
 4.2406547339e-001	 9.9326331808e-001	-3.1041015649e+000
 5.4120224495e-001	 9.6530686424e-001	-1.4599850359e+000
 5.3071667801e-001	 9.7111124578e-001	-1.6107564113e+000
 5.2018529017e-001	 9.7679298341e-001	-1.7629353209e+000
 5.0961018045e-001	 9.8235164262e-001	-1.9160609542e+000
 4.9899345001e-001	 9.8778683563e-001	-2.0696916313e+000
 4.8833720083e-001	 9.9309822118e-001	-2.2234052195e+000
 4.7764353453e-001	 9.9828550439e-001	-2.3767995351e+000
 4.6691455107e-001	 1.0033484365e+000	-2.5294927307e+000
 4.5615234754e-001	 1.0082868147e+000	-2.6811236666e+000
 4.4535901697e-001	 1.0131004816e+000	-2.8313522638e+000
 4.3453664713e-001	 1.0177893251e+000	-2.9798598395e+000
 5.5424387931e-001	 9.8856837007e-001	-1.6411614254e+000
 5.4350563617e-001	 9.9451262283e-001	-1.7654745604e+000
 5.3272046795e-001	 1.0003312763e+000	-1.8911455448e+000
 5.2189052427e-001	 1.0060238854e+000	-2.0176951708e+000
 5.1101795690e-001	 1.0115900531e+000	-2.1446669441e+000
 5.0010491850e-001	 1.0170294299e+000	-2.2716275231e+000
 4.8915356131e-001	 1.0223417138e+000	-2.3981671426e+000
 4.7816603591e-001	 1.0275266501e+000	-2.5239000187e+000
 4.6714448992e-001	 1.0325840309e+000	-2.6484647362e+000
 4.5609106680e-001	 1.0375136953e+000	-2.7715246155e+000
 4.4500790464e-001	 1.0423155283e+000	-2.8927680579e+000
 5.6728559518e-001	 1.0118300213e+000	-1.8079032225e+000
 5.5629467426e-001	 1.0179141461e+000	-1.9095685401e+000
 5.4525572408e-001	 1.0238697162e+000	-2.0124971397e+000
 5.3417094483e-001	 1.0296962761e+000	-2.1161999440e+000
 5.2304253894e-001	 1.0353934194e+000	-2.2202141307e+000
 5.1187270971e-001	 1.0409607882e+000	-2.3241035802e+000
 5.0066366003e-001	 1.0463980736e+000	-2.4274593073e+000
 4.8941759107e-001	 1.0517050147e+000	-2.5298998724e+000
 4.7813670099e-001	 1.0568813990e+000	-2.6310717741e+000
 4.6682318370e-001	 1.0619270615e+000	-2.7306498190e+000
 4.5547922759e-001	 1.0668418848e+000	-2.8283374686e+000
 5.8032736974e-001	 1.0350917771e+000	-1.9512528003e+000
 5.6908376989e-001	 1.0413157747e+000	-2.0337073260e+000
 5.5779103660e-001	 1.0474082621e+000	-2.1172811821e+000
 5.4645142066e-001	 1.0533687734e+000	-2.2014832781e+000
 5.3506717509e-001	 1.0591968927e+000	-2.2858522725e+000
 5.2364055388e-001	 1.0648922542e+000	-2.3699570170e+000
 5.1217381054e-001	 1.0704545416e+000	-2.4533969832e+000
 5.0066919685e-001	 1.0758834882e+000	-2.5358026700e+000
 4.8912896153e-001	 1.0811788764e+000	-2.6168359905e+000
 4.7755534890e-001	 1.0863405376e+000	-2.6961906359e+000
 4.6595059765e-001	 1.0913683516e+000	-2.7735924153e+000
 5.9336918015e-001	 1.0583535970e+000	-2.0633413706e+000
 5.8187290068e-001	 1.0647174677e+000	-2.1296748235e+000
 5.7032638360e-001	 1.0709468727e+000	-2.1969300181e+000
 5.5873193024e-001	 1.0770413357e+000	-2.2646210910e+000
 5.4709184431e-001	 1.0830004315e+000	-2.3322953684e+000
 5.3540843040e-001	 1.0888237859e+000	-2.3995337943e+000
 5.2368399270e-001	 1.0945110757e+000	-2.4659513414e+000
 5.1192083358e-001	 1.1000620281e+000	-2.5311974039e+000
 5.0012125229e-001	 1.1054764206e+000	-2.5949561691e+000
 4.8828754360e-001	 1.1107540809e+000	-2.6569469682e+000
 4.7642199651e-001	 1.1158948859e+000	-2.7169246018e+000
 6.0641100360e-001	 1.0816154401e+000	-2.1372940547e+000
 5.9466204427e-001	 1.0881191840e+000	-2.1902717818e+000
 5.8286174312e-001	 1.0944855069e+000	-2.2439160126e+000
 5.7101245211e-001	 1.1007139217e+000	-2.2977527861e+000
 5.5911652554e-001	 1.1068039941e+000	-2.3513447103e+000
 5.4717631868e-001	 1.1127553416e+000	-2.4042913621e+000
 5.3519418636e-001	 1.1185676339e+000	-2.4562296721e+000
 5.2317248155e-001	 1.1242405922e+000	-2.5068342920e+000
 5.1111355404e-001	 1.1297739892e+000	-2.5558179451e+000
 4.9901974903e-001	 1.1351676485e+000	-2.6029317545e+000
 4.8689340584e-001	 1.1404214447e+000	-2.6479655495e+000
 6.1945281727e-001	 1.1048772657e+000	-2.1671463753e+000
 6.0745117825e-001	 1.1115208828e+000	-2.2092295160e+000
 5.9539709325e-001	 1.1180241233e+000	-2.2516624973e+000
 5.8329296476e-001	 1.1243864900e+000	-2.2939894174e+000
 5.7114119775e-001	 1.1306075389e+000	-2.3357942510e+000
 5.5894419814e-001	 1.1366868794e+000	-2.3767012096e+000
 5.4670437139e-001	 1.1426241741e+000	-2.4163750902e+000
 5.3442412108e-001	 1.1484191381e+000	-2.4545216101e+000
 5.2210584754e-001	 1.1540715394e+000	-2.4908877265e+000
 5.0975194641e-001	 1.1595811979e+000	-2.5252619384e+000
 4.9736480731e-001	 1.1649479851e+000	-2.5574745671e+000
 3.9265263800e-001	 9.1968690347e-001	-3.8710023982e+000
 3.8284758015e-001	 9.2381155749e-001	-4.1735546259e+000
 3.7302003062e-001	 9.2782330500e-001	-4.4724521158e+000
 3.6317185667e-001	 9.3172216582e-001	-4.7672633266e+000
 3.5330491665e-001	 9.3550819912e-001	-5.0575927975e+000
 3.4342105900e-001	 9.3918150291e-001	-5.3430811454e+000
 3.3352212132e-001	 9.4274221361e-001	-5.6234050100e+000
 3.2360992937e-001	 9.4619050544e-001	-5.8982769462e+000
 3.1368629624e-001	 9.4952658997e-001	-6.1674452645e+000
 3.0375302140e-001	 9.5275071551e-001	-6.4306938207e+000
 2.9381188981e-001	 9.5586316651e-001	-6.6878417534e+000
 4.0312345050e-001	 9.4421206435e-001	-3.5305835436e+000
 3.9305692255e-001	 9.4844670994e-001	-3.7862568493e+000
 3.8296730315e-001	 9.5256543815e-001	-4.0393747884e+000
 3.7285650933e-001	 9.5656826934e-001	-4.2895782052e+000
 3.6272644901e-001	 9.6045526426e-001	-4.5365390664e+000
 3.5257901993e-001	 9.6422652353e-001	-4.7799604843e+000
 3.4241610866e-001	 9.6788218719e-001	-5.0195766950e+000
 3.3223958969e-001	 9.7142243413e-001	-5.2551529945e+000
 3.2205132444e-001	 9.7484748157e-001	-5.4864856287e+000
 3.1185316035e-001	 9.7815758441e-001	-5.7134016414e+000
 3.0164693001e-001	 9.8135303469e-001	-5.9357586768e+000
 4.1359440173e-001	 9.6873755019e-001	-3.2816622319e+000
 4.0326640023e-001	 9.7308218881e-001	-3.4961674503e+000
 3.9291470747e-001	 9.7730789914e-001	-3.7088498704e+000
 3.8254129032e-001	 9.8141470208e-001	-3.9194180817e+000
 3.7214810621e-001	 9.8540265995e-001	-4.1276081614e+000
 3.6173710219e-001	 9.8927187599e-001	-4.3331837108e+000
 3.5131021386e-001	 9.9302249388e-001	-4.5359358557e+000
 3.4086936436e-001	 9.9665469716e-001	-4.7356832090e+000
 3.3041646348e-001	 1.0001687087e+000	-4.9322717961e+000
 3.1995340664e-001	 1.0035647899e+000	-5.1255749417e+000
 3.0948207403e-001	 1.0068432406e+000	-5.3154931188e+000
 4.2406547339e-001	 9.9326331808e-001	-3.1041015649e+000
 4.1347599532e-001	 9.9771795098e-001	-3.2825723442e+000
 4.0286222620e-001	 1.0020506447e+000	-3.4596569747e+000
 3.9222618267e-001	 1.0062614206e+000	-3.6351273204e+000
 3.8156987176e-001	 1.0103503425e+000	-3.8087803486e+000
 3.7089528978e-001	 1.0143175165e+000	-3.9804381704e+000
 3.6020442133e-001	 1.0181630897e+000	-4.1499480505e+000
 3.4949923827e-001	 1.0218872503e+000	-4.3171823840e+000
 3.3878169871e-001	 1.0254902270e+000	-4.4820386414e+000
 3.2805374608e-001	 1.0289722877e+000	-4.6444392793e+000
 3.1731730815e-001	 1.0323337397e+000	-4.8043316172e+000
 4.3453664713e-001	 1.0177893251e+000	-2.9798598395e+000
 4.2368568994e-001	 1.0223539533e+000	-3.1268997423e+000
 4.1280984191e-001	 1.0267936314e+000	-3.2727579563e+000
 4.0191116946e-001	 1.0311083813e+000	-3.4172652855e+000
 3.9099172917e-001	 1.0352982684e+000	-3.5602764375e+000
 3.8005356666e-001	 1.0393634012e+000	-3.7016700588e+000
 3.6909871553e-001	 1.0433039306e+000	-3.8413487435e+000
 3.5812919632e-001	 1.0471200496e+000	-3.9792390134e+000
 3.4714701551e-001	 1.0508119921e+000	-4.1152912692e+000
 3.3615416449e-001	 1.0543800331e+000	-4.2494797102e+000
 3.2515261867e-001	 1.0578244873e+000	-4.3818022235e+000
 4.4500790464e-001	 1.0423155283e+000	-2.8927680579e+000
 4.3389546624e-001	 1.0469901528e+000	-3.0124919001e+000
 4.2275753719e-001	 1.0515368161e+000	-3.1310637460e+000
 4.1159623372e-001	 1.0559555408e+000	-3.2483691109e+000
 4.0041366195e-001	 1.0602463938e+000	-3.3643173368e+000
 3.8921191680e-001	 1.0644094862e+000	-3.4788416157e+000
 3.7799308087e-001	 1.0684449726e+000	-3.5918989884e+000
 3.6675922341e-001	 1.0723530506e+000	-3.7034703172e+000
 3.5551239922e-001	 1.0761339599e+000	-3.8135602316e+000
 3.4425464771e-001	 1.0797879818e+000	-3.9221970449e+000
 3.3298799187e-001	 1.0833154388e+000	-4.0294326403e+000
 4.5547922759e-001	 1.0668418848e+000	-2.8283374686e+000
 4.4410530635e-001	 1.0716265062e+000	-2.9244076981e+000
 4.3270529465e-001	 1.0762801555e+000	-3.0192327031e+000
 4.2128135850e-001	 1.0808028555e+000	-3.1127485579e+000
 4.0983565361e-001	 1.0851946751e+000	-3.2049161538e+000
 3.9837032417e-001	 1.0894557277e+000	-3.2957212031e+000
 3.8688750181e-001	 1.0935861718e+000	-3.3851742208e+000
 3.7538930443e-001	 1.0975862094e+000	-3.4733104818e+000
 3.6387783522e-001	 1.1014560858e+000	-3.5601899505e+000
 3.5235518156e-001	 1.1051960893e+000	-3.6458971829e+000
 3.4082341404e-001	 1.1088065496e+000	-3.7305411983e+000
 4.6595059765e-001	 1.0913683516e+000	-2.7735924153e+000
 4.5431519240e-001	 1.0962629705e+000	-2.8492512055e+000
 4.4265309687e-001	 1.1010236061e+000	-2.9234955292e+000
 4.3096652687e-001	 1.1056502821e+000	-2.9963079177e+000
 4.1925768767e-001	 1.1101430686e+000	-3.0676977222e+000
 4.0752877276e-001	 1.1145020820e+000	-3.1377010954e+000
 3.9578196276e-001	 1.1187274841e+000	-3.2063809496e+000
 3.8401942429e-001	 1.1228194817e+000	-3.2738268903e+000
 3.7224330886e-001	 1.1267783258e+000	-3.3401551222e+000
 3.6045575185e-001	 1.1306043111e+000	-3.4055083274e+000
 3.4865887146e-001	 1.1342977751e+000	-3.4700555103e+000
 4.7642199651e-001	 1.1158948859e+000	-2.7169246018e+000
 4.6452510652e-001	 1.1208995025e+000	-2.7750222321e+000
 4.5260092644e-001	 1.1257671249e+000	-2.8315026609e+000
 4.4065172187e-001	 1.1304977770e+000	-2.8863907972e+000
 4.2867974763e-001	 1.1350915308e+000	-2.9397413377e+000
 4.1668724653e-001	 1.1395485051e+000	-2.9916387214e+000
 4.0467644817e-001	 1.1438688655e+000	-3.0421970594e+000
 3.9264956787e-001	 1.1480528233e+000	-3.0915600397e+000
 3.8060880550e-001	 1.1521006353e+000	-3.1399008033e+000
 3.6855634442e-001	 1.1560126028e+000	-3.1874217886e+000
 3.5649435043e-001	 1.1597890707e+000	-3.2343545429e+000
 4.8689340584e-001	 1.1404214447e+000	-2.6479655495e+000
 4.7473503085e-001	 1.1455360592e+000	-2.6909855587e+000
 4.6254876595e-001	 1.1505106683e+000	-2.7321907552e+000
 4.5033692655e-001	 1.1553452968e+000	-2.7716443459e+000
 4.3810181702e-001	 1.1600400179e+000	-2.8094432107e+000
 4.2584572945e-001	 1.1645949533e+000	-2.8457178267e+000
 4.1357094248e-001	 1.1690102721e+000	-2.8806321686e+000
 4.0127972008e-001	 1.1732861903e+000	-2.9143835793e+000
 3.8897431050e-001	 1.1774229702e+000	-2.9472026107e+000
 3.7665694509e-001	 1.1814209198e+000	-2.9793528291e+000
 3.6432983724e-001	 1.1852803918e+000	-3.0111305852e+000
 4.9736480731e-001	 1.1649479851e+000	-2.5574745671e+000
 4.8494494752e-001	 1.1701725973e+000	-2.5875560930e+000
 4.7249659800e-001	 1.1752541932e+000	-2.6156654571e+000
 4.6002212396e-001	 1.1801927979e+000	-2.6419000590e+000
 4.4752387933e-001	 1.1849884863e+000	-2.6663957291e+000
 4.3500420550e-001	 1.1896413827e+000	-2.6893266234e+000
 4.2246543011e-001	 1.1941516598e+000	-2.7109050900e+000
 4.0990986582e-001	 1.1985195382e+000	-2.7313815055e+000
 3.9733980923e-001	 1.2027452861e+000	-2.7510440752e+000
 3.8475753968e-001	 1.2068292178e+000	-2.7702185964e+000
 3.7216531816e-001	 1.2107716938e+000	-2.7892681797e+000
 2.9381188981e-001	 9.5586316651e-001	-6.6878417534e+000
 2.8386467101e-001	 9.5886426270e-001	-6.9384334810e+000
 2.7391311782e-001	 9.6175435779e-001	-7.1820692727e+000
 2.6395896607e-001	 9.6453383948e-001	-7.4186918475e+000
 2.5400393389e-001	 9.6720312906e-001	-7.6482618046e+000
 2.4404972108e-001	 9.6976268070e-001	-7.8707574122e+000
 2.3409800832e-001	 9.7221298076e-001	-8.0861743719e+000
 2.2415045650e-001	 9.7455454705e-001	-8.2945255582e+000
 2.1420870614e-001	 9.7678792810e-001	-8.4958407335e+000
 2.0427437664e-001	 9.7891370242e-001	-8.6901662398e+000
 1.9434906582e-001	 9.8093247774e-001	-8.8775646656e+000
 3.0164693001e-001	 9.8135303469e-001	-5.9357586768e+000
 2.9143445013e-001	 9.8443416069e-001	-6.1527181327e+000
 2.8121752028e-001	 9.8740132554e-001	-6.3634907176e+000
 2.7099792256e-001	 9.9025492727e-001	-6.5680449359e+000
 2.6077742095e-001	 9.9299539842e-001	-6.7663679087e+000
 2.5055776055e-001	 9.9562320526e-001	-6.9584651517e+000
 2.4034066687e-001	 9.9813884713e-001	-7.1443603251e+000
 2.3012784510e-001	 1.0005428556e+000	-7.3240949585e+000
 2.1992097947e-001	 1.0028357939e+000	-7.4977281488e+000
 2.0972173262e-001	 1.0050182560e+000	-7.6653362319e+000
 1.9953174493e-001	 1.0070908657e+000	-7.8270124294e+000
 3.0948207403e-001	 1.0068432406e+000	-5.3154931188e+000
 2.9900432955e-001	 1.0100043975e+000	-5.5009497912e+000
 2.8852201952e-001	 1.0130486331e+000	-5.6809162987e+000
 2.7803697233e-001	 1.0159763559e+000	-5.8553997524e+000
 2.6755099776e-001	 1.0187880095e+000	-6.0244265164e+000
 2.5706588626e-001	 1.0214840725e+000	-6.1880419630e+000
 2.4658340814e-001	 1.0240650570e+000	-6.3463101994e+000
 2.3610531289e-001	 1.0265315086e+000	-6.4993137671e+000
 2.2563332850e-001	 1.0288840049e+000	-6.6471533131e+000
 2.1516916078e-001	 1.0311231554e+000	-6.7899472336e+000
 2.0471449272e-001	 1.0332496003e+000	-6.9278312905e+000
 3.1731730815e-001	 1.0323337397e+000	-4.8043316172e+000
 3.0657429603e-001	 1.0355749283e+000	-4.9605084476e+000
 2.9582660277e-001	 1.0386962356e+000	-5.1118138403e+000
 2.8507610305e-001	 1.0416980803e+000	-5.2583055884e+000
 2.7432465247e-001	 1.0445809173e+000	-5.4000612859e+000
 2.6357408681e-001	 1.0473452371e+000	-5.5371780501e+000
 2.5282622120e-001	 1.0499915651e+000	-5.6697722163e+000
 2.4208284943e-001	 1.0525204604e+000	-5.7979790030e+000
 2.3134574322e-001	 1.0549325155e+000	-5.9219521483e+000
 2.2061665158e-001	 1.0572283551e+000	-6.0418635170e+000
 2.0989730011e-001	 1.0594086357e+000	-6.1579026789e+000
 3.2515261867e-001	 1.0578244873e+000	-4.3818022235e+000
 3.1414433632e-001	 1.0611457085e+000	-4.5109939926e+000
 3.0313125724e-001	 1.0643440882e+000	-4.6358494731e+000
 2.9211530239e-001	 1.0674200555e+000	-4.7564885210e+000
 2.8109837322e-001	 1.0703740765e+000	-4.8730512623e+000
 2.7008235081e-001	 1.0732066539e+000	-4.9856977761e+000
 2.5906909513e-001	 1.0759183259e+000	-5.0946077484e+000
 2.4806044425e-001	 1.0785096656e+000	-5.1999800962e+000
 2.3705821364e-001	 1.0809812800e+000	-5.3020325608e+000
 2.2606419549e-001	 1.0833338093e+000	-5.4010012721e+000
 2.1508015803e-001	 1.0855679261e+000	-5.4971402822e+000
 3.3298799187e-001	 1.0833154388e+000	-4.0294326403e+000
 3.2171443716e-001	 1.0867166932e+000	-4.1339866508e+000
 3.1043597014e-001	 1.0899921460e+000	-4.2346503503e+000
 2.9915455805e-001	 1.0931422364e+000	-4.3316163852e+000
 2.8787214816e-001	 1.0961674420e+000	-4.4250980738e+000
 2.7659066688e-001	 1.0990682775e+000	-4.5153290429e+000
 2.6531201900e-001	 1.1018452941e+000	-4.6025628339e+000
 2.5403808688e-001	 1.1044990787e+000	-4.6870724789e+000
 2.4277072976e-001	 1.1070302529e+000	-4.7691500462e+000
 2.3151178299e-001	 1.1094394723e+000	-4.8491061540e+000
 2.2026305741e-001	 1.1117274258e+000	-4.9272694538e+000
 3.4082341404e-001	 1.1088065496e+000	-3.7305411983e+000
 3.2928458532e-001	 1.1122878377e+000	-3.8128399595e+000
 3.1774072869e-001	 1.1156403640e+000	-3.8915996133e+000
 3.0619385771e-001	 1.1188645781e+000	-3.9670957071e+000
 2.9464596544e-001	 1.1219609688e+000	-4.0396248043e+000
 2.8309902363e-001	 1.1249300628e+000	-4.1095040685e+000
 2.7155498189e-001	 1.1277724244e+000	-4.1770708165e+000
 2.6001576688e-001	 1.1304886542e+000	-4.2426820415e+000
 2.4848328157e-001	 1.1330793886e+000	-4.3067139043e+000
 2.3695940452e-001	 1.1355452985e+000	-4.3695611934e+000
 2.2544598918e-001	 1.1378870890e+000	-4.4316367524e+000
 3.4865887146e-001	 1.1342977751e+000	-3.4700555103e+000
 3.3685476754e-001	 1.1378590973e+000	-3.5325011728e+000
 3.2504552012e-001	 1.1412886975e+000	-3.5916585363e+000
 3.1323318903e-001	 1.1445870356e+000	-3.6478955717e+000
 3.0141981319e-001	 1.1477546116e+000	-3.7016015613e+000
 2.8960740966e-001	 1.1507919644e+000	-3.7531866255e+000
 2.7779797287e-001	 1.1536996713e+000	-3.8030812190e+000
 2.6599347377e-001	 1.1564783467e+000	-3.8517355971e+000
 2.5419585909e-001	 1.1591286415e+000	-3.8996192488e+000
 2.4240705058e-001	 1.1616512422e+000	-3.9472202989e+000
 2.3062894428e-001	 1.1640468699e+000	-3.9950448763e+000
 3.5649435043e-001	 1.1597890707e+000	-3.2343545429e+000
 3.4442497057e-001	 1.1634304272e+000	-3.2793548736e+000
 3.3235033162e-001	 1.1669371014e+000	-3.3212116697e+000
 3.2027253972e-001	 1.1703095637e+000	-3.3603942835e+000
 3.0819367957e-001	 1.1735483253e+000	-3.3973936332e+000
 2.9611581358e-001	 1.1766539372e+000	-3.4327216698e+000
 2.8404098101e-001	 1.1796269895e+000	-3.4669108132e+000
 2.7197119710e-001	 1.1824681106e+000	-3.5005133580e+000
 2.5990845232e-001	 1.1851779660e+000	-3.5341008474e+000
 2.4785471161e-001	 1.1877572576e+000	-3.5682634137e+000
 2.3581191362e-001	 1.1902067228e+000	-3.6036090849e+000
 3.6432983724e-001	 1.1852803918e+000	-3.0111305852e+000
 3.5199518117e-001	 1.1890017827e+000	-3.0410863018e+000
 3.3965515044e-001	 1.1925855311e+000	-3.0679315214e+000
 3.2731189744e-001	 1.1960321176e+000	-3.0922453888e+000
 3.1496755272e-001	 1.1993420648e+000	-3.1146288372e+000
 3.0262422402e-001	 1.2025159358e+000	-3.1357039925e+000
 2.9028399540e-001	 1.2055543337e+000	-3.1561135480e+000
 2.7794892640e-001	 1.2084579005e+000	-3.1765201089e+000
 2.6562105126e-001	 1.2112273166e+000	-3.1976055048e+000
 2.5330237808e-001	 1.2138632991e+000	-3.2200700675e+000
 2.4099488815e-001	 1.2163666018e+000	-3.2446318751e+000
 3.7216531816e-001	 1.2107716938e+000	-2.7892681797e+000
 3.5956538610e-001	 1.2145731190e+000	-2.8065614929e+000
 3.4695996377e-001	 1.2182339414e+000	-2.8206598967e+000
 3.3435124988e-001	 1.2217546522e+000	-2.8322602083e+000
 3.2174142079e-001	 1.2251357850e+000	-2.8420812296e+000
 3.0913262957e-001	 1.2283779150e+000	-2.8508630892e+000
 2.9652700510e-001	 1.2314816584e+000	-2.8593665564e+000
 2.8392665122e-001	 1.2344476710e+000	-2.8683723238e+000
 2.7133364591e-001	 1.2372766476e+000	-2.8786802580e+000
 2.5875004047e-001	 1.2399693210e+000	-2.8911086154e+000
 2.4617785878e-001	 1.2425264611e+000	-2.9064932232e+000
 1.9434906582e-001	 9.8093247774e-001	-8.8775646656e+000
 1.8443583512e-001	 9.8284461142e-001	-9.0567081712e+000
 1.7453474535e-001	 9.8465107850e-001	-9.2263215994e+000
 1.6464732318e-001	 9.8635257014e-001	-9.3864883101e+000
 1.5477507159e-001	 9.8794980354e-001	-9.5373080697e+000
 1.4491946945e-001	 9.8944352116e-001	-9.6788966238e+000
 1.3508197105e-001	 9.9083448984e-001	-9.8113852473e+000
 1.2526400575e-001	 9.9212350004e-001	-9.9349202749e+000
 1.1546697758e-001	 9.9331136502e-001	-1.0049662611e+001
 1.0569226494e-001	 9.9439891999e-001	-1.0155787222e+001
 9.5941220239e-002	 9.9538702132e-001	-1.0253482613e+001
 1.9953174493e-001	 1.0070908657e+000	-7.8270124294e+000
 1.8935415951e-001	 1.0090539900e+000	-7.9814335617e+000
 1.7918903878e-001	 1.0109086299e+000	-8.1273345158e+000
 1.6903795012e-001	 1.0126554949e+000	-8.2648476281e+000
 1.5890243659e-001	 1.0142953215e+000	-8.3941195879e+000
 1.4878401649e-001	 1.0158288719e+000	-8.5153110141e+000
 1.3868418291e-001	 1.0172569334e+000	-8.6285960123e+000
 1.2860440331e-001	 1.0185803174e+000	-8.7341617117e+000
 1.1854611918e-001	 1.0197998590e+000	-8.8322077840e+000
 1.0851074566e-001	 1.0209164157e+000	-8.9229459439e+000
 9.8499671221e-002	 1.0219308666e+000	-9.0065994349e+000
 2.0471449272e-001	 1.0332496003e+000	-6.9278312905e+000
 1.9427254907e-001	 1.0352637158e+000	-7.0594241199e+000
 1.8384339388e-001	 1.0371665291e+000	-7.1834076260e+000
 1.7342863523e-001	 1.0389587683e+000	-7.2999737221e+000
 1.6302985627e-001	 1.0406411886e+000	-7.4093265671e+000
 1.5264861474e-001	 1.0422145723e+000	-7.5116821390e+000
 1.4228644250e-001	 1.0436797270e+000	-7.6072677881e+000
 1.3194484514e-001	 1.0450374853e+000	-7.6963217726e+000
 1.2162530158e-001	 1.0462887040e+000	-7.7790927754e+000
 1.1132926372e-001	 1.0474342627e+000	-7.8558394065e+000
 1.0105815610e-001	 1.0484750635e+000	-7.9268296876e+000
 2.0989730011e-001	 1.0594086357e+000	-6.1579026789e+000
 1.9919099519e-001	 1.0614737431e+000	-6.2685723866e+000
 1.8849780250e-001	 1.0634247304e+000	-6.3724437458e+000
 1.7781937083e-001	 1.0652623441e+000	-6.4697783227e+000
 1.6715732342e-001	 1.0669873587e+000	-6.5608477821e+000
 1.5651325743e-001	 1.0686005761e+000	-6.6459334470e+000
 1.4588874352e-001	 1.0701028245e+000	-6.7253258406e+000
 1.3528532538e-001	 1.0714949575e+000	-6.7993242109e+000
 1.2470451939e-001	 1.0727778536e+000	-6.8682360394e+000
 1.1414781419e-001	 1.0739524147e+000	-6.9323765337e+000
 1.0361667041e-001	 1.0750195657e+000	-6.9920681062e+000
 2.1508015803e-001	 1.0855679261e+000	-5.4971402822e+000
 2.0410948927e-001	 1.0876840259e+000	-5.5887833971e+000
 1.9315225650e-001	 1.0896831877e+000	-5.6743378004e+000
 1.8221014925e-001	 1.0915661763e+000	-5.7541443028e+000
 1.7128483081e-001	 1.0933337856e+000	-5.8285516370e+000
 1.6037793781e-001	 1.0949868371e+000	-5.8979159965e+000
 1.4949107966e-001	 1.0965261796e+000	-5.9626005578e+000
 1.3862583819e-001	 1.0979526877e+000	-6.0229749875e+000
 1.2778376722e-001	 1.0992672615e+000	-6.0794149330e+000
 1.1696639215e-001	 1.1004708253e+000	-6.1323015000e+000
 1.0617520966e-001	 1.1015643267e+000	-6.1820207153e+000
 2.2026305741e-001	 1.1117274258e+000	-4.9272694538e+000
 2.0902802269e-001	 1.1138945184e+000	-5.0017559290e+000
 1.9780674774e-001	 1.1159418550e+000	-5.0707599500e+000
 1.8660096279e-001	 1.1178702190e+000	-5.1347107098e+000
 1.7541237123e-001	 1.1196804233e+000	-5.1940431297e+000
 1.6424264910e-001	 1.1213733093e+000	-5.2491973704e+000
 1.5309344462e-001	 1.1229497461e+000	-5.3006183279e+000
 1.4196637773e-001	 1.1244106295e+000	-5.3487551148e+000
 1.3086303968e-001	 1.1257568813e+000	-5.3940605278e+000
 1.1978499265e-001	 1.1269894479e+000	-5.4369905008e+000
 1.0873376937e-001	 1.1281093001e+000	-5.4780035464e+000
 2.2544598918e-001	 1.1378870890e+000	-4.4316367524e+000
 2.1394658685e-001	 1.1401051746e+000	-4.4907936519e+000
 2.0246126806e-001	 1.1422006864e+000	-4.5449683810e+000
 1.9099180377e-001	 1.1441744261e+000	-4.5946872246e+000
 1.7953993743e-001	 1.1460272257e+000	-4.6404799981e+000
 1.6810738454e-001	 1.1477599464e+000	-4.6828795245e+000
 1.5669583209e-001	 1.1493734777e+000	-4.7224210974e+000
 1.4530693814e-001	 1.1508687367e+000	-4.7596419313e+000
 1.3394233139e-001	 1.1522466666e+000	-4.7950805974e+000
 1.2260361077e-001	 1.1535082364e+000	-4.8292764479e+000
 1.1129234508e-001	 1.1546544394e+000	-4.8627690279e+000
 2.3062894428e-001	 1.1640468699e+000	-3.9950448763e+000
 2.1886517314e-001	 1.1663159489e+000	-4.0406414761e+000
 2.0711580933e-001	 1.1684596360e+000	-4.0816470960e+000
 1.9538266450e-001	 1.1704787516e+000	-4.1186934157e+000
 1.8366752221e-001	 1.1723741466e+000	-4.1524134560e+000
 1.7197213737e-001	 1.1741467021e+000	-4.1834410170e+000
 1.6029823577e-001	 1.1757973282e+000	-4.2124101034e+000
 1.4864751358e-001	 1.1773269629e+000	-4.2399543363e+000
 1.3702163695e-001	 1.1787365711e+000	-4.2667063541e+000
 1.2542224157e-001	 1.1800271441e+000	-4.2932971999e+000
 1.1385093230e-001	 1.1811996981e+000	-4.3203556981e+000
 2.3581191362e-001	 1.1902067228e+000	-3.6036090849e+000
 2.2378377296e-001	 1.1925267952e+000	-3.6373432251e+000
 2.1177036340e-001	 1.1947186578e+000	-3.6667648610e+000
 1.9977353732e-001	 1.1967831493e+000	-3.6926189789e+000
 1.8779511834e-001	 1.1987211399e+000	-3.7156497395e+000
 1.7583690083e-001	 1.2005335305e+000	-3.7365998724e+000
 1.6390064935e-001	 1.2022212514e+000	-3.7562100585e+000
 1.5198809821e-001	 1.2037852618e+000	-3.7752183002e+000
 1.4010095098e-001	 1.2052265485e+000	-3.7943592801e+000
 1.2824088012e-001	 1.2065461248e+000	-3.8143637075e+000
 1.1640952656e-001	 1.2077450298e+000	-3.8359576540e+000
 2.4099488815e-001	 1.2163666018e+000	-3.2446318751e+000
 2.2870237769e-001	 1.2187376677e+000	-3.2681174232e+000
 2.1642492212e-001	 1.2209777059e+000	-3.2874521236e+000
 2.0416441451e-001	 1.2230875734e+000	-3.3035018028e+000
 1.9192271859e-001	 1.2250681596e+000	-3.3171293316e+000
 1.7970166815e-001	 1.2269203852e+000	-3.3291939722e+000
 1.6750306654e-001	 1.2286452010e+000	-3.3405507141e+000
 1.5532868618e-001	 1.2302435872e+000	-3.3520495984e+000
 1.4318026809e-001	 1.2317165523e+000	-3.3645350297e+000
 1.3105952148e-001	 1.2330651319e+000	-3.3788450776e+000
 1.1896812337e-001	 1.2342903880e+000	-3.3958107655e+000
 2.4617785878e-001	 1.2425264611e+000	-2.9064932232e+000
 2.3362097874e-001	 1.2449485205e+000	-2.9212485291e+000
 2.2107947735e-001	 1.2472367342e+000	-2.9318932554e+000
 2.0855528842e-001	 1.2493919777e+000	-2.9394212334e+000
 1.9605031575e-001	 1.2514151596e+000	-2.9448212594e+000
 1.8356643257e-001	 1.2533072201e+000	-2.9490763921e+000
 1.7110548102e-001	 1.2550691308e+000	-2.9531632393e+000
 1.5866927164e-001	 1.2567018928e+000	-2.9580512323e+000
 1.4625958289e-001	 1.2582065363e+000	-2.9647018888e+000
 1.3387816074e-001	 1.2595841192e+000	-2.9740680634e+000
 1.2152671826e-001	 1.2608357263e+000	-2.9870931868e+000
 9.5941220239e-002	 9.9538702132e-001	-1.0253482613e+001
 8.6213715910e-002	 9.9627667181e-001	-1.0343294354e+001
 7.6512533521e-002	 9.9706861257e-001	-1.0425606835e+001
 6.6838966101e-002	 9.9776375910e-001	-1.0500404525e+001
 5.7194279111e-002	 9.9836304482e-001	-1.0567653450e+001
 4.7579710273e-002	 9.9886742018e-001	-1.0627301790e+001
 3.7996469419e-002	 9.9927785191e-001	-1.0679280489e+001
 2.8445738363e-002	 9.9959532214e-001	-1.0723503853e+001
 1.8928670806e-002	 9.9982082766e-001	-1.0759870159e+001
 9.4463922618e-003	 9.9995537907e-001	-1.0788262257e+001
 0.0000000000e+000	 1.0000000000e+000	-1.0808548171e+001
 9.8499671221e-002	 1.0219308666e+000	-9.0065994349e+000
 8.8512764906e-002	 1.0228442412e+000	-9.0827254298e+000
 7.8552882455e-002	 1.0236573006e+000	-9.1507659098e+000
 6.8621351376e-002	 1.0243709845e+000	-9.2108062723e+000
 5.8719470879e-002	 1.0249862513e+000	-9.2629195224e+000
 4.8848511690e-002	 1.0255040767e+000	-9.3071665758e+000
 3.9009715904e-002	 1.0259254534e+000	-9.3435965617e+000
 2.9204296851e-002	 1.0262513896e+000	-9.3722471243e+000
 1.9433438997e-002	 1.0264829086e+000	-9.3931447231e+000
 9.6982978697e-003	 1.0266210481e+000	-9.4063049330e+000
 0.0000000000e+000	 1.0266668589e+000	-9.4117353757e+000
 1.0105815610e-001	 1.0484750635e+000	-7.9268296876e+000
 9.0811844365e-002	 1.0494121627e+000	-7.9909271616e+000
 8.0593258423e-002	 1.0502463409e+000	-8.0469174121e+000
 7.0403760268e-002	 1.0509785624e+000	-8.0949828528e+000
 6.0244682856e-002	 1.0516098105e+000	-8.1352978004e+000
 5.0117329919e-002	 1.0521410862e+000	-8.1680285303e+000
 4.0022975815e-002	 1.0525734079e+000	-8.1933333313e+000
 2.9962865390e-002	 1.0529078102e+000	-8.2113625572e+000
 1.9938213876e-002	 1.0531453428e+000	-8.2222586774e+000
 9.9502068155e-003	 1.0532870704e+000	-8.2261563257e+000
 0.0000000000e+000	 1.0533340711e+000	-8.2231848654e+000
 1.0361667041e-001	 1.0750195657e+000	-6.9920681062e+000
 9.3110950263e-002	 1.0759803897e+000	-7.0457078056e+000
 8.2633657856e-002	 1.0768356869e+000	-7.0916440286e+000
 7.2186189658e-002	 1.0775864463e+000	-7.1301531946e+000
 6.1769912372e-002	 1.0782336758e+000	-7.1615062654e+000
 5.1386162739e-002	 1.0787784020e+000	-7.1859686037e+000
 4.1036247378e-002	 1.0792216689e+000	-7.2037998282e+000
 3.0721442652e-002	 1.0795645373e+000	-7.2152536661e+000
 2.0442994561e-002	 1.0798080836e+000	-7.2205778046e+000
 1.0202118658e-002	 1.0799533994e+000	-7.2200137395e+000
 0.0000000000e+000	 1.0800015900e+000	-7.2137989057e+000
 1.0617520966e-001	 1.1015643267e+000	-6.1820207153e+000
 9.5410078577e-002	 1.1025488757e+000	-6.2266691539e+000
 8.4674077182e-002	 1.1034252923e+000	-6.2643168799e+000
 7.3968636427e-002	 1.1041945896e+000	-6.2953321265e+000
 6.3295156760e-002	 1.1048578008e+000	-6.3200787475e+000
 5.2655007930e-002	 1.1054159776e+000	-6.3389159239e+000
 4.2049528821e-002	 1.1058701898e+000	-6.3521978676e+000
 3.1480027311e-002	 1.1062215244e+000	-6.3602735225e+000
 2.0947780166e-002	 1.1064710844e+000	-6.3634862636e+000
 1.0454032957e-002	 1.1066199883e+000	-6.3621735954e+000
 0.0000000000e+000	 1.1066693690e+000	-6.3566688100e+000
 1.0873376937e-001	 1.1281093001e+000	-5.4780035464e+000
 9.7709225283e-002	 1.1291175742e+000	-5.5150064175e+000
 8.6714512831e-002	 1.1300151103e+000	-5.5458950302e+000
 7.5751097454e-002	 1.1308029458e+000	-5.5711279852e+000
 6.4820413349e-002	 1.1314821387e+000	-5.5911591071e+000
 5.3923863272e-002	 1.1320537662e+000	-5.6064370442e+000
 4.3062818369e-002	 1.1325189238e+000	-5.6174048650e+000
 3.2238618038e-002	 1.1328787247e+000	-5.6244996524e+000
 2.1452569810e-002	 1.1331342985e+000	-5.6281520976e+000
 1.0705949271e-002	 1.1332867906e+000	-5.6287860930e+000
 0.0000000000e+000	 1.1333373612e+000	-5.6268199149e+000
 1.1129234508e-001	 1.1546544394e+000	-4.8627690279e+000
 1.0000838636e-001	 1.1556864388e+000	-4.8933356373e+000
 8.8754961232e-002	 1.1566050945e+000	-4.9187525907e+000
 7.7533569621e-002	 1.1574114683e+000	-4.9395680895e+000
 6.6345679470e-002	 1.1581066431e+000	-4.9563237691e+000
 5.5192726543e-002	 1.1586917213e+000	-4.9695542338e+000
 4.4076114251e-002	 1.1591678243e+000	-4.9797865885e+000
 3.2997213506e-002	 1.1595360916e+000	-4.9875399700e+000
 2.1957362609e-002	 1.1597976792e+000	-4.9933250778e+000
 1.0957867160e-002	 1.1599537596e+000	-4.9976437061e+000
 0.0000000000e+000	 1.1600055201e+000	-5.0009894817e+000
 1.1385093230e-001	 1.1811996981e+000	-4.3203556981e+000
 1.0230755778e-001	 1.1822554230e+000	-4.3455442956e+000
 9.0795418814e-002	 1.1831951983e+000	-4.3665290787e+000
 7.9316049809e-002	 1.1840201105e+000	-4.3839477034e+000
 6.7870952455e-002	 1.1847312672e+000	-4.3984281520e+000
 5.6461595524e-002	 1.1853297962e+000	-4.4105882435e+000
 4.5089414691e-002	 1.1858168448e+000	-4.4210351423e+000
 3.3755812387e-002	 1.1861935784e+000	-4.4303648667e+000
 2.2462157679e-002	 1.1864611799e+000	-4.4391617983e+000
 1.1209786182e-002	 1.1866208486e+000	-4.4479981938e+000
 0.0000000000e+000	 1.1866737990e+000	-4.4574345418e+000
 1.1640952656e-001	 1.2077450298e+000	-3.8359576540e+000
 1.0460673552e-001	 1.2088244802e+000	-3.8566615591e+000
 9.2835882007e-002	 1.2097853753e+000	-3.8739994558e+000
 8.1098534898e-002	 1.2106288259e+000	-3.8886988738e+000
 6.9396229633e-002	 1.2113559645e+000	-3.9014733164e+000
 5.7730467994e-002	 1.2119679444e+000	-3.9130217845e+000
 4.6102717918e-002	 1.2124659385e+000	-3.9240283008e+000
 3.4514413354e-002	 1.2128511386e+000	-3.9351614350e+000
 2.2966954137e-002	 1.2131247539e+000	-3.9470738314e+000
 1.1461705896e-002	 1.2132880108e+000	-3.9604017399e+000
 0.0000000000e+000	 1.2133421513e+000	-3.9757650806e+000
 1.1896812337e-001	 1.2342903880e+000	-3.3958107655e+000
 1.0690591556e-001	 1.2353935640e+000	-3.4127452007e+000
 9.4876347240e-002	 1.2363755789e+000	-3.4269608828e+000
 8.2881021769e-002	 1.2372375679e+000	-3.4392761522e+000
 7.0921508337e-002	 1.2379806885e+000	-3.4504897920e+000
 5.8999341732e-002	 1.2386061193e+000	-3.4613806030e+000
 4.7116022158e-002	 1.2391150589e+000	-3.4727069809e+000
 3.5273015080e-002	 1.2395087254e+000	-3.4852064958e+000
 2.3471751099e-002	 1.2397883546e+000	-3.4995954755e+000
 1.1713625863e-002	 1.2399551998e+000	-3.5165685936e+000
 0.0000000000e+000	 1.2400105302e+000	-3.5367987488e+000
 1.2152671826e-001	 1.2608357263e+000	-2.9870931868e+000
 1.0920509388e-001	 1.2619626278e+000	-3.0007827416e+000
 9.6916810941e-002	 1.2629657625e+000	-3.0121337311e+000
 8.4663507302e-002	 1.2638462899e+000	-3.0220567151e+000
 7.2446785896e-002	 1.2646053925e+000	-3.0314360515e+000
 6.0268214518e-002	 1.2652442741e+000	-3.0411295585e+000
 4.8129325638e-002	 1.2657641593e+000	-3.0519681811e+000
 3.6031616237e-002	 1.2661662922e+000	-3.0647556601e+000
 2.3976547683e-002	 1.2664519353e+000	-3.0802682077e+000
 1.1965545641e-002	 1.2666223687e+000	-3.0992541885e+000
 0.0000000000e+000	 1.2666788891e+000	-3.1224339300e+000
 1.2666788891e+000	 0.0000000000e+000	 3.6642864246e+000
 1.2666223687e+000	 1.1965545641e-002	 3.6540724469e+000
 1.2664519353e+000	 2.3976547683e-002	 3.6437920533e+000
 1.2661662922e+000	 3.6031616237e-002	 3.6331531235e+000
 1.2657641593e+000	 4.8129325638e-002	 3.6218653984e+000
 1.2652442741e+000	 6.0268214518e-002	 3.6096405111e+000
 1.2646053925e+000	 7.2446785896e-002	 3.5961919693e+000
 1.2638462899e+000	 8.4663507302e-002	 3.5812350776e+000
 1.2629657625e+000	 9.6916810941e-002	 3.5644868002e+000
 1.2619626278e+000	 1.0920509388e-001	 3.5456655625e+000
 1.2608357263e+000	 1.2152671826e-001	 3.5244909927e+000
 1.2933431901e+000	 0.0000000000e+000	 3.6667590029e+000
 1.2932854800e+000	 1.2217427086e-002	 3.6564346136e+000
 1.2931114588e+000	 2.4481267458e-002	 3.6457673306e+000
 1.2928198028e+000	 3.6790101965e-002	 3.6344553178e+000
 1.2924092048e+000	 4.9142474935e-002	 3.6221989375e+000
 1.2918783757e+000	 6.1536894235e-002	 3.6087007504e+000
 1.2912260453e+000	 7.3971831370e-002	 3.5936654517e+000
 1.2904509632e+000	 8.6445721615e-002	 3.5767997405e+000
 1.2895519001e+000	 9.8956964168e-002	 3.5578121187e+000
 1.2885276489e+000	 1.1150392235e-001	 3.5364126224e+000
 1.2873770255e+000	 1.2408492384e-001	 3.5123124835e+000
 1.3200074312e+000	 0.0000000000e+000	 3.6745948408e+000
 1.3199485313e+000	 1.2469307965e-002	 3.6672806832e+000
 1.3197709224e+000	 2.4985986097e-002	 3.6591937485e+000
 1.3194732534e+000	 3.7548585987e-002	 3.6500093199e+000
 1.3190541903e+000	 5.0155621952e-002	 3.6394057220e+000
 1.3185124174e+000	 6.2805571096e-002	 3.6270643099e+000
 1.3178466382e+000	 7.5496873414e-002	 3.6126693843e+000
 1.3170555766e+000	 8.8227931917e-002	 3.5959080290e+000
 1.3161379780e+000	 1.0099711281e-001	 3.5764698700e+000
 1.3150926103e+000	 1.1380274566e-001	 3.5540467565e+000
 1.3139182650e+000	 1.2664312367e-001	 3.5283323634e+000
 1.3466716190e+000	 0.0000000000e+000	 3.6836198234e+000
 1.3466115292e+000	 1.2721188341e-002	 3.6818134315e+000
 1.3464303327e+000	 2.5490703727e-002	 3.6787024444e+000
 1.3461266508e+000	 3.8307068493e-002	 3.6739475084e+000
 1.3456991226e+000	 5.1168766943e-002	 3.6672097407e+000
 1.3451464058e+000	 6.4074245421e-002	 3.6581499664e+000
 1.3444671778e+000	 7.7021912407e-002	 3.6464280292e+000
 1.3436601368e+000	 9.0010138656e-002	 3.6317021753e+000
 1.3427240027e+000	 1.0303725736e-001	 3.6136285134e+000
 1.3416575185e+000	 1.1610156436e-001	 3.5918605508e+000
 1.3404594514e+000	 1.2920131837e-001	 3.5660488040e+000
 1.3733357600e+000	 0.0000000000e+000	 3.6954980968e+000
 1.3732744805e+000	 1.2973068276e-002	 3.6987225618e+000
 1.3730896963e+000	 2.5995420473e-002	 3.7001807551e+000
 1.3727800015e+000	 3.9065549671e-002	 3.6995304057e+000
 1.3723440082e+000	 5.2181910162e-002	 3.6964261038e+000
 1.3717803477e+000	 6.5342917526e-002	 3.6905185222e+000
 1.3710876709e+000	 7.8546948732e-002	 3.6814537327e+000
 1.3702646504e+000	 9.1792342276e-002	 3.6688726176e+000
 1.3693099808e+000	 1.0507739835e-001	 3.6524103790e+000
 1.3682223803e+000	 1.1840037905e-001	 3.6316961456e+000
 1.3670005914e+000	 1.3175950861e-001	 3.6063526755e+000
 1.3999998611e+000	 0.0000000000e+000	 3.7098365074e+000
 1.3999373918e+000	 1.3224947833e-002	 3.7167527649e+000
 1.3997490199e+000	 2.6500136463e-002	 3.7215655726e+000
 1.3994333122e+000	 3.9824029712e-002	 3.7239206322e+000
 1.3989888539e+000	 5.3195051861e-002	 3.7234565423e+000
 1.3984142495e+000	 6.6611587728e-002	 3.7198040338e+000
 1.3977081241e+000	 8.0071982770e-002	 3.7125853246e+000
 1.3968691242e+000	 9.3574543223e-002	 3.7014135956e+000
 1.3958959191e+000	 1.0711753628e-001	 3.6858925880e+000
 1.3947872022e+000	 1.2069919028e-001	 3.6656163227e+000
 1.3935416916e+000	 1.3431769500e-001	 3.6401689406e+000
 1.4266639289e+000	 0.0000000000e+000	 3.7257405482e+000
 1.4266002698e+000	 1.3476827075e-002	 3.7345972796e+000
 1.4264083102e+000	 2.7004851823e-002	 3.7411772485e+000
 1.4260865896e+000	 4.0582508805e-002	 3.7451053359e+000
 1.4256336662e+000	 5.4208192294e-002	 3.7459949407e+000
 1.4250481181e+000	 6.7880256345e-002	 3.7434472604e+000
 1.4243285440e+000	 8.1597014902e-002	 3.7370507187e+000
 1.4234735646e+000	 9.5356741943e-002	 3.7263805428e+000
 1.4224818242e+000	 1.0915767165e-001	 3.7109984899e+000
 1.4213519908e+000	 1.2299799864e-001	 3.6904527235e+000
 1.4200827586e+000	 1.3687587820e-001	 3.6642778380e+000
 1.4533279700e+000	 0.0000000000e+000	 3.7425058015e+000
 1.4532631212e+000	 1.3728706065e-002	 3.7511527238e+000
 1.4530675738e+000	 2.7509566677e-002	 3.7575521965e+000
 1.4527398403e+000	 4.1340987140e-002	 3.7612997119e+000
 1.4522784520e+000	 5.5221331714e-002	 3.7619744253e+000
 1.4516819601e+000	 6.9148923693e-002	 3.7591385129e+000
 1.4509489372e+000	 8.3122045509e-002	 3.7523367086e+000
 1.4500779785e+000	 9.7138938881e-002	 3.7410960216e+000
 1.4490677026e+000	 1.1119780499e-001	 3.7249256350e+000
 1.4479167530e+000	 1.2529680471e-001	 3.7033169852e+000
 1.4466237990e+000	 1.3943405884e-001	 3.6757440204e+000
 1.4799919911e+000	 0.0000000000e+000	 3.7596008194e+000
 1.4799259525e+000	 1.3980584867e-002	 3.7655005134e+000
 1.4797268175e+000	 2.8014281154e-002	 3.7694229861e+000
 1.4793930711e+000	 4.2099464907e-002	 3.7709259094e+000
 1.4789232177e+000	 5.6234470375e-002	 3.7695452245e+000
 1.4783157820e+000	 7.0417590090e-002	 3.7647946094e+000
 1.4775693105e+000	 8.4647074973e-002	 3.7561651633e+000
 1.4766823725e+000	 9.8921134482e-002	 3.7431253051e+000
 1.4756535611e+000	 1.1323793680e-001	 3.7251208900e+000
 1.4744814952e+000	 1.2759560905e-001	 3.7015755400e+000
 1.4731648196e+000	 1.4199223756e-001	 3.6718911885e+000
 1.5066559989e+000	 0.0000000000e+000	 3.7766518225e+000
 1.5065887705e+000	 1.4232463543e-002	 3.7768902551e+000
 1.5063860478e+000	 2.8518995379e-002	 3.7757005510e+000
 1.5060462885e+000	 4.2857942294e-002	 3.7725941802e+000
 1.5055679701e+000	 5.7247608530e-002	 3.7670548823e+000
 1.5049495907e+000	 7.1686255854e-002	 3.7585382808e+000
 1.5041896705e+000	 8.6172103675e-002	 3.7464717529e+000
 1.5032867531e+000	 1.0070332919e-001	 3.7302545534e+000
 1.5022394064e+000	 1.1527806759e-001	 3.7092581958e+000
 1.5010462241e+000	 1.2989441224e-001	 3.6828270865e+000
 1.4997058268e+000	 1.4455041500e-001	 3.6502794102e+000
 1.5333200000e+000	 0.0000000000e+000	 3.7934289960e+000
 1.5332515818e+000	 1.4484342157e-002	 3.7847248731e+000
 1.5330452715e+000	 2.9023709478e-002	 3.7754582562e+000
 1.5326994993e+000	 4.3616419493e-002	 3.7650859956e+000
 1.5322127159e+000	 5.8260746432e-002	 3.7530305388e+000
 1.5315833927e+000	 7.2954921301e-002	 3.7386797281e+000
 1.5308100238e+000	 8.7697131996e-002	 3.7213868974e+000
 1.5298911271e+000	 1.0248552346e-001	 3.7004712685e+000
 1.5288252450e+000	 1.1731819787e-001	 3.6752186461e+000
 1.5276109464e+000	 1.3219321486e-001	 3.6448824098e+000
 1.5262468275e+000	 1.4710859180e-001	 3.6086847992e+000
 1.2608357263e+000	 1.2152671826e-001	 3.5244909927e+000
 1.2595841192e+000	 1.3387816074e-001	 3.5019094912e+000
 1.2582065363e+000	 1.4625958289e-001	 3.4788450134e+000
 1.2567018928e+000	 1.5866927164e-001	 3.4549974136e+000
 1.2550691308e+000	 1.7110548102e-001	 3.4300704464e+000
 1.2533072201e+000	 1.8356643257e-001	 3.4037714702e+000
 1.2514151596e+000	 1.9605031575e-001	 3.3758111012e+000
 1.2493919777e+000	 2.0855528842e-001	 3.3459028197e+000
 1.2472367342e+000	 2.2107947735e-001	 3.3137625326e+000
 1.2449485205e+000	 2.3362097874e-001	 3.2791080954e+000
 1.2425264611e+000	 2.4617785878e-001	 3.2416587988e+000
 1.2873770255e+000	 1.2408492384e-001	 3.5123124835e+000
 1.2860990714e+000	 1.3669637111e-001	 3.4866149622e+000
 1.2846924896e+000	 1.4933842914e-001	 3.4603885070e+000
 1.2831561725e+000	 1.6200934880e-001	 3.4333079410e+000
 1.2814890399e+000	 1.7470734737e-001	 3.4050527187e+000
 1.2796900401e+000	 1.8743060893e-001	 3.3753065752e+000
 1.2777581506e+000	 2.0017728485e-001	 3.3437571184e+000
 1.2756923796e+000	 2.1294549421e-001	 3.3100953676e+000
 1.2734917670e+000	 2.2573332434e-001	 3.2740152424e+000
 1.2711553851e+000	 2.3853883137e-001	 3.2352130056e+000
 1.2686823400e+000	 2.5136004078e-001	 3.1933866657e+000
 1.3139182650e+000	 1.2664312367e-001	 3.5283323634e+000
 1.3126139639e+000	 1.3951457514e-001	 3.5006108267e+000
 1.3111783833e+000	 1.5241726847e-001	 3.4721284799e+000
 1.3096103927e+000	 1.6534941845e-001	 3.4425403780e+000
 1.3079088896e+000	 1.7830920561e-001	 3.4115074699e+000
 1.3060728006e+000	 1.9129477660e-001	 3.3786961845e+000
 1.3041010823e+000	 2.0430424467e-001	 3.3437779514e+000
 1.3019927223e+000	 2.1733569013e-001	 3.3064286607e+000
 1.2997467407e+000	 2.3038716087e-001	 3.2663280643e+000
 1.2973621908e+000	 2.4345667294e-001	 3.2231591263e+000
 1.2948381601e+000	 2.5654221113e-001	 3.1766073252e+000
 1.3404594514e+000	 1.2920131837e-001	 3.5660488040e+000
 1.3391288034e+000	 1.4233277354e-001	 3.5376513622e+000
 1.3376642240e+000	 1.5549610164e-001	 3.5080889461e+000
 1.3360645600e+000	 1.6868948142e-001	 3.4769685300e+000
 1.3343286865e+000	 1.8191105664e-001	 3.4439004691e+000
 1.3324555085e+000	 1.9515893654e-001	 3.4085124841e+000
 1.3304439613e+000	 2.0843119624e-001	 3.3705429079e+000
 1.3282930124e+000	 2.2172587726e-001	 3.3296795218e+000
 1.3260016620e+000	 2.3504098809e-001	 3.2855958969e+000
 1.3235689440e+000	 2.4837450467e-001	 3.2379701534e+000
 1.3209939278e+000	 2.6172437110e-001	 3.1864841472e+000
 1.3670005914e+000	 1.3175950861e-001	 3.6063526755e+000
 1.3656435965e+000	 1.4515096700e-001	 3.5780448356e+000
 1.3641500184e+000	 1.5857492942e-001	 3.5484092889e+000
 1.3625186809e+000	 1.7202953854e-001	 3.5170347158e+000
 1.3607484371e+000	 1.8551290138e-001	 3.4835109947e+000
 1.3588381701e+000	 1.9902308972e-001	 3.4474297057e+000
 1.3567867943e+000	 2.1255814058e-001	 3.4083847023e+000
 1.3545932565e+000	 2.2611605672e-001	 3.3659727435e+000
 1.3522565372e+000	 2.3969480716e-001	 3.3197941745e+000
 1.3497756514e+000	 2.5329232780e-001	 3.2694536472e+000
 1.3471496498e+000	 2.6690652201e-001	 3.2145608675e+000
 1.3935416916e+000	 1.3431769500e-001	 3.6401689406e+000
 1.3921583499e+000	 1.4796915623e-001	 3.6114200748e+000
 1.3906357731e+000	 1.6165375258e-001	 3.5812269996e+000
 1.3889727622e+000	 1.7536959065e-001	 3.5491593606e+000
 1.3871681481e+000	 1.8911474071e-001	 3.5147857332e+000
 1.3852207922e+000	 2.0288723710e-001	 3.4776743446e+000
 1.3831295877e+000	 2.1668507874e-001	 3.4373938808e+000
 1.3808934612e+000	 2.3050622959e-001	 3.3935143675e+000
 1.3785113731e+000	 2.4434861925e-001	 3.3456081140e+000
 1.3759823195e+000	 2.5821014355e-001	 3.2932507067e+000
 1.3733053326e+000	 2.7208866515e-001	 3.2360220394e+000
 1.4200827586e+000	 1.3687587820e-001	 3.6642778380e+000
 1.4186730700e+000	 1.5078734195e-001	 3.6345393359e+000
 1.4171214946e+000	 1.6473257189e-001	 3.6033124174e+000
 1.4154268105e+000	 1.7870963858e-001	 3.5701461245e+000
 1.4135878261e+000	 1.9271657554e-001	 3.5345860414e+000
 1.4116033813e+000	 2.0675137966e-001	 3.4961752731e+000
 1.4094723482e+000	 2.2081201173e-001	 3.4544555278e+000
 1.4071936330e+000	 2.3489639697e-001	 3.4089682889e+000
 1.4047661762e+000	 2.4900242552e-001	 3.3592560652e+000
 1.4021889548e+000	 2.6312795315e-001	 3.3048637013e+000
 1.3994609826e+000	 2.7727080181e-001	 3.2453397356e+000
 1.4466237990e+000	 1.3943405884e-001	 3.6757440204e+000
 1.4451877637e+000	 1.5360552484e-001	 3.6444527277e+000
 1.4436071897e+000	 1.6781138813e-001	 3.6117266188e+000
 1.4418808323e+000	 1.8204968318e-001	 3.5770916833e+000
 1.4400074777e+000	 1.9631840676e-001	 3.5400679101e+000
 1.4379859440e+000	 2.1061551834e-001	 3.5001705660e+000
 1.4358150824e+000	 2.2493894060e-001	 3.4569115985e+000
 1.4334937784e+000	 2.3928655996e-001	 3.4098011453e+000
 1.4310209530e+000	 2.5365622715e-001	 3.3583491371e+000
 1.4283955639e+000	 2.6804575784e-001	 3.3020669750e+000
 1.4256166065e+000	 2.8245293328e-001	 3.2404692646e+000
 1.4731648196e+000	 1.4199223756e-001	 3.6718911885e+000
 1.4717024375e+000	 1.5642370563e-001	 3.6384727865e+000
 1.4700928649e+000	 1.7089020205e-001	 3.6037959973e+000
 1.4683348342e+000	 1.8538972527e-001	 3.5673603709e+000
 1.4664271094e+000	 1.9992023529e-001	 3.5286567243e+000
 1.4643684869e+000	 2.1447965413e-001	 3.4871687688e+000
 1.4621577968e+000	 2.2906586638e-001	 3.4423748800e+000
 1.4597939042e+000	 2.4367671966e-001	 3.3937499973e+000
 1.4572757102e+000	 2.5831002528e-001	 3.3407676314e+000
 1.4546021534e+000	 2.7296355883e-001	 3.2829019615e+000
 1.4517722108e+000	 2.8763506087e-001	 3.2196299999e+000
 1.4997058268e+000	 1.4455041500e-001	 3.6502794102e+000
 1.4982170980e+000	 1.5924188500e-001	 3.6141517386e+000
 1.4965785268e+000	 1.7396901444e-001	 3.5770895210e+000
 1.4947888229e+000	 1.8872976570e-001	 3.5385614829e+000
 1.4928467280e+000	 2.0352206201e-001	 3.4980246625e+000
 1.4907510167e+000	 2.1834378799e-001	 3.4549264359e+000
 1.4885004981e+000	 2.3319279009e-001	 3.4087067109e+000
 1.4860940168e+000	 2.4806687716e-001	 3.3588002705e+000
 1.4835304542e+000	 2.6296382108e-001	 3.3046392427e+000
 1.4808087297e+000	 2.7788135737e-001	 3.2456556767e+000
 1.4779278020e+000	 2.9281718587e-001	 3.1812841966e+000
 1.5262468275e+000	 1.4710859180e-001	 3.6086847992e+000
 1.5247317519e+000	 1.6206006367e-001	 3.5692611212e+000
 1.5230641822e+000	 1.7704782606e-001	 3.5293983422e+000
 1.5212428050e+000	 1.9206980528e-001	 3.4885289195e+000
 1.5192663399e+000	 2.0712388784e-001	 3.4460704111e+000
 1.5171335398e+000	 2.2220792089e-001	 3.4014279568e+000
 1.5148431927e+000	 2.3731971277e-001	 3.3539969542e+000
 1.5123941228e+000	 2.5245703357e-001	 3.3031659065e+000
 1.5097851916e+000	 2.6761761573e-001	 3.2483194189e+000
 1.5070152995e+000	 2.8279915468e-001	 3.1888413156e+000
 1.5040833867e+000	 2.9799930958e-001	 3.1241178492e+000
 1.2425264611e+000	 2.4617785878e-001	 3.2416587988e+000
 1.2399693210e+000	 2.5875004047e-001	 3.2024367988e+000
 1.2372766476e+000	 2.7133364591e-001	 3.1625212866e+000
 1.2344476710e+000	 2.8392665122e-001	 3.1217042335e+000
 1.2314816584e+000	 2.9652700510e-001	 3.0797823461e+000
 1.2283779150e+000	 3.0913262957e-001	 3.0365564720e+000
 1.2251357850e+000	 3.2174142079e-001	 2.9918309949e+000
 1.2217546522e+000	 3.3435124988e-001	 2.9454132257e+000
 1.2182339414e+000	 3.4695996377e-001	 2.8971127960e+000
 1.2145731190e+000	 3.5956538610e-001	 2.8467410627e+000
 1.2107716938e+000	 3.7216531816e-001	 2.7941105293e+000
 1.2686823400e+000	 2.5136004078e-001	 3.1933866657e+000
 1.2660713707e+000	 2.6419687395e-001	 3.1496930121e+000
 1.2633220150e+000	 2.7704537134e-001	 3.1053512760e+000
 1.2604334868e+000	 2.8990346648e-001	 3.0601386800e+000
 1.2574050380e+000	 3.0276906487e-001	 3.0138374607e+000
 1.2542359591e+000	 3.1564004480e-001	 2.9662341720e+000
 1.2509255804e+000	 3.2851425815e-001	 2.9171189773e+000
 1.2474732729e+000	 3.4138953122e-001	 2.8662849373e+000
 1.2438784492e+000	 3.5426366561e-001	 2.8135273010e+000
 1.2401405644e+000	 3.6713443915e-001	 2.7586428091e+000
 1.2362591171e+000	 3.7999960685e-001	 2.7014290180e+000
 1.2948381601e+000	 2.5654221113e-001	 3.1766073252e+000
 1.2921733617e+000	 2.6964369517e-001	 3.1279786622e+000
 1.2893673238e+000	 2.8275708392e-001	 3.0786490259e+000
 1.2864192442e+000	 2.9588026828e-001	 3.0283930601e+000
 1.2833283593e+000	 3.0901111059e-001	 2.9769909557e+000
 1.2800939450e+000	 3.2214744540e-001	 2.9242276251e+000
 1.2767153178e+000	 3.3528708028e-001	 2.8698918623e+000
 1.2731918357e+000	 3.4842779672e-001	 2.8137754979e+000
 1.2695228992e+000	 3.6156735101e-001	 2.7556725579e+000
 1.2657079522e+000	 3.7470347516e-001	 2.6953784354e+000
 1.2617464830e+000	 3.8783387790e-001	 2.6326890861e+000
 1.3209939278e+000	 2.6172437110e-001	 3.1864841472e+000
 1.3182753004e+000	 2.7509050550e-001	 3.1326042077e+000
 1.3154125805e+000	 2.8846878507e-001	 3.0778758814e+000
 1.3124049496e+000	 3.0185705814e-001	 3.0220833758e+000
 1.3092516287e+000	 3.1525314384e-001	 2.9650172267e+000
 1.3059518792e+000	 3.2865483298e-001	 2.9064733126e+000
 1.3025050036e+000	 3.4205988886e-001	 2.8462518534e+000
 1.2989103471e+000	 3.5546604815e-001	 2.7841564015e+000
 1.2951672980e+000	 3.6887102181e-001	 2.7199928362e+000
 1.2912752890e+000	 3.8227249605e-001	 2.6535683729e+000
 1.2872337979e+000	 3.9566813330e-001	 2.5846905966e+000
 1.3471496498e+000	 2.6690652201e-001	 3.2145608675e+000
 1.3443771935e+000	 2.8053730629e-001	 3.1566744560e+000
 1.3414577916e+000	 2.9418047623e-001	 3.0974460749e+000
 1.3383906095e+000	 3.0783383753e-001	 3.0366137456e+000
 1.3351748528e+000	 3.2149516616e-001	 2.9739297697e+000
 1.3318097681e+000	 3.3516220917e-001	 2.9092061209e+000
 1.3282946443e+000	 3.4883268559e-001	 2.8425867768e+000
 1.3246288135e+000	 3.6250428726e-001	 2.7739717941e+000
 1.3208116519e+000	 3.7617467983e-001	 2.7031919556e+000
 1.3168425809e+000	 3.8984150368e-001	 2.6300794258e+000
 1.3127210682e+000	 4.0350237498e-001	 2.5544665891e+000
 1.3733053326e+000	 2.7208866515e-001	 3.2360220394e+000
 1.3704790474e+000	 2.8598409892e-001	 3.1756076041e+000
 1.3675029637e+000	 2.9989215883e-001	 3.1137958170e+000
 1.3643762305e+000	 3.1381060796e-001	 3.0503082471e+000
 1.3610980380e+000	 3.2773717911e-001	 2.9848810221e+000
 1.3576676183e+000	 3.4166957560e-001	 2.9172657421e+000
 1.3540842463e+000	 3.5560547216e-001	 2.8472303173e+000
 1.3503472413e+000	 3.6954251581e-001	 2.7745597127e+000
 1.3464559673e+000	 3.8347832689e-001	 2.6990565827e+000
 1.3424098346e+000	 3.9741049996e-001	 2.6205417753e+000
 1.3382083003e+000	 4.1133660491e-001	 2.5388546911e+000
 1.3994609826e+000	 2.7727080181e-001	 3.2453397356e+000
 1.3965808687e+000	 2.9143088474e-001	 3.1824877093e+000
 1.3935481032e+000	 3.0560383428e-001	 3.1182252947e+000
 1.3903618190e+000	 3.1978737092e-001	 3.0522583357e+000
 1.3870211908e+000	 3.3397918427e-001	 2.9843077145e+000
 1.3835254361e+000	 3.4817693390e-001	 2.9141105644e+000
 1.3798738161e+000	 3.6237825026e-001	 2.8414214010e+000
 1.3760656369e+000	 3.7658073557e-001	 2.7660131485e+000
 1.3721002507e+000	 3.9078196482e-001	 2.6876780418e+000
 1.3679770563e+000	 4.0497948679e-001	 2.6062283832e+000
 1.3636955006e+000	 4.1917082505e-001	 2.5214971318e+000
 1.4256166065e+000	 2.8245293328e-001	 3.2404692646e+000
 1.4226826639e+000	 2.9687766511e-001	 3.1754651138e+000
 1.4195932166e+000	 3.1131550402e-001	 3.1090901613e+000
 1.4163473815e+000	 3.2576412790e-001	 3.0410341112e+000
 1.4129443177e+000	 3.4022118318e-001	 2.9710023987e+000
 1.4093832281e+000	 3.5468428569e-001	 2.8987177463e+000
 1.4056633601e+000	 3.6915102159e-001	 2.8239216270e+000
 1.4017840069e+000	 3.8361894829e-001	 2.7463756129e+000
 1.3977445084e+000	 3.9808559545e-001	 2.6658625825e+000
 1.3935442524e+000	 4.1254846604e-001	 2.5821877627e+000
 1.3891826753e+000	 4.2700503735e-001	 2.4951795835e+000
 1.4517722108e+000	 2.8763506087e-001	 3.2196299999e+000
 1.4487844395e+000	 3.0232444140e-001	 3.1529504233e+000
 1.4456383106e+000	 3.1702716948e-001	 3.0850019077e+000
 1.4423329245e+000	 3.3174088040e-001	 3.0154564272e+000
 1.4388674251e+000	 3.4646317741e-001	 2.9440026104e+000
 1.4352410007e+000	 3.6119163260e-001	 2.8703476868e+000
 1.4314528847e+000	 3.7592378784e-001	 2.7942193296e+000
 1.4275023575e+000	 3.9065715573e-001	 2.7153673690e+000
 1.4233887469e+000	 4.0538922061e-001	 2.6335653473e+000
 1.4191114293e+000	 4.2011743962e-001	 2.5486118866e+000
 1.4146698310e+000	 4.3483924378e-001	 2.4603318433e+000
 1.4779278020e+000	 2.9281718587e-001	 3.1812841966e+000
 1.4748862021e+000	 3.0777121496e-001	 3.1135936583e+000
 1.4716833915e+000	 3.2273883208e-001	 3.0448073406e+000
 1.4683184545e+000	 3.3771762992e-001	 2.9745766849e+000
 1.4647905196e+000	 3.5270516852e-001	 2.9025709615e+000
 1.4610987603e+000	 3.6769897626e-001	 2.8284796580e+000
 1.4572423965e+000	 3.8269655071e-001	 2.7520147531e+000
 1.4532206953e+000	 3.9769535965e-001	 2.6729128445e+000
 1.4490329726e+000	 4.1269284211e-001	 2.5909370975e+000
 1.4446785935e+000	 4.2768640941e-001	 2.5058789842e+000
 1.4401569739e+000	 4.4267344629e-001	 2.4175597782e+000
 1.5040833867e+000	 2.9799930958e-001	 3.1241178492e+000
 1.5009879582e+000	 3.1321798717e-001	 3.0562653800e+000
 1.4977284659e+000	 3.2845049326e-001	 2.9875699645e+000
 1.4943039780e+000	 3.4369437793e-001	 2.9176584570e+000
 1.4907136076e+000	 3.5894715807e-001	 2.8461769887e+000
 1.4869565135e+000	 3.7420631829e-001	 2.7727938563e+000
 1.4830319018e+000	 3.8946931188e-001	 2.6972022831e+000
 1.4789390267e+000	 4.0473356181e-001	 2.6191230159e+000
 1.4746771918e+000	 4.1999646178e-001	 2.5383067210e+000
 1.4702457512e+000	 4.3525537731e-001	 2.4545361419e+000
 1.4656441104e+000	 4.5050764685e-001	 2.3676279819e+000
 1.2107716938e+000	 3.7216531816e-001	 2.7941105293e+000
 1.2068292178e+000	 3.8475753968e-001	 2.7394543614e+000
 1.2027452861e+000	 3.9733980923e-001	 2.6831865262e+000
 1.1985195382e+000	 4.0990986582e-001	 2.6253920972e+000
 1.1941516598e+000	 4.2246543011e-001	 2.5661565347e+000
 1.1896413827e+000	 4.3500420550e-001	 2.5055648047e+000
 1.1849884863e+000	 4.4752387933e-001	 2.4437005504e+000
 1.1801927979e+000	 4.6002212396e-001	 2.3806453232e+000
 1.1752541932e+000	 4.7249659800e-001	 2.3164778838e+000
 1.1701725973e+000	 4.8494494752e-001	 2.2512735780e+000
 1.1649479851e+000	 4.9736480731e-001	 2.1851037976e+000
 1.2362591171e+000	 3.7999960685e-001	 2.7014290180e+000
 1.2322336498e+000	 3.9285690169e-001	 2.6421058737e+000
 1.2280637489e+000	 4.0570403507e-001	 2.5811024792e+000
 1.2237490467e+000	 4.1853869841e-001	 2.5185312654e+000
 1.2192892220e+000	 4.3135856436e-001	 2.4545050283e+000
 1.2146840010e+000	 4.4416128801e-001	 2.3891358981e+000
 1.2099331586e+000	 4.5694450800e-001	 2.3225343661e+000
 1.2050365182e+000	 4.6970584769e-001	 2.2548083794e+000
 1.1999939531e+000	 4.8244291640e-001	 2.1860625126e+000
 1.1948053868e+000	 4.9515331066e-001	 2.1163972250e+000
 1.1894707936e+000	 5.0783461546e-001	 2.0459082122e+000
 1.2617464830e+000	 3.8783387790e-001	 2.6326890861e+000
 1.2576380245e+000	 4.0095624548e-001	 2.5678285697e+000
 1.2533821548e+000	 4.1406824210e-001	 2.5012523530e+000
 1.2489784985e+000	 4.2716751158e-001	 2.4331042255e+000
 1.2444267276e+000	 4.4025167860e-001	 2.3635280015e+000
 1.2397265631e+000	 4.5331834992e-001	 2.2926663173e+000
 1.2348777747e+000	 4.6636511547e-001	 2.2206594938e+000
 1.2298801827e+000	 4.7938954962e-001	 2.1476444754e+000
 1.2247336574e+000	 4.9238921242e-001	 2.0737538554e+000
 1.2194381209e+000	 5.0536165083e-001	 1.9991149978e+000
 1.2139935469e+000	 5.1830440006e-001	 1.9238492652e+000
 1.2872337979e+000	 3.9566813330e-001	 2.5846905966e+000
 1.2830423485e+000	 4.0905557307e-001	 2.5136002407e+000
 1.2787005101e+000	 4.2243243239e-001	 2.4407859158e+000
 1.2742078998e+000	 4.3579630749e-001	 2.3664271236e+000
 1.2695641830e+000	 4.4914477506e-001	 2.2907027207e+000
 1.2647690750e+000	 4.6247539351e-001	 2.2137895209e+000
 1.2598223410e+000	 4.7578570410e-001	 2.1358609719e+000
 1.2547237974e+000	 4.8907323219e-001	 2.0570859183e+000
 1.2494733122e+000	 5.0233548855e-001	 1.9776274611e+000
 1.2440708057e+000	 5.1556997059e-001	 1.8976419275e+000
 1.2385162512e+000	 5.2877416372e-001	 1.8172779587e+000
 1.3127210682e+000	 4.0350237498e-001	 2.5544665891e+000
 1.3084466280e+000	 4.1715488648e-001	 2.4766190542e+000
 1.3040188211e+000	 4.3079660805e-001	 2.3970612967e+000
 1.2994372569e+000	 4.4442508830e-001	 2.3160132500e+000
 1.2947015944e+000	 4.5803785596e-001	 2.2336931905e+000
 1.2898115431e+000	 4.7163242108e-001	 2.1503161205e+000
 1.2847668636e+000	 4.8520627624e-001	 2.0660922367e+000
 1.2795673687e+000	 4.9875689782e-001	 1.9812254938e+000
 1.2742129237e+000	 5.1228174727e-001	 1.8959122796e+000
 1.2687034474e+000	 5.2577827248e-001	 1.8103402122e+000
 1.2630389125e+000	 5.3924390905e-001	 1.7246870732e+000
 1.3382083003e+000	 4.1133660491e-001	 2.5388546911e+000
 1.3338508694e+000	 4.2525418775e-001	 2.4542790922e+000
 1.3293370941e+000	 4.3916077117e-001	 2.3676266444e+000
 1.3246665762e+000	 4.5305385617e-001	 2.2795558562e+000
 1.3198389681e+000	 4.6693092352e-001	 2.1903340812e+000
 1.3148539736e+000	 4.8078943491e-001	 2.1002188727e+000
 1.3097113488e+000	 4.9462683425e-001	 2.0094611315e+000
 1.3044109027e+000	 5.0844054892e-001	 1.9183034482e+000
 1.2989524981e+000	 5.2222799108e-001	 1.8269785711e+000
 1.2933360522e+000	 5.3598655906e-001	 1.7357080116e+000
 1.2875615371e+000	 5.4971363869e-001	 1.6447008031e+000
 1.3636955006e+000	 4.1917082505e-001	 2.5214971318e+000
 1.3592550790e+000	 4.3335347890e-001	 2.4337428216e+000
 1.3546553354e+000	 4.4752492382e-001	 2.3435139118e+000
 1.3498958639e+000	 4.6168261326e-001	 2.2511113846e+000
 1.3449763104e+000	 4.7582397996e-001	 2.1568584753e+000
 1.3398963729e+000	 4.8994643730e-001	 2.0610992925e+000
 1.3346558028e+000	 5.0404738049e-001	 1.9641971495e+000
 1.3292544057e+000	 5.1812418791e-001	 1.8666957681e+000
 1.3236920416e+000	 5.3217422245e-001	 1.7693270167e+000
 1.3179686261e+000	 5.4619483288e-001	 1.6723693490e+000
 1.3120841310e+000	 5.6018335524e-001	 1.5760654155e+000
 1.3891826753e+000	 4.2700503735e-001	 2.4951795835e+000
 1.3846592633e+000	 4.4145276194e-001	 2.4050577561e+000
 1.3799735514e+000	 4.5588906812e-001	 2.3123317434e+000
 1.3751251265e+000	 4.7031136171e-001	 2.2173015978e+000
 1.3701136275e+000	 4.8471702751e-001	 2.1202921157e+000
 1.3649387471e+000	 4.9910343053e-001	 2.0216515325e+000
 1.3596002319e+000	 5.1346791731e-001	 1.9217498884e+000
 1.3540978838e+000	 5.2780781723e-001	 1.8209770551e+000
 1.3484315603e+000	 5.4212044388e-001	 1.7197404118e+000
 1.3426011755e+000	 5.5640309649e-001	 1.6184621644e+000
 1.3366067004e+000	 5.7065306131e-001	 1.5175763032e+000
 1.4146698310e+000	 4.3483924378e-001	 2.4603318433e+000
 1.4100634284e+000	 4.4955203891e-001	 2.3688884608e+000
 1.4052917485e+000	 4.6425320614e-001	 2.2747307087e+000
 1.4003543701e+000	 4.7894010370e-001	 2.1781535433e+000
 1.3952509258e+000	 4.9361006839e-001	 2.0794795389e+000
 1.3899811025e+000	 5.0826041690e-001	 1.9790576811e+000
 1.3845446423e+000	 5.2288844706e-001	 1.8772617875e+000
 1.3789413433e+000	 5.3749143928e-001	 1.7744885416e+000
 1.3731710605e+000	 5.5206665785e-001	 1.6711551280e+000
 1.3672337064e+000	 5.6661135245e-001	 1.5676964602e+000
 1.3611292514e+000	 5.8112275954e-001	 1.4645619930e+000
 1.4401569739e+000	 4.4267344629e-001	 2.4175597782e+000
 1.4354675809e+000	 4.5765131184e-001	 2.3260647758e+000
 1.4306099329e+000	 4.7261733998e-001	 2.2317573993e+000
 1.4255836011e+000	 4.8756884137e-001	 2.1349228840e+000
 1.4203882115e+000	 5.0250310483e-001	 2.0358774135e+000
 1.4150234454e+000	 5.1741739869e-001	 1.9349670373e+000
 1.4094890402e+000	 5.3230897211e-001	 1.8325661686e+000
 1.4037847904e+000	 5.4717505649e-001	 1.7290756431e+000
 1.3979105484e+000	 5.6201286685e-001	 1.6249203246e+000
 1.3918662249e+000	 5.7681960330e-001	 1.5205462460e+000
 1.3856517902e+000	 5.9159245253e-001	 1.4164172786e+000
 1.4656441104e+000	 4.5050764685e-001	 2.3676279819e+000
 1.4608717271e+000	 4.6575058273e-001	 2.2775644735e+000
 1.4559281109e+000	 4.8098147173e-001	 2.1845950652e+000
 1.4508128258e+000	 4.9619757688e-001	 2.0889901681e+000
 1.4455254909e+000	 5.1139613904e-001	 1.9910550042e+000
 1.4400657820e+000	 5.2657437818e-001	 1.8911286804e+000
 1.4344334318e+000	 5.4172949480e-001	 1.7895827864e+000
 1.4286282313e+000	 5.5685867128e-001	 1.6868194981e+000
 1.4226500300e+000	 5.7195907336e-001	 1.5832691661e+000
 1.4164987373e+000	 5.8702785160e-001	 1.4793873783e+000
 1.4101743228e+000	 6.0206214291e-001	 1.3756514847e+000
 1.1649479851e+000	 4.9736480731e-001	 2.1851037976e+000
 1.1595811979e+000	 5.0975194641e-001	 2.1172880128e+000
 1.1540715394e+000	 5.2210584754e-001	 2.0471962871e+000
 1.1484191381e+000	 5.3442412108e-001	 1.9749990120e+000
 1.1426241741e+000	 5.4670437139e-001	 1.9008613718e+000
 1.1366868794e+000	 5.5894419814e-001	 1.8249429701e+000
 1.1306075389e+000	 5.7114119775e-001	 1.7473975685e+000
 1.1243864900e+000	 5.8329296476e-001	 1.6683729428e+000
 1.1180241233e+000	 5.9539709325e-001	 1.5880108575e+000
 1.1115208828e+000	 6.0745117825e-001	 1.5064471643e+000
 1.1048772657e+000	 6.1945281727e-001	 1.4238120229e+000
 1.1894707936e+000	 5.0783461546e-001	 2.0459082122e+000
 1.1839910325e+000	 5.2048251078e-001	 1.9739001886e+000
 1.1783653926e+000	 5.3309646847e-001	 1.8996803195e+000
 1.1725940051e+000	 5.4567404858e-001	 1.8233713339e+000
 1.1666770538e+000	 5.5821280504e-001	 1.7450894705e+000
 1.1606147757e+000	 5.7071028701e-001	 1.6649441708e+000
 1.1544074617e+000	 5.8316404031e-001	 1.5830379017e+000
 1.1480554562e+000	 5.9557160883e-001	 1.4994661121e+000
 1.1415591582e+000	 6.0793053600e-001	 1.4143173268e+000
 1.1349190208e+000	 6.2023836626e-001	 1.3276733796e+000
 1.1281355518e+000	 6.3249264651e-001	 1.2396097883e+000
 1.2139935469e+000	 5.1830440006e-001	 1.9238492652e+000
 1.2084008122e+000	 5.3121305102e-001	 1.8472525050e+000
 1.2026591912e+000	 5.4408706467e-001	 1.7685873814e+000
 1.1967688177e+000	 5.5692395076e-001	 1.6879485447e+000
 1.1907298794e+000	 5.6972121280e-001	 1.6054222973e+000
 1.1845426183e+000	 5.8247634941e-001	 1.5210863149e+000
 1.1782073310e+000	 5.9518685581e-001	 1.4350095157e+000
 1.1717243693e+000	 6.0785022527e-001	 1.3472520831e+000
 1.1650941401e+000	 6.2046395056e-001	 1.2578656446e+000
 1.1583171062e+000	 6.3302552550e-001	 1.1668936107e+000
 1.1513937857e+000	 6.4553244642e-001	 1.0743716748e+000
 1.2385162512e+000	 5.2877416372e-001	 1.8172779587e+000
 1.2328105430e+000	 5.4194356980e-001	 1.7358240994e+000
 1.2269529411e+000	 5.5507763888e-001	 1.6525118144e+000
 1.2209435820e+000	 5.6817383045e-001	 1.5674262609e+000
 1.2147826569e+000	 5.8122959754e-001	 1.4806417962e+000
 1.2084704129e+000	 5.9424238828e-001	 1.3922216890e+000
 1.2020071527e+000	 6.0720964727e-001	 1.3022179990e+000
 1.1953932349e+000	 6.2012881715e-001	 1.2106716312e+000
 1.1886290750e+000	 6.3299734006e-001	 1.1176125690e+000
 1.1817151448e+000	 6.4581265917e-001	 1.0230602890e+000
 1.1746519730e+000	 6.5857222024e-001	 9.2702435851e-001
 1.2630389125e+000	 5.3924390905e-001	 1.7246870732e+000
 1.2572202312e+000	 5.5267406980e-001	 1.6382316952e+000
 1.2512466486e+000	 5.6606819387e-001	 1.5501829598e+000
 1.2451183039e+000	 5.7942369044e-001	 1.4606342047e+000
 1.2388353924e+000	 5.9273796215e-001	 1.3696648994e+000
 1.2323981657e+000	 6.0600840655e-001	 1.2773403085e+000
 1.2258069327e+000	 6.1923241769e-001	 1.1837113464e+000
 1.2190620592e+000	 6.3240738755e-001	 1.0888146301e+000
 1.2121639687e+000	 6.4553070762e-001	 9.9267273600e-001
 1.2051131424e+000	 6.5859977046e-001	 8.9529466124e-001
 1.1979101196e+000	 6.7161197125e-001	 7.9675909330e-001
 1.2875615371e+000	 5.4971363869e-001	 1.6447008031e+000
 1.2816298827e+000	 5.6340455370e-001	 1.5532200038e+000
 1.2755403196e+000	 5.7705873237e-001	 1.4604562123e+000
 1.2692929896e+000	 5.9067353357e-001	 1.3665277876e+000
 1.2628880917e+000	 6.0424630949e-001	 1.2715355109e+000
 1.2563258826e+000	 6.1777440718e-001	 1.1755621638e+000
 1.2496066770e+000	 6.3125517008e-001	 1.0786723230e+000
 1.2427308479e+000	 6.4468593953e-001	 9.8091237985e-001
 1.2356988270e+000	 6.5806405638e-001	 8.8231078971e-001
 1.2285111049e+000	 6.7138686257e-001	 7.8294434795e-001
 1.2211682313e+000	 6.8465170270e-001	 6.8346798506e-001
 1.3120841310e+000	 5.6018335524e-001	 1.5760654155e+000
 1.3060395037e+000	 5.7413502419e-001	 1.4796530726e+000
 1.2998339602e+000	 5.8804925714e-001	 1.3823049582e+000
 1.2934676450e+000	 6.0192336263e-001	 1.2841805316e+000
 1.2869407610e+000	 6.1575464245e-001	 1.1854172971e+000
 1.2802535696e+000	 6.2954039311e-001	 1.0861302591e+000
 1.2734063916e+000	 6.4327790744e-001	 9.8641162322e-001
 1.2663996071e+000	 6.5696447616e-001	 8.8633075061e-001
 1.2592336560e+000	 6.7059738948e-001	 7.8597399327e-001
 1.2519090382e+000	 6.8417393870e-001	 6.8592586601e-001
 1.2444263139e+000	 6.9769141785e-001	 5.8606197414e-001
 1.3366067004e+000	 5.7065306131e-001	 1.5175763032e+000
 1.3304491003e+000	 5.8486548396e-001	 1.4165064591e+000
 1.3241275766e+000	 5.9903977091e-001	 1.3148132852e+000
 1.3176422763e+000	 6.1317318045e-001	 1.2127772216e+000
 1.3109934062e+000	 6.2726296390e-001	 1.1105871807e+000
 1.3041812327e+000	 6.4130636726e-001	 1.0084043417e+000
 1.2972060824e+000	 6.5530063278e-001	 9.0636172294e-001
 1.2900683426e+000	 6.6924300052e-001	 8.0457876281e-001
 1.2827684614e+000	 6.8313071005e-001	 7.0358258907e-001
 1.2753069481e+000	 6.9696100204e-001	 6.0327949404e-001
 1.2676843733e+000	 7.1073111996e-001	 5.0325819312e-001
 1.3611292514e+000	 5.8112275954e-001	 1.4645619930e+000
 1.3548586787e+000	 5.9559593567e-001	 1.3610661317e+000
 1.3484211747e+000	 6.1003027645e-001	 1.2565338192e+000
 1.3418168895e+000	 6.2442298983e-001	 1.1514835947e+000
 1.3350460334e+000	 6.3877127672e-001	 1.0464274388e+000
 1.3281088778e+000	 6.5307233260e-001	 9.4185523442e-001
 1.3210057554e+000	 6.6732334910e-001	 8.3807212348e-001
 1.3137370603e+000	 6.8152151567e-001	 7.3555980644e-001
 1.3063032492e+000	 6.9566402121e-001	 6.3430815649e-001
 1.2987048405e+000	 7.0974805580e-001	 5.3387392712e-001
 1.2909424153e+000	 7.2377081230e-001	 4.3385300231e-001
 1.3856517902e+000	 5.9159245253e-001	 1.4164172786e+000
 1.3792682448e+000	 6.0632638202e-001	 1.3117566483e+000
 1.3727147607e+000	 6.2102077649e-001	 1.2058404036e+000
 1.3659914906e+000	 6.3567279358e-001	 1.0992689291e+000
 1.3590986486e+000	 6.5027958379e-001	 9.9263720738e-001
 1.3520365110e+000	 6.6483829205e-001	 8.8652868056e-001
 1.3448054164e+000	 6.7934605941e-001	 7.8170868402e-001
 1.3374057663e+000	 6.9380002467e-001	 6.7863663933e-001
 1.3298380252e+000	 7.0819732611e-001	 5.7714122250e-001
 1.3221027211e+000	 7.2253510315e-001	 4.7665133369e-001
 1.3142004456e+000	 7.3681049811e-001	 3.7672271871e-001
 1.4101743228e+000	 6.0206214291e-001	 1.3756514847e+000
 1.4036778048e+000	 6.1705682569e-001	 1.2711698730e+000
 1.3970083406e+000	 6.3201127378e-001	 1.1651552579e+000
 1.3901660856e+000	 6.4692259452e-001	 1.0583029920e+000
 1.3831512578e+000	 6.6178788798e-001	 9.5130465091e-001
 1.3759641382e+000	 6.7660424856e-001	 8.4494780285e-001
 1.3686050715e+000	 6.9136876671e-001	 7.3986608672e-001
 1.3610744663e+000	 7.0607853061e-001	 6.3597813916e-001
 1.3533727953e+000	 7.2073062788e-001	 5.3320718310e-001
 1.3455005959e+000	 7.3532214732e-001	 4.3152317886e-001
 1.3374584701e+000	 7.4985018066e-001	 3.3094351944e-001
 1.1048772657e+000	 6.1945281727e-001	 1.4238120229e+000
 1.0980927950e+000	 6.3140139974e-001	 1.3406722427e+000
 1.0911690624e+000	 6.4329272745e-001	 1.2574371929e+000
 1.0841067275e+000	 6.5512441360e-001	 1.1739568503e+000
 1.0769065033e+000	 6.6689407973e-001	 1.0900791334e+000
 1.0695691567e+000	 6.7859935721e-001	 1.0063823239e+000
 1.0620955081e+000	 6.9023788874e-001	 9.2331421836e-001
 1.0544864310e+000	 7.0180732985e-001	 8.4062030770e-001
 1.0467428524e+000	 7.1330535038e-001	 7.5807589184e-001
 1.0388657520e+000	 7.2472963597e-001	 6.7548708808e-001
 1.0308561619e+000	 7.3607788956e-001	 5.9269175229e-001
 1.1281355518e+000	 6.3249264651e-001	 1.2396097883e+000
 1.1212082642e+000	 6.4469275334e-001	 1.1506990440e+000
 1.1141387832e+000	 6.5683440017e-001	 1.0614890384e+000
 1.1069277821e+000	 6.6891514995e-001	 9.7199432222e-001
 1.0995759892e+000	 6.8093257415e-001	 8.8307572477e-001
 1.0920841874e+000	 6.9288425429e-001	 7.9504904138e-001
 1.0844532142e+000	 7.0476778344e-001	 7.0777221177e-001
 1.0766839618e+000	 7.1658076777e-001	 6.2113405215e-001
 1.0687773766e+000	 7.2832082808e-001	 5.3505514474e-001
 1.0607344587e+000	 7.3998560129e-001	 4.4948863461e-001
 1.0525562623e+000	 7.5157274199e-001	 3.6442092967e-001
 1.1513937857e+000	 6.4553244642e-001	 1.0743716748e+000
 1.1443236814e+000	 6.5798407704e-001	 9.8084787395e-001
 1.1371084523e+000	 6.7037604242e-001	 8.8701385659e-001
 1.1297487855e+000	 6.8270585527e-001	 7.9386692906e-001
 1.1222454241e+000	 6.9497103699e-001	 7.0166932487e-001
 1.1145991674e+000	 7.0716911923e-001	 6.1036760366e-001
 1.1068108701e+000	 7.1929764545e-001	 5.1994046572e-001
 1.0988814427e+000	 7.3135417246e-001	 4.3039956862e-001
 1.0908118511e+000	 7.4333627200e-001	 3.4179024625e-001
 1.0826031163e+000	 7.5524153229e-001	 2.5419212565e-001
 1.0742563139e+000	 7.6706755955e-001	 1.6771963761e-001
 1.1746519730e+000	 6.5857222024e-001	 9.2702435851e-001
 1.1674390524e+000	 6.7127537416e-001	 8.3008663072e-001
 1.1600780755e+000	 6.8391765760e-001	 7.3375441272e-001
 1.1525697432e+000	 6.9649653302e-001	 6.3828037896e-001
 1.1449148137e+000	 7.0900947176e-001	 5.4367684492e-001
 1.1371141023e+000	 7.2145395561e-001	 4.4998962681e-001
 1.1291684812e+000	 7.3382747840e-001	 3.5729883041e-001
 1.1210788792e+000	 7.4612754760e-001	 2.6571953801e-001
 1.1128462816e+000	 7.5835168590e-001	 1.7540238817e-001
 1.1044717301e+000	 7.7049743278e-001	 8.6534043825e-002
 1.0959563221e+000	 7.8256234613e-001	-6.6245548637e-004
 1.1979101196e+000	 6.7161197125e-001	 7.9675909330e-001
 1.1905543830e+000	 6.8456664802e-001	 6.9825680414e-001
 1.1830476584e+000	 6.9745924908e-001	 6.0042649822e-001
 1.1753906609e+000	 7.1028718663e-001	 5.0332440267e-001
 1.1675841636e+000	 7.2304788196e-001	 4.0704160338e-001
 1.1596289979e+000	 7.3573876698e-001	 3.1170484990e-001
 1.1515260532e+000	 7.4835728592e-001	 2.1747725474e-001
 1.1432762768e+000	 7.6090089688e-001	 1.2455888126e-001
 1.1348806736e+000	 7.7336707351e-001	 3.3187215106e-002
 1.1263403057e+000	 7.8575330657e-001	-5.6362485637e-002
 1.1176562923e+000	 7.9805710559e-001	-1.4377696600e-001
 1.2211682313e+000	 6.8465170270e-001	 6.8346798506e-001
 1.2136696789e+000	 6.9785790195e-001	 5.8415312827e-001
 1.2060172070e+000	 7.1100082024e-001	 4.8535829950e-001
 1.1982115444e+000	 7.2407781956e-001	 3.8719899207e-001
 1.1902534795e+000	 7.3708627110e-001	 2.8982768192e-001
 1.1821438597e+000	 7.5002355694e-001	 1.9343458226e-001
 1.1738835917e+000	 7.6288707165e-001	 9.8248283677e-002
 1.1654736412e+000	 7.7567422401e-001	 4.5362737345e-003
 1.1569150325e+000	 7.8838243861e-001	-8.7394669376e-002
 1.1482088484e+000	 8.0100915748e-001	-1.7719821425e-001
 1.1393562299e+000	 8.1355184181e-001	-2.6448834927e-001
 1.2444263139e+000	 6.9769141785e-001	 5.8606197414e-001
 1.2367849459e+000	 7.1114913926e-001	 4.8631180227e-001
 1.2289867268e+000	 7.2454237448e-001	 3.8697537373e-001
 1.2210323994e+000	 7.3786843525e-001	 2.8821092879e-001
 1.2129227671e+000	 7.5112464270e-001	 1.9021571108e-001
 1.2046586934e+000	 7.6430832903e-001	 9.3226702234e-002
 1.1962411022e+000	 7.7741683922e-001	-2.4787667029e-003
 1.1876709778e+000	 7.9044753268e-001	-9.6582533470e-002
 1.1789493638e+000	 8.0339778493e-001	-1.8872525834e-001
 1.1700773638e+000	 8.1626498933e-001	-2.7850621880e-001
 1.1610561405e+000	 8.2904655867e-001	-3.6548325012e-001
 1.2676843733e+000	 7.1073111996e-001	 5.0325819312e-001
 1.2599001897e+000	 7.2444036328e-001	 4.0335620819e-001
 1.2519562236e+000	 7.3808391518e-001	 3.0379891705e-001
 1.2438532316e+000	 7.5165903715e-001	 2.0477145685e-001
 1.2355920320e+000	 7.6516300026e-001	 1.0649990182e-001
 1.2271735045e+000	 7.7859308685e-001	 9.2520083013e-003
 1.2185985904e+000	 7.9194659226e-001	-8.6662171987e-002
 1.2098682922e+000	 8.0522082657e-001	-1.8088981754e-001
 1.2009836731e+000	 8.1841311625e-001	-2.7303500782e-001
 1.1919458574e+000	 8.3152080591e-001	-3.6265854509e-001
 1.1827560293e+000	 8.4454126003e-001	-4.4927793266e-001
 1.2909424153e+000	 7.2377081230e-001	 4.3385300231e-001
 1.2830154163e+000	 7.3773157734e-001	 3.3399655896e-001
 1.2749257032e+000	 7.5162544573e-001	 2.3444494782e-001
 1.2666740467e+000	 7.6544962871e-001	 1.3539495494e-001
 1.2582612799e+000	 7.7920134729e-001	 3.7086165913e-002
 1.2496882988e+000	 7.9287783395e-001	-6.0198248041e-002
 1.2409560618e+000	 8.0647633441e-001	-1.5613088441e-001
 1.2320655899e+000	 8.1999410938e-001	-2.5033961173e-001
 1.2230179659e+000	 8.3342843630e-001	-3.4240722696e-001
 1.2138143345e+000	 8.4677661106e-001	-4.3187127435e-001
 1.2044559019e+000	 8.6003594977e-001	-5.1822403159e-001
 1.3142004456e+000	 7.3681049811e-001	 3.7672271871e-001
 1.3061306312e+000	 7.5102278475e-001	 2.7703027835e-001
 1.2978951713e+000	 7.6516696950e-001	 1.7762429148e-001
 1.2894948503e+000	 7.7924021338e-001	 7.8698484569e-002
 1.2809305164e+000	 7.9323968730e-001	-1.9508809604e-002
 1.2722030818e+000	 8.0716257390e-001	-1.1671379398e-001
 1.2633135221e+000	 8.2100606929e-001	-2.1258649828e-001
 1.2542628766e+000	 8.3476738481e-001	-3.0675022736e-001
 1.2450522477e+000	 8.4844374884e-001	-3.9878117467e-001
 1.2356828007e+000	 8.6203240858e-001	-4.8820820782e-001
 1.2261557636e+000	 8.7553063176e-001	-5.7451283299e-001
 1.3374584701e+000	 7.4985018066e-001	 3.3094351944e-001
 1.3292458404e+000	 7.6431398883e-001	 2.3134302393e-001
 1.3208646337e+000	 7.7870848989e-001	 1.3214326960e-001
 1.3123156482e+000	 7.9303079459e-001	 3.3402107528e-002
 1.3035997473e+000	 8.0727802380e-001	-6.4657650155e-002
 1.2947178591e+000	 8.2144731029e-001	-1.6176585767e-001
 1.2856709767e+000	 8.3553580053e-001	-2.5760423214e-001
 1.2764601577e+000	 8.4954065654e-001	-3.5180571694e-001
 1.2670865240e+000	 8.6345905763e-001	-4.4395402037e-001
 1.2575512615e+000	 8.7728820228e-001	-5.3358333766e-001
 1.2478556198e+000	 8.9102530988e-001	-6.2017826345e-001
 1.0308561619e+000	 7.3607788956e-001	 5.9269175229e-001
 1.0227151665e+000	 7.4734783261e-001	 5.0951526495e-001
 1.0144439005e+000	 7.5853720581e-001	 4.2608457092e-001
 1.0060435498e+000	 7.6964377126e-001	 3.4272986357e-001
 9.9751535112e-001	 7.8066531416e-001	 2.5980208659e-001
 9.8886059143e-001	 7.9159964427e-001	 1.7767266945e-001
 9.8008060741e-001	 8.0244459730e-001	 9.6733179050e-002
 9.7117678475e-001	 8.1319803631e-001	 1.7394887576e-002
 9.6215055747e-001	 8.2385785312e-001	-5.9911743086e-002
 9.5300340716e-001	 8.3442196966e-001	-1.3473765948e-001
 9.4373686216e-001	 8.4488833928e-001	-2.0661589607e-001
 1.0525562623e+000	 7.5157274199e-001	 3.6442092967e-001
 1.0442438944e+000	 7.6307992366e-001	 2.7948993514e-001
 1.0357985136e+000	 7.7450483944e-001	 1.9457149914e-001
 1.0272213308e+000	 7.8584520432e-001	 1.1004918181e-001
 1.0185136087e+000	 7.9709875688e-001	 2.6326196883e-002
 1.0096766615e+000	 8.0826326077e-001	-5.6174962164e-002
 1.0007118539e+000	 8.1933650614e-001	-1.3701298334e-001
 9.9162060078e-001	 8.3031631108e-001	-2.1572828475e-001
 9.8240436636e-001	 8.4120052302e-001	-2.9184364991e-001
 9.7306466339e-001	 8.5198702013e-001	-3.6486494877e-001
 9.6360305242e-001	 8.6267371270e-001	-4.3428194295e-001
 1.0742563139e+000	 7.6706755955e-001	 1.6771963761e-001
 1.0657725738e+000	 7.7881197931e-001	 8.1779406006e-002
 1.0571530786e+000	 7.9047243714e-001	-4.0401088359e-003
 1.0483990641e+000	 8.0204660093e-001	-8.9310443649e-002
 1.0395118191e+000	 8.1353216263e-001	-1.7358354786e-001
 1.0304926847e+000	 8.2492683979e-001	-2.5639224945e-001
 1.0213430540e+000	 8.3622837699e-001	-3.3725081421e-001
 1.0120643708e+000	 8.4743454733e-001	-4.1565559800e-001
 1.0026581297e+000	 8.5854315389e-001	-4.9108579161e-001
 9.9312587450e-001	 8.6955203108e-001	-5.6300425658e-001
 9.8346919799e-001	 8.8045904610e-001	-6.3085845062e-001
 1.0959563221e+000	 7.8256234613e-001	-6.6245548637e-004
 1.0873012102e+000	 7.9454400350e-001	-8.7036041019e-002
 1.0785076010e+000	 8.0644000291e-001	-1.7330279767e-001
 1.0695767551e+000	 8.1824796514e-001	-2.5899731258e-001
 1.0605099875e+000	 8.2996553551e-001	-3.4363364552e-001
 1.0513086664e+000	 8.4159038547e-001	-4.2670586998e-001
 1.0419742128e+000	 8.5312021405e-001	-5.0768871578e-001
 1.0325081000e+000	 8.6455274935e-001	-5.8603831282e-001
 1.0229118525e+000	 8.7588575008e-001	-6.6119303530e-001
 1.0131870455e+000	 8.8711700690e-001	-7.3257444498e-001
 1.0033353038e+000	 8.9824434394e-001	-7.9958833153e-001
 1.1176562923e+000	 7.9805710559e-001	-1.4377696600e-001
 1.1088298089e+000	 8.1027600016e-001	-2.3016697707e-001
 1.0998620859e+000	 8.2240754074e-001	-3.1655266378e-001
 1.0907544091e+000	 8.3444930100e-001	-4.0243915013e-001
 1.0815081192e+000	 8.4639887964e-001	-4.8730910713e-001
 1.0721246116e+000	 8.5825390200e-001	-5.7062335260e-001
 1.0626053355e+000	 8.7001202155e-001	-6.5182156278e-001
 1.0529517933e+000	 8.8167092142e-001	-7.3032309562e-001
 1.0431655398e+000	 8.9322831592e-001	-8.0552792478e-001
 1.0332481814e+000	 9.0468195199e-001	-8.7681768291e-001
 1.0232013749e+000	 9.1602961065e-001	-9.4355681226e-001
 1.1393562299e+000	 8.1355184181e-001	-2.6448834927e-001
 1.1303583753e+000	 8.2600797323e-001	-3.5062728015e-001
 1.1212165389e+000	 8.3837505462e-001	-4.3692243370e-001
 1.1119320312e+000	 8.5065061256e-001	-5.2285652998e-001
 1.1025062193e+000	 8.6283219912e-001	-6.0788694249e-001
 1.0929405255e+000	 8.7491739353e-001	-6.9144634032e-001
 1.0832364273e+000	 8.8690380371e-001	-7.7294345482e-001
 1.0733954560e+000	 8.9878906781e-001	-8.5176397055e-001
 1.0634191968e+000	 9.1057085575e-001	-9.2727153972e-001
 1.0533092871e+000	 9.2224687073e-001	-9.9880891864e-001
 1.0430674162e+000	 9.3381485069e-001	-1.0656992240e+000
 1.1610561405e+000	 8.2904655867e-001	-3.6548325012e-001
 1.1518869148e+000	 8.4173992663e-001	-4.5124426861e-001
 1.1425709651e+000	 8.5434254855e-001	-5.3735213645e-001
 1.1331096269e+000	 8.6685190386e-001	-6.2327383852e-001
 1.1235042932e+000	 8.7926549806e-001	-7.0844716626e-001
 1.1137564135e+000	 8.9158086424e-001	-7.9228138616e-001
 1.1038674932e+000	 9.0379556476e-001	-8.7415804741e-001
 1.0938390932e+000	 9.1590719280e-001	-9.5343192904e-001
 1.0836728285e+000	 9.2791337390e-001	-1.0294321256e+000
 1.0733703679e+000	 9.3981176752e-001	-1.1014632702e+000
 1.0629334326e+000	 9.5160006850e-001	-1.1688068920e+000
 1.1827560293e+000	 8.4454126003e-001	-4.4927793266e-001
 1.1734154328e+000	 8.5747186430e-001	-5.3466681205e-001
 1.1639253700e+000	 8.7031002650e-001	-6.2059767898e-001
 1.1542872015e+000	 8.8305317897e-001	-7.0652809570e-001
 1.1445023461e+000	 8.9569878056e-001	-7.9188164302e-001
 1.1345722806e+000	 9.0824431828e-001	-8.7604859870e-001
 1.1244985386e+000	 9.2068730893e-001	-9.5838677252e-001
 1.1142827099e+000	 9.3302530068e-001	-1.0382224981e+000
 1.1039264399e+000	 9.4525587472e-001	-1.1148517808e+000
 1.0934314285e+000	 9.5737664674e-001	-1.1875416009e+000
 1.0827994292e+000	 9.6938526853e-001	-1.2555313681e+000
 1.2044559019e+000	 8.6003594977e-001	-5.1822403159e-001
 1.1949439347e+000	 8.7320379017e-001	-6.0337167455e-001
 1.1852797589e+000	 8.8627749248e-001	-6.8923758898e-001
 1.1754647601e+000	 8.9925444193e-001	-7.7527590311e-001
 1.1655003833e+000	 9.1213205075e-001	-8.6090104372e-001
 1.1553881321e+000	 9.2490775983e-001	-9.4548840855e-001
 1.1451295685e+000	 9.3757904042e-001	-1.0283752148e+000
 1.1347263113e+000	 9.5014339572e-001	-1.1088615245e+000
 1.1241800362e+000	 9.6259836252e-001	-1.1862114456e+000
 1.1134924741e+000	 9.7494151279e-001	-1.2596545087e+000
 1.1026654109e+000	 9.8717045521e-001	-1.3283872158e+000
 1.2261557636e+000	 8.7553063176e-001	-5.7451283299e-001
 1.2164724257e+000	 8.8893570818e-001	-6.5966830926e-001
 1.2066341371e+000	 9.0224495048e-001	-7.4567815230e-001
 1.1966423081e+000	 9.1545569679e-001	-8.3199875093e-001
 1.1864984099e+000	 9.2856531271e-001	-9.1804014759e-001
 1.1762039732e+000	 9.4157119305e-001	-1.0031666886e+000
 1.1657605880e+000	 9.5447076347e-001	-1.0866978722e+000
 1.1551699025e+000	 9.6726148220e-001	-1.1679093962e+000
 1.1444336223e+000	 9.7994084166e-001	-1.2460344037e+000
 1.1335535097e+000	 9.9250637006e-001	-1.3202649268e+000
 1.1225313827e+000	 1.0049556330e+000	-1.3897535257e+000
 1.2478556198e+000	 8.9102530988e-001	-6.2017826345e-001
 1.2380009114e+000	 9.0466762225e-001	-7.0570229279e-001
 1.2279885099e+000	 9.1821240449e-001	-7.9215714012e-001
 1.2178198509e+000	 9.3165694760e-001	-8.7900688381e-001
 1.2074964313e+000	 9.4499857057e-001	-9.6566169075e-001
 1.1970198092e+000	 9.5823462210e-001	-1.0514784280e+000
 1.1863916024e+000	 9.7136248230e-001	-1.1357614968e+000
 1.1756134885e+000	 9.8437956441e-001	-1.2177638907e+000
 1.1646872033e+000	 9.9728331646e-001	-1.2966884772e+000
 1.1536145402e+000	 1.0100712229e+000	-1.3716895028e+000
 1.1423973494e+000	 1.0227408064e+000	-1.4418750931e+000
 9.4373686216e-001	 8.4488833928e-001	-2.0661589607e-001
 9.3435391325e-001	 8.5525340088e-001	-2.7796899194e-001
 9.2485479875e-001	 8.6551675343e-001	-3.5115639046e-001
 9.1524118220e-001	 8.7567645404e-001	-4.2556281767e-001
 9.0551477026e-001	 8.8573059636e-001	-5.0056191758e-001
 8.9567731170e-001	 8.9567731170e-001	-5.7551756605e-001
 8.8573059636e-001	 9.0551477026e-001	-6.4978524046e-001
 8.7567645404e-001	 9.1524118220e-001	-7.2271344051e-001
 8.6551675343e-001	 9.2485479875e-001	-7.9364515503e-001
 8.5525340088e-001	 9.3435391325e-001	-8.6191936938e-001
 8.4488833928e-001	 9.4373686216e-001	-9.2687260792e-001
 9.6360305242e-001	 8.6267371270e-001	-4.3428194295e-001
 9.5402258718e-001	 8.7325696466e-001	-5.0256764784e-001
 9.4432351099e-001	 8.8373636653e-001	-5.7217290462e-001
 9.3450752243e-001	 8.9410993455e-001	-6.4250190280e-001
 9.2457636406e-001	 9.0437572220e-001	-7.1294599127e-001
 9.1453182148e-001	 9.1453182148e-001	-7.8288502899e-001
 9.0437572220e-001	 9.2457636406e-001	-8.5168879962e-001
 8.9410993455e-001	 9.3450752243e-001	-9.1871848494e-001
 8.8373636653e-001	 9.4432351099e-001	-9.8332819177e-001
 8.7325696466e-001	 9.5402258718e-001	-1.0448665265e+000
 8.6267371270e-001	 9.6360305242e-001	-1.1026782114e+000
 9.8346919799e-001	 8.8045904610e-001	-6.3085845062e-001
 9.7369121686e-001	 8.9126048793e-001	-6.9709785884e-001
 9.6379217943e-001	 9.0195593865e-001	-7.6419140835e-001
 9.5377381930e-001	 9.1254337358e-001	-8.3156333099e-001
 9.4363791497e-001	 9.2302080609e-001	-8.9862304817e-001
 9.3338628884e-001	 9.3338628884e-001	-9.6476655727e-001
 9.2302080609e-001	 9.4363791497e-001	-1.0293778907e+000
 9.1254337358e-001	 9.5377381930e-001	-1.0918306427e+000
 9.0195593865e-001	 9.6379217943e-001	-1.1514895573e+000
 8.9126048793e-001	 9.7369121686e-001	-1.2077121727e+000
 8.8045904610e-001	 9.8346919799e-001	-1.2598505141e+000
 1.0033353038e+000	 8.9824434394e-001	-7.9958833153e-001
 9.9335980720e-001	 9.0926397520e-001	-8.6460598427e-001
 9.8326080894e-001	 9.2017547433e-001	-9.3006033870e-001
 9.7304007765e-001	 9.3097677575e-001	-9.9539585483e-001
 9.6269942776e-001	 9.4166585269e-001	-1.0600399913e+000
 9.5224071848e-001	 9.5224071848e-001	-1.1234046266e+000
 9.4166585269e-001	 9.6269942776e-001	-1.1848875632e+000
 9.3097677575e-001	 9.7304007765e-001	-1.2438741084e+000
 9.2017547433e-001	 9.8326080894e-001	-1.2997387263e+000
 9.0926397520e-001	 9.9335980720e-001	-1.3518467543e+000
 8.9824434394e-001	 1.0033353038e+000	-1.3995561765e+000
 1.0232013749e+000	 9.1602961065e-001	-9.4355681226e-001
 1.0130283631e+000	 9.2726743097e-001	-1.0080015695e+000
 1.0027294044e+000	 9.3839497813e-001	-1.0725125507e+000
 9.9230630228e-001	 9.4941014566e-001	-1.1365542546e+000
 9.8176090719e-001	 9.6031086667e-001	-1.1995717551e+000
 9.7109511514e-001	 9.7109511514e-001	-1.2609921579e+000
 9.6031086667e-001	 9.8176090719e-001	-1.3202261498e+000
 9.4941014566e-001	 9.9230630228e-001	-1.3766696366e+000
 9.3839497813e-001	 1.0027294044e+000	-1.4297054610e+000
 9.2726743097e-001	 1.0130283631e+000	-1.4787051953e+000
 9.1602961065e-001	 1.0232013749e+000	-1.5230310008e+000
 1.0430674162e+000	 9.3381485069e-001	-1.0656992240e+000
 1.0326968896e+000	 9.4527085973e-001	-1.1300633027e+000
 1.0221979706e+000	 9.5661445460e-001	-1.1941694330e+000
 1.0115724980e+000	 9.6784348792e-001	-1.2575016023e+000
 1.0008223580e+000	 9.7895585267e-001	-1.3195217066e+000
 9.8994948351e-001	 9.8994948351e-001	-1.3796710413e+000
 9.7895585267e-001	 1.0008223580e+000	-1.4373718988e+000
 9.6784348792e-001	 1.0115724980e+000	-1.4920292646e+000
 9.5661445460e-001	 1.0221979706e+000	-1.5430326055e+000
 9.4527085973e-001	 1.0326968896e+000	-1.5897577435e+000
 9.3381485069e-001	 1.0430674162e+000	-1.6315688057e+000
 1.0629334326e+000	 9.5160006850e-001	-1.1688068920e+000
 1.0523653914e+000	 9.6327426599e-001	-1.2334432707e+000
 1.0416665125e+000	 9.7483390829e-001	-1.2975435226e+000
 1.0308386697e+000	 9.8627680714e-001	-1.3606102290e+000
 1.0198837850e+000	 9.9760081538e-001	-1.4221209552e+000
 1.0088038283e+000	 1.0088038283e+000	-1.4815297790e+000
 9.9760081538e-001	 1.0198837850e+000	-1.5382689363e+000
 9.8627680714e-001	 1.0308386697e+000	-1.5917505802e+000
 9.7483390829e-001	 1.0416665125e+000	-1.6413686440e+000
 9.6327426599e-001	 1.0523653914e+000	-1.6865008003e+000
 9.5160006850e-001	 1.0629334326e+000	-1.7265105093e+000
 1.0827994292e+000	 9.6938526853e-001	-1.2555313681e+000
 1.0720338736e+000	 9.8127765425e-001	-1.3206697307e+000
 1.0611350349e+000	 9.9305334377e-001	-1.3850398128e+000
 1.0501048220e+000	 1.0047101079e+000	-1.4481615613e+000
 1.0389451930e+000	 1.0162457594e+000	-1.5095267124e+000
 1.0276581543e+000	 1.0276581543e+000	-1.5686003576e+000
 1.0162457594e+000	 1.0389451930e+000	-1.6248226425e+000
 1.0047101079e+000	 1.0501048220e+000	-1.6776105912e+000
 9.9305334377e-001	 1.0611350349e+000	-1.7263600491e+000
 9.8127765425e-001	 1.0720338736e+000	-1.7704477349e+000
 9.6938526853e-001	 1.0827994292e+000	-1.8092333937e+000
 1.1026654109e+000	 9.8717045521e-001	-1.3283872158e+000
 1.0917023410e+000	 9.9928102900e-001	-1.3941485862e+000
 1.0806035428e+000	 1.0112727656e+000	-1.4589559172e+000
 1.0693709600e+000	 1.0231433949e+000	-1.5223449712e+000
 1.0580065867e+000	 1.0348906895e+000	-1.5838198199e+000
 1.0465124661e+000	 1.0465124661e+000	-1.6428543965e+000
 1.0348906895e+000	 1.0580065867e+000	-1.6988945191e+000
 1.0231433949e+000	 1.0693709600e+000	-1.7513592477e+000
 1.0112727656e+000	 1.0806035428e+000	-1.7996434507e+000
 9.9928102900e-001	 1.0917023410e+000	-1.8431196873e+000
 9.8717045521e-001	 1.1026654109e+000	-1.8811405277e+000
 1.1225313827e+000	 1.0049556330e+000	-1.3897535257e+000
 1.1113707986e+000	 1.0172843948e+000	-1.4561644333e+000
 1.1000720409e+000	 1.0294921783e+000	-1.5214817218e+000
 1.0886370883e+000	 1.0415766726e+000	-1.5852560300e+000
 1.0770679708e+000	 1.0535356103e+000	-1.6470016033e+000
 1.0653667685e+000	 1.0653667685e+000	-1.7061988635e+000
 1.0535356103e+000	 1.0770679708e+000	-1.7622962228e+000
 1.0415766726e+000	 1.0886370883e+000	-1.8147120553e+000
 1.0294921783e+000	 1.1000720409e+000	-1.8628368170e+000
 1.0172843948e+000	 1.1113707986e+000	-1.9060353053e+000
 1.0049556330e+000	 1.1225313827e+000	-1.9436503287e+000
 1.1423973494e+000	 1.0227408064e+000	-1.4418750931e+000
 1.1310392512e+000	 1.0352877560e+000	-1.5088769501e+000
 1.1195405341e+000	 1.0477115864e+000	-1.5746955984e+000
 1.1079032118e+000	 1.0600099458e+000	-1.6388925468e+000
 1.0961293502e+000	 1.0721805264e+000	-1.7009897331e+000
 1.0842210662e+000	 1.0842210662e+000	-1.7604712185e+000
 1.0721805264e+000	 1.0961293502e+000	-1.8167850657e+000
 1.0600099458e+000	 1.1079032118e+000	-1.8693453917e+000
 1.0477115864e+000	 1.1195405341e+000	-1.9175345878e+000
 1.0352877560e+000	 1.1310392512e+000	-1.9607056951e+000
 1.0227408064e+000	 1.1423973494e+000	-1.9981849253e+000
 8.4488833928e-001	 9.4373686216e-001	-9.2687260792e-001
 8.3442196966e-001	 9.5300340716e-001	-9.9101965844e-001
 8.2385785312e-001	 9.6215055747e-001	-1.0569555069e+000
 8.1319803631e-001	 9.7117678475e-001	-1.1241639918e+000
 8.0244459730e-001	 9.8008060741e-001	-1.1921294894e+000
 7.9159964427e-001	 9.8886059143e-001	-1.2603383641e+000
 7.8066531416e-001	 9.9751535112e-001	-1.3282804180e+000
 7.6964377126e-001	 1.0060435498e+000	-1.3954503369e+000
 7.5853720581e-001	 1.0144439005e+000	-1.4613491231e+000
 7.4734783261e-001	 1.0227151665e+000	-1.5254855116e+000
 7.3607788956e-001	 1.0308561619e+000	-1.5873773606e+000
 8.6267371270e-001	 9.6360305242e-001	-1.1026782114e+000
 8.5198702013e-001	 9.7306466339e-001	-1.1592686057e+000
 8.4120052302e-001	 9.8240436636e-001	-1.2172465507e+000
 8.3031631108e-001	 9.9162060078e-001	-1.2761321803e+000
 8.1933650614e-001	 1.0007118539e+000	-1.3354428590e+000
 8.0826326077e-001	 1.0096766615e+000	-1.3946946769e+000
 7.9709875688e-001	 1.0185136087e+000	-1.4534039533e+000
 7.8584520432e-001	 1.0272213308e+000	-1.5110887431e+000
 7.7450483944e-001	 1.0357985136e+000	-1.5672703370e+000
 7.6307992366e-001	 1.0442438944e+000	-1.6214747508e+000
 7.5157274199e-001	 1.0525562623e+000	-1.6732341959e+000
 8.8045904610e-001	 9.8346919799e-001	-1.2598505141e+000
 8.6955203108e-001	 9.9312587450e-001	-1.3103648557e+000
 8.5854315389e-001	 1.0026581297e+000	-1.3618160964e+000
 8.4743454733e-001	 1.0120643708e+000	-1.4137221323e+000
 8.3622837699e-001	 1.0213430540e+000	-1.4655962416e+000
 8.2492683979e-001	 1.0304926847e+000	-1.5169486920e+000
 8.1353216263e-001	 1.0395118191e+000	-1.5672883617e+000
 8.0204660093e-001	 1.0483990641e+000	-1.6161243672e+000
 7.9047243714e-001	 1.0571530786e+000	-1.6629676893e+000
 7.7881197931e-001	 1.0657725738e+000	-1.7073327909e+000
 7.6706755955e-001	 1.0742563139e+000	-1.7487392178e+000
 8.9824434394e-001	 1.0033353038e+000	-1.3995561765e+000
 8.8711700690e-001	 1.0131870455e+000	-1.4452768166e+000
 8.7588575008e-001	 1.0229118525e+000	-1.4914917066e+000
 8.6455274935e-001	 1.0325081000e+000	-1.5376797382e+000
 8.5312021405e-001	 1.0419742128e+000	-1.5833147285e+000
 8.4159038547e-001	 1.0513086664e+000	-1.6278672055e+000
 8.2996553551e-001	 1.0605099875e+000	-1.6708062094e+000
 8.1824796514e-001	 1.0695767551e+000	-1.7116011025e+000
 8.0644000291e-001	 1.0785076010e+000	-1.7497233784e+000
 7.9454400350e-001	 1.0873012102e+000	-1.7846484624e+000
 7.8256234613e-001	 1.0959563221e+000	-1.8158574946e+000
 9.1602961065e-001	 1.0232013749e+000	-1.5230310008e+000
 9.0468195199e-001	 1.0332481814e+000	-1.5650648000e+000
 8.9322831592e-001	 1.0431655398e+000	-1.6072112026e+000
 8.8167092142e-001	 1.0529517933e+000	-1.6488749318e+000
 8.7001202155e-001	 1.0626053355e+000	-1.6894565079e+000
 8.5825390200e-001	 1.0721246116e+000	-1.7283542763e+000
 8.4639887964e-001	 1.0815081192e+000	-1.7649664522e+000
 8.3444930100e-001	 1.0907544091e+000	-1.7986931721e+000
 8.2240754074e-001	 1.0998620859e+000	-1.8289385434e+000
 8.1027600016e-001	 1.1088298089e+000	-1.8551126817e+000
 7.9805710559e-001	 1.1176562923e+000	-1.8766337276e+000
 9.3381485069e-001	 1.0430674162e+000	-1.6315688057e+000
 9.2224687073e-001	 1.0533092871e+000	-1.6708681262e+000
 9.1057085575e-001	 1.0634191968e+000	-1.7100084416e+000
 8.9878906781e-001	 1.0733954560e+000	-1.7482865940e+000
 8.8690380371e-001	 1.0832364273e+000	-1.7849973634e+000
 8.7491739353e-001	 1.0929405255e+000	-1.8194358020e+000
 8.6283219912e-001	 1.1025062193e+000	-1.8508995839e+000
 8.5065061256e-001	 1.1119320312e+000	-1.8786913580e+000
 8.3837505462e-001	 1.1212165389e+000	-1.9021210948e+000
 8.2600797323e-001	 1.1303583753e+000	-1.9205084155e+000
 8.1355184181e-001	 1.1393562299e+000	-1.9331848919e+000
 9.5160006850e-001	 1.0629334326e+000	-1.7265105093e+000
 9.3981176752e-001	 1.0733703679e+000	-1.7638926424e+000
 9.2791337390e-001	 1.0836728285e+000	-1.8009996604e+000
 9.1590719280e-001	 1.0938390932e+000	-1.8369881276e+000
 9.0379556476e-001	 1.1038674932e+000	-1.8710158979e+000
 8.9158086424e-001	 1.1137564135e+000	-1.9022448209e+000
 8.7926549806e-001	 1.1235042932e+000	-1.9298434575e+000
 8.6685190386e-001	 1.1331096269e+000	-1.9529897940e+000
 8.5434254855e-001	 1.1425709651e+000	-1.9708739428e+000
 8.4173992663e-001	 1.1518869148e+000	-1.9827008160e+000
 8.2904655867e-001	 1.1610561405e+000	-1.9876927624e+000
 9.6938526853e-001	 1.0827994292e+000	-1.8092333937e+000
 9.5737664674e-001	 1.0934314285e+000	-1.8453985985e+000
 9.4525587472e-001	 1.1039264399e+000	-1.8813703143e+000
 9.3302530068e-001	 1.1142827099e+000	-1.9161336188e+000
 9.2068730893e-001	 1.1244985386e+000	-1.9486793902e+000
 9.0824431828e-001	 1.1345722806e+000	-1.9780074474e+000
 8.9569878056e-001	 1.1445023461e+000	-2.0031296933e+000
 8.8305317897e-001	 1.1542872015e+000	-2.0230732501e+000
 8.7031002650e-001	 1.1639253700e+000	-2.0368835689e+000
 8.5747186430e-001	 1.1734154328e+000	-2.0436275044e+000
 8.4454126003e-001	 1.1827560293e+000	-2.0423963383e+000
 9.8717045521e-001	 1.1026654109e+000	-1.8811405277e+000
 9.7494151279e-001	 1.1134924741e+000	-1.9166888373e+000
 9.6259836252e-001	 1.1241800362e+000	-1.9523623461e+000
 9.5014339572e-001	 1.1347263113e+000	-1.9869445105e+000
 9.3757904042e-001	 1.1451295685e+000	-2.0192302052e+000
 9.2490775983e-001	 1.1553881321e+000	-2.0480293612e+000
 9.1213205075e-001	 1.1655003833e+000	-2.0721705996e+000
 8.9925444193e-001	 1.1754647601e+000	-2.0905048442e+000
 8.8627749248e-001	 1.1852797589e+000	-2.1019089006e+000
 8.7320379017e-001	 1.1949439347e+000	-2.1052889834e+000
 8.6003594977e-001	 1.2044559019e+000	-2.0995841799e+000
 1.0049556330e+000	 1.1225313827e+000	-1.9436503287e+000
 9.9250637006e-001	 1.1335535097e+000	-1.9790972586e+000
 9.7994084166e-001	 1.1444336223e+000	-2.0152618345e+000
 9.6726148220e-001	 1.1551699025e+000	-2.0506967234e+000
 9.5447076347e-001	 1.1657605880e+000	-2.0839726870e+000
 9.4157119305e-001	 1.1762039732e+000	-2.1136827816e+000
 9.2856531271e-001	 1.1864984099e+000	-2.1384465414e+000
 9.1545569679e-001	 1.1966423081e+000	-2.1569141313e+000
 9.0224495048e-001	 1.2066341371e+000	-2.1677704494e+000
 8.8893570818e-001	 1.2164724257e+000	-2.1697391641e+000
 8.7553063176e-001	 1.2261557636e+000	-2.1615866682e+000
 1.0227408064e+000	 1.1423973494e+000	-1.9981849253e+000
 1.0100712229e+000	 1.1536145402e+000	-2.0339775252e+000
 9.9728331646e-001	 1.1646872033e+000	-2.0713869742e+000
 9.8437956441e-001	 1.1756134885e+000	-2.1087081717e+000
 9.7136248230e-001	 1.1863916024e+000	-2.1442604795e+000
 9.5823462210e-001	 1.1970198092e+000	-2.1763938663e+000
 9.4499857057e-001	 1.2074964313e+000	-2.2034937048e+000
 9.3165694760e-001	 1.2178198509e+000	-2.2239855212e+000
 9.1821240449e-001	 1.2279885099e+000	-2.2363396815e+000
 9.0466762225e-001	 1.2380009114e+000	-2.2390759917e+000
 8.9102530988e-001	 1.2478556198e+000	-2.2307681966e+000
 7.3607788956e-001	 1.0308561619e+000	-1.5873773606e+000
 7.2472963597e-001	 1.0388657520e+000	-1.6486054647e+000
 7.1330535038e-001	 1.0467428524e+000	-1.7107477199e+000
 7.0180732985e-001	 1.0544864310e+000	-1.7733449307e+000
 6.9023788874e-001	 1.0620955081e+000	-1.8359650639e+000
 6.7859935721e-001	 1.0695691567e+000	-1.8982044166e+000
 6.6689407973e-001	 1.0769065033e+000	-1.9596886995e+000
 6.5512441360e-001	 1.0841067275e+000	-2.0186182871e+000
 6.4329272745e-001	 1.0911690624e+000	-2.0730759403e+000
 6.3140139974e-001	 1.0980927950e+000	-2.1226986259e+000
 6.1945281727e-001	 1.1048772657e+000	-2.1671463753e+000
 7.5157274199e-001	 1.0525562623e+000	-1.6732341959e+000
 7.3998560129e-001	 1.0607344587e+000	-1.7245203013e+000
 7.2832082808e-001	 1.0687773766e+000	-1.7771638517e+000
 7.1658076777e-001	 1.0766839618e+000	-1.8305160672e+000
 7.0476778344e-001	 1.0844532142e+000	-1.8839624804e+000
 6.9288425429e-001	 1.0920841874e+000	-1.9369244796e+000
 6.8093257415e-001	 1.0995759892e+000	-1.9888607493e+000
 6.6891514995e-001	 1.1069277821e+000	-2.0392686023e+000
 6.5683440017e-001	 1.1141387832e+000	-2.0866389170e+000
 6.4469275334e-001	 1.1212082642e+000	-2.1284591946e+000
 6.3249264651e-001	 1.1281355518e+000	-2.1642018857e+000
 7.6706755955e-001	 1.0742563139e+000	-1.7487392178e+000
 7.5524153229e-001	 1.0826031163e+000	-1.7896875813e+000
 7.4333627200e-001	 1.0908118511e+000	-1.8324360448e+000
 7.3135417246e-001	 1.0988814427e+000	-1.8761747139e+000
 7.1929764545e-001	 1.1068108701e+000	-1.9201345784e+000
 7.0716911923e-001	 1.1145991674e+000	-1.9635894051e+000
 6.9497103699e-001	 1.1222454241e+000	-2.0058575100e+000
 6.8270585527e-001	 1.1297487855e+000	-2.0463034035e+000
 6.7037604242e-001	 1.1371084523e+000	-2.0843393022e+000
 6.5798407704e-001	 1.1443236814e+000	-2.1186206913e+000
 6.4553244642e-001	 1.1513937857e+000	-2.1462953617e+000
 7.8256234613e-001	 1.0959563221e+000	-1.8158574946e+000
 7.7049743278e-001	 1.1044717301e+000	-1.8464696943e+000
 7.5835168590e-001	 1.1128462816e+000	-1.8792944836e+000
 7.4612754760e-001	 1.1210788792e+000	-1.9133874407e+000
 7.3382747840e-001	 1.1291684812e+000	-1.9478510596e+000
 7.2145395561e-001	 1.1371141023e+000	-1.9818369681e+000
 7.0900947176e-001	 1.1449148137e+000	-2.0145480093e+000
 6.9649653302e-001	 1.1525697432e+000	-2.0452401782e+000
 6.8391765760e-001	 1.1600780755e+000	-2.0732244066e+000
 6.7127537416e-001	 1.1674390524e+000	-2.0978681902e+000
 6.5857222024e-001	 1.1746519730e+000	-2.1179071628e+000
 7.9805710559e-001	 1.1176562923e+000	-1.8766337276e+000
 7.8575330657e-001	 1.1263403057e+000	-1.8972843476e+000
 7.7336707351e-001	 1.1348806736e+000	-1.9205023887e+000
 7.6090089688e-001	 1.1432762768e+000	-1.9452337207e+000
 7.4835728592e-001	 1.1515260532e+000	-1.9704766537e+000
 7.3573876698e-001	 1.1596289979e+000	-1.9952844617e+000
 7.2304788196e-001	 1.1675841636e+000	-2.0187677529e+000
 7.1028718663e-001	 1.1753906609e+000	-2.0400966775e+000
 6.9745924908e-001	 1.1830476584e+000	-2.0585029686e+000
 6.8456664802e-001	 1.1905543830e+000	-2.0732818042e+000
 6.7161197125e-001	 1.1979101196e+000	-2.0837934888e+000
 8.1355184181e-001	 1.1393562299e+000	-1.9331848919e+000
 8.0100915748e-001	 1.1482088484e+000	-1.9446000686e+000
 7.8838243861e-001	 1.1569150325e+000	-1.9588541954e+000
 7.7567422401e-001	 1.1654736412e+000	-1.9748065831e+000
 7.6288707165e-001	 1.1738835917e+000	-1.9913740342e+000
 7.5002355694e-001	 1.1821438597e+000	-2.0075336524e+000
 7.3708627110e-001	 1.1902534795e+000	-2.0223254827e+000
 7.2407781956e-001	 1.1982115444e+000	-2.0348549761e+000
 7.1100082024e-001	 1.2060172070e+000	-2.0442952669e+000
 6.9785790195e-001	 1.2136696789e+000	-2.0498892576e+000
 6.8465170270e-001	 1.2211682313e+000	-2.0509515018e+000
 8.2904655867e-001	 1.1610561405e+000	-1.9876927624e+000
 8.1626498933e-001	 1.1700773638e+000	-1.9909312871e+000
 8.0339778493e-001	 1.1789493638e+000	-1.9971730256e+000
 7.9044753268e-001	 1.1876709778e+000	-2.0052122999e+000
 7.7741683922e-001	 1.1962411022e+000	-2.0139055321e+000
 7.6430832903e-001	 1.2046586934e+000	-2.0221743210e+000
 7.5112464270e-001	 1.2129227671e+000	-2.0290083388e+000
 7.3786843525e-001	 1.2210323994e+000	-2.0334680348e+000
 7.2454237448e-001	 1.2289867268e+000	-2.0346871381e+000
 7.1114913926e-001	 1.2367849459e+000	-2.0318749497e+000
 6.9769141785e-001	 1.2444263139e+000	-2.0243184159e+000
 8.4454126003e-001	 1.1827560293e+000	-2.0423963383e+000
 8.3152080591e-001	 1.1919458574e+000	-2.0388330497e+000
 8.1841311625e-001	 1.2009836731e+000	-2.0383075457e+000
 8.0522082657e-001	 1.2098682922e+000	-2.0395692309e+000
 7.9194659226e-001	 1.2185985904e+000	-2.0414338011e+000
 7.7859308685e-001	 1.2271735045e+000	-2.0427865745e+000
 7.6516300026e-001	 1.2355920320e+000	-2.0425856300e+000
 7.5165903715e-001	 1.2438532316e+000	-2.0398647382e+000
 7.3808391518e-001	 1.2519562236e+000	-2.0337360764e+000
 7.2444036328e-001	 1.2599001897e+000	-2.0233927176e+000
 7.1073111996e-001	 1.2676843733e+000	-2.0081108834e+000
 8.6003594977e-001	 1.2044559019e+000	-2.0995841799e+000
 8.4677661106e-001	 1.2138143345e+000	-2.0908954131e+000
 8.3342843630e-001	 1.2230179659e+000	-2.0851282877e+000
 8.1999410938e-001	 1.2320655899e+000	-2.0810059324e+000
 8.0647633441e-001	 1.2409560618e+000	-2.0773215680e+000
 7.9287783395e-001	 1.2496882988e+000	-2.0729420808e+000
 7.7920134729e-001	 1.2582612799e+000	-2.0668113906e+000
 7.6544962871e-001	 1.2666740467e+000	-2.0579535986e+000
 7.5162544573e-001	 1.2749257032e+000	-2.0454759055e+000
 7.3773157734e-001	 1.2830154163e+000	-2.0285712871e+000
 7.2377081230e-001	 1.2909424153e+000	-2.0065209187e+000
 8.7553063176e-001	 1.2261557636e+000	-2.1615866682e+000
 8.6203240858e-001	 1.2356828007e+000	-2.1497375569e+000
 8.4844374884e-001	 1.2450522477e+000	-2.1405234987e+000
 8.3476738481e-001	 1.2542628766e+000	-2.1326586218e+000
 8.2100606929e-001	 1.2633135221e+000	-2.1249305807e+000
 8.0716257390e-001	 1.2722030818e+000	-2.1162043615e+000
 7.9323968730e-001	 1.2809305164e+000	-2.1054258708e+000
 7.7924021338e-001	 1.2894948503e+000	-2.0916252922e+000
 7.6516696950e-001	 1.2978951713e+000	-2.0739201987e+000
 7.5102278475e-001	 1.3061306312e+000	-2.0515184089e+000
 7.3681049811e-001	 1.3142004456e+000	-2.0237205752e+000
 8.9102530988e-001	 1.2478556198e+000	-2.2307681966e+000
 8.7728820228e-001	 1.2575512615e+000	-2.2180016485e+000
 8.6345905763e-001	 1.2670865240e+000	-2.2073945777e+000
 8.4954065654e-001	 1.2764601577e+000	-2.1976680762e+000
 8.3553580053e-001	 1.2856709767e+000	-2.1876198514e+000
 8.2144731029e-001	 1.2947178591e+000	-2.1761282567e+000
 8.0727802380e-001	 1.3035997473e+000	-2.1621560932e+000
 7.9303079459e-001	 1.3123156482e+000	-2.1447541688e+000
 7.7870848989e-001	 1.3208646337e+000	-2.1230645994e+000
 7.6431398883e-001	 1.3292458404e+000	-2.0963238397e+000
 7.4985018066e-001	 1.3374584701e+000	-2.0639741593e+000
 6.1945281727e-001	 1.1048772657e+000	-2.1671463753e+000
 6.0745117825e-001	 1.1115208828e+000	-2.2092295160e+000
 5.9539709325e-001	 1.1180241233e+000	-2.2516624973e+000
 5.8329296476e-001	 1.1243864900e+000	-2.2939894174e+000
 5.7114119775e-001	 1.1306075389e+000	-2.3357942510e+000
 5.5894419814e-001	 1.1366868794e+000	-2.3767012096e+000
 5.4670437139e-001	 1.1426241741e+000	-2.4163750902e+000
 5.3442412108e-001	 1.1484191381e+000	-2.4545216101e+000
 5.2210584754e-001	 1.1540715394e+000	-2.4908877265e+000
 5.0975194641e-001	 1.1595811979e+000	-2.5252619384e+000
 4.9736480731e-001	 1.1649479851e+000	-2.5574745671e+000
 6.3249264651e-001	 1.1281355518e+000	-2.1642018857e+000
 6.2023836626e-001	 1.1349190208e+000	-2.1969398693e+000
 6.0793053600e-001	 1.1415591582e+000	-2.2297460064e+000
 5.9557160883e-001	 1.1480554562e+000	-2.2621849012e+000
 5.8316404031e-001	 1.1544074617e+000	-2.2938639197e+000
 5.7071028701e-001	 1.1606147757e+000	-2.3244335114e+000
 5.5821280504e-001	 1.1666770538e+000	-2.3535875241e+000
 5.4567404858e-001	 1.1725940051e+000	-2.3810635097e+000
 5.3309646847e-001	 1.1783653926e+000	-2.4066430201e+000
 5.2048251078e-001	 1.1839910325e+000	-2.4301518881e+000
 5.0783461546e-001	 1.1894707936e+000	-2.4514604932e+000
 6.4553244642e-001	 1.1513937857e+000	-2.1462953617e+000
 6.3302552550e-001	 1.1583171062e+000	-2.1705045051e+000
 6.2046395056e-001	 1.1650941401e+000	-2.1946118759e+000
 6.0785022527e-001	 1.1717243693e+000	-2.2182017167e+000
 5.9518685581e-001	 1.1782073310e+000	-2.2409031600e+000
 5.8247634941e-001	 1.1845426183e+000	-2.2623905227e+000
 5.6972121280e-001	 1.1907298794e+000	-2.2823836011e+000
 5.5692395076e-001	 1.1967688177e+000	-2.3006479641e+000
 5.4408706467e-001	 1.2026591912e+000	-2.3169952430e+000
 5.3121305102e-001	 1.2084008122e+000	-2.3312834136e+000
 5.1830440006e-001	 1.2139935469e+000	-2.3434170675e+000
 6.5857222024e-001	 1.1746519730e+000	-2.1179071628e+000
 6.4581265917e-001	 1.1817151448e+000	-2.1343806658e+000
 6.3299734006e-001	 1.1886290750e+000	-2.1506633043e+000
 6.2012881715e-001	 1.1953932349e+000	-2.1663581812e+000
 6.0720964727e-001	 1.2020071527e+000	-2.1811146659e+000
 5.9424238828e-001	 1.2084704129e+000	-2.1946286736e+000
 5.8122959754e-001	 1.2147826569e+000	-2.2066429539e+000
 5.6817383045e-001	 1.2209435820e+000	-2.2169473883e+000
 5.5507763888e-001	 1.2269529411e+000	-2.2253792924e+000
 5.4194356980e-001	 1.2328105430e+000	-2.2318237192e+000
 5.2877416372e-001	 1.2385162512e+000	-2.2362137595e+000
 6.7161197125e-001	 1.1979101196e+000	-2.0837934888e+000
 6.5859977046e-001	 1.2051131424e+000	-2.0930492511e+000
 6.4553070762e-001	 1.2121639687e+000	-2.1023233171e+000
 6.3240738755e-001	 1.2190620592e+000	-2.1109910064e+000
 6.1923241769e-001	 1.2258069327e+000	-2.1187204789e+000
 6.0600840655e-001	 1.2323981657e+000	-2.1252270634e+000
 5.9273796215e-001	 1.2388353924e+000	-2.1302735558e+000
 5.7942369044e-001	 1.2451183039e+000	-2.1336705363e+000
 5.6606819387e-001	 1.2512466486e+000	-2.1352767027e+000
 5.5267406980e-001	 1.2572202312e+000	-2.1349992164e+000
 5.3924390905e-001	 1.2630389125e+000	-2.1327940548e+000
 6.8465170270e-001	 1.2211682313e+000	-2.0509515018e+000
 6.7138686257e-001	 1.2285111049e+000	-2.0512480441e+000
 6.5806405638e-001	 1.2356988270e+000	-2.0540487480e+000
 6.4468593953e-001	 1.2427308479e+000	-2.0564690982e+000
 6.3125517008e-001	 1.2496066770e+000	-2.0579754050e+000
 6.1777440718e-001	 1.2563258826e+000	-2.0583002975e+000
 6.0424630949e-001	 1.2628880917e+000	-2.0572237799e+000
 5.9067353357e-001	 1.2692929896e+000	-2.0545735856e+000
 5.7705873237e-001	 1.2755403196e+000	-2.0502255617e+000
 5.6340455370e-001	 1.2816298827e+000	-2.0441040780e+000
 5.4971363869e-001	 1.2875615371e+000	-2.0361824549e+000
 6.9769141785e-001	 1.2444263139e+000	-2.0243184159e+000
 6.8417393870e-001	 1.2519090382e+000	-2.0158265471e+000
 6.7059738948e-001	 1.2592336560e+000	-2.0104905066e+000
 6.5696447616e-001	 1.2663996071e+000	-2.0072052925e+000
 6.4327790744e-001	 1.2734063916e+000	-2.0031784084e+000
 6.2954039311e-001	 1.2802535696e+000	-1.9980093624e+000
 6.1575464245e-001	 1.2869407610e+000	-1.9914925811e+000
 6.0192336263e-001	 1.2934676450e+000	-1.9834694549e+000
 5.8804925714e-001	 1.2998339602e+000	-1.9738287919e+000
 5.7413502419e-001	 1.3060395037e+000	-1.9625073123e+000
 5.6018335524e-001	 1.3120841310e+000	-1.9494901773e+000
 7.1073111996e-001	 1.2676843733e+000	-2.0081108834e+000
 6.9696100204e-001	 1.2753069481e+000	-1.9917069611e+000
 6.8313071005e-001	 1.2827684614e+000	-1.9782944693e+000
 6.6924300052e-001	 1.2900683426e+000	-1.9677281326e+000
 6.5530063278e-001	 1.2972060824e+000	-1.9586822397e+000
 6.4130636726e-001	 1.3041812327e+000	-1.9485707891e+000
 6.2726296390e-001	 1.3109934062e+000	-1.9371380428e+000
 6.1317318045e-001	 1.3176422763e+000	-1.9242355802e+000
 5.9903977091e-001	 1.3241275766e+000	-1.9097610052e+000
 5.8486548396e-001	 1.3304491003e+000	-1.8936585485e+000
 5.7065306131e-001	 1.3366067004e+000	-1.8758847581e+000
 7.2377081230e-001	 1.2909424153e+000	-2.0065209187e+000
 7.0974805580e-001	 1.2987048405e+000	-1.9831155098e+000
 6.9566402121e-001	 1.3063032492e+000	-1.9624468504e+000
 6.8152151567e-001	 1.3137370603e+000	-1.9443899225e+000
 6.6732334910e-001	 1.3210057554e+000	-1.9289051843e+000
 6.5307233260e-001	 1.3281088778e+000	-1.9142643228e+000
 6.3877127672e-001	 1.3350460334e+000	-1.8982870341e+000
 6.2442298983e-001	 1.3418168895e+000	-1.8808309838e+000
 6.1003027645e-001	 1.3484211747e+000	-1.8616489759e+000
 5.9559593567e-001	 1.3548586787e+000	-1.8405141515e+000
 5.8112275954e-001	 1.3611292514e+000	-1.8172643425e+000
 7.3681049811e-001	 1.3142004456e+000	-2.0237205752e+000
 7.2253510315e-001	 1.3221027211e+000	-1.9942609948e+000
 7.0819732611e-001	 1.3298380252e+000	-1.9671685946e+000
 6.9380002467e-001	 1.3374057663e+000	-1.9424004034e+000
 6.7934605941e-001	 1.3448054164e+000	-1.9201674436e+000
 6.6483829205e-001	 1.3520365110e+000	-1.9003354680e+000
 6.5027958379e-001	 1.3590986486e+000	-1.8804013700e+000
 6.3567279358e-001	 1.3659914906e+000	-1.8585938986e+000
 6.2102077649e-001	 1.3727147607e+000	-1.8346273342e+000
 6.0632638202e-001	 1.3792682448e+000	-1.8082784392e+000
 5.9159245253e-001	 1.3856517902e+000	-1.7793905367e+000
 7.4985018066e-001	 1.3374584701e+000	-2.0639741593e+000
 7.3532214732e-001	 1.3455005959e+000	-2.0301965519e+000
 7.2073062788e-001	 1.3533727953e+000	-1.9987766927e+000
 7.0607853061e-001	 1.3610744663e+000	-1.9693776686e+000
 6.9136876671e-001	 1.3686050715e+000	-1.9417612375e+000
 6.7660424856e-001	 1.3759641382e+000	-1.9157885754e+000
 6.6178788798e-001	 1.3831512578e+000	-1.8912034500e+000
 6.4692259452e-001	 1.3901660856e+000	-1.8650762011e+000
 6.3201127378e-001	 1.3970083406e+000	-1.8362607180e+000
 6.1705682569e-001	 1.4036778048e+000	-1.8045320721e+000
 6.0206214291e-001	 1.4101743228e+000	-1.7697338275e+000
 4.9736480731e-001	 1.1649479851e+000	-2.5574745671e+000
 4.8494494752e-001	 1.1701725973e+000	-2.5875560930e+000
 4.7249659800e-001	 1.1752541932e+000	-2.6156654571e+000
 4.6002212396e-001	 1.1801927979e+000	-2.6419000590e+000
 4.4752387933e-001	 1.1849884863e+000	-2.6663957291e+000
 4.3500420550e-001	 1.1896413827e+000	-2.6893266234e+000
 4.2246543011e-001	 1.1941516598e+000	-2.7109050900e+000
 4.0990986582e-001	 1.1985195382e+000	-2.7313815055e+000
 3.9733980923e-001	 1.2027452861e+000	-2.7510440752e+000
 3.8475753968e-001	 1.2068292178e+000	-2.7702185964e+000
 3.7216531816e-001	 1.2107716938e+000	-2.7892681797e+000
 5.0783461546e-001	 1.1894707936e+000	-2.4514604932e+000
 4.9515331066e-001	 1.1948053868e+000	-2.4706060539e+000
 4.8244291640e-001	 1.1999939531e+000	-2.4877482756e+000
 4.6970584769e-001	 1.2050365182e+000	-2.5030163536e+000
 4.5694450800e-001	 1.2099331586e+000	-2.5165826628e+000
 4.4416128801e-001	 1.2146840010e+000	-2.5286626347e+000
 4.3135856436e-001	 1.2192892220e+000	-2.5395146035e+000
 4.1853869841e-001	 1.2237490467e+000	-2.5494396179e+000
 4.0570403507e-001	 1.2280637489e+000	-2.5587812154e+000
 3.9285690169e-001	 1.2322336498e+000	-2.5679251546e+000
 3.7999960685e-001	 1.2362591171e+000	-2.5772991017e+000
 5.1830440006e-001	 1.2139935469e+000	-2.3434170675e+000
 5.0536165083e-001	 1.2194381209e+000	-2.3534766480e+000
 4.9238921242e-001	 1.2247336574e+000	-2.3616626865e+000
 4.7938954962e-001	 1.2298801827e+000	-2.3681353639e+000
 4.6636511547e-001	 1.2348777747e+000	-2.3731019475e+000
 4.5331834992e-001	 1.2397265631e+000	-2.3768166725e+000
 4.4025167860e-001	 1.2444267276e+000	-2.3795805924e+000
 4.2716751158e-001	 1.2489784985e+000	-2.3817413932e+000
 4.1406824210e-001	 1.2533821548e+000	-2.3836931693e+000
 4.0095624548e-001	 1.2576380245e+000	-2.3858761536e+000
 3.8783387790e-001	 1.2617464830e+000	-2.3887763997e+000
 5.2877416372e-001	 1.2385162512e+000	-2.2362137595e+000
 5.1556997059e-001	 1.2440708057e+000	-2.2387039915e+000
 5.0233548855e-001	 1.2494733122e+000	-2.2395700848e+000
 4.8907323219e-001	 1.2547237974e+000	-2.2390021527e+000
 4.7578570410e-001	 1.2598223410e+000	-2.2372404815e+000
 4.6247539351e-001	 1.2647690750e+000	-2.2345754407e+000
 4.4914477506e-001	 1.2695641830e+000	-2.2313473622e+000
 4.3579630749e-001	 1.2742078998e+000	-2.2279463864e+000
 4.2243243239e-001	 1.2787005101e+000	-2.2248122659e+000
 4.0905557307e-001	 1.2830423485e+000	-2.2224341252e+000
 3.9566813330e-001	 1.2872337979e+000	-2.2213501692e+000
 5.3924390905e-001	 1.2630389125e+000	-2.1327940548e+000
 5.2577827248e-001	 1.2687034474e+000	-2.1289156707e+000
 5.1228174727e-001	 1.2742129237e+000	-2.1237438567e+000
 4.9875689782e-001	 1.2795673687e+000	-2.1174973517e+000
 4.8520627624e-001	 1.2847668636e+000	-2.1104473526e+000
 4.7163242108e-001	 1.2898115431e+000	-2.1029174776e+000
 4.5803785596e-001	 1.2947015944e+000	-2.0952837029e+000
 4.4442508830e-001	 1.2994372569e+000	-2.0879742659e+000
 4.3079660805e-001	 1.3040188211e+000	-2.0814695293e+000
 4.1715488648e-001	 1.3084466280e+000	-2.0763017999e+000
 4.0350237498e-001	 1.3127210682e+000	-2.0730550957e+000
 5.4971363869e-001	 1.2875615371e+000	-2.0361824549e+000
 5.3598655906e-001	 1.2933360522e+000	-2.0268359572e+000
 5.2222799108e-001	 1.2989524981e+000	-2.0165725362e+000
 5.0844054892e-001	 1.3044109027e+000	-2.0056379846e+000
 4.9462683425e-001	 1.3097113488e+000	-1.9943320521e+000
 4.8078943491e-001	 1.3148539736e+000	-1.9830084875e+000
 4.6693092352e-001	 1.3198389681e+000	-1.9720750599e+000
 4.5305385617e-001	 1.3246665762e+000	-1.9619935501e+000
 4.3916077117e-001	 1.3293370941e+000	-1.9532797047e+000
 4.2525418775e-001	 1.3338508694e+000	-1.9464995233e+000
 4.1133660491e-001	 1.3382083003e+000	-1.9419868710e+000
 5.6018335524e-001	 1.3120841310e+000	-1.9494901773e+000
 5.4619483288e-001	 1.3179686261e+000	-1.9352899282e+000
 5.3217422245e-001	 1.3236920416e+000	-1.9205621041e+000
 5.1812418791e-001	 1.3292544057e+000	-1.9055777035e+000
 5.0404738049e-001	 1.3346558028e+000	-1.8906488564e+000
 4.8994643730e-001	 1.3398963729e+000	-1.8758467786e+000
 4.7582397996e-001	 1.3449763104e+000	-1.8614314404e+000
 4.6168261326e-001	 1.3498958639e+000	-1.8478473477e+000
 4.4752492382e-001	 1.3546553354e+000	-1.8356141470e+000
 4.3335347890e-001	 1.3592550790e+000	-1.8253262254e+000
 4.1917082505e-001	 1.3636955006e+000	-1.8176520053e+000
 5.7065306131e-001	 1.3366067004e+000	-1.8758847581e+000
 5.5640309649e-001	 1.3426011755e+000	-1.8568681260e+000
 5.4212044388e-001	 1.3484315603e+000	-1.8372799800e+000
 5.2780781723e-001	 1.3540978838e+000	-1.8173087408e+000
 5.1346791731e-001	 1.3596002319e+000	-1.7972196936e+000
 4.9910343053e-001	 1.3649387471e+000	-1.7773559807e+000
 4.8471702751e-001	 1.3701136275e+000	-1.7581392209e+000
 4.7031136171e-001	 1.3751251265e+000	-1.7400697641e+000
 4.5588906812e-001	 1.3799735514e+000	-1.7237265865e+000
 4.4145276194e-001	 1.3846592633e+000	-1.7097668379e+000
 4.2700503735e-001	 1.3891826753e+000	-1.6989250519e+000
 5.8112275954e-001	 1.3611292514e+000	-1.8172643425e+000
 5.6661135245e-001	 1.3672337064e+000	-1.7925864593e+000
 5.5206665785e-001	 1.3731710605e+000	-1.7673633732e+000
 5.3749143928e-001	 1.3789413433e+000	-1.7418255975e+000
 5.2288844706e-001	 1.3845446423e+000	-1.7162836932e+000
 5.0826041690e-001	 1.3899811025e+000	-1.6911293630e+000
 4.9361006839e-001	 1.3952509258e+000	-1.6668361352e+000
 4.7894010370e-001	 1.4003543701e+000	-1.6439596418e+000
 4.6425320614e-001	 1.4052917485e+000	-1.6231375015e+000
 4.4955203891e-001	 1.4100634284e+000	-1.6050888174e+000
 4.3483924378e-001	 1.4146698310e+000	-1.5906133039e+000
 5.9159245253e-001	 1.3856517902e+000	-1.7793905367e+000
 5.7681960330e-001	 1.3918662249e+000	-1.7488277297e+000
 5.6201286685e-001	 1.3979105484e+000	-1.7176735339e+000
 5.4717505649e-001	 1.4037847904e+000	-1.6862003481e+000
 5.3230897211e-001	 1.4094890402e+000	-1.6547637061e+000
 5.1741739869e-001	 1.4150234454e+000	-1.6238034893e+000
 5.0250310483e-001	 1.4203882115e+000	-1.5938446861e+000
 4.8756884137e-001	 1.4255836011e+000	-1.5654977032e+000
 4.7261733998e-001	 1.4306099329e+000	-1.5394582412e+000
 4.5765131184e-001	 1.4354675809e+000	-1.5165067451e+000
 4.4267344629e-001	 1.4401569739e+000	-1.4975074465e+000
 6.0206214291e-001	 1.4101743228e+000	-1.7697338275e+000
 5.8702785160e-001	 1.4164987373e+000	-1.7329096957e+000
 5.7195907336e-001	 1.4226500300e+000	-1.6953495082e+000
 5.5685867128e-001	 1.4286282313e+000	-1.6573670790e+000
 5.4172949480e-001	 1.4344334318e+000	-1.6193624267e+000
 5.2657437818e-001	 1.4400657820e+000	-1.5818231215e+000
 5.1139613904e-001	 1.4455254909e+000	-1.5453251311e+000
 4.9619757688e-001	 1.4508128258e+000	-1.5105331741e+000
 4.8098147173e-001	 1.4559281109e+000	-1.4782005916e+000
 4.6575058273e-001	 1.4608717271e+000	-1.4491687518e+000
 4.5050764685e-001	 1.4656441104e+000	-1.4243660039e+000
 3.7216531816e-001	 1.2107716938e+000	-2.7892681797e+000
 3.5956538610e-001	 1.2145731190e+000	-2.8065614929e+000
 3.4695996377e-001	 1.2182339414e+000	-2.8206598967e+000
 3.3435124988e-001	 1.2217546522e+000	-2.8322602083e+000
 3.2174142079e-001	 1.2251357850e+000	-2.8420812296e+000
 3.0913262957e-001	 1.2283779150e+000	-2.8508630892e+000
 2.9652700510e-001	 1.2314816584e+000	-2.8593665564e+000
 2.8392665122e-001	 1.2344476710e+000	-2.8683723238e+000
 2.7133364591e-001	 1.2372766476e+000	-2.8786802580e+000
 2.5875004047e-001	 1.2399693210e+000	-2.8911086154e+000
 2.4617785878e-001	 1.2425264611e+000	-2.9064932232e+000
 3.7999960685e-001	 1.2362591171e+000	-2.5772991017e+000
 3.6713443915e-001	 1.2401405644e+000	-2.5849975362e+000
 3.5426366561e-001	 1.2438784492e+000	-2.5893376841e+000
 3.4138953122e-001	 1.2474732729e+000	-2.5911298317e+000
 3.2851425815e-001	 1.2509255804e+000	-2.5912067570e+000
 3.1564004480e-001	 1.2542359591e+000	-2.5904230201e+000
 3.0276906487e-001	 1.2574050380e+000	-2.5896542251e+000
 2.8990346648e-001	 1.2604334868e+000	-2.5897962509e+000
 2.7704537134e-001	 1.2633220150e+000	-2.5917644484e+000
 2.6419687395e-001	 1.2660713707e+000	-2.5964928019e+000
 2.5136004078e-001	 1.2686823400e+000	-2.6049330529e+000
 3.8783387790e-001	 1.2617464830e+000	-2.3887763997e+000
 3.7470347516e-001	 1.2657079522e+000	-2.3901368939e+000
 3.6156735101e-001	 1.2695228992e+000	-2.3879471532e+000
 3.4842779672e-001	 1.2731918357e+000	-2.3831153275e+000
 3.3528708028e-001	 1.2767153178e+000	-2.3765731936e+000
 3.2214744540e-001	 1.2800939450e+000	-2.3692754151e+000
 3.0901111059e-001	 1.2833283593e+000	-2.3621987722e+000
 2.9588026828e-001	 1.2864192442e+000	-2.3563413586e+000
 2.8275708392e-001	 1.2893673238e+000	-2.3527217415e+000
 2.6964369517e-001	 1.2921733617e+000	-2.3523780835e+000
 2.5654221113e-001	 1.2948381601e+000	-2.3563672235e+000
 3.9566813330e-001	 1.2872337979e+000	-2.2213501692e+000
 3.8227249605e-001	 1.2912752890e+000	-2.2189012918e+000
 3.6887102181e-001	 1.2951672980e+000	-2.2126927307e+000
 3.5546604815e-001	 1.2989103471e+000	-2.2037152789e+000
 3.4205988886e-001	 1.3025050036e+000	-2.1929851014e+000
 3.2865483298e-001	 1.3059518792e+000	-2.1815429868e+000
 3.1525314384e-001	 1.3092516287e+000	-2.1704535659e+000
 3.0185705814e-001	 1.3124049496e+000	-2.1608044938e+000
 2.8846878507e-001	 1.3154125805e+000	-2.1537055911e+000
 2.7509050550e-001	 1.3182753004e+000	-2.1502879424e+000
 2.6172437110e-001	 1.3209939278e+000	-2.1517029481e+000
 4.0350237498e-001	 1.3127210682e+000	-2.0730550957e+000
 3.8984150368e-001	 1.3168425809e+000	-2.0686422118e+000
 3.7617467983e-001	 1.3208116519e+000	-2.0602524032e+000
 3.6250428726e-001	 1.3246288135e+000	-2.0489442006e+000
 3.4883268559e-001	 1.3282946443e+000	-2.0358038447e+000
 3.3516220917e-001	 1.3318097681e+000	-2.0219445530e+000
 3.2149516616e-001	 1.3351748528e+000	-2.0084485159e+000
 3.0783383753e-001	 1.3383906095e+000	-1.9962252812e+000
 2.9418047623e-001	 1.3414577916e+000	-1.9864680246e+000
 2.8053730629e-001	 1.3443771935e+000	-1.9804353795e+000
 2.6690652201e-001	 1.3471496498e+000	-1.9794135484e+000
 4.1133660491e-001	 1.3382083003e+000	-1.9419868710e+000
 3.9741049996e-001	 1.3424098346e+000	-1.9360382986e+000
 3.8347832689e-001	 1.3464559673e+000	-1.9254273443e+000
 3.6954251581e-001	 1.3503472413e+000	-1.9112888260e+000
 3.5560547216e-001	 1.3540842463e+000	-1.8948011669e+000
 3.4166957560e-001	 1.3576676183e+000	-1.8771843875e+000
 3.2773717911e-001	 1.3610980380e+000	-1.8596979483e+000
 3.1381060796e-001	 1.3643762305e+000	-1.8436384599e+000
 2.9989215883e-001	 1.3675029637e+000	-1.8303372761e+000
 2.8598409892e-001	 1.3704790474e+000	-1.8211579870e+000
 2.7208866515e-001	 1.3733053326e+000	-1.8174938278e+000
 4.1917082505e-001	 1.3636955006e+000	-1.8176520053e+000
 4.0497948679e-001	 1.3679770563e+000	-1.8086893376e+000
 3.9078196482e-001	 1.3721002507e+000	-1.7948374678e+000
 3.7658073557e-001	 1.3760656369e+000	-1.7773091929e+000
 3.6237825026e-001	 1.3798738161e+000	-1.7573653900e+000
 3.4817693390e-001	 1.3835254361e+000	-1.7363127519e+000
 3.3397918427e-001	 1.3870211908e+000	-1.7155013550e+000
 3.1978737092e-001	 1.3903618190e+000	-1.6963220765e+000
 3.0560383428e-001	 1.3935481032e+000	-1.6802038803e+000
 2.9143088474e-001	 1.3965808687e+000	-1.6686109896e+000
 2.7727080181e-001	 1.3994609826e+000	-1.6630399660e+000
 4.2700503735e-001	 1.3891826753e+000	-1.6989250519e+000
 4.1254846604e-001	 1.3935442524e+000	-1.6869646829e+000
 3.9808559545e-001	 1.3977445084e+000	-1.6699489442e+000
 3.8361894829e-001	 1.4017840069e+000	-1.6491608194e+000
 3.6915102159e-001	 1.4056633601e+000	-1.6259366136e+000
 3.5468428569e-001	 1.4093832281e+000	-1.6016634154e+000
 3.4022118318e-001	 1.4129443177e+000	-1.5777763685e+000
 3.2576412790e-001	 1.4163473815e+000	-1.5557557728e+000
 3.1131550402e-001	 1.4195932166e+000	-1.5371240361e+000
 2.9687766511e-001	 1.4226826639e+000	-1.5234424995e+000
 2.8245293328e-001	 1.4256166065e+000	-1.5163081551e+000
 4.3483924378e-001	 1.4146698310e+000	-1.5906133039e+000
 4.2011743962e-001	 1.4191114293e+000	-1.5752014354e+000
 4.0538922061e-001	 1.4233887469e+000	-1.5546373642e+000
 3.9065715573e-001	 1.4275023575e+000	-1.5302671745e+000
 3.7592378784e-001	 1.4314528847e+000	-1.5034963051e+000
 3.6119163260e-001	 1.4352410007e+000	-1.4757867167e+000
 3.4646317741e-001	 1.4388674251e+000	-1.4486538432e+000
 3.3174088040e-001	 1.4423329245e+000	-1.4236633500e+000
 3.1702716948e-001	 1.4456383106e+000	-1.4024277239e+000
 3.0232444140e-001	 1.4487844395e+000	-1.3866027177e+000
 2.8763506087e-001	 1.4517722108e+000	-1.3778836760e+000
 4.4267344629e-001	 1.4401569739e+000	-1.4975074465e+000
 4.2768640941e-001	 1.4446785935e+000	-1.4777564369e+000
 4.1269284211e-001	 1.4490329726e+000	-1.4528331939e+000
 3.9769535965e-001	 1.4532206953e+000	-1.4241405077e+000
 3.8269655071e-001	 1.4572423965e+000	-1.3931473756e+000
 3.6769897626e-001	 1.4610987603e+000	-1.3613858513e+000
 3.5270516852e-001	 1.4647905196e+000	-1.3304476491e+000
 3.3771762992e-001	 1.4683184545e+000	-1.3019805302e+000
 3.2273883208e-001	 1.4716833915e+000	-1.2776844975e+000
 3.0777121496e-001	 1.4748862021e+000	-1.2593078264e+000
 2.9281718587e-001	 1.4779278020e+000	-1.2486429606e+000
 4.5050764685e-001	 1.4656441104e+000	-1.4243660039e+000
 4.3525537731e-001	 1.4702457512e+000	-1.3989886627e+000
 4.1999646178e-001	 1.4746771918e+000	-1.3685021490e+000
 4.0473356181e-001	 1.4789390267e+000	-1.3343602433e+000
 3.8946931188e-001	 1.4830319018e+000	-1.2980906371e+000
 3.7420631829e-001	 1.4869565135e+000	-1.2612914378e+000
 3.5894715807e-001	 1.4907136076e+000	-1.2256273970e+000
 3.4369437793e-001	 1.4943039780e+000	-1.1928258905e+000
 3.2845049326e-001	 1.4977284659e+000	-1.1646726838e+000
 3.1321798717e-001	 1.5009879582e+000	-1.1430075107e+000
 2.9799930958e-001	 1.5040833867e+000	-1.1297194985e+000
 2.4617785878e-001	 1.2425264611e+000	-2.9064932232e+000
 2.3362097874e-001	 1.2449485205e+000	-2.9212485291e+000
 2.2107947735e-001	 1.2472367342e+000	-2.9318932554e+000
 2.0855528842e-001	 1.2493919777e+000	-2.9394212334e+000
 1.9605031575e-001	 1.2514151596e+000	-2.9448212594e+000
 1.8356643257e-001	 1.2533072201e+000	-2.9490763921e+000
 1.7110548102e-001	 1.2550691308e+000	-2.9531632393e+000
 1.5866927164e-001	 1.2567018928e+000	-2.9580512323e+000
 1.4625958289e-001	 1.2582065363e+000	-2.9647018888e+000
 1.3387816074e-001	 1.2595841192e+000	-2.9740680634e+000
 1.2152671826e-001	 1.2608357263e+000	-2.9870931868e+000
 2.5136004078e-001	 1.2686823400e+000	-2.6049330529e+000
 2.3853883137e-001	 1.2711553851e+000	-2.6130495025e+000
 2.2573332434e-001	 1.2734917670e+000	-2.6169166592e+000
 2.1294549421e-001	 1.2756923796e+000	-2.6176551553e+000
 2.0017728485e-001	 1.2777581506e+000	-2.6163791382e+000
 1.8743060893e-001	 1.2796900401e+000	-2.6141955153e+000
 1.7470734737e-001	 1.2814890399e+000	-2.6122031862e+000
 1.6200934880e-001	 1.2831561725e+000	-2.6114922613e+000
 1.4933842914e-001	 1.2846924896e+000	-2.6131432677e+000
 1.3669637111e-001	 1.2860990714e+000	-2.6182263404e+000
 1.2408492384e-001	 1.2873770255e+000	-2.6278004015e+000
 2.5654221113e-001	 1.2948381601e+000	-2.3563672235e+000
 2.4345667294e-001	 1.2973621908e+000	-2.3601663586e+000
 2.3038716087e-001	 1.2997467407e+000	-2.3593697343e+000
 2.1733569013e-001	 1.3019927223e+000	-2.3552156813e+000
 2.0430424467e-001	 1.3041010823e+000	-2.3489357766e+000
 1.9129477660e-001	 1.3060728006e+000	-2.3417540304e+000
 1.7830920561e-001	 1.3079088896e+000	-2.3348860568e+000
 1.6534941845e-001	 1.3096103927e+000	-2.3295382286e+000
 1.5241726847e-001	 1.3111783833e+000	-2.3269068144e+000
 1.3951457514e-001	 1.3126139639e+000	-2.3281770981e+000
 1.2664312367e-001	 1.3139182650e+000	-2.3345224823e+000
 2.6172437110e-001	 1.3209939278e+000	-2.1517029481e+000
 2.4837450467e-001	 1.3235689440e+000	-2.1529146903e+000
 2.3504098809e-001	 1.3260016620e+000	-2.1490118580e+000
 2.2172587726e-001	 1.3282930124e+000	-2.1413416217e+000
 2.0843119624e-001	 1.3304439613e+000	-2.1312452856e+000
 1.9515893654e-001	 1.3324555085e+000	-2.1200574134e+000
 1.8191105664e-001	 1.3343286865e+000	-2.1090868051e+000
 1.6868948142e-001	 1.3360645600e+000	-2.0995789160e+000
 1.5549610164e-001	 1.3376642240e+000	-2.0928634456e+000
 1.4233277354e-001	 1.3391288034e+000	-2.0902696086e+000
 1.2920131837e-001	 1.3404594514e+000	-2.0931120641e+000
 2.6690652201e-001	 1.3471496498e+000	-1.9794135484e+000
 2.5329232780e-001	 1.3497756514e+000	-1.9778918797e+000
 2.3969480716e-001	 1.3522565372e+000	-1.9704942837e+000
 2.2611605672e-001	 1.3545932565e+000	-1.9587254050e+000
 2.1255814058e-001	 1.3567867943e+000	-1.9440857516e+000
 1.9902308972e-001	 1.3588381701e+000	-1.9280695648e+000
 1.8551290138e-001	 1.3607484371e+000	-1.9121627299e+000
 1.7202953854e-001	 1.3625186809e+000	-1.8978407373e+000
 1.5857492942e-001	 1.3641500184e+000	-1.8865667052e+000
 1.4515096700e-001	 1.3656435965e+000	-1.8797894737e+000
 1.3175950861e-001	 1.3670005914e+000	-1.8789417770e+000
 2.7208866515e-001	 1.3733053326e+000	-1.8174938278e+000
 2.5821014355e-001	 1.3759823195e+000	-1.8133303028e+000
 2.4434861925e-001	 1.3785113731e+000	-1.8027937561e+000
 2.3050622959e-001	 1.3808934612e+000	-1.7875086546e+000
 2.1668507874e-001	 1.3831295877e+000	-1.7690963160e+000
 2.0288723710e-001	 1.3852207922e+000	-1.7491724463e+000
 1.8911474071e-001	 1.3871681481e+000	-1.7293447216e+000
 1.7536959065e-001	 1.3889727622e+000	-1.7112104267e+000
 1.6165375258e-001	 1.3906357731e+000	-1.6963541633e+000
 1.4796915623e-001	 1.3921583499e+000	-1.6863456364e+000
 1.3431769500e-001	 1.3935416916e+000	-1.6827375322e+000
 2.7727080181e-001	 1.3994609826e+000	-1.6630399660e+000
 2.6312795315e-001	 1.4021889548e+000	-1.6569804126e+000
 2.4900242552e-001	 1.4047661762e+000	-1.6440692583e+000
 2.3489639697e-001	 1.4071936330e+000	-1.6260481714e+000
 2.2081201173e-001	 1.4094723482e+000	-1.6046575046e+000
 2.0675137966e-001	 1.4116033813e+000	-1.5816334597e+000
 1.9271657554e-001	 1.4135878261e+000	-1.5587053003e+000
 1.7870963858e-001	 1.4154268105e+000	-1.5375926254e+000
 1.6473257189e-001	 1.4171214946e+000	-1.5200027208e+000
 1.5078734195e-001	 1.4186730700e+000	-1.5076279973e+000
 1.3687587820e-001	 1.4200827586e+000	-1.5021435306e+000
 2.8245293328e-001	 1.4256166065e+000	-1.5163081551e+000
 2.6804575784e-001	 1.4283955639e+000	-1.5087312476e+000
 2.5365622715e-001	 1.4310209530e+000	-1.4938759247e+000
 2.3928655996e-001	 1.4334937784e+000	-1.4735992296e+000
 2.2493894060e-001	 1.4358150824e+000	-1.4497595494e+000
 2.1061551834e-001	 1.4379859440e+000	-1.4242133633e+000
 1.9631840676e-001	 1.4400074777e+000	-1.3988120416e+000
 1.8204968318e-001	 1.4418808323e+000	-1.3753987117e+000
 1.6781138813e-001	 1.4436071897e+000	-1.3558052065e+000
 1.5360552484e-001	 1.4451877637e+000	-1.3418491107e+000
 1.3943405884e-001	 1.4466237990e+000	-1.3353309187e+000
 2.8763506087e-001	 1.4517722108e+000	-1.3778836760e+000
 2.7296355883e-001	 1.4546021534e+000	-1.3688260743e+000
 2.5831002528e-001	 1.4572757102e+000	-1.3521458541e+000
 2.4367671966e-001	 1.4597939042e+000	-1.3298144164e+000
 2.2906586638e-001	 1.4621577968e+000	-1.3038079728e+000
 2.1447965413e-001	 1.4643684869e+000	-1.2761038317e+000
 1.9992023529e-001	 1.4664271094e+000	-1.2486767365e+000
 1.8538972527e-001	 1.4683348342e+000	-1.2234952759e+000
 1.7089020205e-001	 1.4700928649e+000	-1.2025183834e+000
 1.5642370563e-001	 1.4717024375e+000	-1.1876919437e+000
 1.4199223756e-001	 1.4731648196e+000	-1.1809455217e+000
 2.9281718587e-001	 1.4779278020e+000	-1.2486429606e+000
 2.7788135737e-001	 1.4808087297e+000	-1.2378227443e+000
 2.6296382108e-001	 1.4835304542e+000	-1.2191469375e+000
 2.4806687716e-001	 1.4860940168e+000	-1.1947011088e+000
 2.3319279009e-001	 1.4885004981e+000	-1.1665798965e+000
 2.1834378799e-001	 1.4907510167e+000	-1.1368827830e+000
 2.0352206201e-001	 1.4928467280e+000	-1.1077099231e+000
 1.8872976570e-001	 1.4947888229e+000	-1.0811580479e+000
 1.7396901444e-001	 1.4965785268e+000	-1.0593164653e+000
 1.5924188500e-001	 1.4982170980e+000	-1.0442631758e+000
 1.4455041500e-001	 1.4997058268e+000	-1.0380611241e+000
 2.9799930958e-001	 1.5040833867e+000	-1.1297194985e+000
 2.8279915468e-001	 1.5070152995e+000	-1.1165580924e+000
 2.6761761573e-001	 1.5097851916e+000	-1.0954459047e+000
 2.5245703357e-001	 1.5123941228e+000	-1.0685833276e+000
 2.3731971277e-001	 1.5148431927e+000	-1.0381848627e+000
 2.2220792089e-001	 1.5171335398e+000	-1.0064743308e+000
 2.0712388784e-001	 1.5192663399e+000	-9.7568013703e-001
 1.9206980528e-001	 1.5212428050e+000	-9.4803061439e-001
 1.7704782606e-001	 1.5230641822e+000	-9.2574947142e-001
 1.6206006367e-001	 1.5247317519e+000	-9.1105136535e-001
 1.4710859180e-001	 1.5262468275e+000	-9.0613762186e-001
 1.2152671826e-001	 1.2608357263e+000	-2.9870931868e+000
 1.0920509388e-001	 1.2619626278e+000	-3.0007827416e+000
 9.6916810941e-002	 1.2629657625e+000	-3.0121337311e+000
 8.4663507302e-002	 1.2638462899e+000	-3.0220567151e+000
 7.2446785896e-002	 1.2646053925e+000	-3.0314360515e+000
 6.0268214518e-002	 1.2652442741e+000	-3.0411295585e+000
 4.8129325638e-002	 1.2657641593e+000	-3.0519681811e+000
 3.6031616237e-002	 1.2661662922e+000	-3.0647556601e+000
 2.3976547683e-002	 1.2664519353e+000	-3.0802682077e+000
 1.1965545641e-002	 1.2666223687e+000	-3.0992541885e+000
 0.0000000000e+000	 1.2666788891e+000	-3.1224339300e+000
 1.2408492384e-001	 1.2873770255e+000	-2.6278004015e+000
 1.1150392235e-001	 1.2885276489e+000	-2.6384386170e+000
 9.8956964168e-002	 1.2895519001e+000	-2.6466997458e+000
 8.6445721615e-002	 1.2904509632e+000	-2.6535935009e+000
 7.3971831370e-002	 1.2912260453e+000	-2.6600971610e+000
 6.1536894235e-002	 1.2918783757e+000	-2.6671553062e+000
 4.9142474935e-002	 1.2924092048e+000	-2.6756795596e+000
 3.6790101965e-002	 1.2928198028e+000	-2.6865483320e+000
 2.4481267458e-002	 1.2931114588e+000	-2.7006065738e+000
 1.2217427086e-002	 1.2932854800e+000	-2.7186655324e+000
 0.0000000000e+000	 1.2933431901e+000	-2.7415025558e+000
 1.2664312367e-001	 1.3139182650e+000	-2.3345224823e+000
 1.1380274566e-001	 1.3150926103e+000	-2.3419762768e+000
 1.0099711281e-001	 1.3161379780e+000	-2.3465584275e+000
 8.8227931917e-002	 1.3170555766e+000	-2.3493895521e+000
 7.5496873414e-002	 1.3178466382e+000	-2.3515534604e+000
 6.2805571096e-002	 1.3185124174e+000	-2.3540969055e+000
 5.0155621952e-002	 1.3190541903e+000	-2.3580293374e+000
 3.7548585987e-002	 1.3194732534e+000	-2.3643226611e+000
 2.4985986097e-002	 1.3197709224e+000	-2.3739109999e+000
 1.2469307965e-002	 1.3199485313e+000	-2.3876904642e+000
 0.0000000000e+000	 1.3200074312e+000	-2.4065189408e+000
 1.2920131837e-001	 1.3404594514e+000	-2.0931120641e+000
 1.1610156436e-001	 1.3416575185e+000	-2.0968287316e+000
 1.0303725736e-001	 1.3427240027e+000	-2.0968478943e+000
 9.0010138656e-002	 1.3436601368e+000	-2.0944280550e+000
 7.7021912407e-002	 1.3444671778e+000	-2.0907839260e+000
 6.4074245421e-002	 1.3451464058e+000	-2.0870860812e+000
 5.1168766943e-002	 1.3456991226e+000	-2.0844607225e+000
 3.8307068493e-002	 1.3461266508e+000	-2.0839895598e+000
 2.5490703727e-002	 1.3464303327e+000	-2.0867098048e+000
 1.2721188341e-002	 1.3466115292e+000	-2.0936142773e+000
 0.0000000000e+000	 1.3466716190e+000	-2.1056516371e+000
 1.3175950861e-001	 1.3670005914e+000	-1.8789417770e+000
 1.1840037905e-001	 1.3682223803e+000	-1.8787904300e+000
 1.0507739835e-001	 1.3693099808e+000	-1.8741031489e+000
 9.1792342276e-002	 1.3702646504e+000	-1.8662663652e+000
 7.8546948732e-002	 1.3710876709e+000	-1.8566184418e+000
 6.5342917526e-002	 1.3717803477e+000	-1.8464491753e+000
 5.2181910162e-002	 1.3723440082e+000	-1.8369994303e+000
 3.9065549671e-002	 1.3727800015e+000	-1.8294609051e+000
 2.5995420473e-002	 1.3730896963e+000	-1.8249760297e+000
 1.2973068276e-002	 1.3732744805e+000	-1.8246379945e+000
 0.0000000000e+000	 1.3733357600e+000	-1.8294909232e+000
 1.3431769500e-001	 1.3935416916e+000	-1.6827375322e+000
 1.2069919028e-001	 1.3947872022e+000	-1.6795979464e+000
 1.0711753628e-001	 1.3958959191e+000	-1.6710113838e+000
 9.3574543223e-002	 1.3968691242e+000	-1.6585033511e+000
 8.0071982770e-002	 1.3977081241e+000	-1.6435482157e+000
 6.6611587728e-002	 1.3984142495e+000	-1.6275684889e+000
 5.3195051861e-002	 1.3989888539e+000	-1.6119342606e+000
 3.9824029712e-002	 1.3994333122e+000	-1.5979627837e+000
 2.6500136463e-002	 1.3997490199e+000	-1.5869182099e+000
 1.3224947833e-002	 1.3999373918e+000	-1.5800114766e+000
 0.0000000000e+000	 1.3999998611e+000	-1.5784003581e+000
 1.3687587820e-001	 1.4200827586e+000	-1.5021435306e+000
 1.2299799864e-001	 1.4213519908e+000	-1.4969135964e+000
 1.0915767165e-001	 1.4224818242e+000	-1.4853389739e+000
 9.5356741943e-002	 1.4234735646e+000	-1.4690952820e+000
 8.1597014902e-002	 1.4243285440e+000	-1.4498050646e+000
 6.7880256345e-002	 1.4250481181e+000	-1.4290367866e+000
 5.4208192294e-002	 1.4256336662e+000	-1.4083039990e+000
 4.0582508805e-002	 1.4260865896e+000	-1.3890646757e+000
 2.7004851823e-002	 1.4264083102e+000	-1.3727207212e+000
 1.3476827075e-002	 1.4266002698e+000	-1.3606176510e+000
 0.0000000000e+000	 1.4266639289e+000	-1.3540444589e+000
 1.3943405884e-001	 1.4466237990e+000	-1.3353309187e+000
 1.2529680471e-001	 1.4479167530e+000	-1.3289269168e+000
 1.1119780499e-001	 1.4490677026e+000	-1.3153742182e+000
 9.7138938881e-002	 1.4500779785e+000	-1.2965095557e+000
 8.3122045509e-002	 1.4509489372e+000	-1.2741157187e+000
 6.9148923693e-002	 1.4516819601e+000	-1.2499201901e+000
 5.5221331714e-002	 1.4522784520e+000	-1.2255939749e+000
 4.1340987140e-002	 1.4527398403e+000	-1.2027506199e+000
 2.7509566677e-002	 1.4530675738e+000	-1.1829454285e+000
 1.3728706065e-002	 1.4532631212e+000	-1.1676748698e+000
 0.0000000000e+000	 1.4533279700e+000	-1.1583761989e+000
 1.4199223756e-001	 1.4731648196e+000	-1.1809455217e+000
 1.2759560905e-001	 1.4744814952e+000	-1.1743027419e+000
 1.1323793680e-001	 1.4756535611e+000	-1.1598762736e+000
 9.8921134482e-002	 1.4766823725e+000	-1.1396750032e+000
 8.4647074973e-002	 1.4775693105e+000	-1.1156540052e+000
 7.0417590090e-002	 1.4783157820e+000	-1.0897127503e+000
 5.6234470375e-002	 1.4789232177e+000	-1.0636935259e+000
 4.2099464907e-002	 1.4793930711e+000	-1.0393800718e+000
 2.8014281154e-002	 1.4797268175e+000	-1.0184964350e+000
 1.3980584867e-002	 1.4799259525e+000	-1.0027060427e+000
 0.0000000000e+000	 1.4799919911e+000	-9.9361101367e-001
 1.4455041500e-001	 1.4997058268e+000	-1.0380611241e+000
 1.2989441224e-001	 1.5010462241e+000	-1.0321347935e+000
 1.1527806759e-001	 1.5022394064e+000	-1.0180295137e+000
 1.0070332919e-001	 1.5032867531e+000	-9.9793747257e-001
 8.6172103675e-002	 1.5041896705e+000	-9.7399811452e-001
 7.1686255854e-002	 1.5049495907e+000	-9.4829584690e-001
 5.7247608530e-002	 1.5055679701e+000	-9.2285798212e-001
 4.2857942294e-002	 1.5060462885e+000	-8.9965292026e-001
 2.8518995379e-002	 1.5063860478e+000	-8.8058857579e-001
 1.4232463543e-002	 1.5065887705e+000	-8.6751105021e-001
 0.0000000000e+000	 1.5066559989e+000	-8.6220357047e-001
 1.4710859180e-001	 1.5262468275e+000	-9.0613762186e-001
 1.3219321486e-001	 1.5276109464e+000	-9.0190411395e-001
 1.1731819787e-001	 1.5288252450e+000	-8.8940265239e-001
 1.0248552346e-001	 1.5298911271e+000	-8.7102005210e-001
 8.7697131996e-002	 1.5308100238e+000	-8.4909232857e-001
 7.2954921301e-002	 1.5315833927e+000	-8.2590182850e-001
 5.8260746432e-002	 1.5322127159e+000	-8.0367462130e-001
 4.3616419493e-002	 1.5326994993e+000	-7.8457815804e-001
 2.9023709478e-002	 1.5330452715e+000	-7.7071920232e-001
 1.4484342157e-002	 1.5332515818e+000	-7.6414203620e-001
 0.0000000000e+000	 1.5333200000e+000	-7.6682696239e-001
 1.5333200000e+000	 0.0000000000e+000	 3.7934289960e+000
 1.5332515818e+000	 1.4484342157e-002	 3.7847248731e+000
 1.5330452715e+000	 2.9023709478e-002	 3.7754582562e+000
 1.5326994993e+000	 4.3616419493e-002	 3.7650859956e+000
 1.5322127159e+000	 5.8260746432e-002	 3.7530305388e+000
 1.5315833927e+000	 7.2954921301e-002	 3.7386797281e+000
 1.5308100238e+000	 8.7697131996e-002	 3.7213868974e+000
 1.5298911271e+000	 1.0248552346e-001	 3.7004712685e+000
 1.5288252450e+000	 1.1731819787e-001	 3.6752186461e+000
 1.5276109464e+000	 1.3219321486e-001	 3.6448824098e+000
 1.5262468275e+000	 1.4710859180e-001	 3.6086847992e+000
 1.5599880000e+000	 0.0000000000e+000	 3.8040003584e+000
 1.5599183919e+000	 1.4736258546e-002	 3.7859959950e+000
 1.5597084933e+000	 2.9528499270e-002	 3.7683333809e+000
 1.5593567074e+000	 4.4375010443e-002	 3.7504162155e+000
 1.5588614576e+000	 5.9274036279e-002	 3.7316065005e+000
 1.5582211890e+000	 7.4223777015e-002	 3.7112245448e+000
 1.5574343695e+000	 8.9222389032e-002	 3.6885493173e+000
 1.5564994910e+000	 1.0426798501e-001	 3.6628191475e+000
 1.5554150707e+000	 1.1935863411e-001	 3.6332327718e+000
 1.5541796526e+000	 1.3449236223e-001	 3.5989507244e+000
 1.5527918086e+000	 1.4966715226e-001	 3.5590970658e+000
 1.5866560000e+000	 0.0000000000e+000	 3.8006261714e+000
 1.5865852019e+000	 1.4988174934e-002	 3.7760576406e+000
 1.5863717151e+000	 3.0033289064e-002	 3.7524913179e+000
 1.5860139154e+000	 4.5133601394e-002	 3.7292882542e+000
 1.5855101994e+000	 6.0287326125e-002	 3.7057599303e+000
 1.5848589854e+000	 7.5492632729e-002	 3.6811684817e+000
 1.5840587152e+000	 9.0747646068e-002	 3.6547273244e+000
 1.5831078549e+000	 1.0605044656e-001	 3.6256021791e+000
 1.5820048965e+000	 1.2139907035e-001	 3.5929124942e+000
 1.5807483589e+000	 1.3679150961e-001	 3.5557332619e+000
 1.5793367896e+000	 1.5222571273e-001	 3.5130972231e+000
 1.6133240000e+000	 0.0000000000e+000	 3.7806975410e+000
 1.6132520120e+000	 1.5240091324e-002	 3.7521833263e+000
 1.6130349369e+000	 3.0538078857e-002	 3.7251197391e+000
 1.6126711235e+000	 4.5892192346e-002	 3.6988342735e+000
 1.6121589411e+000	 6.1300615973e-002	 3.6725963224e+000
 1.6114967818e+000	 7.6761488443e-002	 3.6456176388e+000
 1.6106830609e+000	 9.2272903104e-002	 3.6170532540e+000
 1.6097162188e+000	 1.0783290811e-001	 3.5860028507e+000
 1.6085947222e+000	 1.2343950660e-001	 3.5515125898e+000
 1.6073170652e+000	 1.3909065698e-001	 3.5125773861e+000
 1.6058817707e+000	 1.5478427319e-001	 3.4681436242e+000
 1.6399920000e+000	 0.0000000000e+000	 3.7418855877e+000
 1.6399188220e+000	 1.5492007713e-002	 3.7119175314e+000
 1.6396981588e+000	 3.1042868651e-002	 3.6836687078e+000
 1.6393283315e+000	 4.6650783297e-002	 3.6564407248e+000
 1.6388076829e+000	 6.2313905820e-002	 3.6294678163e+000
 1.6381345781e+000	 7.8030344158e-002	 3.6019175601e+000
 1.6373074066e+000	 9.3798160140e-002	 3.5728921116e+000
 1.6363245828e+000	 1.0961536965e-001	 3.5414299547e+000
 1.6351845480e+000	 1.2547994284e-001	 3.5065081662e+000
 1.6338857715e+000	 1.4138980436e-001	 3.4670451877e+000
 1.6324267518e+000	 1.5734283365e-001	 3.4219040951e+000
 1.6666600000e+000	 0.0000000000e+000	 3.6821190431e+000
 1.6665856321e+000	 1.5743924102e-002	 3.6530537872e+000
 1.6663613806e+000	 3.1547658445e-002	 3.6258292956e+000
 1.6659855396e+000	 4.7409374249e-002	 3.5997275235e+000
 1.6654564246e+000	 6.3327195668e-002	 3.5739529533e+000
 1.6647723745e+000	 7.9299199872e-002	 3.5476335903e+000
 1.6639317522e+000	 9.5323417177e-002	 3.5198225414e+000
 1.6629329467e+000	 1.1139783120e-001	 3.4895001767e+000
 1.6617743738e+000	 1.2752037909e-001	 3.4555768687e+000
 1.6604544778e+000	 1.4368895174e-001	 3.4168963042e+000
 1.6589717329e+000	 1.5990139411e-001	 3.3722393541e+000
 1.6933280000e+000	 0.0000000000e+000	 3.5995639656e+000
 1.6932524421e+000	 1.5995840491e-002	 3.5736148367e+000
 1.6930246025e+000	 3.2052448238e-002	 3.5495142199e+000
 1.6926427476e+000	 4.8167965200e-002	 3.5265291930e+000
 1.6921051664e+000	 6.4340485515e-002	 3.5038383478e+000
 1.6914101708e+000	 8.0568055587e-002	 3.4805330902e+000
 1.6905560979e+000	 9.6848674214e-002	 3.4556195971e+000
 1.6895413106e+000	 1.1318029275e-001	 3.4280214250e+000
 1.6883641995e+000	 1.2956081534e-001	 3.3965827687e+000
 1.6870231841e+000	 1.4598809912e-001	 3.3600723595e+000
 1.6855167140e+000	 1.6245995458e-001	 3.3171879905e+000
 1.7199960000e+000	 0.0000000000e+000	 3.4926053410e+000
 1.7199192522e+000	 1.6247756880e-002	 3.4718346405e+000
 1.7196878243e+000	 3.2557238032e-002	 3.4528402842e+000
 1.7192999557e+000	 4.8926556152e-002	 3.4348777634e+000
 1.7187539081e+000	 6.5353775363e-002	 3.4171020649e+000
 1.7180479672e+000	 8.1836911302e-002	 3.3985693082e+000
 1.7171804436e+000	 9.8373931250e-002	 3.3782391156e+000
 1.7161496746e+000	 1.1496275430e-001	 3.3549777119e+000
 1.7149540253e+000	 1.3160125158e-001	 3.3275617495e+000
 1.7135918903e+000	 1.4828724649e-001	 3.2946828484e+000
 1.7120616951e+000	 1.6501851504e-001	 3.2549528349e+000
 1.7466640000e+000	 0.0000000000e+000	 3.3598303703e+000
 1.7465860622e+000	 1.6499673269e-002	 3.3461420311e+000
 1.7463510461e+000	 3.3062027826e-002	 3.3341124274e+000
 1.7459571637e+000	 4.9685147103e-002	 3.3229872383e+000
 1.7454026499e+000	 6.6367065210e-002	 3.3118985235e+000
 1.7446857636e+000	 8.3105767016e-002	 3.2998667316e+000
 1.7438047893e+000	 9.9899188287e-002	 3.2858035255e+000
 1.7427580385e+000	 1.1674521585e-001	 3.2685154207e+000
 1.7415438510e+000	 1.3364168783e-001	 3.2467082313e+000
 1.7401605966e+000	 1.5058639387e-001	 3.2189923108e+000
 1.7386066761e+000	 1.6757707550e-001	 3.1838885701e+000
 1.7733320000e+000	 0.0000000000e+000	 3.2000132645e+000
 1.7732528723e+000	 1.6751589658e-002	 3.1951458420e+000
 1.7730142680e+000	 3.3566817619e-002	 3.1918092123e+000
 1.7726143718e+000	 5.0443738054e-002	 3.1892394650e+000
 1.7720513917e+000	 6.7380355057e-002	 3.1865447628e+000
 1.7713235599e+000	 8.4374622731e-002	 3.1827077615e+000
 1.7704291350e+000	 1.0142444532e-001	 3.1765889367e+000
 1.7693664024e+000	 1.1852767740e-001	 3.1669308134e+000
 1.7681336768e+000	 1.3568212407e-001	 3.1523630929e+000
 1.7667293029e+000	 1.5288554125e-001	 3.1314086604e+000
 1.7651516572e+000	 1.7013563596e-001	 3.1024904541e+000
 1.8000000000e+000	 0.0000000000e+000	 3.0121013914e+000
 1.7999196823e+000	 1.7003506047e-002	 3.0176213596e+000
 1.7996774898e+000	 3.4071607412e-002	 3.0245696060e+000
 1.7992715798e+000	 5.1202329005e-002	 3.0321712608e+000
 1.7987001334e+000	 6.8393644903e-002	 3.0395079308e+000
 1.7979613563e+000	 8.5643478444e-002	 3.0455205743e+000
 1.7970534806e+000	 1.0294970236e-001	 3.0490133804e+000
 1.7959747663e+000	 1.2031013895e-001	 3.0486586499e+000
 1.7947235026e+000	 1.3772256032e-001	 3.0430026670e+000
 1.7932980092e+000	 1.5518468862e-001	 3.0304725476e+000
 1.7916966383e+000	 1.7269419643e-001	 3.0093840383e+000
 1.5262468275e+000	 1.4710859180e-001	 3.6086847992e+000
 1.5247317519e+000	 1.6206006367e-001	 3.5692611212e+000
 1.5230641822e+000	 1.7704782606e-001	 3.5293983422e+000
 1.5212428050e+000	 1.9206980528e-001	 3.4885289195e+000
 1.5192663399e+000	 2.0712388784e-001	 3.4460704111e+000
 1.5171335398e+000	 2.2220792089e-001	 3.4014279568e+000
 1.5148431927e+000	 2.3731971277e-001	 3.3539969542e+000
 1.5123941228e+000	 2.5245703357e-001	 3.3031659065e+000
 1.5097851916e+000	 2.6761761573e-001	 3.2483194189e+000
 1.5070152995e+000	 2.8279915468e-001	 3.1888413156e+000
 1.5040833867e+000	 2.9799930958e-001	 3.1241178492e+000
 1.5527918086e+000	 1.4966715226e-001	 3.5590970658e+000
 1.5512503823e+000	 1.6487866499e-001	 3.5163798772e+000
 1.5495538096e+000	 1.8012709942e-001	 3.4737073606e+000
 1.5477007545e+000	 1.9541034579e-001	 3.4304815878e+000
 1.5456899141e+000	 2.1072625384e-001	 3.3860864001e+000
 1.5435200196e+000	 2.2607263330e-001	 3.3398903894e+000
 1.5411898381e+000	 2.4144725438e-001	 3.2912501023e+000
 1.5386981731e+000	 2.5684784838e-001	 3.2395134404e+000
 1.5360438666e+000	 2.7227210831e-001	 3.1840232308e+000
 1.5332257996e+000	 2.8771768953e-001	 3.1241209349e+000
 1.5302428940e+000	 3.0318221046e-001	 3.0591504626e+000
 1.5793367896e+000	 1.5222571273e-001	 3.5130972231e+000
 1.5777690127e+000	 1.6769726632e-001	 3.4677712126e+000
 1.5760434371e+000	 1.8320637278e-001	 3.4227773727e+000
 1.5741587040e+000	 1.9875088630e-001	 3.3775036583e+000
 1.5721134882e+000	 2.1432861985e-001	 3.3313164750e+000
 1.5699064994e+000	 2.2993734571e-001	 3.2835641929e+000
 1.5675364834e+000	 2.4557479598e-001	 3.2335809121e+000
 1.5650022235e+000	 2.6123866319e-001	 3.1806904516e+000
 1.5623025416e+000	 2.7692660090e-001	 3.1242105291e+000
 1.5594362997e+000	 2.9263622438e-001	 3.0634570974e+000
 1.5564024013e+000	 3.0836511135e-001	 2.9977487995e+000
 1.6058817707e+000	 1.5478427319e-001	 3.4681436242e+000
 1.6042876431e+000	 1.7051586764e-001	 3.4210248610e+000
 1.6025330646e+000	 1.8628564614e-001	 3.3743515390e+000
 1.6006166535e+000	 2.0209142680e-001	 3.3275112417e+000
 1.5985370624e+000	 2.1793098585e-001	 3.2798666532e+000
 1.5962929793e+000	 2.3380205812e-001	 3.2307596435e+000
 1.5938831288e+000	 2.4970233759e-001	 3.1795156377e+000
 1.5913062738e+000	 2.6562947801e-001	 3.1254482346e+000
 1.5885612165e+000	 2.8158109349e-001	 3.0678640396e+000
 1.5856467998e+000	 2.9755475923e-001	 3.0060676716e+000
 1.5825619087e+000	 3.1354801224e-001	 2.9393669033e+000
 1.6324267518e+000	 1.5734283365e-001	 3.4219040951e+000
 1.6308062735e+000	 1.7333446896e-001	 3.3739348457e+000
 1.6290226921e+000	 1.8936491950e-001	 3.3263719390e+000
 1.6270746030e+000	 2.0543196731e-001	 3.2786138190e+000
 1.6249606366e+000	 2.2153335186e-001	 3.2300306060e+000
 1.6226794591e+000	 2.3766677053e-001	 3.1799688004e+000
 1.6202297741e+000	 2.5382987920e-001	 3.1277563031e+000
 1.6176103241e+000	 2.7002029282e-001	 3.0727077137e+000
 1.6148198915e+000	 2.8623558608e-001	 3.0141298673e+000
 1.6118572999e+000	 3.0247329409e-001	 2.9513275636e+000
 1.6087214160e+000	 3.1873091312e-001	 2.8836094425e+000
 1.6589717329e+000	 1.5990139411e-001	 3.3722393541e+000
 1.6573249039e+000	 1.7615307028e-001	 3.3244835005e+000
 1.6555123196e+000	 1.9244419286e-001	 3.2769642072e+000
 1.6535325525e+000	 2.0877250781e-001	 3.2290994981e+000
 1.6513842108e+000	 2.2513571786e-001	 3.1802755333e+000
 1.6490659389e+000	 2.4153148295e-001	 3.1298519845e+000
 1.6465764195e+000	 2.5795742081e-001	 3.0771677631e+000
 1.6439143745e+000	 2.7441110764e-001	 3.0215470552e+000
 1.6410785664e+000	 2.9089007867e-001	 2.9623056200e+000
 1.6380678000e+000	 3.0739182894e-001	 2.8987573016e+000
 1.6348809233e+000	 3.2391381401e-001	 2.8302206991e+000
 1.6855167140e+000	 1.6245995458e-001	 3.3171879905e+000
 1.6838435343e+000	 1.7897167161e-001	 3.2708269882e+000
 1.6820019470e+000	 1.9552346622e-001	 3.2244236023e+000
 1.6799905020e+000	 2.1211304832e-001	 3.1774216367e+000
 1.6778077849e+000	 2.2873808387e-001	 3.1292293336e+000
 1.6754524187e+000	 2.4539619536e-001	 3.0792254830e+000
 1.6729230649e+000	 2.6208496243e-001	 3.0267659205e+000
 1.6702184248e+000	 2.7880192246e-001	 2.9711903656e+000
 1.6673372414e+000	 2.9554457126e-001	 2.9118295488e+000
 1.6642783001e+000	 3.1231036379e-001	 2.8480125723e+000
 1.6610404306e+000	 3.2909671490e-001	 2.7790744443e+000
 1.7120616951e+000	 1.6501851504e-001	 3.2549528349e+000
 1.7103621647e+000	 1.8179027293e-001	 3.2112821538e+000
 1.7084915745e+000	 1.9860273958e-001	 3.1672023531e+000
 1.7064484515e+000	 2.1545358883e-001	 3.1221866817e+000
 1.7042313591e+000	 2.3234044987e-001	 3.0756689310e+000
 1.7018388985e+000	 2.4926090777e-001	 3.0270503479e+000
 1.6992697102e+000	 2.6621250404e-001	 2.9757069737e+000
 1.6965224752e+000	 2.8319273727e-001	 2.9209973594e+000
 1.6935959164e+000	 3.0019906385e-001	 2.8622705966e+000
 1.6904888002e+000	 3.1722889864e-001	 2.7988746044e+000
 1.6871999379e+000	 3.3427961579e-001	 2.7301646029e+000
 1.7386066761e+000	 1.6757707550e-001	 3.1838885701e+000
 1.7368807951e+000	 1.8460887425e-001	 3.1443145712e+000
 1.7349812020e+000	 2.0168201293e-001	 3.1038981458e+000
 1.7329064010e+000	 2.1879412933e-001	 3.0621430960e+000
 1.7306549333e+000	 2.3594281588e-001	 3.0185096333e+000
 1.7282253784e+000	 2.5312562018e-001	 2.9724221707e+000
 1.7256163556e+000	 2.7034004565e-001	 2.9232775854e+000
 1.7228265255e+000	 2.8758355209e-001	 2.8704538908e+000
 1.7198545913e+000	 3.0485355644e-001	 2.8133192574e+000
 1.7166993003e+000	 3.2214743349e-001	 2.7512413092e+000
 1.7133594452e+000	 3.3946251668e-001	 2.6835966247e+000
 1.7651516572e+000	 1.7013563596e-001	 3.1024904541e+000
 1.7633994255e+000	 1.8742747557e-001	 3.0685276553e+000
 1.7614708295e+000	 2.0476128629e-001	 3.0332436308e+000
 1.7593643505e+000	 2.2213466984e-001	 2.9961712580e+000
 1.7570785075e+000	 2.3954518188e-001	 2.9567954136e+000
 1.7546118582e+000	 2.5699033260e-001	 2.9145617313e+000
 1.7519630010e+000	 2.7446758726e-001	 2.8688858747e+000
 1.7491305758e+000	 2.9197436690e-001	 2.8191632604e+000
 1.7461132663e+000	 3.0950804903e-001	 2.7647791591e+000
 1.7429098004e+000	 3.2706596835e-001	 2.7051190989e+000
 1.7395189526e+000	 3.4464541757e-001	 2.6395794868e+000
 1.7916966383e+000	 1.7269419643e-001	 3.0093840383e+000
 1.7899180559e+000	 1.9024607690e-001	 2.9826527319e+000
 1.7879604570e+000	 2.0784055965e-001	 2.9540968452e+000
 1.7858223000e+000	 2.2547521035e-001	 2.9232742324e+000
 1.7835020816e+000	 2.4314754789e-001	 2.8896900209e+000
 1.7809983380e+000	 2.6085504501e-001	 2.8528064291e+000
 1.7783096463e+000	 2.7859512887e-001	 2.8120531480e+000
 1.7754346262e+000	 2.9636518172e-001	 2.7668382147e+000
 1.7723719412e+000	 3.1416254162e-001	 2.7165592982e+000
 1.7691203005e+000	 3.3198450320e-001	 2.6606153118e+000
 1.7656784599e+000	 3.4982831845e-001	 2.5984182625e+000
 1.5040833867e+000	 2.9799930958e-001	 3.1241178492e+000
 1.5009879582e+000	 3.1321798717e-001	 3.0562653800e+000
 1.4977284659e+000	 3.2845049326e-001	 2.9875699645e+000
 1.4943039780e+000	 3.4369437793e-001	 2.9176584570e+000
 1.4907136076e+000	 3.5894715807e-001	 2.8461769887e+000
 1.4869565135e+000	 3.7420631829e-001	 2.7727938563e+000
 1.4830319018e+000	 3.8946931188e-001	 2.6972022831e+000
 1.4789390267e+000	 4.0473356181e-001	 2.6191230159e+000
 1.4746771918e+000	 4.1999646178e-001	 2.5383067210e+000
 1.4702457512e+000	 4.3525537731e-001	 2.4545361419e+000
 1.4656441104e+000	 4.5050764685e-001	 2.3676279819e+000
 1.5302428940e+000	 3.0318221046e-001	 3.0591504626e+000
 1.5270936288e+000	 3.1866557624e-001	 2.9912631327e+000
 1.5237774463e+000	 3.3416301103e-001	 2.9227925140e+000
 1.5202933987e+000	 3.4967202231e-001	 2.8533432844e+000
 1.5166405834e+000	 3.6519008376e-001	 2.7825412231e+000
 1.5128181447e+000	 3.8071463625e-001	 2.7100366519e+000
 1.5088252749e+000	 3.9624308879e-001	 2.6355077343e+000
 1.5046612151e+000	 4.1177281952e-001	 2.5586635898e+000
 1.5003252571e+000	 4.2730117681e-001	 2.4792471814e+000
 1.4958167434e+000	 4.4282548035e-001	 2.3970379338e+000
 1.4911350694e+000	 4.5834302232e-001	 2.3118540413e+000
 1.5564024013e+000	 3.0836511135e-001	 2.9977487995e+000
 1.5531992994e+000	 3.2411316532e-001	 2.9292729912e+000
 1.5498264268e+000	 3.3987552881e-001	 2.8604058024e+000
 1.5462828194e+000	 3.5564966668e-001	 2.7907380514e+000
 1.5425675592e+000	 3.7143300944e-001	 2.7198839614e+000
 1.5386797759e+000	 3.8722295421e-001	 2.6474852018e+000
 1.5346186479e+000	 4.0301686569e-001	 2.5732147706e+000
 1.5303834036e+000	 4.1881207722e-001	 2.4967806673e+000
 1.5259733223e+000	 4.3460589183e-001	 2.4179293102e+000
 1.5213877356e+000	 4.5039558340e-001	 2.3364486502e+000
 1.5166260283e+000	 4.6617839780e-001	 2.2521709332e+000
 1.5825619087e+000	 3.1354801224e-001	 2.9393669033e+000
 1.5793049700e+000	 3.2956075439e-001	 2.8699880389e+000
 1.5758754073e+000	 3.4558804658e-001	 2.8003469333e+000
 1.5722722400e+000	 3.6162731105e-001	 2.7300267316e+000
 1.5684945349e+000	 3.7767593513e-001	 2.6586367940e+000
 1.5645414070e+000	 3.9373127217e-001	 2.5858173923e+000
 1.5604120209e+000	 4.0979064260e-001	 2.5112442265e+000
 1.5561055920e+000	 4.2585133493e-001	 2.4346327060e+000
 1.5516213875e+000	 4.4191060686e-001	 2.3557419416e+000
 1.5469587277e+000	 4.5796568644e-001	 2.2743783952e+000
 1.5421169872e+000	 4.7401377327e-001	 2.1903991332e+000
 1.6087214160e+000	 3.1873091312e-001	 2.8836094425e+000
 1.6054106406e+000	 3.3500834347e-001	 2.8132452343e+000
 1.6019243877e+000	 3.5130056436e-001	 2.7426895131e+000
 1.5982616607e+000	 3.6760495543e-001	 2.6715218039e+000
 1.5944215107e+000	 3.8391886081e-001	 2.5993511948e+000
 1.5904030382e+000	 4.0023959013e-001	 2.5258217516e+000
 1.5862053940e+000	 4.1656441951e-001	 2.4506177273e+000
 1.5818277804e+000	 4.3289059263e-001	 2.3734685073e+000
 1.5772694527e+000	 4.4921532188e-001	 2.2941532286e+000
 1.5725297199e+000	 4.6553578949e-001	 2.2125050125e+000
 1.5676079461e+000	 4.8184914875e-001	 2.1284147524e+000
 1.6348809233e+000	 3.2391381401e-001	 2.8302206991e+000
 1.6315163112e+000	 3.4045593255e-001	 2.7590147591e+000
 1.6279733682e+000	 3.5701308213e-001	 2.6876333298e+000
 1.6242510813e+000	 3.7358259980e-001	 2.6156542270e+000
 1.6203484865e+000	 3.9016178650e-001	 2.5426887511e+000
 1.6162646694e+000	 4.0674790810e-001	 2.4683878889e+000
 1.6119987670e+000	 4.2333819642e-001	 2.3924482834e+000
 1.6075499689e+000	 4.3992985034e-001	 2.3146179063e+000
 1.6029175179e+000	 4.5652003691e-001	 2.2347013635e+000
 1.5981007120e+000	 4.7310589253e-001	 2.1525647658e+000
 1.5930989051e+000	 4.8968452423e-001	 2.0681400991e+000
 1.6610404306e+000	 3.2909671490e-001	 2.7790744443e+000
 1.6576219818e+000	 3.4590352162e-001	 2.7073901889e+000
 1.6540223487e+000	 3.6272559991e-001	 2.6354947906e+000
 1.6502405020e+000	 3.7956024417e-001	 2.5629641096e+000
 1.6462754622e+000	 3.9640471218e-001	 2.4894120250e+000
 1.6421263005e+000	 4.1325622606e-001	 2.4144975003e+000
 1.6377921401e+000	 4.3011197333e-001	 2.3379313893e+000
 1.6332721573e+000	 4.4696910804e-001	 2.2594829064e+000
 1.6285655831e+000	 4.6382475193e-001	 2.1789856852e+000
 1.6236717042e+000	 4.8067599558e-001	 2.0963433491e+000
 1.6185898640e+000	 4.9751989970e-001	 2.0115345201e+000
 1.6871999379e+000	 3.3427961579e-001	 2.7301646029e+000
 1.6837276525e+000	 3.5135111070e-001	 2.6585793976e+000
 1.6800713291e+000	 3.6843811768e-001	 2.5866980360e+000
 1.6762299227e+000	 3.8553788855e-001	 2.5140919994e+000
 1.6722024380e+000	 4.0264763787e-001	 2.4403759768e+000
 1.6679879317e+000	 4.1976454402e-001	 2.3652158813e+000
 1.6635855131e+000	 4.3688575024e-001	 2.2883365738e+000
 1.6589943457e+000	 4.5400836575e-001	 2.2095292108e+000
 1.6542136483e+000	 4.7112946696e-001	 2.1286581305e+000
 1.6492426964e+000	 4.8824609862e-001	 2.0456671930e+000
 1.6440808229e+000	 5.0535527518e-001	 1.9605854901e+000
 1.7133594452e+000	 3.3946251668e-001	 2.6835966247e+000
 1.7098333231e+000	 3.5679869978e-001	 2.6128961172e+000
 1.7061203096e+000	 3.7415063546e-001	 2.5417666584e+000
 1.7022193433e+000	 3.9151553292e-001	 2.4697707248e+000
 1.6981294138e+000	 4.0889056356e-001	 2.3965198907e+000
 1.6938495629e+000	 4.2627286198e-001	 2.3216838904e+000
 1.6893788862e+000	 4.4365952714e-001	 2.2449993515e+000
 1.6847165342e+000	 4.6104762346e-001	 2.1662781075e+000
 1.6798617136e+000	 4.7843418198e-001	 2.0854149938e+000
 1.6748136885e+000	 4.9581620167e-001	 2.0023950340e+000
 1.6695717818e+000	 5.1319065065e-001	 1.9172999229e+000
 1.7395189526e+000	 3.4464541757e-001	 2.6395794868e+000
 1.7359389937e+000	 3.6224628886e-001	 2.5707520837e+000
 1.7321692901e+000	 3.7986315324e-001	 2.5013159613e+000
 1.7282087640e+000	 3.9749317730e-001	 2.4308177319e+000
 1.7240563896e+000	 4.1513348924e-001	 2.3588597489e+000
 1.7197111941e+000	 4.3278117994e-001	 2.2851103166e+000
 1.7151722592e+000	 4.5043330405e-001	 2.2093135350e+000
 1.7104387226e+000	 4.6808688116e-001	 2.1312986721e+000
 1.7055097788e+000	 4.8573889701e-001	 2.0509889617e+000
 1.7003846807e+000	 5.0338630472e-001	 1.9684097202e+000
 1.6950627408e+000	 5.2102602613e-001	 1.8836956810e+000
 1.7656784599e+000	 3.4982831845e-001	 2.5984182625e+000
 1.7620446643e+000	 3.6769387793e-001	 2.5326497089e+000
 1.7582182705e+000	 3.8557567101e-001	 2.4660457025e+000
 1.7541981846e+000	 4.0347082167e-001	 2.3981278653e+000
 1.7499833653e+000	 4.2137641493e-001	 2.3284810093e+000
 1.7455728252e+000	 4.3928949790e-001	 2.2567646099e+000
 1.7409656323e+000	 4.5720708096e-001	 2.1827238691e+000
 1.7361609110e+000	 4.7512613887e-001	 2.1062002541e+000
 1.7311578440e+000	 4.9304361203e-001	 2.0271413953e+000
 1.7259556728e+000	 5.1095640776e-001	 1.9456102280e+000
 1.7205536997e+000	 5.2886140161e-001	 1.8617932637e+000
 1.4656441104e+000	 4.5050764685e-001	 2.3676279819e+000
 1.4608717271e+000	 4.6575058273e-001	 2.2775644735e+000
 1.4559281109e+000	 4.8098147173e-001	 2.1845950652e+000
 1.4508128258e+000	 4.9619757688e-001	 2.0889901681e+000
 1.4455254909e+000	 5.1139613904e-001	 1.9910550042e+000
 1.4400657820e+000	 5.2657437818e-001	 1.8911286804e+000
 1.4344334318e+000	 5.4172949480e-001	 1.7895827864e+000
 1.4286282313e+000	 5.5685867128e-001	 1.6868194981e+000
 1.4226500300e+000	 5.7195907336e-001	 1.5832691661e+000
 1.4164987373e+000	 5.8702785160e-001	 1.4793873783e+000
 1.4101743228e+000	 6.0206214291e-001	 1.3756514847e+000
 1.4911350694e+000	 4.5834302232e-001	 2.3118540413e+000
 1.4862796832e+000	 4.7385106831e-001	 2.2235558028e+000
 1.4812500860e+000	 4.8934685788e-001	 2.1322607769e+000
 1.4760458342e+000	 5.0482760648e-001	 2.0382330784e+000
 1.4706665403e+000	 5.2029050697e-001	 1.9417762100e+000
 1.4651118743e+000	 5.3573273098e-001	 1.8432323019e+000
 1.4593815645e+000	 5.5115143031e-001	 1.7429808151e+000
 1.4534753980e+000	 5.6654373835e-001	 1.6414366854e+000
 1.4473932219e+000	 5.8190677153e-001	 1.5390478866e+000
 1.4411349439e+000	 5.9723763087e-001	 1.4362923960e+000
 1.4347005331e+000	 6.1253340346e-001	 1.3336745520e+000
 1.5166260283e+000	 4.6617839780e-001	 2.2521709332e+000
 1.5116876392e+000	 4.8195155388e-001	 2.1648242206e+000
 1.5065720611e+000	 4.9771224403e-001	 2.0743888321e+000
 1.5012788426e+000	 5.1345763607e-001	 1.9811438014e+000
 1.4958075896e+000	 5.2918487490e-001	 1.8854130195e+000
 1.4901579667e+000	 5.4489108379e-001	 1.7875646318e+000
 1.4843296971e+000	 5.6057336583e-001	 1.6880098305e+000
 1.4783225647e+000	 5.7622880542e-001	 1.5872010167e+000
 1.4721364138e+000	 5.9185446971e-001	 1.4856293050e+000
 1.4657711505e+000	 6.0744741014e-001	 1.3838213544e+000
 1.4592267435e+000	 6.2300466401e-001	 1.2823355091e+000
 1.5421169872e+000	 4.7401377327e-001	 2.1903991332e+000
 1.5370955953e+000	 4.9005203945e-001	 2.1033895467e+000
 1.5318940362e+000	 5.0607763017e-001	 2.0131871108e+000
 1.5265118510e+000	 5.2208766567e-001	 1.9201051277e+000
 1.5209486390e+000	 5.3807924283e-001	 1.8245082038e+000
 1.5152040590e+000	 5.5404943659e-001	 1.7268117997e+000
 1.5092778298e+000	 5.6999530135e-001	 1.6274811012e+000
 1.5031697314e+000	 5.8591387250e-001	 1.5270291782e+000
 1.4968796057e+000	 6.0180216789e-001	 1.4260144042e+000
 1.4904073571e+000	 6.1765718941e-001	 1.3250371137e+000
 1.4837529538e+000	 6.3347592456e-001	 1.2247354806e+000
 1.5676079461e+000	 4.8184914875e-001	 2.1284147524e+000
 1.5625035514e+000	 4.9815252503e-001	 2.0413145362e+000
 1.5572160113e+000	 5.1444301632e-001	 1.9508930831e+000
 1.5517448594e+000	 5.3071769527e-001	 1.8575155132e+000
 1.5460896883e+000	 5.4697361076e-001	 1.7616057657e+000
 1.5402501513e+000	 5.6320778939e-001	 1.6636463034e+000
 1.5342259625e+000	 5.7941723687e-001	 1.5641770538e+000
 1.5280168981e+000	 5.9559893957e-001	 1.4637935493e+000
 1.5216227976e+000	 6.1174986607e-001	 1.3631442362e+000
 1.5150435638e+000	 6.2786696868e-001	 1.2629269235e+000
 1.5082791642e+000	 6.4394718511e-001	 1.1638843557e+000
 1.5930989051e+000	 4.8968452423e-001	 2.0681400991e+000
 1.5879115075e+000	 5.0625301060e-001	 1.9806952504e+000
 1.5825379864e+000	 5.2280840247e-001	 1.8897639160e+000
 1.5769778678e+000	 5.3934772486e-001	 1.7957788420e+000
 1.5712307377e+000	 5.5586797869e-001	 1.6992402736e+000
 1.5652962436e+000	 5.7236614219e-001	 1.6007158204e+000
 1.5591740951e+000	 5.8883917239e-001	 1.5008394635e+000
 1.5528640649e+000	 6.0528400665e-001	 1.4003096661e+000
 1.5463659895e+000	 6.2169756424e-001	 1.2998865473e+000
 1.5396797704e+000	 6.3807674794e-001	 1.2003880929e+000
 1.5328053745e+000	 6.5441844567e-001	 1.1026853782e+000
 1.6185898640e+000	 4.9751989970e-001	 2.0115345201e+000
 1.6133194636e+000	 5.1435349618e-001	 1.9236516564e+000
 1.6078599615e+000	 5.3117378862e-001	 1.8320667623e+000
 1.6022108762e+000	 5.4797775446e-001	 1.7372943286e+000
 1.5963717870e+000	 5.6476234663e-001	 1.6399262946e+000
 1.5903423359e+000	 5.8152449499e-001	 1.5406320838e+000
 1.5841222278e+000	 5.9826110790e-001	 1.4401576795e+000
 1.5777112316e+000	 6.1496907372e-001	 1.3393236954e+000
 1.5711091814e+000	 6.3164526242e-001	 1.2390223967e+000
 1.5643159770e+000	 6.4828652721e-001	 1.1402136423e+000
 1.5573315848e+000	 6.6488970622e-001	 1.0439197174e+000
 1.6440808229e+000	 5.0535527518e-001	 1.9605854901e+000
 1.6387274197e+000	 5.2245398175e-001	 1.8723184312e+000
 1.6331819366e+000	 5.3953917476e-001	 1.7800692118e+000
 1.6274438846e+000	 5.5660778406e-001	 1.6844465436e+000
 1.6215128364e+000	 5.7365671456e-001	 1.5861479156e+000
 1.6153884283e+000	 5.9068284779e-001	 1.4859598154e+000
 1.6090703604e+000	 6.0768304342e-001	 1.3847568796e+000
 1.6025583983e+000	 6.2465414080e-001	 1.2834999180e+000
 1.5958523733e+000	 6.4159296060e-001	 1.1832327681e+000
 1.5889521836e+000	 6.5849630648e-001	 1.0850779400e+000
 1.5818577952e+000	 6.7536096677e-001	 9.9026221406e-001
 1.6695717818e+000	 5.1319065065e-001	 1.9172999229e+000
 1.6641353757e+000	 5.3055446732e-001	 1.8288359482e+000
 1.6585039117e+000	 5.4790456091e-001	 1.7360298879e+000
 1.6526768930e+000	 5.6523781365e-001	 1.6395955496e+000
 1.6466538858e+000	 5.8255108249e-001	 1.5403483433e+000
 1.6404345206e+000	 5.9984120060e-001	 1.4392057094e+000
 1.6340184931e+000	 6.1710497894e-001	 1.3371863524e+000
 1.6274055650e+000	 6.3433920787e-001	 1.2354082200e+000
 1.6205955652e+000	 6.5154065878e-001	 1.1350851762e+000
 1.6135883902e+000	 6.6870608575e-001	 1.0375254458e+000
 1.6063840055e+000	 6.8583222732e-001	 9.4408318327e-001
 1.6950627408e+000	 5.2102602613e-001	 1.8836956810e+000
 1.6895433318e+000	 5.3865495290e-001	 1.7953414271e+000
 1.6838258868e+000	 5.5626994706e-001	 1.7021891738e+000
 1.6779099014e+000	 5.7386784325e-001	 1.6050671359e+000
 1.6717949351e+000	 5.9144545042e-001	 1.5049195751e+000
 1.6654806129e+000	 6.0899955340e-001	 1.4028074614e+000
 1.6589666257e+000	 6.2652691446e-001	 1.2999078046e+000
 1.6522527317e+000	 6.4402427494e-001	 1.1975115913e+000
 1.6453387571e+000	 6.6148835695e-001	 1.0970202672e+000
 1.6382245968e+000	 6.7891586502e-001	 9.9999008824e-001
 1.6309102159e+000	 6.9630348787e-001	 9.0742638844e-001
 1.7205536997e+000	 5.2886140161e-001	 1.8617932637e+000
 1.7149512879e+000	 5.4675543847e-001	 1.7739602295e+000
 1.7091478619e+000	 5.6463533321e-001	 1.6807600552e+000
 1.7031429098e+000	 5.8249787284e-001	 1.5831431417e+000
 1.6969359845e+000	 6.0033981835e-001	 1.4821921323e+000
 1.6905267052e+000	 6.1815790620e-001	 1.3791228383e+000
 1.6839147584e+000	 6.3594884997e-001	 1.2752836885e+000
 1.6770998984e+000	 6.5370934202e-001	 1.1721536303e+000
 1.6700819490e+000	 6.7143605513e-001	 1.0713555818e+000
 1.6628608034e+000	 6.8912564429e-001	 9.7453397243e-001
 1.6554364262e+000	 7.0677474842e-001	 8.8222208310e-001
 1.4101743228e+000	 6.0206214291e-001	 1.3756514847e+000
 1.4036778048e+000	 6.1705682569e-001	 1.2711698730e+000
 1.3970083406e+000	 6.3201127378e-001	 1.1651552579e+000
 1.3901660856e+000	 6.4692259452e-001	 1.0583029920e+000
 1.3831512578e+000	 6.6178788798e-001	 9.5130465091e-001
 1.3759641382e+000	 6.7660424856e-001	 8.4494780285e-001
 1.3686050715e+000	 6.9136876671e-001	 7.3986608672e-001
 1.3610744663e+000	 7.0607853061e-001	 6.3597813916e-001
 1.3533727953e+000	 7.2073062788e-001	 5.3320718310e-001
 1.3455005959e+000	 7.3532214732e-001	 4.3152317886e-001
 1.3374584701e+000	 7.4985018066e-001	 3.3094351944e-001
 1.4347005331e+000	 6.1253340346e-001	 1.3336745520e+000
 1.4280910255e+000	 6.2778887864e-001	 1.2301743206e+000
 1.4213055639e+000	 6.4300341935e-001	 1.1249218982e+000
 1.4143443062e+000	 6.5817408263e-001	 1.0187132996e+000
 1.4072074742e+000	 6.7329791811e-001	 9.1238694774e-001
 1.3998953539e+000	 6.8837196965e-001	 8.0675689489e-001
 1.3924082959e+000	 7.0339327710e-001	 7.0182956862e-001
 1.3847467159e+000	 7.1835887800e-001	 5.9753478137e-001
 1.3769110950e+000	 7.3326580931e-001	 4.9384967185e-001
 1.3689019798e+000	 7.4811110919e-001	 3.9079937362e-001
 1.3607199827e+000	 7.6289181882e-001	 2.8845759187e-001
 1.4592267435e+000	 6.2300466401e-001	 1.2823355091e+000
 1.4525042463e+000	 6.3852093159e-001	 1.1800255072e+000
 1.4456027872e+000	 6.5399556492e-001	 1.0759217770e+000
 1.4385225267e+000	 6.6942557074e-001	 9.7092740784e-001
 1.4312636906e+000	 6.8480794824e-001	 8.6601491642e-001
 1.4238265695e+000	 7.0013969074e-001	 7.6135092294e-001
 1.4162115203e+000	 7.1541778749e-001	 6.5686652252e-001
 1.4084189656e+000	 7.3063922539e-001	 5.5254078742e-001
 1.4004493947e+000	 7.4580099073e-001	 4.4840141173e-001
 1.3923033636e+000	 7.6090007107e-001	 3.4452526544e-001
 1.3839814953e+000	 7.7593345698e-001	 2.4103885576e-001
 1.4837529538e+000	 6.3347592456e-001	 1.2247354806e+000
 1.4769174671e+000	 6.4925298454e-001	 1.1238451135e+000
 1.4699000105e+000	 6.6498771050e-001	 1.0212864555e+000
 1.4627007473e+000	 6.8067705886e-001	 9.1812177655e-001
 1.4553199070e+000	 6.9631797836e-001	 8.1479321484e-001
 1.4477577852e+000	 7.1190741183e-001	 7.1123140680e-001
 1.4400147447e+000	 7.2744229788e-001	 6.0741242824e-001
 1.4320912153e+000	 7.4291957277e-001	 5.0336165783e-001
 1.4239876944e+000	 7.5833617216e-001	 3.9915431018e-001
 1.4157047475e+000	 7.7368903295e-001	 2.9491587768e-001
 1.4072430079e+000	 7.8897509513e-001	 1.9082247914e-001
 1.5082791642e+000	 6.4394718511e-001	 1.1638843557e+000
 1.5013306879e+000	 6.5998503749e-001	 1.0646476771e+000
 1.4941972338e+000	 6.7597985607e-001	 9.6406471716e-001
 1.4868789679e+000	 6.9192854697e-001	 8.6290691102e-001
 1.4793761234e+000	 7.0782800849e-001	 7.6115057407e-001
 1.4716890009e+000	 7.2367513292e-001	 6.5876417819e-001
 1.4638179691e+000	 7.3946680827e-001	 5.5576622511e-001
 1.4557634649e+000	 7.5519992016e-001	 4.5222575902e-001
 1.4475259941e+000	 7.7087135358e-001	 3.4826278956e-001
 1.4391061313e+000	 7.8647799482e-001	 2.4404862341e-001
 1.4305045204e+000	 8.0201673329e-001	 1.3980610291e-001
 1.5328053745e+000	 6.5441844567e-001	 1.1026853782e+000
 1.5257439087e+000	 6.7071709044e-001	 1.0053349503e+000
 1.5184944571e+000	 6.8697200164e-001	 9.0694251152e-001
 1.5110571885e+000	 7.0318003508e-001	 8.0764012754e-001
 1.5034323398e+000	 7.1933803862e-001	 7.0738438628e-001
 1.4956202166e+000	 7.3544285401e-001	 6.0618267323e-001
 1.4876211935e+000	 7.5149131866e-001	 5.0409366277e-001
 1.4794357146e+000	 7.6748026755e-001	 4.0122772159e-001
 1.4710642938e+000	 7.8340653501e-001	 2.9774722272e-001
 1.4625075152e+000	 7.9926695670e-001	 1.9386676896e-001
 1.4537660330e+000	 8.1505837144e-001	 8.9853323973e-002
 1.5573315848e+000	 6.6488970622e-001	 1.0439197174e+000
 1.5501571295e+000	 6.8144914339e-001	 9.4864785810e-001
 1.5427916804e+000	 6.9796414722e-001	 8.5221063248e-001
 1.5352354090e+000	 7.1443152319e-001	 7.5455187038e-001
 1.5274885562e+000	 7.3084806875e-001	 6.5566392859e-001
 1.5195514323e+000	 7.4721057510e-001	 5.5559123555e-001
 1.5114244179e+000	 7.6351582905e-001	 4.5443067316e-001
 1.5031079643e+000	 7.7976061493e-001	 3.5233187128e-001
 1.4946025935e+000	 7.9594171644e-001	 2.4949741405e-001
 1.4859088990e+000	 8.1205591857e-001	 1.4618295679e-001
 1.4770275456e+000	 8.2810000960e-001	 4.2697252328e-002
 1.5818577952e+000	 6.7536096677e-001	 9.9026221406e-001
 1.5745703503e+000	 6.9218119634e-001	 8.9686334150e-001
 1.5670889037e+000	 7.0895629279e-001	 8.0203430208e-001
 1.5594136296e+000	 7.2568301130e-001	 7.0574883963e-001
 1.5515447726e+000	 7.4235809888e-001	 6.0803358820e-001
 1.5434826480e+000	 7.5897829619e-001	 5.0896842882e-001
 1.5352276423e+000	 7.7554033944e-001	 4.0868676111e-001
 1.5267802140e+000	 7.9204096232e-001	 3.0737568919e-001
 1.5181408932e+000	 8.0847689786e-001	 2.0527612114e-001
 1.5093102829e+000	 8.2484488045e-001	 1.0268278126e-001
 1.5002890582e+000	 8.4114164775e-001	-5.5865906622e-005
 1.6063840055e+000	 6.8583222732e-001	 9.4408318327e-001
 1.5989835711e+000	 7.0291324929e-001	 8.5208331803e-001
 1.5913861270e+000	 7.1994843836e-001	 7.5845942179e-001
 1.5835918502e+000	 7.3693449941e-001	 6.6321711410e-001
 1.5756009890e+000	 7.5386812901e-001	 5.6641608879e-001
 1.5674138637e+000	 7.7074601728e-001	 4.6817035783e-001
 1.5590308667e+000	 7.8756484983e-001	 3.6864841195e-001
 1.5504524636e+000	 8.0432130970e-001	 2.6807329805e-001
 1.5416791929e+000	 8.2101207928e-001	 1.6672261271e-001
 1.5327116667e+000	 8.3763384232e-001	 6.4928411570e-002
 1.5235505708e+000	 8.5418328591e-001	-3.6922966536e-002
 1.6309102159e+000	 6.9630348787e-001	 9.0742638844e-001
 1.6233967918e+000	 7.1364530224e-001	 8.1629483002e-001
 1.6156833503e+000	 7.3094058393e-001	 7.2341557382e-001
 1.6077700708e+000	 7.4818598752e-001	 6.2882526984e-001
 1.5996572054e+000	 7.6537815914e-001	 5.3261571795e-001
 1.5913450793e+000	 7.8251373836e-001	 4.3493399707e-001
 1.5828340911e+000	 7.9958936022e-001	 3.3598251393e-001
 1.5741247133e+000	 8.1660165709e-001	 2.3601897180e-001
 1.5652174926e+000	 8.3354726071e-001	 1.3535625901e-001
 1.5561130506e+000	 8.5042280420e-001	 3.4362257008e-002
 1.5468120834e+000	 8.6722492406e-001	-6.6540432638e-002
 1.6554364262e+000	 7.0677474842e-001	 8.8222208310e-001
 1.6478100126e+000	 7.2437735518e-001	 7.9137290937e-001
 1.6399805736e+000	 7.4193272950e-001	 6.9871901471e-001
 1.6319482913e+000	 7.5943747564e-001	 6.0432749474e-001
 1.6237134218e+000	 7.7688818926e-001	 5.0832155555e-001
 1.6152762950e+000	 7.9428145945e-001	 4.1088052614e-001
 1.6066373155e+000	 8.1161387061e-001	 3.1223979423e-001
 1.5977969630e+000	 8.2888200447e-001	 2.1269066618e-001
 1.5887557923e+000	 8.4608244213e-001	 1.1258015123e-001
 1.5795144344e+000	 8.6321176607e-001	 1.2310670070e-002
 1.5700735960e+000	 8.8026656221e-001	-8.7660312675e-002
 1.3374584701e+000	 7.4985018066e-001	 3.3094351944e-001
 1.3292458404e+000	 7.6431398883e-001	 2.3134302393e-001
 1.3208646337e+000	 7.7870848989e-001	 1.3214326960e-001
 1.3123156482e+000	 7.9303079459e-001	 3.3402107528e-002
 1.3035997473e+000	 8.0727802380e-001	-6.4657650155e-002
 1.2947178591e+000	 8.2144731029e-001	-1.6176585767e-001
 1.2856709767e+000	 8.3553580053e-001	-2.5760423214e-001
 1.2764601577e+000	 8.4954065654e-001	-3.5180571694e-001
 1.2670865240e+000	 8.6345905763e-001	-4.4395402037e-001
 1.2575512615e+000	 8.7728820228e-001	-5.3358333766e-001
 1.2478556198e+000	 8.9102530988e-001	-6.2017826345e-001
 1.3607199827e+000	 7.6289181882e-001	 2.8845759187e-001
 1.3523645163e+000	 7.7760718625e-001	 1.8680822755e-001
 1.3438375409e+000	 7.9225204115e-001	 8.6146286512e-002
 1.3351398687e+000	 8.0682344403e-001	-1.2960828438e-002
 1.3262723780e+000	 8.2131846568e-001	-1.1042746879e-001
 1.3172360131e+000	 8.3573418901e-001	-2.0694390796e-001
 1.3080317844e+000	 8.5006771085e-001	-3.0225523115e-001
 1.2986607678e+000	 8.6431614387e-001	-3.9602154909e-001
 1.2891241048e+000	 8.7847661832e-001	-4.8785133678e-001
 1.2794230019e+000	 8.9254628395e-001	-5.7730105228e-001
 1.2695587305e+000	 9.0652231179e-001	-6.6387495867e-001
 1.3839814953e+000	 7.7593345698e-001	 2.4103885576e-001
 1.3754831922e+000	 7.9090038366e-001	 1.3792177583e-001
 1.3668104481e+000	 8.0579559240e-001	 3.5415051860e-002
 1.3579640892e+000	 8.2061609346e-001	-6.5934308270e-002
 1.3489450086e+000	 8.3535890756e-001	-1.6552977692e-001
 1.3397541671e+000	 8.5002106772e-001	-2.6272575353e-001
 1.3303925920e+000	 8.6459962117e-001	-3.5693595400e-001
 1.3208613779e+000	 8.7909163119e-001	-4.4916086770e-001
 1.3111616856e+000	 8.9349417900e-001	-5.3955921686e-001
 1.3012947424e+000	 9.0780436561e-001	-6.2772935356e-001
 1.2912618412e+000	 9.2201931370e-001	-7.1321428311e-001
 1.4072430079e+000	 7.8897509513e-001	 1.9082247914e-001
 1.3986018680e+000	 8.0419358107e-001	 8.6866183871e-002
 1.3897833553e+000	 8.1933914365e-001	-1.6758795224e-002
 1.3807883096e+000	 8.3440874290e-001	-1.1954318532e-001
 1.3716176393e+000	 8.4939934944e-001	-2.2092650508e-001
 1.3622723211e+000	 8.6430794644e-001	-3.2029745740e-001
 1.3527533997e+000	 8.7913153149e-001	-4.1699442942e-001
 1.3430619880e+000	 8.9386711852e-001	-5.1030610113e-001
 1.3331992664e+000	 9.0851173969e-001	-5.9947231172e-001
 1.3231664828e+000	 9.2306244728e-001	-6.8523080597e-001
 1.3129649519e+000	 9.3751631561e-001	-7.6851595247e-001
 1.4305045204e+000	 8.0201673329e-001	 1.3980610291e-001
 1.4217205439e+000	 8.1748677848e-001	 3.5560316251e-002
 1.4127562625e+000	 8.3288269491e-001	-6.8529923085e-002
 1.4036125301e+000	 8.4820139233e-001	-1.7200942650e-001
 1.3942902700e+000	 8.6343979131e-001	-2.7436998907e-001
 1.3847904751e+000	 8.7859482515e-001	-3.7505069303e-001
 1.3751142074e+000	 8.9366344181e-001	-4.7343831821e-001
 1.3652625981e+000	 9.0864260585e-001	-5.6886786117e-001
 1.3552368472e+000	 9.2352930037e-001	-6.6062316498e-001
 1.3450382232e+000	 9.3832052895e-001	-7.4793766137e-001
 1.3346680626e+000	 9.5301331752e-001	-8.2999522681e-001
 1.4537660330e+000	 8.1505837144e-001	 8.9853323973e-002
 1.4448392197e+000	 8.3077997589e-001	-1.4210943051e-002
 1.4357291697e+000	 8.4642624616e-001	-1.1818722642e-001
 1.4264367505e+000	 8.6199404176e-001	-2.2168984270e-001
 1.4169629007e+000	 8.7748023319e-001	-3.2427817329e-001
 1.4073086290e+000	 8.9288170386e-001	-4.2545684398e-001
 1.3974750150e+000	 9.0819535213e-001	-5.2467601061e-001
 1.3874632082e+000	 9.2341809318e-001	-6.2133175323e-001
 1.3772744280e+000	 9.3854686106e-001	-7.1476658112e-001
 1.3669099637e+000	 9.5357861061e-001	-8.0427005104e-001
 1.3563711732e+000	 9.6851031942e-001	-8.8907950094e-001
 1.4770275456e+000	 8.2810000960e-001	 4.2697252328e-002
 1.4679578956e+000	 8.4407317330e-001	-6.0793088717e-002
 1.4587020769e+000	 8.5996979741e-001	-1.6415014824e-001
 1.4492609710e+000	 8.7578669120e-001	-2.6707229929e-001
 1.4396355313e+000	 8.9152067506e-001	-3.6920095801e-001
 1.4298267830e+000	 9.0716858258e-001	-4.7012060501e-001
 1.4198358227e+000	 9.2272726244e-001	-5.6935891166e-001
 1.4096638183e+000	 9.3819358050e-001	-6.6638697400e-001
 1.3993120089e+000	 9.5356442174e-001	-7.6061965758e-001
 1.3887817041e+000	 9.6883669228e-001	-8.5141605615e-001
 1.3780742839e+000	 9.8400732133e-001	-9.3808006718e-001
 1.5002890582e+000	 8.4114164775e-001	-5.5865906620e-005
 1.4910765715e+000	 8.5736637071e-001	-1.0265831405e-001
 1.4816749840e+000	 8.7351334866e-001	-2.0496491457e-001
 1.4720851914e+000	 8.8957934063e-001	-3.0677183340e-001
 1.4623081620e+000	 9.0556111694e-001	-4.0781616327e-001
 1.4523449370e+000	 9.2145546129e-001	-5.0777575312e-001
 1.4421966304e+000	 9.3725917276e-001	-6.0626914048e-001
 1.4318644284e+000	 9.5296906783e-001	-7.0285559045e-001
 1.4213495897e+000	 9.6858198243e-001	-7.9703524505e-001
 1.4106534445e+000	 9.8409477394e-001	-8.8824938696e-001
 1.3997773946e+000	 9.9950432324e-001	-9.7588082127e-001
 1.5235505708e+000	 8.5418328591e-001	-3.6922966536e-002
 1.5141952473e+000	 8.7065956811e-001	-1.3840176117e-001
 1.5046478912e+000	 8.8705689991e-001	-2.3930069101e-001
 1.4949094119e+000	 9.0337199006e-001	-3.3952668778e-001
 1.4849807927e+000	 9.1960155881e-001	-4.3892540762e-001
 1.4748630910e+000	 9.3574234000e-001	-5.3728083508e-001
 1.4645574380e+000	 9.5179108307e-001	-6.3431498746e-001
 1.4540650385e+000	 9.6774455515e-001	-7.2968772413e-001
 1.4433871705e+000	 9.8359954311e-001	-8.2299666548e-001
 1.4325251850e+000	 9.9935285560e-001	-9.1377722627e-001
 1.4214805053e+000	 1.0150013251e+000	-1.0015037085e+000
 1.5468120834e+000	 8.6722492406e-001	-6.6540432638e-002
 1.5373139232e+000	 8.8395276552e-001	-1.6673770887e-001
 1.5276207984e+000	 9.0060045116e-001	-2.6594566969e-001
 1.5177336323e+000	 9.1716463949e-001	-3.6419427026e-001
 1.5076534233e+000	 9.3364200069e-001	-4.6144991052e-001
 1.4973812450e+000	 9.5002921872e-001	-5.5761478036e-001
 1.4869182457e+000	 9.6632299339e-001	-6.5252630206e-001
 1.4762656486e+000	 9.8252004248e-001	-7.4595667538e-001
 1.4654247513e+000	 9.9861710379e-001	-8.3761253115e-001
 1.4543969254e+000	 1.0146109373e+000	-9.2713566204e-001
 1.4431836160e+000	 1.0304983271e+000	-1.0140989014e+000
 1.5700735960e+000	 8.8026656221e-001	-8.7660312675e-002
 1.5604325990e+000	 8.9724596293e-001	-1.8649570447e-001
 1.5505937056e+000	 9.1414400241e-001	-2.8380309351e-001
 1.5405578528e+000	 9.3095728892e-001	-3.7974704635e-001
 1.5303260540e+000	 9.4768244256e-001	-4.7442622638e-001
 1.5198993990e+000	 9.6431609743e-001	-5.6787244702e-001
 1.5092790533e+000	 9.8085490370e-001	-6.6004981833e-001
 1.4984662587e+000	 9.9729552980e-001	-7.5085399350e-001
 1.4874623321e+000	 1.0136346645e+000	-8.4011253428e-001
 1.4762686658e+000	 1.0298690189e+000	-9.2758015448e-001
 1.4648867267e+000	 1.0459953290e+000	-1.0129449240e+000
 1.2478556198e+000	 8.9102530988e-001	-6.2017826345e-001
 1.2380009114e+000	 9.0466762225e-001	-7.0570229279e-001
 1.2279885099e+000	 9.1821240449e-001	-7.9215714012e-001
 1.2178198509e+000	 9.3165694760e-001	-8.7900688381e-001
 1.2074964313e+000	 9.4499857057e-001	-9.6566169075e-001
 1.1970198092e+000	 9.5823462210e-001	-1.0514784280e+000
 1.1863916024e+000	 9.7136248230e-001	-1.1357614968e+000
 1.1756134885e+000	 9.8437956441e-001	-1.2177638907e+000
 1.1646872033e+000	 9.9728331646e-001	-1.2966884772e+000
 1.1536145402e+000	 1.0100712229e+000	-1.3716895028e+000
 1.1423973494e+000	 1.0227408064e+000	-1.4418750931e+000
 1.2695587305e+000	 9.0652231179e-001	-6.6387495867e-001
 1.2595326258e+000	 9.2040189569e-001	-7.4944793260e-001
 1.2493460854e+000	 9.3418225318e-001	-8.3593638765e-001
 1.2390005697e+000	 9.4786062816e-001	-9.2282126998e-001
 1.2284976019e+000	 9.6143429298e-001	-1.0095218384e+000
 1.2178387669e+000	 9.7490055022e-001	-1.0953962162e+000
 1.2070257109e+000	 9.8825673443e-001	-1.1797421915e+000
 1.1960601405e+000	 1.0015002139e+000	-1.2617982665e+000
 1.1849438218e+000	 1.0146283922e+000	-1.3407459673e+000
 1.1736785794e+000	 1.0276387101e+000	-1.4157071753e+000
 1.1622662956e+000	 1.0405286470e+000	-1.4857525251e+000
 1.2912618412e+000	 9.2201931370e-001	-7.1321428311e-001
 1.2810643402e+000	 9.3613616914e-001	-7.9774126702e-001
 1.2707036608e+000	 9.5015210188e-001	-8.8307821448e-001
 1.2601812885e+000	 9.6406430873e-001	-9.6873562351e-001
 1.2494987724e+000	 9.7787001539e-001	-1.0541549967e+000
 1.2386577246e+000	 9.9156647834e-001	-1.1387093075e+000
 1.2276598194e+000	 1.0051509866e+000	-1.2217037401e+000
 1.2165067926e+000	 1.0186208633e+000	-1.3023777220e+000
 1.2052004404e+000	 1.0319734679e+000	-1.3799019862e+000
 1.1937426186e+000	 1.0452061972e+000	-1.4533867329e+000
 1.1821352418e+000	 1.0583164877e+000	-1.5218789136e+000
 1.3129649519e+000	 9.3751631561e-001	-7.6851595247e-001
 1.3025960546e+000	 9.5187044258e-001	-8.5086930289e-001
 1.2920612363e+000	 9.6612195058e-001	-9.3386816212e-001
 1.2813620074e+000	 9.8026798929e-001	-1.0170646967e+000
 1.2704999430e+000	 9.9430573780e-001	-1.0999351912e+000
 1.2594766823e+000	 1.0082324065e+000	-1.1818804026e+000
 1.2482939279e+000	 1.0220452387e+000	-1.2622272119e+000
 1.2369534446e+000	 1.0357415128e+000	-1.3402254439e+000
 1.2254570589e+000	 1.0493185436e+000	-1.4150555523e+000
 1.2138066578e+000	 1.0627736844e+000	-1.4858257512e+000
 1.2020041879e+000	 1.0761043283e+000	-1.5515750258e+000
 1.3346680626e+000	 9.5301331752e-001	-8.2999522681e-001
 1.3241277690e+000	 9.6760471602e-001	-9.0904768044e-001
 1.3134188117e+000	 9.8209179928e-001	-9.8852182264e-001
 1.3025427262e+000	 9.9647166985e-001	-1.0680531925e+000
 1.2915011135e+000	 1.0107414602e+000	-1.1471659201e+000
 1.2802956401e+000	 1.0248983346e+000	-1.2252985539e+000
 1.2689280364e+000	 1.0389394908e+000	-1.3018115525e+000
 1.2574000967e+000	 1.0528621622e+000	-1.3759833829e+000
 1.2457136775e+000	 1.0666636193e+000	-1.4470129496e+000
 1.2338706970e+000	 1.0803411715e+000	-1.5140211275e+000
 1.2218731341e+000	 1.0938921690e+000	-1.5760526257e+000
 1.3563711732e+000	 9.6851031942e-001	-8.8907950094e-001
 1.3456594834e+000	 9.8333898946e-001	-9.6981697466e-001
 1.3347763872e+000	 9.9806164798e-001	-1.0471381897e+000
 1.3237234450e+000	 1.0126753504e+000	-1.1218678465e+000
 1.3125022841e+000	 1.0271771826e+000	-1.1960666473e+000
 1.3011145978e+000	 1.0415642627e+000	-1.2692663424e+000
 1.2895621449e+000	 1.0558337430e+000	-1.3408715481e+000
 1.2778467487e+000	 1.0699828117e+000	-1.4101995238e+000
 1.2659702960e+000	 1.0840086950e+000	-1.4764812905e+000
 1.2539347362e+000	 1.0979086586e+000	-1.5388631085e+000
 1.2417420802e+000	 1.1116800096e+000	-1.5964083151e+000
 1.3780742839e+000	 9.8400732133e-001	-9.3808006718e-001
 1.3671911978e+000	 9.9907326290e-001	-1.0210080116e+000
 1.3561339626e+000	 1.0140314967e+000	-1.1006177661e+000
 1.3449041638e+000	 1.0288790310e+000	-1.1761479764e+000
 1.3335034546e+000	 1.0436129050e+000	-1.2467702493e+000
 1.3219335555e+000	 1.0582301908e+000	-1.3139973438e+000
 1.3101962534e+000	 1.0727279951e+000	-1.3797247123e+000
 1.2982934008e+000	 1.0871034612e+000	-1.4433208523e+000
 1.2862269145e+000	 1.1013537707e+000	-1.5040607697e+000
 1.2739987753e+000	 1.1154761458e+000	-1.5611281385e+000
 1.2616110264e+000	 1.1294678503e+000	-1.6136170880e+000
 1.3997773946e+000	 9.9950432324e-001	-9.7588082127e-001
 1.3887229121e+000	 1.0148075363e+000	-1.0601312631e+000
 1.3774915381e+000	 1.0300013454e+000	-1.1412039347e+000
 1.3660848826e+000	 1.0450827115e+000	-1.2183911181e+000
 1.3545046252e+000	 1.0600486274e+000	-1.2909114250e+000
 1.3427525133e+000	 1.0748961189e+000	-1.3579115426e+000
 1.3308303620e+000	 1.0896222472e+000	-1.4185838604e+000
 1.3187400528e+000	 1.1042241106e+000	-1.4756850650e+000
 1.3064835331e+000	 1.1186988464e+000	-1.5302367997e+000
 1.2940628145e+000	 1.1330436329e+000	-1.5814715263e+000
 1.2814799725e+000	 1.1472556909e+000	-1.6285256340e+000
 1.4214805053e+000	 1.0150013251e+000	-1.0015037085e+000
 1.4102546265e+000	 1.0305418098e+000	-1.0862244945e+000
 1.3988491135e+000	 1.0459711941e+000	-1.1679765813e+000
 1.3872656015e+000	 1.0612863921e+000	-1.2461091757e+000
 1.3755057957e+000	 1.0764843498e+000	-1.3198970894e+000
 1.3635714710e+000	 1.0915620471e+000	-1.3885412319e+000
 1.3514644705e+000	 1.1065164994e+000	-1.4511692731e+000
 1.3391867049e+000	 1.1213447601e+000	-1.5068364813e+000
 1.3267401516e+000	 1.1360439222e+000	-1.5553720388e+000
 1.3141268537e+000	 1.1506111200e+000	-1.6004199504e+000
 1.3013489187e+000	 1.1650435316e+000	-1.6418454128e+000
 1.4431836160e+000	 1.0304983271e+000	-1.0140989014e+000
 1.4317863409e+000	 1.0462760832e+000	-1.0984627235e+000
 1.4202066890e+000	 1.0619410428e+000	-1.1801502661e+000
 1.4084463203e+000	 1.0774900727e+000	-1.2585758510e+000
 1.3965069663e+000	 1.0929200723e+000	-1.3330781247e+000
 1.3843904287e+000	 1.1082279752e+000	-1.4029203622e+000
 1.3720985790e+000	 1.1234107515e+000	-1.4672909420e+000
 1.3596333569e+000	 1.1384654095e+000	-1.5253040007e+000
 1.3469967702e+000	 1.1533889979e+000	-1.5760002697e+000
 1.3341908929e+000	 1.1681786072e+000	-1.6183481015e+000
 1.3212178648e+000	 1.1828313722e+000	-1.6541455283e+000
 1.4648867267e+000	 1.0459953290e+000	-1.0129449240e+000
 1.4533180553e+000	 1.0620103567e+000	-1.0961476923e+000
 1.4415642644e+000	 1.0779108915e+000	-1.1770688401e+000
 1.4296270391e+000	 1.0936937532e+000	-1.2551945065e+000
 1.4175081369e+000	 1.1093557947e+000	-1.3299343889e+000
 1.4052093865e+000	 1.1248939033e+000	-1.4006218336e+000
 1.3927326875e+000	 1.1403050036e+000	-1.4665140989e+000
 1.3800800090e+000	 1.1555860590e+000	-1.5267927988e+000
 1.3672533887e+000	 1.1707340736e+000	-1.5805645339e+000
 1.3542549321e+000	 1.1857460943e+000	-1.6268617143e+000
 1.3410868110e+000	 1.2006192129e+000	-1.6646435814e+000
 1.1423973494e+000	 1.0227408064e+000	-1.4418750931e+000
 1.1310392512e+000	 1.0352877560e+000	-1.5088769501e+000
 1.1195405341e+000	 1.0477115864e+000	-1.5746955984e+000
 1.1079032118e+000	 1.0600099458e+000	-1.6388925468e+000
 1.0961293502e+000	 1.0721805264e+000	-1.7009897331e+000
 1.0842210662e+000	 1.0842210662e+000	-1.7604712185e+000
 1.0721805264e+000	 1.0961293502e+000	-1.8167850657e+000
 1.0600099458e+000	 1.1079032118e+000	-1.8693453917e+000
 1.0477115864e+000	 1.1195405341e+000	-1.9175345878e+000
 1.0352877560e+000	 1.1310392512e+000	-1.9607056951e+000
 1.0227408064e+000	 1.1423973494e+000	-1.9981849253e+000
 1.1622662956e+000	 1.0405286470e+000	-1.4857525251e+000
 1.1507106537e+000	 1.0532938173e+000	-1.5525434095e+000
 1.1390119471e+000	 1.0659337270e+000	-1.6181269868e+000
 1.1271722247e+000	 1.0784459834e+000	-1.6820476825e+000
 1.1151935882e+000	 1.0908282387e+000	-1.7438063877e+000
 1.1030781915e+000	 1.1030781915e+000	-1.8028622545e+000
 1.0908282387e+000	 1.1151935882e+000	-1.8586346926e+000
 1.0784459834e+000	 1.1271722247e+000	-1.9105055607e+000
 1.0659337270e+000	 1.1390119471e+000	-1.9578215420e+000
 1.0532938173e+000	 1.1507106537e+000	-1.9998966922e+000
 1.0405286470e+000	 1.1622662956e+000	-2.0360151495e+000
 1.1821352418e+000	 1.0583164877e+000	-1.5218789136e+000
 1.1703820561e+000	 1.0712998786e+000	-1.5871325504e+000
 1.1584833601e+000	 1.0841558676e+000	-1.6512602409e+000
 1.1464412376e+000	 1.0968820211e+000	-1.7137356639e+000
 1.1342578263e+000	 1.1094759510e+000	-1.7739855702e+000
 1.1219353168e+000	 1.1219353168e+000	-1.8313917818e+000
 1.1094759510e+000	 1.1342578263e+000	-1.8852934125e+000
 1.0968820211e+000	 1.1464412376e+000	-1.9349893010e+000
 1.0841558676e+000	 1.1584833601e+000	-1.9797406449e+000
 1.0712998786e+000	 1.1703820561e+000	-2.0187738247e+000
 1.0583164877e+000	 1.1821352418e+000	-2.0512834036e+000
 1.2020041879e+000	 1.0761043283e+000	-1.5515750258e+000
 1.1900534585e+000	 1.0893059399e+000	-1.6142164256e+000
 1.1779547731e+000	 1.1023780082e+000	-1.6759498738e+000
 1.1657102505e+000	 1.1153180587e+000	-1.7361270987e+000
 1.1533220644e+000	 1.1281236634e+000	-1.7940500258e+000
 1.1407924421e+000	 1.1407924421e+000	-1.8489730846e+000
 1.1281236634e+000	 1.1533220644e+000	-1.9001057542e+000
 1.1153180587e+000	 1.1657102505e+000	-1.9466153403e+000
 1.1023780082e+000	 1.1779547731e+000	-1.9876299697e+000
 1.0893059399e+000	 1.1900534585e+000	-2.0222417898e+000
 1.0761043283e+000	 1.2020041879e+000	-2.0495103587e+000
 1.2218731341e+000	 1.0938921690e+000	-1.5760526257e+000
 1.2097248609e+000	 1.1073120011e+000	-1.6352475093e+000
 1.1974261861e+000	 1.1206001488e+000	-1.6939186977e+000
 1.1849792634e+000	 1.1337540964e+000	-1.7512470514e+000
 1.1723863024e+000	 1.1467713757e+000	-1.8063612252e+000
 1.1596495674e+000	 1.1596495674e+000	-1.8583403817e+000
 1.1467713757e+000	 1.1723863024e+000	-1.9062171630e+000
 1.1337540964e+000	 1.1849792634e+000	-1.9489809109e+000
 1.1206001488e+000	 1.1974261861e+000	-1.9855811215e+000
 1.1073120011e+000	 1.2097248609e+000	-2.0149311198e+000
 1.0938921690e+000	 1.2218731341e+000	-2.0359119384e+000
 1.2417420802e+000	 1.1116800096e+000	-1.5964083151e+000
 1.2293962633e+000	 1.1253180624e+000	-1.6515534590e+000
 1.2168975991e+000	 1.1388222893e+000	-1.7067536615e+000
 1.2042482763e+000	 1.1521901340e+000	-1.7609721271e+000
 1.1914505405e+000	 1.1654190881e+000	-1.8131178765e+000
 1.1785066928e+000	 1.1785066928e+000	-1.8620489636e+000
 1.1654190881e+000	 1.1914505405e+000	-1.9065759717e+000
 1.1521901340e+000	 1.2042482763e+000	-1.9454657756e+000
 1.1388222893e+000	 1.2168975991e+000	-1.9774455539e+000
 1.1253180624e+000	 1.2293962633e+000	-2.0012070370e+000
 1.1116800096e+000	 1.2417420802e+000	-2.0154109712e+000
 1.2616110264e+000	 1.1294678503e+000	-1.6136170880e+000
 1.2490676657e+000	 1.1433241237e+000	-1.6643314999e+000
 1.2363690121e+000	 1.1570444299e+000	-1.7159012060e+000
 1.2235172892e+000	 1.1706261717e+000	-1.7670269515e+000
 1.2105147786e+000	 1.1840668004e+000	-1.8163536964e+000
 1.1973638181e+000	 1.1973638181e+000	-1.8624744324e+000
 1.1840668004e+000	 1.2105147786e+000	-1.9039343002e+000
 1.1706261717e+000	 1.2235172892e+000	-1.9392349894e+000
 1.1570444299e+000	 1.2363690121e+000	-1.9668394064e+000
 1.1433241237e+000	 1.2490676657e+000	-1.9851765916e+000
 1.1294678503e+000	 1.2616110264e+000	-1.9926468645e+000
 1.2814799725e+000	 1.1472556909e+000	-1.6285256340e+000
 1.2687390682e+000	 1.1613301850e+000	-1.6746424737e+000
 1.2558404251e+000	 1.1752665705e+000	-1.7226621886e+000
 1.2427863021e+000	 1.1890622093e+000	-1.7709801118e+000
 1.2295790166e+000	 1.2027145127e+000	-1.8179345194e+000
 1.2162209434e+000	 1.2162209434e+000	-1.8618111430e+000
 1.2027145127e+000	 1.2295790166e+000	-1.9008480013e+000
 1.1890622093e+000	 1.2427863021e+000	-1.9332405346e+000
 1.1752665705e+000	 1.2558404251e+000	-1.9571470231e+000
 1.1613301850e+000	 1.2687390682e+000	-1.9706942684e+000
 1.1472556909e+000	 1.2814799725e+000	-1.9719835158e+000
 1.3013489187e+000	 1.1650435316e+000	-1.6418454128e+000
 1.2884104706e+000	 1.1793362463e+000	-1.6834045871e+000
 1.2753118380e+000	 1.1934887111e+000	-1.7281864234e+000
 1.2620553150e+000	 1.2074982469e+000	-1.7742396167e+000
 1.2486432547e+000	 1.2213622251e+000	-1.8195548170e+000
 1.2350780687e+000	 1.2350780687e+000	-1.8620699291e+000
 1.2213622251e+000	 1.2486432547e+000	-1.8996757534e+000
 1.2074982469e+000	 1.2620553150e+000	-1.9302219482e+000
 1.1934887111e+000	 1.2753118380e+000	-1.9515232928e+000
 1.1793362463e+000	 1.2884104706e+000	-1.9613662275e+000
 1.1650435316e+000	 1.3013489187e+000	-1.9575156480e+000
 1.3212178648e+000	 1.1828313722e+000	-1.6541455283e+000
 1.3080818730e+000	 1.1973423076e+000	-1.6913868918e+000
 1.2947832510e+000	 1.2117108517e+000	-1.7334668767e+000
 1.2813243279e+000	 1.2259342846e+000	-1.7780479264e+000
 1.2677074928e+000	 1.2400099374e+000	-1.8227336881e+000
 1.2539351941e+000	 1.2539351941e+000	-1.8650751917e+000
 1.2400099374e+000	 1.2677074928e+000	-1.9025773916e+000
 1.2259342846e+000	 1.2813243279e+000	-1.9327060494e+000
 1.2117108517e+000	 1.2947832510e+000	-1.9528949351e+000
 1.1973423076e+000	 1.3080818730e+000	-1.9605533205e+000
 1.1828313722e+000	 1.3212178648e+000	-1.9530737368e+000
 1.3410868110e+000	 1.2006192129e+000	-1.6646435814e+000
 1.3277532754e+000	 1.2153483688e+000	-1.6992025247e+000
 1.3142546640e+000	 1.2299329922e+000	-1.7393335553e+000
 1.3005933408e+000	 1.2443703222e+000	-1.7834765963e+000
 1.2867717309e+000	 1.2586576498e+000	-1.8288103763e+000
 1.2727923194e+000	 1.2727923194e+000	-1.8724614144e+000
 1.2586576498e+000	 1.2867717309e+000	-1.9115115542e+000
 1.2443703222e+000	 1.3005933408e+000	-1.9430058589e+000
 1.2299329922e+000	 1.3142546640e+000	-1.9639608431e+000
 1.2153483688e+000	 1.3277532754e+000	-1.9713730115e+000
 1.2006192129e+000	 1.3410868110e+000	-1.9630270793e+000
 1.0227408064e+000	 1.1423973494e+000	-1.9981849253e+000
 1.0100712229e+000	 1.1536145402e+000	-2.0339775252e+000
 9.9728331646e-001	 1.1646872033e+000	-2.0713869742e+000
 9.8437956441e-001	 1.1756134885e+000	-2.1087081717e+000
 9.7136248230e-001	 1.1863916024e+000	-2.1442604795e+000
 9.5823462210e-001	 1.1970198092e+000	-2.1763938663e+000
 9.4499857057e-001	 1.2074964313e+000	-2.2034937048e+000
 9.3165694760e-001	 1.2178198509e+000	-2.2239855212e+000
 9.1821240449e-001	 1.2279885099e+000	-2.2363396815e+000
 9.0466762225e-001	 1.2380009114e+000	-2.2390759917e+000
 8.9102530988e-001	 1.2478556198e+000	-2.2307681966e+000
 1.0405286470e+000	 1.1622662956e+000	-2.0360151495e+000
 1.0276387101e+000	 1.1736785794e+000	-2.0709113748e+000
 1.0146283922e+000	 1.1849438218e+000	-2.1084884594e+000
 1.0015002139e+000	 1.1960601405e+000	-2.1468010113e+000
 9.8825673443e-001	 1.2070257109e+000	-2.1839306708e+000
 9.7490055022e-001	 1.2178387669e+000	-2.2180030403e+000
 9.6143429298e-001	 1.2284976019e+000	-2.2471856821e+000
 9.4786062816e-001	 1.2390005697e+000	-2.2696952514e+000
 9.3418225318e-001	 1.2493460854e+000	-2.2838027602e+000
 9.2040189569e-001	 1.2595326258e+000	-2.2878387397e+000
 9.0652231179e-001	 1.2695587305e+000	-2.2801982826e+000
 1.0583164877e+000	 1.1821352418e+000	-2.0512834036e+000
 1.0452061972e+000	 1.1937426186e+000	-2.0828236476e+000
 1.0319734679e+000	 1.2052004404e+000	-2.1180572766e+000
 1.0186208633e+000	 1.2165067926e+000	-2.1548574633e+000
 1.0051509866e+000	 1.2276598194e+000	-2.1911376162e+000
 9.9156647834e-001	 1.2386577246e+000	-2.2248485657e+000
 9.7787001539e-001	 1.2494987724e+000	-2.2539972487e+000
 9.6406430873e-001	 1.2601812885e+000	-2.2766443552e+000
 9.5015210188e-001	 1.2707036608e+000	-2.2909120968e+000
 9.3613616914e-001	 1.2810643402e+000	-2.2949898742e+000
 9.2201931370e-001	 1.2912618412e+000	-2.2871398084e+000
 1.0761043283e+000	 1.2020041879e+000	-2.0495103587e+000
 1.0627736844e+000	 1.2138066578e+000	-2.0758444964e+000
 1.0493185436e+000	 1.2254570589e+000	-2.1067713327e+000
 1.0357415128e+000	 1.2369534446e+000	-2.1400429191e+000
 1.0220452387e+000	 1.2482939279e+000	-2.1734523074e+000
 1.0082324065e+000	 1.2594766823e+000	-2.2048424813e+000
 9.9430573780e-001	 1.2704999430e+000	-2.2321031518e+000
 9.8026798929e-001	 1.2813620074e+000	-2.2531910039e+000
 9.6612195058e-001	 1.2920612363e+000	-2.2661269610e+000
 9.5187044258e-001	 1.3025960546e+000	-2.2690044723e+000
 9.3751631561e-001	 1.3129649519e+000	-2.2599954864e+000
 1.0938921690e+000	 1.2218731341e+000	-2.0359119384e+000
 1.0803411715e+000	 1.2338706970e+000	-2.0557709178e+000
 1.0666636193e+000	 1.2457136775e+000	-2.0809500216e+000
 1.0528621622e+000	 1.2574000967e+000	-2.1091352555e+000
 1.0389394908e+000	 1.2689280364e+000	-2.1380547057e+000
 1.0248983346e+000	 1.2802956401e+000	-2.1654853774e+000
 1.0107414602e+000	 1.2915011135e+000	-2.1892599932e+000
 9.9647166985e-001	 1.3025427262e+000	-2.2072768291e+000
 9.8209179928e-001	 1.3134188117e+000	-2.2174943788e+000
 9.6760471602e-001	 1.3241277690e+000	-2.2179552130e+000
 9.5301331752e-001	 1.3346680626e+000	-2.2068035765e+000
 1.1116800096e+000	 1.2417420802e+000	-2.0154109712e+000
 1.0979086586e+000	 1.2539347362e+000	-2.0280796239e+000
 1.0840086950e+000	 1.2659702960e+000	-2.0465693044e+000
 1.0699828117e+000	 1.2778467487e+000	-2.0685520317e+000
 1.0558337430e+000	 1.2895621449e+000	-2.0917410726e+000
 1.0415642627e+000	 1.3011145978e+000	-2.1138981102e+000
 1.0271771826e+000	 1.3125022841e+000	-2.1328403808e+000
 1.0126753504e+000	 1.3237234450e+000	-2.1464477498e+000
 9.9806164798e-001	 1.3347763872e+000	-2.1527005885e+000
 9.8333898946e-001	 1.3456594834e+000	-2.1514187065e+000
 9.6851031942e-001	 1.3563711732e+000	-2.1415567083e+000
 1.1294678503e+000	 1.2616110264e+000	-1.9926468645e+000
 1.1154761458e+000	 1.2739987753e+000	-1.9979392338e+000
 1.1013537707e+000	 1.2862269145e+000	-2.0092761287e+000
 1.0871034612e+000	 1.2982934008e+000	-2.0243647788e+000
 1.0727279951e+000	 1.3101962534e+000	-2.0409509599e+000
 1.0582301908e+000	 1.3219335555e+000	-2.0568264299e+000
 1.0436129050e+000	 1.3335034546e+000	-2.0698368871e+000
 1.0288790310e+000	 1.3449041638e+000	-2.0796118561e+000
 1.0140314967e+000	 1.3561339626e+000	-2.0854950026e+000
 9.9907326290e-001	 1.3671911978e+000	-2.0852014079e+000
 9.8400732133e-001	 1.3780742839e+000	-2.0765325492e+000
 1.1472556909e+000	 1.2814799725e+000	-1.9719835158e+000
 1.1330436329e+000	 1.2940628145e+000	-1.9702204729e+000
 1.1186988464e+000	 1.3064835331e+000	-1.9744006517e+000
 1.1042241106e+000	 1.3187400528e+000	-1.9823129721e+000
 1.0896222472e+000	 1.3308303620e+000	-1.9917803674e+000
 1.0748961189e+000	 1.3427525133e+000	-2.0018417395e+000
 1.0600486274e+000	 1.3545046252e+000	-2.0126876286e+000
 1.0450827115e+000	 1.3660848826e+000	-2.0220191726e+000
 1.0300013454e+000	 1.3774915381e+000	-2.0275385821e+000
 1.0148075363e+000	 1.3887229121e+000	-2.0270363305e+000
 9.9950432324e-001	 1.3997773946e+000	-2.0184006613e+000
 1.1650435316e+000	 1.3013489187e+000	-1.9575156480e+000
 1.1506111200e+000	 1.3141268537e+000	-1.9495045907e+000
 1.1360439222e+000	 1.3267401516e+000	-1.9469665036e+000
 1.1213447601e+000	 1.3391867049e+000	-1.9482781295e+000
 1.1065164994e+000	 1.3514644705e+000	-1.9543187378e+000
 1.0915620471e+000	 1.3635714710e+000	-1.9632811640e+000
 1.0764843498e+000	 1.3755057957e+000	-1.9728397403e+000
 1.0612863921e+000	 1.3872656015e+000	-1.9807404209e+000
 1.0459711941e+000	 1.3988491135e+000	-1.9848063937e+000
 1.0305418098e+000	 1.4102546265e+000	-1.9829435635e+000
 1.0150013251e+000	 1.4214805053e+000	-1.9731458893e+000
 1.1828313722e+000	 1.3212178648e+000	-1.9530737368e+000
 1.1681786072e+000	 1.3341908929e+000	-1.9401008405e+000
 1.1533889979e+000	 1.3469967702e+000	-1.9341741277e+000
 1.1384654095e+000	 1.3596333569e+000	-1.9349760852e+000
 1.1234107515e+000	 1.3720985790e+000	-1.9402417503e+000
 1.1082279752e+000	 1.3843904287e+000	-1.9477591049e+000
 1.0929200723e+000	 1.3965069663e+000	-1.9553747583e+000
 1.0774900727e+000	 1.4084463203e+000	-1.9609995531e+000
 1.0619410428e+000	 1.4202066890e+000	-1.9626140774e+000
 1.0462760832e+000	 1.4317863409e+000	-1.9582740655e+000
 1.0304983271e+000	 1.4431836160e+000	-1.9461156680e+000
 1.2006192129e+000	 1.3410868110e+000	-1.9630270793e+000
 1.1857460943e+000	 1.3542549321e+000	-1.9516892476e+000
 1.1707340736e+000	 1.3672533887e+000	-1.9477267838e+000
 1.1555860590e+000	 1.3800800090e+000	-1.9490647467e+000
 1.1403050036e+000	 1.3927326875e+000	-1.9536667515e+000
 1.1248939033e+000	 1.4052093865e+000	-1.9595404893e+000
 1.1093557947e+000	 1.4175081369e+000	-1.9647432102e+000
 1.0936937532e+000	 1.4296270391e+000	-1.9673871504e+000
 1.0779108915e+000	 1.4415642644e+000	-1.9656448851e+000
 1.0620103567e+000	 1.4533180553e+000	-1.9577545901e+000
 1.0459953290e+000	 1.4648867267e+000	-1.9420251939e+000
 8.9102530988e-001	 1.2478556198e+000	-2.2307681966e+000
 8.7728820228e-001	 1.2575512615e+000	-2.2180016485e+000
 8.6345905763e-001	 1.2670865240e+000	-2.2073945777e+000
 8.4954065654e-001	 1.2764601577e+000	-2.1976680762e+000
 8.3553580053e-001	 1.2856709767e+000	-2.1876198514e+000
 8.2144731029e-001	 1.2947178591e+000	-2.1761282567e+000
 8.0727802380e-001	 1.3035997473e+000	-2.1621560932e+000
 7.9303079459e-001	 1.3123156482e+000	-2.1447541688e+000
 7.7870848989e-001	 1.3208646337e+000	-2.1230645994e+000
 7.6431398883e-001	 1.3292458404e+000	-2.0963238397e+000
 7.4985018066e-001	 1.3374584701e+000	-2.0639741593e+000
 9.0652231179e-001	 1.2695587305e+000	-2.2801982826e+000
 8.9254628395e-001	 1.2794230019e+000	-2.2674739399e+000
 8.7847661832e-001	 1.2891241048e+000	-2.2564145288e+000
 8.6431614387e-001	 1.2986607678e+000	-2.2457576878e+000
 8.5006771085e-001	 1.3080317844e+000	-2.2343203028e+000
 8.3573418901e-001	 1.3172360131e+000	-2.2210027644e+000
 8.2131846568e-001	 1.3262723780e+000	-2.2047929860e+000
 8.0682344403e-001	 1.3351398687e+000	-2.1847985316e+000
 7.9225204115e-001	 1.3438375409e+000	-2.1609883578e+000
 7.7760718625e-001	 1.3523645163e+000	-2.1327915926e+000
 7.6289181882e-001	 1.3607199827e+000	-2.0993102410e+000
 9.2201931370e-001	 1.2912618412e+000	-2.2871398084e+000
 9.0780436561e-001	 1.3012947424e+000	-2.2738575245e+000
 8.9349417900e-001	 1.3111616856e+000	-2.2618916753e+000
 8.7909163119e-001	 1.3208613779e+000	-2.2499998777e+000
 8.6459962117e-001	 1.3303925920e+000	-2.2370210590e+000
 8.5002106772e-001	 1.3397541671e+000	-2.2222841701e+000
 8.3535890756e-001	 1.3489450086e+000	-2.2058683055e+000
 8.2061609346e-001	 1.3579640892e+000	-2.1866743982e+000
 8.0579559240e-001	 1.3668104481e+000	-2.1636237358e+000
 7.9090038366e-001	 1.3754831922e+000	-2.1357459590e+000
 7.7593345698e-001	 1.3839814953e+000	-2.1021814555e+000
 9.3751631561e-001	 1.3129649519e+000	-2.2599954864e+000
 9.2306244728e-001	 1.3231664828e+000	-2.2454258780e+000
 9.0851173969e-001	 1.3331992664e+000	-2.2319459491e+000
 8.9386711852e-001	 1.3430619880e+000	-2.2193640971e+000
 8.7913153149e-001	 1.3527533997e+000	-2.2074072808e+000
 8.6430794644e-001	 1.3622723211e+000	-2.1947204027e+000
 8.4939934944e-001	 1.3716176393e+000	-2.1800490286e+000
 8.3440874290e-001	 1.3807883096e+000	-2.1622427164e+000
 8.1933914365e-001	 1.3897833553e+000	-2.1402579977e+000
 8.0419358107e-001	 1.3986018680e+000	-2.1131611164e+000
 7.8897509513e-001	 1.4072430079e+000	-2.0801305158e+000
 9.5301331752e-001	 1.3346680626e+000	-2.2068035765e+000
 9.3832052895e-001	 1.3450382232e+000	-2.1916909643e+000
 9.2352930037e-001	 1.3552368472e+000	-2.1798073088e+000
 9.0864260585e-001	 1.3652625981e+000	-2.1696402543e+000
 8.9366344181e-001	 1.3751142074e+000	-2.1597712898e+000
 8.7859482515e-001	 1.3847904751e+000	-2.1488795096e+000
 8.6343979131e-001	 1.3942902700e+000	-2.1357451583e+000
 8.4820139233e-001	 1.4036125301e+000	-2.1192529501e+000
 8.3288269491e-001	 1.4127562625e+000	-2.0983951529e+000
 8.1748677848e-001	 1.4217205439e+000	-2.0722744268e+000
 8.0201673329e-001	 1.4305045204e+000	-2.0401064110e+000
 9.6851031942e-001	 1.3563711732e+000	-2.1415567083e+000
 9.5357861061e-001	 1.3669099637e+000	-2.1286705972e+000
 9.3854686106e-001	 1.3772744280e+000	-2.1187241856e+000
 9.2341809318e-001	 1.3874632082e+000	-2.1102422802e+000
 9.0819535213e-001	 1.3974750150e+000	-2.1018430292e+000
 8.9288170386e-001	 1.4073086290e+000	-2.0922417862e+000
 8.7748023319e-001	 1.4169629007e+000	-2.0802547595e+000
 8.6199404176e-001	 1.4264367505e+000	-2.0648024359e+000
 8.4642624616e-001	 1.4357291697e+000	-2.0449127696e+000
 8.3077997589e-001	 1.4448392197e+000	-2.0197241250e+000
 8.1505837144e-001	 1.4537660330e+000	-1.9884879663e+000
 9.8400732133e-001	 1.3780742839e+000	-2.0765325492e+000
 9.6883669228e-001	 1.3887817041e+000	-2.0648440277e+000
 9.5356442174e-001	 1.3993120089e+000	-2.0558974047e+000
 9.3819358050e-001	 1.4096638183e+000	-2.0482573567e+000
 9.2272726244e-001	 1.4198358227e+000	-2.0405807436e+000
 9.0716858258e-001	 1.4298267830e+000	-2.0316205742e+000
 8.9152067506e-001	 1.4396355313e+000	-2.0202297604e+000
 8.7578669120e-001	 1.4492609710e+000	-2.0053646474e+000
 8.5996979741e-001	 1.4587020769e+000	-1.9860883091e+000
 8.4407317330e-001	 1.4679578956e+000	-1.9615735992e+000
 8.2810000960e-001	 1.4770275456e+000	-1.9311059491e+000
 9.9950432324e-001	 1.3997773946e+000	-2.0184006613e+000
 9.8409477394e-001	 1.4106534445e+000	-2.0068092888e+000
 9.6858198243e-001	 1.4213495897e+000	-1.9978404336e+000
 9.5296906783e-001	 1.4318644284e+000	-1.9901007940e+000
 9.3725917276e-001	 1.4421966304e+000	-1.9822874495e+000
 9.2145546129e-001	 1.4523449370e+000	-1.9731919284e+000
 9.0556111694e-001	 1.4623081620e+000	-1.9617040675e+000
 8.8957934063e-001	 1.4720851914e+000	-1.9468156493e+000
 8.7351334866e-001	 1.4816749840e+000	-1.9276238081e+000
 8.5736637071e-001	 1.4910765715e+000	-1.9033341926e+000
 8.4114164775e-001	 1.5002890582e+000	-1.8732638768e+000
 1.0150013251e+000	 1.4214805053e+000	-1.9731458893e+000
 9.9935285560e-001	 1.4325251850e+000	-1.9604955746e+000
 9.8359954311e-001	 1.4433871705e+000	-1.9504109868e+000
 9.6774455515e-001	 1.4540650385e+000	-1.9415463840e+000
 9.5179108307e-001	 1.4645574380e+000	-1.9326400555e+000
 9.3574234000e-001	 1.4748630910e+000	-1.9225224075e+000
 9.1960155881e-001	 1.4849807927e+000	-1.9101199276e+000
 9.0337199006e-001	 1.4949094119e+000	-1.8944589326e+000
 8.8705689991e-001	 1.5046478912e+000	-1.8746690873e+000
 8.7065956811e-001	 1.5141952473e+000	-1.8499866831e+000
 8.5418328591e-001	 1.5235505708e+000	-1.8197576668e+000
 1.0304983271e+000	 1.4431836160e+000	-1.9461156680e+000
 1.0146109373e+000	 1.4543969254e+000	-1.9311893793e+000
 9.9861710379e-001	 1.4654247513e+000	-1.9188405503e+000
 9.8252004248e-001	 1.4762656486e+000	-1.9077548750e+000
 9.6632299339e-001	 1.4869182457e+000	-1.8967167001e+000
 9.5002921872e-001	 1.4973812450e+000	-1.8845951849e+000
 9.3364200069e-001	 1.5076534233e+000	-1.8703527233e+000
 9.1716463949e-001	 1.5177336323e+000	-1.8530488031e+000
 9.0060045116e-001	 1.5276207984e+000	-1.8318436411e+000
 8.8395276552e-001	 1.5373139232e+000	-1.8060015817e+000
 8.6722492406e-001	 1.5468120834e+000	-1.7748942497e+000
 1.0459953290e+000	 1.4648867267e+000	-1.9420251939e+000
 1.0298690189e+000	 1.4762686658e+000	-1.9235808674e+000
 1.0136346645e+000	 1.4874623321e+000	-1.9077572943e+000
 9.9729552980e-001	 1.4984662587e+000	-1.8933007637e+000
 9.8085490370e-001	 1.5092790533e+000	-1.8790224909e+000
 9.6431609743e-001	 1.5198993990e+000	-1.8638346552e+000
 9.4768244256e-001	 1.5303260540e+000	-1.8467343630e+000
 9.3095728892e-001	 1.5405578528e+000	-1.8268124717e+000
 9.1414400241e-001	 1.5505937056e+000	-1.8032573439e+000
 8.9724596293e-001	 1.5604325990e+000	-1.7753583705e+000
 8.8026656221e-001	 1.5700735960e+000	-1.7425092527e+000
 7.4985018066e-001	 1.3374584701e+000	-2.0639741593e+000
 7.3532214732e-001	 1.3455005959e+000	-2.0301965519e+000
 7.2073062788e-001	 1.3533727953e+000	-1.9987766927e+000
 7.0607853061e-001	 1.3610744663e+000	-1.9693776686e+000
 6.9136876671e-001	 1.3686050715e+000	-1.9417612375e+000
 6.7660424856e-001	 1.3759641382e+000	-1.9157885754e+000
 6.6178788798e-001	 1.3831512578e+000	-1.8912034500e+000
 6.4692259452e-001	 1.3901660856e+000	-1.8650762011e+000
 6.3201127378e-001	 1.3970083406e+000	-1.8362607180e+000
 6.1705682569e-001	 1.4036778048e+000	-1.8045320721e+000
 6.0206214291e-001	 1.4101743228e+000	-1.7697338275e+000
 7.6289181882e-001	 1.3607199827e+000	-2.0993102410e+000
 7.4811110919e-001	 1.3689019798e+000	-2.0638141162e+000
 7.3326580931e-001	 1.3769110950e+000	-2.0298344075e+000
 7.1835887800e-001	 1.3847467159e+000	-1.9970391220e+000
 7.0339327710e-001	 1.3924082959e+000	-1.9651969369e+000
 6.8837196965e-001	 1.3998953539e+000	-1.9341780837e+000
 6.7329791811e-001	 1.4072074742e+000	-1.9039549876e+000
 6.5817408263e-001	 1.4143443062e+000	-1.8739561634e+000
 6.4300341935e-001	 1.4213055639e+000	-1.8411156305e+000
 6.2778887864e-001	 1.4280910255e+000	-1.8048247236e+000
 6.1253340346e-001	 1.4347005331e+000	-1.7649194068e+000
 7.7593345698e-001	 1.3839814953e+000	-2.1021814555e+000
 7.6090007107e-001	 1.3923033636e+000	-2.0660593900e+000
 7.4580099073e-001	 1.4004493947e+000	-2.0307381494e+000
 7.3063922539e-001	 1.4084189656e+000	-1.9958792472e+000
 7.1541778749e-001	 1.4162115203e+000	-1.9612470936e+000
 7.0013969074e-001	 1.4238265695e+000	-1.9267100335e+000
 6.8480794824e-001	 1.4312636906e+000	-1.8922411323e+000
 6.6942557074e-001	 1.4385225267e+000	-1.8579187084e+000
 6.5399556492e-001	 1.4456027872e+000	-1.8225047260e+000
 6.3852093159e-001	 1.4525042463e+000	-1.7832687941e+000
 6.2300466401e-001	 1.4592267435e+000	-1.7399658025e+000
 7.8897509513e-001	 1.4072430079e+000	-2.0801305158e+000
 7.7368903295e-001	 1.4157047475e+000	-2.0441462587e+000
 7.5833617216e-001	 1.4239876944e+000	-2.0083785031e+000
 7.4291957277e-001	 1.4320912153e+000	-1.9724708084e+000
 7.2744229788e-001	 1.4400147447e+000	-1.9361720734e+000
 7.1190741183e-001	 1.4477577852e+000	-1.8993377451e+000
 6.9631797836e-001	 1.4553199070e+000	-1.8619307679e+000
 6.8067705886e-001	 1.4627007473e+000	-1.8240222712e+000
 6.6498771050e-001	 1.4699000105e+000	-1.7857675061e+000
 6.4925298454e-001	 1.4769174671e+000	-1.7448630312e+000
 6.3347592456e-001	 1.4837529538e+000	-1.6995327818e+000
 8.0201673329e-001	 1.4305045204e+000	-2.0401064110e+000
 7.8647799482e-001	 1.4391061313e+000	-2.0047270623e+000
 7.7087135358e-001	 1.4475259941e+000	-1.9691165598e+000
 7.5519992016e-001	 1.4557634649e+000	-1.9328889917e+000
 7.3946680827e-001	 1.4638179691e+000	-1.8957664340e+000
 7.2367513292e-001	 1.4716890009e+000	-1.8575803475e+000
 7.0782800849e-001	 1.4793761234e+000	-1.8182727064e+000
 6.9192854697e-001	 1.4868789679e+000	-1.7778968573e+000
 6.7597985607e-001	 1.4941972338e+000	-1.7366181036e+000
 6.5998503749e-001	 1.5013306879e+000	-1.6943386122e+000
 6.4394718511e-001	 1.5082791642e+000	-1.6480533262e+000
 8.1505837144e-001	 1.4537660330e+000	-1.9884879663e+000
 7.9926695670e-001	 1.4625075152e+000	-1.9539137184e+000
 7.8340653501e-001	 1.4710642938e+000	-1.9188026216e+000
 7.6748026755e-001	 1.4794357146e+000	-1.8827277120e+000
 7.5149131866e-001	 1.4876211935e+000	-1.8453728572e+000
 7.3544285401e-001	 1.4956202166e+000	-1.8065343585e+000
 7.1933803862e-001	 1.5034323398e+000	-1.7661222769e+000
 7.0318003508e-001	 1.5110571885e+000	-1.7241614776e+000
 6.8697200164e-001	 1.5184944571e+000	-1.6807923929e+000
 6.7071709044e-001	 1.5257439087e+000	-1.6362715005e+000
 6.5441844567e-001	 1.5328053745e+000	-1.5897170957e+000
 8.2810000960e-001	 1.4770275456e+000	-1.9311059491e+000
 8.1205591857e-001	 1.4859088990e+000	-1.8972975989e+000
 7.9594171644e-001	 1.4946025935e+000	-1.8627938670e+000
 7.7976061493e-001	 1.5031079643e+000	-1.8271150857e+000
 7.6351582905e-001	 1.5114244179e+000	-1.7898954481e+000
 7.4721057510e-001	 1.5195514323e+000	-1.7508848332e+000
 7.3084806875e-001	 1.5274885562e+000	-1.7099503443e+000
 7.1443152319e-001	 1.5352354090e+000	-1.6670775575e+000
 6.9796414722e-001	 1.5427916804e+000	-1.6223714771e+000
 6.8144914339e-001	 1.5501571295e+000	-1.5760571962e+000
 6.6488970622e-001	 1.5573315848e+000	-1.5284544187e+000
 8.4114164775e-001	 1.5002890582e+000	-1.8732638768e+000
 8.2484488045e-001	 1.5093102829e+000	-1.8399682964e+000
 8.0847689786e-001	 1.5181408932e+000	-1.8059710906e+000
 7.9204096232e-001	 1.5267802140e+000	-1.7707281603e+000
 7.7554033944e-001	 1.5352276423e+000	-1.7338124730e+000
 7.5897829619e-001	 1.5434826480e+000	-1.6949161269e+000
 7.4235809888e-001	 1.5515447726e+000	-1.6538521192e+000
 7.2568301130e-001	 1.5594136296e+000	-1.6105558146e+000
 7.0895629279e-001	 1.5670889037e+000	-1.5650861087e+000
 6.9218119634e-001	 1.5745703503e+000	-1.5176262864e+000
 6.7536096677e-001	 1.5818577952e+000	-1.4684845710e+000
 8.5418328591e-001	 1.5235505708e+000	-1.8197576668e+000
 8.3763384232e-001	 1.5327116667e+000	-1.7865313990e+000
 8.2101207928e-001	 1.5416791929e+000	-1.7527546160e+000
 8.0432130970e-001	 1.5504524636e+000	-1.7178069803e+000
 7.8756484983e-001	 1.5590308667e+000	-1.6811885930e+000
 7.7074601728e-001	 1.5674138637e+000	-1.6425223148e+000
 7.5386812901e-001	 1.5756009890e+000	-1.6015557808e+000
 7.3693449941e-001	 1.5835918502e+000	-1.5581631041e+000
 7.1994843836e-001	 1.5913861270e+000	-1.5123462641e+000
 7.0291324929e-001	 1.5989835711e+000	-1.4642361773e+000
 6.8583222732e-001	 1.6063840055e+000	-1.4140934473e+000
 8.6722492406e-001	 1.5468120834e+000	-1.7748942497e+000
 8.5042280420e-001	 1.5561130506e+000	-1.7411253774e+000
 8.3354726071e-001	 1.5652174926e+000	-1.7071194687e+000
 8.1660165709e-001	 1.5741247133e+000	-1.6721680583e+000
 7.9958936022e-001	 1.5828340911e+000	-1.6356866484e+000
 7.8251373836e-001	 1.5913450793e+000	-1.5972173045e+000
 7.6537815914e-001	 1.5996572054e+000	-1.5564309326e+000
 7.4818598752e-001	 1.6077700708e+000	-1.5131292351e+000
 7.3094058393e-001	 1.6156833503e+000	-1.4672463387e+000
 7.1364530224e-001	 1.6233967918e+000	-1.4188500932e+000
 6.9630348787e-001	 1.6309102159e+000	-1.3681430368e+000
 8.8026656221e-001	 1.5700735960e+000	-1.7425092527e+000
 8.6321176607e-001	 1.5795144344e+000	-1.7074376764e+000
 8.4608244213e-001	 1.5887557923e+000	-1.6726098864e+000
 8.2888200447e-001	 1.5977969630e+000	-1.6372173148e+000
 8.1161387061e-001	 1.6066373155e+000	-1.6005790399e+000
 7.9428145945e-001	 1.6152762950e+000	-1.5621446715e+000
 7.7688818926e-001	 1.6237134218e+000	-1.5214969085e+000
 7.5943747564e-001	 1.6319482913e+000	-1.4783537622e+000
 7.4193272950e-001	 1.6399805736e+000	-1.4325704400e+000
 7.2437735518e-001	 1.6478100126e+000	-1.3841408874e+000
 7.0677474842e-001	 1.6554364262e+000	-1.3331989830e+000
 6.0206214291e-001	 1.4101743228e+000	-1.7697338275e+000
 5.8702785160e-001	 1.4164987373e+000	-1.7329096957e+000
 5.7195907336e-001	 1.4226500300e+000	-1.6953495082e+000
 5.5685867128e-001	 1.4286282313e+000	-1.6573670790e+000
 5.4172949480e-001	 1.4344334318e+000	-1.6193624267e+000
 5.2657437818e-001	 1.4400657820e+000	-1.5818231215e+000
 5.1139613904e-001	 1.4455254909e+000	-1.5453251311e+000
 4.9619757688e-001	 1.4508128258e+000	-1.5105331741e+000
 4.8098147173e-001	 1.4559281109e+000	-1.4782005916e+000
 4.6575058273e-001	 1.4608717271e+000	-1.4491687518e+000
 4.5050764685e-001	 1.4656441104e+000	-1.4243660039e+000
 6.1253340346e-001	 1.4347005331e+000	-1.7649194068e+000
 5.9723763087e-001	 1.4411349439e+000	-1.7226188310e+000
 5.8190677153e-001	 1.4473932219e+000	-1.6794085598e+000
 5.6654373835e-001	 1.4534753980e+000	-1.6356275100e+000
 5.5115143031e-001	 1.4593815645e+000	-1.5917045150e+000
 5.3573273098e-001	 1.4651118743e+000	-1.5481598361e+000
 5.2029050697e-001	 1.4706665403e+000	-1.5056061214e+000
 5.0482760648e-001	 1.4760458342e+000	-1.4647488196e+000
 4.8934685788e-001	 1.4812500860e+000	-1.4263860622e+000
 4.7385106831e-001	 1.4862796832e+000	-1.3914080309e+000
 4.5834302232e-001	 1.4911350694e+000	-1.3607958276e+000
 6.2300466401e-001	 1.4592267435e+000	-1.7399658025e+000
 6.0744741014e-001	 1.4657711505e+000	-1.6939834719e+000
 5.9185446971e-001	 1.4721364138e+000	-1.6469808181e+000
 5.7622880542e-001	 1.4783225647e+000	-1.5992905563e+000
 5.6057336583e-001	 1.4843296971e+000	-1.5513403064e+000
 5.4489108379e-001	 1.4901579667e+000	-1.5036543154e+000
 5.2918487490e-001	 1.4958075896e+000	-1.4568545658e+000
 5.1345763607e-001	 1.5012788426e+000	-1.4116612809e+000
 4.9771224403e-001	 1.5065720611e+000	-1.3688928418e+000
 4.8195155388e-001	 1.5116876392e+000	-1.3294651333e+000
 4.6617839780e-001	 1.5166260283e+000	-1.2943903413e+000
 6.3347592456e-001	 1.4837529538e+000	-1.6995327818e+000
 6.1765718941e-001	 1.4904073571e+000	-1.6513285508e+000
 6.0180216789e-001	 1.4968796057e+000	-1.6020638330e+000
 5.8591387250e-001	 1.5031697314e+000	-1.5520347710e+000
 5.6999530135e-001	 1.5092778298e+000	-1.5016387241e+000
 5.5404943659e-001	 1.5152040590e+000	-1.4513762451e+000
 5.3807924283e-001	 1.5209486390e+000	-1.4018523762e+000
 5.2208766567e-001	 1.5265118510e+000	-1.3537772749e+000
 5.0607763017e-001	 1.5318940362e+000	-1.3079661873e+000
 4.9005203945e-001	 1.5370955953e+000	-1.2653387877e+000
 4.7401377327e-001	 1.5421169872e+000	-1.2269179099e+000
 6.4394718511e-001	 1.5082791642e+000	-1.6480533262e+000
 6.2786696868e-001	 1.5150435638e+000	-1.5987919299e+000
 6.1174986607e-001	 1.5216227976e+000	-1.5485064594e+000
 5.9559893957e-001	 1.5280168981e+000	-1.4974269428e+000
 5.7941723687e-001	 1.5342259625e+000	-1.4458923124e+000
 5.6320778939e-001	 1.5402501513e+000	-1.3943526806e+000
 5.4697361076e-001	 1.5460896883e+000	-1.3433708586e+000
 5.3071769527e-001	 1.5517448594e+000	-1.2936231314e+000
 5.1444301632e-001	 1.5572160113e+000	-1.2458993066e+000
 4.9815252503e-001	 1.5625035514e+000	-1.2011020609e+000
 4.8184914875e-001	 1.5676079461e+000	-1.1602456105e+000
 6.5441844567e-001	 1.5328053745e+000	-1.5897170957e+000
 6.3807674794e-001	 1.5396797704e+000	-1.5403067211e+000
 6.2169756424e-001	 1.5463659895e+000	-1.4899900681e+000
 6.0528400665e-001	 1.5528640649e+000	-1.4389022377e+000
 5.8883917239e-001	 1.5591740951e+000	-1.3872963568e+000
 5.7236614219e-001	 1.5652962436e+000	-1.3355461970e+000
 5.5586797869e-001	 1.5712307377e+000	-1.2841479507e+000
 5.3934772486e-001	 1.5769778678e+000	-1.2337211813e+000
 5.2280840247e-001	 1.5825379864e+000	-1.1850089663e+000
 5.0625301060e-001	 1.5879115075e+000	-1.1388772610e+000
 4.8968452423e-001	 1.5930989051e+000	-1.0963135104e+000
 6.6488970622e-001	 1.5573315848e+000	-1.5284544187e+000
 6.4828652721e-001	 1.5643159770e+000	-1.4795843138e+000
 6.3164526242e-001	 1.5711091814e+000	-1.4300106400e+000
 6.1496907372e-001	 1.5777112316e+000	-1.3797453939e+000
 5.9826110790e-001	 1.5841222278e+000	-1.3289292188e+000
 5.8152449499e-001	 1.5903423359e+000	-1.2778344083e+000
 5.6476234663e-001	 1.5963717870e+000	-1.2268669742e+000
 5.4797775446e-001	 1.6022108762e+000	-1.1765677970e+000
 5.3117378862e-001	 1.6078599615e+000	-1.1276128800e+000
 5.1435349618e-001	 1.6133194636e+000	-1.0808127376e+000
 4.9751989970e-001	 1.6185898640e+000	-1.0371109490e+000
 6.7536096677e-001	 1.5818577952e+000	-1.4684845710e+000
 6.5849630648e-001	 1.5889521836e+000	-1.4200980340e+000
 6.4159296060e-001	 1.5958523733e+000	-1.3718616487e+000
 6.2465414080e-001	 1.6025583983e+000	-1.3230728566e+000
 6.0768304342e-001	 1.6090703604e+000	-1.2737337548e+000
 5.9068284779e-001	 1.6153884283e+000	-1.2239907072e+000
 5.7365671456e-001	 1.6215128364e+000	-1.1741367381e+000
 5.5660778406e-001	 1.6274438846e+000	-1.1246129056e+000
 5.3953917476e-001	 1.6331819366e+000	-1.0760086820e+000
 5.2245398175e-001	 1.6387274197e+000	-1.0290613717e+000
 5.0535527518e-001	 1.6440808229e+000	-9.8465460525e-001
 6.8583222732e-001	 1.6063840055e+000	-1.4140934473e+000
 6.6870608575e-001	 1.6135883902e+000	-1.3650979369e+000
 6.5154065878e-001	 1.6205955652e+000	-1.3186176470e+000
 6.3433920787e-001	 1.6274055650e+000	-1.2718157503e+000
 6.1710497894e-001	 1.6340184931e+000	-1.2244997014e+000
 5.9984120060e-001	 1.6404345206e+000	-1.1766660955e+000
 5.8255108249e-001	 1.6466538858e+000	-1.1284728486e+000
 5.6523781365e-001	 1.6526768930e+000	-1.0802408176e+000
 5.4790456091e-001	 1.6585039117e+000	-1.0324543182e+000
 5.3055446732e-001	 1.6641353757e+000	-9.8576057718e-001
 5.1319065065e-001	 1.6695717818e+000	-9.4096815983e-001
 6.9630348787e-001	 1.6309102159e+000	-1.3681430368e+000
 6.7891586502e-001	 1.6382245968e+000	-1.3185217414e+000
 6.6148835695e-001	 1.6453387571e+000	-1.2731184835e+000
 6.4402427494e-001	 1.6522527317e+000	-1.2287036023e+000
 6.2652691446e-001	 1.6589666257e+000	-1.1838469281e+000
 6.0899955340e-001	 1.6654806129e+000	-1.1383719901e+000
 5.9144545042e-001	 1.6717949351e+000	-1.0922800987e+000
 5.7386784325e-001	 1.6779099014e+000	-1.0457522325e+000
 5.5626994706e-001	 1.6838258868e+000	-9.9914970491e-001
 5.3865495290e-001	 1.6895433318e+000	-9.5301365222e-001
 5.2102602613e-001	 1.6950627408e+000	-9.0806338545e-001
 7.0677474842e-001	 1.6554364262e+000	-1.3331989830e+000
 6.8912564429e-001	 1.6628608034e+000	-1.2833680549e+000
 6.7143605513e-001	 1.6700819490e+000	-1.2381191756e+000
 6.5370934202e-001	 1.6770998984e+000	-1.1962487380e+000
 6.3594884997e-001	 1.6839147584e+000	-1.1542094646e+000
 6.1815790620e-001	 1.6905267052e+000	-1.1114639036e+000
 6.0033981835e-001	 1.6969359845e+000	-1.0678358245e+000
 5.8249787284e-001	 1.7031429098e+000	-1.0233472986e+000
 5.6463533321e-001	 1.7091478619e+000	-9.7821952312e-001
 5.4675543847e-001	 1.7149512879e+000	-9.3287234272e-001
 5.2886140161e-001	 1.7205536997e+000	-8.8792251557e-001
 4.5050764685e-001	 1.4656441104e+000	-1.4243660039e+000
 4.3525537731e-001	 1.4702457512e+000	-1.3989886627e+000
 4.1999646178e-001	 1.4746771918e+000	-1.3685021490e+000
 4.0473356181e-001	 1.4789390267e+000	-1.3343602433e+000
 3.8946931188e-001	 1.4830319018e+000	-1.2980906371e+000
 3.7420631829e-001	 1.4869565135e+000	-1.2612914378e+000
 3.5894715807e-001	 1.4907136076e+000	-1.2256273970e+000
 3.4369437793e-001	 1.4943039780e+000	-1.1928258905e+000
 3.2845049326e-001	 1.4977284659e+000	-1.1646726838e+000
 3.1321798717e-001	 1.5009879582e+000	-1.1430075107e+000
 2.9799930958e-001	 1.5040833867e+000	-1.1297194985e+000
 4.5834302232e-001	 1.4911350694e+000	-1.3607958276e+000
 4.4282548035e-001	 1.4958167434e+000	-1.3297412841e+000
 4.2730117681e-001	 1.5003252571e+000	-1.2936911494e+000
 4.1177281952e-001	 1.5046612151e+000	-1.2541401590e+000
 3.9624308879e-001	 1.5088252749e+000	-1.2126654991e+000
 3.8071463625e-001	 1.5128181447e+000	-1.1709229478e+000
 3.6519008376e-001	 1.5166405834e+000	-1.1306427033e+000
 3.4967202231e-001	 1.5202933987e+000	-1.0936249332e+000
 3.3416301103e-001	 1.5237774463e+000	-1.0617350790e+000
 3.1866557624e-001	 1.5270936288e+000	-1.0368989517e+000
 3.0318221046e-001	 1.5302428940e+000	-1.0210976516e+000
 4.6617839780e-001	 1.5166260283e+000	-1.2943903413e+000
 4.5039558340e-001	 1.5213877356e+000	-1.2589338820e+000
 4.3460589183e-001	 1.5259733223e+000	-1.2186058738e+000
 4.1881207722e-001	 1.5303834036e+000	-1.1749280054e+000
 4.0301686569e-001	 1.5346186479e+000	-1.1295137794e+000
 3.8722295421e-001	 1.5386797759e+000	-1.0840642766e+000
 3.7143300944e-001	 1.5425675592e+000	-1.0403635676e+000
 3.5564966668e-001	 1.5462828194e+000	-1.0002738104e+000
 3.3987552881e-001	 1.5498264268e+000	-9.6573007114e-001
 3.2411316532e-001	 1.5531992994e+000	-9.3873490821e-001
 3.0836511135e-001	 1.5564024013e+000	-9.2135275807e-001
 4.7401377327e-001	 1.5421169872e+000	-1.2269179099e+000
 4.5796568644e-001	 1.5469587277e+000	-1.1881095176e+000
 4.4191060686e-001	 1.5516213875e+000	-1.1445579636e+000
 4.2585133493e-001	 1.5561055920e+000	-1.0977990781e+000
 4.0979064260e-001	 1.5604120209e+000	-1.0494707392e+000
 3.9373127217e-001	 1.5645414070e+000	-1.0013082431e+000
 3.7767593513e-001	 1.5684945349e+000	-9.5513927941e-001
 3.6162731105e-001	 1.5722722400e+000	-9.1287855068e-001
 3.4558804658e-001	 1.5758754073e+000	-8.7652208195e-001
 3.2956075439e-001	 1.5793049700e+000	-8.4814126188e-001
 3.1354801224e-001	 1.5825619087e+000	-8.2987666024e-001
 4.8184914875e-001	 1.5676079461e+000	-1.1602456105e+000
 4.6553578949e-001	 1.5725297199e+000	-1.1189330718e+000
 4.4921532188e-001	 1.5772694527e+000	-1.0730034803e+000
 4.3289059263e-001	 1.5818277804e+000	-1.0239951488e+000
 4.1656441951e-001	 1.5862053940e+000	-9.7355959329e-001
 4.0023959013e-001	 1.5904030382e+000	-9.2345649018e-001
 3.8391886081e-001	 1.5944215107e+000	-8.7554818803e-001
 3.6760495543e-001	 1.5982616607e+000	-8.3179382168e-001
 3.5130056436e-001	 1.6019243877e+000	-7.9424307632e-001
 3.3500834347e-001	 1.6054106406e+000	-7.6502965009e-001
 3.1873091312e-001	 1.6087214160e+000	-7.4636446389e-001
 4.8968452423e-001	 1.5930989051e+000	-1.0963135104e+000
 4.7310589253e-001	 1.5981007120e+000	-1.0531649198e+000
 4.5652003691e-001	 1.6029175179e+000	-1.0055159389e+000
 4.3992985034e-001	 1.6075499689e+000	-9.5489682346e-001
 4.2333819642e-001	 1.6119987670e+000	-9.0296316581e-001
 4.0674790810e-001	 1.6162646694e+000	-8.5149041298e-001
 3.9016178650e-001	 1.6203484865e+000	-8.0236788638e-001
 3.7358259980e-001	 1.6242510813e+000	-7.5759235590e-001
 3.5701308213e-001	 1.6279733682e+000	-7.1926122123e-001
 3.4045593255e-001	 1.6315163112e+000	-6.8956535450e-001
 3.2391381401e-001	 1.6348809233e+000	-6.7078165850e-001
 4.9751989970e-001	 1.6185898640e+000	-1.0371109490e+000
 4.8067599558e-001	 1.6236717042e+000	-9.9263671090e-001
 4.6382475193e-001	 1.6285655831e+000	-9.4376154817e-001
 4.4696910804e-001	 1.6332721573e+000	-8.9199821138e-001
 4.3011197333e-001	 1.6377921401e+000	-8.3899795823e-001
 4.1325622606e-001	 1.6421263005e+000	-7.8654460318e-001
 3.9640471218e-001	 1.6462754622e+000	-7.3654801097e-001
 3.7956024417e-001	 1.6502405020e+000	-6.9103709189e-001
 3.6272559991e-001	 1.6540223487e+000	-6.5215235779e-001
 3.4590352162e-001	 1.6576219818e+000	-6.2213809856e-001
 3.2909671490e-001	 1.6610404306e+000	-6.0333423919e-001
 5.0535527518e-001	 1.6440808229e+000	-9.8465460525e-001
 4.8824609862e-001	 1.6492426964e+000	-9.3922902486e-001
 4.7112946696e-001	 1.6542136483e+000	-8.8947641935e-001
 4.5400836575e-001	 1.6589943457e+000	-8.3688365298e-001
 4.3688575024e-001	 1.6635855131e+000	-7.8309036840e-001
 4.1976454402e-001	 1.6679879317e+000	-7.2988253424e-001
 4.0264763787e-001	 1.6722024380e+000	-6.7918537332e-001
 3.8553788855e-001	 1.6762299227e+000	-6.3305573560e-001
 3.6843811768e-001	 1.6800713291e+000	-5.9367398095e-001
 3.5135111070e-001	 1.6837276525e+000	-5.6333543788e-001
 3.3427961579e-001	 1.6871999379e+000	-5.4444150473e-001
 5.1319065065e-001	 1.6695717818e+000	-9.4096815983e-001
 4.9581620167e-001	 1.6748136885e+000	-8.9485070443e-001
 4.7843418198e-001	 1.6798617136e+000	-8.4444553255e-001
 4.6104762346e-001	 1.6847165342e+000	-7.9120628741e-001
 4.4365952714e-001	 1.6893788862e+000	-7.3675483050e-001
 4.2627286198e-001	 1.6938495629e+000	-6.8287424879e-001
 4.0889056356e-001	 1.6981294138e+000	-6.3150117385e-001
 3.9151553292e-001	 1.7022193433e+000	-5.8471748361e-001
 3.7415063546e-001	 1.7061203096e+000	-5.4474145870e-001
 3.5679869978e-001	 1.7098333231e+000	-5.1391846643e-001
 3.3946251668e-001	 1.7133594452e+000	-4.9471124559e-001
 5.2102602613e-001	 1.6950627408e+000	-9.0806338545e-001
 5.0338630472e-001	 1.7003846807e+000	-8.6141968747e-001
 4.8573889701e-001	 1.7055097788e+000	-8.1048327545e-001
 4.6808688116e-001	 1.7104387226e+000	-7.5666826568e-001
 4.5043330405e-001	 1.7151722592e+000	-7.0157367363e-001
 4.3278117994e-001	 1.7197111941e+000	-6.4697583744e-001
 4.1513348924e-001	 1.7240563896e+000	-5.9482007898e-001
 3.9749317730e-001	 1.7282087640e+000	-5.4721168041e-001
 3.7986315324e-001	 1.7321692901e+000	-5.0640625527e-001
 3.6224628886e-001	 1.7359389937e+000	-4.7479959486e-001
 3.4464541757e-001	 1.7395189526e+000	-4.5491707037e-001
 5.2886140161e-001	 1.7205536997e+000	-8.8792251557e-001
 5.1095640776e-001	 1.7259556728e+000	-8.4084518324e-001
 4.9304361203e-001	 1.7311578440e+000	-7.8941539155e-001
 4.7512613887e-001	 1.7361609110e+000	-7.3500243879e-001
 4.5720708096e-001	 1.7409656323e+000	-6.7917852088e-001
 4.3928949790e-001	 1.7455728252e+000	-6.2371052293e-001
 4.2137641493e-001	 1.7499833653e+000	-5.7055096815e-001
 4.0347082167e-001	 1.7541981846e+000	-5.2182820931e-001
 3.8557567101e-001	 1.7582182705e+000	-4.7983595025e-001
 3.6769387793e-001	 1.7620446643e+000	-4.4702218583e-001
 3.4982831845e-001	 1.7656784599e+000	-4.2597764893e-001
 2.9799930958e-001	 1.5040833867e+000	-1.1297194985e+000
 2.8279915468e-001	 1.5070152995e+000	-1.1165580924e+000
 2.6761761573e-001	 1.5097851916e+000	-1.0954459047e+000
 2.5245703357e-001	 1.5123941228e+000	-1.0685833276e+000
 2.3731971277e-001	 1.5148431927e+000	-1.0381848627e+000
 2.2220792089e-001	 1.5171335398e+000	-1.0064743308e+000
 2.0712388784e-001	 1.5192663399e+000	-9.7568013703e-001
 1.9206980528e-001	 1.5212428050e+000	-9.4803061439e-001
 1.7704782606e-001	 1.5230641822e+000	-9.2574947142e-001
 1.6206006367e-001	 1.5247317519e+000	-9.1105136535e-001
 1.4710859180e-001	 1.5262468275e+000	-9.0613762186e-001
 3.0318221046e-001	 1.5302428940e+000	-1.0210976516e+000
 2.8771768953e-001	 1.5332257996e+000	-1.0057349531e+000
 2.7227210831e-001	 1.5360438666e+000	-9.8239303540e-001
 2.5684784838e-001	 1.5386981731e+000	-9.5338169746e-001
 2.4144725438e-001	 1.5411898381e+000	-9.2103036720e-001
 2.2607263330e-001	 1.5435200196e+000	-8.8768270970e-001
 2.1072625384e-001	 1.5456899141e+000	-8.5569129035e-001
 1.9541034579e-001	 1.5477007545e+000	-8.2741232102e-001
 1.8012709942e-001	 1.5495538096e+000	-8.0520051664e-001
 1.6487866499e-001	 1.5512503823e+000	-7.9140408744e-001
 1.4966715226e-001	 1.5527918086e+000	-7.8835989076e-001
 3.0836511135e-001	 1.5564024013e+000	-9.2135275807e-001
 2.9263622438e-001	 1.5594362997e+000	-9.0466800528e-001
 2.7692660090e-001	 1.5623025416e+000	-8.7994696569e-001
 2.6123866319e-001	 1.5650022235e+000	-8.4959790164e-001
 2.4557479598e-001	 1.5675364834e+000	-8.1605441676e-001
 2.2993734571e-001	 1.5699064994e+000	-7.8176944018e-001
 2.1432861985e-001	 1.5721134882e+000	-7.4920926500e-001
 1.9875088630e-001	 1.5741587040e+000	-7.2084767345e-001
 1.8320637278e-001	 1.5760434371e+000	-6.9916017935e-001
 1.6769726632e-001	 1.5777690127e+000	-6.8661841656e-001
 1.5222571273e-001	 1.5793367896e+000	-6.8568470035e-001
 3.1354801224e-001	 1.5825619087e+000	-8.2987666024e-001
 2.9755475923e-001	 1.5856467998e+000	-8.1251172749e-001
 2.8158109349e-001	 1.5885612165e+000	-7.8701376170e-001
 2.6562947801e-001	 1.5913062738e+000	-7.5588025921e-001
 2.4970233759e-001	 1.5938831288e+000	-7.2163997797e-001
 2.3380205812e-001	 1.5962929793e+000	-6.8684626965e-001
 2.1793098585e-001	 1.5985370624e+000	-6.5407046531e-001
 2.0209142680e-001	 1.6006166535e+000	-6.2589535117e-001
 1.8628564614e-001	 1.6025330646e+000	-6.0490876875e-001
 1.7051586764e-001	 1.6042876431e+000	-5.9369737174e-001
 1.5478427319e-001	 1.6058817707e+000	-5.9484056982e-001
 3.1873091312e-001	 1.6087214160e+000	-7.4636446389e-001
 3.0247329409e-001	 1.6118572999e+000	-7.2874125840e-001
 2.8623558608e-001	 1.6148198915e+000	-7.0283802462e-001
 2.7002029282e-001	 1.6176103241e+000	-6.7123395709e-001
 2.5382987920e-001	 1.6202297741e+000	-6.3654565612e-001
 2.3766677053e-001	 1.6226794591e+000	-6.0141977459e-001
 2.2153335186e-001	 1.6249606366e+000	-5.6852571734e-001
 2.0543196731e-001	 1.6270746030e+000	-5.4054843387e-001
 1.8936491950e-001	 1.6290226921e+000	-5.2018134282e-001
 1.7333446896e-001	 1.6308062735e+000	-5.1011942434e-001
 1.5734283365e-001	 1.6324267518e+000	-5.1305251434e-001
 3.2391381401e-001	 1.6348809233e+000	-6.7078165850e-001
 3.0739182894e-001	 1.6380678000e+000	-6.5311870638e-001
 2.9089007867e-001	 1.6410785664e+000	-6.2696830594e-001
 2.7441110764e-001	 1.6439143745e+000	-5.9498549276e-001
 2.5795742081e-001	 1.6465764195e+000	-5.5986909376e-001
 2.4153148295e-001	 1.6490659389e+000	-5.2435364992e-001
 2.2513571786e-001	 1.6513842108e+000	-4.9120139034e-001
 2.0877250781e-001	 1.6535325525e+000	-4.6319430279e-001
 1.9244419286e-001	 1.6555123196e+000	-4.4312634376e-001
 1.7615307028e-001	 1.6573249039e+000	-4.3379582832e-001
 1.5990139411e-001	 1.6589717329e+000	-4.3799803758e-001
 3.2909671490e-001	 1.6610404306e+000	-6.0333423919e-001
 3.1231036379e-001	 1.6642783001e+000	-5.8566255611e-001
 2.9554457126e-001	 1.6673372414e+000	-5.5922572012e-001
 2.7880192246e-001	 1.6702184248e+000	-5.2675042042e-001
 2.6208496243e-001	 1.6729230649e+000	-4.9101378362e-001
 2.4539619536e-001	 1.6754524187e+000	-4.5483452791e-001
 2.2873808387e-001	 1.6778077849e+000	-4.2106416686e-001
 2.1211304832e-001	 1.6799905020e+000	-3.9257831322e-001
 1.9552346622e-001	 1.6820019470e+000	-3.7226813019e-001
 1.7897167161e-001	 1.6838435343e+000	-3.6303197532e-001
 1.6245995458e-001	 1.6855167140e+000	-3.6776727868e-001
 3.3427961579e-001	 1.6871999379e+000	-5.4444150473e-001
 3.1722889864e-001	 1.6904888002e+000	-5.2661983575e-001
 3.0019906385e-001	 1.6935959164e+000	-4.9967540758e-001
 2.8319273727e-001	 1.6965224752e+000	-4.6640404198e-001
 2.6621250404e-001	 1.6992697102e+000	-4.2965892531e-001
 2.4926090777e-001	 1.7018388985e+000	-3.9234094364e-001
 2.3234044987e-001	 1.7042313591e+000	-3.5738906567e-001
 2.1545358883e-001	 1.7064484515e+000	-3.2777082911e-001
 1.9860273958e-001	 1.7084915745e+000	-3.0647298324e-001
 1.8179027293e-001	 1.7103621647e+000	-2.9649233760e-001
 1.6501851504e-001	 1.7120616951e+000	-3.0082686315e-001
 3.3946251668e-001	 1.7133594452e+000	-4.9471124559e-001
 3.2214743349e-001	 1.7166993003e+000	-4.7644074965e-001
 3.0485355644e-001	 1.7198545913e+000	-4.4860054350e-001
 2.8758355209e-001	 1.7228265255e+000	-4.1405472831e-001
 2.7034004565e-001	 1.7256163556e+000	-3.7573200039e-001
 2.5312562018e-001	 1.7282253784e+000	-3.3661511063e-001
 2.3594281588e-001	 1.7306549333e+000	-2.9973036967e-001
 2.1879412933e-001	 1.7329064010e+000	-2.6813726024e-001
 2.0168201293e-001	 1.7349812020e+000	-2.4491821508e-001
 1.8460887425e-001	 1.7368807951e+000	-2.3316861540e-001
 1.6757707550e-001	 1.7386066761e+000	-2.3598706143e-001
 3.4464541757e-001	 1.7395189526e+000	-4.5491707037e-001
 3.2706596835e-001	 1.7429098004e+000	-4.3575551705e-001
 3.0950804903e-001	 1.7461132663e+000	-4.0647862429e-001
 2.9197436690e-001	 1.7491305758e+000	-3.7001959367e-001
 2.7446758726e-001	 1.7519630010e+000	-3.2938377976e-001
 2.5699033260e-001	 1.7546118582e+000	-2.8763721084e-001
 2.3954518188e-001	 1.7570785075e+000	-2.4789515308e-001
 2.2213466984e-001	 1.7593643505e+000	-2.1331078601e-001
 2.0476128629e-001	 1.7614708295e+000	-1.8706405357e-001
 1.8742747557e-001	 1.7633994255e+000	-1.7235075139e-001
 1.7013563596e-001	 1.7651516572e+000	-1.7237190727e-001
 3.4982831845e-001	 1.7656784599e+000	-4.2597764893e-001
 3.3198450320e-001	 1.7691203005e+000	-4.0535318810e-001
 3.1416254162e-001	 1.7723719412e+000	-3.7395979565e-001
 2.9636518172e-001	 1.7754346262e+000	-3.3480227944e-001
 2.7859512887e-001	 1.7783096463e+000	-2.9096551110e-001
 2.6085504501e-001	 1.7809983380e+000	-2.4560193834e-001
 2.4314754789e-001	 1.7835020816e+000	-2.0191913839e-001
 2.2547521035e-001	 1.7858223000e+000	-1.6316748717e-001
 2.0784055965e-001	 1.7879604570e+000	-1.3262801488e-001
 1.9024607690e-001	 1.7899180559e+000	-1.1360051496e-001
 1.7269419643e-001	 1.7916966383e+000	-1.0939196878e-001
 1.4710859180e-001	 1.5262468275e+000	-9.0613762186e-001
 1.3219321486e-001	 1.5276109464e+000	-9.0190411395e-001
 1.1731819787e-001	 1.5288252450e+000	-8.8940265239e-001
 1.0248552346e-001	 1.5298911271e+000	-8.7102005210e-001
 8.7697131996e-002	 1.5308100238e+000	-8.4909232857e-001
 7.2954921301e-002	 1.5315833927e+000	-8.2590182850e-001
 5.8260746432e-002	 1.5322127159e+000	-8.0367462130e-001
 4.3616419493e-002	 1.5326994993e+000	-7.8457815804e-001
 2.9023709478e-002	 1.5330452715e+000	-7.7071920232e-001
 1.4484342157e-002	 1.5332515818e+000	-7.6414203620e-001
 0.0000000000e+000	 1.5333200000e+000	-7.6682696239e-001
 1.4966715226e-001	 1.5527918086e+000	-7.8835989076e-001
 1.3449236223e-001	 1.5541796526e+000	-7.8650704648e-001
 1.1935863411e-001	 1.5554150707e+000	-7.7647963080e-001
 1.0426798501e-001	 1.5564994910e+000	-7.6086252725e-001
 8.9222389032e-002	 1.5574343695e+000	-7.4219168327e-001
 7.4223777015e-002	 1.5582211890e+000	-7.2295062722e-001
 5.9274036279e-002	 1.5588614576e+000	-7.0556727381e-001
 4.4375010443e-002	 1.5593567074e+000	-6.9241102606e-001
 2.9528499270e-002	 1.5597084933e+000	-6.8579017968e-001
 1.4736258546e-002	 1.5599183919e+000	-6.8794963395e-001
 0.0000000000e+000	 1.5599880000e+000	-7.0106893197e-001
 1.5222571273e-001	 1.5793367896e+000	-6.8568470035e-001
 1.3679150961e-001	 1.5807483589e+000	-6.8639103454e-001
 1.2139907035e-001	 1.5820048965e+000	-6.7900806522e-001
 1.0605044656e-001	 1.5831078549e+000	-6.6631503816e-001
 9.0747646068e-002	 1.5840587152e+000	-6.5104313002e-001
 7.5492632729e-002	 1.5848589854e+000	-6.3587134854e-001
 6.0287326125e-002	 1.5855101994e+000	-6.2342275146e-001
 4.5133601394e-002	 1.5860139154e+000	-6.1626099383e-001
 3.0033289064e-002	 1.5863717151e+000	-6.1688721091e-001
 1.4988174934e-002	 1.5865852019e+000	-6.2773724196e-001
 0.0000000000e+000	 1.5866560000e+000	-6.5117921925e-001
 1.5478427319e-001	 1.6058817707e+000	-5.9484056982e-001
 1.3909065698e-001	 1.6073170652e+000	-5.9799456280e-001
 1.2343950660e-001	 1.6085947222e+000	-5.9310244258e-001
 1.0783290811e-001	 1.6097162188e+000	-5.8313553138e-001
 9.2272903104e-002	 1.6106830609e+000	-5.7101695281e-001
 7.6761488443e-002	 1.6114967818e+000	-5.5961690777e-001
 6.1300615973e-002	 1.6121589411e+000	-5.5174830219e-001
 4.5892192346e-002	 1.6126711235e+000	-5.5016273804e-001
 3.0538078857e-002	 1.6130349369e+000	-5.5754687612e-001
 1.5240091324e-002	 1.6132520120e+000	-5.7651917713e-001
 0.0000000000e+000	 1.6133240000e+000	-6.0962704672e-001
 1.5734283365e-001	 1.6324267518e+000	-5.1305251434e-001
 1.4138980436e-001	 1.6338857715e+000	-5.1827528376e-001
 1.2547994284e-001	 1.6351845480e+000	-5.1542200985e-001
 1.0961536965e-001	 1.6363245828e+000	-5.0765522556e-001
 9.3798160140e-002	 1.6373074066e+000	-4.9808813686e-001
 7.8030344158e-002	 1.6381345781e+000	-4.8977926235e-001
 6.2313905820e-002	 1.6388076829e+000	-4.8572746092e-001
 4.6650783297e-002	 1.6393283315e+000	-4.8886736071e-001
 3.1042868651e-002	 1.6396981588e+000	-5.0206519933e-001
 1.5492007713e-002	 1.6399188220e+000	-5.2811508295e-001
 0.0000000000e+000	 1.6399920000e+000	-5.6973569145e-001
 1.5990139411e-001	 1.6589717329e+000	-4.3799803758e-001
 1.4368895174e-001	 1.6604544778e+000	-4.4466454188e-001
 1.2752037909e-001	 1.6617743738e+000	-4.4312360105e-001
 1.1139783120e-001	 1.6629329467e+000	-4.3672951796e-001
 9.5323417177e-002	 1.6639317522e+000	-4.2878513663e-001
 7.9299199872e-002	 1.6647723745e+000	-4.2253582884e-001
 6.3327195668e-002	 1.6654564246e+000	-4.2116390857e-001
 4.7409374249e-002	 1.6659855396e+000	-4.2778348889e-001
 3.1547658445e-002	 1.6663613806e+000	-4.4543579327e-001
 1.5743924102e-002	 1.6665856321e+000	-4.7708492981e-001
 0.0000000000e+000	 1.6666600000e+000	-5.2561415695e-001
 1.6245995458e-001	 1.6855167140e+000	-3.6776727868e-001
 1.4598809912e-001	 1.6870231841e+000	-3.7502619351e-001
 1.2956081534e-001	 1.6883641995e+000	-3.7381892222e-001
 1.1318029275e-001	 1.6895413106e+000	-3.6769353148e-001
 9.6848674214e-002	 1.6905560979e+000	-3.6014348679e-001
 8.0568055587e-002	 1.6914101708e+000	-3.5460096500e-001
 6.4340485515e-002	 1.6921051664e+000	-3.5443063748e-001
 4.8167965200e-002	 1.6926427476e+000	-3.6292394105e-001
 3.2052448238e-002	 1.6930246025e+000	-3.8329384973e-001
 1.5995840491e-002	 1.6932524421e+000	-4.1867015752e-001
 0.0000000000e+000	 1.6933280000e+000	-4.7209530174e-001
 1.6501851504e-001	 1.7120616951e+000	-3.0082686315e-001
 1.4828724649e-001	 1.7135918903e+000	-3.0761925651e-001
 1.3160125158e-001	 1.7149540253e+000	-3.0553581051e-001
 1.1496275430e-001	 1.7161496746e+000	-2.9832179829e-001
 9.8373931250e-002	 1.7171804436e+000	-2.8966373044e-001
 8.1836911302e-002	 1.7180479672e+000	-2.8318196707e-001
 6.5353775363e-002	 1.7187539081e+000	-2.8242384740e-001
 4.8926556152e-002	 1.7192999557e+000	-2.9085735605e-001
 3.2557238032e-002	 1.7196878243e+000	-3.1186534081e-001
 1.6247756880e-002	 1.7199192522e+000	-3.4874029333e-001
 0.0000000000e+000	 1.7199960000e+000	-4.0467972356e-001
 1.6757707550e-001	 1.7386066761e+000	-2.3598706143e-001
 1.5058639387e-001	 1.7401605966e+000	-2.4106398025e-001
 1.3364168783e-001	 1.7415438510e+000	-2.3668304257e-001
 1.1674521585e-001	 1.7427580385e+000	-2.2679163823e-001
 9.9899188287e-002	 1.7438047893e+000	-2.1527320319e-001
 8.3105767016e-002	 1.7446857636e+000	-2.0593909993e-001
 6.6367065210e-002	 1.7454026499e+000	-2.0252106633e-001
 4.9685147103e-002	 1.7459571637e+000	-2.0866425422e-001
 3.3062027826e-002	 1.7463510461e+000	-2.2792087433e-001
 1.6499673269e-002	 1.7465860622e+000	-2.6374446036e-001
 0.0000000000e+000	 1.7466640000e+000	-3.1948478435e-001
 1.7013563596e-001	 1.7651516572e+000	-1.7237190727e-001
 1.5288554125e-001	 1.7667293029e+000	-1.7431097584e-001
 1.3568212407e-001	 1.7681336768e+000	-1.6601831876e-001
 1.1852767740e-001	 1.7693664024e+000	-1.5164984285e-001
 1.0142444532e-001	 1.7704291350e+000	-1.3529126714e-001
 8.4374622731e-002	 1.7713235599e+000	-1.2094923531e-001
 6.7380355057e-002	 1.7720513917e+000	-1.1254305161e-001
 5.0443738054e-002	 1.7726143718e+000	-1.1389706407e-001
 3.3566817619e-002	 1.7730142680e+000	-1.2873371333e-001
 1.6751589658e-002	 1.7732528723e+000	-1.6066726157e-001
 0.0000000000e+000	 1.7733320000e+000	-2.1319823461e-001
 1.7269419643e-001	 1.7916966383e+000	-1.0939196878e-001
 1.5518468862e-001	 1.7932980092e+000	-1.0661308939e-001
 1.3772256032e-001	 1.7947235026e+000	-9.2619093738e-002
 1.2031013895e-001	 1.7959747663e+000	-7.1782322337e-002
 1.0294970236e-001	 1.7970534806e+000	-4.8397637136e-002
 8.5643478444e-002	 1.7979613563e+000	-2.6672724100e-002
 6.8393644903e-002	 1.7987001334e+000	-1.0719079147e-002
 5.1202329005e-002	 1.7992715798e+000	-4.5437033217e-003
 3.4071607412e-002	 1.7996774898e+000	-1.2041527947e-002
 1.7003506047e-002	 1.7999196823e+000	-3.6988585426e-002
 0.0000000000e+000	 1.8000000000e+000	-8.3035960260e-002
 1.8000000000e+000	 0.0000000000e+000	 3.0121013914e+000
 1.7999196823e+000	 1.7003506047e-002	 3.0176213596e+000
 1.7996774898e+000	 3.4071607412e-002	 3.0245696060e+000
 1.7992715798e+000	 5.1202329005e-002	 3.0321712608e+000
 1.7987001334e+000	 6.8393644903e-002	 3.0395079308e+000
 1.7979613563e+000	 8.5643478444e-002	 3.0455205743e+000
 1.7970534806e+000	 1.0294970236e-001	 3.0490133804e+000
 1.7959747663e+000	 1.2031013895e-001	 3.0486586499e+000
 1.7947235026e+000	 1.3772256032e-001	 3.0430026670e+000
 1.7932980092e+000	 1.5518468862e-001	 3.0304725476e+000
 1.7916966383e+000	 1.7269419643e-001	 3.0093840383e+000
 1.8266680000e+000	 0.0000000000e+000	 2.8377575704e+000
 1.8265864924e+000	 1.7255422436e-002	 2.8525428281e+000
 1.8263407116e+000	 3.4576397204e-002	 2.8686106922e+000
 1.8259287879e+000	 5.1960919955e-002	 2.8851941095e+000
 1.8253488752e+000	 6.9406934749e-002	 2.9013662338e+000
 1.8245991527e+000	 8.6912334157e-002	 2.9160437880e+000
 1.8236778263e+000	 1.0447495939e-001	 2.9279915364e+000
 1.8225831303e+000	 1.2209260050e-001	 2.9358278600e+000
 1.8213133283e+000	 1.3976299656e-001	 2.9380314255e+000
 1.8198667155e+000	 1.5748383600e-001	 2.9329489289e+000
 1.8182416194e+000	 1.7525275689e-001	 2.9188038875e+000
 1.8533360000e+000	 0.0000000000e+000	 2.7195381546e+000
 1.8532533024e+000	 1.7507338824e-002	 2.7396452698e+000
 1.8530039335e+000	 3.5081186996e-002	 2.7607988934e+000
 1.8525859960e+000	 5.2719510904e-002	 2.7822774242e+000
 1.8519976169e+000	 7.0420224594e-002	 2.8031831095e+000
 1.8512369490e+000	 8.8181189870e-002	 2.8224459177e+000
 1.8503021720e+000	 1.0600021643e-001	 2.8388286288e+000
 1.8491914942e+000	 1.2387506204e-001	 2.8509331372e+000
 1.8479031541e+000	 1.4180343280e-001	 2.8572079542e+000
 1.8464354218e+000	 1.5978298338e-001	 2.8559568888e+000
 1.8447866005e+000	 1.7781131735e-001	 2.8453488769e+000
 1.8800040000e+000	 0.0000000000e+000	 2.6579077200e+000
 1.8799201125e+000	 1.7759255212e-002	 2.6790208479e+000
 1.8796671553e+000	 3.5585976788e-002	 2.7009214234e+000
 1.8792432040e+000	 5.3478101853e-002	 2.7229674193e+000
 1.8786463587e+000	 7.1433514439e-002	 2.7443240615e+000
 1.8778747454e+000	 8.9450045582e-002	 2.7639682395e+000
 1.8769265177e+000	 1.0752547346e-001	 2.7806942494e+000
 1.8757998581e+000	 1.2565752359e-001	 2.7931208634e+000
 1.8744929799e+000	 1.4384386905e-001	 2.7996997093e+000
 1.8730041281e+000	 1.6208213075e-001	 2.7987249385e+000
 1.8713315816e+000	 1.8036987781e-001	 2.7883441468e+000
 1.9066720000e+000	 0.0000000000e+000	 2.6533997419e+000
 1.9065869225e+000	 1.8011171600e-002	 2.6708350700e+000
 1.9063303771e+000	 3.6090766580e-002	 2.6888423630e+000
 1.9059004121e+000	 5.4236692802e-002	 2.7068898191e+000
 1.9052951004e+000	 7.2446804284e-002	 2.7242359090e+000
 1.9045125418e+000	 9.0718901294e-002	 2.7399343580e+000
 1.9035508634e+000	 1.0905073050e-001	 2.7528405816e+000
 1.9024082221e+000	 1.2743998514e-001	 2.7616195677e+000
 1.9010828056e+000	 1.4588430529e-001	 2.7647551863e+000
 1.8995728343e+000	 1.6438127813e-001	 2.7605609020e+000
 1.8978765627e+000	 1.8292843827e-001	 2.7471918490e+000
 1.9333400000e+000	 0.0000000000e+000	 2.7066118423e+000
 1.9332537326e+000	 1.8263087988e-002	 2.7153215318e+000
 1.9329935990e+000	 3.6595556372e-002	 2.7244970278e+000
 1.9325576201e+000	 5.4995283751e-002	 2.7337439698e+000
 1.9319438422e+000	 7.3460094129e-002	 2.7424407540e+000
 1.9311503381e+000	 9.1987757006e-002	 2.7497441269e+000
 1.9301752090e+000	 1.1057598753e-001	 2.7545963618e+000
 1.9290165860e+000	 1.2922244669e-001	 2.7557340064e+000
 1.9276726314e+000	 1.4792474153e-001	 2.7516981842e+000
 1.9261415406e+000	 1.6668042550e-001	 2.7408464168e+000
 1.9244215437e+000	 1.8548699874e-001	 2.7213659273e+000
 1.9600080000e+000	 0.0000000000e+000	 2.8182014263e+000
 1.9599205426e+000	 1.8515004376e-002	 2.8127770886e+000
 1.9596568208e+000	 3.7100346163e-002	 2.8078867963e+000
 1.9592148282e+000	 5.5753874700e-002	 2.8032974344e+000
 1.9585925840e+000	 7.4473383974e-002	 2.7985304426e+000
 1.9577881345e+000	 9.3256612718e-002	 2.7928680683e+000
 1.9567995547e+000	 1.1210124456e-001	 2.7853613369e+000
 1.9556249499e+000	 1.3100490823e-001	 2.7748397281e+000
 1.9542624571e+000	 1.4996517778e-001	 2.7599225369e+000
 1.9527102469e+000	 1.6897957288e-001	 2.7390318820e+000
 1.9509665248e+000	 1.8804555920e-001	 2.7104073184e+000
 1.9866760000e+000	 0.0000000000e+000	 2.9888816695e+000
 1.9865873527e+000	 1.8766920764e-002	 2.9635574163e+000
 1.9863200426e+000	 3.7605135955e-002	 2.9390743551e+000
 1.9858720362e+000	 5.6512465649e-002	 2.9153810235e+000
 1.9852413257e+000	 7.5486673818e-002	 2.8921614748e+000
 1.9844259308e+000	 9.4525468430e-002	 2.8688422427e+000
 1.9834239004e+000	 1.1362650160e-001	 2.8446011687e+000
 1.9822333139e+000	 1.3278736978e-001	 2.8183780765e+000
 1.9808522829e+000	 1.5200561402e-001	 2.7888872690e+000
 1.9792789532e+000	 1.7127872026e-001	 2.7546318093e+000
 1.9775115059e+000	 1.9060411966e-001	 2.7139195335e+000
 2.0133440000e+000	 0.0000000000e+000	 3.1923404204e+000
 2.0132541627e+000	 1.9018837152e-002	 3.1440707190e+000
 2.0129832645e+000	 3.8109925747e-002	 3.0976061666e+000
 2.0125292443e+000	 5.7271056599e-002	 3.0528818706e+000
 2.0118900675e+000	 7.6499963663e-002	 3.0095644966e+000
 2.0110637272e+000	 9.5794324142e-002	 2.9670692068e+000
 2.0100482461e+000	 1.1515175863e-001	 2.9245766814e+000
 2.0088416778e+000	 1.3456983133e-001	 2.8810502235e+000
 2.0074421087e+000	 1.5404605026e-001	 2.8352529591e+000
 2.0058476595e+000	 1.7357786763e-001	 2.7857651520e+000
 2.0040564870e+000	 1.9316268012e-001	 2.7310016592e+000
 2.0400120000e+000	 0.0000000000e+000	 3.2674428024e+000
 2.0399209728e+000	 1.9270753540e-002	 3.2096152610e+000
 2.0396464863e+000	 3.8614715539e-002	 3.1543642542e+000
 2.0391864523e+000	 5.8029647548e-002	 3.1014716088e+000
 2.0385388092e+000	 7.7513253509e-002	 3.0504753814e+000
 2.0377015236e+000	 9.7063179855e-002	 3.0006871532e+000
 2.0366725918e+000	 1.1667701567e-001	 2.9512092676e+000
 2.0354500417e+000	 1.3635229287e-001	 2.9009520147e+000
 2.0340319344e+000	 1.5608648651e-001	 2.8486507762e+000
 2.0324163658e+000	 1.7587701501e-001	 2.7928831506e+000
 2.0306014681e+000	 1.9572124058e-001	 2.7320860927e+000
 2.0666800000e+000	 0.0000000000e+000	 3.1887472604e+000
 2.0665877828e+000	 1.9522669929e-002	 3.1375947232e+000
 2.0663097081e+000	 3.9119505332e-002	 3.0888831070e+000
 2.0658436604e+000	 5.8788238498e-002	 3.0422588665e+000
 2.0651875510e+000	 7.8526543355e-002	 2.9971532073e+000
 2.0643393199e+000	 9.8332035568e-002	 2.9527996474e+000
 2.0632969374e+000	 1.1820227270e-001	 2.9082513698e+000
 2.0620584056e+000	 1.3813475442e-001	 2.8623983665e+000
 2.0606217602e+000	 1.5812692275e-001	 2.8139843905e+000
 2.0589850721e+000	 1.7817616239e-001	 2.7616237423e+000
 2.0571464492e+000	 1.9827980105e-001	 2.7038179258e+000
 1.7916966383e+000	 1.7269419643e-001	 3.0093840383e+000
 1.7899180559e+000	 1.9024607690e-001	 2.9826527319e+000
 1.7879604570e+000	 2.0784055965e-001	 2.9540968452e+000
 1.7858223000e+000	 2.2547521035e-001	 2.9232742324e+000
 1.7835020816e+000	 2.4314754789e-001	 2.8896900209e+000
 1.7809983380e+000	 2.6085504501e-001	 2.8528064291e+000
 1.7783096463e+000	 2.7859512887e-001	 2.8120531480e+000
 1.7754346262e+000	 2.9636518172e-001	 2.7668382147e+000
 1.7723719412e+000	 3.1416254162e-001	 2.7165592982e+000
 1.7691203005e+000	 3.3198450320e-001	 2.6606153118e+000
 1.7656784599e+000	 3.4982831845e-001	 2.5984182625e+000
 1.8182416194e+000	 1.7525275689e-001	 2.9188038875e+000
 1.8164366863e+000	 1.9306467822e-001	 2.8985249016e+000
 1.8144500845e+000	 2.1091983301e-001	 2.8760266795e+000
 1.8122802495e+000	 2.2881575086e-001	 2.8508843869e+000
 1.8099256558e+000	 2.4674991390e-001	 2.8226153922e+000
 1.8073848178e+000	 2.6471975742e-001	 2.7906902510e+000
 1.8046562917e+000	 2.8272267048e-001	 2.7545443065e+000
 1.8017386765e+000	 3.0075599654e-001	 2.7135898272e+000
 1.7986306162e+000	 3.1881703421e-001	 2.6672285926e+000
 1.7953308006e+000	 3.3690303805e-001	 2.6148648337e+000
 1.7918379672e+000	 3.5501121934e-001	 2.5559184269e+000
 1.8447866005e+000	 1.7781131735e-001	 2.8453488769e+000
 1.8429553167e+000	 1.9588327954e-001	 2.8283590276e+000
 1.8409397119e+000	 2.1399910637e-001	 2.8089986759e+000
 1.8387381990e+000	 2.3215629136e-001	 2.7868491443e+000
 1.8363492300e+000	 2.5035227990e-001	 2.7614285139e+000
 1.8337712977e+000	 2.6858446984e-001	 2.7322038941e+000
 1.8310029370e+000	 2.8685021209e-001	 2.6986043659e+000
 1.8280427269e+000	 3.0514681135e-001	 2.6600345099e+000
 1.8248892912e+000	 3.2347152681e-001	 2.6158884210e+000
 1.8215413007e+000	 3.4182157291e-001	 2.5655641078e+000
 1.8179974745e+000	 3.6019412023e-001	 2.5084781643e+000
 1.8713315816e+000	 1.8036987781e-001	 2.7883441468e+000
 1.8694739471e+000	 1.9870188086e-001	 2.7716053957e+000
 1.8674293394e+000	 2.1707837973e-001	 2.7526110452e+000
 1.8651961485e+000	 2.3549683187e-001	 2.7309348362e+000
 1.8627728042e+000	 2.5395464591e-001	 2.7060814117e+000
 1.8601577775e+000	 2.7244918225e-001	 2.6775000015e+000
 1.8573495824e+000	 2.9097775370e-001	 2.6445988401e+000
 1.8543467772e+000	 3.0953762617e-001	 2.6067602223e+000
 1.8511479661e+000	 3.2812601940e-001	 2.5633560868e+000
 1.8477518008e+000	 3.4674010776e-001	 2.5137640158e+000
 1.8441569818e+000	 3.6537702112e-001	 2.4573835273e+000
 1.8978765627e+000	 1.8292843827e-001	 2.7471918490e+000
 1.8959925775e+000	 2.0152048219e-001	 2.7277886157e+000
 1.8939189669e+000	 2.2015765309e-001	 2.7065333606e+000
 1.8916540980e+000	 2.3883737238e-001	 2.6829758540e+000
 1.8891963783e+000	 2.5755701191e-001	 2.6565904622e+000
 1.8865442573e+000	 2.7631389466e-001	 2.6267913850e+000
 1.8836962278e+000	 2.9510529531e-001	 2.5929486926e+000
 1.8806508276e+000	 3.1392844099e-001	 2.5544050554e+000
 1.8774066411e+000	 3.3278051199e-001	 2.5104930471e+000
 1.8739623009e+000	 3.5165864261e-001	 2.4605528974e+000
 1.8703164891e+000	 3.7055992201e-001	 2.4039505588e+000
 1.9244215437e+000	 1.8548699874e-001	 2.7213659273e+000
 1.9225112079e+000	 2.0433908351e-001	 2.6965027020e+000
 1.9204085944e+000	 2.2323692645e-001	 2.6705019429e+000
 1.9181120475e+000	 2.4217791288e-001	 2.6428703395e+000
 1.9156199525e+000	 2.6115937792e-001	 2.6130323831e+000
 1.9129307371e+000	 2.8017860707e-001	 2.5803473077e+000
 1.9100428731e+000	 2.9923283692e-001	 2.5441268991e+000
 1.9069548779e+000	 3.1831925580e-001	 2.5036540575e+000
 1.9036653161e+000	 3.3743500458e-001	 2.4582019816e+000
 1.9001728010e+000	 3.5657717746e-001	 2.4070538384e+000
 1.8964759965e+000	 3.7574282290e-001	 2.3495227696e+000
 1.9509665248e+000	 1.8804555920e-001	 2.7104073184e+000
 1.9490298383e+000	 2.0715768483e-001	 2.6774065458e+000
 1.9468982219e+000	 2.2631619981e-001	 2.6443156067e+000
 1.9445699970e+000	 2.4551845339e-001	 2.6105762021e+000
 1.9420435267e+000	 2.6476174392e-001	 2.5755405177e+000
 1.9393172170e+000	 2.8404331949e-001	 2.5384900256e+000
 1.9363895185e+000	 3.0336037854e-001	 2.4986552334e+000
 1.9332589282e+000	 3.2271007062e-001	 2.4552362472e+000
 1.9299239910e+000	 3.4208949717e-001	 2.4074240111e+000
 1.9263833011e+000	 3.6149571232e-001	 2.3544220693e+000
 1.9226355038e+000	 3.8092572379e-001	 2.2954686900e+000
 1.9775115059e+000	 1.9060411966e-001	 2.7139195335e+000
 1.9755484687e+000	 2.0997628615e-001	 2.6702197415e+000
 1.9733878494e+000	 2.2939547317e-001	 2.6278317317e+000
 1.9710279465e+000	 2.4885899389e-001	 2.5861074341e+000
 1.9684671009e+000	 2.6836410993e-001	 2.5443013854e+000
 1.9657036968e+000	 2.8790803190e-001	 2.5015915643e+000
 1.9627361639e+000	 3.0748792015e-001	 2.4571012551e+000
 1.9595629786e+000	 3.2710088544e-001	 2.4099217945e+000
 1.9561826660e+000	 3.4674398976e-001	 2.3591360506e+000
 1.9525938012e+000	 3.6641424717e-001	 2.3038424654e+000
 1.9487950111e+000	 3.8610862468e-001	 2.2431794864e+000
 2.0040564870e+000	 1.9316268012e-001	 2.7310016592e+000
 2.0020670991e+000	 2.1279488748e-001	 2.6746052963e+000
 1.9998774768e+000	 2.3247474653e-001	 2.6209626314e+000
 1.9974858960e+000	 2.5219953440e-001	 2.5695306945e+000
 1.9948906751e+000	 2.7196647593e-001	 2.5195514750e+000
 1.9920901766e+000	 2.9177274431e-001	 2.4700707086e+000
 1.9890828092e+000	 3.1161546176e-001	 2.4200754815e+000
 1.9858670289e+000	 3.3149170025e-001	 2.3685193560e+000
 1.9824413410e+000	 3.5139848235e-001	 2.3143482850e+000
 1.9788043013e+000	 3.7133278202e-001	 2.2565271372e+000
 1.9749545184e+000	 3.9129152557e-001	 2.1940666381e+000
 2.0306014681e+000	 1.9572124058e-001	 2.7320860927e+000
 2.0285857295e+000	 2.1561348880e-001	 2.6699647517e+000
 2.0263671043e+000	 2.3555401989e-001	 2.6108544713e+000
 2.0239438455e+000	 2.5554007491e-001	 2.5540176760e+000
 2.0213142492e+000	 2.7556884194e-001	 2.4986580804e+000
 2.0184766564e+000	 2.9563745673e-001	 2.4439364590e+000
 2.0154294546e+000	 3.1574300337e-001	 2.3889867113e+000
 2.0121710793e+000	 3.3588251507e-001	 2.3329323136e+000
 2.0087000159e+000	 3.5605297494e-001	 2.2749032561e+000
 2.0050148014e+000	 3.7625131688e-001	 2.2140535702e+000
 2.0011140257e+000	 3.9647442646e-001	 2.1495795551e+000
 2.0571464492e+000	 1.9827980105e-001	 2.7038179258e+000
 2.0551043599e+000	 2.1843209012e-001	 2.6443569984e+000
 2.0528567318e+000	 2.3863329325e-001	 2.5875297664e+000
 2.0504017950e+000	 2.5888061541e-001	 2.5325014759e+000
 2.0477378234e+000	 2.7917120795e-001	 2.4783996346e+000
 2.0448631363e+000	 2.9950216914e-001	 2.4243289625e+000
 2.0417760999e+000	 3.1987054498e-001	 2.3693865620e+000
 2.0384751296e+000	 3.4027332989e-001	 2.3126774156e+000
 2.0349586909e+000	 3.6070746753e-001	 2.2533303225e+000
 2.0312253015e+000	 3.8116985173e-001	 2.1905143953e+000
 2.0272735331e+000	 4.0165732735e-001	 2.1234562406e+000
 1.7656784599e+000	 3.4982831845e-001	 2.5984182625e+000
 1.7620446643e+000	 3.6769387793e-001	 2.5326497089e+000
 1.7582182705e+000	 3.8557567101e-001	 2.4660457025e+000
 1.7541981846e+000	 4.0347082167e-001	 2.3981278653e+000
 1.7499833653e+000	 4.2137641493e-001	 2.3284810093e+000
 1.7455728252e+000	 4.3928949790e-001	 2.2567646099e+000
 1.7409656323e+000	 4.5720708096e-001	 2.1827238691e+000
 1.7361609110e+000	 4.7512613887e-001	 2.1062002541e+000
 1.7311578440e+000	 4.9304361203e-001	 2.0271413953e+000
 1.7259556728e+000	 5.1095640776e-001	 1.9456102280e+000
 1.7205536997e+000	 5.2886140161e-001	 1.8617932637e+000
 1.7918379672e+000	 3.5501121934e-001	 2.5559184269e+000
 1.7881503349e+000	 3.7314146701e-001	 2.4931685668e+000
 1.7842672510e+000	 3.9128818879e-001	 2.4294176914e+000
 1.7801876053e+000	 4.0944846605e-001	 2.3641578245e+000
 1.7759103411e+000	 4.2761934061e-001	 2.2969523554e+000
 1.7714344564e+000	 4.4579781587e-001	 2.2274488836e+000
 1.7667590053e+000	 4.6398085787e-001	 2.1553916072e+000
 1.7618830995e+000	 4.8216539658e-001	 2.0806331278e+000
 1.7568059092e+000	 5.0034832706e-001	 2.0031455442e+000
 1.7515266650e+000	 5.1852651081e-001	 1.9230307065e+000
 1.7460446586e+000	 5.3669677708e-001	 1.8405295065e+000
 1.8179974745e+000	 3.6019412023e-001	 2.5084781643e+000
 1.8142560056e+000	 3.7858905609e-001	 2.4475082961e+000
 1.8103162315e+000	 3.9700070657e-001	 2.3855311736e+000
 1.8061770260e+000	 4.1542611042e-001	 2.3220087266e+000
 1.8018373169e+000	 4.3386226630e-001	 2.2564830781e+000
 1.7972960876e+000	 4.5230613383e-001	 2.1885908669e+000
 1.7925523784e+000	 4.7075463478e-001	 2.1180770631e+000
 1.7876052879e+000	 4.8920465428e-001	 2.0448081368e+000
 1.7824539744e+000	 5.0765304208e-001	 1.9687844384e+000
 1.7770976571e+000	 5.2609661385e-001	 1.8901516496e+000
 1.7715356175e+000	 5.4453215256e-001	 1.8092111686e+000
 1.8441569818e+000	 3.6537702112e-001	 2.4573835273e+000
 1.8403616762e+000	 3.8403664517e-001	 2.3971832274e+000
 1.8363652119e+000	 4.0271322434e-001	 2.3361130754e+000
 1.8321664466e+000	 4.2140375480e-001	 2.2736014922e+000
 1.8277642926e+000	 4.4010519199e-001	 2.2091666442e+000
 1.8231577187e+000	 4.5881445179e-001	 2.1424323612e+000
 1.8183457514e+000	 4.7752841169e-001	 2.0731434921e+000
 1.8133274763e+000	 4.9624391199e-001	 2.0011805449e+000
 1.8081020396e+000	 5.1495775711e-001	 1.9265734547e+000
 1.8026686493e+000	 5.3366671690e-001	 1.8495143267e+000
 1.7970265765e+000	 5.5236752804e-001	 1.7703690004e+000
 1.8703164891e+000	 3.7055992201e-001	 2.4039505588e+000
 1.8664673468e+000	 3.8948423424e-001	 2.3437297189e+000
 1.8624141924e+000	 4.0842574212e-001	 2.2829041927e+000
 1.8581558673e+000	 4.2738139917e-001	 2.2208625377e+000
 1.8536912684e+000	 4.4634811767e-001	 2.1570934099e+000
 1.8490193499e+000	 4.6532276975e-001	 2.0912032056e+000
 1.8441391245e+000	 4.8430218860e-001	 2.0229330826e+000
 1.8390496648e+000	 5.0328316970e-001	 1.9521751890e+000
 1.8337501048e+000	 5.2226247213e-001	 1.8789879316e+000
 1.8282396415e+000	 5.4123681994e-001	 1.8036101136e+000
 1.8225175354e+000	 5.6020290351e-001	 1.7264737752e+000
 1.8964759965e+000	 3.7574282290e-001	 2.3495227696e+000
 1.8925730174e+000	 3.9493182332e-001	 2.2887037692e+000
 1.8884631729e+000	 4.1413825989e-001	 2.2276568566e+000
 1.8841452879e+000	 4.3335904355e-001	 2.1657214047e+000
 1.8796182442e+000	 4.5259104336e-001	 2.1023481192e+000
 1.8748809811e+000	 4.7183108771e-001	 2.0371185461e+000
 1.8699324975e+000	 4.9107596551e-001	 1.9697638923e+000
 1.8647718532e+000	 5.1032242740e-001	 1.9001829739e+000
 1.8593981700e+000	 5.2956718716e-001	 1.8284591074e+000
 1.8538106336e+000	 5.4880692299e-001	 1.7548757571e+000
 1.8480084943e+000	 5.6803827899e-001	 1.6799307566e+000
 1.9226355038e+000	 3.8092572379e-001	 2.2954686900e+000
 1.9186786880e+000	 4.0037941240e-001	 2.2336786674e+000
 1.9145121533e+000	 4.1985077767e-001	 2.1721326020e+000
 1.9101347086e+000	 4.3933668792e-001	 2.1101083631e+000
 1.9055452200e+000	 4.5883396905e-001	 2.0470073542e+000
 1.9007426122e+000	 4.7833940568e-001	 1.9823760377e+000
 1.8957258705e+000	 4.9784974242e-001	 1.9159267031e+000
 1.8904940416e+000	 5.1736168511e-001	 1.8475572763e+000
 1.8850462353e+000	 5.3687190219e-001	 1.7773699669e+000
 1.8793816258e+000	 5.5637702603e-001	 1.7056885507e+000
 1.8734994532e+000	 5.7587365447e-001	 1.6330740881e+000
 1.9487950111e+000	 3.8610862468e-001	 2.2431794864e+000
 1.9447843586e+000	 4.0582700148e-001	 2.1802426751e+000
 1.9405611338e+000	 4.2556329545e-001	 2.1180998400e+000
 1.9361241293e+000	 4.4531433230e-001	 2.0559519939e+000
 1.9314721957e+000	 4.6507689473e-001	 1.9931369412e+000
 1.9266042434e+000	 4.8484772364e-001	 1.9291529849e+000
 1.9215192436e+000	 5.0462351933e-001	 1.8636818025e+000
 1.9162162300e+000	 5.2440094282e-001	 1.7966102686e+000
 1.9106943005e+000	 5.4417661721e-001	 1.7280510043e+000
 1.9049526179e+000	 5.6394712908e-001	 1.6583614311e+000
 1.8989904121e+000	 5.8370902994e-001	 1.5881611114e+000
 1.9749545184e+000	 3.9129152557e-001	 2.1940666381e+000
 1.9708900293e+000	 4.1127459056e-001	 2.1299967389e+000
 1.9666101143e+000	 4.3127581323e-001	 2.0673315331e+000
 1.9621135499e+000	 4.5129197667e-001	 2.0051767496e+000
 1.9573991715e+000	 4.7131982042e-001	 1.9427893163e+000
 1.9524658746e+000	 4.9135604160e-001	 1.8796034272e+000
 1.9473126166e+000	 5.1139729624e-001	 1.8152556983e+000
 1.9419384185e+000	 5.3144020053e-001	 1.7496091691e+000
 1.9363423657e+000	 5.5148133224e-001	 1.6827759113e+000
 1.9305236101e+000	 5.7151723213e-001	 1.6151380013e+000
 1.9244813711e+000	 5.9154440542e-001	 1.5473666211e+000
 2.0011140257e+000	 3.9647442646e-001	 2.1495795551e+000
 1.9969956999e+000	 4.1672217963e-001	 2.0845522296e+000
 1.9926590947e+000	 4.3698833100e-001	 2.0216028735e+000
 1.9881029706e+000	 4.5726962105e-001	 1.9597004980e+000
 1.9833261473e+000	 4.7756274611e-001	 1.8980008560e+000
 1.9783275057e+000	 4.9786435957e-001	 1.8358551739e+000
 1.9731059897e+000	 5.1817107315e-001	 1.7728377721e+000
 1.9676606069e+000	 5.3847945824e-001	 1.7087724245e+000
 1.9619904309e+000	 5.5878604727e-001	 1.6437571949e+000
 1.9560946022e+000	 5.7908733518e-001	 1.5781874887e+000
 1.9499723300e+000	 5.9937978090e-001	 1.5127770609e+000
 2.0272735331e+000	 4.0165732735e-001	 2.1234562406e+000
 2.0231013705e+000	 4.2216976871e-001	 2.0554368714e+000
 2.0187080752e+000	 4.4270084878e-001	 1.9897309109e+000
 2.0140923913e+000	 4.6324726543e-001	 1.9256623268e+000
 2.0092531230e+000	 4.8380567180e-001	 1.8626848379e+000
 2.0041891369e+000	 5.0437267753e-001	 1.8004046458e+000
 1.9988993627e+000	 5.2494485006e-001	 1.7385768783e+000
 1.9933827953e+000	 5.4551871594e-001	 1.6762658325e+000
 1.9876384961e+000	 5.6609076229e-001	 1.6131417347e+000
 1.9816655944e+000	 5.8665743822e-001	 1.5495996423e+000
 1.9754632889e+000	 6.0721515638e-001	 1.4863846659e+000
 1.7205536997e+000	 5.2886140161e-001	 1.8617932637e+000
 1.7149512879e+000	 5.4675543847e-001	 1.7739602295e+000
 1.7091478619e+000	 5.6463533321e-001	 1.6807600552e+000
 1.7031429098e+000	 5.8249787284e-001	 1.5831431417e+000
 1.6969359845e+000	 6.0033981835e-001	 1.4821921323e+000
 1.6905267052e+000	 6.1815790620e-001	 1.3791228383e+000
 1.6839147584e+000	 6.3594884997e-001	 1.2752836885e+000
 1.6770998984e+000	 6.5370934202e-001	 1.1721536303e+000
 1.6700819490e+000	 6.7143605513e-001	 1.0713555818e+000
 1.6628608034e+000	 6.8912564429e-001	 9.7453397243e-001
 1.6554364262e+000	 7.0677474842e-001	 8.8222208310e-001
 1.7460446586e+000	 5.3669677708e-001	 1.8405295065e+000
 1.7403592440e+000	 5.5485592404e-001	 1.7536757323e+000
 1.7344698370e+000	 5.7300071935e-001	 1.6609031136e+000
 1.7283759182e+000	 5.9112790244e-001	 1.5632728136e+000
 1.7220770338e+000	 6.0923418628e-001	 1.4619960894e+000
 1.7155727975e+000	 6.2731625900e-001	 1.3584355458e+000
 1.7088628910e+000	 6.4537078549e-001	 1.2541047557e+000
 1.7019470652e+000	 6.6339440909e-001	 1.1506661652e+000
 1.6948251409e+000	 6.8138375330e-001	 1.0500171919e+000
 1.6874970101e+000	 6.9933542355e-001	 9.5341173256e-001
 1.6799626365e+000	 7.1724600897e-001	 8.6132016500e-001
 1.7715356175e+000	 5.4453215256e-001	 1.8092111686e+000
 1.7657672001e+000	 5.6295640962e-001	 1.7237560120e+000
 1.7597918121e+000	 5.8136610550e-001	 1.6319746861e+000
 1.7536089266e+000	 5.9975793203e-001	 1.5350095250e+000
 1.7472180832e+000	 6.1812855421e-001	 1.4341723856e+000
 1.7406188898e+000	 6.3647461180e-001	 1.3309463260e+000
 1.7338110237e+000	 6.5479272100e-001	 1.2269854813e+000
 1.7267942319e+000	 6.7307947616e-001	 1.1241498124e+000
 1.7195683327e+000	 6.9133145148e-001	 1.0243969011e+000
 1.7121332167e+000	 7.0954520282e-001	 9.2852331486e-001
 1.7044888469e+000	 7.2771726952e-001	 8.3715820163e-001
 1.7970265765e+000	 5.5236752804e-001	 1.7703690004e+000
 1.7911751561e+000	 5.7105689519e-001	 1.6866902412e+000
 1.7851137872e+000	 5.8973149165e-001	 1.5963979672e+000
 1.7788419349e+000	 6.0838796163e-001	 1.5006860865e+000
 1.7723591325e+000	 6.2702292214e-001	 1.4009392013e+000
 1.7656649822e+000	 6.4563296460e-001	 1.2987348120e+000
 1.7587591563e+000	 6.6421465652e-001	 1.1958435374e+000
 1.7516413986e+000	 6.8276454324e-001	 1.0943974160e+000
 1.7443115246e+000	 7.0127914966e-001	 9.9593275911e-001
 1.7367694233e+000	 7.1975498208e-001	 9.0117540677e-001
 1.7290150572e+000	 7.3818853007e-001	 8.1091004466e-001
 1.8225175354e+000	 5.6020290351e-001	 1.7264737752e+000
 1.8165831122e+000	 5.7915738076e-001	 1.6448969103e+000
 1.8104357623e+000	 5.9809687779e-001	 1.5565136916e+000
 1.8040749433e+000	 6.1701799122e-001	 1.4625399357e+000
 1.7975001819e+000	 6.3591729007e-001	 1.3644052393e+000
 1.7907110745e+000	 6.5479131740e-001	 1.2637558152e+000
 1.7837072890e+000	 6.7363659204e-001	 1.1625112368e+000
 1.7764885653e+000	 6.9244961031e-001	 1.0629056230e+000
 1.7690547165e+000	 7.1122684783e-001	 9.6598197035e-001
 1.7614056299e+000	 7.2996476135e-001	 8.7259673337e-001
 1.7535412676e+000	 7.4865979062e-001	 7.8367461601e-001
 1.8480084943e+000	 5.6803827899e-001	 1.6799307566e+000
 1.8419910683e+000	 5.8725786634e-001	 1.6007173995e+000
 1.8357577374e+000	 6.0646226394e-001	 1.5145727411e+000
 1.8293079517e+000	 6.2564802082e-001	 1.4227047126e+000
 1.8226412312e+000	 6.4481165800e-001	 1.3265602051e+000
 1.8157571668e+000	 6.6394967020e-001	 1.2278286494e+000
 1.8086554216e+000	 6.8305852755e-001	 1.1287188630e+000
 1.8013357320e+000	 7.0213467738e-001	 1.0310757769e+000
 1.7937979084e+000	 7.2117454600e-001	 9.3582217353e-001
 1.7860418365e+000	 7.4017454062e-001	 8.4393918514e-001
 1.7780674779e+000	 7.5913105116e-001	 7.5647688691e-001
 1.8734994532e+000	 5.7587365447e-001	 1.6330740881e+000
 1.8673990244e+000	 5.9535835191e-001	 1.5564094877e+000
 1.8610797125e+000	 6.1482765009e-001	 1.4727287052e+000
 1.8545409601e+000	 6.3427805041e-001	 1.3832018064e+000
 1.8477822806e+000	 6.5370602593e-001	 1.2892652782e+000
 1.8408032591e+000	 6.7310802300e-001	 1.1926887871e+000
 1.8336035543e+000	 6.9248046307e-001	 1.0959142173e+000
 1.8261828987e+000	 7.1181974445e-001	 1.0002286084e+000
 1.8185411003e+000	 7.3112224418e-001	 9.0665280413e-001
 1.8106780431e+000	 7.5038431988e-001	 8.1627905366e-001
 1.8025936882e+000	 7.6960231171e-001	 7.3026898926e-001
 1.8989904121e+000	 5.8370902994e-001	 1.5881611114e+000
 1.8928069804e+000	 6.0345883748e-001	 1.5141408035e+000
 1.8864016876e+000	 6.2319303624e-001	 1.4330303987e+000
 1.8797739685e+000	 6.4290808001e-001	 1.3459318775e+000
 1.8729233299e+000	 6.6260039386e-001	 1.2542435767e+000
 1.8658493514e+000	 6.8226637580e-001	 1.1600269994e+000
 1.8585516869e+000	 7.0190239858e-001	 1.0654554940e+000
 1.8510300654e+000	 7.2150481152e-001	 9.7160577895e-001
 1.8432842922e+000	 7.4106994236e-001	 8.7959653297e-001
 1.8353142497e+000	 7.6059409915e-001	 7.9061836502e-001
 1.8271198986e+000	 7.8007357226e-001	 7.0593144700e-001
 1.9244813711e+000	 5.9154440542e-001	 1.5473666211e+000
 1.9182149365e+000	 6.1155932306e-001	 1.4759822240e+000
 1.9117236627e+000	 6.3155842238e-001	 1.3974143417e+000
 1.9050069769e+000	 6.5153810961e-001	 1.3126663555e+000
 1.8980643793e+000	 6.7149476179e-001	 1.2231146213e+000
 1.8908954437e+000	 6.9142472860e-001	 1.1312458100e+000
 1.8834998196e+000	 7.1132433410e-001	 1.0386214209e+000
 1.8758772322e+000	 7.3118987860e-001	 9.4637147373e-001
 1.8680274841e+000	 7.5101764053e-001	 8.5570077314e-001
 1.8599504564e+000	 7.7080387841e-001	 7.6788630194e-001
 1.8516461089e+000	 7.9054483281e-001	 6.8427451611e-001
 1.9499723300e+000	 5.9937978090e-001	 1.5127770609e+000
 1.9436228926e+000	 6.1965980863e-001	 1.4439012263e+000
 1.9370456378e+000	 6.3992380853e-001	 1.3676972037e+000
 1.9302399853e+000	 6.6016813920e-001	 1.2850389162e+000
 1.9232054286e+000	 6.8038912972e-001	 1.1975384257e+000
 1.9159415361e+000	 7.0058308140e-001	 1.1076560550e+000
 1.9084479522e+000	 7.2074626962e-001	 1.0166129639e+000
 1.9007243989e+000	 7.4087494567e-001	 9.2561403861e-001
 1.8927706760e+000	 7.6096533871e-001	 8.3593924947e-001
 1.8845866630e+000	 7.8101365768e-001	 7.4894070635e-001
 1.8761723193e+000	 8.0101609336e-001	 6.6603962364e-001
 1.9754632889e+000	 6.0721515638e-001	 1.4863846659e+000
 1.9690308487e+000	 6.2776029421e-001	 1.4197551960e+000
 1.9623676129e+000	 6.4828919468e-001	 1.3455682164e+000
 1.9554729937e+000	 6.6879816880e-001	 1.2645470693e+000
 1.9483464780e+000	 6.8928349765e-001	 1.1788854406e+000
 1.9409876284e+000	 7.0974143420e-001	 1.0904909198e+000
 1.9333960849e+000	 7.3016820514e-001	 1.0005550546e+000
 1.9255715656e+000	 7.5056001275e-001	 9.1034765771e-001
 1.9175138679e+000	 7.7091303689e-001	 8.2121362459e-001
 1.9092228696e+000	 7.9122343695e-001	 7.3456965537e-001
 1.9006985296e+000	 8.1148735391e-001	 6.5190089651e-001
 1.6554364262e+000	 7.0677474842e-001	 8.8222208310e-001
 1.6478100126e+000	 7.2437735518e-001	 7.9137290937e-001
 1.6399805736e+000	 7.4193272950e-001	 6.9871901471e-001
 1.6319482913e+000	 7.5943747564e-001	 6.0432749474e-001
 1.6237134218e+000	 7.7688818926e-001	 5.0832155555e-001
 1.6152762950e+000	 7.9428145945e-001	 4.1088052614e-001
 1.6066373155e+000	 8.1161387061e-001	 3.1223979423e-001
 1.5977969630e+000	 8.2888200447e-001	 2.1269066618e-001
 1.5887557923e+000	 8.4608244213e-001	 1.1258015123e-001
 1.5795144344e+000	 8.6321176607e-001	 1.2310670070e-002
 1.5700735960e+000	 8.8026656221e-001	-8.7660312675e-002
 1.6799626365e+000	 7.1724600897e-001	 8.6132016500e-001
 1.6722232334e+000	 7.3510940813e-001	 7.7074054237e-001
 1.6642777969e+000	 7.5292487508e-001	 6.7833737432e-001
 1.6561265119e+000	 7.7068896374e-001	 5.8419909155e-001
 1.6477696382e+000	 7.8839821939e-001	 4.8847119421e-001
 1.6392075107e+000	 8.0604918054e-001	 3.9135616197e-001
 1.6304405399e+000	 8.2363838099e-001	 2.9311329235e-001
 1.6214692126e+000	 8.4116235185e-001	 1.9405846815e-001
 1.6122940921e+000	 8.5861762355e-001	 9.4563854841e-002
 1.6029158183e+000	 8.7600072794e-001	-4.9424721743e-003
 1.5933351085e+000	 8.9330820037e-001	-1.0397697034e-001
 1.7044888469e+000	 7.2771726952e-001	 8.3715820163e-001
 1.6966364542e+000	 7.4584146108e-001	 7.4735790447e-001
 1.6885750202e+000	 7.6391702065e-001	 6.5573248362e-001
 1.6803047325e+000	 7.8194045185e-001	 5.6237454618e-001
 1.6718258546e+000	 7.9990824952e-001	 4.6743483505e-001
 1.6631387264e+000	 8.1781690162e-001	 3.7112206709e-001
 1.6542437644e+000	 8.3566289138e-001	 2.7370270514e-001
 1.6451414623e+000	 8.5344269924e-001	 1.7550066564e-001
 1.6358323918e+000	 8.7115280498e-001	 7.6896962367e-002
 1.6263172021e+000	 8.8878968982e-001	-2.1670713082e-002
 1.6165966211e+000	 9.0634983852e-001	-1.1970847430e-001
 1.7290150572e+000	 7.3818853007e-001	 8.1091004466e-001
 1.7210496750e+000	 7.5657351403e-001	 7.2226909696e-001
 1.7128722434e+000	 7.7490916622e-001	 6.3182628995e-001
 1.7044829530e+000	 7.9319193996e-001	 5.3966218158e-001
 1.6958820710e+000	 8.1141827964e-001	 4.4591662540e-001
 1.6870699421e+000	 8.2958462271e-001	 3.5078856597e-001
 1.6780469888e+000	 8.4768740177e-001	 2.5453577538e-001
 1.6688137120e+000	 8.6572304662e-001	 1.5747453249e-001
 1.6593706915e+000	 8.8368798640e-001	 5.9979245920e-002
 1.6497185860e+000	 9.0157865169e-001	-3.7517978642e-002
 1.6398581337e+000	 9.1939147667e-001	-1.3452782701e-001
 1.7535412676e+000	 7.4865979062e-001	 7.8367461601e-001
 1.7454628958e+000	 7.6730556697e-001	 6.9644622728e-001
 1.7371694667e+000	 7.8590131179e-001	 6.0747133931e-001
 1.7286611736e+000	 8.0444342807e-001	 5.1680312161e-001
 1.7199382875e+000	 8.2292830977e-001	 4.2455527779e-001
 1.7110011578e+000	 8.4135234380e-001	 3.3090182689e-001
 1.7018502132e+000	 8.5971191215e-001	 2.3607683407e-001
 1.6924859617e+000	 8.7800339400e-001	 1.4037409248e-001
 1.6829089912e+000	 8.9622316782e-001	 4.4146757638e-002
 1.6731199699e+000	 9.1436761356e-001	-5.2193065376e-002
 1.6631196463e+000	 9.3243311482e-001	-1.4817478182e-001
 1.7780674779e+000	 7.5913105116e-001	 7.5647688691e-001
 1.7698761166e+000	 7.7803761992e-001	 6.7079025872e-001
 1.7614666900e+000	 7.9689345736e-001	 5.8345153302e-001
 1.7528393942e+000	 8.1569491618e-001	 4.9447199357e-001
 1.7439945039e+000	 8.3443833989e-001	 4.0392476042e-001
 1.7349323735e+000	 8.5312006488e-001	 3.1194458488e-001
 1.7256534376e+000	 8.7173642254e-001	 2.1872760342e-001
 1.7161582113e+000	 8.9028374139e-001	 1.2453105259e-001
 1.7064472909e+000	 9.0875834925e-001	 2.9672946097e-002
 1.6965213537e+000	 9.2715657544e-001	-6.5468285199e-002
 1.6863811589e+000	 9.4547475298e-001	-1.6045419092e-001
 1.8025936882e+000	 7.6960231171e-001	 7.3026898926e-001
 1.7942893373e+000	 7.8876967287e-001	 6.4613201574e-001
 1.7857639133e+000	 8.0788560293e-001	 5.6048306036e-001
 1.7770176148e+000	 8.2694640429e-001	 4.7327782436e-001
 1.7680507203e+000	 8.4594837002e-001	 3.8453519549e-001
 1.7588635892e+000	 8.6488778597e-001	 2.9433708358e-001
 1.7494566620e+000	 8.8376093293e-001	 2.0282822611e-001
 1.7398304610e+000	 9.0256408877e-001	 1.1021596574e-001
 1.7299855906e+000	 9.2129353067e-001	 1.6770001410e-002
 1.7199227376e+000	 9.3994553731e-001	-7.7177886879e-002
 1.7096426715e+000	 9.5851639113e-001	-1.7123413984e-001
 1.8271198986e+000	 7.8007357226e-001	 7.0593144700e-001
 1.8187025581e+000	 7.9950172581e-001	 6.2323333014e-001
 1.8100611366e+000	 8.1887774850e-001	 5.3921549072e-001
 1.8011958353e+000	 8.3819789240e-001	 4.5376511209e-001
 1.7921069367e+000	 8.5745840015e-001	 3.6683394611e-001
 1.7827948048e+000	 8.7665550706e-001	 2.7843821561e-001
 1.7732598864e+000	 8.9578544332e-001	 1.8865849938e-001
 1.7635027107e+000	 9.1484443615e-001	 9.7639601616e-002
 1.7535238903e+000	 9.3382871209e-001	 5.5904075091e-003
 1.7433241214e+000	 9.5273449919e-001	-8.7216275112e-002
 1.7329041841e+000	 9.7155802928e-001	-1.8044388864e-001
 1.8516461089e+000	 7.9054483281e-001	 6.8427451611e-001
 1.8431157789e+000	 8.1023377876e-001	 6.0278831509e-001
 1.8343583599e+000	 8.2986989407e-001	 5.2023301047e-001
 1.8253740559e+000	 8.4944938051e-001	 4.3641505685e-001
 1.8161631531e+000	 8.6896843027e-001	 3.5120687415e-001
 1.8067260205e+000	 8.8842322815e-001	 2.6454684281e-001
 1.7970631108e+000	 9.0780995370e-001	 1.7643929523e-001
 1.7871749603e+000	 9.2712478354e-001	 8.6954506075e-002
 1.7770621900e+000	 9.4636389352e-001	-3.7713175656e-003
 1.7667255053e+000	 9.6552346106e-001	-9.5536045959e-002
 1.7561656967e+000	 9.8459966744e-001	-1.8807163769e-001
 1.8761723193e+000	 8.0101609336e-001	 6.6603962364e-001
 1.8675289997e+000	 8.2096583171e-001	 5.8542475535e-001
 1.8586555832e+000	 8.4086203964e-001	 5.0405579136e-001
 1.8495522765e+000	 8.6070086862e-001	 4.2164693606e-001
 1.8402193695e+000	 8.8047846040e-001	 3.3797975348e-001
 1.8306572362e+000	 9.0019094924e-001	 2.5290328007e-001
 1.8208663352e+000	 9.1983446409e-001	 1.6633414953e-001
 1.8108472100e+000	 9.3940513092e-001	 7.8256732097e-002
 1.8006004897e+000	 9.5889907494e-001	-1.1276710606e-002
 1.7901268891e+000	 9.7831242294e-001	-1.0214585545e-001
 1.7794272093e+000	 9.9764130559e-001	-1.9416213397e-001
 1.9006985296e+000	 8.1148735391e-001	 6.5190089651e-001
 1.8919422205e+000	 8.3169788466e-001	 5.7170560315e-001
 1.8829528065e+000	 8.5185418521e-001	 4.9114147840e-001
 1.8737304971e+000	 8.7195235673e-001	 4.0981961140e-001
 1.8642755859e+000	 8.9198849053e-001	 3.2741982447e-001
 1.8545884519e+000	 9.1195867032e-001	 2.4369092796e-001
 1.8446695596e+000	 9.3185897448e-001	 1.5845100477e-001
 1.8345194597e+000	 9.5168547831e-001	 7.1587726611e-002
 1.8241387894e+000	 9.7143425637e-001	-1.6941296807e-002
 1.8135282730e+000	 9.9110138481e-001	-1.0710813644e-001
 1.8026887218e+000	 1.0106829438e+000	-1.9881655562e-001
 1.5700735960e+000	 8.8026656221e-001	-8.7660312675e-002
 1.5604325990e+000	 8.9724596293e-001	-1.8649570447e-001
 1.5505937056e+000	 9.1414400241e-001	-2.8380309351e-001
 1.5405578528e+000	 9.3095728892e-001	-3.7974704635e-001
 1.5303260540e+000	 9.4768244256e-001	-4.7442622638e-001
 1.5198993990e+000	 9.6431609743e-001	-5.6787244702e-001
 1.5092790533e+000	 9.8085490370e-001	-6.6004981833e-001
 1.4984662587e+000	 9.9729552980e-001	-7.5085399350e-001
 1.4874623321e+000	 1.0136346645e+000	-8.4011253428e-001
 1.4762686658e+000	 1.0298690189e+000	-9.2758015448e-001
 1.4648867267e+000	 1.0459953290e+000	-1.0129449240e+000
 1.5933351085e+000	 8.9330820037e-001	-1.0397697034e-001
 1.5835512749e+000	 9.1053916034e-001	-2.0144438451e-001
 1.5735666128e+000	 9.2768755366e-001	-2.9679915849e-001
 1.5633820732e+000	 9.4474993835e-001	-3.9033504360e-001
 1.5529986847e+000	 9.6172288443e-001	-4.8227762302e-001
 1.5424175529e+000	 9.7860297614e-001	-5.7278307102e-001
 1.5316398610e+000	 9.9538681402e-001	-6.6193700089e-001
 1.5206668688e+000	 1.0120710171e+000	-7.4975449881e-001
 1.5094999130e+000	 1.0286522252e+000	-8.3617461837e-001
 1.4981404063e+000	 1.0451271006e+000	-9.2106669076e-001
 1.4865898373e+000	 1.0614923309e+000	-1.0042246132e+000
 1.6165966211e+000	 9.0634983852e-001	-1.1970847430e-001
 1.6066699508e+000	 9.2383235774e-001	-2.1584078904e-001
 1.5965395200e+000	 9.4123110491e-001	-3.0932211685e-001
 1.5862062937e+000	 9.5854258778e-001	-4.0055394562e-001
 1.5756713154e+000	 9.7576332631e-001	-4.8986755919e-001
 1.5649357069e+000	 9.9288985485e-001	-5.7752253068e-001
 1.5540006687e+000	 1.0099187243e+000	-6.6370529891e-001
 1.5428674789e+000	 1.0268465044e+000	-7.4852881117e-001
 1.5315374938e+000	 1.0436697858e+000	-8.3202720160e-001
 1.5200121467e+000	 1.0603851823e+000	-9.1416112802e-001
 1.5082929480e+000	 1.0769893328e+000	-9.9481223576e-001
 1.6398581337e+000	 9.1939147667e-001	-1.3452782701e-001
 1.6297886266e+000	 9.3712555515e-001	-2.2938378861e-001
 1.6195124272e+000	 9.5477465616e-001	-3.2110598686e-001
 1.6090305142e+000	 9.7233523721e-001	-4.1018301844e-001
 1.5983439460e+000	 9.8980376818e-001	-4.9703147124e-001
 1.5874538609e+000	 1.0071767336e+000	-5.8199417808e-001
 1.5763614763e+000	 1.0244506346e+000	-6.6533963020e-001
 1.5650680890e+000	 1.0416219918e+000	-7.4725584170e-001
 1.5535750746e+000	 1.0586873465e+000	-8.2785605932e-001
 1.5418838871e+000	 1.0756432639e+000	-9.0717232093e-001
 1.5299960587e+000	 1.0924863347e+000	-9.8515553566e-001
 1.6631196463e+000	 9.3243311482e-001	-1.4817478182e-001
 1.6529073025e+000	 9.5041875256e-001	-2.4184098118e-001
 1.6424853344e+000	 9.6831820741e-001	-3.3195489310e-001
 1.6318547346e+000	 9.8612788664e-001	-4.1907237628e-001
 1.6210165767e+000	 1.0038442101e+000	-5.0367570964e-001
 1.6099720149e+000	 1.0214636123e+000	-5.8617285432e-001
 1.5987222840e+000	 1.0389825450e+000	-6.6689041632e-001
 1.5872686991e+000	 1.0563974791e+000	-7.4607997673e-001
 1.5756126554e+000	 1.0737049072e+000	-8.2391063774e-001
 1.5637556276e+000	 1.0909013456e+000	-9.0046892675e-001
 1.5516991694e+000	 1.1079833366e+000	-9.7575729892e-001
 1.6863811589e+000	 9.4547475298e-001	-1.6045419092e-001
 1.6760259784e+000	 9.6371194997e-001	-2.5304672946e-001
 1.6654582416e+000	 9.8186175866e-001	-3.4174082840e-001
 1.6546789551e+000	 9.9992053607e-001	-4.2714050670e-001
 1.6436892074e+000	 1.0178846519e+000	-5.0977626857e-001
 1.6324901689e+000	 1.0357504910e+000	-5.9009706167e-001
 1.6210830917e+000	 1.0535144553e+000	-6.6847750954e-001
 1.6094693093e+000	 1.0711729664e+000	-7.4520932136e-001
 1.5976502362e+000	 1.0887224679e+000	-8.2050110290e-001
 1.5856273680e+000	 1.1061594272e+000	-8.9447652555e-001
 1.5734022801e+000	 1.1234803385e+000	-9.6717260842e-001
 1.7096426715e+000	 9.5851639113e-001	-1.7123413984e-001
 1.6991446542e+000	 9.7700514737e-001	-2.6289999599e-001
 1.6884311488e+000	 9.9540530991e-001	-3.5040122159e-001
 1.6775031755e+000	 1.0137131855e+000	-4.3437322282e-001
 1.6663618381e+000	 1.0319250938e+000	-5.1537020890e-001
 1.6550083229e+000	 1.0500373697e+000	-5.9387364972e-001
 1.6434438993e+000	 1.0680463656e+000	-6.7028240402e-001
 1.6316699194e+000	 1.0859484537e+000	-7.4491253159e-001
 1.6196878171e+000	 1.1037400286e+000	-8.1799516927e-001
 1.6074991084e+000	 1.1214175089e+000	-8.8967450071e-001
 1.5951053908e+000	 1.1389773404e+000	-9.6000583505e-001
 1.7329041841e+000	 9.7155802928e-001	-1.8044388864e-001
 1.7222633301e+000	 9.9029834478e-001	-2.7136199476e-001
 1.7114040560e+000	 1.0089488612e+000	-3.5793632918e-001
 1.7003273960e+000	 1.0275058349e+000	-4.4081422939e-001
 1.6890344687e+000	 1.0459655357e+000	-5.2056139698e-001
 1.6775264769e+000	 1.0643242484e+000	-5.9766939209e-001
 1.6658047070e+000	 1.0825782759e+000	-6.7254614370e-001
 1.6538705295e+000	 1.1007239411e+000	-7.4551546014e-001
 1.6417253979e+000	 1.1187575892e+000	-8.1681472871e-001
 1.6293708489e+000	 1.1366755906e+000	-8.8659270229e-001
 1.6168085014e+000	 1.1544743423e+000	-9.5490738969e-001
 1.7561656967e+000	 9.8459966744e-001	-1.8807163769e-001
 1.7453820060e+000	 1.0035915422e+000	-2.7845367649e-001
 1.7343769632e+000	 1.0224924124e+000	-3.6440820524e-001
 1.7231516164e+000	 1.0412984844e+000	-4.4657222518e-001
 1.7117070994e+000	 1.0600059775e+000	-5.2551136159e-001
 1.7000446309e+000	 1.0786111271e+000	-6.0170899001e-001
 1.6881655147e+000	 1.0971101862e+000	-6.7556587225e-001
 1.6760711396e+000	 1.1154994284e+000	-7.4739763297e-001
 1.6637629787e+000	 1.1337751499e+000	-8.1743229825e-001
 1.6512425893e+000	 1.1519336722e+000	-8.8580791342e-001
 1.6385116121e+000	 1.1699713442e+000	-9.5257025828e-001
 1.7794272093e+000	 9.9764130559e-001	-1.9416213397e-001
 1.7685006818e+000	 1.0168847396e+000	-2.8425511078e-001
 1.7573498703e+000	 1.0360359637e+000	-3.6993068587e-001
 1.7459758369e+000	 1.0550911338e+000	-4.5181091816e-001
 1.7343797301e+000	 1.0740464194e+000	-5.3043749108e-001
 1.7225627848e+000	 1.0928980058e+000	-6.0627159582e-001
 1.7105263223e+000	 1.1116420965e+000	-6.7969123702e-001
 1.6982717497e+000	 1.1302749157e+000	-7.5098857228e-001
 1.6858005595e+000	 1.1487927106e+000	-8.2036730333e-001
 1.6731143297e+000	 1.1671917539e+000	-8.8794013760e-001
 1.6602147228e+000	 1.1854683461e+000	-9.5372633978e-001
 1.8026887218e+000	 1.0106829438e+000	-1.9881655562e-001
 1.7916193577e+000	 1.0301779370e+000	-2.8889432446e-001
 1.7803227775e+000	 1.0495795149e+000	-3.7467722202e-001
 1.7688000574e+000	 1.0688837832e+000	-4.5674750617e-001
 1.7570523608e+000	 1.0880868613e+000	-5.3560958488e-001
 1.7450809388e+000	 1.1071848845e+000	-6.1168720762e-001
 1.7328871300e+000	 1.1261740068e+000	-6.8532066006e-001
 1.7204723598e+000	 1.1450504030e+000	-7.5676397964e-001
 1.7078381404e+000	 1.1638102713e+000	-8.2618221128e-001
 1.6949860702e+000	 1.1824498355e+000	-8.9364872328e-001
 1.6819178335e+000	 1.2009653480e+000	-9.5914260478e-001
 1.4648867267e+000	 1.0459953290e+000	-1.0129449240e+000
 1.4533180553e+000	 1.0620103567e+000	-1.0961476923e+000
 1.4415642644e+000	 1.0779108915e+000	-1.1770688401e+000
 1.4296270391e+000	 1.0936937532e+000	-1.2551945065e+000
 1.4175081369e+000	 1.1093557947e+000	-1.3299343889e+000
 1.4052093865e+000	 1.1248939033e+000	-1.4006218336e+000
 1.3927326875e+000	 1.1403050036e+000	-1.4665140989e+000
 1.3800800090e+000	 1.1555860590e+000	-1.5267927988e+000
 1.3672533887e+000	 1.1707340736e+000	-1.5805645339e+000
 1.3542549321e+000	 1.1857460943e+000	-1.6268617143e+000
 1.3410868110e+000	 1.2006192129e+000	-1.6646435814e+000
 1.4865898373e+000	 1.0614923309e+000	-1.0042246132e+000
 1.4748497697e+000	 1.0777446301e+000	-1.0856370105e+000
 1.4629218399e+000	 1.0938807402e+000	-1.1651977510e+000
 1.4508077579e+000	 1.1098974338e+000	-1.2424452102e+000
 1.4385093074e+000	 1.1257915171e+000	-1.3168410032e+000
 1.4260283442e+000	 1.1415598314e+000	-1.3877698854e+000
 1.4133667960e+000	 1.1571992558e+000	-1.4545398269e+000
 1.4005266610e+000	 1.1727067085e+000	-1.5163822683e+000
 1.3875100072e+000	 1.1880791493e+000	-1.5724525663e+000
 1.3743189713e+000	 1.2033135815e+000	-1.6218306353e+000
 1.3609557572e+000	 1.2184070535e+000	-1.6635217930e+000
 1.5082929480e+000	 1.0769893328e+000	-9.9481223576e-001
 1.4963814841e+000	 1.0934789035e+000	-1.0740674532e+000
 1.4842794153e+000	 1.1098505889e+000	-1.1518676195e+000
 1.4719884768e+000	 1.1261011144e+000	-1.2277590435e+000
 1.4595104780e+000	 1.1422272395e+000	-1.3012113412e+000
 1.4468473020e+000	 1.1582257595e+000	-1.3716172169e+000
 1.4340009045e+000	 1.1740935079e+000	-1.4382924177e+000
 1.4209733130e+000	 1.1898273579e+000	-1.5004758710e+000
 1.4077666258e+000	 1.2054242250e+000	-1.5573300128e+000
 1.3943830105e+000	 1.2208810686e+000	-1.6079413164e+000
 1.3808247033e+000	 1.2361948942e+000	-1.6513210286e+000
 1.5299960587e+000	 1.0924863347e+000	-9.8515553566e-001
 1.5179131985e+000	 1.1092131770e+000	-1.0620401002e+000
 1.5056369908e+000	 1.1258204375e+000	-1.1378466767e+000
 1.4931691956e+000	 1.1423047949e+000	-1.2120870934e+000
 1.4805116485e+000	 1.1586629619e+000	-1.2841969299e+000
 1.4676662597e+000	 1.1748916877e+000	-1.3535352463e+000
 1.4546350130e+000	 1.1909877600e+000	-1.4193844845e+000
 1.4414199651e+000	 1.2069480074e+000	-1.4809505527e+000
 1.4280232443e+000	 1.2227693007e+000	-1.5373631035e+000
 1.4144470496e+000	 1.2384485557e+000	-1.5876760135e+000
 1.4006936495e+000	 1.2539827349e+000	-1.6308680753e+000
 1.5516991694e+000	 1.1079833366e+000	-9.7575729892e-001
 1.5394449129e+000	 1.1249474504e+000	-1.0502055070e+000
 1.5269945662e+000	 1.1417902862e+000	-1.1239463043e+000
 1.5143499144e+000	 1.1585084755e+000	-1.1964164182e+000
 1.5015128191e+000	 1.1750986843e+000	-1.2669771398e+000
 1.4884852174e+000	 1.1915576158e+000	-1.3349140653e+000
 1.4752691215e+000	 1.2078820122e+000	-1.3994370076e+000
 1.4618666171e+000	 1.2240686568e+000	-1.4596800919e+000
 1.4482798629e+000	 1.2401143764e+000	-1.5147020453e+000
 1.4345110888e+000	 1.2560160429e+000	-1.5634866908e+000
 1.4205625956e+000	 1.2717705755e+000	-1.6049436561e+000
 1.5734022801e+000	 1.1234803385e+000	-9.6717260842e-001
 1.5609766273e+000	 1.1406817238e+000	-1.0392611533e+000
 1.5483521417e+000	 1.1577601349e+000	-1.1110187331e+000
 1.5355306332e+000	 1.1747121560e+000	-1.1817680602e+000
 1.5225139896e+000	 1.1915344067e+000	-1.2507575838e+000
 1.5093041752e+000	 1.2082235439e+000	-1.3171613033e+000
 1.4959032300e+000	 1.2247762643e+000	-1.3800787518e+000
 1.4823132692e+000	 1.2411893063e+000	-1.4385351632e+000
 1.4685364814e+000	 1.2574594521e+000	-1.4914818337e+000
 1.4545751280e+000	 1.2735835300e+000	-1.5377966894e+000
 1.4404315418e+000	 1.2895584161e+000	-1.5762850719e+000
 1.5951053908e+000	 1.1389773404e+000	-9.6000583505e-001
 1.5825083417e+000	 1.1564159973e+000	-1.0299485994e+000
 1.5697097171e+000	 1.1737299836e+000	-1.0999544158e+000
 1.5567113521e+000	 1.1909158366e+000	-1.1691946954e+000
 1.5435151602e+000	 1.2079701291e+000	-1.2367681097e+000
 1.5301231329e+000	 1.2248894720e+000	-1.3017005360e+000
 1.5165373385e+000	 1.2416705164e+000	-1.3629451706e+000
 1.5027599212e+000	 1.2583099557e+000	-1.4193828250e+000
 1.4887930999e+000	 1.2748045278e+000	-1.4698224170e+000
 1.4746391672e+000	 1.2911510171e+000	-1.5130016694e+000
 1.4603004879e+000	 1.3073462568e+000	-1.5475880273e+000
 1.6168085014e+000	 1.1544743423e+000	-9.5490738969e-001
 1.6040400561e+000	 1.1721502707e+000	-1.0230503761e+000
 1.5910672926e+000	 1.1896998323e+000	-1.0916791053e+000
 1.5778920709e+000	 1.2071195171e+000	-1.1597779532e+000
 1.5645163307e+000	 1.2244058515e+000	-1.2262604233e+000
 1.5509420906e+000	 1.2415554001e+000	-1.2899692797e+000
 1.5371714470e+000	 1.2585647686e+000	-1.3496768458e+000
 1.5232065733e+000	 1.2754306052e+000	-1.4040854849e+000
 1.5090497185e+000	 1.2921496035e+000	-1.4518282751e+000
 1.4947032064e+000	 1.3087185043e+000	-1.4914698932e+000
 1.4801694341e+000	 1.3251340974e+000	-1.5215077192e+000
 1.6385116121e+000	 1.1699713442e+000	-9.5257025828e-001
 1.6255717704e+000	 1.1878845441e+000	-1.0193866356e+000
 1.6124248680e+000	 1.2056696810e+000	-1.0871506647e+000
 1.5990727897e+000	 1.2233231977e+000	-1.1546254375e+000
 1.5855175013e+000	 1.2408415739e+000	-1.2205053771e+000
 1.5717610484e+000	 1.2582213282e+000	-1.2834166106e+000
 1.5578055555e+000	 1.2754590207e+000	-1.3419175067e+000
 1.5436532253e+000	 1.2925512546e+000	-1.3944993926e+000
 1.5293063370e+000	 1.3094946792e+000	-1.4395874655e+000
 1.5147672456e+000	 1.3262859914e+000	-1.4755419128e+000
 1.5000383802e+000	 1.3429219381e+000	-1.5015756911e+000
 1.6602147228e+000	 1.1854683461e+000	-9.5372633978e-001
 1.6471034848e+000	 1.2036188176e+000	-1.0198115826e+000
 1.6337824434e+000	 1.2216395297e+000	-1.0873556338e+000
 1.6202535085e+000	 1.2395268783e+000	-1.1548674761e+000
 1.6065186718e+000	 1.2572772963e+000	-1.2207899551e+000
 1.5925800061e+000	 1.2748872564e+000	-1.2835004432e+000
 1.5784396640e+000	 1.2923532728e+000	-1.3413116653e+000
 1.5640998774e+000	 1.3096719041e+000	-1.3924727019e+000
 1.5495629556e+000	 1.3268397549e+000	-1.4351701869e+000
 1.5348312848e+000	 1.3438534785e+000	-1.4685642028e+000
 1.5199073264e+000	 1.3607097787e+000	-1.4943592313e+000
 1.6819178335e+000	 1.2009653480e+000	-9.5914260478e-001
 1.6686351992e+000	 1.2193530910e+000	-1.0252097074e+000
 1.6551400189e+000	 1.2376093784e+000	-1.0933055752e+000
 1.6414342274e+000	 1.2557305588e+000	-1.1616536230e+000
 1.6275198424e+000	 1.2737130187e+000	-1.2284139813e+000
 1.6133989638e+000	 1.2915531845e+000	-1.2916844989e+000
 1.5990737725e+000	 1.3092475249e+000	-1.3495019040e+000
 1.5845465294e+000	 1.3267925536e+000	-1.3998431416e+000
 1.5698195741e+000	 1.3441848306e+000	-1.4416527795e+000
 1.5548953239e+000	 1.3614209657e+000	-1.4763038188e+000
 1.5397762725e+000	 1.3784976194e+000	-1.5012979208e+000
 1.3410868110e+000	 1.2006192129e+000	-1.6646435814e+000
 1.3277532754e+000	 1.2153483688e+000	-1.6992025247e+000
 1.3142546640e+000	 1.2299329922e+000	-1.7393335553e+000
 1.3005933408e+000	 1.2443703222e+000	-1.7834765963e+000
 1.2867717309e+000	 1.2586576498e+000	-1.8288103763e+000
 1.2727923194e+000	 1.2727923194e+000	-1.8724614144e+000
 1.2586576498e+000	 1.2867717309e+000	-1.9115115542e+000
 1.2443703222e+000	 1.3005933408e+000	-1.9430058589e+000
 1.2299329922e+000	 1.3142546640e+000	-1.9639608431e+000
 1.2153483688e+000	 1.3277532754e+000	-1.9713730115e+000
 1.2006192129e+000	 1.3410868110e+000	-1.9630270793e+000
 1.3609557572e+000	 1.2184070535e+000	-1.6635217930e+000
 1.3474246778e+000	 1.2333544301e+000	-1.7029265365e+000
 1.3337260770e+000	 1.2481551328e+000	-1.7439120819e+000
 1.3198623537e+000	 1.2628063599e+000	-1.7866353098e+000
 1.3058359689e+000	 1.2773053621e+000	-1.8318110735e+000
 1.2916494447e+000	 1.2916494447e+000	-1.8761857456e+000
 1.2773053621e+000	 1.3058359689e+000	-1.9164577917e+000
 1.2628063599e+000	 1.3198623537e+000	-1.9492901985e+000
 1.2481551328e+000	 1.3337260770e+000	-1.9713220697e+000
 1.2333544301e+000	 1.3474246778e+000	-1.9817341092e+000
 1.2184070535e+000	 1.3609557572e+000	-1.9791183708e+000
 1.3808247033e+000	 1.2361948942e+000	-1.6513210286e+000
 1.3670960803e+000	 1.2513604914e+000	-1.6936147892e+000
 1.3531974900e+000	 1.2663772734e+000	-1.7392598185e+000
 1.3391313666e+000	 1.2812423975e+000	-1.7846142678e+000
 1.3249002070e+000	 1.2959530744e+000	-1.8273766375e+000
 1.3105065700e+000	 1.3105065700e+000	-1.8697406787e+000
 1.2959530744e+000	 1.3249002070e+000	-1.9087915694e+000
 1.2812423975e+000	 1.3391313666e+000	-1.9413526292e+000
 1.2663772734e+000	 1.3531974900e+000	-1.9674353920e+000
 1.2513604914e+000	 1.3670960803e+000	-1.9838644466e+000
 1.2361948942e+000	 1.3808247033e+000	-1.9865850444e+000
 1.4006936495e+000	 1.2539827349e+000	-1.6308680753e+000
 1.3867674827e+000	 1.2693665527e+000	-1.6738226595e+000
 1.3726689030e+000	 1.2845994140e+000	-1.7216418093e+000
 1.3584003795e+000	 1.2996784352e+000	-1.7705415376e+000
 1.3439644451e+000	 1.3146007868e+000	-1.8167201060e+000
 1.3293636953e+000	 1.3293636953e+000	-1.8566550642e+000
 1.3146007868e+000	 1.3439644451e+000	-1.8935495797e+000
 1.2996784352e+000	 1.3584003795e+000	-1.9291756401e+000
 1.2845994140e+000	 1.3726689030e+000	-1.9594725062e+000
 1.2693665527e+000	 1.3867674827e+000	-1.9802127067e+000
 1.2539827349e+000	 1.4006936495e+000	-1.9872056253e+000
 1.4205625956e+000	 1.2717705755e+000	-1.6049436561e+000
 1.4064388851e+000	 1.2873726140e+000	-1.6466544382e+000
 1.3921403160e+000	 1.3028215546e+000	-1.6944442939e+000
 1.3776693924e+000	 1.3181144728e+000	-1.7444976878e+000
 1.3630286831e+000	 1.3332484991e+000	-1.7929793479e+000
 1.3482208207e+000	 1.3482208207e+000	-1.8386735045e+000
 1.3332484991e+000	 1.3630286831e+000	-1.8800619599e+000
 1.3181144728e+000	 1.3776693924e+000	-1.9169504105e+000
 1.3028215546e+000	 1.3921403160e+000	-1.9491169728e+000
 1.2873726140e+000	 1.4064388851e+000	-1.9722963718e+000
 1.2717705755e+000	 1.4205625956e+000	-1.9822581715e+000
 1.4404315418e+000	 1.2895584161e+000	-1.5762850719e+000
 1.4261102875e+000	 1.3053786752e+000	-1.6151565903e+000
 1.4116117290e+000	 1.3210436951e+000	-1.6609836947e+000
 1.3969384052e+000	 1.3365505104e+000	-1.7101477188e+000
 1.3820929212e+000	 1.3518962114e+000	-1.7624295104e+000
 1.3670779460e+000	 1.3670779460e+000	-1.8152955879e+000
 1.3518962114e+000	 1.3820929212e+000	-1.8644770045e+000
 1.3365505104e+000	 1.3969384052e+000	-1.9057590055e+000
 1.3210436951e+000	 1.4116117290e+000	-1.9375443293e+000
 1.3053786752e+000	 1.4261102875e+000	-1.9611372078e+000
 1.2895584161e+000	 1.4404315418e+000	-1.9725417087e+000
 1.4603004879e+000	 1.3073462568e+000	-1.5475880273e+000
 1.4457816899e+000	 1.3233847365e+000	-1.5823204518e+000
 1.4310831420e+000	 1.3392658357e+000	-1.6249033011e+000
 1.4162074181e+000	 1.3549865481e+000	-1.6756568206e+000
 1.4011571593e+000	 1.3705439238e+000	-1.7315439201e+000
 1.3859350713e+000	 1.3859350713e+000	-1.7884506100e+000
 1.3705439238e+000	 1.4011571593e+000	-1.8423079456e+000
 1.3549865481e+000	 1.4162074181e+000	-1.8890985581e+000
 1.3392658357e+000	 1.4310831420e+000	-1.9248630811e+000
 1.3233847365e+000	 1.4457816899e+000	-1.9472829391e+000
 1.3073462568e+000	 1.4603004879e+000	-1.9583968036e+000
 1.4801694341e+000	 1.3251340974e+000	-1.5215077192e+000
 1.4654530924e+000	 1.3413907978e+000	-1.5517705912e+000
 1.4505545550e+000	 1.3574879763e+000	-1.5941745903e+000
 1.4354764310e+000	 1.3734225857e+000	-1.6455623616e+000
 1.4202213973e+000	 1.3891916361e+000	-1.7020855983e+000
 1.4047921966e+000	 1.4047921966e+000	-1.7599309303e+000
 1.3891916361e+000	 1.4202213973e+000	-1.8153260497e+000
 1.3734225857e+000	 1.4354764310e+000	-1.8645457511e+000
 1.3574879763e+000	 1.4505545550e+000	-1.9039178739e+000
 1.3413907978e+000	 1.4654530924e+000	-1.9298291332e+000
 1.3251340974e+000	 1.4801694341e+000	-1.9397253572e+000
 1.5000383802e+000	 1.3429219381e+000	-1.5015756911e+000
 1.4851244948e+000	 1.3593968591e+000	-1.5308688849e+000
 1.4700259680e+000	 1.3757101169e+000	-1.5719488244e+000
 1.4547454439e+000	 1.3918586234e+000	-1.6213428570e+000
 1.4392856354e+000	 1.4078393485e+000	-1.6756028130e+000
 1.4236493219e+000	 1.4236493219e+000	-1.7313105233e+000
 1.4078393485e+000	 1.4392856354e+000	-1.7850832701e+000
 1.3918586234e+000	 1.4547454439e+000	-1.8335791594e+000
 1.3757101169e+000	 1.4700259680e+000	-1.8735024035e+000
 1.3593968591e+000	 1.4851244948e+000	-1.9016085017e+000
 1.3429219381e+000	 1.5000383802e+000	-1.9147093083e+000
 1.5199073264e+000	 1.3607097787e+000	-1.4943592313e+000
 1.5047958972e+000	 1.3774029203e+000	-1.5217745019e+000
 1.4894973809e+000	 1.3939322574e+000	-1.5594066724e+000
 1.4740144568e+000	 1.4102946610e+000	-1.6042811674e+000
 1.4583498735e+000	 1.4264870608e+000	-1.6534424116e+000
 1.4425064473e+000	 1.4425064473e+000	-1.7039584875e+000
 1.4264870608e+000	 1.4583498735e+000	-1.7529257351e+000
 1.4102946610e+000	 1.4740144568e+000	-1.7974732822e+000
 1.3939322574e+000	 1.4894973809e+000	-1.8347674960e+000
 1.3774029203e+000	 1.5047958972e+000	-1.8620163448e+000
 1.3607097787e+000	 1.5199073264e+000	-1.8764736626e+000
 1.5397762725e+000	 1.3784976194e+000	-1.5012979208e+000
 1.5244672996e+000	 1.3954089816e+000	-1.5253644114e+000
 1.5089687939e+000	 1.4121543980e+000	-1.5575527566e+000
 1.4932834697e+000	 1.4287306986e+000	-1.5954767208e+000
 1.4774141115e+000	 1.4451347731e+000	-1.6367623937e+000
 1.4613635726e+000	 1.4613635726e+000	-1.6790518135e+000
 1.4451347731e+000	 1.4774141115e+000	-1.7200065421e+000
 1.4287306986e+000	 1.4932834697e+000	-1.7573111823e+000
 1.4121543980e+000	 1.5089687939e+000	-1.7886768306e+000
 1.3954089816e+000	 1.5244672996e+000	-1.8118444555e+000
 1.3784976194e+000	 1.5397762725e+000	-1.8245881971e+000
 1.2006192129e+000	 1.3410868110e+000	-1.9630270793e+000
 1.1857460943e+000	 1.3542549321e+000	-1.9516892476e+000
 1.1707340736e+000	 1.3672533887e+000	-1.9477267838e+000
 1.1555860590e+000	 1.3800800090e+000	-1.9490647467e+000
 1.1403050036e+000	 1.3927326875e+000	-1.9536667515e+000
 1.1248939033e+000	 1.4052093865e+000	-1.9595404893e+000
 1.1093557947e+000	 1.4175081369e+000	-1.9647432102e+000
 1.0936937532e+000	 1.4296270391e+000	-1.9673871504e+000
 1.0779108915e+000	 1.4415642644e+000	-1.9656448851e+000
 1.0620103567e+000	 1.4533180553e+000	-1.9577545901e+000
 1.0459953290e+000	 1.4648867267e+000	-1.9420251939e+000
 1.2184070535e+000	 1.3609557572e+000	-1.9791183708e+000
 1.2033135815e+000	 1.3743189713e+000	-1.9721639134e+000
 1.1880791493e+000	 1.3875100072e+000	-1.9708464332e+000
 1.1727067085e+000	 1.4005266610e+000	-1.9733207792e+000
 1.1571992558e+000	 1.4133667960e+000	-1.9777710467e+000
 1.1415598314e+000	 1.4260283442e+000	-1.9824158897e+000
 1.1257915171e+000	 1.4385093074e+000	-1.9855138168e+000
 1.1098974338e+000	 1.4508077579e+000	-1.9853684532e+000
 1.0938807402e+000	 1.4629218399e+000	-1.9803337500e+000
 1.0777446301e+000	 1.4748497697e+000	-1.9688191227e+000
 1.0614923309e+000	 1.4865898373e+000	-1.9492945006e+000
 1.2361948942e+000	 1.3808247033e+000	-1.9865850444e+000
 1.2208810686e+000	 1.3943830105e+000	-1.9837827147e+000
 1.2054242250e+000	 1.4077666258e+000	-1.9852041702e+000
 1.1898273579e+000	 1.4209733130e+000	-1.9891783118e+000
 1.1740935079e+000	 1.4340009045e+000	-1.9940542700e+000
 1.1582257595e+000	 1.4468473020e+000	-1.9982066006e+000
 1.1422272395e+000	 1.4595104780e+000	-2.0000404855e+000
 1.1261011144e+000	 1.4719884768e+000	-1.9979969178e+000
 1.1098505889e+000	 1.4842794153e+000	-1.9905578542e+000
 1.0934789035e+000	 1.4963814841e+000	-1.9762513157e+000
 1.0769893328e+000	 1.5082929480e+000	-1.9536564183e+000
 1.2539827349e+000	 1.4006936495e+000	-1.9872056253e+000
 1.2384485557e+000	 1.4144470496e+000	-1.9880350914e+000
 1.2227693007e+000	 1.4280232443e+000	-1.9920193918e+000
 1.2069480074e+000	 1.4414199651e+000	-1.9976076964e+000
 1.1909877600e+000	 1.4546350130e+000	-2.0032606562e+000
 1.1748916877e+000	 1.4676662597e+000	-2.0074555734e+000
 1.1586629619e+000	 1.4805116485e+000	-2.0086915938e+000
 1.1423047949e+000	 1.4931691956e+000	-2.0054949033e+000
 1.1258204375e+000	 1.5056369908e+000	-1.9964239087e+000
 1.1092131770e+000	 1.5179131985e+000	-1.9800743835e+000
 1.0924863347e+000	 1.5299960587e+000	-1.9550845621e+000
 1.2717705755e+000	 1.4205625956e+000	-1.9822581715e+000
 1.2560160429e+000	 1.4345110888e+000	-1.9859300131e+000
 1.2401143764e+000	 1.4482798629e+000	-1.9920502862e+000
 1.2240686568e+000	 1.4618666171e+000	-1.9991364867e+000
 1.2078820122e+000	 1.4752691215e+000	-2.0057090885e+000
 1.1915576158e+000	 1.4884852174e+000	-2.0102967761e+000
 1.1750986843e+000	 1.5015128191e+000	-2.0114417166e+000
 1.1585084755e+000	 1.5143499144e+000	-2.0077048522e+000
 1.1417902862e+000	 1.5269945662e+000	-1.9976711927e+000
 1.1249474504e+000	 1.5394449129e+000	-1.9799550891e+000
 1.1079833366e+000	 1.5516991694e+000	-1.9532054697e+000
 1.2895584161e+000	 1.4404315418e+000	-1.9725417087e+000
 1.2735835300e+000	 1.4545751280e+000	-1.9780160610e+000
 1.2574594521e+000	 1.4685364814e+000	-1.9856126040e+000
 1.2411893063e+000	 1.4823132692e+000	-1.9938669475e+000
 1.2247762643e+000	 1.4959032300e+000	-2.0013094015e+000
 1.2082235439e+000	 1.5093041752e+000	-2.0064703575e+000
 1.1915344067e+000	 1.5225139896e+000	-2.0078857251e+000
 1.1747121560e+000	 1.5355306332e+000	-2.0041024043e+000
 1.1577601349e+000	 1.5483521417e+000	-1.9936837719e+000
 1.1406817238e+000	 1.5609766273e+000	-1.9752151626e+000
 1.1234803385e+000	 1.5734022801e+000	-1.9473093256e+000
 1.3073462568e+000	 1.4603004879e+000	-1.9583968036e+000
 1.2911510171e+000	 1.4746391672e+000	-1.9644007566e+000
 1.2748045278e+000	 1.4887930999e+000	-1.9725977776e+000
 1.2583099557e+000	 1.5027599212e+000	-1.9814930102e+000
 1.2416705164e+000	 1.5165373385e+000	-1.9895782258e+000
 1.2248894720e+000	 1.5301231329e+000	-1.9953374386e+000
 1.2079701291e+000	 1.5435151602e+000	-1.9972525912e+000
 1.1909158366e+000	 1.5567113521e+000	-1.9938092883e+000
 1.1737299836e+000	 1.5697097171e+000	-1.9835025574e+000
 1.1564159973e+000	 1.5825083417e+000	-1.9648426167e+000
 1.1389773404e+000	 1.5951053908e+000	-1.9363606272e+000
 1.3251340974e+000	 1.4801694341e+000	-1.9397253572e+000
 1.3087185043e+000	 1.4947032064e+000	-1.9447692066e+000
 1.2921496035e+000	 1.5090497185e+000	-1.9524904521e+000
 1.2754306052e+000	 1.5232065733e+000	-1.9613167286e+000
 1.2585647686e+000	 1.5371714470e+000	-1.9696544145e+000
 1.2415554001e+000	 1.5509420906e+000	-1.9758945642e+000
 1.2244058515e+000	 1.5645163307e+000	-1.9784189245e+000
 1.2071195171e+000	 1.5778920709e+000	-1.9756060107e+000
 1.1896998323e+000	 1.5910672926e+000	-1.9658372210e+000
 1.1721502707e+000	 1.6040400561e+000	-1.9475029667e+000
 1.1544743423e+000	 1.6168085014e+000	-1.9190087966e+000
 1.3429219381e+000	 1.5000383802e+000	-1.9147093083e+000
 1.3262859914e+000	 1.5147672456e+000	-1.9184021297e+000
 1.3094946792e+000	 1.5293063370e+000	-1.9243854816e+000
 1.2925512546e+000	 1.5436532253e+000	-1.9322642807e+000
 1.2754590207e+000	 1.5578055555e+000	-1.9403140930e+000
 1.2582213282e+000	 1.5717610484e+000	-1.9467878482e+000
 1.2408415739e+000	 1.5855175013e+000	-1.9499222678e+000
 1.2233231977e+000	 1.5990727897e+000	-1.9479443628e+000
 1.2056696810e+000	 1.6124248680e+000	-1.9390779790e+000
 1.1878845441e+000	 1.6255717704e+000	-1.9215503658e+000
 1.1699713442e+000	 1.6385116121e+000	-1.8935987455e+000
 1.3607097787e+000	 1.5199073264e+000	-1.8764736626e+000
 1.3438534785e+000	 1.5348312848e+000	-1.8827790576e+000
 1.3268397549e+000	 1.5495629556e+000	-1.8870044390e+000
 1.3096719041e+000	 1.5640998774e+000	-1.8929015576e+000
 1.2923532728e+000	 1.5784396640e+000	-1.8999853646e+000
 1.2748872564e+000	 1.5925800061e+000	-1.9063268399e+000
 1.2572772963e+000	 1.6065186718e+000	-1.9099741731e+000
 1.2395268783e+000	 1.6202535085e+000	-1.9089597607e+000
 1.2216395297e+000	 1.6337824434e+000	-1.9013072583e+000
 1.2036188176e+000	 1.6471034848e+000	-1.8850386621e+000
 1.1854683461e+000	 1.6602147228e+000	-1.8581813952e+000
 1.3784976194e+000	 1.5397762725e+000	-1.8245881971e+000
 1.3614209657e+000	 1.5548953239e+000	-1.8314290292e+000
 1.3441848306e+000	 1.5698195741e+000	-1.8373823896e+000
 1.3267925536e+000	 1.5845465294e+000	-1.8414493773e+000
 1.3092475249e+000	 1.5990737725e+000	-1.8467627036e+000
 1.2915531845e+000	 1.6133989638e+000	-1.8524981358e+000
 1.2737130187e+000	 1.6275198424e+000	-1.8564730768e+000
 1.2557305588e+000	 1.6414342274e+000	-1.8564834343e+000
 1.2376093784e+000	 1.6551400189e+000	-1.8503112537e+000
 1.2193530910e+000	 1.6686351992e+000	-1.8357323851e+000
 1.2009653480e+000	 1.6819178335e+000	-1.8105241583e+000
 1.0459953290e+000	 1.4648867267e+000	-1.9420251939e+000
 1.0298690189e+000	 1.4762686658e+000	-1.9235808674e+000
 1.0136346645e+000	 1.4874623321e+000	-1.9077572943e+000
 9.9729552980e-001	 1.4984662587e+000	-1.8933007637e+000
 9.8085490370e-001	 1.5092790533e+000	-1.8790224909e+000
 9.6431609743e-001	 1.5198993990e+000	-1.8638346552e+000
 9.4768244256e-001	 1.5303260540e+000	-1.8467343630e+000
 9.3095728892e-001	 1.5405578528e+000	-1.8268124717e+000
 9.1414400241e-001	 1.5505937056e+000	-1.8032573439e+000
 8.9724596293e-001	 1.5604325990e+000	-1.7753583705e+000
 8.8026656221e-001	 1.5700735960e+000	-1.7425092527e+000
 1.0614923309e+000	 1.4865898373e+000	-1.9492945006e+000
 1.0451271006e+000	 1.4981404063e+000	-1.9270375289e+000
 1.0286522252e+000	 1.5094999130e+000	-1.9074599224e+000
 1.0120710171e+000	 1.5206668688e+000	-1.8893363818e+000
 9.9538681402e-001	 1.5316398610e+000	-1.8715255664e+000
 9.7860297614e-001	 1.5424175529e+000	-1.8529497932e+000
 9.6172288443e-001	 1.5529986847e+000	-1.8326348356e+000
 9.4474993835e-001	 1.5633820732e+000	-1.8096913893e+000
 9.2768755366e-001	 1.5735666128e+000	-1.7833243879e+000
 9.1053916034e-001	 1.5835512749e+000	-1.7528366670e+000
 8.9330820037e-001	 1.5933351085e+000	-1.7176323911e+000
 1.0769893328e+000	 1.5082929480e+000	-1.9536564183e+000
 1.0603851823e+000	 1.5200121467e+000	-1.9282446309e+000
 1.0436697858e+000	 1.5315374938e+000	-1.9055630636e+000
 1.0268465044e+000	 1.5428674789e+000	-1.8843982556e+000
 1.0099187243e+000	 1.5540006687e+000	-1.8636168782e+000
 9.9288985485e-001	 1.5649357069e+000	-1.8421472751e+000
 9.7576332631e-001	 1.5756713154e+000	-1.8190169022e+000
 9.5854258778e-001	 1.5862062937e+000	-1.7933356123e+000
 9.4123110491e-001	 1.5965395200e+000	-1.7643047253e+000
 9.2383235774e-001	 1.6066699508e+000	-1.7312208609e+000
 9.0634983852e-001	 1.6165966211e+000	-1.6934795364e+000
 1.0924863347e+000	 1.5299960587e+000	-1.9550845621e+000
 1.0756432639e+000	 1.5418838871e+000	-1.9271519099e+000
 1.0586873465e+000	 1.5535750746e+000	-1.9020093173e+000
 1.0416219918e+000	 1.5650680890e+000	-1.8784332955e+000
 1.0244506346e+000	 1.5763614763e+000	-1.8552713545e+000
 1.0071767336e+000	 1.5874538609e+000	-1.8314536776e+000
 9.8980376818e-001	 1.5983439460e+000	-1.8059718025e+000
 9.7233523721e-001	 1.6090305142e+000	-1.7779201059e+000
 9.5477465616e-001	 1.6195124272e+000	-1.7464765141e+000
 9.3712555515e-001	 1.6297886266e+000	-1.7109121538e+000
 9.1939147667e-001	 1.6398581337e+000	-1.6705951471e+000
 1.1079833366e+000	 1.5516991694e+000	-1.9532054697e+000
 1.0909013456e+000	 1.5637556276e+000	-1.9233702477e+000
 1.0737049072e+000	 1.5756126554e+000	-1.8964099997e+000
 1.0563974791e+000	 1.5872686991e+000	-1.8710698122e+000
 1.0389825450e+000	 1.5987222840e+000	-1.8461630659e+000
 1.0214636123e+000	 1.6099720149e+000	-1.8205764723e+000
 1.0038442101e+000	 1.6210165767e+000	-1.7932826646e+000
 9.8612788664e-001	 1.6318547346e+000	-1.7633156010e+000
 9.6831820741e-001	 1.6424853344e+000	-1.7298167386e+000
 9.5041875256e-001	 1.6529073025e+000	-1.6920127941e+000
 9.3243311482e-001	 1.6631196463e+000	-1.6492260858e+000
 1.1234803385e+000	 1.5734022801e+000	-1.9473093256e+000
 1.1061594272e+000	 1.5856273680e+000	-1.9161817747e+000
 1.0887224679e+000	 1.5976502362e+000	-1.8880546645e+000
 1.0711729664e+000	 1.6094693093e+000	-1.8616207046e+000
 1.0535144553e+000	 1.6210830917e+000	-1.8356385171e+000
 1.0357504910e+000	 1.6324901689e+000	-1.8089379175e+000
 1.0178846519e+000	 1.6436892074e+000	-1.7804250218e+000
 9.9992053607e-001	 1.6546789551e+000	-1.7490959061e+000
 9.8186175866e-001	 1.6654582416e+000	-1.7140082380e+000
 9.6371194997e-001	 1.6760259784e+000	-1.6743328814e+000
 9.4547475298e-001	 1.6863811589e+000	-1.6293282615e+000
 1.1389773404e+000	 1.5951053908e+000	-1.9363606272e+000
 1.1214175089e+000	 1.6074991084e+000	-1.9045499529e+000
 1.1037400286e+000	 1.6196878171e+000	-1.8759206404e+000
 1.0859484537e+000	 1.6316699194e+000	-1.8490924874e+000
 1.0680463656e+000	 1.6434438993e+000	-1.8227491331e+000
 1.0500373697e+000	 1.6550083229e+000	-1.7956436111e+000
 1.0319250938e+000	 1.6663618381e+000	-1.7666037304e+000
 1.0137131855e+000	 1.6775031755e+000	-1.7345372667e+000
 9.9540530991e-001	 1.6884311488e+000	-1.6984468626e+000
 9.7700514737e-001	 1.6991446542e+000	-1.6573972989e+000
 9.5851639113e-001	 1.7096426715e+000	-1.6105733950e+000
 1.1544743423e+000	 1.6168085014e+000	-1.9190087966e+000
 1.1366755906e+000	 1.6293708489e+000	-1.8871296412e+000
 1.1187575892e+000	 1.6417253979e+000	-1.8586825803e+000
 1.1007239411e+000	 1.6538705295e+000	-1.8321943612e+000
 1.0825782759e+000	 1.6658047070e+000	-1.8062537974e+000
 1.0643242484e+000	 1.6775264769e+000	-1.7795176240e+000
 1.0459655357e+000	 1.6890344687e+000	-1.7507161791e+000
 1.0275058349e+000	 1.7003273960e+000	-1.7186588945e+000
 1.0089488612e+000	 1.7114040560e+000	-1.6822487447e+000
 9.9029834478e-001	 1.7222633301e+000	-1.6404527632e+000
 9.7155802928e-001	 1.7329041841e+000	-1.5923558974e+000
 1.1699713442e+000	 1.6385116121e+000	-1.8935987455e+000
 1.1519336722e+000	 1.6512425893e+000	-1.8622771439e+000
 1.1337751499e+000	 1.6637629787e+000	-1.8347220240e+000
 1.1154994284e+000	 1.6760711396e+000	-1.8093473185e+000
 1.0971101862e+000	 1.6881655147e+000	-1.7846275369e+000
 1.0786111271e+000	 1.7000446309e+000	-1.7591039491e+000
 1.0600059775e+000	 1.7117070994e+000	-1.7313905950e+000
 1.0412984844e+000	 1.7231516164e+000	-1.7001801007e+000
 1.0224924124e+000	 1.7343769632e+000	-1.6642492860e+000
 1.0035915422e+000	 1.7453820060e+000	-1.6224749785e+000
 9.8459966744e-001	 1.7561656967e+000	-1.5737998504e+000
 1.1854683461e+000	 1.6602147228e+000	-1.8581813952e+000
 1.1671917539e+000	 1.6731143297e+000	-1.8280602448e+000
 1.1487927106e+000	 1.6858005595e+000	-1.8021369704e+000
 1.1302749157e+000	 1.6982717497e+000	-1.7786932845e+000
 1.1116420965e+000	 1.7105263223e+000	-1.7560702595e+000
 1.0928980058e+000	 1.7225627848e+000	-1.7326748685e+000
 1.0740464194e+000	 1.7343797301e+000	-1.7069863483e+000
 1.0550911338e+000	 1.7459758369e+000	-1.6775623652e+000
 1.0360359637e+000	 1.7573498703e+000	-1.6430449699e+000
 1.0168847396e+000	 1.7685006818e+000	-1.6021663223e+000
 9.9764130559e-001	 1.7794272093e+000	-1.5537660789e+000
 1.2009653480e+000	 1.6819178335e+000	-1.8105241583e+000
 1.1824498355e+000	 1.6949860702e+000	-1.7822682276e+000
 1.1638102713e+000	 1.7078381404e+000	-1.7587514615e+000
 1.1450504030e+000	 1.7204723598e+000	-1.7381042876e+000
 1.1261740068e+000	 1.7328871300e+000	-1.7185155402e+000
 1.1071848845e+000	 1.7450809388e+000	-1.6982393845e+000
 1.0880868613e+000	 1.7570523608e+000	-1.6756020576e+000
 1.0688837832e+000	 1.7688000574e+000	-1.6490084096e+000
 1.0495795149e+000	 1.7803227775e+000	-1.6169482268e+000
 1.0301779370e+000	 1.7916193577e+000	-1.5780023207e+000
 1.0106829438e+000	 1.8026887218e+000	-1.5308483682e+000
 8.8026656221e-001	 1.5700735960e+000	-1.7425092527e+000
 8.6321176607e-001	 1.5795144344e+000	-1.7074376764e+000
 8.4608244213e-001	 1.5887557923e+000	-1.6726098864e+000
 8.2888200447e-001	 1.5977969630e+000	-1.6372173148e+000
 8.1161387061e-001	 1.6066373155e+000	-1.6005790399e+000
 7.9428145945e-001	 1.6152762950e+000	-1.5621446715e+000
 7.7688818926e-001	 1.6237134218e+000	-1.5214969085e+000
 7.5943747564e-001	 1.6319482913e+000	-1.4783537622e+000
 7.4193272950e-001	 1.6399805736e+000	-1.4325704400e+000
 7.2437735518e-001	 1.6478100126e+000	-1.3841408874e+000
 7.0677474842e-001	 1.6554364262e+000	-1.3331989830e+000
 8.9330820037e-001	 1.5933351085e+000	-1.7176323911e+000
 8.7600072794e-001	 1.6029158183e+000	-1.6806337487e+000
 8.5861762355e-001	 1.6122940921e+000	-1.6444238690e+000
 8.4116235185e-001	 1.6214692126e+000	-1.6080896973e+000
 8.2363838099e-001	 1.6304405399e+000	-1.5708495623e+000
 8.0604918054e-001	 1.6392075107e+000	-1.5320563589e+000
 7.8839821939e-001	 1.6477696382e+000	-1.4912003914e+000
 7.7068896374e-001	 1.6561265119e+000	-1.4479118706e+000
 7.5292487508e-001	 1.6642777969e+000	-1.4019630603e+000
 7.3510940813e-001	 1.6722232334e+000	-1.3532700677e+000
 7.1724600897e-001	 1.6799626365e+000	-1.3018942749e+000
 9.0634983852e-001	 1.6165966211e+000	-1.6934795364e+000
 8.8878968982e-001	 1.6263172021e+000	-1.6542573214e+000
 8.7115280498e-001	 1.6358323918e+000	-1.6163284064e+000
 8.5344269924e-001	 1.6451414623e+000	-1.5786781245e+000
 8.3566289138e-001	 1.6542437644e+000	-1.5404269036e+000
 8.1781690162e-001	 1.6631387264e+000	-1.5008337430e+000
 7.9990824952e-001	 1.6718258546e+000	-1.4592993388e+000
 7.8194045185e-001	 1.6803047325e+000	-1.4153688522e+000
 7.6391702065e-001	 1.6885750202e+000	-1.3687343144e+000
 7.4584146108e-001	 1.6966364542e+000	-1.3192366638e+000
 7.2771726952e-001	 1.7044888469e+000	-1.2668674116e+000
 9.1939147667e-001	 1.6398581337e+000	-1.6705951471e+000
 9.0157865169e-001	 1.6497185860e+000	-1.6290079555e+000
 8.8368798640e-001	 1.6593706915e+000	-1.5891810858e+000
 8.6572304662e-001	 1.6688137120e+000	-1.5500005737e+000
 8.4768740177e-001	 1.6780469888e+000	-1.5104912336e+000
 8.2958462271e-001	 1.6870699421e+000	-1.4698204251e+000
 8.1141827964e-001	 1.6958820710e+000	-1.4273014571e+000
 7.9319193996e-001	 1.7044829530e+000	-1.3823966242e+000
 7.7490916622e-001	 1.7128722434e+000	-1.3347198676e+000
 7.5657351403e-001	 1.7210496750e+000	-1.2840390566e+000
 7.3818853007e-001	 1.7290150572e+000	-1.2302778861e+000
 9.3243311482e-001	 1.6631196463e+000	-1.6492260858e+000
 9.1436761356e-001	 1.6731199699e+000	-1.6052885758e+000
 8.9622316782e-001	 1.6829089912e+000	-1.5635439180e+000
 8.7800339400e-001	 1.6924859617e+000	-1.5227806347e+000
 8.5971191215e-001	 1.7018502132e+000	-1.4819296811e+000
 8.4135234380e-001	 1.7110011578e+000	-1.4400684970e+000
 8.2292830977e-001	 1.7199382875e+000	-1.3964246878e+000
 8.0444342807e-001	 1.7286611736e+000	-1.3503793248e+000
 7.8590131179e-001	 1.7371694667e+000	-1.3014698604e+000
 7.6730556697e-001	 1.7454628958e+000	-1.2493926508e+000
 7.4865979062e-001	 1.7535412676e+000	-1.1940050838e+000
 9.4547475298e-001	 1.6863811589e+000	-1.6293282615e+000
 9.2715657544e-001	 1.6965213537e+000	-1.5832119813e+000
 9.0875834925e-001	 1.7064472909e+000	-1.5396897129e+000
 8.9028374139e-001	 1.7161582113e+000	-1.4974537467e+000
 8.7173642254e-001	 1.7256534376e+000	-1.4553424266e+000
 8.5312006488e-001	 1.7349323735e+000	-1.4123444854e+000
 8.3443833989e-001	 1.7439945039e+000	-1.3676029972e+000
 8.1569491618e-001	 1.7528393942e+000	-1.3204189406e+000
 7.9689345736e-001	 1.7614666900e+000	-1.2702543644e+000
 7.7803761992e-001	 1.7698761166e+000	-1.2167351501e+000
 7.5913105116e-001	 1.7780674779e+000	-1.1596533677e+000
 9.5851639113e-001	 1.7096426715e+000	-1.6105733950e+000
 9.3994553731e-001	 1.7199227376e+000	-1.5626074710e+000
 9.2129353067e-001	 1.7299855906e+000	-1.5176085634e+000
 9.0256408877e-001	 1.7398304610e+000	-1.4741735356e+000
 8.8376093293e-001	 1.7494566620e+000	-1.4310488902e+000
 8.6488778597e-001	 1.7588635892e+000	-1.3871353831e+000
 8.4594837002e-001	 1.7680507203e+000	-1.3414922454e+000
 8.2694640429e-001	 1.7770176148e+000	-1.2933410061e+000
 8.0788560293e-001	 1.7857639133e+000	-1.2420689053e+000
 7.8876967287e-001	 1.7942893373e+000	-1.1872318952e+000
 7.6960231171e-001	 1.8025936882e+000	-1.1285572213e+000
 9.7155802928e-001	 1.7329041841e+000	-1.5923558974e+000
 9.5273449919e-001	 1.7433241214e+000	-1.5430275765e+000
 9.3382871209e-001	 1.7535238903e+000	-1.4970144285e+000
 9.1484443615e-001	 1.7635027107e+000	-1.4528182453e+000
 8.9578544332e-001	 1.7732598864e+000	-1.4090940046e+000
 8.7665550706e-001	 1.7827948048e+000	-1.3646547599e+000
 8.5745840015e-001	 1.7921069367e+000	-1.3184761289e+000
 8.3819789240e-001	 1.8011958353e+000	-1.2697003710e+000
 8.1887774850e-001	 1.8100611366e+000	-1.2176400478e+000
 7.9950172581e-001	 1.8187025581e+000	-1.1617812581e+000
 7.8007357226e-001	 1.8271198986e+000	-1.1017864450e+000
 9.8459966744e-001	 1.7561656967e+000	-1.5737998504e+000
 9.6552346106e-001	 1.7667255053e+000	-1.5237548903e+000
 9.4636389352e-001	 1.7770621900e+000	-1.4773518069e+000
 9.2712478354e-001	 1.7871749603e+000	-1.4329972511e+000
 9.0780995370e-001	 1.7970631108e+000	-1.3892545653e+000
 8.8842322815e-001	 1.8067260205e+000	-1.3448489445e+000
 8.6896843027e-001	 1.8161631531e+000	-1.2986721875e+000
 8.4944938051e-001	 1.8253740559e+000	-1.2497870276e+000
 8.2986989407e-001	 1.8343583599e+000	-1.1974310355e+000
 8.1023377876e-001	 1.8431157789e+000	-1.1410200883e+000
 7.9054483281e-001	 1.8516461089e+000	-1.0801513985e+000
 9.9764130559e-001	 1.7794272093e+000	-1.5537660789e+000
 9.7831242294e-001	 1.7901268891e+000	-1.5038089812e+000
 9.5889907494e-001	 1.8006004897e+000	-1.4578024909e+000
 9.3940513092e-001	 1.8108472100e+000	-1.4140576501e+000
 9.1983446409e-001	 1.8208663352e+000	-1.3710456521e+000
 9.0019094924e-001	 1.8306572362e+000	-1.3274032713e+000
 8.8047846040e-001	 1.8402193695e+000	-1.2819378730e+000
 8.6070086862e-001	 1.8495522765e+000	-1.2336319933e+000
 8.4086203964e-001	 1.8586555832e+000	-1.1816474826e+000
 8.2096583171e-001	 1.8675289997e+000	-1.1253292051e+000
 8.0101609336e-001	 1.8761723193e+000	-1.0642082887e+000
 1.0106829438e+000	 1.8026887218e+000	-1.5308483682e+000
 9.9110138481e-001	 1.8135282730e+000	-1.4819533890e+000
 9.7143425637e-001	 1.8241387894e+000	-1.4372923962e+000
 9.5168547831e-001	 1.8345194597e+000	-1.3950909202e+000
 9.3185897448e-001	 1.8446695596e+000	-1.3537271138e+000
 9.1195867032e-001	 1.8545884519e+000	-1.3117483871e+000
 8.9198849053e-001	 1.8642755859e+000	-1.2678766708e+000
 8.7195235673e-001	 1.8737304971e+000	-1.2210132432e+000
 8.5185418521e-001	 1.8829528065e+000	-1.1702431100e+000
 8.3169788466e-001	 1.8919422205e+000	-1.1148389323e+000
 8.1148735391e-001	 1.9006985296e+000	-1.0542644950e+000
 7.0677474842e-001	 1.6554364262e+000	-1.3331989830e+000
 6.8912564429e-001	 1.6628608034e+000	-1.2833680549e+000
 6.7143605513e-001	 1.6700819490e+000	-1.2381191756e+000
 6.5370934202e-001	 1.6770998984e+000	-1.1962487380e+000
 6.3594884997e-001	 1.6839147584e+000	-1.1542094646e+000
 6.1815790620e-001	 1.6905267052e+000	-1.1114639036e+000
 6.0033981835e-001	 1.6969359845e+000	-1.0678358245e+000
 5.8249787284e-001	 1.7031429098e+000	-1.0233472986e+000
 5.6463533321e-001	 1.7091478619e+000	-9.7821952312e-001
 5.4675543847e-001	 1.7149512879e+000	-9.3287234272e-001
 5.2886140161e-001	 1.7205536997e+000	-8.8792251557e-001
 7.1724600897e-001	 1.6799626365e+000	-1.3018942749e+000
 6.9933542355e-001	 1.6874970101e+000	-1.2517048659e+000
 6.8138375330e-001	 1.6948251409e+000	-1.2063213799e+000
 6.6339440909e-001	 1.7019470652e+000	-1.1655631584e+000
 6.4537078549e-001	 1.7088628910e+000	-1.1261502833e+000
 6.2731625900e-001	 1.7155727975e+000	-1.0859844252e+000
 6.0923418628e-001	 1.7220770338e+000	-1.0447088742e+000
 5.9112790244e-001	 1.7283759182e+000	-1.0021852322e+000
 5.7300071935e-001	 1.7344698370e+000	-9.5849438418e-001
 5.5485592404e-001	 1.7403592440e+000	-9.1393603112e-001
 5.3669677708e-001	 1.7460446586e+000	-8.6902684170e-001
 7.2771726952e-001	 1.7044888469e+000	-1.2668674116e+000
 7.0954520282e-001	 1.7121332167e+000	-1.2157641077e+000
 6.9133145148e-001	 1.7195683327e+000	-1.1697244977e+000
 6.7307947616e-001	 1.7267942319e+000	-1.1284545140e+000
 6.5479272100e-001	 1.7338110237e+000	-1.0907551154e+000
 6.3647461180e-001	 1.7406188898e+000	-1.0526017028e+000
 6.1812855421e-001	 1.7472180832e+000	-1.0131756160e+000
 5.9975793203e-001	 1.7536089266e+000	-9.7219293735e-001
 5.8136610550e-001	 1.7597918121e+000	-9.2961003567e-001
 5.6295640962e-001	 1.7657672001e+000	-8.8562307239e-001
 5.4453215256e-001	 1.7715356175e+000	-8.4066598957e-001
 7.3818853007e-001	 1.7290150572e+000	-1.2302778861e+000
 7.1975498208e-001	 1.7367694233e+000	-1.1778581219e+000
 7.0127914966e-001	 1.7443115246e+000	-1.1307784555e+000
 6.8276454324e-001	 1.7516413986e+000	-1.0885614236e+000
 6.6421465652e-001	 1.7587591563e+000	-1.0508719051e+000
 6.4563296460e-001	 1.7656649822e+000	-1.0142790000e+000
 6.2702292214e-001	 1.7723591325e+000	-9.7628276932e-001
 6.0838796163e-001	 1.7788419349e+000	-9.3646792469e-001
 5.8973149165e-001	 1.7851137872e+000	-8.9468145166e-001
 5.7105689519e-001	 1.7911751561e+000	-8.5103204721e-001
 5.5236752804e-001	 1.7970265765e+000	-8.0588789434e-001
 7.4865979062e-001	 1.7535412676e+000	-1.1940050838e+000
 7.2996476135e-001	 1.7614056299e+000	-1.1400226987e+000
 7.1122684783e-001	 1.7690547165e+000	-1.0916612559e+000
 6.9244961031e-001	 1.7764885653e+000	-1.0482707461e+000
 6.7363659204e-001	 1.7837072890e+000	-1.0093971555e+000
 6.5479131740e-001	 1.7907110745e+000	-9.7370027058e-001
 6.3591729007e-001	 1.7975001819e+000	-9.3682132147e-001
 6.1701799122e-001	 1.8040749433e+000	-8.9787570121e-001
 5.9809687779e-001	 1.8104357623e+000	-8.5661551467e-001
 5.7915738076e-001	 1.8165831122e+000	-8.1307757892e-001
 5.6020290351e-001	 1.8225175354e+000	-7.6758093120e-001
 7.5913105116e-001	 1.7780674779e+000	-1.1596533677e+000
 7.4017454062e-001	 1.7860418365e+000	-1.1040219382e+000
 7.2117454600e-001	 1.7937979084e+000	-1.0542835530e+000
 7.0213467738e-001	 1.8013357320e+000	-1.0096256028e+000
 6.8305852755e-001	 1.8086554216e+000	-9.6943874373e-001
 6.6394967020e-001	 1.8157571668e+000	-9.3326155683e-001
 6.4481165800e-001	 1.8226412312e+000	-8.9731824302e-001
 6.2564802082e-001	 1.8293079517e+000	-8.5904169686e-001
 6.0646226394e-001	 1.8357577374e+000	-8.1810304526e-001
 5.8725786634e-001	 1.8419910683e+000	-7.7448235394e-001
 5.6803827899e-001	 1.8480084943e+000	-7.2846581287e-001
 7.6960231171e-001	 1.8025936882e+000	-1.1285572213e+000
 7.5038431988e-001	 1.8106780431e+000	-1.0713531664e+000
 7.3112224418e-001	 1.8185411003e+000	-1.0202932885e+000
 7.1181974445e-001	 1.8261828987e+000	-9.7441146113e-001
 6.9248046307e-001	 1.8336035543e+000	-9.3295162986e-001
 6.7310802300e-001	 1.8408032591e+000	-8.9536964485e-001
 6.5370602593e-001	 1.8477822806e+000	-8.6002833026e-001
 6.3427805041e-001	 1.8545409601e+000	-8.2234335028e-001
 6.1482765009e-001	 1.8610797125e+000	-7.8161102808e-001
 5.9535835191e-001	 1.8673990244e+000	-7.3776938338e-001
 5.7587365447e-001	 1.8734994532e+000	-6.9108777944e-001
 7.8007357226e-001	 1.8271198986e+000	-1.1017864450e+000
 7.6059409915e-001	 1.8353142497e+000	-1.0432519037e+000
 7.4106994236e-001	 1.8432842922e+000	-9.9108037999e-001
 7.2150481152e-001	 1.8510300654e+000	-9.4416049264e-001
 7.0190239858e-001	 1.8585516869e+000	-9.0159728307e-001
 6.8226637580e-001	 1.8658493514e+000	-8.6271440816e-001
 6.6260039386e-001	 1.8729233299e+000	-8.2692616261e-001
 6.4290808001e-001	 1.8797739685e+000	-7.8990233814e-001
 6.2319303624e-001	 1.8864016876e+000	-7.4937501619e-001
 6.0345883748e-001	 1.8928069804e+000	-7.0525448310e-001
 5.8370902994e-001	 1.8989904121e+000	-6.5780905309e-001
 7.9054483281e-001	 1.8516461089e+000	-1.0801513985e+000
 7.7080387841e-001	 1.8599504564e+000	-1.0206968787e+000
 7.5101764053e-001	 1.8680274841e+000	-9.6778146042e-001
 7.3118987860e-001	 1.8758772322e+000	-9.2015598767e-001
 7.1132433410e-001	 1.8834998196e+000	-8.7679362977e-001
 6.9142472860e-001	 1.8908954437e+000	-8.3689243093e-001
 6.7149476179e-001	 1.8980643793e+000	-7.9987731529e-001
 6.5153810961e-001	 1.9050069769e+000	-7.6357693489e-001
 6.3155842238e-001	 1.9117236627e+000	-7.2339169692e-001
 6.1155932306e-001	 1.9182149365e+000	-6.7903895187e-001
 5.9154440542e-001	 1.9244813711e+000	-6.3080153317e-001
 8.0101609336e-001	 1.8761723193e+000	-1.0642082887e+000
 7.8101365768e-001	 1.8845866630e+000	-1.0044150847e+000
 7.6096533871e-001	 1.8927706760e+000	-9.5128466042e-001
 7.4087494567e-001	 1.9007243989e+000	-9.0343682039e-001
 7.2074626962e-001	 1.9084479522e+000	-8.5971915503e-001
 7.0058308140e-001	 1.9159415361e+000	-8.1920994398e-001
 6.8038912972e-001	 1.9232054286e+000	-7.8122050074e-001
 6.6016813920e-001	 1.9302399853e+000	-7.4495449099e-001
 6.3992380853e-001	 1.9370456378e+000	-7.0541160453e-001
 6.1965980863e-001	 1.9436228926e+000	-6.6100242973e-001
 5.9937978090e-001	 1.9499723300e+000	-6.1203970947e-001
 8.1148735391e-001	 1.9006985296e+000	-1.0542644950e+000
 7.9122343695e-001	 1.9092228696e+000	-9.9488687431e-001
 7.7091303689e-001	 1.9175138679e+000	-9.4223443215e-001
 7.5056001275e-001	 1.9255715656e+000	-8.9480196045e-001
 7.3016820514e-001	 1.9333960849e+000	-8.5131705979e-001
 7.0974143420e-001	 1.9409876284e+000	-8.1074339417e-001
 6.8928349765e-001	 1.9483464780e+000	-7.7228337389e-001
 6.6879816880e-001	 1.9554729937e+000	-7.3538026629e-001
 6.4828919468e-001	 1.9623676129e+000	-6.9693196649e-001
 6.2776029421e-001	 1.9690308487e+000	-6.5279591998e-001
 6.0721515638e-001	 1.9754632889e+000	-6.0329377419e-001
 5.2886140161e-001	 1.7205536997e+000	-8.8792251557e-001
 5.1095640776e-001	 1.7259556728e+000	-8.4084518324e-001
 4.9304361203e-001	 1.7311578440e+000	-7.8941539155e-001
 4.7512613887e-001	 1.7361609110e+000	-7.3500243879e-001
 4.5720708096e-001	 1.7409656323e+000	-6.7917852088e-001
 4.3928949790e-001	 1.7455728252e+000	-6.2371052293e-001
 4.2137641493e-001	 1.7499833653e+000	-5.7055096815e-001
 4.0347082167e-001	 1.7541981846e+000	-5.2182820931e-001
 3.8557567101e-001	 1.7582182705e+000	-4.7983595025e-001
 3.6769387793e-001	 1.7620446643e+000	-4.4702218583e-001
 3.4982831845e-001	 1.7656784599e+000	-4.2597764893e-001
 5.3669677708e-001	 1.7460446586e+000	-8.6902684170e-001
 5.1852651081e-001	 1.7515266650e+000	-8.2160970216e-001
 5.0034832706e-001	 1.7568059092e+000	-7.6983946372e-001
 4.8216539658e-001	 1.7618830995e+000	-7.1503302482e-001
 4.6398085787e-001	 1.7667590053e+000	-6.5872928943e-001
 4.4579781587e-001	 1.7714344564e+000	-6.0268028377e-001
 4.2761934061e-001	 1.7759103411e+000	-5.4884134371e-001
 4.0944846605e-001	 1.7801876053e+000	-4.9936046667e-001
 3.9128818879e-001	 1.7842672510e+000	-4.5656692392e-001
 3.7314146701e-001	 1.7881503349e+000	-4.2295923021e-001
 3.5501121934e-001	 1.7918379672e+000	-4.0119256820e-001
 5.4453215256e-001	 1.7715356175e+000	-8.4066598957e-001
 5.2609661385e-001	 1.7770976571e+000	-7.9297347985e-001
 5.0765304208e-001	 1.7824539744e+000	-7.4108537618e-001
 4.8920465428e-001	 1.7876052879e+000	-6.8625645540e-001
 4.7075463478e-001	 1.7925523784e+000	-6.2998352332e-001
 4.5230613383e-001	 1.7972960876e+000	-5.7399581807e-001
 4.3386226630e-001	 1.8018373169e+000	-5.2024439144e-001
 4.1542611042e-001	 1.8061770260e+000	-4.7089057113e-001
 3.9700070657e-001	 1.8103162315e+000	-4.2829360859e-001
 3.7858905609e-001	 1.8142560056e+000	-3.9499761895e-001
 3.6019412023e-001	 1.8179974745e+000	-3.7371791964e-001
 5.5236752804e-001	 1.7970265765e+000	-8.0588789434e-001
 5.3366671690e-001	 1.8026686493e+000	-7.5789972088e-001
 5.1495775711e-001	 1.8081020396e+000	-7.0599864094e-001
 4.9624391199e-001	 1.8133274763e+000	-6.5136880581e-001
 4.7752841169e-001	 1.8183457514e+000	-5.9545743849e-001
 4.5881445179e-001	 1.8231577187e+000	-5.3996447937e-001
 4.4010519199e-001	 1.8277642926e+000	-4.8683111062e-001
 4.2140375480e-001	 1.8321664466e+000	-4.3822727189e-001
 4.0271322434e-001	 1.8363652119e+000	-3.9653828174e-001
 3.8403664517e-001	 1.8403616762e+000	-3.6435068125e-001
 3.6537702112e-001	 1.8441569818e+000	-3.4443741629e-001
 5.6020290351e-001	 1.8225175354e+000	-7.6758093120e-001
 5.4123681994e-001	 1.8282396415e+000	-7.1921675149e-001
 5.2226247213e-001	 1.8337501048e+000	-6.6731483603e-001
 5.0328316970e-001	 1.8390496648e+000	-6.1298140749e-001
 4.8430218860e-001	 1.8441391245e+000	-5.5760793035e-001
 4.6532276975e-001	 1.8490193499e+000	-5.0285994818e-001
 4.4634811767e-001	 1.8536912684e+000	-4.5066469379e-001
 4.2738139917e-001	 1.8581558673e+000	-4.0319759460e-001
 4.0842574212e-001	 1.8624141924e+000	-3.6286779864e-001
 3.8948423424e-001	 1.8664673468e+000	-3.3230284781e-001
 3.7055992201e-001	 1.8703164891e+000	-3.1433262576e-001
 5.6803827899e-001	 1.8480084943e+000	-7.2846581287e-001
 5.4880692299e-001	 1.8538106336e+000	-6.7960967985e-001
 5.2956718716e-001	 1.8593981700e+000	-6.2765091690e-001
 5.1032242740e-001	 1.8647718532e+000	-5.7361170240e-001
 4.9107596551e-001	 1.8699324975e+000	-5.1882286578e-001
 4.7183108771e-001	 1.8748809811e+000	-4.6491185974e-001
 4.5259104336e-001	 1.8796182442e+000	-4.1378939176e-001
 4.3335904355e-001	 1.8841452879e+000	-3.6763484870e-001
 4.1413825989e-001	 1.8884631729e+000	-3.2888065072e-001
 3.9493182332e-001	 1.8925730174e+000	-3.0019567270e-001
 3.7574282290e-001	 1.8964759965e+000	-2.8446787199e-001
 5.7587365447e-001	 1.8734994532e+000	-6.9108777944e-001
 5.5637702603e-001	 1.8793816258e+000	-6.4161240653e-001
 5.3687190219e-001	 1.8850462353e+000	-5.8949694289e-001
 5.1736168511e-001	 1.8904940416e+000	-5.3567458322e-001
 4.9784974242e-001	 1.8957258705e+000	-4.8141193810e-001
 4.7833940568e-001	 1.9007426122e+000	-4.2829607759e-001
 4.5883396905e-001	 1.9055452200e+000	-3.7822011318e-001
 4.3933668792e-001	 1.9101347086e+000	-3.3336746345e-001
 4.1985077767e-001	 1.9145121533e+000	-2.9619495201e-001
 4.0037941240e-001	 1.9186786880e+000	-2.6941488780e-001
 3.8092572379e-001	 1.9226355038e+000	-2.5597627870e-001
 5.8370902994e-001	 1.8989904121e+000	-6.5780905309e-001
 5.6394712908e-001	 1.9049526179e+000	-6.0759995256e-001
 5.4417661721e-001	 1.9106943005e+000	-5.5520817950e-001
 5.2440094282e-001	 1.9162162300e+000	-5.0147417371e-001
 5.0462351933e-001	 1.9215192436e+000	-4.4759803190e-001
 4.8484772364e-001	 1.9266042434e+000	-3.9512555249e-001
 4.6507689473e-001	 1.9314721957e+000	-3.4593268965e-001
 4.4531433230e-001	 1.9361241293e+000	-3.0220857480e-001
 4.2556329545e-001	 1.9405611338e+000	-2.6643726662e-001
 4.0582700148e-001	 1.9447843586e+000	-2.4137839275e-001
 3.8610862468e-001	 1.9487950111e+000	-2.3004684739e-001
 5.9154440542e-001	 1.9244813711e+000	-6.3080153317e-001
 5.7151723213e-001	 1.9305236101e+000	-5.7978107534e-001
 5.5148133224e-001	 1.9363423657e+000	-5.2699754174e-001
 5.3144020053e-001	 1.9419384185e+000	-4.7319600845e-001
 5.1139729624e-001	 1.9473126166e+000	-4.1950905076e-001
 4.9135604160e-001	 1.9524658746e+000	-3.6744171208e-001
 4.7131982042e-001	 1.9573991715e+000	-3.1885474465e-001
 4.5129197667e-001	 1.9621135499e+000	-2.7594629356e-001
 4.3127581323e-001	 1.9666101143e+000	-2.4123219898e-001
 4.1127459056e-001	 1.9708900293e+000	-2.1752509369e-001
 3.9129152557e-001	 1.9749545184e+000	-2.0791247385e-001
 5.9937978090e-001	 1.9499723300e+000	-6.1203970947e-001
 5.7908733518e-001	 1.9560946022e+000	-5.6019114624e-001
 5.5878604727e-001	 1.9619904309e+000	-5.0692834745e-001
 5.3847945824e-001	 1.9676606069e+000	-4.5289957543e-001
 5.1817107315e-001	 1.9731059897e+000	-3.9917016516e-001
 4.9786435957e-001	 1.9783275057e+000	-3.4720633303e-001
 4.7756274611e-001	 1.9833261473e+000	-2.9885711106e-001
 4.5726962105e-001	 1.9881029706e+000	-2.5633459233e-001
 4.3698833100e-001	 1.9926590947e+000	-2.2219267734e-001
 4.1672217963e-001	 1.9969956999e+000	-1.9930451302e-001
 3.9647442646e-001	 2.0011140257e+000	-1.9085705742e-001
 6.0721515638e-001	 1.9754632889e+000	-6.0329377419e-001
 5.8665743822e-001	 1.9816655944e+000	-5.5068526613e-001
 5.6609076229e-001	 1.9876384961e+000	-4.9690735228e-001
 5.4551871594e-001	 1.9933827953e+000	-4.4251118861e-001
 5.2494485006e-001	 1.9988993627e+000	-3.8849644294e-001
 5.0437267753e-001	 2.0041891369e+000	-3.3662749767e-001
 4.8380567180e-001	 2.0092531230e+000	-2.8934551439e-001
 4.6324726543e-001	 2.0140923913e+000	-2.4868938929e-001
 4.4270084878e-001	 2.0187080752e+000	-2.1699654496e-001
 4.2216976871e-001	 2.0231013705e+000	-1.9690541566e-001
 4.0165732735e-001	 2.0272735331e+000	-1.9133533755e-001
 3.4982831845e-001	 1.7656784599e+000	-4.2597764893e-001
 3.3198450320e-001	 1.7691203005e+000	-4.0535318810e-001
 3.1416254162e-001	 1.7723719412e+000	-3.7395979565e-001
 2.9636518172e-001	 1.7754346262e+000	-3.3480227944e-001
 2.7859512887e-001	 1.7783096463e+000	-2.9096551110e-001
 2.6085504501e-001	 1.7809983380e+000	-2.4560193834e-001
 2.4314754789e-001	 1.7835020816e+000	-2.0191913839e-001
 2.2547521035e-001	 1.7858223000e+000	-1.6316748717e-001
 2.0784055965e-001	 1.7879604570e+000	-1.3262801488e-001
 1.9024607690e-001	 1.7899180559e+000	-1.1360051496e-001
 1.7269419643e-001	 1.7916966383e+000	-1.0939196878e-001
 3.5501121934e-001	 1.7918379672e+000	-4.0119256820e-001
 3.3690303805e-001	 1.7953308006e+000	-3.7954473670e-001
 3.1881703421e-001	 1.7986306162e+000	-3.4644736948e-001
 3.0075599654e-001	 1.8017386765e+000	-3.0497758423e-001
 2.8272267048e-001	 1.8046562917e+000	-2.5830131363e-001
 2.6471975742e-001	 1.8073848178e+000	-2.0965972495e-001
 2.4674991390e-001	 1.8099256558e+000	-1.6235567802e-001
 2.2881575086e-001	 1.8122802495e+000	-1.1974030314e-001
 2.1091983301e-001	 1.8144500845e+000	-8.5199776884e-002
 1.9306467822e-001	 1.8164366863e+000	-6.2142369201e-002
 1.7525275689e-001	 1.8182416194e+000	-5.3985830427e-002
 3.6019412023e-001	 1.8179974745e+000	-3.7371791964e-001
 3.4182157291e-001	 1.8215413007e+000	-3.5234367592e-001
 3.2347152681e-001	 1.8248892912e+000	-3.1891316504e-001
 3.0514681135e-001	 1.8280427269e+000	-2.7657476784e-001
 2.8685021209e-001	 1.8310029370e+000	-2.2857574337e-001
 2.6858446984e-001	 1.8337712977e+000	-1.7824745728e-001
 2.5035227990e-001	 1.8363492300e+000	-1.2899064434e-001
 2.3215629136e-001	 1.8387381990e+000	-8.4260794942e-002
 2.1399910637e-001	 1.8409397119e+000	-4.7553750998e-002
 1.9588327954e-001	 1.8429553167e+000	-2.2391591617e-002
 1.7781131735e-001	 1.8447866005e+000	-1.2308884174e-002
 3.6537702112e-001	 1.8441569818e+000	-3.4443741629e-001
 3.4674010776e-001	 1.8477518008e+000	-3.2430346717e-001
 3.2812601940e-001	 1.8511479661e+000	-2.9159963931e-001
 3.0953762617e-001	 1.8543467772e+000	-2.4954631847e-001
 2.9097775370e-001	 1.8573495824e+000	-2.0147414976e-001
 2.7244918225e-001	 1.8601577775e+000	-1.5080796910e-001
 2.5395464591e-001	 1.8627728042e+000	-1.0105076373e-001
 2.3549683187e-001	 1.8651961485e+000	-5.5767760298e-002
 2.1707837973e-001	 1.8674293394e+000	-1.8570734003e-002
 1.9870188086e-001	 1.8694739471e+000	 6.8973730318e-003
 1.8036987781e-001	 1.8713315816e+000	 1.6977441225e-002
 3.7055992201e-001	 1.8703164891e+000	-3.1433262576e-001
 3.5165864261e-001	 1.8739623009e+000	-2.9610140092e-001
 3.3278051199e-001	 1.8774066411e+000	-2.6489728190e-001
 3.1392844099e-001	 1.8806508276e+000	-2.2401521271e-001
 2.9510529531e-001	 1.8836962278e+000	-1.7687310485e-001
 2.7631389466e-001	 1.8865442573e+000	-1.2699435894e-001
 2.5755701191e-001	 1.8891963783e+000	-7.7990409538e-002
 2.3883737238e-001	 1.8916540980e+000	-3.3543400706e-002
 2.2015765309e-001	 1.8939189669e+000	 2.6109053116e-003
 2.0152048219e-001	 1.8959925775e+000	 2.6699889645e-002
 1.8292843827e-001	 1.8978765627e+000	 3.4930417976e-002
 3.7574282290e-001	 1.8964759965e+000	-2.8446787199e-001
 3.5657717746e-001	 1.9001728010e+000	-2.6852236862e-001
 3.3743500458e-001	 1.9036653161e+000	-2.3932732089e-001
 3.1831925580e-001	 1.9069548779e+000	-2.0025662241e-001
 2.9923283692e-001	 1.9100428731e+000	-1.5482118176e-001
 2.8017860707e-001	 1.9129307371e+000	-1.0664991401e-001
 2.6115937792e-001	 1.9156199525e+000	-5.9470748579e-002
 2.4217791288e-001	 1.9181120475e+000	-1.7091770891e-002
 2.2323692645e-001	 1.9204085944e+000	 1.6617390240e-002
 2.0433908351e-001	 1.9225112079e+000	 3.7743823892e-002
 1.8548699874e-001	 1.9244215437e+000	 4.2349147839e-002
 3.8092572379e-001	 1.9226355038e+000	-2.5597627870e-001
 3.6149571232e-001	 1.9263833011e+000	-2.4244388442e-001
 3.4208949717e-001	 1.9299239910e+000	-2.1552577945e-001
 3.2271007062e-001	 1.9332589282e+000	-1.7868106610e-001
 3.0336037854e-001	 1.9363895185e+000	-1.3552126408e-001
 2.8404331949e-001	 1.9393172170e+000	-8.9789643819e-002
 2.6476174392e-001	 1.9420435267e+000	-4.5340568378e-002
 2.4551845339e-001	 1.9445699970e+000	-6.1189722116e-003
 2.2631619981e-001	 1.9468982219e+000	 2.3859901162e-002
 2.0715768483e-001	 1.9490298383e+000	 4.0530387198e-002
 1.8804555920e-001	 1.9509665248e+000	 3.9795805852e-002
 3.8610862468e-001	 1.9487950111e+000	-2.3004684739e-001
 3.6641424717e-001	 1.9525938012e+000	-2.1882223929e-001
 3.4674398976e-001	 1.9561826660e+000	-1.9422875637e-001
 3.2710088544e-001	 1.9595629786e+000	-1.5981886927e-001
 3.0748792015e-001	 1.9627361639e+000	-1.1931424230e-001
 2.8790803190e-001	 1.9657036968e+000	-7.6583272219e-002
 2.6836410993e-001	 1.9684671009e+000	-3.5618627290e-002
 2.4885899389e-001	 1.9710279465e+000	-5.1492612867e-004
 2.2939547317e-001	 1.9733878494e+000	 2.4553310482e-002
 2.0997628615e-001	 1.9755484687e+000	 3.5353309088e-002
 1.9060411966e-001	 1.9775115059e+000	 2.7615176309e-002
 3.9129152557e-001	 1.9749545184e+000	-2.0791247385e-001
 3.7133278202e-001	 1.9788043013e+000	-1.9867968248e-001
 3.5139848235e-001	 1.9824413410e+000	-1.7625881691e-001
 3.3149170025e-001	 1.9858670289e+000	-1.4430581211e-001
 3.1161546176e-001	 1.9890828092e+000	-1.0666396871e-001
 2.9177274431e-001	 1.9920901766e+000	-6.7339552717e-002
 2.7196647593e-001	 1.9948906751e+000	-3.0477386227e-002
 2.5219953440e-001	 1.9974858960e+000	-3.3658125288e-004
 2.3247474653e-001	 1.9998774768e+000	 1.8733438654e-002
 2.1279488748e-001	 2.0020670991e+000	 2.2379283015e-002
 1.9316268012e-001	 2.0040564870e+000	 6.2816952106e-003
 3.9647442646e-001	 2.0011140257e+000	-1.9085705742e-001
 3.7625131688e-001	 2.0050148014e+000	-1.8341988109e-001
 3.5605297494e-001	 2.0087000159e+000	-1.6334642759e-001
 3.3588251507e-001	 2.0121710793e+000	-1.3415622573e-001
 3.1574300337e-001	 2.0154294546e+000	-9.9569425690e-002
 2.9563745673e-001	 2.0184766564e+000	-6.3487995452e-002
 2.7556884194e-001	 2.0213142492e+000	-2.9977128454e-002
 2.5554007491e-001	 2.0239438455e+000	-3.2468078240e-003
 2.3555401989e-001	 2.0263671043e+000	 1.2366524940e-002
 2.1561348880e-001	 2.0285857295e+000	 1.2418245720e-002
 1.9572124058e-001	 2.0306014681e+000	-7.6261870246e-003
 4.0165732735e-001	 2.0272735331e+000	-1.9133533755e-001
 3.8116985173e-001	 2.0312253015e+000	-1.8634410039e-001
 3.6070746753e-001	 2.0349586909e+000	-1.6812257085e-001
 3.4027332989e-001	 2.0384751296e+000	-1.4016791371e-001
 3.1987054498e-001	 2.0417760999e+000	-1.0620323991e-001
 2.9950216914e-001	 2.0448631363e+000	-7.0159324730e-002
 2.7917120795e-001	 2.0477378234e+000	-3.6156514926e-002
 2.5888061541e-001	 2.0504017950e+000	-8.4867597597e-003
 2.3863329325e-001	 2.0528567318e+000	 8.4042964813e-003
 2.1843209012e-001	 2.0551043599e+000	 9.9352187677e-003
 1.9827980105e-001	 2.0571464492e+000	-8.5932635851e-003
 1.7269419643e-001	 1.7916966383e+000	-1.0939196878e-001
 1.5518468862e-001	 1.7932980092e+000	-1.0661308939e-001
 1.3772256032e-001	 1.7947235026e+000	-9.2619093738e-002
 1.2031013895e-001	 1.7959747663e+000	-7.1782322337e-002
 1.0294970236e-001	 1.7970534806e+000	-4.8397637136e-002
 8.5643478444e-002	 1.7979613563e+000	-2.6672724100e-002
 6.8393644903e-002	 1.7987001334e+000	-1.0719079147e-002
 5.1202329005e-002	 1.7992715798e+000	-4.5437033217e-003
 3.4071607412e-002	 1.7996774898e+000	-1.2041527947e-002
 1.7003506047e-002	 1.7999196823e+000	-3.6988585426e-002
 0.0000000000e+000	 1.8000000000e+000	-8.3035960260e-002
 1.7525275689e-001	 1.8182416194e+000	-5.3985830427e-002
 1.5748383600e-001	 1.8198667155e+000	-4.6694911134e-002
 1.3976299656e-001	 1.8213133283e+000	-2.7046677009e-002
 1.2209260050e-001	 1.8225831303e+000	 3.7919041447e-004
 1.0447495939e-001	 1.8236778263e+000	 3.1087245120e-002
 8.6912334157e-002	 1.8245991527e+000	 6.0676846124e-002
 6.9406934749e-002	 1.8253488752e+000	 8.4851981278e-002
 5.1960919955e-002	 1.8259287879e+000	 9.9430316690e-002
 3.4576397204e-002	 1.8263407116e+000	 1.0035144881e-001
 1.7255422436e-002	 1.8265864924e+000	 8.3684341731e-002
 0.0000000000e+000	 1.8266680000e+000	 4.5633913801e-002
 1.7781131735e-001	 1.8447866005e+000	-1.2308884174e-002
 1.5978298338e-001	 1.8464354218e+000	-2.5681773040e-003
 1.4180343280e-001	 1.8479031541e+000	 2.0710704850e-002
 1.2387506204e-001	 1.8491914942e+000	 5.2765961379e-002
 1.0600021643e-001	 1.8503021720e+000	 8.8924722911e-002
 8.8181189870e-002	 1.8512369490e+000	 1.2461457583e-001
 7.0420224594e-002	 1.8519976169e+000	 1.5537427741e-001
 5.2719510904e-002	 1.8525859960e+000	 1.7686363009e-001
 3.5081186996e-002	 1.8530039335e+000	 1.8487248934e-001
 1.7507338824e-002	 1.8532533024e+000	 1.7532888561e-001
 0.0000000000e+000	 1.8533360000e+000	 1.4430622299e-001
 1.8036987781e-001	 1.8713315816e+000	 1.6977441225e-002
 1.6208213075e-001	 1.8730041281e+000	 2.7140209609e-002
 1.4384386905e-001	 1.8744929799e+000	 5.1976173626e-002
 1.2565752359e-001	 1.8757998581e+000	 8.6563801379e-002
 1.0752547346e-001	 1.8769265177e+000	 1.2607323631e-001
 8.9450045582e-002	 1.8778747454e+000	 1.6577886369e-001
 7.1433514439e-002	 1.8786463587e+000	 2.0107100332e-001
 5.3478101853e-002	 1.8792432040e+000	 2.2746669312e-001
 3.5585976788e-002	 1.8796671553e+000	 2.4061953525e-001
 1.7759255212e-002	 1.8799201125e+000	 2.3632858263e-001
 0.0000000000e+000	 1.8800040000e+000	 2.1054622710e-001
 1.8292843827e-001	 1.8978765627e+000	 3.4930417976e-002
 1.6438127813e-001	 1.8995728343e+000	 4.3513721536e-002
 1.4588430529e-001	 1.9010828056e+000	 6.7779004972e-002
 1.2743998514e-001	 1.9024082221e+000	 1.0266458884e-001
 1.0905073050e-001	 1.9035508634e+000	 1.4320136585e-001
 9.0718901294e-002	 1.9045125418e+000	 1.8452650246e-001
 7.2446804284e-002	 1.9052951004e+000	 2.2189620023e-001
 5.4236692802e-002	 1.9059004121e+000	 2.5069747773e-001
 3.6090766580e-002	 1.9063303771e+000	 2.6645894124e-001
 1.8011171600e-002	 1.9065869225e+000	 2.6486051977e-001
 0.0000000000e+000	 1.9066720000e+000	 2.4174212308e-001
 1.8548699874e-001	 1.9244215437e+000	 4.2349147839e-002
 1.6668042550e-001	 1.9261415406e+000	 4.7369587781e-002
 1.4792474153e-001	 1.9276726314e+000	 6.8877985622e-002
 1.2922244669e-001	 1.9290165860e+000	 1.0168931348e-001
 1.1057598753e-001	 1.9301752090e+000	 1.4071026758e-001
 9.1987757006e-002	 1.9311503381e+000	 1.8095420324e-001
 7.3460094129e-002	 1.9319438422e+000	 2.1755506107e-001
 5.4995283751e-002	 1.9325576201e+000	 2.4578024087e-001
 3.6595556372e-002	 1.9329935990e+000	 2.6104238779e-001
 1.8263087988e-002	 1.9332537326e+000	 2.5891006318e-001
 0.0000000000e+000	 1.9333400000e+000	 2.3511725683e-001
 1.8804555920e-001	 1.9509665248e+000	 3.9795805852e-002
 1.6897957288e-001	 1.9527102469e+000	 3.9280270171e-002
 1.4996517778e-001	 1.9542624571e+000	 5.5782863446e-002
 1.3100490823e-001	 1.9556249499e+000	 8.4009237635e-002
 1.1210124456e-001	 1.9567995547e+000	 1.1875427508e-001
 9.3256612718e-002	 1.9577881345e+000	 1.5491836098e-001
 7.4473383974e-002	 1.9585925840e+000	 1.8752257599e-001
 5.5753874700e-002	 1.9592148282e+000	 2.1172276070e-001
 3.7100346163e-002	 1.9596568208e+000	 2.2282241257e-001
 1.8515004376e-002	 1.9599205426e+000	 2.1628438432e-001
 0.0000000000e+000	 1.9600080000e+000	 1.8774133812e-001
 1.9060411966e-001	 1.9775115059e+000	 2.7615176309e-002
 1.7127872026e-001	 1.9792789532e+000	 1.9593209665e-002
 1.5200561402e-001	 1.9808522829e+000	 2.8774069556e-002
 1.3278736978e-001	 1.9822333139e+000	 4.9765351984e-002
 1.1362650160e-001	 1.9834239004e+000	 7.7259840566e-002
 9.4525468430e-002	 1.9844259308e+000	 1.0605322656e-001
 7.5486673818e-002	 1.9852413257e+000	 1.3106067500e-001
 5.6512465649e-002	 1.9858720362e+000	 1.4733218363e-001
 3.7605135955e-002	 1.9863200426e+000	 1.5006669062e-001
 1.8766920764e-002	 1.9865873527e+000	 1.3462489655e-001
 0.0000000000e+000	 1.9866760000e+000	 9.6540752142e-002
 1.9316268012e-001	 2.0040564870e+000	 6.2816952107e-003
 1.7357786763e-001	 2.0058476595e+000	-1.0669388292e-002
 1.5404605026e-001	 2.0074421087e+000	-1.0303263368e-002
 1.3456983133e-001	 2.0088416778e+000	 1.9241686749e-003
 1.1515175863e-001	 2.0100482461e+000	 2.0606098781e-002
 9.5794324142e-002	 2.0110637272e+000	 4.0403991441e-002
 7.6499963663e-002	 2.0118900675e+000	 5.6066726630e-002
 5.7271056599e-002	 2.0125292443e+000	 6.2449708577e-002
 3.8109925747e-002	 2.0129832645e+000	 5.4533942453e-002
 1.9018837152e-002	 2.0132541627e+000	 2.7445074941e-002
 0.0000000000e+000	 2.0133440000e+000	-2.3527633222e-002
 1.9572124058e-001	 2.0306014681e+000	-7.6261870246e-003
 1.7587701501e-001	 2.0324163658e+000	-2.8412374993e-002
 1.5608648651e-001	 2.0340319344e+000	-3.1236466328e-002
 1.3635229287e-001	 2.0354500417e+000	-2.1679293402e-002
 1.1667701567e-001	 2.0366725918e+000	-5.3059112054e-003
 9.7063179855e-002	 2.0377015236e+000	 1.2353787027e-002
 7.7513253509e-002	 2.0385388092e+000	 2.5824515625e-002
 5.8029647548e-002	 2.0391864523e+000	 2.9705112584e-002
 3.8614715539e-002	 2.0396464863e+000	 1.8688128913e-002
 1.9270753540e-002	 2.0399209728e+000	-1.2420511726e-002
 0.0000000000e+000	 2.0400120000e+000	-6.8681815248e-002
 1.9827980105e-001	 2.0571464492e+000	-8.5932635851e-003
 1.7817616239e-001	 2.0589850721e+000	-2.7439406569e-002
 1.5812692275e-001	 2.0606217602e+000	-2.7430356040e-002
 1.3813475442e-001	 2.0620584056e+000	-1.4237366529e-002
 1.1820227270e-001	 2.0632969374e+000	 6.4471010292e-003
 9.8332035568e-002	 2.0643393199e+000	 2.8928874579e-002
 7.8526543355e-002	 2.0651875510e+000	 4.7531739599e-002
 5.8788238498e-002	 2.0658436604e+000	 5.6617293016e-002
 3.9119505332e-002	 2.0663097081e+000	 5.0604987519e-002
 1.9522669929e-002	 2.0665877828e+000	 2.3992364630e-002
 0.0000000000e+000	 2.0666800000e+000	-2.8624555645e-002
 2.0666800000e+000	 0.0000000000e+000	 3.1887472604e+000
 2.0665877828e+000	 1.9522669929e-002	 3.1375947232e+000
 2.0663097081e+000	 3.9119505332e-002	 3.0888831070e+000
 2.0658436604e+000	 5.8788238498e-002	 3.0422588665e+000
 2.0651875510e+000	 7.8526543355e-002	 2.9971532073e+000
 2.0643393199e+000	 9.8332035568e-002	 2.9527996474e+000
 2.0632969374e+000	 1.1820227270e-001	 2.9082513698e+000
 2.0620584056e+000	 1.3813475442e-001	 2.8623983665e+000
 2.0606217602e+000	 1.5812692275e-001	 2.8139843905e+000
 2.0589850721e+000	 1.7817616239e-001	 2.7616237423e+000
 2.0571464492e+000	 1.9827980105e-001	 2.7038179258e+000
 2.0933440000e+000	 0.0000000000e+000	 3.0383003405e+000
 2.0932505931e+000	 1.9774548532e-002	 2.9995947750e+000
 2.0929689307e+000	 3.9624219410e-002	 2.9629679230e+000
 2.0924968700e+000	 5.9546715666e-002	 2.9279298588e+000
 2.0918322956e+000	 7.9539681215e-002	 2.8938066340e+000
 2.0909731208e+000	 9.9600700963e-002	 2.8597580175e+000
 2.0899172897e+000	 1.1972730096e-001	 2.8247948579e+000
 2.0886627785e+000	 1.3991694861e-001	 2.7877960680e+000
 2.0872075977e+000	 1.6016705295e-001	 2.7475252515e+000
 2.0855497932e+000	 1.8047496491e-001	 2.7026470016e+000
 2.0836874487e+000	 2.0083797774e-001	 2.6517429138e+000
 2.1200080000e+000	 0.0000000000e+000	 2.8957636483e+000
 2.1199134033e+000	 2.0026427135e-002	 2.8652947747e+000
 2.1196281532e+000	 4.0128933488e-002	 2.8369504672e+000
 2.1191500797e+000	 6.0305192834e-002	 2.8100859376e+000
 2.1184770403e+000	 8.0552819076e-002	 2.7839052210e+000
 2.1176069217e+000	 1.0086936636e-001	 2.7574790042e+000
 2.1165376419e+000	 1.2125232922e-001	 2.7297618907e+000
 2.1152671514e+000	 1.4169914281e-001	 2.6996091070e+000
 2.1137934352e+000	 1.6220718314e-001	 2.6657926717e+000
 2.1121145144e+000	 1.8277376743e-001	 2.6270170614e+000
 2.1102284483e+000	 2.0339615444e-001	 2.5819344235e+000
 2.1466720000e+000	 0.0000000000e+000	 2.7594074918e+000
 2.1465762135e+000	 2.0278305739e-002	 2.7341107218e+000
 2.1462873758e+000	 4.0633647567e-002	 2.7112846317e+000
 2.1458032894e+000	 6.1063670002e-002	 2.6901134068e+000
 2.1451217849e+000	 8.1565956938e-002	 2.6696647303e+000
 2.1442407226e+000	 1.0213803175e-001	 2.6489075967e+000
 2.1431579941e+000	 1.2277735748e-001	 2.6267293658e+000
 2.1418715243e+000	 1.4348133700e-001	 2.6019520594e+000
 2.1403792726e+000	 1.6424731334e-001	 2.5733479285e+000
 2.1386792356e+000	 1.8507256995e-001	 2.5396543298e+000
 2.1367694478e+000	 2.0595433114e-001	 2.4995879674e+000
 2.1733360000e+000	 0.0000000000e+000	 2.6277058472e+000
 2.1732390237e+000	 2.0530184342e-002	 2.6056264656e+000
 2.1729465983e+000	 4.1138361646e-002	 2.5865568180e+000
 2.1724564990e+000	 6.1822147171e-002	 2.5694963324e+000
 2.1717665295e+000	 8.2579094799e-002	 2.5533646469e+000
 2.1708745235e+000	 1.0340669715e-001	 2.5370192989e+000
 2.1697783463e+000	 1.2430238574e-001	 2.5192724400e+000
 2.1684758971e+000	 1.4526353119e-001	 2.4989065828e+000
 2.1669651101e+000	 1.6628744353e-001	 2.4746894080e+000
 2.1652439568e+000	 1.8737137247e-001	 2.4453876815e+000
 2.1633104473e+000	 2.0851250784e-001	 2.4097803410e+000
 2.2000000000e+000	 0.0000000000e+000	 2.4993240165e+000
 2.1999018340e+000	 2.0782062946e-002	 2.4795831823e+000
 2.1996058209e+000	 4.1643075725e-002	 2.4634771144e+000
 2.1991097087e+000	 6.2580624339e-002	 2.4498093046e+000
 2.1984112742e+000	 8.3592232661e-002	 2.4373424193e+000
 2.1975083244e+000	 1.0467536255e-001	 2.4248157437e+000
 2.1963986986e+000	 1.2582741400e-001	 2.4109614208e+000
 2.1950802700e+000	 1.4704572539e-001	 2.3945194926e+000
 2.1935509476e+000	 1.6832757373e-001	 2.3742517794e+000
 2.1918086779e+000	 1.8967017500e-001	 2.3489546507e+000
 2.1898514469e+000	 2.1107068453e-001	 2.3174707587e+000
 2.2266640000e+000	 0.0000000000e+000	 2.3731071716e+000
 2.2265646442e+000	 2.1033941550e-002	 2.3558696079e+000
 2.2262650434e+000	 4.2147789804e-002	 2.3428711077e+000
 2.2257629184e+000	 6.3339101508e-002	 2.3327107238e+000
 2.2250560188e+000	 8.4605370523e-002	 2.3239881187e+000
 2.2241421253e+000	 1.0594402794e-001	 2.3153206323e+000
 2.2230190508e+000	 1.2735244226e-001	 2.3053588951e+000
 2.2216846429e+000	 1.4882791958e-001	 2.2928009982e+000
 2.2201367851e+000	 1.7036770392e-001	 2.2764052602e+000
 2.2183733991e+000	 1.9196897752e-001	 2.2550016531e+000
 2.2163924464e+000	 2.1362886123e-001	 2.2275019673e+000
 2.2533280000e+000	 0.0000000000e+000	 2.2480697128e+000
 2.2532274544e+000	 2.1285820153e-002	 2.2345129648e+000
 2.2529242659e+000	 4.2652503883e-002	 2.2256722768e+000
 2.2524161280e+000	 6.4097578677e-002	 2.2199365648e+000
 2.2517007635e+000	 8.5618508384e-002	 2.2157394826e+000
 2.2507759262e+000	 1.0721269334e-001	 2.2115759697e+000
 2.2496394030e+000	 1.2887747052e-001	 2.2060170772e+000
 2.2482890157e+000	 1.5061011377e-001	 2.1977230863e+000
 2.2467226226e+000	 1.7240783412e-001	 2.1854549653e+000
 2.2449381203e+000	 1.9426778004e-001	 2.1680842356e+000
 2.2429334459e+000	 2.1618703793e-001	 2.1446013373e+000
 2.2799920000e+000	 0.0000000000e+000	 2.1233853728e+000
 2.2798902646e+000	 2.1537698757e-002	 2.1156705258e+000
 2.2795834885e+000	 4.3157217962e-002	 2.1129149215e+000
 2.2790693377e+000	 6.4856055845e-002	 2.1132945817e+000
 2.2783455081e+000	 8.6631646245e-002	 2.1150773116e+000
 2.2774097270e+000	 1.0848135873e-001	 2.1166385748e+000
 2.2762597552e+000	 1.3040249878e-001	 2.1164753572e+000
 2.2748933886e+000	 1.5239230797e-001	 2.1132180396e+000
 2.2733084601e+000	 1.7444796431e-001	 2.1056403327e+000
 2.2715028415e+000	 1.9656658256e-001	 2.0926673513e+000
 2.2694744455e+000	 2.1874521463e-001	 2.0733819341e+000
 2.3066560000e+000	 0.0000000000e+000	 1.9983780078e+000
 2.3065530749e+000	 2.1789577360e-002	 1.9996217624e+000
 2.3062427110e+000	 4.3661932041e-002	 2.0057275829e+000
 2.3057225474e+000	 6.5614533013e-002	 2.0146589168e+000
 2.3049902527e+000	 8.7644784106e-002	 2.0245211900e+000
 2.3040435279e+000	 1.0975002413e-001	 2.0335768404e+000
 2.3028801075e+000	 1.3192752703e-001	 2.0402580334e+000
 2.3014977615e+000	 1.5417450216e-001	 2.0431770799e+000
 2.2998942975e+000	 1.7648809451e-001	 2.0411346194e+000
 2.2980675626e+000	 1.9886538508e-001	 2.0331256575e+000
 2.2960154450e+000	 2.2130339132e-001	 2.0183435719e+000
 2.3333200000e+000	 0.0000000000e+000	 1.8725130200e+000
 2.3332158851e+000	 2.2041455963e-002	 1.8867610327e+000
 2.3329019336e+000	 4.4166646119e-002	 1.9053269152e+000
 2.3323757570e+000	 6.6373010180e-002	 1.9259650823e+000
 2.3316349974e+000	 8.8657921967e-002	 1.9466255051e+000
 2.3306773288e+000	 1.1101868952e-001	 1.9654677245e+000
 2.3295004597e+000	 1.3345255529e-001	 1.9808722150e+000
 2.3281021343e+000	 1.5595669635e-001	 1.9914491246e+000
 2.3264801350e+000	 1.7852822470e-001	 1.9960444628e+000
 2.3246322838e+000	 2.0116418761e-001	 1.9937438345e+000
 2.3225564445e+000	 2.2386156802e-001	 1.9838738503e+000
 2.0571464492e+000	 1.9827980105e-001	 2.7038179258e+000
 2.0551043599e+000	 2.1843209012e-001	 2.6443569984e+000
 2.0528567318e+000	 2.3863329325e-001	 2.5875297664e+000
 2.0504017950e+000	 2.5888061541e-001	 2.5325014759e+000
 2.0477378234e+000	 2.7917120795e-001	 2.4783996346e+000
 2.0448631363e+000	 2.9950216914e-001	 2.4243289625e+000
 2.0417760999e+000	 3.1987054498e-001	 2.3693865620e+000
 2.0384751296e+000	 3.4027332989e-001	 2.3126774156e+000
 2.0349586909e+000	 3.6070746753e-001	 2.2533303225e+000
 2.0312253015e+000	 3.8116985173e-001	 2.1905143953e+000
 2.0272735331e+000	 4.0165732735e-001	 2.1234562406e+000
 2.0836874487e+000	 2.0083797774e-001	 2.6517429138e+000
 2.0816190127e+000	 2.2125026867e-001	 2.5986853794e+000
 2.0793423861e+000	 2.4171210474e-001	 2.5477075787e+000
 2.0768557760e+000	 2.6222065487e-001	 2.4978838411e+000
 2.0741574342e+000	 2.8277303362e-001	 2.4482727248e+000
 2.0712456583e+000	 3.0336630188e-001	 2.3979309572e+000
 2.0681187935e+000	 3.2399746749e-001	 2.3459275152e+000
 2.0647752345e+000	 3.4466348611e-001	 2.2913579669e+000
 2.0612134272e+000	 3.6536126199e-001	 2.2333592030e+000
 2.0574318702e+000	 3.8608764884e-001	 2.1711246944e+000
 2.0534291166e+000	 4.0683945084e-001	 2.1039204204e+000
 2.1102284483e+000	 2.0339615444e-001	 2.5819344235e+000
 2.1081336655e+000	 2.2406844723e-001	 2.5344756845e+000
 2.1058280403e+000	 2.4479091623e-001	 2.4887990759e+000
 2.1033097570e+000	 2.6556069432e-001	 2.4438864859e+000
 2.1005770451e+000	 2.8637485930e-001	 2.3987262782e+000
 2.0976281804e+000	 3.0723043461e-001	 2.3523260206e+000
 2.0944614871e+000	 3.2812439000e-001	 2.3037252683e+000
 2.0910753395e+000	 3.4905364234e-001	 2.2520085385e+000
 2.0874681636e+000	 3.7001505644e-001	 2.1963186227e+000
 2.0836384389e+000	 3.9100544595e-001	 2.1358703921e+000
 2.0795847002e+000	 4.1202157433e-001	 2.0699652570e+000
 2.1367694478e+000	 2.0595433114e-001	 2.4995879674e+000
 2.1346483183e+000	 2.2688662578e-001	 2.4571195353e+000
 2.1323136945e+000	 2.4786972772e-001	 2.4163180491e+000
 2.1297637380e+000	 2.6890073377e-001	 2.3760750671e+000
 2.1269966559e+000	 2.8997668498e-001	 2.3353112216e+000
 2.1240107024e+000	 3.1109456735e-001	 2.2929875180e+000
 2.1208041806e+000	 3.3225131251e-001	 2.2481165966e+000
 2.1173754444e+000	 3.5344379857e-001	 2.1997741121e+000
 2.1137229000e+000	 3.7466885089e-001	 2.1471103956e+000
 2.1098450077e+000	 3.9592324306e-001	 2.0893625740e+000
 2.1057402838e+000	 4.1720369783e-001	 2.0258673309e+000
 2.1633104473e+000	 2.0851250784e-001	 2.4097803410e+000
 2.1611629711e+000	 2.2970480434e-001	 2.3718641726e+000
 2.1587993488e+000	 2.5094853921e-001	 2.3356098256e+000
 2.1562177190e+000	 2.7224077322e-001	 2.2998244095e+000
 2.1534162668e+000	 2.9357851066e-001	 2.2633671287e+000
 2.1503932245e+000	 3.1495870008e-001	 2.2251589162e+000
 2.1471468742e+000	 3.3637823502e-001	 2.1841919328e+000
 2.1436755493e+000	 3.5783395480e-001	 2.1395391040e+000
 2.1399776363e+000	 3.7932264534e-001	 2.0903638824e+000
 2.1360515764e+000	 4.0084104017e-001	 2.0359304305e+000
 2.1318958674e+000	 4.2238582132e-001	 1.9756144314e+000
 2.1898514469e+000	 2.1107068453e-001	 2.3174707587e+000
 2.1876776239e+000	 2.3252298289e-001	 2.2838144723e+000
 2.1852850030e+000	 2.5402735071e-001	 2.2518541098e+000
 2.1826717000e+000	 2.7558081267e-001	 2.2203221229e+000
 2.1798358776e+000	 2.9718033633e-001	 2.1880265695e+000
 2.1767757465e+000	 3.1882283282e-001	 2.1538588279e+000
 2.1734895678e+000	 3.4050515753e-001	 2.1168010726e+000
 2.1699756543e+000	 3.6222411102e-001	 2.0759337044e+000
 2.1662323727e+000	 3.8397643979e-001	 2.0304429429e+000
 2.1622581451e+000	 4.0575883728e-001	 1.9796288030e+000
 2.1580514510e+000	 4.2756794481e-001	 1.9229136863e+000
 2.2163924464e+000	 2.1362886123e-001	 2.2275019673e+000
 2.2141922767e+000	 2.3534116144e-001	 2.1979348922e+000
 2.2117706572e+000	 2.5710616220e-001	 2.1700677160e+000
 2.2091256810e+000	 2.7892085212e-001	 2.1425720794e+000
 2.2062554884e+000	 3.0078216201e-001	 2.1142192952e+000
 2.2031582686e+000	 3.2268696555e-001	 2.0838858715e+000
 2.1998322613e+000	 3.4463208005e-001	 2.0505586843e+000
 2.1962757592e+000	 3.6661426725e-001	 2.0133400148e+000
 2.1924871090e+000	 3.8863023425e-001	 1.9714526846e+000
 2.1884647138e+000	 4.1067663439e-001	 1.9242455347e+000
 2.1842070346e+000	 4.3275006830e-001	 1.8711995071e+000
 2.2429334459e+000	 2.1618703793e-001	 2.1446013373e+000
 2.2407069295e+000	 2.3815934000e-001	 2.1190513549e+000
 2.2382563115e+000	 2.6018497369e-001	 2.0951072027e+000
 2.2355796621e+000	 2.8226089157e-001	 2.0713977622e+000
 2.2326750993e+000	 3.0438398769e-001	 2.0466762710e+000
 2.2295407906e+000	 3.2655109828e-001	 2.0198233632e+000
 2.2261749549e+000	 3.4875900256e-001	 1.9898496382e+000
 2.2225758641e+000	 3.7100442348e-001	 1.9558980005e+000
 2.2187418454e+000	 3.9328402870e-001	 1.9172460278e+000
 2.2146712825e+000	 4.1559443150e-001	 1.8733086410e+000
 2.2103626182e+000	 4.3793219180e-001	 1.8236413657e+000
 2.2694744455e+000	 2.1874521463e-001	 2.0733819341e+000
 2.2672215823e+000	 2.4097751855e-001	 2.0518530727e+000
 2.2647419657e+000	 2.6326378518e-001	 2.0316714150e+000
 2.2620336431e+000	 2.8560093102e-001	 2.0114454962e+000
 2.2590947101e+000	 3.0798581336e-001	 1.9899335700e+000
 2.2559233126e+000	 3.3041523102e-001	 1.9660438532e+000
 2.2525176484e+000	 3.5288592506e-001	 1.9388341710e+000
 2.2488759691e+000	 3.7539457970e-001	 1.9075112724e+000
 2.2449965817e+000	 3.9793782315e-001	 1.8714300992e+000
 2.2408778513e+000	 4.2051222860e-001	 1.8300933156e+000
 2.2365182018e+000	 4.4311431529e-001	 1.7831514155e+000
 2.2960154450e+000	 2.2130339132e-001	 2.0183435719e+000
 2.2937362351e+000	 2.4379569710e-001	 2.0008943186e+000
 2.2912276199e+000	 2.6634259667e-001	 1.9843039441e+000
 2.2884876241e+000	 2.8894097047e-001	 1.9671875710e+000
 2.2855143209e+000	 3.1158763904e-001	 1.9483361390e+000
 2.2823058347e+000	 3.3427936375e-001	 1.9267135202e+000
 2.2788603420e+000	 3.5701284757e-001	 1.9014528990e+000
 2.2751760740e+000	 3.7978473593e-001	 1.8718527127e+000
 2.2712513181e+000	 4.0259161760e-001	 1.8373724703e+000
 2.2670844200e+000	 4.2543002571e-001	 1.7976287847e+000
 2.2626737853e+000	 4.4829643878e-001	 1.7523919707e+000
 2.3225564445e+000	 2.2386156802e-001	 1.9838738503e+000
 2.3202508879e+000	 2.4661387566e-001	 1.9705961481e+000
 2.3177132742e+000	 2.6942140816e-001	 1.9573955090e+000
 2.3149416051e+000	 2.9228100992e-001	 1.9429252626e+000
 2.3119339318e+000	 3.1518946472e-001	 1.9260414464e+000
 2.3086883567e+000	 3.3814349649e-001	 1.9057964350e+000
 2.3052030356e+000	 3.6113977008e-001	 1.8814316904e+000
 2.3014761789e+000	 3.8417489215e-001	 1.8523699569e+000
 2.2975060545e+000	 4.0724541205e-001	 1.8182072515e+000
 2.2932909887e+000	 4.3034782282e-001	 1.7787050212e+000
 2.2888293689e+000	 4.5347856227e-001	 1.7337828534e+000
 2.0272735331e+000	 4.0165732735e-001	 2.1234562406e+000
 2.0231013705e+000	 4.2216976871e-001	 2.0554368714e+000
 2.0187080752e+000	 4.4270084878e-001	 1.9897309109e+000
 2.0140923913e+000	 4.6324726543e-001	 1.9256623268e+000
 2.0092531230e+000	 4.8380567180e-001	 1.8626848379e+000
 2.0041891369e+000	 5.0437267753e-001	 1.8004046458e+000
 1.9988993627e+000	 5.2494485006e-001	 1.7385768783e+000
 1.9933827953e+000	 5.4551871594e-001	 1.6762658325e+000
 1.9876384961e+000	 5.6609076229e-001	 1.6131417347e+000
 1.9816655944e+000	 5.8665743822e-001	 1.5495996423e+000
 1.9754632889e+000	 6.0721515638e-001	 1.4863846659e+000
 2.0534291166e+000	 4.0683945084e-001	 2.1039204204e+000
 2.0492031255e+000	 4.2761654069e-001	 2.0350508251e+000
 2.0447531485e+000	 4.4841250972e-001	 1.9678284206e+000
 2.0400779137e+000	 4.6922401320e-001	 1.9016554691e+000
 2.0351762100e+000	 4.9004766109e-001	 1.8360723254e+000
 2.0300468890e+000	 5.1088001930e-001	 1.7707790891e+000
 2.0246888670e+000	 5.3171761096e-001	 1.7056588466e+000
 2.0191011256e+000	 5.5255691782e-001	 1.6408026456e+000
 2.0132827143e+000	 5.7339438167e-001	 1.5765363385e+000
 2.0072327511e+000	 5.9422640581e-001	 1.5134494181e+000
 2.0009504244e+000	 6.1504935661e-001	 1.4524259599e+000
 2.0795847002e+000	 4.1202157433e-001	 2.0699652570e+000
 2.0753048804e+000	 4.3306331268e-001	 2.0018959625e+000
 2.0707982218e+000	 4.5412417067e-001	 1.9349579747e+000
 2.0660634361e+000	 4.7520076098e-001	 1.8685968956e+000
 2.0610992969e+000	 4.9628965039e-001	 1.8024031184e+000
 2.0559046411e+000	 5.1738736106e-001	 1.7361322635e+000
 2.0504783712e+000	 5.3849037185e-001	 1.6697273236e+000
 2.0448194559e+000	 5.5959511969e-001	 1.6033426814e+000
 2.0389269325e+000	 5.8069800105e-001	 1.5373701588e+000
 2.0327999078e+000	 6.0179537340e-001	 1.4724672417e+000
 2.0264375598e+000	 6.2288355684e-001	 1.4095876175e+000
 2.1057402838e+000	 4.1720369783e-001	 2.0258673309e+000
 2.1014066354e+000	 4.3851008466e-001	 1.9598806856e+000
 2.0968432952e+000	 4.5983583161e-001	 1.8946369580e+000
 2.0920489586e+000	 4.8117750875e-001	 1.8295947545e+000
 2.0870223838e+000	 5.0253163969e-001	 1.7643624236e+000
 2.0817623933e+000	 5.2389470283e-001	 1.6987171232e+000
 2.0762678754e+000	 5.4526313275e-001	 1.6326257277e+000
 2.0705377862e+000	 5.6663332157e-001	 1.5662677634e+000
 2.0645711507e+000	 5.8800162042e-001	 1.5000605528e+000
 2.0583670645e+000	 6.0936434100e-001	 1.4346867398e+000
 2.0519246953e+000	 6.3071775708e-001	 1.3711243486e+000
 2.1318958674e+000	 4.2238582132e-001	 1.9756144314e+000
 2.1275083903e+000	 4.4395685664e-001	 1.9126200338e+000
 2.1228883685e+000	 4.6554749255e-001	 1.8500868842e+000
 2.1180344810e+000	 4.8715425653e-001	 1.7874609021e+000
 2.1129454707e+000	 5.0877362898e-001	 1.7243408403e+000
 2.1076201454e+000	 5.3040204460e-001	 1.6604958105e+000
 2.1020573797e+000	 5.5203589365e-001	 1.5958847944e+000
 2.0962561165e+000	 5.7367152344e-001	 1.5306783529e+000
 2.0902153689e+000	 5.9530523980e-001	 1.4652827417e+000
 2.0839342212e+000	 6.1693330859e-001	 1.4003666281e+000
 2.0774118308e+000	 6.3855195731e-001	 1.3368905883e+000
 2.1580514510e+000	 4.2756794481e-001	 1.9229136863e+000
 2.1536101453e+000	 4.4940362862e-001	 1.8634444097e+000
 2.1489334418e+000	 4.7125915350e-001	 1.8042427552e+000
 2.1440200035e+000	 4.9313100430e-001	 1.7447209439e+000
 2.1388685576e+000	 5.1501561828e-001	 1.6844451368e+000
 2.1334778975e+000	 5.3690938636e-001	 1.6231512295e+000
 2.1278468839e+000	 5.5880865454e-001	 1.5607627887e+000
 2.1219744468e+000	 5.8070972532e-001	 1.4974113763e+000
 2.1158595871e+000	 6.0260885918e-001	 1.4334594922e+000
 2.1095013779e+000	 6.2450227618e-001	 1.3695263616e+000
 2.1028989663e+000	 6.4638615754e-001	 1.3065167701e+000
 2.1842070346e+000	 4.3275006830e-001	 1.8711995071e+000
 2.1797119003e+000	 4.5485040060e-001	 1.8154081357e+000
 2.1749785151e+000	 4.7697081444e-001	 1.7597622713e+000
 2.1700055259e+000	 4.9910775208e-001	 1.7036241453e+000
 2.1647916446e+000	 5.2125760758e-001	 1.6465089186e+000
 2.1593356496e+000	 5.4341672813e-001	 1.5880985339e+000
 2.1536363881e+000	 5.6558141544e-001	 1.5282578844e+000
 2.1476927771e+000	 5.8774792719e-001	 1.4670535710e+000
 2.1415038053e+000	 6.0991247856e-001	 1.4047755144e+000
 2.1350685346e+000	 6.3207124377e-001	 1.3419616730e+000
 2.1283861017e+000	 6.5422035778e-001	 1.2794261012e+000
 2.2103626182e+000	 4.3793219180e-001	 1.8236413657e+000
 2.2058136552e+000	 4.6029717258e-001	 1.7712978570e+000
 2.2010235884e+000	 4.8268247538e-001	 1.7190349035e+000
 2.1959910484e+000	 5.0508449985e-001	 1.6661532243e+000
 2.1907147315e+000	 5.2749959687e-001	 1.6121031971e+000
 2.1851934017e+000	 5.4992406989e-001	 1.5564965385e+000
 2.1794258924e+000	 5.7235417633e-001	 1.4991204870e+000
 2.1734111074e+000	 5.9478612907e-001	 1.4399547982e+000
 2.1671480235e+000	 6.1721609793e-001	 1.3791918469e+000
 2.1606356913e+000	 6.3964021136e-001	 1.3172601202e+000
 2.1538732372e+000	 6.6205455801e-001	 1.2548513679e+000
 2.2365182018e+000	 4.4311431529e-001	 1.7831514155e+000
 2.2319154102e+000	 4.6574394456e-001	 1.7336408024e+000
 2.2270686617e+000	 4.8839413632e-001	 1.6841908389e+000
 2.2219765708e+000	 5.1106124762e-001	 1.6340340336e+000
 2.2166378184e+000	 5.3374158617e-001	 1.5825468692e+000
 2.2110511539e+000	 5.5643141166e-001	 1.5292590579e+000
 2.2052153966e+000	 5.7912693723e-001	 1.4738655054e+000
 2.1991294377e+000	 6.0182433094e-001	 1.4162413243e+000
 2.1927922417e+000	 6.2451971731e-001	 1.3564602313e+000
 2.1862028480e+000	 6.4720917895e-001	 1.2948166424e+000
 2.1793603727e+000	 6.6988875825e-001	 1.2318884087e+000
 2.2626737853e+000	 4.4829643878e-001	 1.7523919707e+000
 2.2580171652e+000	 4.7119071654e-001	 1.7047129151e+000
 2.2531137351e+000	 4.9410579726e-001	 1.6571098109e+000
 2.2479620932e+000	 5.1703799540e-001	 1.6087451439e+000
 2.2425609053e+000	 5.3998357546e-001	 1.5589171116e+000
 2.2369089060e+000	 5.6293875342e-001	 1.5070661812e+000
 2.2310049008e+000	 5.8589969813e-001	 1.4527845764e+000
 2.2248477680e+000	 6.0886253281e-001	 1.3958290734e+000
 2.2184364599e+000	 6.3182333669e-001	 1.3361374763e+000
 2.2117700047e+000	 6.5477814654e-001	 1.2738491246e+000
 2.2048475082e+000	 6.7772295848e-001	 1.2098244367e+000
 2.2888293689e+000	 4.5347856227e-001	 1.7337828534e+000
 2.2841189201e+000	 4.7663748852e-001	 1.6865468637e+000
 2.2791588084e+000	 4.9981745820e-001	 1.6394298221e+000
 2.2739476157e+000	 5.2301474317e-001	 1.5915273336e+000
 2.2684839922e+000	 5.4622556476e-001	 1.5420596999e+000
 2.2627666581e+000	 5.6944609519e-001	 1.4903754849e+000
 2.2567944051e+000	 5.9267245902e-001	 1.4359582458e+000
 2.2505660983e+000	 6.1590073469e-001	 1.3784368539e+000
 2.2440806781e+000	 6.3912695606e-001	 1.3175998128e+000
 2.2373371614e+000	 6.6234711413e-001	 1.2534139684e+000
 2.2303346436e+000	 6.8555715871e-001	 1.1876752056e+000
 1.9754632889e+000	 6.0721515638e-001	 1.4863846659e+000
 1.9690308487e+000	 6.2776029421e-001	 1.4197551960e+000
 1.9623676129e+000	 6.4828919468e-001	 1.3455682164e+000
 1.9554729937e+000	 6.6879816880e-001	 1.2645470693e+000
 1.9483464780e+000	 6.8928349765e-001	 1.1788854406e+000
 1.9409876284e+000	 7.0974143420e-001	 1.0904909198e+000
 1.9333960849e+000	 7.3016820514e-001	 1.0005550546e+000
 1.9255715656e+000	 7.5056001275e-001	 9.1034765771e-001
 1.9175138679e+000	 7.7091303689e-001	 8.2121362459e-001
 1.9092228696e+000	 7.9122343695e-001	 7.3456965537e-001
 1.9006985296e+000	 8.1148735391e-001	 6.5190089651e-001
 2.0009504244e+000	 6.1504935661e-001	 1.4524259599e+000
 1.9944349938e+000	 6.3585956478e-001	 1.3890365076e+000
 1.9876857899e+000	 6.5665332609e-001	 1.3177552223e+000
 1.9807022174e+000	 6.7742690396e-001	 1.2393540701e+000
 1.9734837563e+000	 6.9817653150e-001	 1.1563610674e+000
 1.9660299640e+000	 7.1889841332e-001	 1.0701723940e+000
 1.9583404755e+000	 7.3958872744e-001	 9.8202122561e-001
 1.9504150054e+000	 7.6024362714e-001	 8.9321923620e-001
 1.9422533485e+000	 7.8085924298e-001	 8.0515310325e-001
 1.9338553809e+000	 8.0143168483e-001	 7.1928092759e-001
 1.9252210612e+000	 8.2195704385e-001	 6.3712858461e-001
 2.0264375598e+000	 6.2288355684e-001	 1.4095876175e+000
 2.0198391388e+000	 6.4395883534e-001	 1.3449324612e+000
 2.0130039669e+000	 6.6501745749e-001	 1.2738873714e+000
 2.0059314410e+000	 6.8605563912e-001	 1.1977584546e+000
 1.9986210347e+000	 7.0706956534e-001	 1.1187552289e+000
 1.9910722996e+000	 7.2805539244e-001	 1.0367031394e+000
 1.9832848661e+000	 7.4900924974e-001	 9.5217430403e-001
 1.9752584453e+000	 7.6992724152e-001	 8.6648676493e-001
 1.9669928291e+000	 7.9080544908e-001	 7.8103362682e-001
 1.9584878923e+000	 8.1163993271e-001	 6.9727923141e-001
 1.9497435928e+000	 8.3242673380e-001	 6.1675527744e-001
 2.0519246953e+000	 6.3071775708e-001	 1.3711243486e+000
 2.0452432839e+000	 6.5205810591e-001	 1.3055608116e+000
 2.0383221439e+000	 6.7338158890e-001	 1.2333176975e+000
 2.0311606646e+000	 6.9468437428e-001	 1.1564986978e+000
 2.0237583131e+000	 7.1596259919e-001	 1.0766882209e+000
 2.0161146352e+000	 7.3721237157e-001	 9.9498254541e-001
 2.0082292568e+000	 7.5842977204e-001	 9.1252447360e-001
 2.0001018851e+000	 7.7961085591e-001	 8.3049828420e-001
 1.9917323097e+000	 8.0075165518e-001	 7.4914510782e-001
 1.9831204037e+000	 8.2184818059e-001	 6.6881684076e-001
 1.9742661244e+000	 8.4289642374e-001	 5.9101754665e-001
 2.0774118308e+000	 6.3855195731e-001	 1.3368905883e+000
 2.0706474290e+000	 6.6015737647e-001	 1.2710344856e+000
 2.0636403209e+000	 6.8174572031e-001	 1.1985428718e+000
 2.0563898883e+000	 7.0331310944e-001	 1.1218101197e+000
 2.0488955915e+000	 7.2485563304e-001	 1.0419701596e+000
 2.0411569708e+000	 7.4636935069e-001	 9.6008815572e-001
 2.0331736474e+000	 7.6785029434e-001	 8.7727334483e-001
 2.0249453249e+000	 7.8929447030e-001	 7.9467373118e-001
 2.0164717903e+000	 8.1069786128e-001	 7.1347095243e-001
 2.0077529150e+000	 8.3205642847e-001	 6.3487534779e-001
 1.9987886560e+000	 8.5336611368e-001	 5.6010360859e-001
 2.1028989663e+000	 6.4638615754e-001	 1.3065167701e+000
 2.0960515741e+000	 6.6825664704e-001	 1.2406203189e+000
 2.0889584979e+000	 6.9010985172e-001	 1.1686677157e+000
 2.0816191119e+000	 7.1194184460e-001	 1.0925918245e+000
 2.0740328699e+000	 7.3374866688e-001	 1.0133513921e+000
 2.0661993063e+000	 7.5552632981e-001	 9.3195217233e-001
 2.0581180380e+000	 7.7727081664e-001	 8.4944122687e-001
 2.0497887647e+000	 7.9897808469e-001	 7.6690140652e-001
 2.0412112709e+000	 8.2064406738e-001	 6.8544604662e-001
 2.0323854264e+000	 8.4226467635e-001	 6.0621390920e-001
 2.0233111876e+000	 8.6383580362e-001	 5.3036440077e-001
 2.1283861017e+000	 6.5422035778e-001	 1.2794261012e+000
 2.1214557192e+000	 6.7635591761e-001	 1.2136919895e+000
 2.1142766749e+000	 6.9847398312e-001	 1.1426732665e+000
 2.1068483355e+000	 7.2057057976e-001	 1.0676305545e+000
 2.0991701483e+000	 7.4264170073e-001	 9.8943929689e-001
 2.0912416419e+000	 7.6468330893e-001	 9.0901903863e-001
 2.0830624286e+000	 7.8669133894e-001	 8.2732751337e-001
 2.0746322046e+000	 8.0866169908e-001	 7.4535495474e-001
 2.0659507515e+000	 8.3059027348e-001	 6.6411866955e-001
 2.0570179378e+000	 8.5247292423e-001	 5.8465790701e-001
 2.0478337192e+000	 8.7430549357e-001	 5.0802905461e-001
 2.1538732372e+000	 6.6205455801e-001	 1.2548513679e+000
 2.1468598642e+000	 6.8445518817e-001	 1.1894397713e+000
 2.1395948519e+000	 7.0683811453e-001	 1.1194281168e+000
 2.1320775592e+000	 7.2919931492e-001	 1.0456048434e+000
 2.1243074266e+000	 7.5153473458e-001	 9.6873715677e-001
 2.1162839775e+000	 7.7384028805e-001	 8.8963302491e-001
 2.1080068192e+000	 7.9611186124e-001	 8.0913508846e-001
 2.0994756444e+000	 8.1834531347e-001	 7.2811484446e-001
 2.0906902321e+000	 8.4053647958e-001	 6.4746714430e-001
 2.0816504492e+000	 8.6268117211e-001	 5.6810504187e-001
 2.0723562508e+000	 8.8477518351e-001	 4.9095502427e-001
 2.1793603727e+000	 6.6988875825e-001	 1.2318884087e+000
 2.1722640093e+000	 6.9255445874e-001	 1.1668228669e+000
 2.1649130289e+000	 7.1520224594e-001	 1.0976924850e+000
 2.1573067828e+000	 7.3782805008e-001	 1.0250892423e+000
 2.1494447050e+000	 7.6042776842e-001	 9.4964858049e-001
 2.1413263131e+000	 7.8299726717e-001	 8.7204288857e-001
 2.1329512099e+000	 8.0553238355e-001	 7.9297527132e-001
 2.1243190842e+000	 8.2802892786e-001	 7.1317364637e-001
 2.1154297127e+000	 8.5048268568e-001	 6.3338521261e-001
 2.1062829605e+000	 8.7288941999e-001	 5.5437132799e-001
 2.0968787823e+000	 8.9524487345e-001	 4.7690283120e-001
 2.2048475082e+000	 6.7772295848e-001	 1.2098244367e+000
 2.1976681544e+000	 7.0065372930e-001	 1.1446916861e+000
 2.1902312059e+000	 7.2356637734e-001	 1.0761223420e+000
 2.1825360065e+000	 7.4645678524e-001	 1.0045586138e+000
 2.1745819834e+000	 7.6932080227e-001	 9.3048200228e-001
 2.1663686487e+000	 7.9215424629e-001	 8.5440661991e-001
 2.1578956005e+000	 8.1495290585e-001	 7.7687285166e-001
 2.1491625241e+000	 8.3771254225e-001	 6.9844140452e-001
 2.1401691933e+000	 8.6042889178e-001	 6.1968779069e-001
 2.1309154719e+000	 8.8309766787e-001	 5.4119728509e-001
 2.1214013139e+000	 9.0571456340e-001	 4.6356039309e-001
 2.2303346436e+000	 6.8555715871e-001	 1.1876752056e+000
 2.2230722995e+000	 7.0875299987e-001	 1.1217918760e+000
 2.2155493829e+000	 7.3193050875e-001	 1.0532735874e+000
 2.2077652301e+000	 7.5508552040e-001	 9.8239248793e-001
 2.1997192618e+000	 7.7821383611e-001	 9.0945525278e-001
 2.1914109843e+000	 8.0131122541e-001	 8.3479626651e-001
 2.1828399911e+000	 8.2437342815e-001	 7.5877120866e-001
 2.1740059639e+000	 8.4739615664e-001	 6.8175109325e-001
 2.1649086739e+000	 8.7037509788e-001	 6.0411681027e-001
 2.1555479833e+000	 8.9330591575e-001	 5.2625421183e-001
 2.1459238455e+000	 9.1618425334e-001	 4.4854978047e-001
 1.9006985296e+000	 8.1148735391e-001	 6.5190089651e-001
 1.8919422205e+000	 8.3169788466e-001	 5.7170560315e-001
 1.8829528065e+000	 8.5185418521e-001	 4.9114147840e-001
 1.8737304971e+000	 8.7195235673e-001	 4.0981961140e-001
 1.8642755859e+000	 8.9198849053e-001	 3.2741982447e-001
 1.8545884519e+000	 9.1195867032e-001	 2.4369092796e-001
 1.8446695596e+000	 9.3185897448e-001	 1.5845100477e-001
 1.8345194597e+000	 9.5168547831e-001	 7.1587726611e-002
 1.8241387894e+000	 9.7143425637e-001	-1.6941296807e-002
 1.8135282730e+000	 9.9110138481e-001	-1.0710813644e-001
 1.8026887218e+000	 1.0106829438e+000	-1.9881655562e-001
 1.9252210612e+000	 8.2195704385e-001	 6.3712858461e-001
 1.9163517795e+000	 8.4242832788e-001	 5.5754005644e-001
 1.9072463854e+000	 8.6284468205e-001	 4.7792910855e-001
 1.8979050911e+000	 8.8320215720e-001	 3.9781308811e-001
 1.8883281941e+000	 9.0349679424e-001	 3.1677933808e-001
 1.8785160781e+000	 9.2372462635e-001	 2.3448558221e-001
 1.8684692137e+000	 9.4388168129e-001	 1.5066035865e-001
 1.8581881587e+000	 9.6396398374e-001	 6.5103504350e-002
 1.8476735586e+000	 9.8396755761e-001	-2.2313308819e-002
 1.8369261468e+000	 1.0038884284e+000	-1.1164598725e-001
 1.8259467454e+000	 1.0237226258e+000	-2.0287962003e-001
 1.9497435928e+000	 8.3242673380e-001	 6.1675527744e-001
 1.9407613385e+000	 8.5315877110e-001	 5.3866940925e-001
 1.9315399643e+000	 8.7383517888e-001	 4.6075192103e-001
 1.9220796851e+000	 8.9445195768e-001	 3.8245497335e-001
 1.9123808022e+000	 9.1500509795e-001	 3.0330178606e-001
 1.9024437043e+000	 9.3549058237e-001	 2.2288710602e-001
 1.8922688678e+000	 9.5590438809e-001	 1.4087774360e-001
 1.8818568577e+000	 9.7624248917e-001	 5.7013180500e-002
 1.8712083277e+000	 9.9650085886e-001	-2.8893750377e-002
 1.8603240206e+000	 1.0166754721e+000	-1.1695878643e-001
 1.8492047689e+000	 1.0367623078e+000	-2.0721410420e-001
 1.9742661244e+000	 8.4289642374e-001	 5.9101754665e-001
 1.9651708975e+000	 8.6388921433e-001	 5.1532354039e-001
 1.9558335432e+000	 8.8482567572e-001	 4.3982755591e-001
 1.9462542791e+000	 9.0570175815e-001	 3.6394425382e-001
 1.9364334104e+000	 9.2651340167e-001	 2.8716020124e-001
 1.9263713305e+000	 9.4725653839e-001	 2.0903437575e-001
 1.9160685219e+000	 9.6792709490e-001	 1.2919875981e-001
 1.9055255567e+000	 9.8852099460e-001	 4.7359028632e-002
 1.8947430968e+000	 1.0090341601e+000	-3.6704668137e-002
 1.8837218945e+000	 1.0294625157e+000	-1.2313929095e-001
 1.8724627925e+000	 1.0498019898e+000	-2.1200750504e-001
 1.9987886560e+000	 8.5336611368e-001	 5.6010360859e-001
 1.9895804564e+000	 8.7461965755e-001	 4.8768167412e-001
 1.9801271221e+000	 8.9581617255e-001	 4.1532116562e-001
 1.9704288732e+000	 9.1695155863e-001	 3.4242610480e-001
 1.9604860185e+000	 9.3802170538e-001	 2.6847303265e-001
 1.9502989566e+000	 9.5902249441e-001	 1.9301150420e-001
 1.9398681760e+000	 9.7994980170e-001	 1.1566469710e-001
 1.9291942557e+000	 1.0007995000e+000	 3.6130137149e-002
 1.9182778660e+000	 1.0215674613e+000	-4.5822415396e-002
 1.9071197683e+000	 1.0422495593e+000	-1.3033746190e-001
 1.8957208160e+000	 1.0628416718e+000	-2.1749271907e-001
 2.0233111876e+000	 8.6383580362e-001	 5.3036440077e-001
 2.0139900154e+000	 8.8535010078e-001	 4.5793507274e-001
 2.0044207010e+000	 9.0680666939e-001	 3.8753549483e-001
 1.9946034672e+000	 9.2820135910e-001	 3.1799393249e-001
 1.9845386267e+000	 9.4953000909e-001	 2.4730645013e-001
 1.9742265828e+000	 9.7078845043e-001	 1.7485038335e-001
 1.9636678301e+000	 9.9197250851e-001	 1.0026528825e-001
 1.9528629547e+000	 1.0130780055e+000	 2.3261783419e-002
 1.9418126351e+000	 1.0341007626e+000	-5.6362498963e-002
 1.9305176421e+000	 1.0550366030e+000	-1.3874596112e-001
 1.9189788395e+000	 1.0758813538e+000	-2.2394478265e-001
 2.0478337192e+000	 8.7430549357e-001	 5.0802905461e-001
 2.0383995744e+000	 8.9608054400e-001	 4.3459444774e-001
 2.0287142799e+000	 9.1779716623e-001	 3.6339020388e-001
 2.0187780612e+000	 9.3945115958e-001	 2.9354408543e-001
 2.0085912348e+000	 9.6103831281e-001	 2.2420708317e-001
 1.9981542090e+000	 9.8255440646e-001	 1.5453328877e-001
 1.9874674842e+000	 1.0039952153e+000	 8.2941521271e-002
 1.9765316538e+000	 1.0253565109e+000	 8.6529379723e-003
 1.9653474042e+000	 1.0466340638e+000	-6.8494913001e-002
 1.9539155159e+000	 1.0678236466e+000	-1.4859977218e-001
 1.9422368631e+000	 1.0889210358e+000	-2.3167754009e-001
 2.0723562508e+000	 8.8477518351e-001	 4.9095502427e-001
 2.0628091334e+000	 9.0681098723e-001	 4.1666399537e-001
 2.0530078588e+000	 9.2878766306e-001	 3.4468899977e-001
 2.0429526552e+000	 9.5070096006e-001	 2.7422705450e-001
 2.0326438430e+000	 9.7254661652e-001	 2.0449430637e-001
 2.0220818352e+000	 9.9432036248e-001	 1.3472732458e-001
 2.0112671383e+000	 1.0160179221e+000	 6.4180914457e-002
 2.0002003528e+000	 1.0376350163e+000	-7.8527135603e-003
 1.9888821734e+000	 1.0591673651e+000	-8.2428390747e-002
 1.9773133897e+000	 1.0806106902e+000	-1.6017288664e-001
 1.9654948866e+000	 1.1019607178e+000	-2.4104024563e-001
 2.0968787823e+000	 8.9524487345e-001	 4.7690283120e-001
 2.0872186924e+000	 9.1754143045e-001	 4.0186072067e-001
 2.0773014377e+000	 9.3977815990e-001	 3.2910577544e-001
 2.0671272492e+000	 9.6195076053e-001	 2.5792777409e-001
 2.0566964511e+000	 9.8405492023e-001	 1.8763091802e-001
 2.0460094614e+000	 1.0060863185e+000	 1.1753510290e-001
 2.0350667924e+000	 1.0280406289e+000	 4.6974097133e-002
 2.0238690518e+000	 1.0499135217e+000	-2.4686545843e-002
 2.0124169425e+000	 1.0717006663e+000	-9.8071462339e-002
 2.0007112636e+000	 1.0933977339e+000	-1.7377427172e-001
 1.9887529101e+000	 1.1150003998e+000	-2.5241410474e-001
 2.1214013139e+000	 9.0571456340e-001	 4.6356039309e-001
 2.1116282514e+000	 9.2827187367e-001	 3.8783192805e-001
 2.1015950166e+000	 9.5076865673e-001	 3.1424814866e-001
 2.0913018433e+000	 9.7320056100e-001	 2.4221422995e-001
 2.0807490593e+000	 9.9556322394e-001	 1.7114441444e-001
 2.0699370875e+000	 1.0178522745e+000	 1.0045883727e-001
 2.0588664465e+000	 1.0400633357e+000	 2.9604088310e-002
 2.0475377508e+000	 1.0621920272e+000	-4.1974243867e-002
 2.0359517116e+000	 1.0842339676e+000	-1.1480717516e-001
 2.0241091374e+000	 1.1061847775e+000	-1.8940444334e-001
 2.0120109336e+000	 1.1280400818e+000	-2.6625035409e-001
 2.1459238455e+000	 9.1618425334e-001	 4.4854978047e-001
 2.1360378104e+000	 9.3900231690e-001	 3.7216248404e-001
 2.1258885955e+000	 9.6175915357e-001	 2.9766522300e-001
 2.1154764373e+000	 9.8445036148e-001	 2.2460034119e-001
 2.1048016674e+000	 1.0070715277e+000	 1.5251320462e-001
 2.0938647137e+000	 1.0296182305e+000	 8.0949363995e-002
 2.0826661006e+000	 1.0520860425e+000	 9.4734813270e-003
 2.0712064498e+000	 1.0744705326e+000	-6.2355503028e-002
 2.0594864808e+000	 1.0967672688e+000	-1.3496158801e-001
 2.0475070112e+000	 1.1189718211e+000	-2.0875317670e-001
 2.0352689572e+000	 1.1410797639e+000	-2.8411866060e-001
 1.8026887218e+000	 1.0106829438e+000	-1.9881655562e-001
 1.7916193577e+000	 1.0301779370e+000	-2.8889432446e-001
 1.7803227775e+000	 1.0495795149e+000	-3.7467722202e-001
 1.7688000574e+000	 1.0688837832e+000	-4.5674750617e-001
 1.7570523608e+000	 1.0880868613e+000	-5.3560958488e-001
 1.7450809388e+000	 1.1071848845e+000	-6.1168720762e-001
 1.7328871300e+000	 1.1261740068e+000	-6.8532066006e-001
 1.7204723598e+000	 1.1450504030e+000	-7.5676397964e-001
 1.7078381404e+000	 1.1638102713e+000	-8.2618221128e-001
 1.6949860702e+000	 1.1824498355e+000	-8.9364872328e-001
 1.6819178335e+000	 1.2009653480e+000	-9.5914260478e-001
 1.8259467454e+000	 1.0237226258e+000	-2.0287962003e-001
 1.8147345659e+000	 1.0434691405e+000	-2.9279244980e-001
 1.8032922390e+000	 1.0631210347e+000	-3.7858275035e-001
 1.7916208544e+000	 1.0826743639e+000	-4.6078143959e-001
 1.7797215907e+000	 1.1021251972e+000	-5.3984189233e-001
 1.7675957153e+000	 1.1214696203e+000	-6.1613704856e-001
 1.7552445837e+000	 1.1407037375e+000	-6.8995650923e-001
 1.7426696400e+000	 1.1598236741e+000	-7.6150363849e-001
 1.7298724157e+000	 1.1788255794e+000	-8.3089269290e-001
 1.7168545300e+000	 1.1977056286e+000	-8.9814599943e-001
 1.7036176889e+000	 1.2164600255e+000	-9.6319120516e-001
 1.8492047689e+000	 1.0367623078e+000	-2.0721410420e-001
 1.8378497742e+000	 1.0567603441e+000	-2.9642543024e-001
 1.8262617004e+000	 1.0766625546e+000	-3.8168862981e-001
 1.8144416513e+000	 1.0964649445e+000	-4.6347076236e-001
 1.8023908206e+000	 1.1161635331e+000	-5.4216213616e-001
 1.7901104917e+000	 1.1357543561e+000	-6.1807334494e-001
 1.7776020374e+000	 1.1552334681e+000	-6.9143227455e-001
 1.7648669201e+000	 1.1745969453e+000	-7.6238109976e-001
 1.7519066910e+000	 1.1938408876e+000	-8.3097329327e-001
 1.7387229899e+000	 1.2129614217e+000	-8.9717067034e-001
 1.7253175442e+000	 1.2319547029e+000	-9.6084049389e-001
 1.8724627925e+000	 1.0498019898e+000	-2.1200750504e-001
 1.8609649824e+000	 1.0700515476e+000	-3.0008112872e-001
 1.8492311618e+000	 1.0902040744e+000	-3.8439222862e-001
 1.8372624483e+000	 1.1102555251e+000	-4.6533201378e-001
 1.8250600506e+000	 1.1302018690e+000	-5.4321622431e-001
 1.8126252681e+000	 1.1500390919e+000	-6.1828210635e-001
 1.7999594911e+000	 1.1697631988e+000	-6.9068533750e-001
 1.7870642003e+000	 1.1893702164e+000	-7.6049692440e-001
 1.7739409664e+000	 1.2088561958e+000	-8.2770009588e-001
 1.7605914497e+000	 1.2282172147e+000	-8.9218721701e-001
 1.7470173996e+000	 1.2474493804e+000	-9.5375675060e-001
 1.8957208160e+000	 1.0628416718e+000	-2.1749271907e-001
 1.8840801906e+000	 1.0833427511e+000	-3.0408875474e-001
 1.8722006232e+000	 1.1037455942e+000	-3.8712763627e-001
 1.8600832453e+000	 1.1240461058e+000	-4.6691324621e-001
 1.8477292805e+000	 1.1442402050e+000	-5.4367577684e-001
 1.8351400445e+000	 1.1643238277e+000	-6.1756865165e-001
 1.8223169448e+000	 1.1842929294e+000	-6.8866537589e-001
 1.8092614805e+000	 1.2041434875e+000	-7.5695633910e-001
 1.7959752417e+000	 1.2238715039e+000	-8.2234559502e-001
 1.7824599095e+000	 1.2434730078e+000	-8.8464764572e-001
 1.7687172550e+000	 1.2629440579e+000	-9.4358425873e-001
 1.9189788395e+000	 1.0758813538e+000	-2.2394478265e-001
 1.9071953989e+000	 1.0966339547e+000	-3.0881556973e-001
 1.8951700847e+000	 1.1172871140e+000	-3.9036236333e-001
 1.8829040423e+000	 1.1378366864e+000	-4.6879075026e-001
 1.8703985105e+000	 1.1582785409e+000	-5.4423490904e-001
 1.8576548210e+000	 1.1786085635e+000	-6.1675448452e-001
 1.8446743986e+000	 1.1988226600e+000	-6.8633136785e-001
 1.8314587607e+000	 1.2189167586e+000	-7.5286640655e-001
 1.8180095171e+000	 1.2388868121e+000	-8.1617607162e-001
 1.8043283694e+000	 1.2587288009e+000	-8.7598911061e-001
 1.7904171104e+000	 1.2784387354e+000	-9.3194321732e-001
 1.9422368631e+000	 1.0889210358e+000	-2.3167754009e-001
 1.9303106071e+000	 1.1099251582e+000	-3.1466351030e-001
 1.9181395461e+000	 1.1308286339e+000	-3.9459394692e-001
 1.9057248393e+000	 1.1516272671e+000	-4.7156567116e-001
 1.8930677404e+000	 1.1723168768e+000	-5.4560688919e-001
 1.8801695974e+000	 1.1928932993e+000	-6.1667402445e-001
 1.8670318523e+000	 1.2133523907e+000	-6.8464842975e-001
 1.8536560409e+000	 1.2336900297e+000	-7.4933300538e-001
 1.8400437924e+000	 1.2539021203e+000	-8.1044875202e-001
 1.8261968292e+000	 1.2739845939e+000	-8.6763128938e-001
 1.8121169658e+000	 1.2939334128e+000	-9.2042737361e-001
 1.9654948866e+000	 1.1019607178e+000	-2.4104024563e-001
 1.9534258153e+000	 1.1232163617e+000	-3.2206573615e-001
 1.9411090075e+000	 1.1443701537e+000	-4.0034646957e-001
 1.9285456363e+000	 1.1654178477e+000	-4.7586052544e-001
 1.9157369704e+000	 1.1863552127e+000	-5.4852068117e-001
 1.9026843738e+000	 1.2071780351e+000	-6.1817120516e-001
 1.8893893060e+000	 1.2278821213e+000	-6.8458450166e-001
 1.8758533210e+000	 1.2484633008e+000	-7.4745763554e-001
 1.8620780678e+000	 1.2689174284e+000	-8.0640876748e-001
 1.8480652890e+000	 1.2892403870e+000	-8.6097353286e-001
 1.8338168211e+000	 1.3094280903e+000	-9.1060139968e-001
 1.9887529101e+000	 1.1150003998e+000	-2.5241410474e-001
 1.9765410235e+000	 1.1365075653e+000	-3.3148310870e-001
 1.9640784689e+000	 1.1579116735e+000	-4.0816699872e-001
 1.9513664333e+000	 1.1792084284e+000	-4.8231562593e-001
 1.9384062003e+000	 1.2003935486e+000	-5.5371738142e-001
 1.9251991503e+000	 1.2214627709e+000	-6.2209595123e-001
 1.9117467597e+000	 1.2424118520e+000	-6.8710689293e-001
 1.8980506012e+000	 1.2632365720e+000	-7.4833406340e-001
 1.8841123431e+000	 1.2839327366e+000	-8.0528593094e-001
 1.8699337489e+000	 1.3044961801e+000	-8.5739180674e-001
 1.8555166765e+000	 1.3249227678e+000	-9.0399803397e-001
 2.0120109336e+000	 1.1280400818e+000	-2.6625035409e-001
 1.9996562318e+000	 1.1497987688e+000	-3.4340060621e-001
 1.9870479304e+000	 1.1714531933e+000	-4.1862195309e-001
 1.9741872303e+000	 1.1929990090e+000	-4.9158542268e-001
 1.9610754303e+000	 1.2144318846e+000	-5.6194655881e-001
 1.9477139267e+000	 1.2357475067e+000	-6.2930054297e-001
 1.9341042134e+000	 1.2569415826e+000	-6.9317869920e-001
 1.9202478814e+000	 1.2780098431e+000	-7.5304481967e-001
 1.9061466185e+000	 1.2989480448e+000	-8.0829134570e-001
 1.8918022087e+000	 1.3197519731e+000	-8.5823544232e-001
 1.8772165319e+000	 1.3404174452e+000	-9.0222160570e-001
 2.0352689572e+000	 1.1410797639e+000	-2.8411866060e-001
 2.0227714400e+000	 1.1630899723e+000	-3.5929953293e-001
 2.0100173918e+000	 1.1849947132e+000	-4.3256788129e-001
 1.9970080273e+000	 1.2067895896e+000	-5.0433476635e-001
 1.9837446602e+000	 1.2284702205e+000	-5.7396250522e-001
 1.9702287031e+000	 1.2500322424e+000	-6.4063587818e-001
 1.9564616671e+000	 1.2714713133e+000	-7.0375510112e-001
 1.9424451616e+000	 1.2927831142e+000	-7.6265756165e-001
 1.9281808938e+000	 1.3139633529e+000	-8.1661385946e-001
 1.9136706685e+000	 1.3350077662e+000	-8.6482778489e-001
 1.8989163873e+000	 1.3559121227e+000	-9.0690637140e-001
 1.6819178335e+000	 1.2009653480e+000	-9.5914260478e-001
 1.6686351992e+000	 1.2193530910e+000	-1.0252097074e+000
 1.6551400189e+000	 1.2376093784e+000	-1.0933055752e+000
 1.6414342274e+000	 1.2557305588e+000	-1.1616536230e+000
 1.6275198424e+000	 1.2737130187e+000	-1.2284139813e+000
 1.6133989638e+000	 1.2915531845e+000	-1.2916844989e+000
 1.5990737725e+000	 1.3092475249e+000	-1.3495019040e+000
 1.5845465294e+000	 1.3267925536e+000	-1.3998431416e+000
 1.5698195741e+000	 1.3441848306e+000	-1.4416527795e+000
 1.5548953239e+000	 1.3614209657e+000	-1.4763038188e+000
 1.5397762725e+000	 1.3784976194e+000	-1.5012979208e+000
 1.7036176889e+000	 1.2164600255e+000	-9.6319120516e-001
 1.6901636840e+000	 1.2350850044e+000	-1.0290827427e+000
 1.6764943909e+000	 1.2535768317e+000	-1.0976470199e+000
 1.6626117692e+000	 1.2719318089e+000	-1.1668506289e+000
 1.6485178629e+000	 1.2901462759e+000	-1.2345992158e+000
 1.6342147989e+000	 1.3082166128e+000	-1.2987387558e+000
 1.6197047861e+000	 1.3261392431e+000	-1.3570569850e+000
 1.6049901146e+000	 1.3439106350e+000	-1.4081871491e+000
 1.5900731543e+000	 1.3615273047e+000	-1.4532128784e+000
 1.5749563537e+000	 1.3789858178e+000	-1.4894589185e+000
 1.5596422385e+000	 1.3962827920e+000	-1.5138454147e+000
 1.7253175442e+000	 1.2319547029e+000	-9.6084049389e-001
 1.7116921688e+000	 1.2508169178e+000	-1.0255846597e+000
 1.6978487628e+000	 1.2695442851e+000	-1.0937028435e+000
 1.6837893111e+000	 1.2881330591e+000	-1.1629906660e+000
 1.6695158835e+000	 1.3065795330e+000	-1.2311838165e+000
 1.6550306339e+000	 1.3248800412e+000	-1.2959594235e+000
 1.6403357996e+000	 1.3430309612e+000	-1.3556339081e+000
 1.6254336998e+000	 1.3610287165e+000	-1.4110660459e+000
 1.6103267345e+000	 1.3788697788e+000	-1.4595426815e+000
 1.5950173834e+000	 1.3965506700e+000	-1.4978290403e+000
 1.5795082045e+000	 1.4140679646e+000	-1.5227206163e+000
 1.7470173996e+000	 1.2474493804e+000	-9.5375675060e-001
 1.7332206536e+000	 1.2665488313e+000	-1.0165727073e+000
 1.7192031348e+000	 1.2855117384e+000	-1.0834838084e+000
 1.7049668530e+000	 1.3043343092e+000	-1.1521975036e+000
 1.6905139040e+000	 1.3230127902e+000	-1.2203610308e+000
 1.6758464690e+000	 1.3415434695e+000	-1.2860168605e+000
 1.6609668132e+000	 1.3599226793e+000	-1.3498113550e+000
 1.6458772850e+000	 1.3781467980e+000	-1.4091477045e+000
 1.6305803147e+000	 1.3962122529e+000	-1.4607062975e+000
 1.6150784131e+000	 1.4141155221e+000	-1.5011967954e+000
 1.5993741704e+000	 1.4318531372e+000	-1.5273629009e+000
 1.7687172550e+000	 1.2629440579e+000	-9.4358425873e-001
 1.7547491384e+000	 1.2822807447e+000	-1.0038731901e+000
 1.7405575068e+000	 1.3014791917e+000	-1.0689626861e+000
 1.7261443948e+000	 1.3205355593e+000	-1.1365519442e+000
 1.7115119245e+000	 1.3394460474e+000	-1.2045051898e+000
 1.6966623040e+000	 1.3582068979e+000	-1.2732090447e+000
 1.6815978267e+000	 1.3768143974e+000	-1.3403531021e+000
 1.6663208702e+000	 1.3952648795e+000	-1.4026064966e+000
 1.6508338949e+000	 1.4135547269e+000	-1.4566644963e+000
 1.6351394428e+000	 1.4316803742e+000	-1.4992533531e+000
 1.6192401364e+000	 1.4496383098e+000	-1.5271351004e+000
 1.7904171104e+000	 1.2784387354e+000	-9.3194321732e-001
 1.7762776232e+000	 1.2980126581e+000	-9.8927964068e-001
 1.7619118787e+000	 1.3174466451e+000	-1.0520725801e+000
 1.7473219367e+000	 1.3367368095e+000	-1.1181529886e+000
 1.7325099451e+000	 1.3558793046e+000	-1.1875484744e+000
 1.7174781390e+000	 1.3748703262e+000	-1.2584138769e+000
 1.7022288403e+000	 1.3937061155e+000	-1.3274833031e+000
 1.6867644554e+000	 1.4123829610e+000	-1.3915121571e+000
 1.6710874751e+000	 1.4308972010e+000	-1.4472819340e+000
 1.6552004726e+000	 1.4492452264e+000	-1.4916049725e+000
 1.6391061023e+000	 1.4674234824e+000	-1.5213291538e+000
 1.8121169658e+000	 1.2939334128e+000	-9.2042737361e-001
 1.7978061080e+000	 1.3137445715e+000	-9.7455068125e-001
 1.7832662507e+000	 1.3334140984e+000	-1.0347049774e+000
 1.7684994786e+000	 1.3529380596e+000	-1.1004312844e+000
 1.7535079656e+000	 1.3723125617e+000	-1.1705225000e+000
 1.7382939741e+000	 1.3915337546e+000	-1.2418557202e+000
 1.7228598538e+000	 1.4105978337e+000	-1.3113232561e+000
 1.7072080406e+000	 1.4295010425e+000	-1.3758372258e+000
 1.6913410553e+000	 1.4482396751e+000	-1.4323341210e+000
 1.6752615023e+000	 1.4668100785e+000	-1.4777793329e+000
 1.6589720683e+000	 1.4852086550e+000	-1.5091716223e+000
 1.8338168211e+000	 1.3094280903e+000	-9.1060139968e-001
 1.8193345928e+000	 1.3294764849e+000	-9.6140760299e-001
 1.8046206227e+000	 1.3493815518e+000	-1.0196173369e+000
 1.7896770205e+000	 1.3691393097e+000	-1.0846332041e+000
 1.7745059861e+000	 1.3887458189e+000	-1.1536117246e+000
 1.7591098091e+000	 1.4081971829e+000	-1.2236602875e+000
 1.7434908673e+000	 1.4274895518e+000	-1.2918988585e+000
 1.7276516258e+000	 1.4466191240e+000	-1.3554642152e+000
 1.7115946355e+000	 1.4655821492e+000	-1.4115141571e+000
 1.6953225320e+000	 1.4843749307e+000	-1.4572316775e+000
 1.6788380342e+000	 1.5029938276e+000	-1.4898290801e+000
 1.8555166765e+000	 1.3249227678e+000	-9.0399803397e-001
 1.8408630775e+000	 1.3452083983e+000	-9.5193047724e-001
 1.8259749946e+000	 1.3653490051e+000	-1.0083459225e+000
 1.8108545623e+000	 1.3853405599e+000	-1.0708713715e+000
 1.7955040066e+000	 1.4051790761e+000	-1.1369080319e+000
 1.7799256442e+000	 1.4248606113e+000	-1.2038619549e+000
 1.7641218809e+000	 1.4443812699e+000	-1.2691477894e+000
 1.7480952110e+000	 1.4637372054e+000	-1.3301925310e+000
 1.7318482157e+000	 1.4829246232e+000	-1.3844392509e+000
 1.7153835617e+000	 1.5019397828e+000	-1.4293507880e+000
 1.6987040002e+000	 1.5207790002e+000	-1.4624133907e+000
 1.8772165319e+000	 1.3404174452e+000	-9.0222160570e-001
 1.8623915623e+000	 1.3609403118e+000	-9.4784727081e-001
 1.8473293666e+000	 1.3813164584e+000	-1.0009066660e+000
 1.8320321042e+000	 1.4015418100e+000	-1.0591733146e+000
 1.8165020272e+000	 1.4216123332e+000	-1.1204177842e+000
 1.8007414792e+000	 1.4415240397e+000	-1.1824108110e+000
 1.7847528944e+000	 1.4612729880e+000	-1.2429264396e+000
 1.7685387962e+000	 1.4808552869e+000	-1.2997451621e+000
 1.7521017959e+000	 1.5002670973e+000	-1.3506570408e+000
 1.7354445915e+000	 1.5195046350e+000	-1.3934648013e+000
 1.7185699662e+000	 1.5385641728e+000	-1.4259868787e+000
 1.8989163873e+000	 1.3559121227e+000	-9.0690637140e-001
 1.8839200471e+000	 1.3766722252e+000	-9.4911592258e-001
 1.8686837386e+000	 1.3972839118e+000	-9.9723888660e-001
 1.8532096461e+000	 1.4177430601e+000	-1.0494881679e+000
 1.8375000477e+000	 1.4380455904e+000	-1.1040686269e+000
 1.8215573143e+000	 1.4581874680e+000	-1.1591794621e+000
 1.8053839080e+000	 1.4781647061e+000	-1.2130166116e+000
 1.7889823814e+000	 1.4979733684e+000	-1.2637751599e+000
 1.7723553761e+000	 1.5176095714e+000	-1.3096517353e+000
 1.7555056212e+000	 1.5370694871e+000	-1.3488468835e+000
 1.7384359321e+000	 1.5563493455e+000	-1.3795674040e+000
 1.5397762725e+000	 1.3784976194e+000	-1.5012979208e+000
 1.5244672996e+000	 1.3954089816e+000	-1.5253644114e+000
 1.5089687939e+000	 1.4121543980e+000	-1.5575527566e+000
 1.4932834697e+000	 1.4287306986e+000	-1.5954767208e+000
 1.4774141115e+000	 1.4451347731e+000	-1.6367623937e+000
 1.4613635726e+000	 1.4613635726e+000	-1.6790518135e+000
 1.4451347731e+000	 1.4774141115e+000	-1.7200065421e+000
 1.4287306986e+000	 1.4932834697e+000	-1.7573111823e+000
 1.4121543980e+000	 1.5089687939e+000	-1.7886768306e+000
 1.3954089816e+000	 1.5244672996e+000	-1.8118444555e+000
 1.3784976194e+000	 1.5397762725e+000	-1.8245881971e+000
 1.5596422385e+000	 1.3962827920e+000	-1.5138454147e+000
 1.5441357515e+000	 1.4134123421e+000	-1.5348307988e+000
 1.5284372864e+000	 1.4303738054e+000	-1.5617084241e+000
 1.5125495924e+000	 1.4471639710e+000	-1.5926664868e+000
 1.4964754901e+000	 1.4637796884e+000	-1.6258988087e+000
 1.4802178695e+000	 1.4802178695e+000	-1.6596074358e+000
 1.4637796884e+000	 1.4964754901e+000	-1.6920051977e+000
 1.4471639710e+000	 1.5125495924e+000	-1.7213182206e+000
 1.4303738054e+000	 1.5284372864e+000	-1.7457883892e+000
 1.4134123421e+000	 1.5441357515e+000	-1.7636757504e+000
 1.3962827920e+000	 1.5596422385e+000	-1.7732608537e+000
 1.5795082045e+000	 1.4140679646e+000	-1.5227206163e+000
 1.5638042033e+000	 1.4314157026e+000	-1.5422807591e+000
 1.5479057788e+000	 1.4485932128e+000	-1.5657979070e+000
 1.5318157151e+000	 1.4655972434e+000	-1.5919218631e+000
 1.5155368687e+000	 1.4824246038e+000	-1.6193024552e+000
 1.4990721664e+000	 1.4990721664e+000	-1.6465912975e+000
 1.4824246038e+000	 1.5155368687e+000	-1.6724435200e+000
 1.4655972434e+000	 1.5318157151e+000	-1.6955194603e+000
 1.4485932128e+000	 1.5479057788e+000	-1.7144863135e+000
 1.4314157026e+000	 1.5638042033e+000	-1.7280197365e+000
 1.4140679646e+000	 1.5795082045e+000	-1.7348054013e+000
 1.5993741704e+000	 1.4318531372e+000	-1.5273629009e+000
 1.5834726552e+000	 1.4494190631e+000	-1.5467918346e+000
 1.5673742712e+000	 1.4668126202e+000	-1.5685660117e+000
 1.5510818378e+000	 1.4840305158e+000	-1.5916881652e+000
 1.5345982472e+000	 1.5010695191e+000	-1.6151565231e+000
 1.5179264632e+000	 1.5179264632e+000	-1.6379659179e+000
 1.5010695191e+000	 1.5345982472e+000	-1.6591088670e+000
 1.4840305158e+000	 1.5510818378e+000	-1.6775766227e+000
 1.4668126202e+000	 1.5673742712e+000	-1.6923601854e+000
 1.4494190631e+000	 1.5834726552e+000	-1.7024512794e+000
 1.4318531372e+000	 1.5993741704e+000	-1.7068432876e+000
 1.6192401364e+000	 1.4496383098e+000	-1.5271351004e+000
 1.6031411070e+000	 1.4674224236e+000	-1.5473808061e+000
 1.5868427636e+000	 1.4850320276e+000	-1.5687111070e+000
 1.5703479605e+000	 1.5024637881e+000	-1.5903769330e+000
 1.5536596258e+000	 1.5197144344e+000	-1.6116212254e+000
 1.5367807601e+000	 1.5367807601e+000	-1.6316795742e+000
 1.5197144344e+000	 1.5536596258e+000	-1.6497808290e+000
 1.5024637881e+000	 1.5703479605e+000	-1.6651476805e+000
 1.4850320276e+000	 1.5868427636e+000	-1.6769972099e+000
 1.4674224236e+000	 1.6031411070e+000	-1.6845414035e+000
 1.4496383098e+000	 1.6192401364e+000	-1.6869876321e+000
 1.6391061023e+000	 1.4674234824e+000	-1.5213291538e+000
 1.6228095589e+000	 1.4854257841e+000	-1.5430084012e+000
 1.6063112560e+000	 1.5032514350e+000	-1.5648889713e+000
 1.5896140832e+000	 1.5208970605e+000	-1.5863690098e+000
 1.5727210044e+000	 1.5383593497e+000	-1.6068362133e+000
 1.5556350570e+000	 1.5556350570e+000	-1.6256681710e+000
 1.5383593497e+000	 1.5727210044e+000	-1.6422326804e+000
 1.5208970605e+000	 1.5896140832e+000	-1.6558880326e+000
 1.5032514350e+000	 1.6063112560e+000	-1.6659832649e+000
 1.4854257841e+000	 1.6228095589e+000	-1.6718583795e+000
 1.4674234824e+000	 1.6391061023e+000	-1.6728445271e+000
 1.6589720683e+000	 1.4852086550e+000	-1.5091716223e+000
 1.6424780107e+000	 1.5034291446e+000	-1.5325839384e+000
 1.6257797485e+000	 1.5214708424e+000	-1.5557166397e+000
 1.6088802058e+000	 1.5393303329e+000	-1.5780176789e+000
 1.5917823829e+000	 1.5570042650e+000	-1.5989230997e+000
 1.5744893539e+000	 1.5744893539e+000	-1.6178572577e+000
 1.5570042650e+000	 1.5917823829e+000	-1.6342330114e+000
 1.5393303329e+000	 1.6088802058e+000	-1.6474518795e+000
 1.5214708424e+000	 1.6257797485e+000	-1.6569041615e+000
 1.5034291446e+000	 1.6424780107e+000	-1.6619690216e+000
 1.4852086550e+000	 1.6589720683e+000	-1.6620145329e+000
 1.6788380342e+000	 1.5029938276e+000	-1.4898290801e+000
 1.6621464626e+000	 1.5214325051e+000	-1.5149699109e+000
 1.6452482409e+000	 1.5396902497e+000	-1.5397762506e+000
 1.6281463285e+000	 1.5577636052e+000	-1.5636518518e+000
 1.6108437615e+000	 1.5756491803e+000	-1.5859880795e+000
 1.5933436508e+000	 1.5933436508e+000	-1.6061641818e+000
 1.5756491803e+000	 1.6108437615e+000	-1.6235475240e+000
 1.5577636052e+000	 1.6281463285e+000	-1.6374937828e+000
 1.5396902497e+000	 1.6452482409e+000	-1.6473470973e+000
 1.5214325051e+000	 1.6621464626e+000	-1.6524401745e+000
 1.5029938276e+000	 1.6788380342e+000	-1.6520943494e+000
 1.6987040002e+000	 1.5207790002e+000	-1.4624133907e+000
 1.6818149144e+000	 1.5394358656e+000	-1.4889865160e+000
 1.6647167333e+000	 1.5579096571e+000	-1.5156188921e+000
 1.6474124512e+000	 1.5761968776e+000	-1.5415793059e+000
 1.6299051401e+000	 1.5942940957e+000	-1.5661246413e+000
 1.6121979477e+000	 1.6121979477e+000	-1.5885003670e+000
 1.5942940957e+000	 1.6299051401e+000	-1.6079409791e+000
 1.5761968776e+000	 1.6474124512e+000	-1.6236703938e+000
 1.5579096571e+000	 1.6647167333e+000	-1.6349022870e+000
 1.5394358656e+000	 1.6818149144e+000	-1.6408403771e+000
 1.5207790002e+000	 1.6987040002e+000	-1.6406786506e+000
 1.7185699662e+000	 1.5385641728e+000	-1.4259868787e+000
 1.7014833663e+000	 1.5574392261e+000	-1.4534161345e+000
 1.6841852257e+000	 1.5761290645e+000	-1.4817684479e+000
 1.6666785739e+000	 1.5946301500e+000	-1.5100899652e+000
 1.6489665187e+000	 1.6129390110e+000	-1.5374163607e+000
 1.6310522446e+000	 1.6310522446e+000	-1.5627737059e+000
 1.6129390110e+000	 1.6489665187e+000	-1.5851792834e+000
 1.5946301500e+000	 1.6666785739e+000	-1.6036423372e+000
 1.5761290645e+000	 1.6841852257e+000	-1.6171647560e+000
 1.5574392261e+000	 1.7014833663e+000	-1.6247416859e+000
 1.5385641728e+000	 1.7185699662e+000	-1.6253620694e+000
 1.7384359321e+000	 1.5563493455e+000	-1.3795674040e+000
 1.7211518181e+000	 1.5754425866e+000	-1.4070077630e+000
 1.7036537181e+000	 1.5943484719e+000	-1.4367254432e+000
 1.6859446966e+000	 1.6130634224e+000	-1.4674592230e+000
 1.6680278972e+000	 1.6315839263e+000	-1.4979397705e+000
 1.6499065415e+000	 1.6499065415e+000	-1.5268910577e+000
 1.6315839263e+000	 1.6680278972e+000	-1.5530317031e+000
 1.6130634224e+000	 1.6859446966e+000	-1.5750762375e+000
 1.5943484719e+000	 1.7036537181e+000	-1.5917362838e+000
 1.5754425866e+000	 1.7211518181e+000	-1.6017216484e+000
 1.5563493455e+000	 1.7384359321e+000	-1.6037413187e+000
 1.3784976194e+000	 1.5397762725e+000	-1.8245881971e+000
 1.3614209657e+000	 1.5548953239e+000	-1.8314290292e+000
 1.3441848306e+000	 1.5698195741e+000	-1.8373823896e+000
 1.3267925536e+000	 1.5845465294e+000	-1.8414493773e+000
 1.3092475249e+000	 1.5990737725e+000	-1.8467627036e+000
 1.2915531845e+000	 1.6133989638e+000	-1.8524981358e+000
 1.2737130187e+000	 1.6275198424e+000	-1.8564730768e+000
 1.2557305588e+000	 1.6414342274e+000	-1.8564834343e+000
 1.2376093784e+000	 1.6551400189e+000	-1.8503112537e+000
 1.2193530910e+000	 1.6686351992e+000	-1.8357323851e+000
 1.2009653480e+000	 1.6819178335e+000	-1.8105241583e+000
 1.3962827920e+000	 1.5596422385e+000	-1.7732608537e+000
 1.3789858178e+000	 1.5749563537e+000	-1.7790677147e+000
 1.3615273047e+000	 1.5900731543e+000	-1.7857000928e+000
 1.3439106350e+000	 1.6049901146e+000	-1.7915742855e+000
 1.3261392431e+000	 1.6197047861e+000	-1.7955716492e+000
 1.3082166128e+000	 1.6342147989e+000	-1.8001221052e+000
 1.2901462759e+000	 1.6485178629e+000	-1.8038919669e+000
 1.2719318089e+000	 1.6626117692e+000	-1.8044382913e+000
 1.2535768317e+000	 1.6764943909e+000	-1.7992994411e+000
 1.2350850044e+000	 1.6901636840e+000	-1.7860033433e+000
 1.2164600255e+000	 1.7036176889e+000	-1.7620757554e+000
 1.4140679646e+000	 1.5795082045e+000	-1.7348054013e+000
 1.3965506700e+000	 1.5950173834e+000	-1.7394127182e+000
 1.3788697788e+000	 1.6103267345e+000	-1.7461688251e+000
 1.3610287165e+000	 1.6254336998e+000	-1.7534006272e+000
 1.3430309612e+000	 1.6403357996e+000	-1.7594298304e+000
 1.3248800412e+000	 1.6550306339e+000	-1.7630958399e+000
 1.3065795330e+000	 1.6695158835e+000	-1.7660175387e+000
 1.2881330591e+000	 1.6837893111e+000	-1.7662947898e+000
 1.2695442851e+000	 1.6978487628e+000	-1.7612576366e+000
 1.2508169178e+000	 1.7116921688e+000	-1.7482215183e+000
 1.2319547029e+000	 1.7253175442e+000	-1.7244960700e+000
 1.4318531372e+000	 1.5993741704e+000	-1.7068432876e+000
 1.4141155221e+000	 1.6150784131e+000	-1.7101736474e+000
 1.3962122529e+000	 1.6305803147e+000	-1.7166047657e+000
 1.3781467980e+000	 1.6458772850e+000	-1.7244128222e+000
 1.3599226793e+000	 1.6609668132e+000	-1.7318663304e+000
 1.3415434695e+000	 1.6758464690e+000	-1.7372281712e+000
 1.3230127902e+000	 1.6905139040e+000	-1.7393356830e+000
 1.3043343092e+000	 1.7049668530e+000	-1.7388208523e+000
 1.2855117384e+000	 1.7192031348e+000	-1.7332490491e+000
 1.2665488313e+000	 1.7332206536e+000	-1.7197571416e+000
 1.2474493804e+000	 1.7470173996e+000	-1.6954725737e+000
 1.4496383098e+000	 1.6192401364e+000	-1.6869876321e+000
 1.4316803742e+000	 1.6351394428e+000	-1.6890452451e+000
 1.4135547269e+000	 1.6508338949e+000	-1.6948017851e+000
 1.3952648795e+000	 1.6663208702e+000	-1.7025201395e+000
 1.3768143974e+000	 1.6815978267e+000	-1.7104535896e+000
 1.3582068979e+000	 1.6966623040e+000	-1.7168478011e+000
 1.3394460474e+000	 1.7115119245e+000	-1.7199427829e+000
 1.3205355593e+000	 1.7261443948e+000	-1.7185388517e+000
 1.3014791917e+000	 1.7405575068e+000	-1.7120814265e+000
 1.2822807447e+000	 1.7547491384e+000	-1.6977146557e+000
 1.2629440579e+000	 1.7687172550e+000	-1.6724162835e+000
 1.4674234824e+000	 1.6391061023e+000	-1.6728445271e+000
 1.4492452264e+000	 1.6552004726e+000	-1.6737090194e+000
 1.4308972010e+000	 1.6710874751e+000	-1.6785334517e+000
 1.4123829610e+000	 1.6867644554e+000	-1.6856036846e+000
 1.3937061155e+000	 1.7022288403e+000	-1.6931945556e+000
 1.3748703262e+000	 1.7174781390e+000	-1.6995717563e+000
 1.3558793046e+000	 1.7325099451e+000	-1.7029936759e+000
 1.3367368095e+000	 1.7473219367e+000	-1.7017132085e+000
 1.3174466451e+000	 1.7619118787e+000	-1.6943184766e+000
 1.2980126581e+000	 1.7762776232e+000	-1.6789446324e+000
 1.2784387354e+000	 1.7904171104e+000	-1.6524741849e+000
 1.4852086550e+000	 1.6589720683e+000	-1.6620145329e+000
 1.4668100785e+000	 1.6752615023e+000	-1.6618350442e+000
 1.4482396751e+000	 1.6913410553e+000	-1.6655551806e+000
 1.4295010425e+000	 1.7072080406e+000	-1.6715189362e+000
 1.4105978337e+000	 1.7228598538e+000	-1.6780583839e+000
 1.3915337546e+000	 1.7382939741e+000	-1.6834953719e+000
 1.3723125617e+000	 1.7535079656e+000	-1.6861431800e+000
 1.3529380596e+000	 1.7684994786e+000	-1.6843081382e+000
 1.3334140984e+000	 1.7832662507e+000	-1.6762912075e+000
 1.3137445715e+000	 1.7978061080e+000	-1.6600555628e+000
 1.2939334128e+000	 1.8121169658e+000	-1.6325414794e+000
 1.5029938276e+000	 1.6788380342e+000	-1.6520943494e+000
 1.4843749307e+000	 1.6953225320e+000	-1.6510839148e+000
 1.4655821492e+000	 1.7115946355e+000	-1.6536065126e+000
 1.4466191240e+000	 1.7276516258e+000	-1.6580983842e+000
 1.4274895518e+000	 1.7434908673e+000	-1.6629834689e+000
 1.4081971829e+000	 1.7591098091e+000	-1.6666748508e+000
 1.3887458189e+000	 1.7745059861e+000	-1.6675761601e+000
 1.3691393097e+000	 1.7896770205e+000	-1.6640829318e+000
 1.3493815518e+000	 1.8046206227e+000	-1.6545839230e+000
 1.3294764849e+000	 1.8193345928e+000	-1.6374255296e+000
 1.3094280903e+000	 1.8338168211e+000	-1.6092736730e+000
 1.5207790002e+000	 1.6987040002e+000	-1.6406786506e+000
 1.5019397828e+000	 1.7153835617e+000	-1.6391088460e+000
 1.4829246232e+000	 1.7318482157e+000	-1.6404135127e+000
 1.4637372054e+000	 1.7480952110e+000	-1.6431542626e+000
 1.4443812699e+000	 1.7641218809e+000	-1.6458805396e+000
 1.4248606113e+000	 1.7799256442e+000	-1.6471307500e+000
 1.4051790761e+000	 1.7955040066e+000	-1.6454333409e+000
 1.3853405599e+000	 1.8108545623e+000	-1.6393078293e+000
 1.3653490051e+000	 1.8259749946e+000	-1.6272657858e+000
 1.3452083983e+000	 1.8408630775e+000	-1.6078117778e+000
 1.3249227678e+000	 1.8555166765e+000	-1.5790985185e+000
 1.5385641728e+000	 1.7185699662e+000	-1.6253620694e+000
 1.5195046350e+000	 1.7354445915e+000	-1.6235579018e+000
 1.5002670973e+000	 1.7521017959e+000	-1.6236912785e+000
 1.4808552869e+000	 1.7685387962e+000	-1.6244813670e+000
 1.4612729880e+000	 1.7847528944e+000	-1.6246358147e+000
 1.4415240397e+000	 1.8007414792e+000	-1.6228514977e+000
 1.4216123332e+000	 1.8165020272e+000	-1.6178152078e+000
 1.4015418100e+000	 1.8320321042e+000	-1.6082042843e+000
 1.3813164584e+000	 1.8473293666e+000	-1.5926871944e+000
 1.3609403118e+000	 1.8623915623e+000	-1.5699240687e+000
 1.3404174452e+000	 1.8772165319e+000	-1.5385671982e+000
 1.5563493455e+000	 1.7384359321e+000	-1.6037413187e+000
 1.5370694871e+000	 1.7555056212e+000	-1.6020763454e+000
 1.5176095714e+000	 1.7723553761e+000	-1.6011465504e+000
 1.4979733684e+000	 1.7889823814e+000	-1.5998599524e+000
 1.4781647061e+000	 1.8053839080e+000	-1.5971142136e+000
 1.4581874680e+000	 1.8215573143e+000	-1.5917969391e+000
 1.4380455904e+000	 1.8375000477e+000	-1.5827859075e+000
 1.4177430601e+000	 1.8532096461e+000	-1.5689492369e+000
 1.3972839118e+000	 1.8686837386e+000	-1.5491454929e+000
 1.3766722252e+000	 1.8839200471e+000	-1.5222237470e+000
 1.3559121227e+000	 1.8989163873e+000	-1.4870235926e+000
 1.2009653480e+000	 1.6819178335e+000	-1.8105241583e+000
 1.1824498355e+000	 1.6949860702e+000	-1.7822682276e+000
 1.1638102713e+000	 1.7078381404e+000	-1.7587514615e+000
 1.1450504030e+000	 1.7204723598e+000	-1.7381042876e+000
 1.1261740068e+000	 1.7328871300e+000	-1.7185155402e+000
 1.1071848845e+000	 1.7450809388e+000	-1.6982393845e+000
 1.0880868613e+000	 1.7570523608e+000	-1.6756020576e+000
 1.0688837832e+000	 1.7688000574e+000	-1.6490084096e+000
 1.0495795149e+000	 1.7803227775e+000	-1.6169482268e+000
 1.0301779370e+000	 1.7916193577e+000	-1.5780023207e+000
 1.0106829438e+000	 1.8026887218e+000	-1.5308483682e+000
 1.2164600255e+000	 1.7036176889e+000	-1.7620757554e+000
 1.1977056286e+000	 1.7168545300e+000	-1.7353682399e+000
 1.1788255794e+000	 1.7298724157e+000	-1.7140049306e+000
 1.1598236741e+000	 1.7426696400e+000	-1.6959620156e+000
 1.1407037375e+000	 1.7552445837e+000	-1.6792726406e+000
 1.1214696203e+000	 1.7675957153e+000	-1.6620342217e+000
 1.1021251972e+000	 1.7797215907e+000	-1.6424155724e+000
 1.0826743639e+000	 1.7916208544e+000	-1.6186638256e+000
 1.0631210347e+000	 1.8032922390e+000	-1.5891111337e+000
 1.0434691405e+000	 1.8147345659e+000	-1.5521811297e+000
 1.0237226258e+000	 1.8259467454e+000	-1.5063951331e+000
 1.2319547029e+000	 1.7253175442e+000	-1.7244960700e+000
 1.2129614217e+000	 1.7387229899e+000	-1.6982349936e+000
 1.1938408876e+000	 1.7519066910e+000	-1.6779172015e+000
 1.1745969453e+000	 1.7648669201e+000	-1.6613770745e+000
 1.1552334681e+000	 1.7776020374e+000	-1.6465032721e+000
 1.1357543561e+000	 1.7901104917e+000	-1.6312464205e+000
 1.1161635331e+000	 1.8023908206e+000	-1.6136266143e+000
 1.0964649445e+000	 1.8144416513e+000	-1.5917407102e+000
 1.0766625546e+000	 1.8262617004e+000	-1.5637693968e+000
 1.0567603441e+000	 1.8378497742e+000	-1.5279840216e+000
 1.0367623078e+000	 1.8492047689e+000	-1.4827531609e+000
 1.2474493804e+000	 1.7470173996e+000	-1.6954725737e+000
 1.2282172147e+000	 1.7605914497e+000	-1.6688669871e+000
 1.2088561958e+000	 1.7739409664e+000	-1.6487757149e+000
 1.1893702164e+000	 1.7870642003e+000	-1.6329031099e+000
 1.1697631988e+000	 1.7999594911e+000	-1.6190039240e+000
 1.1500390919e+000	 1.8126252681e+000	-1.6048913598e+000
 1.1302018690e+000	 1.8250600506e+000	-1.5884449343e+000
 1.1102555251e+000	 1.8372624483e+000	-1.5676181353e+000
 1.0902040744e+000	 1.8492311618e+000	-1.5404458522e+000
 1.0700515476e+000	 1.8609649824e+000	-1.5050515638e+000
 1.0498019898e+000	 1.8724627925e+000	-1.4596542677e+000
 1.2629440579e+000	 1.7687172550e+000	-1.6724162835e+000
 1.2434730078e+000	 1.7824599095e+000	-1.6449760719e+000
 1.2238715039e+000	 1.7959752417e+000	-1.6245723290e+000
 1.2041434875e+000	 1.8092614805e+000	-1.6087905430e+000
 1.1842929294e+000	 1.8223169448e+000	-1.5952615519e+000
 1.1643238277e+000	 1.8351400445e+000	-1.5816699437e+000
 1.1442402050e+000	 1.8477292805e+000	-1.5657622715e+000
 1.1240461058e+000	 1.8600832453e+000	-1.5453550614e+000
 1.1037455942e+000	 1.8722006232e+000	-1.5183425967e+000
 1.0833427511e+000	 1.8840801906e+000	-1.4827044595e+000
 1.0628416718e+000	 1.8957208160e+000	-1.4365128153e+000
 1.2784387354e+000	 1.7904171104e+000	-1.6524741849e+000
 1.2587288009e+000	 1.8043283694e+000	-1.6240003381e+000
 1.2388868121e+000	 1.8180095171e+000	-1.6030165802e+000
 1.2189167586e+000	 1.8314587607e+000	-1.5870001195e+000
 1.1988226600e+000	 1.8446743986e+000	-1.5734673232e+000
 1.1786085635e+000	 1.8576548210e+000	-1.5599824528e+000
 1.1582785409e+000	 1.8703985105e+000	-1.5441662172e+000
 1.1378366864e+000	 1.8829040423e+000	-1.5237041220e+000
 1.1172871140e+000	 1.8951700847e+000	-1.4963545980e+000
 1.0966339547e+000	 1.9071953989e+000	-1.4599568896e+000
 1.0758813538e+000	 1.9189788395e+000	-1.4124386891e+000
 1.2939334128e+000	 1.8121169658e+000	-1.6325414794e+000
 1.2739845939e+000	 1.8261968292e+000	-1.6031167821e+000
 1.2539021203e+000	 1.8400437924e+000	-1.5815486887e+000
 1.2336900297e+000	 1.8536560409e+000	-1.5652161688e+000
 1.2133523907e+000	 1.8670318523e+000	-1.5515300470e+000
 1.1928932993e+000	 1.8801695974e+000	-1.5379420588e+000
 1.1723168768e+000	 1.8930677404e+000	-1.5219537286e+000
 1.1516272671e+000	 1.9057248393e+000	-1.5011250493e+000
 1.1308286339e+000	 1.9181395461e+000	-1.4730829449e+000
 1.1099251582e+000	 1.9303106071e+000	-1.4355294986e+000
 1.0889210358e+000	 1.9422368631e+000	-1.3862499299e+000
 1.3094280903e+000	 1.8338168211e+000	-1.6092736730e+000
 1.2892403870e+000	 1.8480652890e+000	-1.5792537746e+000
 1.2689174284e+000	 1.8620780678e+000	-1.5573523287e+000
 1.2484633008e+000	 1.8758533210e+000	-1.5408595992e+000
 1.2278821213e+000	 1.8893893060e+000	-1.5270893150e+000
 1.2071780351e+000	 1.9026843738e+000	-1.5133880316e+000
 1.1863552127e+000	 1.9157369704e+000	-1.4971443212e+000
 1.1654178477e+000	 1.9285456363e+000	-1.4757977701e+000
 1.1443701537e+000	 1.9411090075e+000	-1.4468477649e+000
 1.1232163617e+000	 1.9534258153e+000	-1.4078620515e+000
 1.1019607178e+000	 1.9654948866e+000	-1.3564850489e+000
 1.3249227678e+000	 1.8555166765e+000	-1.5790985185e+000
 1.3044961801e+000	 1.8699337489e+000	-1.5491033443e+000
 1.2839327366e+000	 1.8841123431e+000	-1.5273671831e+000
 1.2632365720e+000	 1.8980506012e+000	-1.5111006499e+000
 1.2424118520e+000	 1.9117467597e+000	-1.4975283763e+000
 1.2214627709e+000	 1.9251991503e+000	-1.4838986628e+000
 1.2003935486e+000	 1.9384062003e+000	-1.4674929657e+000
 1.1792084284e+000	 1.9513664333e+000	-1.4456352000e+000
 1.1579116735e+000	 1.9640784689e+000	-1.4157008386e+000
 1.1365075653e+000	 1.9765410235e+000	-1.3751257916e+000
 1.1150003998e+000	 1.9887529101e+000	-1.3214150493e+000
 1.3404174452e+000	 1.8772165319e+000	-1.5385671982e+000
 1.3197519731e+000	 1.8918022087e+000	-1.5091332938e+000
 1.2989480448e+000	 1.9061466185e+000	-1.4883012997e+000
 1.2780098431e+000	 1.9202478814e+000	-1.4728714193e+000
 1.2569415826e+000	 1.9341042134e+000	-1.4599867694e+000
 1.2357475067e+000	 1.9477139267e+000	-1.4468039298e+000
 1.2144318846e+000	 1.9610754303e+000	-1.4305027133e+000
 1.1929990090e+000	 1.9741872303e+000	-1.4082957592e+000
 1.1714531933e+000	 1.9870479304e+000	-1.3774379341e+000
 1.1497987688e+000	 1.9996562318e+000	-1.3352355206e+000
 1.1280400818e+000	 2.0120109336e+000	-1.2792252599e+000
 1.3559121227e+000	 1.8989163873e+000	-1.4870235926e+000
 1.3350077662e+000	 1.9136706685e+000	-1.4556262217e+000
 1.3139633529e+000	 1.9281808938e+000	-1.4366432652e+000
 1.2927831142e+000	 1.9424451616e+000	-1.4228781880e+000
 1.2714713133e+000	 1.9564616671e+000	-1.4113727280e+000
 1.2500322424e+000	 1.9702287031e+000	-1.3991979201e+000
 1.2284702205e+000	 1.9837446602e+000	-1.3834370716e+000
 1.2067895896e+000	 1.9970080273e+000	-1.3611956327e+000
 1.1849947132e+000	 2.0100173918e+000	-1.3295690966e+000
 1.1630899723e+000	 2.0227714400e+000	-1.2858378674e+000
 1.1410797639e+000	 2.0352689572e+000	-1.2276028115e+000
 1.0106829438e+000	 1.8026887218e+000	-1.5308483682e+000
 9.9110138481e-001	 1.8135282730e+000	-1.4819533890e+000
 9.7143425637e-001	 1.8241387894e+000	-1.4372923962e+000
 9.5168547831e-001	 1.8345194597e+000	-1.3950909202e+000
 9.3185897448e-001	 1.8446695596e+000	-1.3537271138e+000
 9.1195867032e-001	 1.8545884519e+000	-1.3117483871e+000
 8.9198849053e-001	 1.8642755859e+000	-1.2678766708e+000
 8.7195235673e-001	 1.8737304971e+000	-1.2210132432e+000
 8.5185418521e-001	 1.8829528065e+000	-1.1702431100e+000
 8.3169788466e-001	 1.8919422205e+000	-1.1148389323e+000
 8.1148735391e-001	 1.9006985296e+000	-1.0542644950e+000
 1.0237226258e+000	 1.8259467454e+000	-1.5063951331e+000
 1.0038884284e+000	 1.8369261468e+000	-1.4586952899e+000
 9.8396755761e-001	 1.8476735586e+000	-1.4155632467e+000
 9.6396398374e-001	 1.8581881587e+000	-1.3751126426e+000
 9.4388168129e-001	 1.8684692137e+000	-1.3356142500e+000
 9.2372462635e-001	 1.8785160781e+000	-1.2955119139e+000
 9.0349679424e-001	 1.8883281941e+000	-1.2534280870e+000
 8.8320215720e-001	 1.8979050911e+000	-1.2081689175e+000
 8.6284468205e-001	 1.9072463854e+000	-1.1587288811e+000
 8.4242832788e-001	 1.9163517795e+000	-1.1042949524e+000
 8.2195704385e-001	 1.9252210612e+000	-1.0442503067e+000
 1.0367623078e+000	 1.8492047689e+000	-1.4827531609e+000
 1.0166754721e+000	 1.8603240206e+000	-1.4355108323e+000
 9.9650085886e-001	 1.8712083277e+000	-1.3932874948e+000
 9.7624248917e-001	 1.8818568577e+000	-1.3540230524e+000
 9.5590438809e-001	 1.8922688678e+000	-1.3158651989e+000
 9.3549058237e-001	 1.9024437043e+000	-1.2771273794e+000
 9.1500509795e-001	 1.9123808022e+000	-1.2363060948e+000
 8.9445195768e-001	 1.9220796851e+000	-1.1920862856e+000
 8.7383517888e-001	 1.9315399643e+000	-1.1433462492e+000
 8.5315877110e-001	 1.9407613385e+000	-1.0891620864e+000
 8.3242673380e-001	 1.9497435928e+000	-1.0288116685e+000
 1.0498019898e+000	 1.8724627925e+000	-1.4596542677e+000
 1.0294625157e+000	 1.8837218945e+000	-1.4122374409e+000
 1.0090341601e+000	 1.8947430968e+000	-1.3703680300e+000
 9.8852099460e-001	 1.9055255567e+000	-1.3318230142e+000
 9.6792709490e-001	 1.9160685219e+000	-1.2945879096e+000
 9.4725653839e-001	 1.9263713305e+000	-1.2568195156e+000
 9.2651340167e-001	 1.9364334104e+000	-1.2168624820e+000
 9.0570175815e-001	 1.9462542791e+000	-1.1732550203e+000
 8.8482567572e-001	 1.9558335432e+000	-1.1247341387e+000
 8.6388921433e-001	 1.9651708975e+000	-1.0702403947e+000
 8.4289642374e-001	 1.9742661244e+000	-1.0089221579e+000
 1.0628416718e+000	 1.8957208160e+000	-1.4365128153e+000
 1.0422495593e+000	 1.9071197683e+000	-1.3883616411e+000
 1.0215674613e+000	 1.9182778660e+000	-1.3463843757e+000
 1.0007995000e+000	 1.9291942557e+000	-1.3082048903e+000
 9.7994980170e-001	 1.9398681760e+000	-1.2715844859e+000
 9.5902249441e-001	 1.9502989566e+000	-1.2345096682e+000
 9.3802170538e-001	 1.9604860185e+000	-1.1951478895e+000
 9.1695155863e-001	 1.9704288732e+000	-1.1518656470e+000
 8.9581617255e-001	 1.9801271221e+000	-1.1032340661e+000
 8.7461965755e-001	 1.9895804564e+000	-1.0480339892e+000
 8.5336611368e-001	 1.9987886560e+000	-9.8526056371e-001
 1.0758813538e+000	 1.9189788395e+000	-1.4124386891e+000
 1.0550366030e+000	 1.9305176421e+000	-1.3630807486e+000
 1.0341007626e+000	 1.9418126351e+000	-1.3206541488e+000
 1.0130780055e+000	 1.9528629547e+000	-1.2825503566e+000
 9.9197250851e-001	 1.9636678301e+000	-1.2463625921e+000
 9.7078845043e-001	 1.9742265828e+000	-1.2098268428e+000
 9.4953000909e-001	 1.9845386267e+000	-1.1709225165e+000
 9.2820135910e-001	 1.9946034672e+000	-1.1278199290e+000
 9.0680666939e-001	 2.0044207010e+000	-1.0790660604e+000
 8.8535010078e-001	 2.0139900154e+000	-1.0245266330e+000
 8.6383580362e-001	 2.0233111876e+000	-9.6342133985e-001
 1.0889210358e+000	 1.9422368631e+000	-1.3862499299e+000
 1.0678236466e+000	 1.9539155159e+000	-1.3353025577e+000
 1.0466340638e+000	 1.9653474042e+000	-1.2921691753e+000
 1.0253565109e+000	 1.9765316538e+000	-1.2539990448e+000
 1.0039952153e+000	 1.9874674842e+000	-1.2181465590e+000
 9.8255440646e-001	 1.9981542090e+000	-1.1821184602e+000
 9.6103831281e-001	 2.0085912348e+000	-1.1441519321e+000
 9.3945115958e-001	 2.0187780612e+000	-1.1032424058e+000
 9.1779716623e-001	 2.0287142799e+000	-1.0577971047e+000
 8.9608054400e-001	 2.0383995744e+000	-1.0064132102e+000
 8.7430549357e-001	 2.0478337192e+000	-9.4790241692e-001
 1.1019607178e+000	 1.9654948866e+000	-1.3564850489e+000
 1.0806106902e+000	 1.9773133897e+000	-1.3036572729e+000
 1.0591673651e+000	 1.9888821734e+000	-1.2596587455e+000
 1.0376350163e+000	 2.0002003528e+000	-1.2213721424e+000
 1.0160179221e+000	 2.0112671383e+000	-1.1864704036e+000
 9.9432036248e-001	 2.0220818352e+000	-1.1529931663e+000
 9.7254661652e-001	 2.0326438430e+000	-1.1186645304e+000
 9.5070096006e-001	 2.0429526552e+000	-1.0814644352e+000
 9.2878766306e-001	 2.0530078588e+000	-1.0395713339e+000
 9.0681098723e-001	 2.0628091334e+000	-9.9138149082e-001
 8.8477518351e-001	 2.0723562508e+000	-9.3551279285e-001
 1.1150003998e+000	 1.9887529101e+000	-1.3214150493e+000
 1.0933977339e+000	 2.0007112636e+000	-1.2665104015e+000
 1.0717006663e+000	 2.0124169425e+000	-1.2220338744e+000
 1.0499135217e+000	 2.0238690518e+000	-1.1851513443e+000
 1.0280406289e+000	 2.0350667924e+000	-1.1529669398e+000
 1.0060863185e+000	 2.0460094614e+000	-1.1228048533e+000
 9.8405492023e-001	 2.0566964511e+000	-1.0921517973e+000
 9.6195076053e-001	 2.0671272492e+000	-1.0587534219e+000
 9.3977815990e-001	 2.0773014377e+000	-1.0205628857e+000
 9.1754143045e-001	 2.0872186924e+000	-9.7575864618e-001
 8.9524487345e-001	 2.0968787823e+000	-9.2274818485e-001
 1.1280400818e+000	 2.0120109336e+000	-1.2792252599e+000
 1.1061847775e+000	 2.0241091374e+000	-1.2228952115e+000
 1.0842339676e+000	 2.0359517116e+000	-1.1787899323e+000
 1.0621920272e+000	 2.0475377508e+000	-1.1435371681e+000
 1.0400633357e+000	 2.0588664465e+000	-1.1139676890e+000
 1.0178522745e+000	 2.0699370875e+000	-1.0871230979e+000
 9.9556322394e-001	 2.0807490593e+000	-1.0602829460e+000
 9.7320056100e-001	 2.0913018433e+000	-1.0308951773e+000
 9.5076865673e-001	 2.1015950166e+000	-9.9668729919e-001
 9.2827187367e-001	 2.1116282514e+000	-9.5560421992e-001
 9.0571456340e-001	 2.1214013139e+000	-9.0582753973e-001
 1.1410797639e+000	 2.0352689572e+000	-1.2276028115e+000
 1.1189718211e+000	 2.0475070112e+000	-1.1695904472e+000
 1.0967672688e+000	 2.0594864808e+000	-1.1255217874e+000
 1.0744705326e+000	 2.0712064498e+000	-1.0917262433e+000
 1.0520860425e+000	 2.0826661006e+000	-1.0647448115e+000
 1.0296182305e+000	 2.0938647137e+000	-1.0413378552e+000
 1.0070715277e+000	 2.1048016674e+000	-1.0185103351e+000
 9.8445036148e-001	 2.1154764373e+000	-9.9344916471e-001
 9.6175915357e-001	 2.1258885955e+000	-9.6362409813e-001
 9.3900231690e-001	 2.1360378104e+000	-9.2673193913e-001
 9.1618425334e-001	 2.1459238455e+000	-8.8071409009e-001
 8.1148735391e-001	 1.9006985296e+000	-1.0542644950e+000
 7.9122343695e-001	 1.9092228696e+000	-9.9488687431e-001
 7.7091303689e-001	 1.9175138679e+000	-9.4223443215e-001
 7.5056001275e-001	 1.9255715656e+000	-8.9480196045e-001
 7.3016820514e-001	 1.9333960849e+000	-8.5131705979e-001
 7.0974143420e-001	 1.9409876284e+000	-8.1074339417e-001
 6.8928349765e-001	 1.9483464780e+000	-7.7228337389e-001
 6.6879816880e-001	 1.9554729937e+000	-7.3538026629e-001
 6.4828919468e-001	 1.9623676129e+000	-6.9693196649e-001
 6.2776029421e-001	 1.9690308487e+000	-6.5279591998e-001
 6.0721515638e-001	 1.9754632889e+000	-6.0329377419e-001
 8.2195704385e-001	 1.9252210612e+000	-1.0442503067e+000
 8.0143168483e-001	 1.9338553809e+000	-9.8516470110e-001
 7.8085924298e-001	 1.9422533485e+000	-9.3274317422e-001
 7.6024362714e-001	 1.9504150054e+000	-8.8536838523e-001
 7.3958872744e-001	 1.9583404755e+000	-8.4166062382e-001
 7.1889841332e-001	 1.9660299640e+000	-8.0048139717e-001
 6.9817653150e-001	 1.9734837563e+000	-7.6093643334e-001
 6.7742690396e-001	 1.9807022174e+000	-7.2237810053e-001
 6.5665332609e-001	 1.9876857899e+000	-6.8355626505e-001
 6.3585956478e-001	 1.9944349938e+000	-6.3893837390e-001
 6.1504935661e-001	 2.0009504244e+000	-5.8799106336e-001
 8.3242673380e-001	 1.9497435928e+000	-1.0288116685e+000
 8.1163993271e-001	 1.9584878923e+000	-9.6902349658e-001
 7.9080544908e-001	 1.9669928291e+000	-9.1566469777e-001
 7.6992724152e-001	 1.9752584453e+000	-8.6702515260e-001
 7.4900924974e-001	 1.9832848661e+000	-8.2163722337e-001
 7.2805539244e-001	 1.9910722996e+000	-7.7827963784e-001
 7.0706956534e-001	 1.9986210347e+000	-7.3598077936e-001
 6.8605563912e-001	 2.0059314410e+000	-6.9457528555e-001
 6.6501745749e-001	 2.0130039669e+000	-6.5466700696e-001
 6.4395883534e-001	 2.0198391388e+000	-6.1171007095e-001
 6.2288355684e-001	 2.0264375598e+000	-5.6287871839e-001
 8.4289642374e-001	 1.9742661244e+000	-1.0089221579e+000
 8.2184818059e-001	 1.9831204037e+000	-9.4762196732e-001
 8.0075165518e-001	 1.9917323097e+000	-8.9235254395e-001
 7.7961085591e-001	 2.0001018851e+000	-8.4132932678e-001
 7.5842977204e-001	 2.0082292568e+000	-7.9392129642e-001
 7.3721237157e-001	 2.0161146352e+000	-7.4974538336e-001
 7.1596259919e-001	 2.0237583131e+000	-7.0781734899e-001
 6.9468437428e-001	 2.0311606646e+000	-6.6739417340e-001
 6.7338158890e-001	 2.0383221439e+000	-6.2797592852e-001
 6.5205810591e-001	 2.0452432839e+000	-5.8739661630e-001
 6.3071775708e-001	 2.0519246953e+000	-5.4017302239e-001
 8.5336611368e-001	 1.9987886560e+000	-9.8526056371e-001
 8.3205642847e-001	 2.0077529150e+000	-9.2248288650e-001
 8.1069786128e-001	 2.0164717903e+000	-8.6698797986e-001
 7.8929447030e-001	 2.0249453249e+000	-8.1705483969e-001
 7.6785029434e-001	 2.0331736474e+000	-7.7118284630e-001
 7.4636935069e-001	 2.0411569708e+000	-7.2811048910e-001
 7.2485563304e-001	 2.0488955915e+000	-6.8681827439e-001
 7.0331310944e-001	 2.0563898883e+000	-6.4653110224e-001
 6.8174572031e-001	 2.0636403209e+000	-6.0672013624e-001
 6.6015737647e-001	 2.0706474290e+000	-5.6670466399e-001
 6.3855195731e-001	 2.0774118308e+000	-5.2050160540e-001
 8.6383580362e-001	 2.0233111876e+000	-9.6342133985e-001
 8.4226467635e-001	 2.0323854264e+000	-9.0283926807e-001
 8.2064406738e-001	 2.0412112709e+000	-8.4916595991e-001
 7.9897808469e-001	 2.0497887647e+000	-8.0063933665e-001
 7.7727081664e-001	 2.0581180380e+000	-7.5573600081e-001
 7.5552632981e-001	 2.0661993063e+000	-7.1317458564e-001
 7.3374866688e-001	 2.0740328699e+000	-6.7191856271e-001
 7.1194184460e-001	 2.0816191119e+000	-6.3117853598e-001
 6.9010985172e-001	 2.0889584979e+000	-5.9041404834e-001
 6.6825664704e-001	 2.0960515741e+000	-5.4933492546e-001
 6.4638615754e-001	 2.1028989663e+000	-5.0399030744e-001
 8.7430549357e-001	 2.0478337192e+000	-9.4790241692e-001
 8.5247292423e-001	 2.0570179378e+000	-8.8935252421e-001
 8.3059027348e-001	 2.0659507515e+000	-8.3725492481e-001
 8.0866169908e-001	 2.0746322046e+000	-7.8984041391e-001
 7.8669133894e-001	 2.0830624286e+000	-7.4558124229e-001
 7.6468330893e-001	 2.0912416419e+000	-7.0319427628e-001
 7.4264170073e-001	 2.0991701483e+000	-6.6164363429e-001
 7.2057057976e-001	 2.1068483355e+000	-6.2014283142e-001
 6.9847398312e-001	 2.1142766749e+000	-5.7815646099e-001
 6.7635591761e-001	 2.1214557192e+000	-5.3540143995e-001
 6.5422035778e-001	 2.1283861017e+000	-4.9028788019e-001
 8.8477518351e-001	 2.0723562508e+000	-9.3551279285e-001
 8.6268117211e-001	 2.0816504492e+000	-8.7900897804e-001
 8.4053647958e-001	 2.0906902321e+000	-8.2844848366e-001
 8.1834531347e-001	 2.0994756444e+000	-7.8207331841e-001
 7.9611186124e-001	 2.1080068192e+000	-7.3836942729e-001
 7.7384028805e-001	 2.1162839775e+000	-6.9606958398e-001
 7.5153473458e-001	 2.1243074266e+000	-6.5415578278e-001
 7.2919931492e-001	 2.1320775592e+000	-6.1186116460e-001
 7.0683811453e-001	 2.1395948519e+000	-5.6867150937e-001
 6.8445518817e-001	 2.1468598642e+000	-5.2432632399e-001
 6.6205455801e-001	 2.1538732372e+000	-4.7859037791e-001
 8.9524487345e-001	 2.0968787823e+000	-9.2274818485e-001
 8.7288941999e-001	 2.1062829605e+000	-8.6848849252e-001
 8.5048268568e-001	 2.1154297127e+000	-8.1962541483e-001
 8.2802892786e-001	 2.1243190842e+000	-7.7443025632e-001
 8.0553238355e-001	 2.1329512099e+000	-7.3142041134e-001
 7.8299726717e-001	 2.1413263131e+000	-6.8936190789e-001
 7.6042776842e-001	 2.1494447050e+000	-6.4727147810e-001
 7.3782805008e-001	 2.1573067828e+000	-6.0441819404e-001
 7.1520224594e-001	 2.1649130289e+000	-5.6032470421e-001
 6.9255445874e-001	 2.1722640093e+000	-5.1476810304e-001
 6.6988875825e-001	 2.1793603727e+000	-4.6778046197e-001
 9.0571456340e-001	 2.1214013139e+000	-9.0582753973e-001
 8.8309766787e-001	 2.1309154719e+000	-8.5418498375e-001
 8.6042889178e-001	 2.1401691933e+000	-8.0736945939e-001
 8.3771254225e-001	 2.1491625241e+000	-7.6369948246e-001
 8.1495290585e-001	 2.1578956005e+000	-7.2174144992e-001
 7.9215424629e-001	 2.1663686487e+000	-6.8031175051e-001
 7.6932080227e-001	 2.1745819834e+000	-6.3847843403e-001
 7.4645678524e-001	 2.1825360065e+000	-5.9556248214e-001
 7.2356637734e-001	 2.1902312059e+000	-5.5113871979e-001
 7.0065372930e-001	 2.1976681544e+000	-5.0503640271e-001
 6.7772295848e-001	 2.2048475082e+000	-4.5733951213e-001
 9.1618425334e-001	 2.1459238455e+000	-8.8071409009e-001
 8.9330591575e-001	 2.1555479833e+000	-8.3222673913e-001
 8.7037509788e-001	 2.1649086739e+000	-7.8798891674e-001
 8.4739615664e-001	 2.1740059639e+000	-7.4638418848e-001
 8.2437342815e-001	 2.1828399911e+000	-7.0604539361e-001
 8.0131122541e-001	 2.1914109843e+000	-6.6585623406e-001
 7.7821383611e-001	 2.1997192618e+000	-6.2495245928e-001
 7.5508552040e-001	 2.2077652301e+000	-5.8272269414e-001
 7.3193050875e-001	 2.2155493829e+000	-5.3880895329e-001
 7.0875299987e-001	 2.2230722995e+000	-4.9310688054e-001
 6.8555715871e-001	 2.2303346436e+000	-4.4576574757e-001
 6.0721515638e-001	 1.9754632889e+000	-6.0329377419e-001
 5.8665743822e-001	 1.9816655944e+000	-5.5068526613e-001
 5.6609076229e-001	 1.9876384961e+000	-4.9690735228e-001
 5.4551871594e-001	 1.9933827953e+000	-4.4251118861e-001
 5.2494485006e-001	 1.9988993627e+000	-3.8849644294e-001
 5.0437267753e-001	 2.0041891369e+000	-3.3662749767e-001
 4.8380567180e-001	 2.0092531230e+000	-2.8934551439e-001
 4.6324726543e-001	 2.0140923913e+000	-2.4868938929e-001
 4.4270084878e-001	 2.0187080752e+000	-2.1699654496e-001
 4.2216976871e-001	 2.0231013705e+000	-1.9690541566e-001
 4.0165732735e-001	 2.0272735331e+000	-1.9133533755e-001
 6.1504935661e-001	 2.0009504244e+000	-5.8799106336e-001
 5.9422640581e-001	 2.0072327511e+000	-5.3451179498e-001
 5.7339438167e-001	 2.0132827143e+000	-4.8140566389e-001
 5.5255691782e-001	 2.0191011256e+000	-4.2903088219e-001
 5.3171761096e-001	 2.0246888670e+000	-3.7816894938e-001
 5.1088001930e-001	 2.0300468890e+000	-3.3000118066e-001
 4.9004766109e-001	 2.0351762100e+000	-2.8608616204e-001
 4.6922401320e-001	 2.0400779137e+000	-2.4833808225e-001
 4.4841250972e-001	 2.0447531485e+000	-2.1900588218e-001
 4.2761654069e-001	 2.0492031255e+000	-2.0065315564e-001
 4.0683945084e-001	 2.0534291166e+000	-1.9613872891e-001
 6.2288355684e-001	 2.0264375598e+000	-5.6287871839e-001
 6.0179537340e-001	 2.0327999078e+000	-5.1164426995e-001
 5.8069800105e-001	 2.0389269325e+000	-4.6085520577e-001
 5.5959511969e-001	 2.0448194559e+000	-4.1075414846e-001
 5.3849037185e-001	 2.0504783712e+000	-3.6201610313e-001
 5.1738736106e-001	 2.0559046411e+000	-3.1572525338e-001
 4.9628965039e-001	 2.0610992969e+000	-2.7335281619e-001
 4.7520076098e-001	 2.0660634361e+000	-2.3673589274e-001
 4.5412417067e-001	 2.0707982218e+000	-2.0805724268e-001
 4.3306331268e-001	 2.0753048804e+000	-1.8982590166e-001
 4.1202157433e-001	 2.0795847002e+000	-1.8485855535e-001
 6.3071775708e-001	 2.0519246953e+000	-5.4017302239e-001
 6.0936434100e-001	 2.0583670645e+000	-4.9000359860e-001
 5.8800162042e-001	 2.0645711507e+000	-4.4024626706e-001
 5.6663332157e-001	 2.0705377862e+000	-3.9105906116e-001
 5.4526313275e-001	 2.0762678754e+000	-3.4303899841e-001
 5.2389470283e-001	 2.0817623933e+000	-2.9719918939e-001
 5.0253163969e-001	 2.0870223838e+000	-2.5494715433e-001
 4.8117750875e-001	 2.0920489586e+000	-2.1806427013e-001
 4.5983583161e-001	 2.0968432952e+000	-1.8868626115e-001
 4.3851008466e-001	 2.1014066354e+000	-1.6928463817e-001
 4.1720369783e-001	 2.1057402838e+000	-1.6264898326e-001
 6.3855195731e-001	 2.0774118308e+000	-5.2050160540e-001
 6.1693330859e-001	 2.0839342212e+000	-4.7068143719e-001
 5.9530523980e-001	 2.0902153689e+000	-4.2112899332e-001
 5.7367152344e-001	 2.0962561165e+000	-3.7194625660e-001
 5.5203589365e-001	 2.1020573797e+000	-3.2367814930e-001
 5.3040204460e-001	 2.1076201454e+000	-2.7729000844e-001
 5.0877362898e-001	 2.1129454707e+000	-2.3414643473e-001
 4.8715425653e-001	 2.1180344810e+000	-1.9599142309e-001
 4.6554749255e-001	 2.1228883685e+000	-1.6492967200e-001
 4.4395685664e-001	 2.1275083903e+000	-1.4340895966e-001
 4.2238582132e-001	 2.1318958674e+000	-1.3420346773e-001
 6.4638615754e-001	 2.1028989663e+000	-5.0399030744e-001
 6.2450227618e-001	 2.1095013779e+000	-4.5425915387e-001
 6.0260885918e-001	 2.1158595871e+000	-4.0453764712e-001
 5.8070972532e-001	 2.1219744468e+000	-3.5489786459e-001
 5.5880865454e-001	 2.1278468839e+000	-3.0585596790e-001
 5.3690938636e-001	 2.1334778975e+000	-2.5835010613e-001
 5.1501561828e-001	 2.1388685576e+000	-2.1371987721e-001
 4.9313100430e-001	 2.1440200035e+000	-1.7368723906e-001
 4.7125915350e-001	 2.1489334418e+000	-1.4033875044e-001
 4.4940362862e-001	 2.1536101453e+000	-1.1610901156e-001
 4.2756794481e-001	 2.1580514510e+000	-1.0376516676e-001
 6.5422035778e-001	 2.1283861017e+000	-4.9028788019e-001
 6.3207124377e-001	 2.1350685346e+000	-4.4083107217e-001
 6.0991247856e-001	 2.1415038053e+000	-3.9101240610e-001
 5.8774792719e-001	 2.1476927771e+000	-3.4089787013e-001
 5.6558141544e-001	 2.1536363881e+000	-2.9099569493e-001
 5.4341672813e-001	 2.1593356496e+000	-2.4223475494e-001
 5.2125760758e-001	 2.1647916446e+000	-1.9594473185e-001
 4.9910775208e-001	 2.1700055259e+000	-1.5383791380e-001
 4.7697081444e-001	 2.1749785151e+000	-1.1799249180e-001
 4.5485040060e-001	 2.1797119003e+000	-9.0837203866e-002
 4.3275006830e-001	 2.1842070346e+000	-7.5137169203e-002
 6.6205455801e-001	 2.1538732372e+000	-4.7859037791e-001
 6.3964021136e-001	 2.1606356913e+000	-4.3002739765e-001
 6.1721609793e-001	 2.1671480235e+000	-3.8062084169e-001
 5.9478612907e-001	 2.1734111074e+000	-3.3045215733e-001
 5.7235417633e-001	 2.1794258924e+000	-2.8004001840e-001
 5.4992406989e-001	 2.1851934017e+000	-2.3031930363e-001
 5.2749959687e-001	 2.1907147315e+000	-1.8262206137e-001
 5.0508449985e-001	 2.1959910484e+000	-1.3866031508e-001
 4.8268247538e-001	 2.2010235884e+000	-1.0051055088e-001
 4.6029717258e-001	 2.2058136552e+000	-7.0599716392e-002
 4.3793219180e-001	 2.2103626182e+000	-5.1692551958e-002
 6.6988875825e-001	 2.1793603727e+000	-4.6778046197e-001
 6.4720917895e-001	 2.1862028480e+000	-4.2103685381e-001
 6.2451971731e-001	 2.1927922417e+000	-3.7297910493e-001
 6.0182433094e-001	 2.1991294377e+000	-3.2360826169e-001
 5.7912693723e-001	 2.2052153966e+000	-2.7346940596e-001
 5.5643141166e-001	 2.2110511539e+000	-2.2351609978e-001
 5.3374158617e-001	 2.2166378184e+000	-1.7509226056e-001
 5.1106124762e-001	 2.2219765708e+000	-1.2991610219e-001
 4.8839413632e-001	 2.2270686617e+000	-9.0065960828e-002
 4.6574394456e-001	 2.2319154102e+000	-5.7967812579e-002
 4.4311431529e-001	 2.2365182018e+000	-3.6384280296e-002
 6.7772295848e-001	 2.2048475082e+000	-4.5733951213e-001
 6.5477814654e-001	 2.2117700047e+000	-4.1262905071e-001
 6.3182333669e-001	 2.2184364599e+000	-3.6727284277e-001
 6.0886253281e-001	 2.2248477680e+000	-3.1997485429e-001
 5.8589969813e-001	 2.2310049008e+000	-2.7132017402e-001
 5.6293875342e-001	 2.2369089060e+000	-2.2229115785e-001
 5.3998357546e-001	 2.2425609053e+000	-1.7425033421e-001
 5.1703799540e-001	 2.2479620932e+000	-1.2892562102e-001
 4.9410579726e-001	 2.2531137351e+000	-8.8397649515e-002
 4.7119071654e-001	 2.2580171652e+000	-5.5088977459e-002
 4.4829643878e-001	 2.2626737853e+000	-3.1754964061e-002
 6.8555715871e-001	 2.2303346436e+000	-4.4576574757e-001
 6.6234711413e-001	 2.2373371614e+000	-4.0317660772e-001
 6.3912695606e-001	 2.2440806781e+000	-3.6227786673e-001
 6.1590073469e-001	 2.2505660983e+000	-3.1874097935e-001
 5.9267245902e-001	 2.2567944051e+000	-2.7320231467e-001
 5.6944609519e-001	 2.2627666581e+000	-2.2668059317e-001
 5.4622556476e-001	 2.2684839922e+000	-1.8056095259e-001
 5.2301474317e-001	 2.2739476157e+000	-1.3658159275e-001
 4.9981745820e-001	 2.2791588084e+000	-9.6822769492e-002
 4.7663748852e-001	 2.2841189201e+000	-6.3697893774e-002
 4.5347856227e-001	 2.2888293689e+000	-3.9946481257e-002
 4.0165732735e-001	 2.0272735331e+000	-1.9133533755e-001
 3.8116985173e-001	 2.0312253015e+000	-1.8634410039e-001
 3.6070746753e-001	 2.0349586909e+000	-1.6812257085e-001
 3.4027332989e-001	 2.0384751296e+000	-1.4016791371e-001
 3.1987054498e-001	 2.0417760999e+000	-1.0620323991e-001
 2.9950216914e-001	 2.0448631363e+000	-7.0159324730e-002
 2.7917120795e-001	 2.0477378234e+000	-3.6156514926e-002
 2.5888061541e-001	 2.0504017950e+000	-8.4867597597e-003
 2.3863329325e-001	 2.0528567318e+000	 8.4042964813e-003
 2.1843209012e-001	 2.0551043599e+000	 9.9352187677e-003
 1.9827980105e-001	 2.0571464492e+000	-8.5932635851e-003
 4.0683945084e-001	 2.0534291166e+000	-1.9613872891e-001
 3.8608764884e-001	 2.0574318702e+000	-1.9160944719e-001
 3.6536126199e-001	 2.0612134272e+000	-1.7334145415e-001
 3.4466348611e-001	 2.0647752345e+000	-1.4479480808e-001
 3.2399746749e-001	 2.0681187935e+000	-1.0968032798e-001
 3.0336630188e-001	 2.0712456583e+000	-7.1941994791e-002
 2.8277303362e-001	 2.0741574342e+000	-3.5739520700e-002
 2.6222065487e-001	 2.0768557760e+000	-5.4310094367e-003
 2.4171210474e-001	 2.0793423861e+000	 1.4444365779e-002
 2.2125026867e-001	 2.0816190127e+000	 1.9183735676e-002
 2.0083797774e-001	 2.0836874487e+000	 3.9380236419e-003
 4.1202157433e-001	 2.0795847002e+000	-1.8485855535e-001
 3.9100544595e-001	 2.0836384389e+000	-1.7950971704e-001
 3.7001505644e-001	 2.0874681636e+000	-1.6024636208e-001
 3.4905364234e-001	 2.0910753395e+000	-1.3048788051e-001
 3.2812439000e-001	 2.0944614871e+000	-9.3927209933e-002
 3.0723043461e-001	 2.0976281804e+000	-5.4514104232e-002
 2.8637485930e-001	 2.1005770451e+000	-1.6438552564e-002
 2.6556069432e-001	 2.1033097570e+000	 1.5885741195e-002
 2.4479091623e-001	 2.1058280403e+000	 3.7837904503e-002
 2.2406844723e-001	 2.1081336655e+000	 4.4606548494e-002
 2.0339615444e-001	 2.1102284483e+000	 3.1206601608e-002
 4.1720369783e-001	 2.1057402838e+000	-1.6264898326e-001
 3.9592324306e-001	 2.1098450077e+000	-1.5544177482e-001
 3.7466885089e-001	 2.1137229000e+000	-1.3440853286e-001
 3.5344379857e-001	 2.1173754444e+000	-1.0292159604e-001
 3.3225131251e-001	 2.1208041806e+000	-6.4647592024e-002
 3.1109456735e-001	 2.1240107024e+000	-2.3531769697e-002
 2.8997668498e-001	 2.1269966559e+000	 1.6217532357e-002
 2.6890073377e-001	 2.1297637380e+000	 5.0144385509e-002
 2.4786972772e-001	 2.1323136945e+000	 7.3560838544e-002
 2.2688662578e-001	 2.1346483183e+000	 8.1562646811e-002
 2.0595433114e-001	 2.1367694478e+000	 6.9045250372e-002
 4.2238582132e-001	 2.1318958674e+000	-1.3420346773e-001
 4.0084104017e-001	 2.1360515764e+000	-1.2436633667e-001
 3.7932264534e-001	 2.1399776363e+000	-1.0099219386e-001
 3.5783395480e-001	 2.1436755493e+000	-6.7397060955e-002
 3.3637823502e-001	 2.1471468742e+000	-2.7209917963e-002
 3.1495870008e-001	 2.1503932245e+000	 1.5641692189e-002
 2.9357851066e-001	 2.1534162668e+000	 5.6945933551e-002
 2.7224077322e-001	 2.1562177190e+000	 9.2220941542e-002
 2.5094853921e-001	 2.1587993488e+000	 1.1672919669e-001
 2.2970480434e-001	 2.1611629711e+000	 1.2549211604e-001
 2.0851250784e-001	 2.1633104473e+000	 1.1330496319e-001
 4.2756794481e-001	 2.1580514510e+000	-1.0376516676e-001
 4.0575883728e-001	 2.1622581451e+000	-9.0816782062e-002
 3.8397643979e-001	 2.1662323727e+000	-6.4761648305e-002
 3.6222411102e-001	 2.1699756543e+000	-2.8847257477e-002
 3.4050515753e-001	 2.1734895678e+000	 1.3349377556e-002
 3.1882283282e-001	 2.1767757465e+000	 5.7934624705e-002
 2.9718033633e-001	 2.1798358776e+000	 1.0071101555e-001
 2.7558081267e-001	 2.1826717000e+000	 1.3719004699e-001
 2.5402735071e-001	 2.1852850030e+000	 1.6260513302e-001
 2.3252298289e-001	 2.1876776239e+000	 1.7192483091e-001
 2.1107068453e-001	 2.1898514469e+000	 1.5986645756e-001
 4.3275006830e-001	 2.1842070346e+000	-7.5137169203e-002
 4.1067663439e-001	 2.1884647138e+000	-5.8907830808e-002
 3.8863023425e-001	 2.1924871090e+000	-3.0088291022e-002
 3.6661426725e-001	 2.1962757592e+000	 8.1577143159e-003
 3.4463208005e-001	 2.1998322613e+000	 5.2322516538e-002
 3.2268696555e-001	 2.2031582686e+000	 9.8565686807e-002
 3.0078216201e-001	 2.2062554884e+000	 1.4272509310e-001
 2.7892085212e-001	 2.2091256810e+000	 1.8032799786e-001
 2.5710616220e-001	 2.2117706572e+000	 2.0660234598e-001
 2.3534116144e-001	 2.2141922767e+000	 2.1648838453e-001
 2.1362886123e-001	 2.2163924464e+000	 2.0465074660e-001
 4.3793219180e-001	 2.2103626182e+000	-5.1692551958e-002
 4.1559443150e-001	 2.2146712825e+000	-3.2344095947e-002
 3.9328402870e-001	 2.2187418454e+000	-9.5755946878e-004
 3.7100442348e-001	 2.2225758641e+000	 3.9405387969e-002
 3.4875900256e-001	 2.2261749549e+000	 8.5326934765e-002
 3.2655109828e-001	 2.2295407906e+000	 1.3304232170e-001
 3.0438398769e-001	 2.2326750993e+000	 1.7844891980e-001
 2.8226089157e-001	 2.2355796621e+000	 2.1711536857e-001
 2.6018497369e-001	 2.2382563115e+000	 2.4429094391e-001
 2.3815934000e-001	 2.2407069295e+000	 2.5491531618e-001
 2.1618703793e-001	 2.2429334459e+000	 2.4362884851e-001
 4.4311431529e-001	 2.2365182018e+000	-3.6384280296e-002
 4.2051222860e-001	 2.2408778513e+000	-1.4428522874e-002
 3.9793782315e-001	 2.2449965817e+000	 1.9024174919e-002
 3.7539457970e-001	 2.2488759691e+000	 6.1035676067e-002
 3.5288592506e-001	 2.2525176484e+000	 1.0830175569e-001
 3.3041523102e-001	 2.2559233126e+000	 1.5715905350e-001
 3.0798581336e-001	 2.2590947101e+000	 2.0359190458e-001
 2.8560093102e-001	 2.2620336431e+000	 2.4323924776e-001
 2.6326378518e-001	 2.2647419657e+000	 2.7140180254e-001
 2.4097751855e-001	 2.2672215823e+000	 2.8304969535e-001
 2.1874521463e-001	 2.2694744455e+000	 2.7283070477e-001
 4.4829643878e-001	 2.2626737853e+000	-3.1754964061e-002
 4.2543002571e-001	 2.2670844200e+000	-8.0707237986e-003
 4.0259161760e-001	 2.2712513181e+000	 2.6622770112e-002
 3.7978473593e-001	 2.2751760740e+000	 6.9535610089e-002
 3.5701284757e-001	 2.2788603420e+000	 1.1750418790e-001
 3.3427936375e-001	 2.2823058347e+000	 1.6699562601e-001
 3.1158763904e-001	 2.2855143209e+000	 2.1411207793e-001
 2.8894097047e-001	 2.2884876241e+000	 2.5459512095e-001
 2.6634259667e-001	 2.2912276199e+000	 2.8383045551e-001
 2.4379569710e-001	 2.2937362351e+000	 2.9685311417e-001
 2.2130339132e-001	 2.2960154450e+000	 2.8835337102e-001
 4.5347856227e-001	 2.2888293689e+000	-3.9946481257e-002
 4.3034782282e-001	 2.2932909887e+000	-1.5795215935e-002
 4.0724541205e-001	 2.2975060545e+000	 1.8969527276e-002
 3.8417489215e-001	 2.3014761789e+000	 6.1734075158e-002
 3.6113977008e-001	 2.3052030356e+000	 1.0950585221e-001
 3.3814349649e-001	 2.3086883567e+000	 1.5891499606e-001
 3.1518946472e-001	 2.3119339318e+000	 2.0621582800e-001
 2.9228100992e-001	 2.3149416051e+000	 2.4728842827e-001
 2.6942140816e-001	 2.3177132742e+000	 2.7764055517e-001
 2.4661387566e-001	 2.3202508879e+000	 2.9241013537e-001
 2.2386156802e-001	 2.3225564445e+000	 2.8636853888e-001
 1.9827980105e-001	 2.0571464492e+000	-8.5932635851e-003
 1.7817616239e-001	 2.0589850721e+000	-2.7439406569e-002
 1.5812692275e-001	 2.0606217602e+000	-2.7430356040e-002
 1.3813475442e-001	 2.0620584056e+000	-1.4237366529e-002
 1.1820227270e-001	 2.0632969374e+000	 6.4471010292e-003
 9.8332035568e-002	 2.0643393199e+000	 2.8928874579e-002
 7.8526543355e-002	 2.0651875510e+000	 4.7531739599e-002
 5.8788238498e-002	 2.0658436604e+000	 5.6617293016e-002
 3.9119505332e-002	 2.0663097081e+000	 5.0604987519e-002
 1.9522669929e-002	 2.0665877828e+000	 2.3992364630e-002
 0.0000000000e+000	 2.0666800000e+000	-2.8624555645e-002
 2.0083797774e-001	 2.0836874487e+000	 3.9380236419e-003
 1.8047496491e-001	 2.0855497932e+000	-1.1255909485e-002
 1.6016705295e-001	 2.0872075977e+000	-6.8425087267e-003
 1.3991694861e-001	 2.0886627785e+000	 1.1439643499e-002
 1.1972730096e-001	 2.0899172897e+000	 3.7792204692e-002
 9.9600700963e-002	 2.0909731208e+000	 6.6376546510e-002
 7.9539681215e-002	 2.0918322956e+000	 9.1333523396e-002
 5.9546715666e-002	 2.0924968700e+000	 1.0680355106e-001
 3.9624219410e-002	 2.0929689307e+000	 1.0694700260e-001
 1.9774548532e-002	 2.0932505931e+000	 8.5964922305e-002
 0.0000000000e+000	 2.0933440000e+000	 3.8120025416e-002
 2.0339615444e-001	 2.1102284483e+000	 3.1206601608e-002
 1.8277376743e-001	 2.1121145144e+000	 1.7877468714e-002
 1.6220718314e-001	 2.1137934352e+000	 2.4463829318e-002
 1.4169914281e-001	 2.1152671514e+000	 4.5172377126e-002
 1.2125232922e-001	 2.1165376419e+000	 7.4111938164e-002
 1.0086936636e-001	 2.1176069217e+000	 1.0531275266e-001
 8.0552819076e-002	 2.1184770403e+000	 1.3274617943e-001
 6.0305192834e-002	 2.1191500797e+000	 1.5034484254e-001
 4.0128933488e-002	 2.1196281532e+000	 1.5202323132e-001
 2.0026427135e-002	 2.1199134033e+000	 1.3169875599e-001
 0.0000000000e+000	 2.1200080000e+000	 8.3313228239e-002
 2.0595433114e-001	 2.1367694478e+000	 6.9045250372e-002
 1.8507256995e-001	 2.1386792356e+000	 5.6366221176e-002
 1.6424731334e-001	 2.1403792726e+000	 6.3573822534e-002
 1.4348133700e-001	 2.1418715243e+000	 8.4835196608e-002
 1.2277735748e-001	 2.1431579941e+000	 1.1418184974e-001
 1.0213803175e-001	 2.1442407226e+000	 1.4552856067e-001
 8.1565956938e-002	 2.1451217849e+000	 1.7269284707e-001
 6.1063670002e-002	 2.1458032894e+000	 1.8941501500e-001
 4.0633647567e-002	 2.1462873758e+000	 1.8937880656e-001
 2.0278305739e-002	 2.1465762135e+000	 1.6623265065e-001
 0.0000000000e+000	 2.1466720000e+000	 1.1361148779e-001
 2.0851250784e-001	 2.1633104473e+000	 1.1330496319e-001
 1.8737137247e-001	 2.1652439568e+000	 1.0056713165e-001
 1.6628744353e-001	 2.1669651101e+000	 1.0745281909e-001
 1.4526353119e-001	 2.1684758971e+000	 1.2810747406e-001
 1.2430238574e-001	 2.1697783463e+000	 1.5650337738e-001
 1.0340669715e-001	 2.1708745235e+000	 1.8645798493e-001
 8.2579094799e-002	 2.1717665295e+000	 2.1165297259e-001
 6.1822147171e-002	 2.1724564990e+000	 2.2565401383e-001
 4.1138361646e-002	 2.1729465983e+000	 2.2193130971e-001
 2.0530184342e-002	 2.1732390237e+000	 1.9388087977e-001
 0.0000000000e+000	 2.1733360000e+000	 1.3484658706e-001
 2.1107068453e-001	 2.1898514469e+000	 1.5986645756e-001
 1.8967017500e-001	 2.1918086779e+000	 1.4680276896e-001
 1.6832757373e-001	 2.1935509476e+000	 1.5296401336e-001
 1.4704572539e-001	 2.1950802700e+000	 1.7249460942e-001
 1.2582741400e-001	 2.1963986986e+000	 1.9932841243e-001
 1.0467536255e-001	 2.1975083244e+000	 2.2720628889e-001
 8.3592232661e-002	 2.1984112742e+000	 2.4969454563e-001
 6.2580624339e-002	 2.1991097087e+000	 2.6020425071e-001
 4.1643075725e-002	 2.1996058209e+000	 2.5201147121e-001
 2.0782062946e-002	 2.1999018340e+000	 2.1827844051e-001
 0.0000000000e+000	 2.2000000000e+000	 1.5207563102e-001
 2.1362886123e-001	 2.2163924464e+000	 2.0465074660e-001
 1.9196897752e-001	 2.2183733991e+000	 1.9137485123e-001
 1.7036770392e-001	 2.2201367851e+000	 1.9688477116e-001
 1.4882791958e-001	 2.2216846429e+000	 2.1534748758e-001
 1.2735244226e-001	 2.2230190508e+000	 2.4068206230e-001
 1.0594402794e-001	 2.2241421253e+000	 2.6657622962e-001
 8.4605370523e-002	 2.2250560188e+000	 2.8650400436e-001
 6.3339101508e-002	 2.2257629184e+000	 2.9374435075e-001
 4.2147789804e-002	 2.2262650434e+000	 2.8140094334e-001
 2.1033941550e-002	 2.2265646442e+000	 2.4242303769e-001
 0.0000000000e+000	 2.2266640000e+000	 1.6962742988e-001
 2.1618703793e-001	 2.2429334459e+000	 2.4362884851e-001
 1.9426778004e-001	 2.2449381203e+000	 2.3057657354e-001
 1.7240783412e-001	 2.2467226226e+000	 2.3592172842e-001
 1.5061011377e-001	 2.2482890157e+000	 2.5388050383e-001
 1.2887747052e-001	 2.2496394030e+000	 2.7838376112e-001
 1.0721269334e-001	 2.2507759262e+000	 3.0309241482e-001
 8.5618508384e-002	 2.2517007635e+000	 3.2141400255e-001
 6.4097578677e-002	 2.2524161280e+000	 3.2652049551e-001
 4.2652503883e-002	 2.2529242659e+000	 3.1136738758e-001
 2.1285820153e-002	 2.2532274544e+000	 2.6871408633e-001
 0.0000000000e+000	 2.2533280000e+000	 1.9114558929e-001
 2.1874521463e-001	 2.2694744455e+000	 2.7283070477e-001
 1.9656658256e-001	 2.2715028415e+000	 2.6070398378e-001
 1.7444796431e-001	 2.2733084601e+000	 2.6672476378e-001
 1.5239230797e-001	 2.2748933886e+000	 2.8518827501e-001
 1.3040249878e-001	 2.2762597552e+000	 3.1006686392e-001
 1.0848135873e-001	 2.2774097270e+000	 3.3502392701e-001
 8.6631646245e-002	 2.2783455081e+000	 3.5342921340e-001
 6.4856055845e-002	 2.2790693377e+000	 3.5837555876e-001
 4.3157217962e-002	 2.2795834885e+000	 3.4269709660e-001
 2.1537698757e-002	 2.2798902646e+000	 2.9898897643e-001
 0.0000000000e+000	 2.2799920000e+000	 2.1962857693e-001
 2.2130339132e-001	 2.2960154450e+000	 2.8835337102e-001
 1.9886538508e-001	 2.2980675626e+000	 2.7806648378e-001
 1.7648809451e-001	 2.2998942975e+000	 2.8589993623e-001
 1.5417450216e-001	 2.3014977615e+000	 3.0626114252e-001
 1.3192752703e-001	 2.3028801075e+000	 3.3319684670e-001
 1.0975002413e-001	 2.3040435279e+000	 3.6040535505e-001
 8.7644784106e-002	 2.3049902527e+000	 3.8125032921e-001
 6.5614533013e-002	 2.3057225474e+000	 3.8877621339e-001
 4.3661932041e-002	 2.3062427110e+000	 3.7572535022e-001
 2.1789577360e-002	 2.3065530749e+000	 3.3455682183e-001
 0.0000000000e+000	 2.3066560000e+000	 2.5746701011e-001
 2.2386156802e-001	 2.3225564445e+000	 2.8636853888e-001
 2.0116418761e-001	 2.3246322838e+000	 2.7899652570e-001
 1.7852822470e-001	 2.3264801350e+000	 2.9002147048e-001
 1.5595669635e-001	 2.3281021343e+000	 3.1399956400e-001
 1.3345255529e-001	 2.3295004597e+000	 3.4508822422e-001
 1.1101868952e-001	 2.3306773288e+000	 3.7705636033e-001
 8.8657921967e-002	 2.3316349974e+000	 4.0329640105e-001
 6.6373010180e-002	 2.3323757570e+000	 4.1683817205e-001
 4.4166646119e-002	 2.3329019336e+000	 4.1036468659e-001
 2.2041455963e-002	 2.3332158851e+000	 3.7622989411e-001
 0.0000000000e+000	 2.3333200000e+000	 3.0647838688e-001
 2.3333200000e+000	 0.0000000000e+000	 1.8725130200e+000
 2.3332158851e+000	 2.2041455963e-002	 1.8867610327e+000
 2.3329019336e+000	 4.4166646119e-002	 1.9053269152e+000
 2.3323757570e+000	 6.6373010180e-002	 1.9259650823e+000
 2.3316349974e+000	 8.8657921967e-002	 1.9466255051e+000
 2.3306773288e+000	 1.1101868952e-001	 1.9654677245e+000
 2.3295004597e+000	 1.3345255529e-001	 1.9808722150e+000
 2.3281021343e+000	 1.5595669635e-001	 1.9914491246e+000
 2.3264801350e+000	 1.7852822470e-001	 1.9960444628e+000
 2.3246322838e+000	 2.0116418761e-001	 1.9937438345e+000
 2.3225564445e+000	 2.2386156802e-001	 1.9838738503e+000
 2.3599880000e+000	 0.0000000000e+000	 1.7672338245e+000
 2.3598826951e+000	 2.2293372352e-002	 1.7927911395e+000
 2.3595651554e+000	 4.4671435911e-002	 1.8222504253e+000
 2.3590329651e+000	 6.7131601130e-002	 1.8531423059e+000
 2.3582837391e+000	 8.9671211813e-002	 1.8832495689e+000
 2.3573151252e+000	 1.1228754524e-001	 1.9106199913e+000
 2.3561248054e+000	 1.3497781233e-001	 1.9335761597e+000
 2.3547104983e+000	 1.5773915790e-001	 1.9507223203e+000
 2.3530699608e+000	 1.8056866094e-001	 1.9609483378e+000
 2.3512009901e+000	 2.0346333498e-001	 1.9634308736e+000
 2.3491014256e+000	 2.2642012848e-001	 1.9576319296e+000
 2.3866560000e+000	 0.0000000000e+000	 1.7043085809e+000
 2.3865495052e+000	 2.2545288740e-002	 1.7336966405e+000
 2.3862283772e+000	 4.5176225704e-002	 1.7672659248e+000
 2.3856901731e+000	 6.7890192080e-002	 1.8022915795e+000
 2.3849324809e+000	 9.0684501658e-002	 1.8363602043e+000
 2.3839529215e+000	 1.1355640095e-001	 1.8673813299e+000
 2.3827491510e+000	 1.3650306936e-001	 1.8935955144e+000
 2.3813188622e+000	 1.5952161945e-001	 1.9135791011e+000
 2.3796597865e+000	 1.8260909719e-001	 1.9262457254e+000
 2.3777696964e+000	 2.0576248236e-001	 1.9308446974e+000
 2.3756464067e+000	 2.2897868894e-001	 1.9269564181e+000
 2.4133240000e+000	 0.0000000000e+000	 1.6838145914e+000
 2.4132163152e+000	 2.2797205128e-002	 1.7103902664e+000
 2.4128915991e+000	 4.5681015496e-002	 1.7420018973e+000
 2.4123473812e+000	 6.8648783029e-002	 1.7756428224e+000
 2.4115812226e+000	 9.1697791503e-002	 1.8086800784e+000
 2.4105907179e+000	 1.1482525666e-001	 1.8388643537e+000
 2.4093734967e+000	 1.3802832640e-001	 1.8643361630e+000
 2.4079272261e+000	 1.6130408099e-001	 1.8836282924e+000
 2.4062496123e+000	 1.8464953343e-001	 1.8956646131e+000
 2.4043384027e+000	 2.0806162973e-001	 1.8997554056e+000
 2.4021913878e+000	 2.3153724940e-001	 1.8955893684e+000
 2.4399920000e+000	 0.0000000000e+000	 1.7059316442e+000
 2.4398831253e+000	 2.3049121516e-002	 1.7238657352e+000
 2.4395548209e+000	 4.6185805287e-002	 1.7481464684e+000
 2.4390045892e+000	 6.9407373978e-002	 1.7754644914e+000
 2.4382299644e+000	 9.2711081348e-002	 1.8029496245e+000
 2.4372285143e+000	 1.1609411237e-001	 1.8281790987e+000
 2.4359978424e+000	 1.3955358343e-001	 1.8491815934e+000
 2.4345355900e+000	 1.6308654254e-001	 1.8644371290e+000
 2.4328394381e+000	 1.8668996967e-001	 1.8728729270e+000
 2.4309071089e+000	 2.1036077711e-001	 1.8738553914e+000
 2.4287363689e+000	 2.3409580986e-001	 1.8671784070e+000
 2.4666600000e+000	 0.0000000000e+000	 1.7709364742e+000
 2.4665499353e+000	 2.3301037904e-002	 1.7751930624e+000
 2.4662180427e+000	 4.6690595079e-002	 1.7874434820e+000
 2.4656617973e+000	 7.0165964927e-002	 1.8040603492e+000
 2.4648787062e+000	 9.3724371192e-002	 1.8219244352e+000
 2.4638663106e+000	 1.1736296808e-001	 1.8384309829e+000
 2.4626221881e+000	 1.4107884046e-001	 1.8514913731e+000
 2.4611439540e+000	 1.6486900409e-001	 1.8595302066e+000
 2.4594292638e+000	 1.8873040592e-001	 1.8614779277e+000
 2.4574758152e+000	 2.1265992448e-001	 1.8567591579e+000
 2.4552813499e+000	 2.3665437032e-001	 1.8452769574e+000
 2.4933280000e+000	 0.0000000000e+000	 1.8791975775e+000
 2.4932167454e+000	 2.3552954292e-002	 1.8655141722e+000
 2.4928812646e+000	 4.7195384870e-002	 1.8616888304e+000
 2.4923190053e+000	 7.0924555876e-002	 1.8637664419e+000
 2.4915274479e+000	 9.4737661037e-002	 1.8683728267e+000
 2.4905041070e+000	 1.1863182380e-001	 1.8727189042e+000
 2.4892465338e+000	 1.4260409750e-001	 1.8745997361e+000
 2.4877523179e+000	 1.6665146563e-001	 1.8723885203e+000
 2.4860190896e+000	 1.9077084216e-001	 1.8650256722e+000
 2.4840445215e+000	 2.1495907186e-001	 1.8520031846e+000
 2.4818263310e+000	 2.3921293079e-001	 1.8333445003e+000
 2.5199960000e+000	 0.0000000000e+000	 2.0311703572e+000
 2.5198835554e+000	 2.3804870680e-002	 1.9960387880e+000
 2.5195444864e+000	 4.7700174662e-002	 1.9727270175e+000
 2.5189762134e+000	 7.1683146825e-002	 1.9569482720e+000
 2.5181761897e+000	 9.5750950882e-002	 1.9450735635e+000
 2.5171419034e+000	 1.1990067951e-001	 1.9341334677e+000
 2.5158708794e+000	 1.4412935453e-001	 1.9218142726e+000
 2.5143606818e+000	 1.6843392718e-001	 1.9064485837e+000
 2.5126089153e+000	 1.9281127840e-001	 1.8870005388e+000
 2.5106132278e+000	 2.1725821923e-001	 1.8630458412e+000
 2.5083713121e+000	 2.4177149125e-001	 1.8347468691e+000
 2.5466640000e+000	 0.0000000000e+000	 2.2273925719e+000
 2.5465503655e+000	 2.4056787068e-002	 2.1680405808e+000
 2.5462077083e+000	 4.8204964454e-002	 2.1224479387e+000
 2.5456334215e+000	 7.2441737774e-002	 2.0859981497e+000
 2.5448249314e+000	 9.6764240726e-002	 2.0548137296e+000
 2.5437796997e+000	 1.2116953522e-001	 2.0257553325e+000
 2.5424952251e+000	 1.4565461156e-001	 1.9964147133e+000
 2.5409690458e+000	 1.7021638873e-001	 1.9651016232e+000
 2.5391987411e+000	 1.9485171464e-001	 1.9308248092e+000
 2.5371819341e+000	 2.1955736661e-001	 1.8932673453e+000
 2.5349162932e+000	 2.4433005171e-001	 1.8527565781e+000
 2.5733320000e+000	 0.0000000000e+000	 2.4684800692e+000
 2.5732171755e+000	 2.4308703457e-002	 2.3828535575e+000
 2.5728709301e+000	 4.8709754246e-002	 2.3127838631e+000
 2.5722906295e+000	 7.3200328724e-002	 2.2533327126e+000
 2.5714736732e+000	 9.7777530572e-002	 2.2003867376e+000
 2.5704174961e+000	 1.2243839093e-001	 2.1506536695e+000
 2.5691195708e+000	 1.4717986860e-001	 2.1016518034e+000
 2.5675774097e+000	 1.7199885027e-001	 2.0516928414e+000
 2.5657885669e+000	 1.9689215089e-001	 1.9998583043e+000
 2.5637506404e+000	 2.2185651398e-001	 1.9459697601e+000
 2.5614612743e+000	 2.4688861217e-001	 1.8905531795e+000
 2.6000000000e+000	 0.0000000000e+000	 2.7551227805e+000
 2.5998839856e+000	 2.4560619845e-002	 2.6418686713e+000
 2.5995341519e+000	 4.9214544039e-002	 2.5457066005e+000
 2.5989478376e+000	 7.3958919674e-002	 2.4613905989e+000
 2.5981224149e+000	 9.8790820418e-002	 2.3845904638e+000
 2.5970552924e+000	 1.2370724665e-001	 2.3118847212e+000
 2.5957439165e+000	 1.4870512563e-001	 2.2407462573e+000
 2.5941857736e+000	 1.7378131182e-001	 2.1695207449e+000
 2.5923783926e+000	 1.9893258713e-001	 2.0973980697e+000
 2.5903193466e+000	 2.2415566136e-001	 2.0243770303e+000
 2.5880062554e+000	 2.4944717263e-001	 1.9512236494e+000
 2.3225564445e+000	 2.2386156802e-001	 1.9838738503e+000
 2.3202508879e+000	 2.4661387566e-001	 1.9705961481e+000
 2.3177132742e+000	 2.6942140816e-001	 1.9573955090e+000
 2.3149416051e+000	 2.9228100992e-001	 1.9429252626e+000
 2.3119339318e+000	 3.1518946472e-001	 1.9260414464e+000
 2.3086883567e+000	 3.3814349649e-001	 1.9057964350e+000
 2.3052030356e+000	 3.6113977008e-001	 1.8814316904e+000
 2.3014761789e+000	 3.8417489215e-001	 1.8523699569e+000
 2.2975060545e+000	 4.0724541205e-001	 1.8182072515e+000
 2.2932909887e+000	 4.3034782282e-001	 1.7787050212e+000
 2.2888293689e+000	 4.5347856227e-001	 1.7337828534e+000
 2.3491014256e+000	 2.2642012848e-001	 1.9576319296e+000
 2.3467695183e+000	 2.4943247698e-001	 1.9477648924e+000
 2.3442029017e+000	 2.7250068152e-001	 1.9372629899e+000
 2.3413995546e+000	 2.9562155042e-001	 1.9248122762e+000
 2.3383575059e+000	 3.1879183072e-001	 1.9093287225e+000
 2.3350748366e+000	 3.4200820890e-001	 1.8899480427e+000
 2.3315496809e+000	 3.6526731169e-001	 1.8660144856e+000
 2.3277802293e+000	 3.8856570697e-001	 1.8370689530e+000
 2.3237647294e+000	 4.1189990463e-001	 1.8028368271e+000
 2.3195014888e+000	 4.3526635767e-001	 1.7632159174e+000
 2.3149888762e+000	 4.5866146316e-001	 1.7182649509e+000
 2.3756464067e+000	 2.2897868894e-001	 1.9269564181e+000
 2.3732881487e+000	 2.5225107830e-001	 1.9188196935e+000
 2.3706925291e+000	 2.7557995488e-001	 1.9097730173e+000
 2.3678575041e+000	 2.9896209093e-001	 1.8984947150e+000
 2.3647810801e+000	 3.2239419672e-001	 1.8839200928e+000
 2.3614613164e+000	 3.4587292131e-001	 1.8652271740e+000
 2.3578963263e+000	 3.6939485330e-001	 1.8418212438e+000
 2.3540842796e+000	 3.9295652178e-001	 1.8133185962e+000
 2.3500234044e+000	 4.1655439722e-001	 1.7795299053e+000
 2.3457119889e+000	 4.4018489252e-001	 1.7404436679e+000
 2.3411483836e+000	 4.6384436404e-001	 1.6962101862e+000
 2.4021913878e+000	 2.3153724940e-001	 1.8955893684e+000
 2.3998067791e+000	 2.5506967962e-001	 1.8874106598e+000
 2.3971821566e+000	 2.7865922823e-001	 1.8784267741e+000
 2.3943154536e+000	 3.0230263143e-001	 1.8672759291e+000
 2.3912046543e+000	 3.2599656273e-001	 1.8528803139e+000
 2.3878477962e+000	 3.4973763372e-001	 1.8344274244e+000
 2.3842429716e+000	 3.7352239491e-001	 1.8113500436e+000
 2.3803883299e+000	 3.9734733659e-001	 1.7833052960e+000
 2.3762820793e+000	 4.2120888981e-001	 1.7501532402e+000
 2.3719224890e+000	 4.4510342737e-001	 1.7119354871e+000
 2.3673078909e+000	 4.6902726493e-001	 1.6688543573e+000
 2.4287363689e+000	 2.3409580986e-001	 1.8671784070e+000
 2.4263254095e+000	 2.5788828094e-001	 1.8570778160e+000
 2.4236717841e+000	 2.8173850159e-001	 1.8466008682e+000
 2.4207734031e+000	 3.0564317194e-001	 1.8343214274e+000
 2.4176282285e+000	 3.2959892873e-001	 1.8191243145e+000
 2.4142342760e+000	 3.5360234613e-001	 1.8001819047e+000
 2.4105896170e+000	 3.7764993651e-001	 1.7769291967e+000
 2.4066923803e+000	 4.0173815140e-001	 1.7490378264e+000
 2.4025407543e+000	 4.2586338240e-001	 1.7163895281e+000
 2.3981329891e+000	 4.5002196221e-001	 1.6790495791e+000
 2.3934673982e+000	 4.7421016581e-001	 1.6372407852e+000
 2.4552813499e+000	 2.3665437032e-001	 1.8452769574e+000
 2.4528440399e+000	 2.6070688226e-001	 1.8312517253e+000
 2.4501614116e+000	 2.8481777495e-001	 1.8175483574e+000
 2.4472313525e+000	 3.0898371244e-001	 1.8026603177e+000
 2.4440518026e+000	 3.3320129473e-001	 1.7854190753e+000
 2.4406207558e+000	 3.5746705854e-001	 1.7649655959e+000
 2.4369362624e+000	 3.8177747812e-001	 1.7407201254e+000
 2.4329964306e+000	 4.0612896622e-001	 1.7123507832e+000
 2.4287994293e+000	 4.3051787498e-001	 1.6797415128e+000
 2.4243434892e+000	 4.5494049706e-001	 1.6429599711e+000
 2.4196269055e+000	 4.7939306669e-001	 1.6022259672e+000
 2.4818263310e+000	 2.3921293079e-001	 1.8333445003e+000
 2.4793626703e+000	 2.6352548358e-001	 1.8132541410e+000
 2.4766510391e+000	 2.8789704831e-001	 1.7943997945e+000
 2.4736893020e+000	 3.1232425294e-001	 1.7751867616e+000
 2.4704753768e+000	 3.3680366073e-001	 1.7543855201e+000
 2.4670072357e+000	 3.6133177094e-001	 1.7310977132e+000
 2.4632829077e+000	 3.8590501973e-001	 1.7047202451e+000
 2.4593004810e+000	 4.1051978103e-001	 1.6749080448e+000
 2.4550581042e+000	 4.3517236757e-001	 1.6415360929e+000
 2.4505539893e+000	 4.5985903191e-001	 1.6046613468e+000
 2.4457864128e+000	 4.8457596758e-001	 1.5644852250e+000
 2.5083713121e+000	 2.4177149125e-001	 1.8347468691e+000
 2.5058813007e+000	 2.6634408490e-001	 1.8062986817e+000
 2.5031406665e+000	 2.9097632166e-001	 1.7801642910e+000
 2.5001472515e+000	 3.1566479345e-001	 1.7546614438e+000
 2.4968989510e+000	 3.4040602674e-001	 1.7285004168e+000
 2.4933937155e+000	 3.6519648335e-001	 1.7007440769e+000
 2.4896295531e+000	 3.9003256133e-001	 1.6707658548e+000
 2.4856045313e+000	 4.1491059584e-001	 1.6382062378e+000
 2.4813167792e+000	 4.3982686015e-001	 1.6029284317e+000
 2.4767644894e+000	 4.6477756676e-001	 1.5649738784e+000
 2.4719459201e+000	 4.8975886846e-001	 1.5245183475e+000
 2.5349162932e+000	 2.4433005171e-001	 1.8527565781e+000
 2.5323999311e+000	 2.6916268622e-001	 1.8134915312e+000
 2.5296302940e+000	 2.9405559502e-001	 1.7777305984e+000
 2.5266052010e+000	 3.1900533395e-001	 1.7437130531e+000
 2.5233225252e+000	 3.4400839274e-001	 1.7100982880e+000
 2.5197801953e+000	 3.6906119576e-001	 1.6759194914e+000
 2.5159761984e+000	 3.9416010294e-001	 1.6405350313e+000
 2.5119085816e+000	 4.1930141065e-001	 1.6035782070e+000
 2.5075754541e+000	 4.4448135274e-001	 1.5649060699e+000
 2.5029749895e+000	 4.6969610161e-001	 1.5245480589e+000
 2.4981054275e+000	 4.9494176935e-001	 1.4826552291e+000
 2.5614612743e+000	 2.4688861217e-001	 1.8905531795e+000
 2.5589185615e+000	 2.7198128754e-001	 1.8378321602e+000
 2.5561199215e+000	 2.9713486838e-001	 1.7898682044e+000
 2.5530631505e+000	 3.2234587446e-001	 1.7448397749e+000
 2.5497460993e+000	 3.4761075874e-001	 1.7013733306e+000
 2.5461666751e+000	 3.7292590817e-001	 1.6584901302e+000
 2.5423228438e+000	 3.9828764455e-001	 1.6155505300e+000
 2.5382126320e+000	 4.2369222546e-001	 1.5721964885e+000
 2.5338341291e+000	 4.4913584533e-001	 1.5282930387e+000
 2.5291854896e+000	 4.7461463645e-001	 1.4838695331e+000
 2.5242649348e+000	 5.0012467023e-001	 1.4390615042e+000
 2.5880062554e+000	 2.4944717263e-001	 1.9512236494e+000
 2.5854371919e+000	 2.7479988887e-001	 1.8822140680e+000
 2.5826095490e+000	 3.0021414174e-001	 1.8192284450e+000
 2.5795211000e+000	 3.2568641496e-001	 1.7604107957e+000
 2.5761696735e+000	 3.5121312474e-001	 1.7043813427e+000
 2.5725531550e+000	 3.7679062058e-001	 1.6501759273e+000
 2.5686694892e+000	 4.0241518616e-001	 1.5971826894e+000
 2.5645166823e+000	 4.2808304028e-001	 1.5450767866e+000
 2.5600928041e+000	 4.5379033791e-001	 1.4937539765e+000
 2.5553959897e+000	 4.7953317130e-001	 1.4432639282e+000
 2.5504244421e+000	 5.0530757112e-001	 1.3937441769e+000
 2.2888293689e+000	 4.5347856227e-001	 1.7337828534e+000
 2.2841189201e+000	 4.7663748852e-001	 1.6865468637e+000
 2.2791588084e+000	 4.9981745820e-001	 1.6394298221e+000
 2.2739476157e+000	 5.2301474317e-001	 1.5915273336e+000
 2.2684839922e+000	 5.4622556476e-001	 1.5420596999e+000
 2.2627666581e+000	 5.6944609519e-001	 1.4903754849e+000
 2.2567944051e+000	 5.9267245902e-001	 1.4359582458e+000
 2.2505660983e+000	 6.1590073469e-001	 1.3784368539e+000
 2.2440806781e+000	 6.3912695606e-001	 1.3175998128e+000
 2.2373371614e+000	 6.6234711413e-001	 1.2534139684e+000
 2.2303346436e+000	 6.8555715871e-001	 1.1876752056e+000
 2.3149888762e+000	 4.5866146316e-001	 1.7182649509e+000
 2.3102245907e+000	 4.8208507759e-001	 1.6711526795e+000
 2.3052077888e+000	 5.0552997598e-001	 1.6242365119e+000
 2.2999370364e+000	 5.2899238754e-001	 1.5765352858e+000
 2.2944109680e+000	 5.5246849044e-001	 1.5271784266e+000
 2.2886282893e+000	 5.7595441315e-001	 1.4754062284e+000
 2.2825877781e+000	 5.9944623593e-001	 1.4205735580e+000
 2.2762882867e+000	 6.2293999239e-001	 1.3621574497e+000
 2.2697287433e+000	 6.4643167109e-001	 1.2997690419e+000
 2.2629081536e+000	 6.6991721718e-001	 1.2332122296e+000
 2.2558256026e+000	 6.9339253419e-001	 1.1659329160e+000
 2.3411483836e+000	 4.6384436404e-001	 1.6962101862e+000
 2.3363302614e+000	 4.8753266667e-001	 1.6500268070e+000
 2.3312567693e+000	 5.1124249375e-001	 1.6041610111e+000
 2.3259264570e+000	 5.3497003191e-001	 1.5575328829e+000
 2.3203379438e+000	 5.5871141613e-001	 1.5091555487e+000
 2.3144899205e+000	 5.8246273111e-001	 1.4581318849e+000
 2.3083811512e+000	 6.0622001284e-001	 1.4036549292e+000
 2.3020104752e+000	 6.2997925010e-001	 1.3450125066e+000
 2.2953768085e+000	 6.5373638611e-001	 1.2815965682e+000
 2.2884791457e+000	 6.7748732023e-001	 1.2134470622e+000
 2.2813165615e+000	 7.0122790966e-001	 1.1453564362e+000
 2.3673078909e+000	 4.6902726493e-001	 1.6688543573e+000
 2.3624359320e+000	 4.9298025574e-001	 1.6240989305e+000
 2.3573057498e+000	 5.1695501152e-001	 1.5798285363e+000
 2.3519158777e+000	 5.4094767629e-001	 1.5348489165e+000
 2.3462649196e+000	 5.6495434181e-001	 1.4880376730e+000
 2.3403515516e+000	 5.8897104907e-001	 1.4383370915e+000
 2.3341745242e+000	 6.1299378974e-001	 1.3847509687e+000
 2.3277326636e+000	 6.3701850780e-001	 1.3263460025e+000
 2.3210248737e+000	 6.6104110114e-001	 1.2622582946e+000
 2.3140501379e+000	 6.8505742327e-001	 1.1934109140e+000
 2.3068075204e+000	 7.0906328514e-001	 1.1251128446e+000
 2.3934673982e+000	 4.7421016581e-001	 1.6372407852e+000
 2.3885416026e+000	 4.9842784481e-001	 1.5941047499e+000
 2.3833547302e+000	 5.2266752930e-001	 1.5516712703e+000
 2.3779052983e+000	 5.4692532066e-001	 1.5086225887e+000
 2.3721918953e+000	 5.7119726749e-001	 1.4636877816e+000
 2.3662131828e+000	 5.9547936703e-001	 1.4156313594e+000
 2.3599678973e+000	 6.1976756665e-001	 1.3632461925e+000
 2.3534548520e+000	 6.4405776551e-001	 1.3053513752e+000
 2.3466729389e+000	 6.6834581616e-001	 1.2408076404e+000
 2.3396211300e+000	 6.9262752632e-001	 1.1722135284e+000
 2.3322984793e+000	 7.1689866062e-001	 1.1042527345e+000
 2.4196269055e+000	 4.7939306669e-001	 1.6022259672e+000
 2.4146472732e+000	 5.0387543389e-001	 1.5605925308e+000
 2.4094037107e+000	 5.2838004707e-001	 1.5199358674e+000
 2.4038947190e+000	 5.5290296503e-001	 1.4788120423e+000
 2.3981188711e+000	 5.7744019317e-001	 1.4357948625e+000
 2.3920748140e+000	 6.0198768499e-001	 1.3894598876e+000
 2.3857612703e+000	 6.2654134356e-001	 1.3383731107e+000
 2.3791770405e+000	 6.5109702321e-001	 1.2810849810e+000
 2.3723210042e+000	 6.7565053119e-001	 1.2165245438e+000
 2.3651921222e+000	 7.0019762936e-001	 1.1488541562e+000
 2.3577894383e+000	 7.2473403609e-001	 1.0817154633e+000
 2.4457864128e+000	 4.8457596758e-001	 1.5644852250e+000
 2.4407529438e+000	 5.0932302296e-001	 1.5239296429e+000
 2.4354526912e+000	 5.3409256484e-001	 1.4846909449e+000
 2.4298841397e+000	 5.5888060940e-001	 1.4452028725e+000
 2.4240458469e+000	 5.8368311886e-001	 1.4038835177e+000
 2.4179364451e+000	 6.0849600294e-001	 1.3591143497e+000
 2.4115546434e+000	 6.3331512046e-001	 1.3092242831e+000
 2.4048992289e+000	 6.5813628092e-001	 1.2524795156e+000
 2.3979690694e+000	 6.8295524621e-001	 1.1885083147e+000
 2.3907631144e+000	 7.0776773240e-001	 1.1222262680e+000
 2.3832803972e+000	 7.3256941157e-001	 1.0563343364e+000
 2.4719459201e+000	 4.8975886846e-001	 1.5245183475e+000
 2.4668586144e+000	 5.1477061203e-001	 1.4843090899e+000
 2.4615016716e+000	 5.3980508261e-001	 1.4458345607e+000
 2.4558735603e+000	 5.6485825377e-001	 1.4074166221e+000
 2.4499728226e+000	 5.8992604454e-001	 1.3673235502e+000
 2.4437980763e+000	 6.1500432090e-001	 1.3237436570e+000
 2.4373480164e+000	 6.4008889737e-001	 1.2747643464e+000
 2.4306214173e+000	 6.6517553862e-001	 1.2183574010e+000
 2.4236171346e+000	 6.9025996123e-001	 1.1556314659e+000
 2.4163341065e+000	 7.1533783545e-001	 1.0911222175e+000
 2.4087713561e+000	 7.4040478704e-001	 1.0268417301e+000
 2.4981054275e+000	 4.9494176935e-001	 1.4826552291e+000
 2.4929642851e+000	 5.2021820111e-001	 1.4417560298e+000
 2.4875506521e+000	 5.4551760038e-001	 1.4031016784e+000
 2.4818629810e+000	 5.7083589814e-001	 1.3649192595e+000
 2.4758997984e+000	 5.9616897022e-001	 1.3253395328e+000
 2.4696597075e+000	 6.2151263886e-001	 1.2823646982e+000
 2.4631413894e+000	 6.4686267428e-001	 1.2338420148e+000
 2.4563436058e+000	 6.7221479633e-001	 1.1776031373e+000
 2.4492651998e+000	 6.9756467626e-001	 1.1166693768e+000
 2.4419050987e+000	 7.2290793849e-001	 1.0542378582e+000
 2.4342623150e+000	 7.4824016252e-001	 9.9187415935e-001
 2.5242649348e+000	 5.0012467023e-001	 1.4390615042e+000
 2.5190699557e+000	 5.2566579018e-001	 1.3961342869e+000
 2.5135996326e+000	 5.5123011816e-001	 1.3560716205e+000
 2.5078524016e+000	 5.7681354251e-001	 1.3170296433e+000
 2.5018267742e+000	 6.0241189591e-001	 1.2770203586e+000
 2.4955213386e+000	 6.2802095682e-001	 1.2338730589e+000
 2.4889347625e+000	 6.5363645118e-001	 1.1852020546e+000
 2.4820657942e+000	 6.7925405403e-001	 1.1292748728e+000
 2.4749132650e+000	 7.0486939128e-001	 1.0703044644e+000
 2.4674760908e+000	 7.3047804154e-001	 1.0101771176e+000
 2.4597532740e+000	 7.5607553799e-001	 9.4997729254e-001
 2.5504244421e+000	 5.0530757112e-001	 1.3937441769e+000
 2.5451756263e+000	 5.3111337925e-001	 1.3471528570e+000
 2.5396486130e+000	 5.5694263593e-001	 1.3041755111e+000
 2.5338418223e+000	 5.8279118688e-001	 1.2629279728e+000
 2.5277537500e+000	 6.0865482159e-001	 1.2213287748e+000
 2.5213829698e+000	 6.3452927478e-001	 1.1770537206e+000
 2.5147281355e+000	 6.6041022809e-001	 1.1274972371e+000
 2.5077879826e+000	 6.8629331174e-001	 1.0720722589e+000
 2.5005613302e+000	 7.1217410630e-001	 1.0151303207e+000
 2.4930470830e+000	 7.3804814458e-001	 9.5745653091e-001
 2.4852442329e+000	 7.6391091347e-001	 8.9961091882e-001
 2.2303346436e+000	 6.8555715871e-001	 1.1876752056e+000
 2.2230722995e+000	 7.0875299987e-001	 1.1217918760e+000
 2.2155493829e+000	 7.3193050875e-001	 1.0532735874e+000
 2.2077652301e+000	 7.5508552040e-001	 9.8239248793e-001
 2.1997192618e+000	 7.7821383611e-001	 9.0945525278e-001
 2.1914109843e+000	 8.0131122541e-001	 8.3479626651e-001
 2.1828399911e+000	 8.2437342815e-001	 7.5877120866e-001
 2.1740059639e+000	 8.4739615664e-001	 6.8175109325e-001
 2.1649086739e+000	 8.7037509788e-001	 6.0411681027e-001
 2.1555479833e+000	 8.9330591575e-001	 5.2625421183e-001
 2.1459238455e+000	 9.1618425334e-001	 4.4854978047e-001
 2.2558256026e+000	 6.9339253419e-001	 1.1659329160e+000
 2.2484802556e+000	 7.1685348544e-001	 1.0991706040e+000
 2.2408713580e+000	 7.4029589490e-001	 1.0306252055e+000
 2.2329982385e+000	 7.6371555000e-001	 9.6040356508e-001
 2.2248603111e+000	 7.8710820405e-001	 8.8864147123e-001
 2.2164570766e+000	 8.1046957821e-001	 8.1549668206e-001
 2.2077881238e+000	 8.3379536366e-001	 7.4114242058e-001
 2.1988531306e+000	 8.5708122372e-001	 6.6576139535e-001
 2.1896518658e+000	 8.8032279606e-001	 5.8954039661e-001
 2.1801841899e+000	 9.0351569502e-001	 5.1266551316e-001
 2.1704500559e+000	 9.2665551389e-001	 4.3531800934e-001
 2.2813165615e+000	 7.0122790966e-001	 1.1453564362e+000
 2.2738882116e+000	 7.2495397102e-001	 1.0782414861e+000
 2.2661933331e+000	 7.4866128104e-001	 1.0101088331e+000
 2.2582312469e+000	 7.7234557960e-001	 9.4092874333e-001
 2.2500013605e+000	 7.9600257198e-001	 8.7069380566e-001
 2.2415031690e+000	 8.1962793101e-001	 7.9941173415e-001
 2.2327362564e+000	 8.4321729918e-001	 7.2709871381e-001
 2.2237002973e+000	 8.6676629079e-001	 6.5377334732e-001
 2.2143950577e+000	 8.9027049423e-001	 5.7945125663e-001
 2.2048203965e+000	 9.1372547428e-001	 5.0414038700e-001
 2.1949762662e+000	 9.3712677444e-001	 4.2783705513e-001
 2.3068075204e+000	 7.0906328514e-001	 1.1251128446e+000
 2.2992961677e+000	 7.3305445659e-001	 1.0581215594e+000
 2.2915153082e+000	 7.5702666719e-001	 9.9078444929e-001
 2.2834642553e+000	 7.8097560919e-001	 9.2296354222e-001
 2.2751424099e+000	 8.0489693991e-001	 8.5453548361e-001
 2.2665492613e+000	 8.2878628382e-001	 7.8538405172e-001
 2.2576843891e+000	 8.5263923470e-001	 7.1539329339e-001
 2.2485474640e+000	 8.7645135786e-001	 6.4444134261e-001
 2.2391382496e+000	 9.0021819241e-001	 5.7239497901e-001
 2.2294566031e+000	 9.2393525355e-001	 4.9910497662e-001
 2.2195024766e+000	 9.4759803499e-001	 4.2440228684e-001
 2.3322984793e+000	 7.1689866062e-001	 1.1042527345e+000
 2.3247041238e+000	 7.4115494217e-001	 1.0378105539e+000
 2.3168372833e+000	 7.6539205334e-001	 9.7159497079e-001
 2.3086972637e+000	 7.8960563879e-001	 9.0538775125e-001
 2.3002834592e+000	 8.1379130784e-001	 8.3897644429e-001
 2.2915953536e+000	 8.3794463662e-001	 7.7214654396e-001
 2.2826325217e+000	 8.6206117021e-001	 7.0467435543e-001
 2.2733946308e+000	 8.8613642494e-001	 6.3632063153e-001
 2.2638814415e+000	 9.1016589059e-001	 5.6682504025e-001
 2.2540928097e+000	 9.3414503282e-001	 4.9590151679e-001
 2.2440286869e+000	 9.5806929554e-001	 4.2323454643e-001
 2.3577894383e+000	 7.2473403609e-001	 1.0817154633e+000
 2.3501120799e+000	 7.4925542774e-001	 1.0161966398e+000
 2.3421592584e+000	 7.7375743949e-001	 9.5137247382e-001
 2.3339302721e+000	 7.9823566838e-001	 8.8697210459e-001
 2.3254245086e+000	 8.2268567577e-001	 8.2272044032e-001
 2.3166414459e+000	 8.4710298942e-001	 7.5832990175e-001
 2.3075806544e+000	 8.7148310573e-001	 6.9349295894e-001
 2.2982417975e+000	 8.9582149201e-001	 6.2787553210e-001
 2.2886246334e+000	 9.2011358876e-001	 5.6111132111e-001
 2.2787290163e+000	 9.4435481208e-001	 4.9279712038e-001
 2.2685548972e+000	 9.6854055608e-001	 4.2248916814e-001
 2.3832803972e+000	 7.3256941157e-001	 1.0563343364e+000
 2.3755200360e+000	 7.5735591331e-001	 9.9206209613e-001
 2.3674812335e+000	 7.8212282563e-001	 9.2884432958e-001
 2.3591632805e+000	 8.0686569798e-001	 8.6638486128e-001
 2.3505655579e+000	 8.3158004370e-001	 8.0437203959e-001
 2.3416875382e+000	 8.5626134222e-001	 7.4246999626e-001
 2.3325287870e+000	 8.8090504125e-001	 6.8031079411e-001
 2.3230889642e+000	 9.0550655908e-001	 6.1748753922e-001
 2.3133678253e+000	 9.3006128694e-001	 5.5354852591e-001
 2.3033652229e+000	 9.5456459135e-001	 4.8799247515e-001
 2.2930811076e+000	 9.7901181663e-001	 4.2026491802e-001
 2.4087713561e+000	 7.4040478704e-001	 1.0268417301e+000
 2.4009279921e+000	 7.6545639888e-001	 9.6408890876e-001
 2.3928032086e+000	 7.9048821178e-001	 9.0263925924e-001
 2.3843962889e+000	 8.1549572757e-001	 8.4219829795e-001
 2.3757066073e+000	 8.4047441163e-001	 7.8244353473e-001
 2.3667336306e+000	 8.6541969502e-001	 7.2301518215e-001
 2.3574769197e+000	 8.9032697676e-001	 6.6350785477e-001
 2.3479361309e+000	 9.1519162615e-001	 6.0346333980e-001
 2.3381110172e+000	 9.4000898511e-001	 5.4236451199e-001
 2.3280014296e+000	 9.6477437061e-001	 4.7963045726e-001
 2.3176073179e+000	 9.8948307718e-001	 4.1461285953e-001
 2.4342623150e+000	 7.4824016252e-001	 9.9187415935e-001
 2.4263359481e+000	 7.7355688446e-001	 9.3086430234e-001
 2.4181251837e+000	 7.9885359793e-001	 8.7129331433e-001
 2.4096292973e+000	 8.2412575717e-001	 8.1289512052e-001
 2.4008476566e+000	 8.4936877956e-001	 7.5536176684e-001
 2.3917797229e+000	 8.7457804782e-001	 6.9833351262e-001
 2.3824250523e+000	 8.9974891228e-001	 6.4139002200e-001
 2.3727832976e+000	 9.2487669322e-001	 5.8404274066e-001
 2.3628542091e+000	 9.4995668329e-001	 5.2572853581e-001
 2.3526376362e+000	 9.7498414988e-001	 4.6580466771e-001
 2.3421335283e+000	 9.9995433773e-001	 4.0354515058e-001
 2.4597532740e+000	 7.5607553799e-001	 9.4997729254e-001
 2.4517439042e+000	 7.8165737003e-001	 8.9088621050e-001
 2.4434471588e+000	 8.0721898407e-001	 8.3325578804e-001
 2.4348623057e+000	 8.3275578676e-001	 7.7687480065e-001
 2.4259887060e+000	 8.5826314749e-001	 7.2147486978e-001
 2.4168258152e+000	 8.8373640062e-001	 6.6671987246e-001
 2.4073731850e+000	 9.0917084779e-001	 6.1219656533e-001
 2.3976304643e+000	 9.3456176030e-001	 5.5740651559e-001
 2.3875974010e+000	 9.5990438146e-001	 5.0175942181e-001
 2.3772738428e+000	 9.8519392915e-001	 4.4456789726e-001
 2.3666597386e+000	 1.0104255983e+000	 3.8503706039e-001
 2.4852442329e+000	 7.6391091347e-001	 8.9961091882e-001
 2.4771518603e+000	 7.8975785560e-001	 8.4256868934e-001
 2.4687691339e+000	 8.1558437022e-001	 7.8689506243e-001
 2.4600953141e+000	 8.4138581636e-001	 7.3245984244e-001
 2.4511297553e+000	 8.6715751542e-001	 6.7905894070e-001
 2.4418719075e+000	 8.9289475342e-001	 6.2640303514e-001
 2.4323213176e+000	 9.1859278331e-001	 5.7410756760e-001
 2.4224776311e+000	 9.4424682737e-001	 5.2168417738e-001
 2.4123405929e+000	 9.6985207964e-001	 4.6853365952e-001
 2.4019100494e+000	 9.9540370841e-001	 4.1394052493e-001
 2.3911859489e+000	 1.0208968588e+000	 3.5706321916e-001
 2.1459238455e+000	 9.1618425334e-001	 4.4854978047e-001
 2.1360378104e+000	 9.3900231690e-001	 3.7216248404e-001
 2.1258885955e+000	 9.6175915357e-001	 2.9766522300e-001
 2.1154764373e+000	 9.8445036148e-001	 2.2460034119e-001
 2.1048016674e+000	 1.0070715277e+000	 1.5251320462e-001
 2.0938647137e+000	 1.0296182305e+000	 8.0949363995e-002
 2.0826661006e+000	 1.0520860425e+000	 9.4734813270e-003
 2.0712064498e+000	 1.0744705326e+000	-6.2355503028e-002
 2.0594864808e+000	 1.0967672688e+000	-1.3496158801e-001
 2.0475070112e+000	 1.1189718211e+000	-2.0875317670e-001
 2.0352689572e+000	 1.1410797639e+000	-2.8411866060e-001
 2.1704500559e+000	 9.2665551389e-001	 4.3531800934e-001
 2.1604510311e+000	 9.4973436985e-001	 3.5869995253e-001
 2.1501858188e+000	 9.7275129914e-001	 2.8366373447e-001
 2.1396546578e+000	 9.9570184959e-001	 2.0989205899e-001
 2.1288578838e+000	 1.0185815578e+000	 1.3705894842e-001
 2.1177959294e+000	 1.0413859516e+000	 6.4851381284e-002
 2.1064693250e+000	 1.0641105529e+000	-7.0616540850e-003
 2.0948786995e+000	 1.0867508800e+000	-7.9003069692e-002
 2.0830247805e+000	 1.1093024502e+000	-1.5129063129e-001
 2.0709083951e+000	 1.1317607830e+000	-2.2423290137e-001
 2.0585304698e+000	 1.1541214020e+000	-2.9812452190e-001
 2.1949762662e+000	 9.3712677444e-001	 4.2783705513e-001
 2.1848642519e+000	 9.6046642279e-001	 3.5174511770e-001
 2.1744830421e+000	 9.8374344471e-001	 2.7693326930e-001
 2.1638328784e+000	 1.0069533377e+000	 2.0320990345e-001
 2.1529141003e+000	 1.0300915879e+000	 1.3036734003e-001
 2.1417271451e+000	 1.0531536727e+000	 5.8201547856e-002
 2.1302725494e+000	 1.0761350633e+000	-1.3515744058e-002
 2.1185509491e+000	 1.0990312274e+000	-8.5012854705e-002
 2.1065630802e+000	 1.1218376317e+000	-1.5652034124e-001
 2.0943097789e+000	 1.1445497449e+000	-2.2826663575e-001
 2.0817919823e+000	 1.1671630402e+000	-3.0047295172e-001
 2.2195024766e+000	 9.4759803499e-001	 4.2440228684e-001
 2.2092774727e+000	 9.7119847574e-001	 3.4945863080e-001
 2.1987802654e+000	 9.9473559028e-001	 2.7550383014e-001
 2.1880110990e+000	 1.0182048258e+000	 2.0245229780e-001
 2.1769703167e+000	 1.0416016180e+000	 1.3021496665e-001
 2.1656583608e+000	 1.0649213938e+000	 5.8664643965e-002
 2.1540757738e+000	 1.0881595737e+000	-1.2336266638e-002
 2.1422231988e+000	 1.1113115748e+000	-8.2939665074e-002
 2.1301013799e+000	 1.1343728131e+000	-1.5330786263e-001
 2.1177111628e+000	 1.1573387067e+000	-2.2360884041e-001
 2.1050534949e+000	 1.1802046783e+000	-2.9401070196e-001
 2.2440286869e+000	 9.5806929554e-001	 4.2323454643e-001
 2.2336906935e+000	 9.8193052869e-001	 3.4993682243e-001
 2.2230774887e+000	 1.0057277359e+000	 2.7735174704e-001
 2.2121893196e+000	 1.0294563139e+000	 2.0549131411e-001
 2.2010265331e+000	 1.0531116482e+000	 1.3435245500e-001
 2.1895895765e+000	 1.0766891149e+000	 6.3885879572e-002
 2.1778789982e+000	 1.1001840841e+000	-5.9783580310e-003
 2.1658954485e+000	 1.1235919221e+000	-7.5333872474e-002
 2.1536396796e+000	 1.1469079945e+000	-1.4429368700e-001
 2.1411125466e+000	 1.1701276686e+000	-2.1298503867e-001
 2.1283150075e+000	 1.1932463165e+000	-2.8154329645e-001
 2.2685548972e+000	 9.6854055608e-001	 4.2248916814e-001
 2.2581039143e+000	 9.9266258164e-001	 3.5122093412e-001
 2.2473747120e+000	 1.0167198814e+000	 2.8040341791e-001
 2.2363675401e+000	 1.0407078020e+000	 2.1014922741e-001
 2.2250827495e+000	 1.0646216783e+000	 1.4050904694e-001
 2.2135207922e+000	 1.0884568360e+000	 7.1500963473e-002
 2.2016822226e+000	 1.1122085945e+000	 3.1054650363e-003
 2.1895676981e+000	 1.1358722695e+000	-6.4730926643e-002
 2.1771779793e+000	 1.1594431759e+000	-1.3209095627e-001
 2.1645139305e+000	 1.1829166305e+000	-1.9908090911e-001
 2.1515765201e+000	 1.2062879546e+000	-2.6582391078e-001
 2.2930811076e+000	 9.7901181663e-001	 4.2026491802e-001
 2.2825171351e+000	 1.0033946346e+000	 3.5130628197e-001
 2.2716719353e+000	 1.0277120270e+000	 2.8256808647e-001
 2.2605457607e+000	 1.0519592901e+000	 2.1423072592e-001
 2.2491389659e+000	 1.0761317084e+000	 1.4640242910e-001
 2.2374520078e+000	 1.1002245571e+000	 7.9146154224e-002
 2.2254854470e+000	 1.1242331049e+000	 1.2475577680e-002
 2.2132399478e+000	 1.1481526169e+000	-5.3640861084e-002
 2.2007162790e+000	 1.1719783574e+000	-1.1927474568e-001
 2.1879153143e+000	 1.1957055924e+000	-1.8453134480e-001
 2.1748380327e+000	 1.2193295928e+000	-2.4954220646e-001
 2.3176073179e+000	 9.8948307718e-001	 4.1461285953e-001
 2.3069303559e+000	 1.0141266875e+000	 3.4814517081e-001
 2.2959691586e+000	 1.0387041726e+000	 2.8171119180e-001
 2.2847239813e+000	 1.0632107782e+000	 2.1552669574e-001
 2.2731951823e+000	 1.0876417385e+000	 1.4974853384e-001
 2.2613832235e+000	 1.1119922782e+000	 8.4468294223e-002
 2.2492886714e+000	 1.1362576153e+000	 1.9715514358e-002
 2.2369121975e+000	 1.1604329643e+000	-4.4537791661e-002
 2.2242545787e+000	 1.1845135388e+000	-1.0837132778e-001
 2.2113166982e+000	 1.2084945542e+000	-1.7190948166e-001
 2.1980995453e+000	 1.2323712309e+000	-2.3531312253e-001
 2.3421335283e+000	 9.9995433773e-001	 4.0354515058e-001
 2.3313435766e+000	 1.0248587405e+000	 3.3968132573e-001
 2.3202663819e+000	 1.0496963181e+000	 2.7568825182e-001
 2.3089022019e+000	 1.0744622664e+000	 2.1182375115e-001
 2.2972513987e+000	 1.0991517687e+000	 1.4827131351e-001
 2.2853144392e+000	 1.1237599992e+000	 8.5134828174e-002
 2.2730918958e+000	 1.1482821256e+000	 2.2442231845e-002
 2.2605844471e+000	 1.1727133117e+000	-3.9849408594e-002
 2.2477928784e+000	 1.1970487202e+000	-1.0184741874e-001
 2.2347180820e+000	 1.2212835161e+000	-1.6371569826e-001
 2.2213610579e+000	 1.2454128691e+000	-2.2566562790e-001
 2.3666597386e+000	 1.0104255983e+000	 3.8503706039e-001
 2.3557567974e+000	 1.0355907934e+000	 3.2381979978e-001
 2.3445636051e+000	 1.0606884637e+000	 2.6234780375e-001
 2.3330804224e+000	 1.0857137545e+000	 2.0091373008e-001
 2.3213076151e+000	 1.1106617988e+000	 1.3971249006e-001
 2.3092456549e+000	 1.1355277203e+000	 7.8843807071e-002
 2.2968951202e+000	 1.1603066360e+000	 1.8316368028e-002
 2.2842566968e+000	 1.1849936591e+000	-4.1946462344e-002
 2.2713311781e+000	 1.2095839016e+000	-1.0209940828e-001
 2.2581194659e+000	 1.2340724780e+000	-1.6236658913e-001
 2.2446225705e+000	 1.2584545072e+000	-2.2303143722e-001
 2.3911859489e+000	 1.0208968588e+000	 3.5706321916e-001
 2.3801700182e+000	 1.0463228464e+000	 2.9846264229e-001
 2.3688608284e+000	 1.0716806093e+000	 2.3954060429e-001
 2.3572586430e+000	 1.0969652426e+000	 1.8060315737e-001
 2.3453638315e+000	 1.1221718289e+000	 1.2184128170e-001
 2.3331768706e+000	 1.1472954414e+000	 6.3333878738e-002
 2.3206983446e+000	 1.1723311464e+000	 5.0524967973e-003
 2.3079289465e+000	 1.1972740064e+000	-5.3132243820e-002
 2.2948694778e+000	 1.2221190831e+000	-1.1144257438e-001
 2.2815208497e+000	 1.2468614399e+000	-1.7018391340e-001
 2.2678840830e+000	 1.2714961454e+000	-2.2973369291e-001
 2.0352689572e+000	 1.1410797639e+000	-2.8411866060e-001
 2.0227714400e+000	 1.1630899723e+000	-3.5929953293e-001
 2.0100173918e+000	 1.1849947132e+000	-4.3256788129e-001
 1.9970080273e+000	 1.2067895896e+000	-5.0433476635e-001
 1.9837446602e+000	 1.2284702205e+000	-5.7396250522e-001
 1.9702287031e+000	 1.2500322424e+000	-6.4063587818e-001
 1.9564616671e+000	 1.2714713133e+000	-7.0375510112e-001
 1.9424451616e+000	 1.2927831142e+000	-7.6265756165e-001
 1.9281808938e+000	 1.3139633529e+000	-8.1661385946e-001
 1.9136706685e+000	 1.3350077662e+000	-8.6482778489e-001
 1.8989163873e+000	 1.3559121227e+000	-9.0690637140e-001
 2.0585304698e+000	 1.1541214020e+000	-2.9812452190e-001
 2.0458901159e+000	 1.1763831698e+000	-3.7142886452e-001
 2.0329902990e+000	 1.1985382644e+000	-4.4263198328e-001
 2.0198322477e+000	 1.2205822391e+000	-5.1208003518e-001
 2.0064172909e+000	 1.2425106623e+000	-5.8010966253e-001
 1.9927468571e+000	 1.2643191212e+000	-6.4672853469e-001
 1.9788224748e+000	 1.2860032236e+000	-7.1015910460e-001
 1.9646457717e+000	 1.3075586015e+000	-7.6941283794e-001
 1.9502184746e+000	 1.3289809136e+000	-8.2364940418e-001
 1.9355424090e+000	 1.3502658479e+000	-8.7203457397e-001
 1.9206194979e+000	 1.3714091246e+000	-9.1311563201e-001
 2.0817919823e+000	 1.1671630402e+000	-3.0047295172e-001
 2.0690087917e+000	 1.1896763672e+000	-3.7186910654e-001
 2.0559632062e+000	 1.2120818157e+000	-4.4120941992e-001
 2.0426564682e+000	 1.2343748885e+000	-5.0877801770e-001
 2.0290899215e+000	 1.2565511042e+000	-5.7485538766e-001
 2.0152650111e+000	 1.2786059999e+000	-6.3970953422e-001
 2.0011832824e+000	 1.3005351339e+000	-7.0358673399e-001
 1.9868463818e+000	 1.3223340888e+000	-7.6528995714e-001
 1.9722560554e+000	 1.3439984743e+000	-8.2232898948e-001
 1.9574141494e+000	 1.3655239295e+000	-8.7293410188e-001
 1.9423226086e+000	 1.3869061265e+000	-9.1487285974e-001
 2.1050534949e+000	 1.1802046783e+000	-2.9401070196e-001
 2.0921274676e+000	 1.2029695646e+000	-3.6354292008e-001
 2.0789361133e+000	 1.2256253669e+000	-4.3127068427e-001
 2.0654806886e+000	 1.2481675379e+000	-4.9745051942e-001
 2.0517625522e+000	 1.2705915461e+000	-5.6234056687e-001
 2.0377831651e+000	 1.2928928786e+000	-6.2619094976e-001
 2.0235440901e+000	 1.3150670442e+000	-6.8923369645e-001
 2.0090469919e+000	 1.3371095762e+000	-7.5165537458e-001
 1.9942936363e+000	 1.3590160350e+000	-8.1229581950e-001
 1.9792858898e+000	 1.3807820112e+000	-8.6632579879e-001
 1.9640257193e+000	 1.4024031284e+000	-9.1074751279e-001
 2.1283150075e+000	 1.1932463165e+000	-2.8154329645e-001
 2.1152461435e+000	 1.2162627620e+000	-3.4931999707e-001
 2.1019090205e+000	 1.2391689182e+000	-4.1572268460e-001
 2.0883049091e+000	 1.2619601874e+000	-4.8101437509e-001
 2.0744351829e+000	 1.2846319880e+000	-5.4546436778e-001
 2.0603013190e+000	 1.3071797573e+000	-6.0933768713e-001
 2.0459048977e+000	 1.3295989545e+000	-6.7288403805e-001
 2.0312476020e+000	 1.3518850635e+000	-7.3552595936e-001
 2.0163312171e+000	 1.3740335957e+000	-7.9527326410e-001
 2.0011576303e+000	 1.3960400929e+000	-8.5101474439e-001
 1.9857288300e+000	 1.4179001304e+000	-8.9930939366e-001
 2.1515765201e+000	 1.2062879546e+000	-2.6582391078e-001
 2.1383648193e+000	 1.2295559594e+000	-3.3200569870e-001
 2.1248819277e+000	 1.2527124694e+000	-3.9739708432e-001
 2.1111291295e+000	 1.2757528368e+000	-4.6230141030e-001
 2.0971078136e+000	 1.2986724299e+000	-5.2703241551e-001
 2.0828194730e+000	 1.3214666360e+000	-5.9190261588e-001
 2.0682657054e+000	 1.3441308648e+000	-6.5685698463e-001
 2.0534482121e+000	 1.3666605508e+000	-7.1937805111e-001
 2.0383687979e+000	 1.3890511563e+000	-7.7806505415e-001
 2.0230293707e+000	 1.4112981745e+000	-8.3188335250e-001
 2.0074319407e+000	 1.4333971323e+000	-8.7980796961e-001
 2.1748380327e+000	 1.2193295928e+000	-2.4954220646e-001
 2.1614834952e+000	 1.2428491568e+000	-3.1432963747e-001
 2.1478548349e+000	 1.2662560207e+000	-3.7903857902e-001
 2.1339533500e+000	 1.2895454862e+000	-4.4404635920e-001
 2.1197804442e+000	 1.3127128717e+000	-5.0974429521e-001
 2.1053376270e+000	 1.3357535147e+000	-5.7650252273e-001
 2.0906265131e+000	 1.3586627752e+000	-6.4209564059e-001
 2.0756488222e+000	 1.3814360382e+000	-7.0417510885e-001
 2.0604063787e+000	 1.4040687170e+000	-7.6177792756e-001
 2.0449011111e+000	 1.4265562562e+000	-8.1394354896e-001
 2.0291350514e+000	 1.4488941342e+000	-8.5971828847e-001
 2.1980995453e+000	 1.2323712309e+000	-2.3531312253e-001
 2.1846021710e+000	 1.2561423542e+000	-2.9893420718e-001
 2.1708277421e+000	 1.2797995719e+000	-3.6329311529e-001
 2.1567775704e+000	 1.3033381357e+000	-4.2887472154e-001
 2.1424530749e+000	 1.3267533136e+000	-4.9618099562e-001
 2.1278557810e+000	 1.3500403934e+000	-5.6436182276e-001
 2.1129873207e+000	 1.3731946855e+000	-6.2957696550e-001
 2.0978494323e+000	 1.3962115255e+000	-6.9078187012e-001
 2.0824439595e+000	 1.4190862777e+000	-7.4711440663e-001
 2.0667728516e+000	 1.4418143379e+000	-7.9771045924e-001
 2.0508381620e+000	 1.4643911361e+000	-8.4170852205e-001
 2.2213610579e+000	 1.2454128691e+000	-2.2566562790e-001
 2.2077208469e+000	 1.2694355516e+000	-2.8836306450e-001
 2.1938006493e+000	 1.2933431232e+000	-3.5269605559e-001
 2.1796017909e+000	 1.3171307851e+000	-4.1929056357e-001
 2.1651257056e+000	 1.3407937555e+000	-4.8848326555e-001
 2.1503739350e+000	 1.3643272722e+000	-5.5613349291e-001
 2.1353481284e+000	 1.3877265958e+000	-6.2020400994e-001
 2.1200500424e+000	 1.4109870128e+000	-6.7996850327e-001
 2.1044815404e+000	 1.4341038384e+000	-7.3468864115e-001
 2.0886445920e+000	 1.4570724195e+000	-7.8361824305e-001
 2.0725412727e+000	 1.4798881380e+000	-8.2600803805e-001
 2.2446225705e+000	 1.2584545072e+000	-2.2303143722e-001
 2.2308395228e+000	 1.2827287490e+000	-2.8504956586e-001
 2.2167735565e+000	 1.3068866744e+000	-3.4966029299e-001
 2.2024260114e+000	 1.3309234345e+000	-4.1766426687e-001
 2.1877983362e+000	 1.3548341974e+000	-4.8683025081e-001
 2.1728920890e+000	 1.3786141509e+000	-5.5273191588e-001
 2.1577089361e+000	 1.4022585061e+000	-6.1478441996e-001
 2.1422506525e+000	 1.4257625001e+000	-6.7241473414e-001
 2.1265191212e+000	 1.4491213991e+000	-7.2503043364e-001
 2.1105163324e+000	 1.4723305012e+000	-7.7202395798e-001
 2.0942443834e+000	 1.4953851399e+000	-8.1277751295e-001
 2.2678840830e+000	 1.2714961454e+000	-2.2973369291e-001
 2.2539581986e+000	 1.2960219464e+000	-2.9130516261e-001
 2.2397464637e+000	 1.3204302257e+000	-3.5646431954e-001
 2.2252502318e+000	 1.3447160840e+000	-4.2527967380e-001
 2.2104709669e+000	 1.3688746392e+000	-4.9193628085e-001
 2.1954102429e+000	 1.3929010296e+000	-5.5497633760e-001
 2.1800697437e+000	 1.4167904164e+000	-6.1403457235e-001
 2.1644512626e+000	 1.4405379875e+000	-6.6871394907e-001
 2.1485567020e+000	 1.4641389598e+000	-7.1858925546e-001
 2.1323880729e+000	 1.4875885829e+000	-7.6321143257e-001
 2.1159474941e+000	 1.5108821418e+000	-8.0211260369e-001
 1.8989163873e+000	 1.3559121227e+000	-9.0690637140e-001
 1.8839200471e+000	 1.3766722252e+000	-9.4911592258e-001
 1.8686837386e+000	 1.3972839118e+000	-9.9723888660e-001
 1.8532096461e+000	 1.4177430601e+000	-1.0494881679e+000
 1.8375000477e+000	 1.4380455904e+000	-1.1040686269e+000
 1.8215573143e+000	 1.4581874680e+000	-1.1591794621e+000
 1.8053839080e+000	 1.4781647061e+000	-1.2130166116e+000
 1.7889823814e+000	 1.4979733684e+000	-1.2637751599e+000
 1.7723553761e+000	 1.5176095714e+000	-1.3096517353e+000
 1.7555056212e+000	 1.5370694871e+000	-1.3488468835e+000
 1.7384359321e+000	 1.5563493455e+000	-1.3795674040e+000
 1.9206194979e+000	 1.3714091246e+000	-9.1311563201e-001
 1.9054517615e+000	 1.3924064986e+000	-9.5244437732e-001
 1.8900413140e+000	 1.4132537605e+000	-9.9610138946e-001
 1.8743903649e+000	 1.4339467407e+000	-1.0427198628e+000
 1.8585012183e+000	 1.4544813128e+000	-1.0909198627e+000
 1.8423762720e+000	 1.4748533961e+000	-1.1393099972e+000
 1.8260180165e+000	 1.4950589583e+000	-1.1864891123e+000
 1.8094290334e+000	 1.5150940179e+000	-1.2310479986e+000
 1.7926119946e+000	 1.5349546471e+000	-1.2715710947e+000
 1.7755696604e+000	 1.5546369742e+000	-1.3066381735e+000
 1.7583048783e+000	 1.5741371861e+000	-1.3348259976e+000
 1.9423226086e+000	 1.3869061265e+000	-9.1487285974e-001
 1.9269834759e+000	 1.4081407721e+000	-9.5352657630e-001
 1.9113988895e+000	 1.4292236092e+000	-9.9507539683e-001
 1.8955710837e+000	 1.4501504213e+000	-1.0384722490e+000
 1.8795023888e+000	 1.4709170352e+000	-1.0826528556e+000
 1.8631952297e+000	 1.4915193242e+000	-1.1265368805e+000
 1.8466521250e+000	 1.5119532104e+000	-1.1690291026e+000
 1.8298756855e+000	 1.5322146673e+000	-1.2090206042e+000
 1.8128686131e+000	 1.5522997228e+000	-1.2453899603e+000
 1.7956336995e+000	 1.5722044614e+000	-1.2770044146e+000
 1.7781738244e+000	 1.5919250267e+000	-1.3027210293e+000
 1.9640257193e+000	 1.4024031284e+000	-9.1074751279e-001
 1.9485151903e+000	 1.4238750455e+000	-9.5069840714e-001
 1.9327564649e+000	 1.4451934579e+000	-9.9229186244e-001
 1.9167518025e+000	 1.4663541018e+000	-1.0347032392e+000
 1.9005035594e+000	 1.4873527576e+000	-1.0770876052e+000
 1.8840141875e+000	 1.5081852524e+000	-1.1185805388e+000
 1.8672862335e+000	 1.5288474625e+000	-1.1582989622e+000
 1.8503223375e+000	 1.5493353168e+000	-1.1953419920e+000
 1.8331252317e+000	 1.5696447985e+000	-1.2287917912e+000
 1.8156977387e+000	 1.5897719485e+000	-1.2577144100e+000
 1.7980427706e+000	 1.6097128674e+000	-1.2811606005e+000
 1.9857288300e+000	 1.4179001304e+000	-8.9930939366e-001
 1.9700469047e+000	 1.4396093189e+000	-9.4230557689e-001
 1.9541140404e+000	 1.4611633066e+000	-9.8589973742e-001
 1.9379325214e+000	 1.4825577824e+000	-1.0293954736e+000
 1.9215047299e+000	 1.5037884800e+000	-1.0720739720e+000
 1.9048331452e+000	 1.5248511805e+000	-1.1131946477e+000
 1.8879203420e+000	 1.5457417147e+000	-1.1519958164e+000
 1.8707689896e+000	 1.5664559662e+000	-1.1876953837e+000
 1.8533818502e+000	 1.5869898742e+000	-1.2194915351e+000
 1.8357617779e+000	 1.6073394356e+000	-1.2465634133e+000
 1.8179117167e+000	 1.6275007080e+000	-1.2680717681e+000
 2.0074319407e+000	 1.4333971323e+000	-8.7980796961e-001
 1.9915786191e+000	 1.4553435924e+000	-9.2670571152e-001
 1.9754716158e+000	 1.4771331553e+000	-9.7406773382e-001
 1.9591132402e+000	 1.4987614629e+000	-1.0205578206e+000
 1.9425059005e+000	 1.5202242024e+000	-1.0654929948e+000
 1.9256521029e+000	 1.5415171086e+000	-1.1081673542e+000
 1.9085544505e+000	 1.5626359668e+000	-1.1478527586e+000
 1.8912156416e+000	 1.5835766157e+000	-1.1837995323e+000
 1.8736384687e+000	 1.6043349499e+000	-1.2152371652e+000
 1.8558258171e+000	 1.6249069228e+000	-1.2413749965e+000
 1.8377806629e+000	 1.6452885487e+000	-1.2614028659e+000
 2.0291350514e+000	 1.4488941342e+000	-8.5971828847e-001
 2.0131103335e+000	 1.4710778658e+000	-9.0459451733e-001
 1.9968291913e+000	 1.4931030040e+000	-9.5498618714e-001
 1.9802939590e+000	 1.5149651435e+000	-1.0062269966e+000
 1.9635070710e+000	 1.5366599249e+000	-1.0552583437e+000
 1.9464710607e+000	 1.5581830367e+000	-1.1013226446e+000
 1.9291885590e+000	 1.5795302189e+000	-1.1436402222e+000
 1.9116622936e+000	 1.6006972652e+000	-1.1814101941e+000
 1.8938950873e+000	 1.6216800256e+000	-1.2138113551e+000
 1.8758898563e+000	 1.6424744099e+000	-1.2400030355e+000
 1.8576496090e+000	 1.6630763893e+000	-1.2591259176e+000
 2.0508381620e+000	 1.4643911361e+000	-8.4170852205e-001
 2.0346420479e+000	 1.4868121393e+000	-8.8433117137e-001
 2.0181867667e+000	 1.5090728527e+000	-9.3174542156e-001
 2.0014746778e+000	 1.5311688241e+000	-9.8450268743e-001
 1.9845082416e+000	 1.5530956473e+000	-1.0393179003e+000
 1.9672900184e+000	 1.5748489648e+000	-1.0905218490e+000
 1.9498226675e+000	 1.5964244711e+000	-1.1371674924e+000
 1.9321089457e+000	 1.6178179146e+000	-1.1783217368e+000
 1.9141517058e+000	 1.6390251014e+000	-1.2130332794e+000
 1.8959538955e+000	 1.6600418970e+000	-1.2403338061e+000
 1.8775185552e+000	 1.6808642300e+000	-1.2592391372e+000
 2.0725412727e+000	 1.4798881380e+000	-8.2600803805e-001
 2.0561737623e+000	 1.5025464127e+000	-8.6685448576e-001
 2.0395443422e+000	 1.5250427014e+000	-9.1191089433e-001
 2.0226553967e+000	 1.5473725046e+000	-9.6155509153e-001
 2.0055094121e+000	 1.5695313697e+000	-1.0161567094e+000
 1.9881089761e+000	 1.5915148930e+000	-1.0736652704e+000
 1.9704567760e+000	 1.6133187232e+000	-1.1262843462e+000
 1.9525555977e+000	 1.6349385641e+000	-1.1723688747e+000
 1.9344083244e+000	 1.6563701771e+000	-1.2107605327e+000
 1.9160179347e+000	 1.6776093842e+000	-1.2402881828e+000
 1.8973875014e+000	 1.6986520706e+000	-1.2597695076e+000
 2.0942443834e+000	 1.4953851399e+000	-8.1277751295e-001
 2.0777054766e+000	 1.5182806861e+000	-8.5212768486e-001
 2.0609019176e+000	 1.5410125501e+000	-8.9541428429e-001
 2.0438361155e+000	 1.5635761852e+000	-9.4276103539e-001
 2.0265105827e+000	 1.5859670921e+000	-9.9428441762e-001
 2.0089279339e+000	 1.6081808211e+000	-1.0500997319e+000
 1.9910908845e+000	 1.6302129753e+000	-1.1088828119e+000
 1.9730022498e+000	 1.6520592135e+000	-1.1614285196e+000
 1.9546649429e+000	 1.6737152528e+000	-1.2048911570e+000
 1.9360819738e+000	 1.6951768713e+000	-1.2378239309e+000
 1.9172564475e+000	 1.7164399113e+000	-1.2587754337e+000
 2.1159474941e+000	 1.5108821418e+000	-8.0211260369e-001
 2.0992371910e+000	 1.5340149596e+000	-8.4005734415e-001
 2.0822594931e+000	 1.5569823987e+000	-8.8199582907e-001
 2.0650168343e+000	 1.5797798658e+000	-9.2771939773e-001
 2.0475117532e+000	 1.6024028145e+000	-9.7701373787e-001
 2.0297468916e+000	 1.6248467492e+000	-1.0296661847e+000
 2.0117249930e+000	 1.6471072275e+000	-1.0854733582e+000
 1.9934489018e+000	 1.6691798630e+000	-1.1434217415e+000
 1.9749215615e+000	 1.6910603285e+000	-1.1933657702e+000
 1.9561460130e+000	 1.7127443585e+000	-1.2309380876e+000
 1.9371253937e+000	 1.7342277519e+000	-1.2543494637e+000
 1.7384359321e+000	 1.5563493455e+000	-1.3795674040e+000
 1.7211518181e+000	 1.5754425866e+000	-1.4070077630e+000
 1.7036537181e+000	 1.5943484719e+000	-1.4367254432e+000
 1.6859446966e+000	 1.6130634224e+000	-1.4674592230e+000
 1.6680278972e+000	 1.6315839263e+000	-1.4979397705e+000
 1.6499065415e+000	 1.6499065415e+000	-1.5268910577e+000
 1.6315839263e+000	 1.6680278972e+000	-1.5530317031e+000
 1.6130634224e+000	 1.6859446966e+000	-1.5750762375e+000
 1.5943484719e+000	 1.7036537181e+000	-1.5917362838e+000
 1.5754425866e+000	 1.7211518181e+000	-1.6017216484e+000
 1.5563493455e+000	 1.7384359321e+000	-1.6037413187e+000
 1.7583048783e+000	 1.5741371861e+000	-1.3348259976e+000
 1.7408232205e+000	 1.5934486479e+000	-1.3614730111e+000
 1.7231251311e+000	 1.6125706125e+000	-1.3918388107e+000
 1.7052137095e+000	 1.6314994600e+000	-1.4243641861e+000
 1.6870921353e+000	 1.6502316386e+000	-1.4574842157e+000
 1.6687636668e+000	 1.6687636668e+000	-1.4896302201e+000
 1.6502316386e+000	 1.6870921353e+000	-1.5192316308e+000
 1.6314994600e+000	 1.7052137095e+000	-1.5447177631e+000
 1.6125706125e+000	 1.7231251311e+000	-1.5645194866e+000
 1.5934486479e+000	 1.7408232205e+000	-1.5770707866e+000
 1.5741371861e+000	 1.7583048783e+000	-1.5808102120e+000
 1.7781738244e+000	 1.5919250267e+000	-1.3027210293e+000
 1.7604946229e+000	 1.6114547092e+000	-1.3280947550e+000
 1.7425965441e+000	 1.6307927531e+000	-1.3582850951e+000
 1.7244827224e+000	 1.6499354976e+000	-1.3915343571e+000
 1.7061563734e+000	 1.6688793510e+000	-1.4260807087e+000
 1.6876207921e+000	 1.6876207921e+000	-1.4601605051e+000
 1.6688793510e+000	 1.7061563734e+000	-1.4920105159e+000
 1.6499354976e+000	 1.7244827224e+000	-1.5198700418e+000
 1.6307927531e+000	 1.7425965441e+000	-1.5419829120e+000
 1.6114547092e+000	 1.7604946229e+000	-1.5565993549e+000
 1.5919250267e+000	 1.7781738244e+000	-1.5619777360e+000
 1.7980427706e+000	 1.6097128674e+000	-1.2811606005e+000
 1.7801660254e+000	 1.6294607705e+000	-1.3049392211e+000
 1.7620679571e+000	 1.6490148936e+000	-1.3342682493e+000
 1.7437517353e+000	 1.6683715353e+000	-1.3672878436e+000
 1.7252206114e+000	 1.6875270633e+000	-1.4021347992e+000
 1.7064779174e+000	 1.7064779174e+000	-1.4369450845e+000
 1.6875270633e+000	 1.7252206114e+000	-1.4698562649e+000
 1.6683715353e+000	 1.7437517353e+000	-1.4990098015e+000
 1.6490148936e+000	 1.7620679571e+000	-1.5225532155e+000
 1.6294607705e+000	 1.7801660254e+000	-1.5386421097e+000
 1.6097128674e+000	 1.7980427706e+000	-1.5454420413e+000
 1.8179117167e+000	 1.6275007080e+000	-1.2680717681e+000
 1.7998374278e+000	 1.6474668317e+000	-1.2900831698e+000
 1.7815393701e+000	 1.6672370342e+000	-1.3179951242e+000
 1.7630207482e+000	 1.6868075729e+000	-1.3499389374e+000
 1.7442848495e+000	 1.7061747756e+000	-1.3840425639e+000
 1.7253350427e+000	 1.7253350427e+000	-1.4184331929e+000
 1.7061747756e+000	 1.7442848495e+000	-1.4512397093e+000
 1.6868075729e+000	 1.7630207482e+000	-1.4805950171e+000
 1.6672370342e+000	 1.7815393701e+000	-1.5046382132e+000
 1.6474668317e+000	 1.7998374278e+000	-1.5215166058e+000
 1.6275007080e+000	 1.8179117167e+000	-1.5293875680e+000
 1.8377806629e+000	 1.6452885487e+000	-1.2614028659e+000
 1.8195088302e+000	 1.6654728930e+000	-1.2816167123e+000
 1.8010107831e+000	 1.6854591748e+000	-1.3076787288e+000
 1.7822897611e+000	 1.7052436106e+000	-1.3378017580e+000
 1.7633490876e+000	 1.7248224880e+000	-1.3701945675e+000
 1.7441921681e+000	 1.7441921681e+000	-1.4030643305e+000
 1.7248224880e+000	 1.7633490876e+000	-1.4346189689e+000
 1.7052436106e+000	 1.7822897611e+000	-1.4630693448e+000
 1.6854591748e+000	 1.8010107831e+000	-1.4866312922e+000
 1.6654728930e+000	 1.8195088302e+000	-1.5035274783e+000
 1.6452885487e+000	 1.8377806629e+000	-1.5119890882e+000
 1.8576496090e+000	 1.6630763893e+000	-1.2591259176e+000
 1.8391802326e+000	 1.6834789543e+000	-1.2776461894e+000
 1.8204821961e+000	 1.7036813154e+000	-1.3015415270e+000
 1.8015587740e+000	 1.7236796482e+000	-1.3291939108e+000
 1.7824133256e+000	 1.7434702003e+000	-1.3589798189e+000
 1.7630492934e+000	 1.7630492934e+000	-1.3892724488e+000
 1.7434702003e+000	 1.7824133256e+000	-1.4184437888e+000
 1.7236796482e+000	 1.8015587740e+000	-1.4448665281e+000
 1.7036813154e+000	 1.8204821961e+000	-1.4669157934e+000
 1.6834789543e+000	 1.8391802326e+000	-1.4829707052e+000
 1.6630763893e+000	 1.8576496090e+000	-1.4914157459e+000
 1.8775185552e+000	 1.6808642300e+000	-1.2592391372e+000
 1.8588516350e+000	 1.7014850156e+000	-1.2762971108e+000
 1.8399536091e+000	 1.7219034560e+000	-1.2978187690e+000
 1.8208277868e+000	 1.7421156858e+000	-1.3224401594e+000
 1.8014775637e+000	 1.7621179126e+000	-1.3487897255e+000
 1.7819064187e+000	 1.7819064187e+000	-1.3754901195e+000
 1.7621179126e+000	 1.8014775637e+000	-1.4011598528e+000
 1.7421156858e+000	 1.8208277868e+000	-1.4244147749e+000
 1.7219034560e+000	 1.8399536091e+000	-1.4438693686e+000
 1.7014850156e+000	 1.8588516350e+000	-1.4581378537e+000
 1.6808642300e+000	 1.8775185552e+000	-1.4658350935e+000
 1.8973875014e+000	 1.6986520706e+000	-1.2597695076e+000
 1.8785230374e+000	 1.7194910769e+000	-1.2757171478e+000
 1.8594250221e+000	 1.7401255965e+000	-1.2947618556e+000
 1.8400967997e+000	 1.7605517235e+000	-1.3158761111e+000
 1.8205418018e+000	 1.7807656250e+000	-1.3380220442e+000
 1.8007635440e+000	 1.8007635440e+000	-1.3601526900e+000
 1.7807656250e+000	 1.8205418018e+000	-1.3812130734e+000
 1.7605517235e+000	 1.8400967997e+000	-1.4001411099e+000
 1.7401255965e+000	 1.8594250221e+000	-1.4158683147e+000
 1.7194910769e+000	 1.8785230374e+000	-1.4273203095e+000
 1.6986520706e+000	 1.8973875014e+000	-1.4334171255e+000
 1.9172564475e+000	 1.7164399113e+000	-1.2587754337e+000
 1.8981944399e+000	 1.7374971381e+000	-1.2740791775e+000
 1.8788964350e+000	 1.7583477371e+000	-1.2906417317e+000
 1.8593658126e+000	 1.7789877611e+000	-1.3078519140e+000
 1.8396060398e+000	 1.7994133373e+000	-1.3250848290e+000
 1.8196206693e+000	 1.8196206693e+000	-1.3417024236e+000
 1.7994133373e+000	 1.8396060398e+000	-1.3570538613e+000
 1.7789877611e+000	 1.8593658126e+000	-1.3704757028e+000
 1.7583477371e+000	 1.8788964350e+000	-1.3812918850e+000
 1.7374971381e+000	 1.8981944399e+000	-1.3888134916e+000
 1.7164399113e+000	 1.9172564475e+000	-1.3923383107e+000
 1.9371253937e+000	 1.7342277519e+000	-1.2543494637e+000
 1.9178658423e+000	 1.7555031994e+000	-1.2695843729e+000
 1.8983678480e+000	 1.7765698777e+000	-1.2837523085e+000
 1.8786348255e+000	 1.7974237988e+000	-1.2967359658e+000
 1.8586702779e+000	 1.8180610496e+000	-1.3084003774e+000
 1.8384777946e+000	 1.8384777946e+000	-1.3185926278e+000
 1.8180610496e+000	 1.8586702779e+000	-1.3271413757e+000
 1.7974237988e+000	 1.8786348255e+000	-1.3338561745e+000
 1.7765698777e+000	 1.8983678480e+000	-1.3385265818e+000
 1.7555031994e+000	 1.9178658423e+000	-1.3409210537e+000
 1.7342277519e+000	 1.9371253937e+000	-1.3407856202e+000
 1.5563493455e+000	 1.7384359321e+000	-1.6037413187e+000
 1.5370694871e+000	 1.7555056212e+000	-1.6020763454e+000
 1.5176095714e+000	 1.7723553761e+000	-1.6011465504e+000
 1.4979733684e+000	 1.7889823814e+000	-1.5998599524e+000
 1.4781647061e+000	 1.8053839080e+000	-1.5971142136e+000
 1.4581874680e+000	 1.8215573143e+000	-1.5917969391e+000
 1.4380455904e+000	 1.8375000477e+000	-1.5827859075e+000
 1.4177430601e+000	 1.8532096461e+000	-1.5689492369e+000
 1.3972839118e+000	 1.8686837386e+000	-1.5491454929e+000
 1.3766722252e+000	 1.8839200471e+000	-1.5222237470e+000
 1.3559121227e+000	 1.8989163873e+000	-1.4870235926e+000
 1.5741371861e+000	 1.7583048783e+000	-1.5808102120e+000
 1.5546369742e+000	 1.7755696604e+000	-1.5797288065e+000
 1.5349546471e+000	 1.7926119946e+000	-1.5782471085e+000
 1.5150940179e+000	 1.8094290334e+000	-1.5754450554e+000
 1.4950589583e+000	 1.8260180165e+000	-1.5703938030e+000
 1.4748533961e+000	 1.8423762720e+000	-1.5621555975e+000
 1.4544813128e+000	 1.8585012183e+000	-1.5497835670e+000
 1.4339467407e+000	 1.8743903649e+000	-1.5323214381e+000
 1.4132537605e+000	 1.8900413140e+000	-1.5088031865e+000
 1.3924064986e+000	 1.9054517615e+000	-1.4782526313e+000
 1.3714091246e+000	 1.9206194979e+000	-1.4396829816e+000
 1.5919250267e+000	 1.7781738244e+000	-1.5619777360e+000
 1.5722044614e+000	 1.7956336995e+000	-1.5618560062e+000
 1.5522997228e+000	 1.8128686131e+000	-1.5605908723e+000
 1.5322146673e+000	 1.8298756855e+000	-1.5573710429e+000
 1.5119532104e+000	 1.8466521250e+000	-1.5513783308e+000
 1.4915193242e+000	 1.8631952297e+000	-1.5417872004e+000
 1.4709170352e+000	 1.8795023888e+000	-1.5277642210e+000
 1.4501504213e+000	 1.8955710837e+000	-1.5084674344e+000
 1.4292236092e+000	 1.9113988895e+000	-1.4830456437e+000
 1.4081407721e+000	 1.9269834759e+000	-1.4506376370e+000
 1.3869061265e+000	 1.9423226086e+000	-1.4103713558e+000
 1.6097128674e+000	 1.7980427706e+000	-1.5454420413e+000
 1.5897719485e+000	 1.8156977387e+000	-1.5464961453e+000
 1.5696447985e+000	 1.8331252317e+000	-1.5460575123e+000
 1.5493353168e+000	 1.8503223375e+000	-1.5433626661e+000
 1.5288474625e+000	 1.8672862335e+000	-1.5376434324e+000
 1.5081852524e+000	 1.8840141875e+000	-1.5281262639e+000
 1.4873527576e+000	 1.9005035594e+000	-1.5140314544e+000
 1.4663541018e+000	 1.9167518025e+000	-1.4945722521e+000
 1.4451934579e+000	 1.9327564649e+000	-1.4689538826e+000
 1.4238750455e+000	 1.9485151903e+000	-1.4363724922e+000
 1.4024031284e+000	 1.9640257193e+000	-1.3960140264e+000
 1.6275007080e+000	 1.8179117167e+000	-1.5293875680e+000
 1.6073394356e+000	 1.8357617779e+000	-1.5316781294e+000
 1.5869898742e+000	 1.8533818502e+000	-1.5325216667e+000
 1.5664559662e+000	 1.8707689896e+000	-1.5311436647e+000
 1.5457417147e+000	 1.8879203420e+000	-1.5267674244e+000
 1.5248511805e+000	 1.9048331452e+000	-1.5186132627e+000
 1.5037884800e+000	 1.9215047299e+000	-1.5058975848e+000
 1.4825577824e+000	 1.9379325214e+000	-1.4878318380e+000
 1.4611633066e+000	 1.9541140404e+000	-1.4636213589e+000
 1.4396093189e+000	 1.9700469047e+000	-1.4324641265e+000
 1.4179001304e+000	 1.9857288300e+000	-1.3935494361e+000
 1.6452885487e+000	 1.8377806629e+000	-1.5119890882e+000
 1.6249069228e+000	 1.8558258171e+000	-1.5154253118e+000
 1.6043349499e+000	 1.8736384687e+000	-1.5178563826e+000
 1.5835766157e+000	 1.8912156416e+000	-1.5184399115e+000
 1.5626359668e+000	 1.9085544505e+000	-1.5163341583e+000
 1.5415171086e+000	 1.9256521029e+000	-1.5106972046e+000
 1.5202242024e+000	 1.9425059005e+000	-1.5006859775e+000
 1.4987614629e+000	 1.9591132402e+000	-1.4854551363e+000
 1.4771331553e+000	 1.9754716158e+000	-1.4641558327e+000
 1.4553435924e+000	 1.9915786191e+000	-1.4359343605e+000
 1.4333971323e+000	 2.0074319407e+000	-1.3996181770e+000
 1.6630763893e+000	 1.8576496090e+000	-1.4914157459e+000
 1.6424744099e+000	 1.8758898563e+000	-1.4957592532e+000
 1.6216800256e+000	 1.8938950873e+000	-1.4999365939e+000
 1.6006972652e+000	 1.9116622936e+000	-1.5029826086e+000
 1.5795302189e+000	 1.9291885590e+000	-1.5039359444e+000
 1.5581830367e+000	 1.9464710607e+000	-1.5018382939e+000
 1.5366599249e+000	 1.9635070710e+000	-1.4957334639e+000
 1.5149651435e+000	 1.9802939590e+000	-1.4846662832e+000
 1.4931030040e+000	 1.9968291913e+000	-1.4676813643e+000
 1.4710778658e+000	 2.0131103335e+000	-1.4427521777e+000
 1.4488941342e+000	 2.0291350514e+000	-1.4069495409e+000
 1.6808642300e+000	 1.8775185552e+000	-1.4658350935e+000
 1.6600418970e+000	 1.8959538955e+000	-1.4707034957e+000
 1.6390251014e+000	 1.9141517058e+000	-1.4766426301e+000
 1.6178179146e+000	 1.9321089457e+000	-1.4825115349e+000
 1.5964244711e+000	 1.9498226675e+000	-1.4871765422e+000
 1.5748489648e+000	 1.9672900184e+000	-1.4895106759e+000
 1.5530956473e+000	 1.9845082416e+000	-1.4883928545e+000
 1.5311688241e+000	 2.0014746778e+000	-1.4826921146e+000
 1.5090728527e+000	 2.0181867667e+000	-1.4691228692e+000
 1.4868121393e+000	 2.0346420479e+000	-1.4452556762e+000
 1.4643911361e+000	 2.0508381620e+000	-1.4103116622e+000
 1.6986520706e+000	 1.8973875014e+000	-1.4334171255e+000
 1.6776093842e+000	 1.9160179347e+000	-1.4382873509e+000
 1.6563701771e+000	 1.9344083244e+000	-1.4458637558e+000
 1.6349385641e+000	 1.9525555977e+000	-1.4547783378e+000
 1.6133187232e+000	 1.9704567760e+000	-1.4636742114e+000
 1.5915148930e+000	 1.9881089761e+000	-1.4712052559e+000
 1.5695313697e+000	 2.0055094121e+000	-1.4758172814e+000
 1.5473725046e+000	 2.0226553967e+000	-1.4731891558e+000
 1.5250427014e+000	 2.0395443422e+000	-1.4612995281e+000
 1.5025464127e+000	 2.0561737623e+000	-1.4391498470e+000
 1.4798881380e+000	 2.0725412727e+000	-1.4057427817e+000
 1.7164399113e+000	 1.9172564475e+000	-1.3923383107e+000
 1.6951768713e+000	 1.9360819738e+000	-1.3965497001e+000
 1.6737152528e+000	 1.9546649429e+000	-1.4055017381e+000
 1.6520592135e+000	 1.9730022498e+000	-1.4175498686e+000
 1.6302129753e+000	 1.9910908845e+000	-1.4310648195e+000
 1.6081808211e+000	 2.0089279339e+000	-1.4438337454e+000
 1.5859670921e+000	 2.0265105827e+000	-1.4508208972e+000
 1.5635761852e+000	 2.0438361155e+000	-1.4501548397e+000
 1.5410125501e+000	 2.0609019176e+000	-1.4405594811e+000
 1.5182806861e+000	 2.0777054766e+000	-1.4207602483e+000
 1.4953851399e+000	 2.0942443834e+000	-1.3894920151e+000
 1.7342277519e+000	 1.9371253937e+000	-1.3407856202e+000
 1.7127443585e+000	 1.9561460130e+000	-1.3435428074e+000
 1.6910603285e+000	 1.9749215615e+000	-1.3534744393e+000
 1.6691798630e+000	 1.9934489018e+000	-1.3686115565e+000
 1.6471072275e+000	 2.0117249930e+000	-1.3859358468e+000
 1.6248467492e+000	 2.0297468916e+000	-1.3998948083e+000
 1.6024028145e+000	 2.0475117532e+000	-1.4085511725e+000
 1.5797798658e+000	 2.0650168343e+000	-1.4102950517e+000
 1.5569823987e+000	 2.0822594931e+000	-1.4035170228e+000
 1.5340149596e+000	 2.0992371910e+000	-1.3866174635e+000
 1.5108821418e+000	 2.1159474941e+000	-1.3580154658e+000
 1.3559121227e+000	 1.8989163873e+000	-1.4870235926e+000
 1.3350077662e+000	 1.9136706685e+000	-1.4556262217e+000
 1.3139633529e+000	 1.9281808938e+000	-1.4366432652e+000
 1.2927831142e+000	 1.9424451616e+000	-1.4228781880e+000
 1.2714713133e+000	 1.9564616671e+000	-1.4113727280e+000
 1.2500322424e+000	 1.9702287031e+000	-1.3991979201e+000
 1.2284702205e+000	 1.9837446602e+000	-1.3834370716e+000
 1.2067895896e+000	 1.9970080273e+000	-1.3611956327e+000
 1.1849947132e+000	 2.0100173918e+000	-1.3295690966e+000
 1.1630899723e+000	 2.0227714400e+000	-1.2858378674e+000
 1.1410797639e+000	 2.0352689572e+000	-1.2276028115e+000
 1.3714091246e+000	 1.9206194979e+000	-1.4396829816e+000
 1.3502658479e+000	 1.9355424090e+000	-1.4052569494e+000
 1.3289809136e+000	 1.9502184746e+000	-1.3871580647e+000
 1.3075586015e+000	 1.9646457717e+000	-1.3769678349e+000
 1.2860032236e+000	 1.9788224748e+000	-1.3684584306e+000
 1.2643191212e+000	 1.9927468571e+000	-1.3586087046e+000
 1.2425106623e+000	 2.0064172909e+000	-1.3443223950e+000
 1.2205822391e+000	 2.0198322477e+000	-1.3222147793e+000
 1.1985382644e+000	 2.0329902990e+000	-1.2895793683e+000
 1.1763831698e+000	 2.0458901159e+000	-1.2438643940e+000
 1.1541214020e+000	 2.0585304698e+000	-1.1825686250e+000
 1.3869061265e+000	 1.9423226086e+000	-1.4103713558e+000
 1.3655239295e+000	 1.9574141494e+000	-1.3743416009e+000
 1.3439984743e+000	 1.9722560554e+000	-1.3548779573e+000
 1.3223340888e+000	 1.9868463818e+000	-1.3496472505e+000
 1.3005351339e+000	 2.0011832824e+000	-1.3467021993e+000
 1.2786059999e+000	 2.0152650111e+000	-1.3406592069e+000
 1.2565511042e+000	 2.0290899215e+000	-1.3281833339e+000
 1.2343748885e+000	 2.0426564682e+000	-1.3065454473e+000
 1.2120818157e+000	 2.0559632062e+000	-1.2730442904e+000
 1.1896763672e+000	 2.0690087917e+000	-1.2250177062e+000
 1.1671630402e+000	 2.0817919823e+000	-1.1598527054e+000
 1.4024031284e+000	 1.9640257193e+000	-1.3960140264e+000
 1.3807820112e+000	 1.9792858898e+000	-1.3597709978e+000
 1.3590160350e+000	 1.9942936363e+000	-1.3397890400e+000
 1.3371095762e+000	 2.0090469919e+000	-1.3352540704e+000
 1.3150670442e+000	 2.0235440901e+000	-1.3386704620e+000
 1.2928928786e+000	 2.0377831651e+000	-1.3372342876e+000
 1.2705915461e+000	 2.0517625522e+000	-1.3278383584e+000
 1.2481675379e+000	 2.0654806886e+000	-1.3076357023e+000
 1.2256253669e+000	 2.0789361133e+000	-1.2738088707e+000
 1.2029695646e+000	 2.0921274676e+000	-1.2235809945e+000
 1.1802046783e+000	 2.1050534949e+000	-1.1542256088e+000
 1.4179001304e+000	 1.9857288300e+000	-1.3935494361e+000
 1.3960400929e+000	 2.0011576303e+000	-1.3584408374e+000
 1.3740335957e+000	 2.0163312171e+000	-1.3377405437e+000
 1.3518850635e+000	 2.0312476020e+000	-1.3303506300e+000
 1.3295989545e+000	 2.0459048977e+000	-1.3359076335e+000
 1.3071797573e+000	 2.0603013190e+000	-1.3411055810e+000
 1.2846319880e+000	 2.0744351829e+000	-1.3364505020e+000
 1.2619601874e+000	 2.0883049091e+000	-1.3189688922e+000
 1.2391689182e+000	 2.1019090205e+000	-1.2857211838e+000
 1.2162627620e+000	 2.1152461435e+000	-1.2338125604e+000
 1.1932463165e+000	 2.1283150075e+000	-1.1604024519e+000
 1.4333971323e+000	 2.0074319407e+000	-1.3996181770e+000
 1.4112981745e+000	 2.0230293707e+000	-1.3643660505e+000
 1.3890511563e+000	 2.0383687979e+000	-1.3416378999e+000
 1.3666605508e+000	 2.0534482121e+000	-1.3314420434e+000
 1.3441308648e+000	 2.0682657054e+000	-1.3337350295e+000
 1.3214666360e+000	 2.0828194730e+000	-1.3452574941e+000
 1.2986724299e+000	 2.0971078136e+000	-1.3472612401e+000
 1.2757528368e+000	 2.1111291295e+000	-1.3340842503e+000
 1.2527124694e+000	 2.1248819277e+000	-1.3026600342e+000
 1.2295559594e+000	 2.1383648193e+000	-1.2499737276e+000
 1.2062879546e+000	 2.1515765201e+000	-1.1730711687e+000
 1.4488941342e+000	 2.0291350514e+000	-1.4069495409e+000
 1.4265562562e+000	 2.0449011111e+000	-1.3711769537e+000
 1.4040687170e+000	 2.0604063787e+000	-1.3468697258e+000
 1.3814360382e+000	 2.0756488222e+000	-1.3340733677e+000
 1.3586627752e+000	 2.0906265131e+000	-1.3327835621e+000
 1.3357535147e+000	 2.1053376270e+000	-1.3429494969e+000
 1.3127128717e+000	 2.1197804442e+000	-1.3536179819e+000
 1.2895454862e+000	 2.1339533500e+000	-1.3466044079e+000
 1.2662560207e+000	 2.1478548349e+000	-1.3185625728e+000
 1.2428491568e+000	 2.1614834952e+000	-1.2663566518e+000
 1.2193295928e+000	 2.1748380327e+000	-1.1869206022e+000
 1.4643911361e+000	 2.0508381620e+000	-1.4103116622e+000
 1.4418143379e+000	 2.0667728516e+000	-1.3746403428e+000
 1.4190862777e+000	 2.0824439595e+000	-1.3491816438e+000
 1.3962115255e+000	 2.0978494323e+000	-1.3340048658e+000
 1.3731946855e+000	 2.1129873207e+000	-1.3291335573e+000
 1.3500403934e+000	 2.1278557810e+000	-1.3345489786e+000
 1.3267533136e+000	 2.1424530749e+000	-1.3490016046e+000
 1.3033381357e+000	 2.1567775704e+000	-1.3502629099e+000
 1.2797995719e+000	 2.1708277421e+000	-1.3274518728e+000
 1.2561423542e+000	 2.1846021710e+000	-1.2773120359e+000
 1.2323712309e+000	 2.1980995453e+000	-1.1966684415e+000
 1.4798881380e+000	 2.0725412727e+000	-1.4057427817e+000
 1.4570724195e+000	 2.0886445920e+000	-1.3707385566e+000
 1.4341038384e+000	 2.1044815404e+000	-1.3445337257e+000
 1.4109870128e+000	 2.1200500424e+000	-1.3272083616e+000
 1.3877265958e+000	 2.1353481284e+000	-1.3188029759e+000
 1.3643272722e+000	 2.1503739350e+000	-1.3193221373e+000
 1.3407937555e+000	 2.1651257056e+000	-1.3287376410e+000
 1.3171307851e+000	 2.1796017909e+000	-1.3389317335e+000
 1.2933431232e+000	 2.1938006493e+000	-1.3234644664e+000
 1.2694355516e+000	 2.2077208469e+000	-1.2772767589e+000
 1.2454128691e+000	 2.2213610579e+000	-1.1970890183e+000
 1.4953851399e+000	 2.0942443834e+000	-1.3894920151e+000
 1.4723305012e+000	 2.1105163324e+000	-1.3556655486e+000
 1.4491213991e+000	 2.1265191212e+000	-1.3290967143e+000
 1.4257625001e+000	 2.1422506525e+000	-1.3098636962e+000
 1.4022585061e+000	 2.1577089361e+000	-1.2980134097e+000
 1.3786141509e+000	 2.1728920890e+000	-1.2935652952e+000
 1.3548341974e+000	 2.1877983362e+000	-1.2965146131e+000
 1.3309234345e+000	 2.2024260114e+000	-1.3066488106e+000
 1.3068866744e+000	 2.2167735565e+000	-1.3008778452e+000
 1.2827287490e+000	 2.2308395228e+000	-1.2608014228e+000
 1.2584545072e+000	 2.2446225705e+000	-1.1830409709e+000
 1.5108821418e+000	 2.1159474941e+000	-1.3580154658e+000
 1.4875885829e+000	 2.1323880729e+000	-1.3258230672e+000
 1.4641389598e+000	 2.1485567020e+000	-1.2992483473e+000
 1.4405379875e+000	 2.1644512626e+000	-1.2783552771e+000
 1.4167904164e+000	 2.1800697437e+000	-1.2631869363e+000
 1.3929010296e+000	 2.1954102429e+000	-1.2537695086e+000
 1.3688746392e+000	 2.2104709669e+000	-1.2501157184e+000
 1.3447160840e+000	 2.2252502318e+000	-1.2522276856e+000
 1.3204302257e+000	 2.2397464637e+000	-1.2541379284e+000
 1.2960219464e+000	 2.2539581986e+000	-1.2225778253e+000
 1.2714961454e+000	 2.2678840830e+000	-1.1494947853e+000
 1.1410797639e+000	 2.0352689572e+000	-1.2276028115e+000
 1.1189718211e+000	 2.0475070112e+000	-1.1695904472e+000
 1.0967672688e+000	 2.0594864808e+000	-1.1255217874e+000
 1.0744705326e+000	 2.0712064498e+000	-1.0917262433e+000
 1.0520860425e+000	 2.0826661006e+000	-1.0647448115e+000
 1.0296182305e+000	 2.0938647137e+000	-1.0413378552e+000
 1.0070715277e+000	 2.1048016674e+000	-1.0185103351e+000
 9.8445036148e-001	 2.1154764373e+000	-9.9344916471e-001
 9.6175915357e-001	 2.1258885955e+000	-9.6362409813e-001
 9.3900231690e-001	 2.1360378104e+000	-9.2673193913e-001
 9.1618425334e-001	 2.1459238455e+000	-8.8071409009e-001
 1.1541214020e+000	 2.0585304698e+000	-1.1825686250e+000
 1.1317607830e+000	 2.0709083951e+000	-1.1218775155e+000
 1.1093024502e+000	 2.0830247805e+000	-1.0768511782e+000
 1.0867508800e+000	 2.0948786995e+000	-1.0435351047e+000
 1.0641105529e+000	 2.1064693250e+000	-1.0181946696e+000
 1.0413859516e+000	 2.1177959294e+000	-9.9732280014e-001
 1.0185815578e+000	 2.1288578838e+000	-9.7764660672e-001
 9.9570184959e-001	 2.1396546578e+000	-9.5615473973e-001
 9.7275129914e-001	 2.1501858188e+000	-9.3002148156e-001
 9.4973436985e-001	 2.1604510311e+000	-8.9672377251e-001
 9.2665551389e-001	 2.1704500559e+000	-8.5397362236e-001
 1.1671630402e+000	 2.0817919823e+000	-1.1598527054e+000
 1.1445497449e+000	 2.0943097789e+000	-1.0953220185e+000
 1.1218376317e+000	 2.1065630802e+000	-1.0479837327e+000
 1.0990312274e+000	 2.1185509491e+000	-1.0136441729e+000
 1.0761350633e+000	 2.1302725494e+000	-9.8833684098e-001
 1.0531536727e+000	 2.1417271451e+000	-9.6832984461e-001
 1.0300915879e+000	 2.1529141003e+000	-9.5013224620e-001
 1.0069533377e+000	 2.1638328784e+000	-9.3051911661e-001
 9.8374344471e-001	 2.1744830421e+000	-9.0646295521e-001
 9.6046642279e-001	 2.1848642519e+000	-8.7523929831e-001
 9.3712677444e-001	 2.1949762662e+000	-8.3436587261e-001
 1.1802046783e+000	 2.1050534949e+000	-1.1542256088e+000
 1.1573387067e+000	 2.1177111628e+000	-1.0851961619e+000
 1.1343728131e+000	 2.1301013799e+000	-1.0346719380e+000
 1.1113115748e+000	 2.1422231988e+000	-9.9826455716e-001
 1.0881595737e+000	 2.1540757738e+000	-9.7181915749e-001
 1.0649213938e+000	 2.1656583608e+000	-9.5142144687e-001
 1.0416016180e+000	 2.1769703167e+000	-9.3340363710e-001
 1.0182048258e+000	 2.1880110990e+000	-9.1434934749e-001
 9.9473559028e-001	 2.1987802654e+000	-8.9112086097e-001
 9.7119847574e-001	 2.2092774727e+000	-8.6077580349e-001
 9.4759803499e-001	 2.2195024766e+000	-8.2069044452e-001
 1.1932463165e+000	 2.1283150075e+000	-1.1604024519e+000
 1.1701276686e+000	 2.1411125466e+000	-1.0866851952e+000
 1.1469079945e+000	 2.1536396796e+000	-1.0325504999e+000
 1.1235919221e+000	 2.1658954485e+000	-9.9345957261e-001
 1.1001840841e+000	 2.1778789982e+000	-9.6511257293e-001
 1.0766891149e+000	 2.1895895765e+000	-9.4345514865e-001
 1.0531116482e+000	 2.2010265331e+000	-9.2468381526e-001
 1.0294563139e+000	 2.2121893196e+000	-9.0525027935e-001
 1.0057277359e+000	 2.2230774887e+000	-8.8188593294e-001
 9.8193052869e-001	 2.2336906935e+000	-8.5152625578e-001
 9.5806929554e-001	 2.2440286869e+000	-8.1142151992e-001
 1.2062879546e+000	 2.1515765201e+000	-1.1730711687e+000
 1.1829166305e+000	 2.1645139305e+000	-1.0949160270e+000
 1.1594431759e+000	 2.1771779793e+000	-1.0371652485e+000
 1.1358722695e+000	 2.1895676981e+000	-9.9517386159e-001
 1.1122085945e+000	 2.2016822226e+000	-9.6454042709e-001
 1.0884568360e+000	 2.2135207922e+000	-9.4111290802e-001
 1.0646216783e+000	 2.2250827495e+000	-9.2099334963e-001
 1.0407078020e+000	 2.2363675401e+000	-9.0054147953e-001
 1.0167198814e+000	 2.2473747120e+000	-8.7637733876e-001
 9.9266258164e-001	 2.2581039143e+000	-8.4540815224e-001
 9.6854055608e-001	 2.2685548972e+000	-8.0473639295e-001
 1.2193295928e+000	 2.1748380327e+000	-1.1869206022e+000
 1.1957055924e+000	 2.1879153143e+000	-1.1049856100e+000
 1.1719783574e+000	 2.2007162790e+000	-1.0440017478e+000
 1.1481526169e+000	 2.2132399478e+000	-9.9926216156e-001
 1.1242331049e+000	 2.2254854470e+000	-9.6630730184e-001
 1.1002245571e+000	 2.2374520078e+000	-9.4092997336e-001
 1.0761317084e+000	 2.2491389659e+000	-9.1917916312e-001
 1.0519592901e+000	 2.2605457607e+000	-8.9736276788e-001
 1.0277120270e+000	 2.2716719353e+000	-8.7204934369e-001
 1.0033946346e+000	 2.2825171351e+000	-8.4009174859e-001
 9.7901181663e-001	 2.2930811076e+000	-7.9854335643e-001
 1.2323712309e+000	 2.1980995453e+000	-1.1966684415e+000
 1.2084945542e+000	 2.2113166982e+000	-1.1119891115e+000
 1.1845135388e+000	 2.2242545787e+000	-1.0485136344e+000
 1.1604329643e+000	 2.2369121975e+000	-1.0015177463e+000
 1.1362576153e+000	 2.2492886714e+000	-9.6652749950e-001
 1.1119922782e+000	 2.2613832235e+000	-9.3932333229e-001
 1.0876417385e+000	 2.2731951823e+000	-9.1594288512e-001
 1.0632107782e+000	 2.2847239813e+000	-8.9268269889e-001
 1.0387041726e+000	 2.2959691586e+000	-8.6609893010e-001
 1.0141266875e+000	 2.3069303559e+000	-8.3300721762e-001
 9.8948307718e-001	 2.3176073179e+000	-7.9050898837e-001
 1.2454128691e+000	 2.2213610579e+000	-1.1970890183e+000
 1.2212835161e+000	 2.2347180820e+000	-1.1110478841e+000
 1.1970487202e+000	 2.2477928784e+000	-1.0461507036e+000
 1.1727133117e+000	 2.2605844471e+000	-9.9770056421e-001
 1.1482821256e+000	 2.2730918958e+000	-9.6125317112e-001
 1.1237599992e+000	 2.2853144392e+000	-9.3261976692e-001
 1.0991517687e+000	 2.2972513987e+000	-9.0786877008e-001
 1.0744622664e+000	 2.3089022019e+000	-8.8332627979e-001
 1.0496963181e+000	 2.3202663819e+000	-8.5557559646e-001
 1.0248587405e+000	 2.3313435766e+000	-8.2145590580e-001
 9.9995433773e-001	 2.3421335283e+000	-7.7808488267e-001
 1.2584545072e+000	 2.2446225705e+000	-1.1830409709e+000
 1.2340724780e+000	 2.2581194659e+000	-1.0973372536e+000
 1.2095839016e+000	 2.2713311781e+000	-1.0323867606e+000
 1.1849936591e+000	 2.2842566968e+000	-9.8356509600e-001
 1.1603066360e+000	 2.2968951202e+000	-9.4650212016e-001
 1.1355277203e+000	 2.3092456549e+000	-9.1708354380e-001
 1.1106617988e+000	 2.3213076151e+000	-8.9145121368e-001
 1.0857137545e+000	 2.3330804224e+000	-8.6600225247e-001
 1.0606884637e+000	 2.3445636051e+000	-8.3738721658e-001
 1.0355907934e+000	 2.3557567974e+000	-8.0250743454e-001
 1.0104255983e+000	 2.3666597386e+000	-7.5851168525e-001
 1.2714961454e+000	 2.2678840830e+000	-1.1494947853e+000
 1.2468614399e+000	 2.2815208497e+000	-1.0661141348e+000
 1.2221190831e+000	 2.2948694778e+000	-1.0027472557e+000
 1.1972740064e+000	 2.3079289465e+000	-9.5488795123e-001
 1.1723311464e+000	 2.3206983446e+000	-9.1828530477e-001
 1.1472954414e+000	 2.3331768706e+000	-8.8894376488e-001
 1.1221718289e+000	 2.3453638315e+000	-8.6312189537e-001
 1.0969652426e+000	 2.3572586430e+000	-8.3732997040e-001
 1.0716806093e+000	 2.3688608284e+000	-8.0832659382e-001
 1.0463228464e+000	 2.3801700182e+000	-7.7311452066e-001
 1.0208968588e+000	 2.3911859489e+000	-7.2893585508e-001
 9.1618425334e-001	 2.1459238455e+000	-8.8071409009e-001
 8.9330591575e-001	 2.1555479833e+000	-8.3222673913e-001
 8.7037509788e-001	 2.1649086739e+000	-7.8798891674e-001
 8.4739615664e-001	 2.1740059639e+000	-7.4638418848e-001
 8.2437342815e-001	 2.1828399911e+000	-7.0604539361e-001
 8.0131122541e-001	 2.1914109843e+000	-6.6585623406e-001
 7.7821383611e-001	 2.1997192618e+000	-6.2495245928e-001
 7.5508552040e-001	 2.2077652301e+000	-5.8272269414e-001
 7.3193050875e-001	 2.2155493829e+000	-5.3880895329e-001
 7.0875299987e-001	 2.2230722995e+000	-4.9310688054e-001
 6.8555715871e-001	 2.2303346436e+000	-4.4576574757e-001
 9.2665551389e-001	 2.1704500559e+000	-8.5397362236e-001
 9.0351569502e-001	 2.1801841899e+000	-8.0823120978e-001
 8.8032279606e-001	 2.1896518658e+000	-7.6621714347e-001
 8.5708122372e-001	 2.1988531306e+000	-7.2638904559e-001
 8.3379536366e-001	 2.2077881238e+000	-6.8745398012e-001
 8.1046957821e-001	 2.2164570766e+000	-6.4836945811e-001
 7.8710820405e-001	 2.2248603111e+000	-6.0834408196e-001
 7.6371555000e-001	 2.2329982385e+000	-5.6683788086e-001
 7.4029589490e-001	 2.2408713580e+000	-5.2356238506e-001
 7.1685348544e-001	 2.2484802556e+000	-4.7848048132e-001
 6.9339253419e-001	 2.2558256026e+000	-4.3180608672e-001
 9.3712677444e-001	 2.1949762662e+000	-8.3436587261e-001
 9.1372547428e-001	 2.2048203965e+000	-7.9009852151e-001
 8.9027049423e-001	 2.2143950577e+000	-7.4913049222e-001
 8.6676629079e-001	 2.2237002973e+000	-7.0999419842e-001
 8.4321729918e-001	 2.2327362564e+000	-6.7146963359e-001
 8.1962793101e-001	 2.2415031690e+000	-6.3258475566e-001
 7.9600257198e-001	 2.2500013605e+000	-5.9261556104e-001
 7.7234557960e-001	 2.2582312469e+000	-5.5108590536e-001
 7.4866128104e-001	 2.2661933331e+000	-5.0776712294e-001
 7.2495397102e-001	 2.2738882116e+000	-4.6267749155e-001
 7.0122790966e-001	 2.2813165615e+000	-4.1608158240e-001
 9.4759803499e-001	 2.2195024766e+000	-8.2069044452e-001
 9.2393525355e-001	 2.2294566031e+000	-7.7690585809e-001
 9.0021819241e-001	 2.2391382496e+000	-7.3605743978e-001
 8.7645135786e-001	 2.2485474640e+000	-6.9675403590e-001
 8.5263923470e-001	 2.2576843891e+000	-6.5784817012e-001
 8.2878628382e-001	 2.2665492613e+000	-6.1843576527e-001
 8.0489693991e-001	 2.2751424099e+000	-5.7785561202e-001
 7.8097560919e-001	 2.2834642553e+000	-5.3568864759e-001
 7.5702666719e-001	 2.2915153082e+000	-4.9175710136e-001
 7.3305445659e-001	 2.2992961677e+000	-4.4612355761e-001
 7.0906328514e-001	 2.3068075204e+000	-3.9908997901e-001
 9.5806929554e-001	 2.2440286869e+000	-8.1142151992e-001
 9.3414503282e-001	 2.2540928097e+000	-7.6738568272e-001
 9.1016589059e-001	 2.2638814415e+000	-7.2596441772e-001
 8.8613642494e-001	 2.2733946308e+000	-6.8584560959e-001
 8.6206117021e-001	 2.2826325217e+000	-6.4595486433e-001
 8.3794463662e-001	 2.2915953536e+000	-6.0545451984e-001
 8.1379130784e-001	 2.3002834592e+000	-5.6374246895e-001
 7.8960563879e-001	 2.3086972637e+000	-5.2045086368e-001
 7.6539205334e-001	 2.3168372833e+000	-4.7544476279e-001
 7.4115494217e-001	 2.3247041238e+000	-4.2882077702e-001
 7.1689866062e-001	 2.3322984793e+000	-3.8090575921e-001
 9.6854055608e-001	 2.2685548972e+000	-8.0473639295e-001
 9.4435481208e-001	 2.2787290163e+000	-7.5995387417e-001
 9.2011358876e-001	 2.2886246334e+000	-7.1748346311e-001
 8.9582149201e-001	 2.2982417975e+000	-6.7609571362e-001
 8.7148310573e-001	 2.3075806544e+000	-6.3479087477e-001
 8.4710298942e-001	 2.3166414459e+000	-5.9279713600e-001
 8.2268567577e-001	 2.3254245086e+000	-5.4956875837e-001
 7.9823566838e-001	 2.3339302721e+000	-5.0478416666e-001
 7.7375743949e-001	 2.3421592584e+000	-4.5834406978e-001
 7.4925542774e-001	 2.3501120799e+000	-4.1036966840e-001
 7.2473403609e-001	 2.3577894383e+000	-3.6120100052e-001
 9.7901181663e-001	 2.2930811076e+000	-7.9854335643e-001
 9.5456459135e-001	 2.3033652229e+000	-7.5273719194e-001
 9.3006128694e-001	 2.3133678253e+000	-7.0893918078e-001
 9.0550655908e-001	 2.3230889642e+000	-6.6600726412e-001
 8.8090504125e-001	 2.3325287870e+000	-6.2301896262e-001
 8.5626134222e-001	 2.3416875382e+000	-5.7926879596e-001
 8.3158004370e-001	 2.3505655579e+000	-5.3426567017e-001
 8.0686569798e-001	 2.3591632805e+000	-4.8773031441e-001
 7.8212282563e-001	 2.3674812335e+000	-4.3959284002e-001
 7.5735591331e-001	 2.3755200360e+000	-3.8999048557e-001
 7.3256941157e-001	 2.3832803972e+000	-3.3926560252e-001
 9.8948307718e-001	 2.3176073179e+000	-7.9050898837e-001
 9.6477437061e-001	 2.3280014296e+000	-7.4360012012e-001
 9.4000898511e-001	 2.3381110172e+000	-6.9837506798e-001
 9.1519162615e-001	 2.3479361309e+000	-6.5378502995e-001
 8.9032697676e-001	 2.3574769197e+000	-6.0898855578e-001
 8.6541969502e-001	 2.3667336306e+000	-5.6334807405e-001
 8.4047441163e-001	 2.3757066073e+000	-5.1642647768e-001
 8.1549572757e-001	 2.3843962889e+000	-4.6798385633e-001
 7.9048821178e-001	 2.3928032086e+000	-4.1797445451e-001
 7.6545639888e-001	 2.4009279921e+000	-3.6654392440e-001
 7.4040478704e-001	 2.4087713561e+000	-3.1402693148e-001
 9.9995433773e-001	 2.3421335283e+000	-7.7808488267e-001
 9.7498414988e-001	 2.3526376362e+000	-7.3017113552e-001
 9.4995668329e-001	 2.3628542091e+000	-6.8357924826e-001
 9.2487669322e-001	 2.3727832976e+000	-6.3736076250e-001
 8.9974891228e-001	 2.3824250523e+000	-5.9076020641e-001
 8.7457804782e-001	 2.3917797229e+000	-5.4321065605e-001
 8.4936877956e-001	 2.4008476566e+000	-4.9432945460e-001
 8.2412575717e-001	 2.4096292973e+000	-4.4391418555e-001
 7.9885359793e-001	 2.4181251837e+000	-3.9193898495e-001
 7.7355688446e-001	 2.4263359481e+000	-3.3855126691e-001
 7.4824016252e-001	 2.4342623150e+000	-2.8406892483e-001
 1.0104255983e+000	 2.3666597386e+000	-7.5851168525e-001
 9.8519392915e-001	 2.3772738428e+000	-7.0986844186e-001
 9.5990438146e-001	 2.3875974010e+000	-6.6210965737e-001
 9.3456176030e-001	 2.3976304643e+000	-6.1441776787e-001
 9.0917084779e-001	 2.4073731850e+000	-5.6612948604e-001
 8.8373640062e-001	 2.4168258152e+000	-5.1675249538e-001
 8.5826314749e-001	 2.4259887060e+000	-4.6596023249e-001
 8.3275578676e-001	 2.4348623057e+000	-4.1358704001e-001
 8.0721898407e-001	 2.4434471588e+000	-3.5962378231e-001
 7.8165737003e-001	 2.4517439042e+000	-3.0421400353e-001
 7.5607553799e-001	 2.4597532740e+000	-2.4765069497e-001
 1.0208968588e+000	 2.3911859489e+000	-7.2893585508e-001
 9.9540370841e-001	 2.4019100494e+000	-6.7992520827e-001
 9.6985207964e-001	 2.4123405929e+000	-6.3131872053e-001
 9.4424682737e-001	 2.4224776311e+000	-5.8241496174e-001
 9.1859278331e-001	 2.4323213176e+000	-5.3265035842e-001
 8.9289475342e-001	 2.4418719075e+000	-4.8161244652e-001
 8.6715751542e-001	 2.4511297553e+000	-4.2903363910e-001
 8.4138581636e-001	 2.4600953141e+000	-3.7478549182e-001
 8.1558437022e-001	 2.4687691339e+000	-3.1887356543e-001
 7.8975785560e-001	 2.4771518603e+000	-2.6143297077e-001
 7.6391091347e-001	 2.4852442329e+000	-2.0272466808e-001
 6.8555715871e-001	 2.2303346436e+000	-4.4576574757e-001
 6.6234711413e-001	 2.2373371614e+000	-4.0317660772e-001
 6.3912695606e-001	 2.2440806781e+000	-3.6227786673e-001
 6.1590073469e-001	 2.2505660983e+000	-3.1874097935e-001
 5.9267245902e-001	 2.2567944051e+000	-2.7320231467e-001
 5.6944609519e-001	 2.2627666581e+000	-2.2668059317e-001
 5.4622556476e-001	 2.2684839922e+000	-1.8056095259e-001
 5.2301474317e-001	 2.2739476157e+000	-1.3658159275e-001
 4.9981745820e-001	 2.2791588084e+000	-9.6822769492e-002
 4.7663748852e-001	 2.2841189201e+000	-6.3697893774e-002
 4.5347856227e-001	 2.2888293689e+000	-3.9946481257e-002
 6.9339253419e-001	 2.2558256026e+000	-4.3180608672e-001
 6.6991721718e-001	 2.2629081536e+000	-3.9052529901e-001
 6.4643167109e-001	 2.2697287433e+000	-3.5496398913e-001
 6.2293999239e-001	 2.2762882867e+000	-3.1612286242e-001
 5.9944623593e-001	 2.2825877781e+000	-2.7457598904e-001
 5.7595441315e-001	 2.2886282893e+000	-2.3139582085e-001
 5.5246849044e-001	 2.2944109680e+000	-1.8800313052e-001
 5.2899238754e-001	 2.2999370364e+000	-1.4615523788e-001
 5.0552997598e-001	 2.3052077888e+000	-1.0793684963e-001
 4.8208507759e-001	 2.3102245907e+000	-7.5753240533e-002
 4.5866146316e-001	 2.3149888762e+000	-5.2325492075e-002
 7.0122790966e-001	 2.2813165615e+000	-4.1608158240e-001
 6.7748732023e-001	 2.2884791457e+000	-3.7527495309e-001
 6.5373638611e-001	 2.2953768085e+000	-3.4379096574e-001
 6.2997925010e-001	 2.3020104752e+000	-3.0963037913e-001
 6.0622001284e-001	 2.3083811512e+000	-2.7198793031e-001
 5.8246273111e-001	 2.3144899205e+000	-2.3201637783e-001
 5.5871141613e-001	 2.3203379438e+000	-1.9119360538e-001
 5.3497003191e-001	 2.3259264570e+000	-1.5131258474e-001
 5.1124249375e-001	 2.3312567693e+000	-1.1447424101e-001
 4.8753266667e-001	 2.3363302614e+000	-8.3082917766e-002
 4.6384436404e-001	 2.3411483836e+000	-5.9844127001e-002
 7.0906328514e-001	 2.3068075204e+000	-3.9908997901e-001
 6.8505742327e-001	 2.3140501379e+000	-3.5821135631e-001
 6.6104110114e-001	 2.3210248737e+000	-3.2912071084e-001
 6.3701850780e-001	 2.3277326636e+000	-2.9973645534e-001
 6.1299378974e-001	 2.3341745242e+000	-2.6601873510e-001
 5.8897104907e-001	 2.3403515516e+000	-2.2922385269e-001
 5.6495434181e-001	 2.3462649196e+000	-1.9090472690e-001
 5.4094767629e-001	 2.3519158777e+000	-1.5290276056e-001
 5.1695501152e-001	 2.3573057498e+000	-1.1734292495e-001
 4.9298025574e-001	 2.3624359320e+000	-8.6631725749e-002
 4.6902726493e-001	 2.3673078909e+000	-6.3457702323e-002
 7.1689866062e-001	 2.3322984793e+000	-3.8090575921e-001
 6.9262752632e-001	 2.3396211300e+000	-3.3946773101e-001
 6.6834581616e-001	 2.3466729389e+000	-3.1090885896e-001
 6.4405776551e-001	 2.3534548520e+000	-2.8646278125e-001
 6.1976756665e-001	 2.3599678973e+000	-2.5679791176e-001
 5.9547936703e-001	 2.3662131828e+000	-2.2325305238e-001
 5.7119726749e-001	 2.3721918953e+000	-1.8747057298e-001
 5.4692532066e-001	 2.3779052983e+000	-1.5134936431e-001
 5.2266752930e-001	 2.3833547302e+000	-1.1704234968e-001
 4.9842784481e-001	 2.3885416026e+000	-8.6957184122e-002
 4.7421016581e-001	 2.3934673982e+000	-6.3759756985e-002
 7.2473403609e-001	 2.3577894383e+000	-3.6120100052e-001
 7.0019762936e-001	 2.3651921222e+000	-3.1877624569e-001
 6.7565053119e-001	 2.3723210042e+000	-2.8981057255e-001
 6.5109702321e-001	 2.3791770405e+000	-2.6940383354e-001
 6.2654134356e-001	 2.3857612703e+000	-2.4402583507e-001
 6.0198768499e-001	 2.3920748140e+000	-2.1391187081e-001
 5.7744019317e-001	 2.3981188711e+000	-1.8080470915e-001
 5.5290296503e-001	 2.4038947190e+000	-1.4666608995e-001
 5.2838004707e-001	 2.4094037107e+000	-1.1367688623e-001
 5.0387543389e-001	 2.4146472732e+000	-8.4240784593e-002
 4.7939306669e-001	 2.4196269055e+000	-6.0991062130e-002
 7.3256941157e-001	 2.3832803972e+000	-3.3926560252e-001
 7.0776773240e-001	 2.3907631144e+000	-2.9548709834e-001
 6.8295524621e-001	 2.3979690694e+000	-2.6568237207e-001
 6.5813628092e-001	 2.4048992289e+000	-2.4775037617e-001
 6.3331512046e-001	 2.4115546434e+000	-2.2699522572e-001
 6.0849600294e-001	 2.4179364451e+000	-2.0060073342e-001
 5.8368311886e-001	 2.4240458469e+000	-1.7041758125e-001
 5.5888060940e-001	 2.4298841397e+000	-1.3847204615e-001
 5.3409256484e-001	 2.4354526912e+000	-1.0696904992e-001
 5.0932302296e-001	 2.4407529438e+000	-7.8299085224e-002
 4.8457596758e-001	 2.4457864128e+000	-5.5048554787e-002
 7.4040478704e-001	 2.4087713561e+000	-3.1402693148e-001
 7.1533783545e-001	 2.4163341065e+000	-2.6858704602e-001
 6.9025996123e-001	 2.4236171346e+000	-2.3756511940e-001
 6.6517553862e-001	 2.4306214173e+000	-2.2031247855e-001
 6.4008889737e-001	 2.4373480164e+000	-2.0461218963e-001
 6.1500432090e-001	 2.4437980763e+000	-1.8233164944e-001
 5.8992604454e-001	 2.4499728226e+000	-1.5543356851e-001
 5.6485825377e-001	 2.4558735603e+000	-1.2600679471e-001
 5.3980508261e-001	 2.4615016716e+000	-9.6272504983e-002
 5.1477061203e-001	 2.4668586144e+000	-6.8594658003e-002
 4.8975886846e-001	 2.4719459201e+000	-4.5494201322e-002
 7.4824016252e-001	 2.4342623150e+000	-2.8406892483e-001
 7.2290793849e-001	 2.4419050987e+000	-2.3671742144e-001
 6.9756467626e-001	 2.4492651998e+000	-2.0415425620e-001
 6.7221479633e-001	 2.4563436058e+000	-1.8610262740e-001
 6.4686267428e-001	 2.4631413894e+000	-1.7541684940e-001
 6.2151263886e-001	 2.4696597075e+000	-1.5774690025e-001
 5.9616897022e-001	 2.4758997984e+000	-1.3460772202e-001
 5.7083589814e-001	 2.4818629810e+000	-1.0814512862e-001
 5.4551760038e-001	 2.4875506521e+000	-8.0584868183e-002
 5.2021820111e-001	 2.4929642851e+000	-5.4246900481e-002
 4.9494176935e-001	 2.4981054275e+000	-3.1563795787e-002
 7.5607553799e-001	 2.4597532740e+000	-2.4765069497e-001
 7.3047804154e-001	 2.4674760908e+000	-1.9819167363e-001
 7.0486939128e-001	 2.4749132650e+000	-1.6381624161e-001
 6.7925405403e-001	 2.4820657942e+000	-1.4461891717e-001
 6.5363645118e-001	 2.4889347625e+000	-1.3760359766e-001
 6.2802095682e-001	 2.4955213386e+000	-1.2513739059e-001
 6.0241189591e-001	 2.5018267742e+000	-1.0634221122e-001
 5.7681354251e-001	 2.5078524016e+000	-8.3411608328e-002
 5.5123011816e-001	 2.5135996326e+000	-5.8560325943e-002
 5.2566579018e-001	 2.5190699557e+000	-3.4042721308e-002
 5.0012467023e-001	 2.5242649348e+000	-1.2175697895e-002
 7.6391091347e-001	 2.4852442329e+000	-2.0272466808e-001
 7.3804814458e-001	 2.4930470830e+000	-1.5101246691e-001
 7.1217410630e-001	 2.5005613302e+000	-1.1460457476e-001
 6.8629331174e-001	 2.5077879826e+000	-9.4005621439e-002
 6.6041022809e-001	 2.5147281355e+000	-8.9040999111e-002
 6.3452927478e-001	 2.5213829698e+000	-8.2460686473e-002
 6.0865482159e-001	 2.5277537500e+000	-6.8702499575e-002
 5.8279118688e-001	 2.5338418223e+000	-4.9994873837e-002
 5.5694263593e-001	 2.5396486130e+000	-2.8522078443e-002
 5.3111337925e-001	 2.5451756263e+000	-6.4471087430e-003
 5.0530757112e-001	 2.5504244421e+000	 1.4060485042e-002
 4.5347856227e-001	 2.2888293689e+000	-3.9946481257e-002
 4.3034782282e-001	 2.2932909887e+000	-1.5795215935e-002
 4.0724541205e-001	 2.2975060545e+000	 1.8969527276e-002
 3.8417489215e-001	 2.3014761789e+000	 6.1734075158e-002
 3.6113977008e-001	 2.3052030356e+000	 1.0950585221e-001
 3.3814349649e-001	 2.3086883567e+000	 1.5891499606e-001
 3.1518946472e-001	 2.3119339318e+000	 2.0621582800e-001
 2.9228100992e-001	 2.3149416051e+000	 2.4728842827e-001
 2.6942140816e-001	 2.3177132742e+000	 2.7764055517e-001
 2.4661387566e-001	 2.3202508879e+000	 2.9241013537e-001
 2.2386156802e-001	 2.3225564445e+000	 2.8636853888e-001
 4.5866146316e-001	 2.3149888762e+000	-5.2325492075e-002
 4.3526635767e-001	 2.3195014888e+000	-2.8426237893e-002
 4.1189990463e-001	 2.3237647294e+000	 5.7190952153e-003
 3.8856570697e-001	 2.3277802293e+000	 4.7681177161e-002
 3.6526731169e-001	 2.3315496809e+000	 9.4648415851e-002
 3.4200820890e-001	 2.3350748366e+000	 1.4342550297e-001
 3.1879183072e-001	 2.3383575059e+000	 1.9043179597e-001
 2.9562155042e-001	 2.3413995546e+000	 2.3169981366e-001
 2.7250068152e-001	 2.3442029017e+000	 2.6287411177e-001
 2.4943247698e-001	 2.3467695183e+000	 2.7921079151e-001
 2.2642012848e-001	 2.3491014256e+000	 2.7557787919e-001
 4.6384436404e-001	 2.3411483836e+000	-5.9844127001e-002
 4.4018489252e-001	 2.3457119889e+000	-3.6103173556e-002
 4.1655439722e-001	 2.3500234044e+000	-2.5590991313e-003
 3.9295652178e-001	 2.3540842796e+000	 3.8532636436e-002
 3.6939485330e-001	 2.3578963263e+000	 8.4532250626e-002
 3.4587292131e-001	 2.3614613164e+000	 1.3241090076e-001
 3.2239419672e-001	 2.3647810801e+000	 1.7874575785e-001
 2.9896209093e-001	 2.3678575041e+000	 2.1971519915e-001
 2.7557995488e-001	 2.3706925291e+000	 2.5109441457e-001
 2.5225107830e-001	 2.3732881487e+000	 2.6825170772e-001
 2.2897868894e-001	 2.3756464067e+000	 2.6614575589e-001
 4.6902726493e-001	 2.3673078909e+000	-6.3457702323e-002
 4.4510342737e-001	 2.3719224890e+000	-3.9792191608e-002
 4.2120888981e-001	 2.3762820793e+000	-6.8684239196e-003
 3.9734733659e-001	 2.3803883299e+000	 3.3226962612e-002
 3.7352239491e-001	 2.3842429716e+000	 7.8022374011e-002
 3.4973763372e-001	 2.3878477962e+000	 1.2465300631e-001
 3.2599656273e-001	 2.3912046543e+000	 1.6985237178e-001
 3.0230263143e-001	 2.3943154536e+000	 2.0994394498e-001
 2.7865922823e-001	 2.3971821566e+000	 2.4083325439e-001
 2.5506967962e-001	 2.3998067791e+000	 2.5800073024e-001
 2.3153724940e-001	 2.4021913878e+000	 2.5649560071e-001
 4.7421016581e-001	 2.3934673982e+000	-6.3759756985e-002
 4.5002196221e-001	 2.3981329891e+000	-4.0126057986e-002
 4.2586338240e-001	 2.4025407543e+000	-7.9087304523e-003
 4.0173815140e-001	 2.4066923803e+000	 3.0974789288e-002
 3.7764993651e-001	 2.4105896170e+000	 7.4223039822e-002
 3.5360234613e-001	 2.4142342760e+000	 1.1913851015e-001
 3.2959892873e-001	 2.4176282285e+000	 1.6261535839e-001
 3.0564317194e-001	 2.4207734031e+000	 2.0112724714e-001
 2.8173850159e-001	 2.4236717841e+000	 2.3071565424e-001
 2.5788828094e-001	 2.4263254095e+000	 2.4697900101e-001
 2.3409580986e-001	 2.4287363689e+000	 2.4506292038e-001
 4.7939306669e-001	 2.4196269055e+000	-6.0991062130e-002
 4.5494049706e-001	 2.4243434892e+000	-3.7410931429e-002
 4.3051787498e-001	 2.4287994293e+000	-6.0810312020e-003
 4.0612896622e-001	 2.4329964306e+000	 3.1256223523e-002
 3.8177747812e-001	 2.4369362624e+000	 7.2477031800e-002
 3.5746705854e-001	 2.4406207558e+000	 1.1506013745e-001
 3.3320129473e-001	 2.4440518026e+000	 1.5607045926e-001
 3.0898371244e-001	 2.4472313525e+000	 1.9214283037e-001
 2.8481777495e-001	 2.4501614116e+000	 2.1946624085e-001
 2.6070688226e-001	 2.4528440399e+000	 2.3376895896e-001
 2.3665437032e-001	 2.4552813499e+000	 2.3030488579e-001
 4.8457596758e-001	 2.4457864128e+000	-5.5048554787e-002
 4.5985903191e-001	 2.4505539893e+000	-3.1633167996e-002
 4.3517236757e-001	 2.4550581042e+000	-1.4922694685e-003
 4.1051978103e-001	 2.4593004810e+000	 3.3818022835e-002
 3.8590501973e-001	 2.4632829077e+000	 7.2364705326e-002
 3.6133177094e-001	 2.4670072357e+000	 1.1181747885e-001
 3.3680366073e-001	 2.4704753768e+000	 1.4942798780e-001
 3.1232425294e-001	 2.4736893020e+000	 1.8200915660e-001
 2.8789704831e-001	 2.4766510391e+000	 2.0591505487e-001
 2.6352548358e-001	 2.4793626703e+000	 2.1702170274e-001
 2.3921293079e-001	 2.4818263310e+000	 2.1070920504e-001
 4.8975886846e-001	 2.4719459201e+000	-4.5494201322e-002
 4.6477756676e-001	 2.4767644894e+000	-2.2466133870e-002
 4.3982686015e-001	 2.4813167792e+000	 6.0398261260e-003
 4.1491059584e-001	 2.4856045313e+000	 3.8670612487e-002
 3.9003256133e-001	 2.4896295531e+000	 7.3702795885e-002
 3.6519648335e-001	 2.4933937155e+000	 1.0901751558e-001
 3.4040602674e-001	 2.4968989510e+000	 1.4207500273e-001
 3.1566479345e-001	 2.5001472515e+000	 1.6988918464e-001
 2.9097632166e-001	 2.5031406665e+000	 1.8900284108e-001
 2.6634408490e-001	 2.5058813007e+000	 1.9546376225e-001
 2.4177149125e-001	 2.5083713121e+000	 1.8480233361e-001
 4.9494176935e-001	 2.4981054275e+000	-3.1563795787e-002
 4.6969610161e-001	 2.5029749895e+000	-9.2770258513e-003
 4.4448135274e-001	 2.5075754541e+000	 1.6981808520e-002
 4.1930141065e-001	 2.5119085816e+000	 4.6084954771e-002
 3.9416010294e-001	 2.5159761984e+000	 7.6543011428e-002
 3.6906119576e-001	 2.5197801953e+000	 1.0647486136e-001
 3.4400839274e-001	 2.5233225252e+000	 1.3357713180e-001
 3.1900533395e-001	 2.5266052010e+000	 1.5509371413e-001
 2.9405559502e-001	 2.5296302940e+000	 1.6778585695e-001
 2.6916268622e-001	 2.5323999311e+000	 1.6790332242e-001
 2.4433005171e-001	 2.5349162932e+000	 1.5115706998e-001
 5.0012467023e-001	 2.5242649348e+000	-1.2175697895e-002
 4.7461463645e-001	 2.5291854896e+000	 8.8663010299e-003
 4.4913584533e-001	 2.5338341291e+000	 3.2079506186e-002
 4.2369222546e-001	 2.5382126320e+000	 5.6589281020e-002
 3.9828764455e-001	 2.5423228438e+000	 8.1170424272e-002
 3.7292590817e-001	 2.5461666751e+000	 1.0421174153e-001
 3.4761075874e-001	 2.5497460993e+000	 1.2368007112e-001
 3.2234587446e-001	 2.5530631505e+000	 1.3708434378e-001
 2.9713486838e-001	 2.5561199215e+000	 1.4144023433e-001
 2.7198128754e-001	 2.5589185615e+000	 1.3323593871e-001
 2.4688861217e-001	 2.5614612743e+000	 1.0839958147e-001
 5.0530757112e-001	 2.5504244421e+000	 1.4060485042e-002
 4.7953317130e-001	 2.5553959897e+000	 3.3188499290e-002
 4.5379033791e-001	 2.5600928041e+000	 5.2352949423e-002
 4.2808304028e-001	 2.5645166823e+000	 7.0965696228e-002
 4.0241518616e-001	 2.5686694892e+000	 8.8101676953e-002
 3.7679062058e-001	 2.5725531550e+000	 1.0245772831e-001
 3.5121312474e-001	 2.5761696735e+000	 1.1231078347e-001
 3.2568641496e-001	 2.5795211000e+000	 1.1547607170e-001
 3.0021414174e-001	 2.5826095490e+000	 1.0926592645e-001
 2.7479988887e-001	 2.5854371919e+000	 9.0449781106e-002
 2.4944717263e-001	 2.5880062554e+000	 5.5215901211e-002
 2.2386156802e-001	 2.3225564445e+000	 2.8636853888e-001
 2.0116418761e-001	 2.3246322838e+000	 2.7899652570e-001
 1.7852822470e-001	 2.3264801350e+000	 2.9002147048e-001
 1.5595669635e-001	 2.3281021343e+000	 3.1399956400e-001
 1.3345255529e-001	 2.3295004597e+000	 3.4508822422e-001
 1.1101868952e-001	 2.3306773288e+000	 3.7705636033e-001
 8.8657921967e-002	 2.3316349974e+000	 4.0329640105e-001
 6.6373010180e-002	 2.3323757570e+000	 4.1683817205e-001
 4.4166646119e-002	 2.3329019336e+000	 4.1036468659e-001
 2.2041455963e-002	 2.3332158851e+000	 3.7622989411e-001
 0.0000000000e+000	 2.3333200000e+000	 3.0647838688e-001
 2.2642012848e-001	 2.3491014256e+000	 2.7557787919e-001
 2.0346333498e-001	 2.3512009901e+000	 2.7115142836e-001
 1.8056866094e-001	 2.3530699608e+000	 2.8543414994e-001
 1.5773915790e-001	 2.3547104983e+000	 3.1315450675e-001
 1.3497781233e-001	 2.3561248054e+000	 3.4860307583e-001
 1.1228754524e-001	 2.3573151252e+000	 3.8564060852e-001
 8.9671211813e-002	 2.3582837391e+000	 4.1770806990e-001
 6.7131601130e-002	 2.3590329651e+000	 4.3783875479e-001
 4.4671435911e-002	 2.3595651554e+000	 4.3867255523e-001
 2.2293372352e-002	 2.3598826951e+000	 4.1247243280e-001
 0.0000000000e+000	 2.3599880000e+000	 3.5114310316e-001
 2.2897868894e-001	 2.3756464067e+000	 2.6614575589e-001
 2.0576248236e-001	 2.3777696964e+000	 2.6357305983e-001
 1.8260909719e-001	 2.3796597865e+000	 2.7974958866e-001
 1.5952161945e-001	 2.3813188622e+000	 3.0958751276e-001
 1.3650306936e-001	 2.3827491510e+000	 3.4752033152e-001
 1.1355640095e-001	 2.3839529215e+000	 3.8750852371e-001
 9.0684501658e-002	 2.3849324809e+000	 4.2304740400e-001
 6.7890192080e-002	 2.3856901731e+000	 4.4717729628e-001
 4.5176225704e-002	 2.3862283772e+000	 4.5249611033e-001
 2.2545288740e-002	 2.3865495052e+000	 4.3117438470e-001
 0.0000000000e+000	 2.3866560000e+000	 3.7497281111e-001
 2.3153724940e-001	 2.4021913878e+000	 2.5649560071e-001
 2.0806162973e-001	 2.4043384027e+000	 2.5465990742e-001
 1.8464953343e-001	 2.4062496123e+000	 2.7136032890e-001
 1.6130408099e-001	 2.4079272261e+000	 3.0170942082e-001
 1.3802832640e-001	 2.4093734967e+000	 3.4029855985e-001
 1.1482525666e-001	 2.4105907179e+000	 3.8120096095e-001
 9.1697791503e-002	 2.4115812226e+000	 4.1797714007e-001
 6.8648783029e-002	 2.4123473812e+000	 4.4368294718e-001
 4.5681015496e-002	 2.4128915991e+000	 4.5088026912e-001
 2.2797205128e-002	 2.4132163152e+000	 4.3165047505e-001
 0.0000000000e+000	 2.4133240000e+000	 3.7761062883e-001
 2.3409580986e-001	 2.4287363689e+000	 2.4506292038e-001
 2.1036077711e-001	 2.4309071089e+000	 2.4278033507e-001
 1.8668996967e-001	 2.4328394381e+000	 2.5858595341e-001
 1.6308654254e-001	 2.4345355900e+000	 2.8781472100e-001
 1.3955358343e-001	 2.4359978424e+000	 3.2523612461e-001
 1.1609411237e-001	 2.4372285143e+000	 3.6505433515e-001
 9.2711081348e-002	 2.4382299644e+000	 4.0091104804e-001
 6.9407373978e-002	 2.4390045892e+000	 4.2589116179e-001
 4.6185805287e-002	 2.4395548209e+000	 4.3253140771e-001
 2.3049121516e-002	 2.4398831253e+000	 4.1283201499e-001
 0.0000000000e+000	 2.4399920000e+000	 3.5827144469e-001
 2.3665437032e-001	 2.4552813499e+000	 2.3030488579e-001
 2.1265992448e-001	 2.4574758152e+000	 2.2628371193e-001
 1.8873040592e-001	 2.4594292638e+000	 2.3968569703e-001
 1.6486900409e-001	 2.4611439540e+000	 2.6609559850e-001
 1.4107884046e-001	 2.4626221881e+000	 3.0048661622e-001
 1.1736296808e-001	 2.4638663106e+000	 3.3721740118e-001
 9.3724371192e-002	 2.4648787062e+000	 3.7003202707e-001
 7.0165964927e-002	 2.4656617973e+000	 3.9206308286e-001
 4.6690595079e-002	 2.4662180427e+000	 3.9583801373e-001
 2.3301037904e-002	 2.4665499353e+000	 3.7328880687e-001
 0.0000000000e+000	 2.4666600000e+000	 3.1576506604e-001
 2.3921293079e-001	 2.4818263310e+000	 2.1070920504e-001
 2.1495907186e-001	 2.4840445215e+000	 2.0351074741e-001
 1.9077084216e-001	 2.4860190896e+000	 2.1287018788e-001
 1.6665146563e-001	 2.4877523179e+000	 2.3465503090e-001
 1.4260409750e-001	 2.4892465338e+000	 2.6407326049e-001
 1.1863182380e-001	 2.4905041070e+000	 2.9566693533e-001
 9.4737661037e-002	 2.4915274479e+000	 3.2330902658e-001
 7.0924555876e-002	 2.4923190053e+000	 3.4020367500e-001
 4.7195384870e-002	 2.4928812646e+000	 3.3889001037e-001
 2.3552954292e-002	 2.4932167454e+000	 3.1124964302e-001
 0.0000000000e+000	 2.4933280000e+000	 2.4851788245e-001
 2.4177149125e-001	 2.5083713121e+000	 1.8480233361e-001
 2.1725821923e-001	 2.5106132278e+000	 1.7280309148e-001
 1.9281127840e-001	 2.5126089153e+000	 1.7631238274e-001
 1.6843392718e-001	 2.5143606818e+000	 1.9151900888e-001
 1.4412935453e-001	 2.5158708794e+000	 2.1390238050e-001
 1.1990067951e-001	 2.5171419034e+000	 2.3822239962e-001
 9.5750950882e-002	 2.5181761897e+000	 2.5851287970e-001
 7.1683146825e-002	 2.5189762134e+000	 2.6807869944e-001
 4.7700174662e-002	 2.5195444864e+000	 2.5949685036e-001
 2.3804870680e-002	 2.5198835554e+000	 2.2462150221e-001
 0.0000000000e+000	 2.5199960000e+000	 1.5459315341e-001
 2.4433005171e-001	 2.5349162932e+000	 1.5115706998e-001
 2.1955736661e-001	 2.5371819341e+000	 1.3251225404e-001
 1.9485171464e-001	 2.5391987411e+000	 1.2815775558e-001
 1.7021638873e-001	 2.5409690458e+000	 1.3464794471e-001
 1.4565461156e-001	 2.5424952251e+000	 1.4777598095e-001
 1.2116953522e-001	 2.5437796997e+000	 1.6255966329e-001
 9.6764240726e-002	 2.5448249314e+000	 1.7323112857e-001
 7.2441737774e-002	 2.5456334215e+000	 1.7323061510e-001
 4.8204964454e-002	 2.5462077083e+000	 1.5520446995e-001
 2.4056787068e-002	 2.5465503655e+000	 1.1100753916e-001
 0.0000000000e+000	 2.5466640000e+000	 3.1710021323e-002
 2.4688861217e-001	 2.5614612743e+000	 1.0839958147e-001
 2.2185651398e-001	 2.5637506404e+000	 8.1007892784e-002
 1.9689215089e-001	 2.5657885669e+000	 6.6533793576e-002
 1.7199885027e-001	 2.5675774097e+000	 6.1947327428e-002
 1.4717986860e-001	 2.5691195708e+000	 6.3403518737e-002
 1.2243839093e-001	 2.5704174961e+000	 6.6223850093e-002
 9.7777530572e-002	 2.5714736732e+000	 6.4881914744e-002
 7.3200328724e-002	 2.5722906295e+000	 5.2993483762e-002
 4.8709754246e-002	 2.5728709301e+000	 2.3311185720e-002
 2.4308703457e-002	 2.5732171755e+000	-3.2276045110e-002
 0.0000000000e+000	 2.5733320000e+000	-1.2273865767e-001
 2.4944717263e-001	 2.5880062554e+000	 5.5215901211e-002
 2.2415566136e-001	 2.5903193466e+000	 1.6685514883e-002
 1.9893258713e-001	 2.5923783926e+000	-1.0441149865e-002
 1.7378131182e-001	 2.5941857736e+000	-2.8722321298e-002
 1.4870512563e-001	 2.5957439165e+000	-4.1587081921e-002
 1.2370724665e-001	 2.5970552924e+000	-5.3358626000e-002
 9.8790820418e-002	 2.5981224149e+000	-6.9272998119e-002
 7.3958919674e-002	 2.5989478376e+000	-9.5493049017e-002
 4.9214544039e-002	 2.5995341519e+000	-1.3911738999e-001
 2.4560619845e-002	 2.5998839856e+000	-2.0818417206e-001
 0.0000000000e+000	 2.6000000000e+000	-3.1166958027e-001
 2.6000000000e+000	 0.0000000000e+000	 2.7551227805e+000
 2.5998839856e+000	 2.4560619845e-002	 2.6418686713e+000
 2.5995341519e+000	 4.9214544039e-002	 2.5457066005e+000
 2.5989478376e+000	 7.3958919674e-002	 2.4613905989e+000
 2.5981224149e+000	 9.8790820418e-002	 2.3845904638e+000
 2.5970552924e+000	 1.2370724665e-001	 2.3118847212e+000
 2.5957439165e+000	 1.4870512563e-001	 2.2407462573e+000
 2.5941857736e+000	 1.7378131182e-001	 2.1695207449e+000
 2.5923783926e+000	 1.9893258713e-001	 2.0973980697e+000
 2.5903193466e+000	 2.2415566136e-001	 2.0243770303e+000
 2.5880062554e+000	 2.4944717263e-001	 1.9512236494e+000
 2.6266680000e+000	 0.0000000000e+000	 2.8807300408e+000
 2.6265507956e+000	 2.4812536234e-002	 2.7572215466e+000
 2.6261973738e+000	 4.9719333832e-002	 2.6513462036e+000
 2.6256050456e+000	 7.4717510624e-002	 2.5575355557e+000
 2.6247711567e+000	 9.9804110264e-002	 2.4712326357e+000
 2.6236930888e+000	 1.2497610236e-001	 2.3888814105e+000
 2.6223682622e+000	 1.5023038267e-001	 2.3079082634e+000
 2.6207941375e+000	 1.7556377337e-001	 2.2266956534e+000
 2.6189682184e+000	 2.0097302338e-001	 2.1445481760e+000
 2.6168880529e+000	 2.2645480873e-001	 2.0616513253e+000
 2.6145512364e+000	 2.5200573309e-001	 1.9790233244e+000
 2.6533360000e+000	 0.0000000000e+000	 2.6399242870e+000
 2.6532176057e+000	 2.5064452623e-002	 2.5420948346e+000
 2.6528605956e+000	 5.0224123625e-002	 2.4607146629e+000
 2.6522622537e+000	 7.5476101575e-002	 2.3898504154e+000
 2.6514198985e+000	 1.0081740011e-001	 2.3246807223e+000
 2.6503308852e+000	 1.2624495807e-001	 2.2614818588e+000
 2.6489926079e+000	 1.5175563971e-001	 2.1976047758e+000
 2.6474025015e+000	 1.7734623492e-001	 2.1314436563e+000
 2.6455580441e+000	 2.0301345962e-001	 2.0623962465e+000
 2.6434567592e+000	 2.2875395611e-001	 1.9908162851e+000
 2.6410962175e+000	 2.5456429355e-001	 1.9179584315e+000
 2.6800040000e+000	 0.0000000000e+000	 2.0957138450e+000
 2.6798844157e+000	 2.5316369012e-002	 2.0530471171e+000
 2.6795238174e+000	 5.0728913418e-002	 2.0226496611e+000
 2.6789194617e+000	 7.6234692526e-002	 1.9988182495e+000
 2.6780686402e+000	 1.0183068996e-001	 1.9770250845e+000
 2.6769686815e+000	 1.2751381379e-001	 1.9538675937e+000
 2.6756169535e+000	 1.5328089674e-001	 1.9270170279e+000
 2.6740108654e+000	 1.7912869647e-001	 1.8951657177e+000
 2.6721478699e+000	 2.0505389587e-001	 1.8579728375e+000
 2.6700254655e+000	 2.3105310349e-001	 1.8160084921e+000
 2.6676411986e+000	 2.5712285401e-001	 1.7706959141e+000
 2.7066720000e+000	 0.0000000000e+000	 1.6134598750e+000
 2.7065512258e+000	 2.5568285401e-002	 1.6197817720e+000
 2.7061870393e+000	 5.1233703212e-002	 1.6332401831e+000
 2.7055766698e+000	 7.6993283478e-002	 1.6487119749e+000
 2.7047173820e+000	 1.0284397981e-001	 1.6622149097e+000
 2.7036064779e+000	 1.2878266950e-001	 1.6708570025e+000
 2.7022412992e+000	 1.5480615378e-001	 1.6727849838e+000
 2.7006192293e+000	 1.8091115802e-001	 1.6671317198e+000
 2.6987376957e+000	 2.0709433211e-001	 1.6539624248e+000
 2.6965941718e+000	 2.3335225087e-001	 1.6342194660e+000
 2.6941861797e+000	 2.5968141448e-001	 1.6096655291e+000
 2.7333400000e+000	 0.0000000000e+000	 1.2527989005e+000
 2.7332180358e+000	 2.5820201790e-002	 1.2962424795e+000
 2.7328502611e+000	 5.1738493006e-002	 1.3427962047e+000
 2.7322338778e+000	 7.7751874430e-002	 1.3878513533e+000
 2.7313661237e+000	 1.0385726965e-001	 1.4278988025e+000
 2.7302442743e+000	 1.3005152522e-001	 1.4604781949e+000
 2.7288656449e+000	 1.5633141081e-001	 1.4841265500e+000
 2.7272275933e+000	 1.8269361957e-001	 1.4983261628e+000
 2.7253275214e+000	 2.0913476836e-001	 1.5034516121e+000
 2.7231628781e+000	 2.3565139824e-001	 1.5007156617e+000
 2.7207311608e+000	 2.6223997494e-001	 1.4921138018e+000
 2.7600080000e+000	 0.0000000000e+000	 1.0121956981e+000
 2.7598848459e+000	 2.6072118180e-002	 1.0801318827e+000
 2.7595134829e+000	 5.2243282800e-002	 1.1483218836e+000
 2.7588910859e+000	 7.8510465381e-002	 1.2126058207e+000
 2.7580148655e+000	 1.0487055950e-001	 1.2698751587e+000
 2.7568820706e+000	 1.3132038093e-001	 1.3180219449e+000
 2.7554899906e+000	 1.5785666785e-001	 1.3558878647e+000
 2.7538359572e+000	 1.8447608112e-001	 1.3832129512e+000
 2.7519173472e+000	 2.1117520460e-001	 1.4005837529e+000
 2.7497315844e+000	 2.3795054562e-001	 1.4093807273e+000
 2.7472761419e+000	 2.6479853540e-001	 1.4117245859e+000
 2.7866760000e+000	 0.0000000000e+000	 8.9011038757e-001
 2.7865516559e+000	 2.6324034569e-002	 9.6915048439e-001
 2.7861767048e+000	 5.2748072593e-002	 1.0468244121e+000
 2.7855482939e+000	 7.9269056333e-002	 1.1193554143e+000
 2.7846636072e+000	 1.0588384935e-001	 1.1839626625e+000
 2.7835198670e+000	 1.3258923665e-001	 1.2388108409e+000
 2.7821143363e+000	 1.5938192489e-001	 1.2829599602e+000
 2.7804443211e+000	 1.8625854267e-001	 1.3163152233e+000
 2.7785071730e+000	 2.1321564085e-001	 1.3395767363e+000
 2.7763002906e+000	 2.4024969300e-001	 1.3541888091e+000
 2.7738211230e+000	 2.6735709587e-001	 1.3622885504e+000
 2.8133440000e+000	 0.0000000000e+000	 8.8499865195e-001
 2.8132184660e+000	 2.6575950958e-002	 9.6099689345e-001
 2.8128399266e+000	 5.3252862387e-002	 1.0353142480e+000
 2.8122055020e+000	 8.0027647284e-002	 1.1044909503e+000
 2.8113123490e+000	 1.0689713920e-001	 1.1660003723e+000
 2.8101576634e+000	 1.3385809236e-001	 1.2181992457e+000
 2.8087386819e+000	 1.6090718192e-001	 1.2602785609e+000
 2.8070526851e+000	 1.8804100421e-001	 1.2922149557e+000
 2.8050969987e+000	 2.1525607709e-001	 1.3147223679e+000
 2.8028689969e+000	 2.4254884037e-001	 1.3292036795e+000
 2.8003661041e+000	 2.6991565633e-001	 1.3377020279e+000
 2.8400120000e+000	 0.0000000000e+000	 9.9531194628e-001
 2.8398852760e+000	 2.6827867347e-002	 1.0533680566e+000
 2.8395031484e+000	 5.3757652180e-002	 1.1108053319e+000
 2.8388627100e+000	 8.0786238235e-002	 1.1644141895e+000
 2.8379610907e+000	 1.0791042904e-001	 1.2118478001e+000
 2.8367954597e+000	 1.3512694807e-001	 1.2515732532e+000
 2.8353630276e+000	 1.6243243896e-001	 1.2828238868e+000
 2.8336610490e+000	 1.8982346576e-001	 1.3055525805e+000
 2.8316868245e+000	 2.1729651334e-001	 1.3203857708e+000
 2.8294377032e+000	 2.4484798775e-001	 1.3285778930e+000
 2.8269110851e+000	 2.7247421679e-001	 1.3319658985e+000
 2.8666800000e+000	 0.0000000000e+000	 1.2194976941e+000
 2.8665520861e+000	 2.7079783735e-002	 1.2439594777e+000
 2.8661663703e+000	 5.4262441973e-002	 1.2703152929e+000
 2.8655199181e+000	 8.1544829185e-002	 1.2955379941e+000
 2.8646098325e+000	 1.0892371889e-001	 1.3173849844e+000
 2.8634332561e+000	 1.3639580379e-001	 1.3343506461e+000
 2.8619873733e+000	 1.6395769600e-001	 1.3456204620e+000
 2.8602694129e+000	 1.9160592731e-001	 1.3510266148e+000
 2.8582766502e+000	 2.1933694958e-001	 1.3510048053e+000
 2.8560064095e+000	 2.4714713513e-001	 1.3465519678e+000
 2.8534560662e+000	 2.7503277725e-001	 1.3391845059e+000
 2.5880062554e+000	 2.4944717263e-001	 1.9512236494e+000
 2.5854371919e+000	 2.7479988887e-001	 1.8822140680e+000
 2.5826095490e+000	 3.0021414174e-001	 1.8192284450e+000
 2.5795211000e+000	 3.2568641496e-001	 1.7604107957e+000
 2.5761696735e+000	 3.5121312474e-001	 1.7043813427e+000
 2.5725531550e+000	 3.7679062058e-001	 1.6501759273e+000
 2.5686694892e+000	 4.0241518616e-001	 1.5971826894e+000
 2.5645166823e+000	 4.2808304028e-001	 1.5450767866e+000
 2.5600928041e+000	 4.5379033791e-001	 1.4937539765e+000
 2.5553959897e+000	 4.7953317130e-001	 1.4432639282e+000
 2.5504244421e+000	 5.0530757112e-001	 1.3937441769e+000
 2.6145512364e+000	 2.5200573309e-001	 1.9790233244e+000
 2.6119558223e+000	 2.7761849019e-001	 1.9010008701e+000
 2.6090991765e+000	 3.0329341510e-001	 1.8293260423e+000
 2.6059790495e+000	 3.2902695547e-001	 1.7621729514e+000
 2.6025932477e+000	 3.5481549075e-001	 1.6982213701e+000
 2.5989396348e+000	 3.8065533300e-001	 1.6365881612e+000
 2.5950161345e+000	 4.0654272777e-001	 1.5767557354e+000
 2.5908207327e+000	 4.3247385509e-001	 1.5184983722e+000
 2.5863514790e+000	 4.5844483050e-001	 1.4618072898e+000
 2.5816064898e+000	 4.8445170615e-001	 1.4068154020e+000
 2.5765839494e+000	 5.1049047200e-001	 1.3537227439e+000
 2.6410962175e+000	 2.5456429355e-001	 1.9179584315e+000
 2.6384744527e+000	 2.8043709151e-001	 1.8482104486e+000
 2.6355888040e+000	 3.0637268845e-001	 1.7832479671e+000
 2.6324369990e+000	 3.3236749597e-001	 1.7213766214e+000
 2.6290168219e+000	 3.5841785675e-001	 1.6614392895e+000
 2.6253261146e+000	 3.8452004541e-001	 1.6027388770e+000
 2.6213627799e+000	 4.1067026938e-001	 1.5449578767e+000
 2.6171247830e+000	 4.3686466991e-001	 1.4880756006e+000
 2.6126101540e+000	 4.6309932309e-001	 1.4322840401e+000
 2.6078169899e+000	 4.8937024100e-001	 1.3779033632e+000
 2.6027434567e+000	 5.1567337289e-001	 1.3252981093e+000
 2.6676411986e+000	 2.5712285401e-001	 1.7706959141e+000
 2.6649930831e+000	 2.8325569283e-001	 1.7260718748e+000
 2.6620784314e+000	 3.0945196181e-001	 1.6828440720e+000
 2.6588949485e+000	 3.3570803648e-001	 1.6394739624e+000
 2.6554403960e+000	 3.6202022276e-001	 1.5950781154e+000
 2.6517125944e+000	 3.8838475782e-001	 1.5492575041e+000
 2.6477094252e+000	 4.1479781099e-001	 1.5020074547e+000
 2.6434288333e+000	 4.4125548472e-001	 1.4536250658e+000
 2.6388688289e+000	 4.6775381568e-001	 1.4046151240e+000
 2.6340274900e+000	 4.9428877585e-001	 1.3555956045e+000
 2.6289029640e+000	 5.2085627378e-001	 1.3072038919e+000
 2.6941861797e+000	 2.5968141448e-001	 1.6096655291e+000
 2.6915117135e+000	 2.8607429415e-001	 1.5846461331e+000
 2.6885680589e+000	 3.1253123517e-001	 1.5606059355e+000
 2.6853528980e+000	 3.3904857699e-001	 1.5359499418e+000
 2.6818639702e+000	 3.6562258876e-001	 1.5095707019e+000
 2.6780990742e+000	 3.9224947023e-001	 1.4807858784e+000
 2.6740560706e+000	 4.1892535260e-001	 1.4492724791e+000
 2.6697328837e+000	 4.4564629954e-001	 1.4149973200e+000
 2.6651275039e+000	 4.7240830827e-001	 1.3781192759e+000
 2.6602379901e+000	 4.9920731071e-001	 1.3388510143e+000
 2.6550624713e+000	 5.2603917466e-001	 1.2980703269e+000
 2.7207311608e+000	 2.6223997494e-001	 1.4921138018e+000
 2.7180303439e+000	 2.8889289548e-001	 1.4819665250e+000
 2.7150576864e+000	 3.1561050853e-001	 1.4716997423e+000
 2.7118108475e+000	 3.4238911749e-001	 1.4599025876e+000
 2.7082875444e+000	 3.6922495477e-001	 1.4456217098e+000
 2.7044855541e+000	 3.9611418264e-001	 1.4283012200e+000
 2.7004027160e+000	 4.2305289421e-001	 1.4077193906e+000
 2.6960369340e+000	 4.5003711435e-001	 1.3839216300e+000
 2.6913861789e+000	 4.7706280086e-001	 1.3571492383e+000
 2.6864484902e+000	 5.0412584556e-001	 1.3277634327e+000
 2.6812219787e+000	 5.3122207555e-001	 1.2961641196e+000
 2.7472761419e+000	 2.6479853540e-001	 1.4117245859e+000
 2.7445489743e+000	 2.9171149680e-001	 1.4118096997e+000
 2.7415473139e+000	 3.1868978189e-001	 1.4110023492e+000
 2.7382687970e+000	 3.4572965800e-001	 1.4080558015e+000
 2.7347111186e+000	 3.7282732077e-001	 1.4021491309e+000
 2.7308720339e+000	 3.9997889506e-001	 1.3928299584e+000
 2.7267493613e+000	 4.2718043582e-001	 1.3799540420e+000
 2.7223409843e+000	 4.5442792917e-001	 1.3636211969e+000
 2.7176448538e+000	 4.8171729345e-001	 1.3441070017e+000
 2.7126589902e+000	 5.0904438041e-001	 1.3217897265e+000
 2.7073814860e+000	 5.3640497644e-001	 1.2970719094e+000
 2.7738211230e+000	 2.6735709587e-001	 1.3622885504e+000
 2.7710676047e+000	 2.9453009812e-001	 1.3678426606e+000
 2.7680369414e+000	 3.2176905525e-001	 1.3721144723e+000
 2.7647267465e+000	 3.4907019851e-001	 1.3739971406e+000
 2.7611346927e+000	 3.7642968678e-001	 1.3727761982e+000
 2.7572585137e+000	 4.0384360747e-001	 1.3680755259e+000
 2.7530960067e+000	 4.3130797743e-001	 1.3598002866e+000
 2.7486450347e+000	 4.5881874398e-001	 1.3480762512e+000
 2.7439035288e+000	 4.8637178604e-001	 1.3331849201e+000
 2.7388694903e+000	 5.1396291526e-001	 1.3154938231e+000
 2.7335409933e+000	 5.4158787733e-001	 1.2953813661e+000
 2.8003661041e+000	 2.6991565633e-001	 1.3377020279e+000
 2.7975862351e+000	 2.9734869945e-001	 1.3438540988e+000
 2.7945265689e+000	 3.2484832861e-001	 1.3487742594e+000
 2.7911846960e+000	 3.5241073901e-001	 1.3514668567e+000
 2.7875582669e+000	 3.8003205278e-001	 1.3512934206e+000
 2.7836449935e+000	 4.0770831988e-001	 1.3479223337e+000
 2.7794426520e+000	 4.3543551904e-001	 1.3412755866e+000
 2.7749490850e+000	 4.6320955880e-001	 1.3314719981e+000
 2.7701622037e+000	 4.9102627863e-001	 1.3187662458e+000
 2.7650799904e+000	 5.1888145011e-001	 1.3034830345e+000
 2.7597005006e+000	 5.4677077822e-001	 1.2859457064e+000
 2.8269110851e+000	 2.7247421679e-001	 1.3319658985e+000
 2.8241048655e+000	 3.0016730077e-001	 1.3337529803e+000
 2.8210161963e+000	 3.2792760197e-001	 1.3348555571e+000
 2.8176426455e+000	 3.5575127952e-001	 1.3343558152e+000
 2.8139818411e+000	 3.8363441879e-001	 1.3316561245e+000
 2.8100314733e+000	 4.1157303229e-001	 1.3264329015e+000
 2.8057892974e+000	 4.3956306065e-001	 1.3185876940e+000
 2.8012531354e+000	 4.6760037362e-001	 1.3081948109e+000
 2.7964208787e+000	 4.9568077122e-001	 1.2954447864e+000
 2.7912904905e+000	 5.2379998497e-001	 1.2805829407e+000
 2.7858600079e+000	 5.5195367911e-001	 1.2638422792e+000
 2.8534560662e+000	 2.7503277725e-001	 1.3391845059e+000
 2.8506234959e+000	 3.0298590209e-001	 1.3315671732e+000
 2.8475058238e+000	 3.3100687533e-001	 1.3243662234e+000
 2.8441005950e+000	 3.5909182003e-001	 1.3167034654e+000
 2.8404054153e+000	 3.8723678479e-001	 1.3079820499e+000
 2.8364179532e+000	 4.1543774471e-001	 1.2978450465e+000
 2.8321359428e+000	 4.4369060226e-001	 1.2861313944e+000
 2.8275571857e+000	 4.7199118843e-001	 1.2728284897e+000
 2.8226795537e+000	 5.0033526381e-001	 1.2580206346e+000
 2.8175009906e+000	 5.2871851982e-001	 1.2418325464e+000
 2.8120195152e+000	 5.5713657999e-001	 1.2243670996e+000
 2.5504244421e+000	 5.0530757112e-001	 1.3937441769e+000
 2.5451756263e+000	 5.3111337925e-001	 1.3471528570e+000
 2.5396486130e+000	 5.5694263593e-001	 1.3041755111e+000
 2.5338418223e+000	 5.8279118688e-001	 1.2629279728e+000
 2.5277537500e+000	 6.0865482159e-001	 1.2213287748e+000
 2.5213829698e+000	 6.3452927478e-001	 1.1770537206e+000
 2.5147281355e+000	 6.6041022809e-001	 1.1274972371e+000
 2.5077879826e+000	 6.8629331174e-001	 1.0720722589e+000
 2.5005613302e+000	 7.1217410630e-001	 1.0151303207e+000
 2.4930470830e+000	 7.3804814458e-001	 9.5745653091e-001
 2.4852442329e+000	 7.6391091347e-001	 8.9961091882e-001
 2.5765839494e+000	 5.1049047200e-001	 1.3537227439e+000
 2.5712812969e+000	 5.3656096833e-001	 1.3041769989e+000
 2.5656975935e+000	 5.6265515370e-001	 1.2585880116e+000
 2.5598312430e+000	 5.8876883126e-001	 1.2151255227e+000
 2.5536807257e+000	 6.1489774727e-001	 1.1717040992e+000
 2.5472446010e+000	 6.4103759274e-001	 1.1259302286e+000
 2.5405215086e+000	 6.6718400500e-001	 1.0750580123e+000
 2.5335101711e+000	 6.9333256944e-001	 1.0205045655e+000
 2.5262093954e+000	 7.1947882133e-001	 9.6550648922e-001
 2.5186180751e+000	 7.4561824762e-001	 9.1015832173e-001
 2.5107351918e+000	 7.7174628894e-001	 8.5451604783e-001
 2.6027434567e+000	 5.1567337289e-001	 1.3252981093e+000
 2.5973869675e+000	 5.4200855740e-001	 1.2758474037e+000
 2.5917465740e+000	 5.6836767148e-001	 1.2297649074e+000
 2.5858206636e+000	 5.9474647563e-001	 1.1854297621e+000
 2.5796077015e+000	 6.2114067296e-001	 1.1409039667e+000
 2.5731062321e+000	 6.4754591070e-001	 1.0938712556e+000
 2.5663148816e+000	 6.7395778190e-001	 1.0418972527e+000
 2.5592323595e+000	 7.0037182715e-001	 9.8844537733e-001
 2.5518574606e+000	 7.2678353635e-001	 9.3515745793e-001
 2.5441890673e+000	 7.5318835067e-001	 8.8172208389e-001
 2.5362261507e+000	 7.7958166442e-001	 8.2777268579e-001
 2.6289029640e+000	 5.2085627378e-001	 1.3072038919e+000
 2.6234926381e+000	 5.4745614648e-001	 1.2605995414e+000
 2.6177955544e+000	 5.7408018925e-001	 1.2158852044e+000
 2.6118100843e+000	 6.0072412000e-001	 1.1718085382e+000
 2.6055346773e+000	 6.2738359864e-001	 1.1267336320e+000
 2.5989678633e+000	 6.5405422866e-001	 1.0785708991e+000
 2.5921082547e+000	 6.8073155881e-001	 1.0259524606e+000
 2.5849545479e+000	 7.0741108485e-001	 9.7353062362e-001
 2.5775055259e+000	 7.3408825138e-001	 9.2162807747e-001
 2.5697600595e+000	 7.6075845371e-001	 8.6960799331e-001
 2.5617171096e+000	 7.8741703990e-001	 8.1676115495e-001
 2.6550624713e+000	 5.2603917466e-001	 1.2980703269e+000
 2.6495983087e+000	 5.5290373556e-001	 1.2567734249e+000
 2.6438445349e+000	 5.7979270703e-001	 1.2150429677e+000
 2.6377995049e+000	 6.0670176438e-001	 1.1721581012e+000
 2.6314616530e+000	 6.3362652433e-001	 1.1269431495e+000
 2.6248294945e+000	 6.6056254662e-001	 1.0776877209e+000
 2.6179016277e+000	 6.8750533572e-001	 1.0249129533e+000
 2.6106767363e+000	 7.1445034256e-001	 9.7335271340e-001
 2.6031535911e+000	 7.4139296640e-001	 9.2242243690e-001
 2.5953310516e+000	 7.6832855676e-001	 8.7123898452e-001
 2.5872080686e+000	 7.9525241537e-001	 8.1882889479e-001
 2.6812219787e+000	 5.3122207555e-001	 1.2961641196e+000
 2.6757039793e+000	 5.5835132463e-001	 1.2622169255e+000
 2.6698935154e+000	 5.8550522480e-001	 1.2251713756e+000
 2.6637889256e+000	 6.1267940875e-001	 1.1843098712e+000
 2.6573886288e+000	 6.3986945001e-001	 1.1392352343e+000
 2.6506911256e+000	 6.6707086458e-001	 1.0888546792e+000
 2.6436950007e+000	 6.9427911263e-001	 1.0364242367e+000
 2.6363989248e+000	 7.2148960026e-001	 9.8546265108e-001
 2.6288016563e+000	 7.4869768143e-001	 9.3500631743e-001
 2.6209020438e+000	 7.7589865980e-001	 8.8400354589e-001
 2.6126990275e+000	 8.0308779085e-001	 8.3129359752e-001
 2.7073814860e+000	 5.3640497644e-001	 1.2970719094e+000
 2.7018096500e+000	 5.6379891371e-001	 1.2691885104e+000
 2.6959424958e+000	 5.9121774258e-001	 1.2370164831e+000
 2.6897783462e+000	 6.1865705312e-001	 1.2001267345e+000
 2.6833156046e+000	 6.4611237570e-001	 1.1576694155e+000
 2.6765527568e+000	 6.7357918254e-001	 1.1085759406e+000
 2.6694883738e+000	 7.0105288954e-001	 1.0579653748e+000
 2.6621211132e+000	 7.2852885797e-001	 1.0073722237e+000
 2.6544497215e+000	 7.5600239645e-001	 9.5680971486e-001
 2.6464730359e+000	 7.8346876285e-001	 9.0525858052e-001
 2.6381899864e+000	 8.1092316632e-001	 8.5144640725e-001
 2.7335409933e+000	 5.4158787733e-001	 1.2953813661e+000
 2.7279153206e+000	 5.6924650279e-001	 1.2713732474e+000
 2.7219914763e+000	 5.9693026035e-001	 1.2419341009e+000
 2.7157677669e+000	 6.2463469750e-001	 1.2070464071e+000
 2.7092425803e+000	 6.5235530138e-001	 1.1662682097e+000
 2.7024143880e+000	 6.8008750051e-001	 1.1198532287e+000
 2.6952817468e+000	 7.0782666644e-001	 1.0741682247e+000
 2.6878433016e+000	 7.3556811568e-001	 1.0288211032e+000
 2.6800977867e+000	 7.6330711148e-001	 9.8198275415e-001
 2.6720440281e+000	 7.9103886589e-001	 9.3179954908e-001
 2.6636809453e+000	 8.1875854180e-001	 8.7655517828e-001
 2.7597005006e+000	 5.4677077822e-001	 1.2859457064e+000
 2.7540209912e+000	 5.7469409187e-001	 1.2638889804e+000
 2.7480404567e+000	 6.0264277813e-001	 1.2353213689e+000
 2.7417571876e+000	 6.3061234187e-001	 1.2006656306e+000
 2.7351695561e+000	 6.5859822707e-001	 1.1599199939e+000
 2.7282760191e+000	 6.8659581847e-001	 1.1153265086e+000
 2.7210751199e+000	 7.1460044335e-001	 1.0732180635e+000
 2.7135654900e+000	 7.4260737338e-001	 1.0320855143e+000
 2.7057458519e+000	 7.7061182650e-001	 9.8992214336e-001
 2.6976150202e+000	 7.9860896894e-001	 9.4468670481e-001
 2.6891719043e+000	 8.2659391728e-001	 8.9429276723e-001
 2.7858600079e+000	 5.5195367911e-001	 1.2638422792e+000
 2.7801266618e+000	 5.8014168094e-001	 1.2420815007e+000
 2.7740894372e+000	 6.0835529590e-001	 1.2128049899e+000
 2.7677466082e+000	 6.3658998625e-001	 1.1768992080e+000
 2.7610965319e+000	 6.6484115276e-001	 1.1348298123e+000
 2.7541376503e+000	 6.9310413643e-001	 1.0914898134e+000
 2.7468684929e+000	 7.2137422026e-001	 1.0518093648e+000
 2.7392876785e+000	 7.4964663109e-001	 1.0137064069e+000
 2.7313939171e+000	 7.7791654153e-001	 9.7503819641e-001
 2.7231860124e+000	 8.0617907199e-001	 9.3361828155e-001
 2.7146628632e+000	 8.3442929275e-001	 8.8720675479e-001
 2.8120195152e+000	 5.5713657999e-001	 1.2243670996e+000
 2.8062323324e+000	 5.8558927002e-001	 1.2015184109e+000
 2.8001384177e+000	 6.1406781368e-001	 1.1702343687e+000
 2.7937360289e+000	 6.4256763062e-001	 1.1318831882e+000
 2.7870235076e+000	 6.7108407844e-001	 1.0875663100e+000
 2.7799992815e+000	 6.9961245439e-001	 1.0450266809e+000
 2.7726618660e+000	 7.2814799717e-001	 1.0068291019e+000
 2.7650098669e+000	 7.5668588880e-001	 9.7077837743e-001
 2.7570419823e+000	 7.8522125655e-001	 9.3463492580e-001
 2.7487570045e+000	 8.1374917503e-001	 8.9610715654e-001
 2.7401538221e+000	 8.4226466823e-001	 8.5284264412e-001
 2.4852442329e+000	 7.6391091347e-001	 8.9961091882e-001
 2.4771518603e+000	 7.8975785560e-001	 8.4256868934e-001
 2.4687691339e+000	 8.1558437022e-001	 7.8689506243e-001
 2.4600953141e+000	 8.4138581636e-001	 7.3245984244e-001
 2.4511297553e+000	 8.6715751542e-001	 6.7905894070e-001
 2.4418719075e+000	 8.9289475342e-001	 6.2640303514e-001
 2.4323213176e+000	 9.1859278331e-001	 5.7410756760e-001
 2.4224776311e+000	 9.4424682737e-001	 5.2168417738e-001
 2.4123405929e+000	 9.6985207964e-001	 4.6853365952e-001
 2.4019100494e+000	 9.9540370841e-001	 4.1394052493e-001
 2.3911859489e+000	 1.0208968588e+000	 3.5706321916e-001
 2.5107351918e+000	 7.7174628894e-001	 8.5451604783e-001
 2.5025598164e+000	 7.9785834117e-001	 7.9929373977e-001
 2.4940911090e+000	 8.2394975636e-001	 7.4522085931e-001
 2.4853283225e+000	 8.5001584595e-001	 6.9227623124e-001
 2.4762708047e+000	 8.7605188335e-001	 6.4034694746e-001
 2.4669179998e+000	 9.0205310622e-001	 5.8921621300e-001
 2.4572694503e+000	 9.2801471883e-001	 5.3855266014e-001
 2.4473247978e+000	 9.5393189444e-001	 4.8790123569e-001
 2.4370837848e+000	 9.7979977781e-001	 4.3667575553e-001
 2.4265462560e+000	 1.0056134877e+000	 3.8415320844e-001
 2.4157121593e+000	 1.0313681194e+000	 3.2946454423e-001
 2.5362261507e+000	 7.7958166442e-001	 8.2777268579e-001
 2.5279677725e+000	 8.0595882675e-001	 7.7376437065e-001
 2.5194130841e+000	 8.3231514251e-001	 7.2055920412e-001
 2.5105613309e+000	 8.5864587555e-001	 6.6827478828e-001
 2.5014118540e+000	 8.8494625128e-001	 6.1691840087e-001
 2.4919640921e+000	 9.1121145902e-001	 5.6637396733e-001
 2.4822175829e+000	 9.3743665434e-001	 5.1639063815e-001
 2.4721719645e+000	 9.6361696152e-001	 4.6657308339e-001
 2.4618269767e+000	 9.8974747599e-001	 4.1637360468e-001
 2.4511824626e+000	 1.0158232669e+000	 3.6507962227e-001
 2.4402383696e+000	 1.0418393799e+000	 3.1183761692e-001
 2.5617171096e+000	 7.8741703990e-001	 8.1676115495e-001
 2.5533757285e+000	 8.1405931232e-001	 7.6329342175e-001
 2.5447350592e+000	 8.4068052866e-001	 7.1017630314e-001
 2.5357943393e+000	 8.6727590514e-001	 6.5769561826e-001
 2.5265529034e+000	 8.9384061921e-001	 6.0600743210e-001
 2.5170101845e+000	 9.2036981182e-001	 5.5512409255e-001
 2.5071657156e+000	 9.4685858986e-001	 5.0490201725e-001
 2.4970191312e+000	 9.7330202859e-001	 4.5503134943e-001
 2.4865701686e+000	 9.9969517417e-001	 4.0502758896e-001
 2.4758186692e+000	 1.0260330462e+000	 3.5421949791e-001
 2.4647645800e+000	 1.0523106405e+000	 3.0176980681e-001
 2.5872080686e+000	 7.9525241537e-001	 8.1882889479e-001
 2.5787836846e+000	 8.2215979789e-001	 7.6516575835e-001
 2.5700570343e+000	 8.4904591481e-001	 7.1131551561e-001
 2.5610273477e+000	 8.7590593474e-001	 6.5776133605e-001
 2.5516939527e+000	 9.0273498714e-001	 6.0483627781e-001
 2.5420562768e+000	 9.2952816462e-001	 5.5270832827e-001
 2.5321138482e+000	 9.5628052538e-001	 5.0136734668e-001
 2.5218662979e+000	 9.8298709567e-001	 4.5061403540e-001
 2.5113133605e+000	 1.0096428723e+000	 4.0005105268e-001
 2.5004548758e+000	 1.0362428255e+000	 3.4907126403e-001
 2.4892907903e+000	 1.0627819010e+000	 2.9687536765e-001
 2.6126990275e+000	 8.0308779085e-001	 8.3129359752e-001
 2.6041916407e+000	 8.3026028347e-001	 7.7664175968e-001
 2.5953790094e+000	 8.5741130095e-001	 7.2120122299e-001
 2.5862603561e+000	 8.8453596434e-001	 6.6568134325e-001
 2.5768350021e+000	 9.1162935507e-001	 6.1061998915e-001
 2.5671023691e+000	 9.3868651742e-001	 5.5636752449e-001
 2.5570619809e+000	 9.6570246090e-001	 5.0307285258e-001
 2.5467134646e+000	 9.9267216274e-001	 4.5067165751e-001
 2.5360565524e+000	 1.0195905705e+000	 3.9887065248e-001
 2.5250910825e+000	 1.0464526048e+000	 3.4716764998e-001
 2.5138170006e+000	 1.0732531616e+000	 2.9480318113e-001
 2.6381899864e+000	 8.1092316632e-001	 8.5144640725e-001
 2.6295995968e+000	 8.3836076904e-001	 7.9496086856e-001
 2.6207009845e+000	 8.6577668710e-001	 7.3704275612e-001
 2.6114933645e+000	 8.9316599393e-001	 6.7865615845e-001
 2.6019760514e+000	 9.2052372300e-001	 6.2057118940e-001
 2.5921484614e+000	 9.4784487023e-001	 5.6334684925e-001
 2.5820101135e+000	 9.7512439641e-001	 5.0731611707e-001
 2.5715606314e+000	 1.0023572298e+000	 4.5257341673e-001
 2.5607997443e+000	 1.0295382687e+000	 3.9895902905e-001
 2.5497272891e+000	 1.0566623840e+000	 3.4607558567e-001
 2.5383432110e+000	 1.0837244221e+000	 2.9324450240e-001
 2.6636809453e+000	 8.1875854180e-001	 8.7655517828e-001
 2.6550075528e+000	 8.4646125462e-001	 8.1734519829e-001
 2.6460229596e+000	 8.7414207325e-001	 7.5603837641e-001
 2.6367263729e+000	 9.0179602353e-001	 6.9388179757e-001
 2.6271171008e+000	 9.2941809093e-001	 6.3190487670e-001
 2.6171945537e+000	 9.5700322303e-001	 5.7090103592e-001
 2.6069582462e+000	 9.8454633193e-001	 5.1141179053e-001
 2.5964077981e+000	 1.0120422969e+000	 4.5370650558e-001
 2.5855429362e+000	 1.0394859669e+000	 3.9780133312e-001
 2.5743634957e+000	 1.0668721633e+000	 3.4340341702e-001
 2.5628694213e+000	 1.0941956827e+000	 2.8994070735e-001
 2.6891719043e+000	 8.2659391728e-001	 8.9429276723e-001
 2.6804155089e+000	 8.5456174019e-001	 8.3741507650e-001
 2.6713449347e+000	 8.8250745940e-001	 7.7496888532e-001
 2.6619593813e+000	 9.1042605312e-001	 7.0855420098e-001
 2.6522581501e+000	 9.3831245886e-001	 6.4184326923e-001
 2.6422406460e+000	 9.6616157583e-001	 5.7629966750e-001
 2.6319063788e+000	 9.9396826745e-001	 5.1269733506e-001
 2.6212549648e+000	 1.0217273640e+000	 4.5151071233e-001
 2.6102861281e+000	 1.0494336651e+000	 3.9292954399e-001
 2.5989997023e+000	 1.0770819426e+000	 3.3680813113e-001
 2.5873956317e+000	 1.1046669432e+000	 2.8269104137e-001
 2.7146628632e+000	 8.3442929275e-001	 8.8720675479e-001
 2.7058234650e+000	 8.6266222576e-001	 8.3418646627e-001
 2.6966669098e+000	 8.9087284554e-001	 7.7537828634e-001
 2.6871923897e+000	 9.1905608272e-001	 7.1209303324e-001
 2.6773991995e+000	 9.4720682680e-001	 6.4554452576e-001
 2.6672867384e+000	 9.7531992863e-001	 5.7682642462e-001
 2.6568545115e+000	 1.0033902030e+000	 5.0853879683e-001
 2.6461021315e+000	 1.0314124310e+000	 4.4344079589e-001
 2.6350293200e+000	 1.0593813632e+000	 3.8192208795e-001
 2.6236359089e+000	 1.0872917218e+000	 3.2400259051e-001
 2.6119218420e+000	 1.1151382038e+000	 2.6936036967e-001
 2.7401538221e+000	 8.4226466823e-001	 8.5284264412e-001
 2.7312314211e+000	 8.7076271134e-001	 8.0296004076e-001
 2.7219888849e+000	 8.9923823169e-001	 7.4718852483e-001
 2.7124253981e+000	 9.2768611232e-001	 6.8697773291e-001
 2.7025402488e+000	 9.5610119473e-001	 6.2367705707e-001
 2.6923328307e+000	 9.8447828143e-001	 5.5851228884e-001
 2.6818026442e+000	 1.0128121385e+000	 4.9255363139e-001
 2.6709492982e+000	 1.0410974981e+000	 4.2671691275e-001
 2.6597725119e+000	 1.0693290614e+000	 3.6241058492e-001
 2.6482721155e+000	 1.0975015011e+000	 3.0276277579e-001
 2.6364480523e+000	 1.1256094643e+000	 2.4788692893e-001
 2.3911859489e+000	 1.0208968588e+000	 3.5706321916e-001
 2.3801700182e+000	 1.0463228464e+000	 2.9846264229e-001
 2.3688608284e+000	 1.0716806093e+000	 2.3954060429e-001
 2.3572586430e+000	 1.0969652426e+000	 1.8060315737e-001
 2.3453638315e+000	 1.1221718289e+000	 1.2184128170e-001
 2.3331768706e+000	 1.1472954414e+000	 6.3333878738e-002
 2.3206983446e+000	 1.1723311464e+000	 5.0524967973e-003
 2.3079289465e+000	 1.1972740064e+000	-5.3132243820e-002
 2.2948694778e+000	 1.2221190831e+000	-1.1144257438e-001
 2.2815208497e+000	 1.2468614399e+000	-1.7018391340e-001
 2.2678840830e+000	 1.2714961454e+000	-2.2973369291e-001
 2.4157121593e+000	 1.0313681194e+000	 3.2946454423e-001
 2.4045832390e+000	 1.0570548993e+000	 2.7309325755e-001
 2.3931580517e+000	 1.0826727548e+000	 2.1639711596e-001
 2.3814368636e+000	 1.1082167307e+000	 1.5966970408e-001
 2.3694200479e+000	 1.1336818591e+000	 1.0307060233e-001
 2.3571080863e+000	 1.1590631625e+000	 4.6628899660e-002
 2.3445015691e+000	 1.1843556568e+000	-9.7514123141e-003
 2.3316011962e+000	 1.2095543538e+000	-6.6284199646e-002
 2.3184077775e+000	 1.2346542645e+000	-1.2329215368e-001
 2.3049222336e+000	 1.2596504017e+000	-1.8119603496e-001
 2.2911455956e+000	 1.2845377836e+000	-2.4050227855e-001
 2.4402383696e+000	 1.0418393799e+000	 3.1183761692e-001
 2.4289964598e+000	 1.0677869523e+000	 2.5704652868e-001
 2.4174552750e+000	 1.0936649004e+000	 2.0199970232e-001
 2.4056150842e+000	 1.1194682188e+000	 1.4694098519e-001
 2.3934762643e+000	 1.1451918892e+000	 9.1959444390e-002
 2.3810393020e+000	 1.1708308836e+000	 3.6993505798e-002
 2.3683047935e+000	 1.1963801672e+000	-1.8162865493e-002
 2.3552734458e+000	 1.2218347012e+000	-7.3851983117e-002
 2.3419460772e+000	 1.2471894459e+000	-1.3054231335e-001
 2.3283236174e+000	 1.2724393636e+000	-1.8881648012e-001
 2.3144071082e+000	 1.2975794217e+000	-2.4935749341e-001
 2.4647645800e+000	 1.0523106405e+000	 3.0176980681e-001
 2.4534096806e+000	 1.0785190052e+000	 2.4802050638e-001
 2.4417524983e+000	 1.1046570460e+000	 1.9416077064e-001
 2.4297933047e+000	 1.1307197069e+000	 1.4034796848e-001
 2.4175324807e+000	 1.1567019193e+000	 8.6562014713e-002
 2.4049705176e+000	 1.1825986047e+000	 3.2610244630e-002
 2.3921080179e+000	 1.2084046776e+000	-2.1865499075e-002
 2.3789456955e+000	 1.2341150486e+000	-7.7379611045e-002
 2.3654843769e+000	 1.2597246273e+000	-1.3459136249e-001
 2.3517250013e+000	 1.2852283255e+000	-1.9429151659e-001
 2.3376686208e+000	 1.3106210599e+000	-2.5738702027e-001
 2.4892907903e+000	 1.0627819010e+000	 2.9687536765e-001
 2.4778229014e+000	 1.0892510582e+000	 2.4374766676e-001
 2.4660497216e+000	 1.1156491916e+000	 1.9073532381e-001
 2.4539715253e+000	 1.1419711950e+000	 1.3787294032e-001
 2.4415886971e+000	 1.1682119494e+000	 8.4993035759e-002
 2.4289017333e+000	 1.1943663258e+000	 3.1731769285e-002
 2.4159112423e+000	 1.2204291880e+000	-2.2462943962e-002
 2.4026179452e+000	 1.2463953960e+000	-7.8320970496e-002
 2.3890226766e+000	 1.2722598088e+000	-1.3673721861e-001
 2.3751263852e+000	 1.2980172874e+000	-1.9875670981e-001
 2.3609301334e+000	 1.3236626980e+000	-2.6555757001e-001
 2.5138170006e+000	 1.0732531616e+000	 2.9480318113e-001
 2.5022361221e+000	 1.0999831111e+000	 2.4200320742e-001
 2.4903469449e+000	 1.1266413371e+000	 1.8962980100e-001
 2.4781497459e+000	 1.1532226831e+000	 1.3755888438e-001
 2.4656449135e+000	 1.1797219796e+000	 8.5437657157e-002
 2.4528329490e+000	 1.2061340469e+000	 3.2691279023e-002
 2.4397144667e+000	 1.2324536984e+000	-2.1467858788e-002
 2.4262901949e+000	 1.2586757434e+000	-7.8028326855e-002
 2.4125609764e+000	 1.2847949902e+000	-1.3816539060e-001
 2.3985277690e+000	 1.3108062492e+000	-2.0322437935e-001
 2.3841916460e+000	 1.3367043362e+000	-2.7457625317e-001
 2.5383432110e+000	 1.0837244221e+000	 2.9324450240e-001
 2.5266493429e+000	 1.1107151641e+000	 2.4061333628e-001
 2.5146441682e+000	 1.1376334827e+000	 1.8881090254e-001
 2.5023279664e+000	 1.1644741712e+000	 1.3751883671e-001
 2.4897011299e+000	 1.1912320097e+000	 8.6161336260e-002
 2.4767641647e+000	 1.2179017679e+000	 3.3912921738e-002
 2.4635176911e+000	 1.2444782088e+000	-2.0291007793e-002
 2.4499624445e+000	 1.2709560908e+000	-7.7740883241e-002
 2.4360992761e+000	 1.2973301716e+000	-1.3993701960e-001
 2.4219291529e+000	 1.3235952111e+000	-2.0857112015e-001
 2.4074531586e+000	 1.3497459743e+000	-2.8235402550e-001
 2.5628694213e+000	 1.0941956827e+000	 2.8994070735e-001
 2.5510625637e+000	 1.1214472170e+000	 2.3746355348e-001
 2.5389413915e+000	 1.1486256283e+000	 1.8631440011e-001
 2.5265061870e+000	 1.1757256594e+000	 1.3594521877e-001
 2.5137573464e+000	 1.2027420398e+000	 8.5519689786e-002
 2.5006953804e+000	 1.2296694890e+000	 3.3922161037e-002
 2.4873209155e+000	 1.2565027191e+000	-2.0230380425e-002
 2.4736346942e+000	 1.2832364381e+000	-7.8573387829e-002
 2.4596375758e+000	 1.3098653530e+000	-1.4297697407e-001
 2.4453305367e+000	 1.3363841730e+000	-2.1541012785e-001
 2.4307146712e+000	 1.3627876125e+000	-2.8770241945e-001
 2.5873956317e+000	 1.1046669432e+000	 2.8269104137e-001
 2.5754757845e+000	 1.1321792700e+000	 2.3050692687e-001
 2.5632386148e+000	 1.1596177739e+000	 1.8025393307e-001
 2.5506844076e+000	 1.1869771475e+000	 1.3111914987e-001
 2.5378135628e+000	 1.2142520700e+000	 8.1968318471e-002
 2.5246265961e+000	 1.2414372101e+000	 3.1356110239e-002
 2.5111241399e+000	 1.2685272295e+000	-2.2460349897e-002
 2.4973069439e+000	 1.2955167855e+000	-8.1504785905e-002
 2.4831758755e+000	 1.3224005345e+000	-1.4806199532e-001
 2.4687319206e+000	 1.3491731349e+000	-2.2142384052e-001
 2.4539761837e+000	 1.3758292506e+000	-2.9031160876e-001
 2.6119218420e+000	 1.1151382038e+000	 2.6936036967e-001
 2.5998890053e+000	 1.1429113229e+000	 2.1777236151e-001
 2.5875358381e+000	 1.1706099194e+000	 1.6882979197e-001
 2.5748626282e+000	 1.1982286356e+000	 1.2141974038e-001
 2.5618697792e+000	 1.2257621001e+000	 7.4072606492e-002
 2.5485578118e+000	 1.2532049312e+000	 2.4973835461e-002
 2.5349273643e+000	 1.2805517399e+000	-2.8020868138e-002
 2.5209791935e+000	 1.3077971329e+000	-8.7366913710e-002
 2.5067141752e+000	 1.3349357159e+000	-1.5577348194e-001
 2.4921333044e+000	 1.3619620967e+000	-2.2529298211e-001
 2.4772376963e+000	 1.3888708888e+000	-2.8982697134e-001
 2.6364480523e+000	 1.1256094643e+000	 2.4788692893e-001
 2.6243022261e+000	 1.1536433759e+000	 1.9737286361e-001
 2.6118330614e+000	 1.1816020650e+000	 1.5033769010e-001
 2.5990408487e+000	 1.2094801237e+000	 1.0533336686e-001
 2.5859259956e+000	 1.2372721302e+000	 6.0517497317e-002
 2.5724890275e+000	 1.2649726523e+000	 1.3666629822e-002
 2.5587305887e+000	 1.2925762503e+000	-3.7806694769e-002
 2.5446514432e+000	 1.3200774803e+000	-9.6833231354e-002
 2.5302524749e+000	 1.3474708973e+000	-1.6388783197e-001
 2.5155346883e+000	 1.3747510586e+000	-2.2671989219e-001
 2.5004992089e+000	 1.4019125270e+000	-2.8585094210e-001
 2.2678840830e+000	 1.2714961454e+000	-2.2973369291e-001
 2.2539581986e+000	 1.2960219464e+000	-2.9130516261e-001
 2.2397464637e+000	 1.3204302257e+000	-3.5646431954e-001
 2.2252502318e+000	 1.3447160840e+000	-4.2527967380e-001
 2.2104709669e+000	 1.3688746392e+000	-4.9193628085e-001
 2.1954102429e+000	 1.3929010296e+000	-5.5497633760e-001
 2.1800697437e+000	 1.4167904164e+000	-6.1403457235e-001
 2.1644512626e+000	 1.4405379875e+000	-6.6871394907e-001
 2.1485567020e+000	 1.4641389598e+000	-7.1858925546e-001
 2.1323880729e+000	 1.4875885829e+000	-7.6321143257e-001
 2.1159474941e+000	 1.5108821418e+000	-8.0211260369e-001
 2.2911455956e+000	 1.2845377836e+000	-2.4050227855e-001
 2.2770768745e+000	 1.3093151438e+000	-3.0264891292e-001
 2.2627193709e+000	 1.3339737769e+000	-3.6946727324e-001
 2.2480744523e+000	 1.3585087334e+000	-4.3694640690e-001
 2.2331435976e+000	 1.3829150811e+000	-5.0070432704e-001
 2.2179283969e+000	 1.4071879083e+000	-5.6059433422e-001
 2.2024305514e+000	 1.4313223268e+000	-6.1642563162e-001
 2.1866518727e+000	 1.4553134748e+000	-6.6796612238e-001
 2.1705942828e+000	 1.4791565204e+000	-7.1494604988e-001
 2.1542598133e+000	 1.5028466645e+000	-7.5706244331e-001
 2.1376506048e+000	 1.5263791437e+000	-7.9398432374e-001
 2.3144071082e+000	 1.2975794217e+000	-2.4935749341e-001
 2.3001955503e+000	 1.3226083413e+000	-3.1380304666e-001
 2.2856922780e+000	 1.3475173282e+000	-3.8239133997e-001
 2.2708986727e+000	 1.3723013828e+000	-4.4782224889e-001
 2.2558162283e+000	 1.3969555230e+000	-5.0918080824e-001
 2.2404465509e+000	 1.4214747870e+000	-5.6646123264e-001
 2.2247913591e+000	 1.4458542371e+000	-6.1960388147e-001
 2.2088524828e+000	 1.4700889621e+000	-6.6849814781e-001
 2.1926318636e+000	 1.4941740811e+000	-7.1298626021e-001
 2.1761315537e+000	 1.5181047462e+000	-7.5286795709e-001
 2.1593537155e+000	 1.5418761456e+000	-7.8790598553e-001
 2.3376686208e+000	 1.3106210599e+000	-2.5738702027e-001
 2.3233142262e+000	 1.3359015387e+000	-3.2563145569e-001
 2.3086651852e+000	 1.3610608794e+000	-3.9381419528e-001
 2.2937228932e+000	 1.3860940323e+000	-4.5751161486e-001
 2.2784888589e+000	 1.4109959649e+000	-5.1688297774e-001
 2.2629647049e+000	 1.4357616657e+000	-5.7202160185e-001
 2.2471521667e+000	 1.4603861474e+000	-6.2295692481e-001
 2.2310530929e+000	 1.4848644494e+000	-6.6965759021e-001
 2.2146694445e+000	 1.5091916418e+000	-7.1203552052e-001
 2.1980032942e+000	 1.5333628279e+000	-7.4995093342e-001
 2.1810568261e+000	 1.5573731475e+000	-7.8321824970e-001
 2.3609301334e+000	 1.3236626980e+000	-2.6555757001e-001
 2.3464329021e+000	 1.3491947361e+000	-3.3651566176e-001
 2.3316380924e+000	 1.3746044307e+000	-4.0339532770e-001
 2.3165471136e+000	 1.3998866817e+000	-4.6557729108e-001
 2.3011614896e+000	 1.4250364067e+000	-5.2328986014e-001
 2.2854828589e+000	 1.4500485444e+000	-5.7668485123e-001
 2.2695129744e+000	 1.4749180577e+000	-6.2583987653e-001
 2.2532537030e+000	 1.4996399368e+000	-6.7076173378e-001
 2.2367070253e+000	 1.5242092025e+000	-7.1139086032e-001
 2.2198750346e+000	 1.5486209095e+000	-7.4760680513e-001
 2.2027599368e+000	 1.5728701494e+000	-7.7923466275e-001
 2.3841916460e+000	 1.3367043362e+000	-2.7457625317e-001
 2.3695515779e+000	 1.3624879335e+000	-3.4521097628e-001
 2.3546109996e+000	 1.3881479819e+000	-4.1075052001e-001
 2.3393713341e+000	 1.4136793311e+000	-4.7154207366e-001
 2.3238341203e+000	 1.4390768486e+000	-5.2784396036e-001
 2.3080010129e+000	 1.4643354232e+000	-5.7982703215e-001
 2.2918737821e+000	 1.4894499680e+000	-6.2757728235e-001
 2.2754543131e+000	 1.5144154241e+000	-6.7109964501e-001
 2.2587446061e+000	 1.5392267632e+000	-7.1032294085e-001
 2.2417467750e+000	 1.5638789912e+000	-7.4510591925e-001
 2.2244630475e+000	 1.5883671513e+000	-7.7524433607e-001
 2.4074531586e+000	 1.3497459743e+000	-2.8235402550e-001
 2.3926702538e+000	 1.3757811309e+000	-3.5139172054e-001
 2.3775839068e+000	 1.4016915332e+000	-4.1545352229e-001
 2.3621955545e+000	 1.4274719806e+000	-4.7489049704e-001
 2.3465067509e+000	 1.4531172905e+000	-5.2995306634e-001
 2.3305191669e+000	 1.4786223019e+000	-5.8079273601e-001
 2.3142345897e+000	 1.5039818783e+000	-6.2746513528e-001
 2.2976549232e+000	 1.5291909114e+000	-6.6993433297e-001
 2.2807821869e+000	 1.5542443239e+000	-7.0807838650e-001
 2.2636185155e+000	 1.5791370729e+000	-7.4169606913e-001
 2.2461661582e+000	 1.6038641532e+000	-7.7051471030e-001
 2.4307146712e+000	 1.3627876125e+000	-2.8770241945e-001
 2.4157889297e+000	 1.3890743283e+000	-3.5468795449e-001
 2.4005568140e+000	 1.4152350845e+000	-4.1703780404e-001
 2.3850197750e+000	 1.4412646300e+000	-4.7507064618e-001
 2.3691793816e+000	 1.4671577324e+000	-5.2899213923e-001
 2.3530373208e+000	 1.4929091806e+000	-5.7889708215e-001
 2.3365953974e+000	 1.5185137887e+000	-6.2477298318e-001
 2.3198555333e+000	 1.5439663988e+000	-6.6650500026e-001
 2.3028197677e+000	 1.5692618846e+000	-7.0388220508e-001
 2.2854902559e+000	 1.5943951545e+000	-7.3660511171e-001
 2.2678692689e+000	 1.6193611551e+000	-7.6429439926e-001
 2.4539761837e+000	 1.3758292506e+000	-2.9031160876e-001
 2.4389076055e+000	 1.4023675257e+000	-3.5468725303e-001
 2.4235297212e+000	 1.4287786357e+000	-4.1499838011e-001
 2.4078439955e+000	 1.4550572794e+000	-4.7149604704e-001
 2.3918520123e+000	 1.4811981742e+000	-5.2430528514e-001
 2.3755554748e+000	 1.5071960593e+000	-5.7342778973e-001
 2.3589562050e+000	 1.5330456990e+000	-6.1874612140e-001
 2.3420561434e+000	 1.5587418861e+000	-6.6002937884e-001
 2.3248573486e+000	 1.5842794452e+000	-6.9694029102e-001
 2.3073619963e+000	 1.6096532362e+000	-7.2904366425e-001
 2.2895723795e+000	 1.6348581571e+000	-7.5581610813e-001
 2.4772376963e+000	 1.3888708888e+000	-2.8982697134e-001
 2.4620262814e+000	 1.4156607231e+000	-3.5093654636e-001
 2.4465026284e+000	 1.4423221870e+000	-4.0879370551e-001
 2.4306682159e+000	 1.4688499289e+000	-4.6354762999e-001
 2.4145246430e+000	 1.4952386161e+000	-5.1520780324e-001
 2.3980736288e+000	 1.5214829380e+000	-5.6364732813e-001
 2.3813170127e+000	 1.5475776093e+000	-6.0860786478e-001
 2.3642567535e+000	 1.5735173734e+000	-6.4970614494e-001
 2.3468949294e+000	 1.5992970059e+000	-6.8644200612e-001
 2.3292337368e+000	 1.6249113179e+000	-7.1820787543e-001
 2.3112754902e+000	 1.6503551590e+000	-7.4429962112e-001
 2.5004992089e+000	 1.4019125270e+000	-2.8585094210e-001
 2.4851449573e+000	 1.4289539205e+000	-3.4294402016e-001
 2.4694755356e+000	 1.4558657382e+000	-3.9784763468e-001
 2.4534924364e+000	 1.4826425783e+000	-4.5057576168e-001
 2.4371972736e+000	 1.5092790580e+000	-5.0098830514e-001
 2.4205917828e+000	 1.5357698167e+000	-5.4879514058e-001
 2.4036778204e+000	 1.5621095196e+000	-5.9356189403e-001
 2.3864573637e+000	 1.5882928607e+000	-6.3471740803e-001
 2.3689325102e+000	 1.6143145666e+000	-6.7156283266e-001
 2.3511054772e+000	 1.6401693995e+000	-7.0328226579e-001
 2.3329786009e+000	 1.6658521609e+000	-7.2895485396e-001
 2.1159474941e+000	 1.5108821418e+000	-8.0211260369e-001
 2.0992371910e+000	 1.5340149596e+000	-8.4005734415e-001
 2.0822594931e+000	 1.5569823987e+000	-8.8199582907e-001
 2.0650168343e+000	 1.5797798658e+000	-9.2771939773e-001
 2.0475117532e+000	 1.6024028145e+000	-9.7701373787e-001
 2.0297468916e+000	 1.6248467492e+000	-1.0296661847e+000
 2.0117249930e+000	 1.6471072275e+000	-1.0854733582e+000
 1.9934489018e+000	 1.6691798630e+000	-1.1434217415e+000
 1.9749215615e+000	 1.6910603285e+000	-1.1933657702e+000
 1.9561460130e+000	 1.7127443585e+000	-1.2309380876e+000
 1.9371253937e+000	 1.7342277519e+000	-1.2543494637e+000
 2.1376506048e+000	 1.5263791437e+000	-7.9398432374e-001
 2.1207689054e+000	 1.5497492330e+000	-8.3049258722e-001
 2.1036170685e+000	 1.5729522474e+000	-8.7123708671e-001
 2.0861975531e+000	 1.5959835463e+000	-9.1566472656e-001
 2.0685129238e+000	 1.6188385369e+000	-9.6321830418e-001
 2.0505658493e+000	 1.6415126773e+000	-1.0133451155e+000
 2.0323591015e+000	 1.6640014796e+000	-1.0655059208e+000
 2.0138955539e+000	 1.6863005124e+000	-1.1191841861e+000
 1.9951781800e+000	 1.7084054042e+000	-1.1734229544e+000
 1.9762100522e+000	 1.7303118456e+000	-1.2173904177e+000
 1.9569943398e+000	 1.7520155926e+000	-1.2451299617e+000
 2.1593537155e+000	 1.5418761456e+000	-7.8790598553e-001
 2.1423006198e+000	 1.5654835065e+000	-8.2296217335e-001
 2.1249746440e+000	 1.5889220961e+000	-8.6251398800e-001
 2.1073782719e+000	 1.6121872269e+000	-9.0571542727e-001
 2.0895140944e+000	 1.6352742593e+000	-9.5171720520e-001
 2.0713848071e+000	 1.6581786054e+000	-9.9967662121e-001
 2.0529932100e+000	 1.6808957317e+000	-1.0487678142e+000
 2.0343422059e+000	 1.7034211619e+000	-1.0981923086e+000
 2.0154347985e+000	 1.7257504799e+000	-1.1471897557e+000
 1.9962740914e+000	 1.7478793327e+000	-1.1947524051e+000
 1.9768632860e+000	 1.7698034332e+000	-1.2294057520e+000
 2.1810568261e+000	 1.5573731475e+000	-7.8321824970e-001
 2.1638323342e+000	 1.5812177799e+000	-8.1682993334e-001
 2.1463322194e+000	 1.6048919448e+000	-8.5520216959e-001
 2.1285589908e+000	 1.6283909074e+000	-8.9724578402e-001
 2.1105152649e+000	 1.6517099817e+000	-9.4186842130e-001
 2.0922037648e+000	 1.6748445336e+000	-9.8798563924e-001
 2.0736273186e+000	 1.6977899839e+000	-1.0345324143e+000
 2.0547888580e+000	 1.7205418114e+000	-1.0804749578e+000
 2.0356914171e+000	 1.7430955556e+000	-1.1248227386e+000
 2.0163381306e+000	 1.7654468199e+000	-1.1666406042e+000
 1.9967322321e+000	 1.7875912739e+000	-1.2048222194e+000
 2.2027599368e+000	 1.5728701494e+000	-7.7923466275e-001
 2.1853640486e+000	 1.5969520533e+000	-8.1143289453e-001
 2.1676897948e+000	 1.6208617935e+000	-8.4865131214e-001
 2.1497397096e+000	 1.6445945880e+000	-8.8960555465e-001
 2.1315164355e+000	 1.6681457041e+000	-9.3300746305e-001
 2.1130227225e+000	 1.6915104617e+000	-9.7757736462e-001
 2.0942614271e+000	 1.7146842360e+000	-1.0220567972e+000
 2.0752355100e+000	 1.7376624608e+000	-1.0652215649e+000
 2.0559480356e+000	 1.7604406313e+000	-1.1058950125e+000
 2.0364021698e+000	 1.7830143070e+000	-1.1429614035e+000
 2.0166011783e+000	 1.8053791145e+000	-1.1753792844e+000
 2.2244630475e+000	 1.5883671513e+000	-7.7524433607e-001
 2.2068957630e+000	 1.6126863268e+000	-8.0608420305e-001
 2.1890473703e+000	 1.6368316422e+000	-8.4218827860e-001
 2.1709204284e+000	 1.6607982686e+000	-8.8212329426e-001
 2.1525176060e+000	 1.6845814265e+000	-9.2445084628e-001
 2.1338416803e+000	 1.7081763898e+000	-9.6774083969e-001
 2.1148955356e+000	 1.7315784881e+000	-1.0105854029e+000
 2.0956821621e+000	 1.7547831103e+000	-1.0516131559e+000
 2.0762046542e+000	 1.7777857070e+000	-1.0895037120e+000
 2.0564662089e+000	 1.8005817941e+000	-1.1230022886e+000
 2.0364701244e+000	 1.8231669552e+000	-1.1509343013e+000
 2.2461661582e+000	 1.6038641532e+000	-7.7051471030e-001
 2.2284274774e+000	 1.6284206002e+000	-8.0007612499e-001
 2.2104049457e+000	 1.6528014909e+000	-8.3512032640e-001
 2.1921011472e+000	 1.6770019491e+000	-8.7410974958e-001
 2.1735187766e+000	 1.7010171489e+000	-9.1549963650e-001
 2.1546606380e+000	 1.7248423179e+000	-9.5775261329e-001
 2.1355296441e+000	 1.7484727403e+000	-9.9935377072e-001
 2.1161288141e+000	 1.7719037597e+000	-1.0388261227e+000
 2.0964612727e+000	 1.7951307827e+000	-1.0747463140e+000
 2.0765302481e+000	 1.8181492813e+000	-1.1057604443e+000
 2.0563390706e+000	 1.8409547958e+000	-1.1305998744e+000
 2.2678692689e+000	 1.6193611551e+000	-7.6429439926e-001
 2.2499591918e+000	 1.6441548737e+000	-7.9268312128e-001
 2.2317625212e+000	 1.6687713396e+000	-8.2673838879e-001
 2.2132818661e+000	 1.6932056297e+000	-8.6486131931e-001
 2.1945199471e+000	 1.7174528713e+000	-9.0544305787e-001
 2.1754795957e+000	 1.7415082460e+000	-9.4688046510e-001
 2.1561637526e+000	 1.7653669924e+000	-9.8759234326e-001
 2.1365754661e+000	 1.7890244092e+000	-1.0260360667e+000
 2.1167178912e+000	 1.8124758584e+000	-1.0607244789e+000
 2.0965942873e+000	 1.8357167684e+000	-1.0902429147e+000
 2.0762080167e+000	 1.8587426365e+000	-1.1132662041e+000
 2.2895723795e+000	 1.6348581571e+000	-7.5581610813e-001
 2.2714909061e+000	 1.6598891471e+000	-7.8316499118e-001
 2.2531200966e+000	 1.6847411883e+000	-8.1632042052e-001
 2.2344625849e+000	 1.7094093102e+000	-8.5366357600e-001
 2.2155211177e+000	 1.7338885937e+000	-8.9356216251e-001
 2.1962985535e+000	 1.7581741742e+000	-9.3438719067e-001
 2.1767978611e+000	 1.7822612445e+000	-9.7453033239e-001
 2.1570221182e+000	 1.8061450586e+000	-1.0124217091e+000
 2.1369745098e+000	 1.8298209341e+000	-1.0465479660e+000
 2.1166583265e+000	 1.8532842555e+000	-1.0754704806e+000
 2.0960769629e+000	 1.8765304771e+000	-1.0978435548e+000
 2.3112754902e+000	 1.6503551590e+000	-7.4429962112e-001
 2.2930226205e+000	 1.6756234205e+000	-7.7077008013e-001
 2.2744776721e+000	 1.7007110370e+000	-8.0313480388e-001
 2.2556433037e+000	 1.7256129908e+000	-8.3979484560e-001
 2.2365222882e+000	 1.7503243161e+000	-8.7913355617e-001
 2.2171175112e+000	 1.7748401023e+000	-9.1953444329e-001
 2.1974319696e+000	 1.7991554966e+000	-9.5939964483e-001
 2.1774687702e+000	 1.8232657081e+000	-9.9716886502e-001
 2.1572311283e+000	 1.8471660099e+000	-1.0313386172e+000
 2.1367223657e+000	 1.8708517427e+000	-1.0604816132e+000
 2.1159459091e+000	 1.8943183178e+000	-1.0832661361e+000
 2.3329786009e+000	 1.6658521609e+000	-7.2895485396e-001
 2.3145543349e+000	 1.6913576940e+000	-7.5473854754e-001
 2.2958352475e+000	 1.7166808857e+000	-7.8644381094e-001
 2.2768240225e+000	 1.7418166714e+000	-8.2252984076e-001
 2.2575234588e+000	 1.7667600385e+000	-8.6143317658e-001
 2.2379364689e+000	 1.7915060304e+000	-9.0158662886e-001
 2.2180660781e+000	 1.8160497488e+000	-9.4143886249e-001
 2.1979154223e+000	 1.8403863575e+000	-9.7947447538e-001
 2.1774877469e+000	 1.8645110856e+000	-1.0142344061e+000
 2.1567864049e+000	 1.8884192298e+000	-1.0443365008e+000
 2.1358148552e+000	 1.9121061584e+000	-1.0684960660e+000
 1.9371253937e+000	 1.7342277519e+000	-1.2543494637e+000
 1.9178658423e+000	 1.7555031994e+000	-1.2695843729e+000
 1.8983678480e+000	 1.7765698777e+000	-1.2837523085e+000
 1.8786348255e+000	 1.7974237988e+000	-1.2967359658e+000
 1.8586702779e+000	 1.8180610496e+000	-1.3084003774e+000
 1.8384777946e+000	 1.8384777946e+000	-1.3185926278e+000
 1.8180610496e+000	 1.8586702779e+000	-1.3271413757e+000
 1.7974237988e+000	 1.8786348255e+000	-1.3338561745e+000
 1.7765698777e+000	 1.8983678480e+000	-1.3385265818e+000
 1.7555031994e+000	 1.9178658423e+000	-1.3409210537e+000
 1.7342277519e+000	 1.9371253937e+000	-1.3407856202e+000
 1.9569943398e+000	 1.7520155926e+000	-1.2451299617e+000
 1.9375372447e+000	 1.7735092607e+000	-1.2621228066e+000
 1.9178392610e+000	 1.7947920183e+000	-1.2755300000e+000
 1.8979038384e+000	 1.8158598364e+000	-1.2857224829e+000
 1.8777345160e+000	 1.8367087620e+000	-1.2930498581e+000
 1.8573349200e+000	 1.8573349200e+000	-1.2978392713e+000
 1.8367087620e+000	 1.8777345160e+000	-1.3003940880e+000
 1.8158598364e+000	 1.8979038384e+000	-1.3009923574e+000
 1.7947920183e+000	 1.9178392610e+000	-1.2998850557e+000
 1.7735092607e+000	 1.9375372447e+000	-1.2972941041e+000
 1.7520155926e+000	 1.9569943398e+000	-1.2934101614e+000
 1.9768632860e+000	 1.7698034332e+000	-1.2294057520e+000
 1.9572086471e+000	 1.7915153220e+000	-1.2510614871e+000
 1.9373106740e+000	 1.8130141588e+000	-1.2667370389e+000
 1.9171728513e+000	 1.8342958741e+000	-1.2772060465e+000
 1.8967987540e+000	 1.8553564743e+000	-1.2832182456e+000
 1.8761920453e+000	 1.8761920453e+000	-1.2854976696e+000
 1.8553564743e+000	 1.8967987540e+000	-1.2847406310e+000
 1.8342958741e+000	 1.9171728513e+000	-1.2816134738e+000
 1.8130141588e+000	 1.9373106740e+000	-1.2767500922e+000
 1.7915153220e+000	 1.9572086471e+000	-1.2707492101e+000
 1.7698034332e+000	 1.9768632860e+000	-1.2641714226e+000
 1.9967322321e+000	 1.7875912739e+000	-1.2048222194e+000
 1.9768800495e+000	 1.8095213832e+000	-1.2338939083e+000
 1.9567820870e+000	 1.8312362994e+000	-1.2547324399e+000
 1.9364418642e+000	 1.8527319117e+000	-1.2684311113e+000
 1.9158629921e+000	 1.8740041867e+000	-1.2760578567e+000
 1.8950491706e+000	 1.8950491706e+000	-1.2786529178e+000
 1.8740041867e+000	 1.9158629921e+000	-1.2772262774e+000
 1.8527319117e+000	 1.9364418642e+000	-1.2727548449e+000
 1.8312362994e+000	 1.9567820870e+000	-1.2661793889e+000
 1.8095213832e+000	 1.9768800495e+000	-1.2584012135e+000
 1.7875912739e+000	 1.9967322321e+000	-1.2502785778e+000
 2.0166011783e+000	 1.8053791145e+000	-1.1753792844e+000
 1.9965514519e+000	 1.8275274445e+000	-1.2081866140e+000
 1.9762535000e+000	 1.8494584400e+000	-1.2369524895e+000
 1.9557108771e+000	 1.8711679493e+000	-1.2567226460e+000
 1.9349272302e+000	 1.8926518990e+000	-1.2688036803e+000
 1.9139062959e+000	 1.9139062959e+000	-1.2744737565e+000
 1.8926518990e+000	 1.9349272302e+000	-1.2749796354e+000
 1.8711679493e+000	 1.9557108771e+000	-1.2715334357e+000
 1.8494584400e+000	 1.9762535000e+000	-1.2653091177e+000
 1.8275274445e+000	 1.9965514519e+000	-1.2574386888e+000
 1.8053791145e+000	 2.0166011783e+000	-1.2466930817e+000
 2.0364701244e+000	 1.8231669552e+000	-1.1509343013e+000
 2.0162228544e+000	 1.8455335058e+000	-1.1778405665e+000
 1.9957249130e+000	 1.8676805806e+000	-1.2109123105e+000
 1.9749798900e+000	 1.8896039870e+000	-1.2394875771e+000
 1.9539914682e+000	 1.9112996113e+000	-1.2587747438e+000
 1.9327634212e+000	 1.9327634212e+000	-1.2702139068e+000
 1.9112996113e+000	 1.9539914682e+000	-1.2752140027e+000
 1.8896039870e+000	 1.9749798900e+000	-1.2751492837e+000
 1.8676805806e+000	 1.9957249130e+000	-1.2713554886e+000
 1.8455335058e+000	 2.0162228544e+000	-1.2628921197e+000
 1.8231669552e+000	 2.0364701244e+000	-1.2465196189e+000
 2.0563390706e+000	 1.8409547958e+000	-1.1305998744e+000
 2.0358942568e+000	 1.8635395671e+000	-1.1529984438e+000
 2.0151963260e+000	 1.8859027211e+000	-1.1799227159e+000
 1.9942489029e+000	 1.9080400246e+000	-1.2142163749e+000
 1.9730557063e+000	 1.9299473237e+000	-1.2433756268e+000
 1.9516205466e+000	 1.9516205466e+000	-1.2632135562e+000
 1.9299473237e+000	 1.9730557063e+000	-1.2752288719e+000
 1.9080400246e+000	 1.9942489029e+000	-1.2808870757e+000
 1.8859027211e+000	 2.0151963260e+000	-1.2796391005e+000
 1.8635395671e+000	 2.0358942568e+000	-1.2678927347e+000
 1.8409547958e+000	 2.0563390706e+000	-1.2471360263e+000
 2.0762080167e+000	 1.8587426365e+000	-1.1132662041e+000
 2.0555656592e+000	 1.8815456284e+000	-1.1327062039e+000
 2.0346677390e+000	 1.9041248617e+000	-1.1547697600e+000
 2.0135179158e+000	 1.9264760623e+000	-1.1831824314e+000
 1.9921199444e+000	 1.9485950360e+000	-1.2200981126e+000
 1.9704776719e+000	 1.9704776719e+000	-1.2509009841e+000
 1.9485950360e+000	 1.9921199444e+000	-1.2724115756e+000
 1.9264760623e+000	 2.0135179158e+000	-1.2845398070e+000
 1.9041248617e+000	 2.0346677390e+000	-1.2832339234e+000
 1.8815456284e+000	 2.0555656592e+000	-1.2698697696e+000
 1.8587426365e+000	 2.0762080167e+000	-1.2461890883e+000
 2.0960769629e+000	 1.8765304771e+000	-1.0978435548e+000
 2.0752370616e+000	 1.8995516896e+000	-1.1157586555e+000
 2.0541391520e+000	 1.9223470023e+000	-1.1345909634e+000
 2.0327869287e+000	 1.9449120999e+000	-1.1580369721e+000
 2.0111841824e+000	 1.9672427483e+000	-1.1898585978e+000
 1.9893347972e+000	 1.9893347972e+000	-1.2307943194e+000
 1.9672427483e+000	 2.0111841824e+000	-1.2631489328e+000
 1.9449120999e+000	 2.0327869287e+000	-1.2790854610e+000
 1.9223470023e+000	 2.0541391520e+000	-1.2796056573e+000
 1.8995516896e+000	 2.0752370616e+000	-1.2665307396e+000
 1.8765304771e+000	 2.0960769629e+000	-1.2415005367e+000
 2.1159459091e+000	 1.8943183178e+000	-1.0832661361e+000
 2.0949084640e+000	 1.9175577509e+000	-1.1009808021e+000
 2.0736105650e+000	 1.9405691429e+000	-1.1181151979e+000
 2.0520559416e+000	 1.9633481375e+000	-1.1382636923e+000
 2.0302484205e+000	 1.9858904607e+000	-1.1650944459e+000
 2.0081919225e+000	 2.0081919225e+000	-1.2017665177e+000
 1.9858904607e+000	 2.0302484205e+000	-1.2403783668e+000
 1.9633481375e+000	 2.0520559416e+000	-1.2619756918e+000
 1.9405691429e+000	 2.0736105650e+000	-1.2665504333e+000
 1.9175577509e+000	 2.0949084640e+000	-1.2557557097e+000
 1.8943183178e+000	 2.1159459091e+000	-1.2310624724e+000
 2.1358148552e+000	 1.9121061584e+000	-1.0684960660e+000
 2.1145798665e+000	 1.9355638122e+000	-1.0872317308e+000
 2.0930819779e+000	 1.9587912834e+000	-1.1041108791e+000
 2.0713249545e+000	 1.9817841752e+000	-1.1225542955e+000
 2.0493126586e+000	 2.0045381730e+000	-1.1458822953e+000
 2.0270490478e+000	 2.0270490478e+000	-1.1718646566e+000
 2.0045381730e+000	 2.0493126586e+000	-1.2020173199e+000
 1.9817841752e+000	 2.0713249545e+000	-1.2311175506e+000
 1.9587912834e+000	 2.0930819779e+000	-1.2420329630e+000
 1.9355638122e+000	 2.1145798665e+000	-1.2355925409e+000
 1.9121061584e+000	 2.1358148552e+000	-1.2130328736e+000
 1.7342277519e+000	 1.9371253937e+000	-1.3407856202e+000
 1.7127443585e+000	 1.9561460130e+000	-1.3435428074e+000
 1.6910603285e+000	 1.9749215615e+000	-1.3534744393e+000
 1.6691798630e+000	 1.9934489018e+000	-1.3686115565e+000
 1.6471072275e+000	 2.0117249930e+000	-1.3859358468e+000
 1.6248467492e+000	 2.0297468916e+000	-1.3998948083e+000
 1.6024028145e+000	 2.0475117532e+000	-1.4085511725e+000
 1.5797798658e+000	 2.0650168343e+000	-1.4102950517e+000
 1.5569823987e+000	 2.0822594931e+000	-1.4035170228e+000
 1.5340149596e+000	 2.0992371910e+000	-1.3866174635e+000
 1.5108821418e+000	 2.1159474941e+000	-1.3580154658e+000
 1.7520155926e+000	 1.9569943398e+000	-1.2934101614e+000
 1.7303118456e+000	 1.9762100522e+000	-1.2945382418e+000
 1.7084054042e+000	 1.9951781800e+000	-1.3053388145e+000
 1.6863005124e+000	 2.0138955539e+000	-1.3219836628e+000
 1.6640014796e+000	 2.0323591015e+000	-1.3385282394e+000
 1.6415126773e+000	 2.0505658493e+000	-1.3528548066e+000
 1.6188385369e+000	 2.0685129238e+000	-1.3630187987e+000
 1.5959835463e+000	 2.0861975531e+000	-1.3670727019e+000
 1.5729522474e+000	 2.1036170685e+000	-1.3630768549e+000
 1.5497492330e+000	 2.1207689054e+000	-1.3491098479e+000
 1.5263791437e+000	 2.1376506048e+000	-1.3232784518e+000
 1.7698034332e+000	 1.9768632860e+000	-1.2641714226e+000
 1.7478793327e+000	 1.9962740914e+000	-1.2642820854e+000
 1.7257504799e+000	 2.0154347985e+000	-1.2743438836e+000
 1.7034211619e+000	 2.0343422059e+000	-1.2880855813e+000
 1.6808957317e+000	 2.0529932100e+000	-1.3031907246e+000
 1.6581786054e+000	 2.0713848071e+000	-1.3174352033e+000
 1.6352742593e+000	 2.0895140944e+000	-1.3285855699e+000
 1.6121872269e+000	 2.1073782719e+000	-1.3344112583e+000
 1.5889220961e+000	 2.1249746440e+000	-1.3326964336e+000
 1.5654835065e+000	 2.1423006198e+000	-1.3212513989e+000
 1.5418761456e+000	 2.1593537155e+000	-1.2979234836e+000
 1.7875912739e+000	 1.9967322321e+000	-1.2502785778e+000
 1.7654468199e+000	 2.0163381306e+000	-1.2478805253e+000
 1.7430955556e+000	 2.0356914171e+000	-1.2532510210e+000
 1.7205418114e+000	 2.0547888580e+000	-1.2638874508e+000
 1.6977899839e+000	 2.0736273186e+000	-1.2773441898e+000
 1.6748445336e+000	 2.0922037648e+000	-1.2911570746e+000
 1.6517099817e+000	 2.1105152649e+000	-1.3028569747e+000
 1.6283909074e+000	 2.1285589908e+000	-1.3099830446e+000
 1.6048919448e+000	 2.1463322194e+000	-1.3100955716e+000
 1.5812177799e+000	 2.1638323342e+000	-1.3007883352e+000
 1.5573731475e+000	 2.1810568261e+000	-1.2797004037e+000
 1.8053791145e+000	 2.0166011783e+000	-1.2466930817e+000
 1.7830143070e+000	 2.0364021698e+000	-1.2383087372e+000
 1.7604406313e+000	 2.0559480356e+000	-1.2392391031e+000
 1.7376624608e+000	 2.0752355100e+000	-1.2468776442e+000
 1.7146842360e+000	 2.0942614271e+000	-1.2585874503e+000
 1.6915104617e+000	 2.1130227225e+000	-1.2717160783e+000
 1.6681457041e+000	 2.1315164355e+000	-1.2836101397e+000
 1.6445945880e+000	 2.1497397096e+000	-1.2916295366e+000
 1.6208617935e+000	 2.1676897948e+000	-1.2931612565e+000
 1.5969520533e+000	 2.1853640486e+000	-1.2856326367e+000
 1.5728701494e+000	 2.2027599368e+000	-1.2665240170e+000
 1.8231669552e+000	 2.0364701244e+000	-1.2465196189e+000
 1.8005817941e+000	 2.0564662089e+000	-1.2328716488e+000
 1.7777857070e+000	 2.0762046542e+000	-1.2298556039e+000
 1.7547831103e+000	 2.0956821621e+000	-1.2347222369e+000
 1.7315784881e+000	 2.1148955356e+000	-1.2446936586e+000
 1.7081763898e+000	 2.1338416803e+000	-1.2569791741e+000
 1.6845814265e+000	 2.1525176060e+000	-1.2687908391e+000
 1.6607982686e+000	 2.1709204284e+000	-1.2773586339e+000
 1.6368316422e+000	 2.1890473703e+000	-1.2799451584e+000
 1.6126863268e+000	 2.2068957630e+000	-1.2738597545e+000
 1.5883671513e+000	 2.2244630475e+000	-1.2564719683e+000
 1.8409547958e+000	 2.0563390706e+000	-1.2471360263e+000
 1.8181492813e+000	 2.0765302481e+000	-1.2291690649e+000
 1.7951307827e+000	 2.0964612727e+000	-1.2228251573e+000
 1.7719037597e+000	 2.1161288141e+000	-1.2252611492e+000
 1.7484727403e+000	 2.1355296441e+000	-1.2336067617e+000
 1.7248423179e+000	 2.1546606380e+000	-1.2449813779e+000
 1.7010171489e+000	 2.1735187766e+000	-1.2565105256e+000
 1.6770019491e+000	 2.1921011472e+000	-1.2653419446e+000
 1.6528014909e+000	 2.2104049457e+000	-1.2686611398e+000
 1.6284206002e+000	 2.2284274774e+000	-1.2637063169e+000
 1.6038641532e+000	 2.2461661582e+000	-1.2477826107e+000
 1.8587426365e+000	 2.0762080167e+000	-1.2461890883e+000
 1.8357167684e+000	 2.0965942873e+000	-1.2249770433e+000
 1.8124758584e+000	 2.1167178912e+000	-1.2160454445e+000
 1.7890244092e+000	 2.1365754661e+000	-1.2165043486e+000
 1.7653669924e+000	 2.1561637526e+000	-1.2234380042e+000
 1.7415082460e+000	 2.1754795957e+000	-1.2339225505e+000
 1.7174528713e+000	 2.1945199471e+000	-1.2450433840e+000
 1.6932056297e+000	 2.2132818661e+000	-1.2539120816e+000
 1.6687713396e+000	 2.2317625212e+000	-1.2576827692e+000
 1.6441548737e+000	 2.2499591918e+000	-1.2535678319e+000
 1.6193611551e+000	 2.2678692689e+000	-1.2388528665e+000
 1.8765304771e+000	 2.0960769629e+000	-1.2415005367e+000
 1.8532842555e+000	 2.1166583265e+000	-1.2182435410e+000
 1.8298209341e+000	 2.1369745098e+000	-1.2075831508e+000
 1.8061450586e+000	 2.1570221182e+000	-1.2066281069e+000
 1.7822612445e+000	 2.1767978611e+000	-1.2124624746e+000
 1.7581741742e+000	 2.1962985535e+000	-1.2221642155e+000
 1.7338885937e+000	 2.2155211177e+000	-1.2328234043e+000
 1.7094093102e+000	 2.2344625849e+000	-1.2415599685e+000
 1.6847411883e+000	 2.2531200966e+000	-1.2455408369e+000
 1.6598891471e+000	 2.2714909061e+000	-1.2419963861e+000
 1.6348581571e+000	 2.2895723795e+000	-1.2282360795e+000
 1.8943183178e+000	 2.1159459091e+000	-1.2310624724e+000
 1.8708517427e+000	 2.1367223657e+000	-1.2070841395e+000
 1.8471660099e+000	 2.1572311283e+000	-1.1956699873e+000
 1.8232657081e+000	 2.1774687702e+000	-1.1939713104e+000
 1.7991554966e+000	 2.1974319696e+000	-1.1991156900e+000
 1.7748401023e+000	 2.2171175112e+000	-1.2082264068e+000
 1.7503243161e+000	 2.2365222882e+000	-1.2184414732e+000
 1.7256129908e+000	 2.2556433037e+000	-1.2269321565e+000
 1.7007110370e+000	 2.2744776721e+000	-1.2309208742e+000
 1.6756234205e+000	 2.2930226205e+000	-1.2276983410e+000
 1.6503551590e+000	 2.3112754902e+000	-1.2146398608e+000
 1.9121061584e+000	 2.1358148552e+000	-1.2130328736e+000
 1.8884192298e+000	 2.1567864049e+000	-1.1897778421e+000
 1.8645110856e+000	 2.1774877469e+000	-1.1786987728e+000
 1.8403863575e+000	 2.1979154223e+000	-1.1770318169e+000
 1.8160497488e+000	 2.2180660781e+000	-1.1819902194e+000
 1.7915060304e+000	 2.2379364689e+000	-1.1907845425e+000
 1.7667600385e+000	 2.2575234588e+000	-1.2006424830e+000
 1.7418166714e+000	 2.2768240225e+000	-1.2088281501e+000
 1.7166808857e+000	 2.2958352475e+000	-1.2126606742e+000
 1.6913576940e+000	 2.3145543349e+000	-1.2095320262e+000
 1.6658521609e+000	 2.3329786009e+000	-1.1969239280e+000
 1.5108821418e+000	 2.1159474941e+000	-1.3580154658e+000
 1.4875885829e+000	 2.1323880729e+000	-1.3258230672e+000
 1.4641389598e+000	 2.1485567020e+000	-1.2992483473e+000
 1.4405379875e+000	 2.1644512626e+000	-1.2783552771e+000
 1.4167904164e+000	 2.1800697437e+000	-1.2631869363e+000
 1.3929010296e+000	 2.1954102429e+000	-1.2537695086e+000
 1.3688746392e+000	 2.2104709669e+000	-1.2501157184e+000
 1.3447160840e+000	 2.2252502318e+000	-1.2522276856e+000
 1.3204302257e+000	 2.2397464637e+000	-1.2541379284e+000
 1.2960219464e+000	 2.2539581986e+000	-1.2225778253e+000
 1.2714961454e+000	 2.2678840830e+000	-1.1494947853e+000
 1.5263791437e+000	 2.1376506048e+000	-1.3232784518e+000
 1.5028466645e+000	 2.1542598133e+000	-1.2928968323e+000
 1.4791565204e+000	 2.1705942828e+000	-1.2665436141e+000
 1.4553134748e+000	 2.1866518727e+000	-1.2442396473e+000
 1.4313223268e+000	 2.2024305514e+000	-1.2259969943e+000
 1.4071879083e+000	 2.2179283969e+000	-1.2118231859e+000
 1.3829150811e+000	 2.2331435976e+000	-1.2017248530e+000
 1.3585087334e+000	 2.2480744523e+000	-1.1957107118e+000
 1.3339737769e+000	 2.2627193709e+000	-1.1937938824e+000
 1.3093151438e+000	 2.2770768745e+000	-1.1736006370e+000
 1.2845377836e+000	 2.2911455956e+000	-1.1079157737e+000
 1.5418761456e+000	 2.1593537155e+000	-1.2979234836e+000
 1.5181047462e+000	 2.1761315537e+000	-1.2692830475e+000
 1.4941740811e+000	 2.1926318636e+000	-1.2432678780e+000
 1.4700889621e+000	 2.2088524828e+000	-1.2198108856e+000
 1.4458542371e+000	 2.2247913591e+000	-1.1988496742e+000
 1.4214747870e+000	 2.2404465509e+000	-1.1803311478e+000
 1.3969555230e+000	 2.2558162283e+000	-1.1642154271e+000
 1.3723013828e+000	 2.2708986727e+000	-1.1504790460e+000
 1.3475173282e+000	 2.2856922780e+000	-1.1391174100e+000
 1.3226083413e+000	 2.3001955503e+000	-1.1254587405e+000
 1.2975794217e+000	 2.3144071082e+000	-1.0702845932e+000
 1.5573731475e+000	 2.1810568261e+000	-1.2797004037e+000
 1.5333628279e+000	 2.1980032942e+000	-1.2527270986e+000
 1.5091916418e+000	 2.2146694445e+000	-1.2271706528e+000
 1.4848644494e+000	 2.2310530929e+000	-1.2028324964e+000
 1.4603861474e+000	 2.2471521667e+000	-1.1795336120e+000
 1.4357616657e+000	 2.2629647049e+000	-1.1571195871e+000
 1.4109959649e+000	 2.2784888589e+000	-1.1354648996e+000
 1.3860940323e+000	 2.2937228932e+000	-1.1144764085e+000
 1.3610608794e+000	 2.3086651852e+000	-1.0940960273e+000
 1.3359015387e+000	 2.3233142262e+000	-1.0743025647e+000
 1.3106210599e+000	 2.3376686208e+000	-1.0325789315e+000
 1.5728701494e+000	 2.2027599368e+000	-1.2665240170e+000
 1.5486209095e+000	 2.2198750346e+000	-1.2411385569e+000
 1.5242092025e+000	 2.2367070253e+000	-1.2161642132e+000
 1.4996399368e+000	 2.2532537030e+000	-1.1912286103e+000
 1.4749180577e+000	 2.2695129744e+000	-1.1659951673e+000
 1.4500485444e+000	 2.2854828589e+000	-1.1401686875e+000
 1.4250364067e+000	 2.3011614896e+000	-1.1135001010e+000
 1.3998866817e+000	 2.3165471136e+000	-1.0857903296e+000
 1.3746044307e+000	 2.3316380924e+000	-1.0568932499e+000
 1.3491947361e+000	 2.3464329021e+000	-1.0267177392e+000
 1.3236626980e+000	 2.3609301334e+000	-9.9097743116e-001
 1.5883671513e+000	 2.2244630475e+000	-1.2564719683e+000
 1.5638789912e+000	 2.2417467750e+000	-1.2325892169e+000
 1.5392267632e+000	 2.2587446061e+000	-1.2083218185e+000
 1.5144154241e+000	 2.2754543131e+000	-1.1830824226e+000
 1.4894499680e+000	 2.2918737821e+000	-1.1563371034e+000
 1.4643354232e+000	 2.3080010129e+000	-1.1276115795e+000
 1.4390768486e+000	 2.3238341203e+000	-1.0964964994e+000
 1.4136793311e+000	 2.3393713341e+000	-1.0626517616e+000
 1.3881479819e+000	 2.3546109996e+000	-1.0258098418e+000
 1.3624879335e+000	 2.3695515779e+000	-9.8577811241e-001
 1.3367043362e+000	 2.3841916460e+000	-9.4244014226e-001
 1.6038641532e+000	 2.2461661582e+000	-1.2477826107e+000
 1.5791370729e+000	 2.2636185155e+000	-1.2253111217e+000
 1.5542443239e+000	 2.2807821869e+000	-1.2018759172e+000
 1.5291909114e+000	 2.2976549232e+000	-1.1766346025e+000
 1.5039818783e+000	 2.3142345897e+000	-1.1488172315e+000
 1.4786223019e+000	 2.3305191669e+000	-1.1177332490e+000
 1.4531172905e+000	 2.3465067509e+000	-1.0827774062e+000
 1.4274719806e+000	 2.3621955545e+000	-1.0434346163e+000
 1.4016915332e+000	 2.3775839068e+000	-9.9928372094e-001
 1.3757811309e+000	 2.3926702538e+000	-9.5000014929e-001
 1.3497459743e+000	 2.4074531586e+000	-8.9535746027e-001
 1.6193611551e+000	 2.2678692689e+000	-1.2388528665e+000
 1.5943951545e+000	 2.2854902559e+000	-1.2176945744e+000
 1.5692618846e+000	 2.3028197677e+000	-1.1952163336e+000
 1.5439663988e+000	 2.3198555333e+000	-1.1702816794e+000
 1.5185137887e+000	 2.3365953974e+000	-1.1418470217e+000
 1.4929091806e+000	 2.3530373208e+000	-1.1089694019e+000
 1.4671577324e+000	 2.3691793816e+000	-1.0708131251e+000
 1.4412646300e+000	 2.3850197750e+000	-1.0266552319e+000
 1.4152350845e+000	 2.4005568140e+000	-9.7588977755e-001
 1.3890743283e+000	 2.4157889297e+000	-9.1803089923e-001
 1.3627876125e+000	 2.4307146712e+000	-8.5271466078e-001
 1.6348581571e+000	 2.2895723795e+000	-1.2282360795e+000
 1.6096532362e+000	 2.3073619963e+000	-1.2082861400e+000
 1.5842794452e+000	 2.3248573486e+000	-1.1868884377e+000
 1.5587418861e+000	 2.3420561434e+000	-1.1625744044e+000
 1.5330456990e+000	 2.3589562050e+000	-1.1339901821e+000
 1.5071960593e+000	 2.3755554748e+000	-1.0999052879e+000
 1.4811981742e+000	 2.3918520123e+000	-1.0592200494e+000
 1.4550572794e+000	 2.4078439955e+000	-1.0109717733e+000
 1.4287786357e+000	 2.4235297212e+000	-9.5433961161e-001
 1.4023675257e+000	 2.4389076055e+000	-8.8864810425e-001
 1.3758292506e+000	 2.4539761837e+000	-8.1336938675e-001
 1.6503551590e+000	 2.3112754902e+000	-1.2146398608e+000
 1.6249113179e+000	 2.3292337368e+000	-1.1957866343e+000
 1.5992970059e+000	 2.3468949294e+000	-1.1755912996e+000
 1.5735173734e+000	 2.3642567535e+000	-1.1522160909e+000
 1.5475776093e+000	 2.3813170127e+000	-1.1239612092e+000
 1.5214829380e+000	 2.3980736288e+000	-1.0892744857e+000
 1.4952386161e+000	 2.4145246430e+000	-1.0467597092e+000
 1.4688499289e+000	 2.4306682159e+000	-9.9518357143e-001
 1.4423221870e+000	 2.4465026284e+000	-9.3348119412e-001
 1.4156607231e+000	 2.4620262814e+000	-8.6076021494e-001
 1.3888708888e+000	 2.4772376963e+000	-7.7630341788e-001
 1.6658521609e+000	 2.3329786009e+000	-1.1969239280e+000
 1.6401693995e+000	 2.3511054772e+000	-1.1790491048e+000
 1.6143145666e+000	 2.3689325102e+000	-1.1601758287e+000
 1.5882928607e+000	 2.3864573637e+000	-1.1380609348e+000
 1.5621095196e+000	 2.4036778204e+000	-1.1106239103e+000
 1.5357698167e+000	 2.4205917828e+000	-1.0759576524e+000
 1.5092790580e+000	 2.4371972736e+000	-1.0323377736e+000
 1.4826425783e+000	 2.4534924364e+000	-9.7823040468e-001
 1.4558657382e+000	 2.4694755356e+000	-9.1229845743e-001
 1.4289539205e+000	 2.4851449573e+000	-8.3340632019e-001
 1.4019125270e+000	 2.5004992089e+000	-7.4062297179e-001
 1.2714961454e+000	 2.2678840830e+000	-1.1494947853e+000
 1.2468614399e+000	 2.2815208497e+000	-1.0661141348e+000
 1.2221190831e+000	 2.2948694778e+000	-1.0027472557e+000
 1.1972740064e+000	 2.3079289465e+000	-9.5488795123e-001
 1.1723311464e+000	 2.3206983446e+000	-9.1828530477e-001
 1.1472954414e+000	 2.3331768706e+000	-8.8894376488e-001
 1.1221718289e+000	 2.3453638315e+000	-8.6312189537e-001
 1.0969652426e+000	 2.3572586430e+000	-8.3732997040e-001
 1.0716806093e+000	 2.3688608284e+000	-8.0832659382e-001
 1.0463228464e+000	 2.3801700182e+000	-7.7311452066e-001
 1.0208968588e+000	 2.3911859489e+000	-7.2893585508e-001
 1.2845377836e+000	 2.2911455956e+000	-1.1079157737e+000
 1.2596504017e+000	 2.3049222336e+000	-1.0292828971e+000
 1.2346542645e+000	 2.3184077775e+000	-9.6952633895e-001
 1.2095543538e+000	 2.3316011962e+000	-9.2431830536e-001
 1.1843556568e+000	 2.3445015691e+000	-8.8958577100e-001
 1.1590631625e+000	 2.3571080863e+000	-8.6150884836e-001
 1.1336818591e+000	 2.3694200479e+000	-8.3651780069e-001
 1.1082167307e+000	 2.3814368636e+000	-8.1128889492e-001
 1.0826727548e+000	 2.3931580517e+000	-7.8273929113e-001
 1.0570548993e+000	 2.4045832390e+000	-7.4802116256e-001
 1.0313681194e+000	 2.4157121593e+000	-7.0451523647e-001
 1.2975794217e+000	 2.3144071082e+000	-1.0702845932e+000
 1.2724393636e+000	 2.3283236174e+000	-9.9916839753e-001
 1.2471894459e+000	 2.3419460772e+000	-9.4531913840e-001
 1.2218347012e+000	 2.3552734458e+000	-9.0466169902e-001
 1.1963801672e+000	 2.3683047935e+000	-8.7337278774e-001
 1.1708308836e+000	 2.3810393020e+000	-8.4787736531e-001
 1.1451918892e+000	 2.3934762643e+000	-8.2484369890e-001
 1.1194682188e+000	 2.4056150842e+000	-8.0117725804e-001
 1.0936649004e+000	 2.4174552750e+000	-7.7401366689e-001
 1.0677869523e+000	 2.4289964598e+000	-7.4071092463e-001
 1.0418393799e+000	 2.4402383696e+000	-6.9884110087e-001
 1.3106210599e+000	 2.3376686208e+000	-1.0325789315e+000
 1.2852283255e+000	 2.3517250013e+000	-9.7184995504e-001
 1.2597246273e+000	 2.3654843769e+000	-9.2625316498e-001
 1.2341150486e+000	 2.3789456955e+000	-8.9204042825e-001
 1.2084046776e+000	 2.3921080179e+000	-8.6571015079e-001
 1.1825986047e+000	 2.4049705176e+000	-8.4400152692e-001
 1.1567019193e+000	 2.4175324807e+000	-8.2388740418e-001
 1.1307197069e+000	 2.4297933047e+000	-8.0256599853e-001
 1.1046570460e+000	 2.4417524983e+000	-7.7745169361e-001
 1.0785190052e+000	 2.4534096806e+000	-7.4616515430e-001
 1.0523106405e+000	 2.4647645800e+000	-7.0652297975e-001
 1.3236626980e+000	 2.3609301334e+000	-9.9097743116e-001
 1.2980172874e+000	 2.3751263852e+000	-9.4358116522e-001
 1.2722598088e+000	 2.3890226766e+000	-9.0860506731e-001
 1.2463953960e+000	 2.4026179452e+000	-8.8270247291e-001
 1.2204291880e+000	 2.4159112423e+000	-8.6276571485e-001
 1.1943663258e+000	 2.4289017333e+000	-8.4591794999e-001
 1.1682119494e+000	 2.4415886971e+000	-8.2950359543e-001
 1.1419711950e+000	 2.4539715253e+000	-8.1107763011e-001
 1.1156491916e+000	 2.4660497216e+000	-7.8839401583e-001
 1.0892510582e+000	 2.4778229014e+000	-7.5939348806e-001
 1.0627819010e+000	 2.4892907903e+000	-7.2219096043e-001
 1.3367043362e+000	 2.3841916460e+000	-9.4244014226e-001
 1.3108062492e+000	 2.3985277690e+000	-9.1081761975e-001
 1.2847949902e+000	 2.4125609764e+000	-8.8882793298e-001
 1.2586757434e+000	 2.4262901949e+000	-8.7304826301e-001
 1.2324536984e+000	 2.4397144667e+000	-8.6083750714e-001
 1.2061340469e+000	 2.4528329490e+000	-8.4977299887e-001
 1.1797219796e+000	 2.4656449135e+000	-8.3763826658e-001
 1.1532226831e+000	 2.4781497459e+000	-8.2240967899e-001
 1.1266413371e+000	 2.4903469449e+000	-8.0224225340e-001
 1.0999831111e+000	 2.5022361221e+000	-7.7545489808e-001
 1.0732531616e+000	 2.5138170006e+000	-7.4051535300e-001
 1.3497459743e+000	 2.4074531586e+000	-8.9535746027e-001
 1.3235952111e+000	 2.4219291529e+000	-8.7024446900e-001
 1.2973301716e+000	 2.4360992761e+000	-8.6357841709e-001
 1.2709560908e+000	 2.4499624445e+000	-8.5965726263e-001
 1.2444782088e+000	 2.4635176911e+000	-8.5637965497e-001
 1.2179017679e+000	 2.4767641647e+000	-8.5184794403e-001
 1.1912320097e+000	 2.4897011299e+000	-8.4435300251e-001
 1.1644741712e+000	 2.5023279664e+000	-8.3235796291e-001
 1.1376334827e+000	 2.5146441682e+000	-8.1448116843e-001
 1.1107151641e+000	 2.5266493429e+000	-7.8947863157e-001
 1.0837244221e+000	 2.5383432110e+000	-7.5622628619e-001
 1.3627876125e+000	 2.4307146712e+000	-8.5271466078e-001
 1.3363841730e+000	 2.4453305367e+000	-8.1929739834e-001
 1.3098653530e+000	 2.4596375758e+000	-8.2974370954e-001
 1.2832364381e+000	 2.4736346942e+000	-8.3931438373e-001
 1.2565027191e+000	 2.4873209155e+000	-8.4602814002e-001
 1.2296694890e+000	 2.5006953804e+000	-8.4858394977e-001
 1.2027420398e+000	 2.5137573464e+000	-8.4584909260e-001
 1.1757256594e+000	 2.5265061870e+000	-8.3683972219e-001
 1.1486256283e+000	 2.5389413915e+000	-8.2070070515e-001
 1.1214472170e+000	 2.5510625637e+000	-7.9668505023e-001
 1.0941956827e+000	 2.5628694213e+000	-7.6413323674e-001
 1.3758292506e+000	 2.4539761837e+000	-8.1336938675e-001
 1.3491731349e+000	 2.4687319206e+000	-7.6720091797e-001
 1.3224005345e+000	 2.4831758755e+000	-7.8446835183e-001
 1.2955167855e+000	 2.4973069439e+000	-8.0903624103e-001
 1.2685272295e+000	 2.5111241399e+000	-8.2662639049e-001
 1.2414372101e+000	 2.5246265961e+000	-8.3660690227e-001
 1.2142520700e+000	 2.5378135628e+000	-8.3849149248e-001
 1.1869771475e+000	 2.5506844076e+000	-8.3191661264e-001
 1.1596177739e+000	 2.5632386148e+000	-8.1661791094e-001
 1.1321792700e+000	 2.5754757845e+000	-7.9240637613e-001
 1.1046669432e+000	 2.5873956317e+000	-7.5914449688e-001
 1.3888708888e+000	 2.4772376963e+000	-7.7630341788e-001
 1.3619620967e+000	 2.4921333044e+000	-7.1772062750e-001
 1.3349357159e+000	 2.5067141752e+000	-7.2532967227e-001
 1.3077971329e+000	 2.5209791935e+000	-7.6609725853e-001
 1.2805517399e+000	 2.5349273643e+000	-7.9525072210e-001
 1.2532049312e+000	 2.5485578118e+000	-8.1275208849e-001
 1.2257621001e+000	 2.5618697792e+000	-8.1883264405e-001
 1.1982286356e+000	 2.5748626282e+000	-8.1381756936e-001
 1.1706099194e+000	 2.5875358381e+000	-7.9809874647e-001
 1.1429113229e+000	 2.5998890053e+000	-7.7210735049e-001
 1.1151382038e+000	 2.6119218420e+000	-7.3628658380e-001
 1.4019125270e+000	 2.5004992089e+000	-7.4062297179e-001
 1.3747510586e+000	 2.5155346883e+000	-6.7001434480e-001
 1.3474708973e+000	 2.5302524749e+000	-6.6105803561e-001
 1.3200774803e+000	 2.5446514432e+000	-7.0805563725e-001
 1.2925762503e+000	 2.5587305887e+000	-7.4923563746e-001
 1.2649726523e+000	 2.5724890275e+000	-7.7408873565e-001
 1.2372721302e+000	 2.5859259956e+000	-7.8363616293e-001
 1.2094801237e+000	 2.5990408487e+000	-7.7896154992e-001
 1.1816020650e+000	 2.6118330614e+000	-7.6117979211e-001
 1.1536433759e+000	 2.6243022261e+000	-7.3140581078e-001
 1.1256094643e+000	 2.6364480523e+000	-6.9072359497e-001
 1.0208968588e+000	 2.3911859489e+000	-7.2893585508e-001
 9.9540370841e-001	 2.4019100494e+000	-6.7992520827e-001
 9.6985207964e-001	 2.4123405929e+000	-6.3131872053e-001
 9.4424682737e-001	 2.4224776311e+000	-5.8241496174e-001
 9.1859278331e-001	 2.4323213176e+000	-5.3265035842e-001
 8.9289475342e-001	 2.4418719075e+000	-4.8161244652e-001
 8.6715751542e-001	 2.4511297553e+000	-4.2903363910e-001
 8.4138581636e-001	 2.4600953141e+000	-3.7478549182e-001
 8.1558437022e-001	 2.4687691339e+000	-3.1887356543e-001
 7.8975785560e-001	 2.4771518603e+000	-2.6143297077e-001
 7.6391091347e-001	 2.4852442329e+000	-2.0272466808e-001
 1.0313681194e+000	 2.4157121593e+000	-7.0451523647e-001
 1.0056134877e+000	 2.4265462560e+000	-6.5601214279e-001
 9.7979977781e-001	 2.4370837848e+000	-6.0740779873e-001
 9.5393189444e-001	 2.4473247978e+000	-5.5810932097e-001
 9.2801471883e-001	 2.4572694503e+000	-5.0764446019e-001
 9.0205310622e-001	 2.4669179998e+000	-4.5567145064e-001
 8.7605188335e-001	 2.4762708047e+000	-4.0197167750e-001
 8.5001584595e-001	 2.4853283225e+000	-3.4644297727e-001
 8.2394975636e-001	 2.4940911090e+000	-2.8909367789e-001
 7.9785834117e-001	 2.5025598164e+000	-2.3003747053e-001
 7.7174628894e-001	 2.5107351918e+000	-1.6948918990e-001
 1.0418393799e+000	 2.4402383696e+000	-6.9884110087e-001
 1.0158232669e+000	 2.4511824626e+000	-6.5186340094e-001
 9.8974747599e-001	 2.4618269767e+000	-6.0438186100e-001
 9.6361696152e-001	 2.4721719645e+000	-5.5582280774e-001
 9.3743665434e-001	 2.4822175829e+000	-5.0580320374e-001
 9.1121145902e-001	 2.4919640921e+000	-4.5402894200e-001
 8.8494625128e-001	 2.5014118540e+000	-4.0030795703e-001
 8.5864587555e-001	 2.5105613309e+000	-3.4454247198e-001
 8.3231514251e-001	 2.5194130841e+000	-2.8672213476e-001
 8.0595882675e-001	 2.5279677725e+000	-2.2691814185e-001
 7.7958166442e-001	 2.5362261507e+000	-1.6527843222e-001
 1.0523106405e+000	 2.4647645800e+000	-7.0652297975e-001
 1.0260330462e+000	 2.4758186692e+000	-6.6176080461e-001
 9.9969517417e-001	 2.4865701686e+000	-6.1615332224e-001
 9.7330202859e-001	 2.4970191312e+000	-5.6919594569e-001
 9.4685858986e-001	 2.5071657156e+000	-5.2054936037e-001
 9.2036981182e-001	 2.5170101845e+000	-4.6994621484e-001
 8.9384061921e-001	 2.5265529034e+000	-4.1720059103e-001
 8.6727590514e-001	 2.5357943393e+000	-3.6219910336e-001
 8.4068052866e-001	 2.5447350592e+000	-3.0489304293e-001
 8.1405931232e-001	 2.5533757285e+000	-2.4529167302e-001
 7.8741703990e-001	 2.5617171096e+000	-1.8345676436e-001
 1.0627819010e+000	 2.4892907903e+000	-7.2219096043e-001
 1.0362428255e+000	 2.5004548758e+000	-6.7993007640e-001
 1.0096428723e+000	 2.5113133605e+000	-6.3664032181e-001
 9.8298709567e-001	 2.5218662979e+000	-5.9186606630e-001
 9.5628052538e-001	 2.5321138482e+000	-5.4529265275e-001
 9.2952816462e-001	 2.5420562768e+000	-4.9666076355e-001
 9.0273498714e-001	 2.5516939527e+000	-4.4577229137e-001
 8.7590593474e-001	 2.5610273477e+000	-3.9248018832e-001
 8.4904591481e-001	 2.5700570343e+000	-3.3667952403e-001
 8.2215979789e-001	 2.5787836846e+000	-2.7829986672e-001
 7.9525241537e-001	 2.5872080686e+000	-2.1729908219e-001
 1.0732531616e+000	 2.5138170006e+000	-7.4051535300e-001
 1.0464526048e+000	 2.5250910825e+000	-7.0065298248e-001
 1.0195905705e+000	 2.5360565524e+000	-6.5976248551e-001
 9.9267216274e-001	 2.5467134646e+000	-6.1748295742e-001
 9.6570246090e-001	 2.5570619809e+000	-5.7344420836e-001
 9.3868651742e-001	 2.5671023691e+000	-5.2739961855e-001
 9.1162935507e-001	 2.5768350021e+000	-4.7912266701e-001
 8.8453596434e-001	 2.5862603561e+000	-4.2841657771e-001
 8.5741130095e-001	 2.5953790094e+000	-3.7510419061e-001
 8.3026028347e-001	 2.6041916407e+000	-3.1901933625e-001
 8.0308779085e-001	 2.6126990275e+000	-2.5999981545e-001
 1.0837244221e+000	 2.5383432110e+000	-7.5622628619e-001
 1.0566623840e+000	 2.5497272891e+000	-7.1826142952e-001
 1.0295382687e+000	 2.5607997443e+000	-6.7954483846e-001
 1.0023572298e+000	 2.5715606314e+000	-6.3972454150e-001
 9.7512439641e-001	 2.5820101135e+000	-5.9843106841e-001
 9.4784487023e-001	 2.5921484614e+000	-5.5539275899e-001
 9.2052372300e-001	 2.6019760514e+000	-5.1034061662e-001
 8.9316599393e-001	 2.6114933645e+000	-4.6301410759e-001
 8.6577668710e-001	 2.6207009845e+000	-4.1314973751e-001
 8.3836076904e-001	 2.6295995968e+000	-3.6047132096e-001
 8.1092316632e-001	 2.6381899864e+000	-3.0468205340e-001
 1.0941956827e+000	 2.5628694213e+000	-7.6413323674e-001
 1.0668721633e+000	 2.5743634957e+000	-7.2715565831e-001
 1.0394859669e+000	 2.5855429362e+000	-6.9000050873e-001
 1.0120422969e+000	 2.5964077981e+000	-6.5228926793e-001
 9.8454633193e-001	 2.6069582462e+000	-6.1371074856e-001
 9.5700322303e-001	 2.6171945537e+000	-5.7388659724e-001
 9.2941809093e-001	 2.6271171008e+000	-5.3251680888e-001
 9.0179602353e-001	 2.6367263729e+000	-4.8926515020e-001
 8.7414207325e-001	 2.6460229596e+000	-4.4376964075e-001
 8.4646125462e-001	 2.6550075528e+000	-3.9563161277e-001
 8.1875854180e-001	 2.6636809453e+000	-3.4440678110e-001
 1.1046669432e+000	 2.5873956317e+000	-7.5914449688e-001
 1.0770819426e+000	 2.5989997023e+000	-7.2182240810e-001
 1.0494336651e+000	 2.6102861281e+000	-6.8523971298e-001
 1.0217273640e+000	 2.6212549648e+000	-6.4900767232e-001
 9.9396826745e-001	 2.6319063788e+000	-6.1278584796e-001
 9.6616157583e-001	 2.6422406460e+000	-5.7615753036e-001
 9.3831245886e-001	 2.6522581501e+000	-5.3875624476e-001
 9.1042605312e-001	 2.6619593813e+000	-5.0016025795e-001
 8.8250745940e-001	 2.6713449347e+000	-4.5956547251e-001
 8.5456174019e-001	 2.6804155089e+000	-4.1456192175e-001
 8.2659391728e-001	 2.6891719043e+000	-3.6457478180e-001
 1.1151382038e+000	 2.6119218420e+000	-7.3628658380e-001
 1.0872917218e+000	 2.6236359089e+000	-6.9685305373e-001
 1.0593813632e+000	 2.6350293200e+000	-6.5946298511e-001
 1.0314124310e+000	 2.6461021315e+000	-6.2371035839e-001
 1.0033902030e+000	 2.6568545115e+000	-5.8921870348e-001
 9.7531992863e-001	 2.6672867384e+000	-5.5552053430e-001
 9.4720682680e-001	 2.6773991995e+000	-5.2050749169e-001
 9.1905608272e-001	 2.6871923897e+000	-4.8249281076e-001
 8.9087284554e-001	 2.6966669098e+000	-4.4117622068e-001
 8.6266222576e-001	 2.7058234650e+000	-3.9623931781e-001
 8.3442929275e-001	 2.7146628632e+000	-3.4733912096e-001
 1.1256094643e+000	 2.6364480523e+000	-6.9072359497e-001
 1.0975015011e+000	 2.6482721155e+000	-6.4696171720e-001
 1.0693290614e+000	 2.6597725119e+000	-6.0697809491e-001
 1.0410974981e+000	 2.6709492982e+000	-5.7010830703e-001
 1.0128121385e+000	 2.6818026442e+000	-5.3357244600e-001
 9.8447828143e-001	 2.6923328307e+000	-4.9642506622e-001
 9.5610119473e-001	 2.7025402488e+000	-4.5824789291e-001
 9.2768611232e-001	 2.7124253981e+000	-4.1868509421e-001
 8.9923823169e-001	 2.7219888849e+000	-3.7733617789e-001
 8.7076271134e-001	 2.7312314211e+000	-3.3377145209e-001
 8.4226466823e-001	 2.7401538221e+000	-2.8752520507e-001
 7.6391091347e-001	 2.4852442329e+000	-2.0272466808e-001
 7.3804814458e-001	 2.4930470830e+000	-1.5101246691e-001
 7.1217410630e-001	 2.5005613302e+000	-1.1460457476e-001
 6.8629331174e-001	 2.5077879826e+000	-9.4005621439e-002
 6.6041022809e-001	 2.5147281355e+000	-8.9040999111e-002
 6.3452927478e-001	 2.5213829698e+000	-8.2460686473e-002
 6.0865482159e-001	 2.5277537500e+000	-6.8702499575e-002
 5.8279118688e-001	 2.5338418223e+000	-4.9994873837e-002
 5.5694263593e-001	 2.5396486130e+000	-2.8522078443e-002
 5.3111337925e-001	 2.5451756263e+000	-6.4471087430e-003
 5.0530757112e-001	 2.5504244421e+000	 1.4060485042e-002
 7.7174628894e-001	 2.5107351918e+000	-1.6948918990e-001
 7.4561824762e-001	 2.5186180751e+000	-1.1567878062e-001
 7.1947882133e-001	 2.5262093954e+000	-7.7206699583e-002
 6.9333256944e-001	 2.5335101711e+000	-5.4976209882e-002
 6.6718400500e-001	 2.5405215086e+000	-4.9969141786e-002
 6.4103759274e-001	 2.5472446010e+000	-4.9537770351e-002
 6.1489774727e-001	 2.5536807257e+000	-4.0815153201e-002
 5.8876883126e-001	 2.5598312430e+000	-2.5999896546e-002
 5.6265515370e-001	 2.5656975935e+000	-7.1808342911e-003
 5.3656096833e-001	 2.5712812969e+000	 1.3640217429e-002
 5.1049047200e-001	 2.5765839494e+000	 3.4515317711e-002
 7.7958166442e-001	 2.5362261507e+000	-1.6527843222e-001
 7.5318835067e-001	 2.5441890673e+000	-1.0993645731e-001
 7.2678353635e-001	 2.5518574606e+000	-6.9696494321e-002
 7.0037182715e-001	 2.5592323595e+000	-4.5800805342e-002
 6.7395778190e-001	 2.5663148816e+000	-3.9535127182e-002
 6.4754591070e-001	 2.5731062321e+000	-4.4171430040e-002
 6.2114067296e-001	 2.5796077015e+000	-4.0051791179e-002
 5.9474647563e-001	 2.5858206636e+000	-2.8080418130e-002
 5.6836767148e-001	 2.5917465740e+000	-1.0142042181e-002
 5.4200855740e-001	 2.5973869675e+000	 1.2034852257e-002
 5.1567337289e-001	 2.6027434567e+000	 3.6839096863e-002
 7.8741703990e-001	 2.5617171096e+000	-1.8345676436e-001
 7.6075845371e-001	 2.5697600595e+000	-1.2735226007e-001
 7.3408825138e-001	 2.5775055259e+000	-8.5888110626e-002
 7.0741108485e-001	 2.5849545479e+000	-6.0588230271e-002
 6.8073155881e-001	 2.5921082547e+000	-5.2984325069e-002
 6.5405422866e-001	 2.5989678633e+000	-6.0921538198e-002
 6.2738359864e-001	 2.6055346773e+000	-6.1452522922e-002
 6.0072412000e-001	 2.6118100843e+000	-5.1837389739e-002
 5.7408018925e-001	 2.6177955544e+000	-3.3646783832e-002
 5.4745614648e-001	 2.6234926381e+000	-8.2220211380e-003
 5.2085627378e-001	 2.6289029640e+000	 2.3279698706e-002
 7.9525241537e-001	 2.5872080686e+000	-2.1729908219e-001
 7.6832855676e-001	 2.5953310516e+000	-1.6138870243e-001
 7.4139296640e-001	 2.6031535911e+000	-1.1947695083e-001
 7.1445034256e-001	 2.6106767363e+000	-9.3314317779e-002
 6.8750533572e-001	 2.6179016277e+000	-8.4622664463e-002
 6.6056254662e-001	 2.6248294945e+000	-9.4182717938e-002
 6.3362652433e-001	 2.6314616530e+000	-9.9866259265e-002
 6.0670176438e-001	 2.6377995049e+000	-9.2656718807e-002
 5.7979270703e-001	 2.6438445349e+000	-7.3699238181e-002
 5.5290373556e-001	 2.6495983087e+000	-4.3832315229e-002
 5.2603917466e-001	 2.6550624713e+000	-3.6398131739e-003
 8.0308779085e-001	 2.6126990275e+000	-2.5999981545e-001
 7.7589865980e-001	 2.6209020438e+000	-2.0541243717e-001
 7.4869768143e-001	 2.6288016563e+000	-1.6404749002e-001
 7.2148960026e-001	 2.6363989248e+000	-1.3782922306e-001
 6.9427911263e-001	 2.6436950007e+000	-1.2861594662e-001
 6.6707086458e-001	 2.6506911256e+000	-1.3819984452e-001
 6.3986945001e-001	 2.6573886288e+000	-1.4996173707e-001
 6.1267940875e-001	 2.6637889256e+000	-1.4571947604e-001
 5.8550522480e-001	 2.6698935154e+000	-1.2601245299e-001
 5.5835132463e-001	 2.6757039793e+000	-9.0930730428e-002
 5.3122207555e-001	 2.6812219787e+000	-4.0878912335e-002
 8.1092316632e-001	 2.6381899864e+000	-3.0468205340e-001
 7.8346876285e-001	 2.6464730359e+000	-2.5270275959e-001
 7.5600239645e-001	 2.6544497215e+000	-2.1308120645e-001
 7.2852885797e-001	 2.6621211132e+000	-1.8786483489e-001
 7.0105288954e-001	 2.6694883738e+000	-1.7889765975e-001
 6.7357918254e-001	 2.6765527568e+000	-1.8718447121e-001
 6.4611237570e-001	 2.6833156046e+000	-2.0337048384e-001
 6.1865705312e-001	 2.6897783462e+000	-2.0126654905e-001
 5.9121774258e-001	 2.6959424958e+000	-1.8022758913e-001
 5.6379891371e-001	 2.7018096500e+000	-1.4050240063e-001
 5.3640497644e-001	 2.7073814860e+000	-8.2060399384e-002
 8.1875854180e-001	 2.6636809453e+000	-3.4440678110e-001
 7.9103886589e-001	 2.6720440281e+000	-2.9603185866e-001
 7.6330711148e-001	 2.6800977867e+000	-2.5737303023e-001
 7.3556811568e-001	 2.6878433016e+000	-2.3089310833e-001
 7.0782666644e-001	 2.6952817468e+000	-2.1909965511e-001
 6.8008750051e-001	 2.7024143880e+000	-2.2439982470e-001
 6.5235530138e-001	 2.7092425803e+000	-2.4336008022e-001
 6.2463469750e-001	 2.7157677669e+000	-2.4532308781e-001
 5.9693026035e-001	 2.7219914763e+000	-2.2546664562e-001
 5.6924650279e-001	 2.7279153206e+000	-1.8353020593e-001
 5.4158787733e-001	 2.7335409933e+000	-1.1895789013e-001
 8.2659391728e-001	 2.6891719043e+000	-3.6457478180e-001
 7.9860896894e-001	 2.6976150202e+000	-3.1573478274e-001
 7.7061182650e-001	 2.7057458519e+000	-2.7620145758e-001
 7.4260737338e-001	 2.7135654900e+000	-2.4868986574e-001
 7.1460044335e-001	 2.7210751199e+000	-2.3578968994e-001
 6.8659581847e-001	 2.7282760191e+000	-2.3996029305e-001
 6.5859822707e-001	 2.7351695561e+000	-2.6162188802e-001
 6.3061234187e-001	 2.7417571876e+000	-2.7019572898e-001
 6.0264277813e-001	 2.7480404567e+000	-2.5396624469e-001
 5.7469409187e-001	 2.7540209912e+000	-2.1214448674e-001
 5.4677077822e-001	 2.7597005006e+000	-1.4363309274e-001
 8.3442929275e-001	 2.7146628632e+000	-3.4733912096e-001
 8.0617907199e-001	 2.7231860124e+000	-2.9987180697e-001
 7.7791654153e-001	 2.7313939171e+000	-2.6141313643e-001
 7.4964663109e-001	 2.7392876785e+000	-2.3475612904e-001
 7.2137422026e-001	 2.7468684929e+000	-2.2254005161e-001
 6.9310413643e-001	 2.7541376503e+000	-2.2724487779e-001
 6.6484115276e-001	 2.7610965319e+000	-2.5108296388e-001
 6.3658998625e-001	 2.7677466082e+000	-2.6862789205e-001
 6.0835529590e-001	 2.7740894372e+000	-2.5831259476e-001
 5.8014168094e-001	 2.7801266618e+000	-2.1880510662e-001
 5.5195367911e-001	 2.7858600079e+000	-1.4845495656e-001
 8.4226466823e-001	 2.7401538221e+000	-2.8752520507e-001
 8.1374917503e-001	 2.7487570045e+000	-2.4313094089e-001
 7.8522125655e-001	 2.7570419823e+000	-2.0743377295e-001
 7.5668588880e-001	 2.7650098669e+000	-1.8327300078e-001
 7.2814799717e-001	 2.7726618660e+000	-1.7330674839e-001
 6.9961245439e-001	 2.7799992815e+000	-1.8000583886e-001
 6.7108407844e-001	 2.7870235076e+000	-2.0564879186e-001
 6.4256763062e-001	 2.7937360289e+000	-2.3372579385e-001
 6.1406781368e-001	 2.8001384177e+000	-2.3143776180e-001
 5.8558927002e-001	 2.8062323324e+000	-1.9629854204e-001
 5.5713657999e-001	 2.8120195152e+000	-1.2609758039e-001
 5.0530757112e-001	 2.5504244421e+000	 1.4060485042e-002
 4.7953317130e-001	 2.5553959897e+000	 3.3188499290e-002
 4.5379033791e-001	 2.5600928041e+000	 5.2352949423e-002
 4.2808304028e-001	 2.5645166823e+000	 7.0965696228e-002
 4.0241518616e-001	 2.5686694892e+000	 8.8101676953e-002
 3.7679062058e-001	 2.5725531550e+000	 1.0245772831e-001
 3.5121312474e-001	 2.5761696735e+000	 1.1231078347e-001
 3.2568641496e-001	 2.5795211000e+000	 1.1547607170e-001
 3.0021414174e-001	 2.5826095490e+000	 1.0926592645e-001
 2.7479988887e-001	 2.5854371919e+000	 9.0449781106e-002
 2.4944717263e-001	 2.5880062554e+000	 5.5215901211e-002
 5.1049047200e-001	 2.5765839494e+000	 3.4515317711e-002
 4.8445170615e-001	 2.5816064898e+000	 5.3812278669e-002
 4.5844483050e-001	 2.5863514790e+000	 7.1166126929e-002
 4.3247385509e-001	 2.5908207327e+000	 8.6326365776e-002
 4.0654272777e-001	 2.5950161345e+000	 9.8722272949e-002
 3.8065533300e-001	 2.5989396348e+000	 1.0741552705e-001
 3.5481549075e-001	 2.6025932477e+000	 1.1105211986e-001
 3.2902695547e-001	 2.6059790495e+000	 1.0781423525e-001
 3.0329341510e-001	 2.6090991765e+000	 9.5372751321e-002
 2.7761849019e-001	 2.6119558223e+000	 7.0840993349e-002
 2.5200573309e-001	 2.6145512364e+000	 3.0730332947e-002
 5.1567337289e-001	 2.6027434567e+000	 3.6839096863e-002
 4.8937024100e-001	 2.6078169899e+000	 6.0689203198e-002
 4.6309932309e-001	 2.6126101540e+000	 8.1276442341e-002
 4.3686466991e-001	 2.6171247830e+000	 9.8756045161e-002
 4.1067026938e-001	 2.6213627799e+000	 1.1298327257e-001
 3.8452004541e-001	 2.6253261146e+000	 1.2345933650e-001
 3.5841785675e-001	 2.6290168219e+000	 1.2927651085e-001
 3.3236749597e-001	 2.6324369990e+000	 1.2906316883e-001
 3.0637268845e-001	 2.6355888040e+000	 1.2092945656e-001
 2.8043709151e-001	 2.6384744527e+000	 1.0241428247e-001
 2.5456429355e-001	 2.6410962175e+000	 7.0434267165e-002
 5.2085627378e-001	 2.6289029640e+000	 2.3279698706e-002
 4.9428877585e-001	 2.6340274900e+000	 5.5225581962e-002
 4.6775381568e-001	 2.6388688289e+000	 8.3228776894e-002
 4.4125548472e-001	 2.6434288333e+000	 1.0792278051e-001
 4.1479781099e-001	 2.6477094252e+000	 1.2966513543e-001
 3.8838475782e-001	 2.6517125944e+000	 1.4847611235e-001
 3.6202022276e-001	 2.6554403960e+000	 1.6397647872e-001
 3.3570803648e-001	 2.6588949485e+000	 1.7532514853e-001
 3.0945196181e-001	 2.6620784314e+000	 1.8115748026e-001
 2.8325569283e-001	 2.6649930831e+000	 1.7952495702e-001
 2.5712285401e-001	 2.6676411986e+000	 1.6777367280e-001
 5.2603917466e-001	 2.6550624713e+000	-3.6398131739e-003
 4.9920731071e-001	 2.6602379901e+000	 3.9118643725e-002
 4.7240830827e-001	 2.6651275039e+000	 7.7871254548e-002
 4.4564629954e-001	 2.6697328837e+000	 1.1369369218e-001
 4.1892535260e-001	 2.6740560706e+000	 1.4690989930e-001
 3.9224947023e-001	 2.6780990742e+000	 1.7757922261e-001
 3.6562258876e-001	 2.6818639702e+000	 2.0538724609e-001
 3.3904857699e-001	 2.6853528980e+000	 2.2957720351e-001
 3.1253123517e-001	 2.6885680589e+000	 2.4890309423e-001
 2.8607429415e-001	 2.6915117135e+000	 2.6158527908e-001
 2.5968141448e-001	 2.6941861797e+000	 2.6526823581e-001
 5.3122207555e-001	 2.6812219787e+000	-4.0878912335e-002
 5.0412584556e-001	 2.6864484902e+000	 1.3543515614e-002
 4.7706280086e-001	 2.6913861789e+000	 6.2758854792e-002
 4.5003711435e-001	 2.6960369340e+000	 1.0778387225e-001
 4.2305289421e-001	 2.7004027160e+000	 1.4936801695e-001
 3.9611418264e-001	 2.7044855541e+000	 1.8793879531e-001
 3.6922495477e-001	 2.7082875444e+000	 2.2355070120e-001
 3.4238911749e-001	 2.7118108475e+000	 2.5583730020e-001
 3.1561050853e-001	 2.7150576864e+000	 2.8396608100e-001
 2.8889289548e-001	 2.7180303439e+000	 3.0659570385e-001
 2.6223997494e-001	 2.7207311608e+000	 3.2183529509e-001
 5.3640497644e-001	 2.7073814860e+000	-8.2060399384e-002
 5.0904438041e-001	 2.7126589902e+000	-1.8067285188e-002
 4.8171729345e-001	 2.7176448538e+000	 3.9173601774e-002
 4.5442792917e-001	 2.7223409843e+000	 9.0965890680e-002
 4.2718043582e-001	 2.7267493613e+000	 1.3836284456e-001
 3.9997889506e-001	 2.7308720339e+000	 1.8211484960e-001
 3.7282732077e-001	 2.7347111186e+000	 2.2262047516e-001
 3.4572965800e-001	 2.7382687970e+000	 2.5988066540e-001
 3.1868978189e-001	 2.7415473139e+000	 2.9345563899e-001
 2.9171149680e-001	 2.7445489743e+000	 3.2242409187e-001
 2.6479853540e-001	 2.7472761419e+000	 3.4534432040e-001
 5.4158787733e-001	 2.7335409933e+000	-1.1895789013e-001
 5.1396291526e-001	 2.7388694903e+000	-4.7594555011e-002
 4.8637178604e-001	 2.7439035288e+000	 1.5383198773e-002
 4.5881874398e-001	 2.7486450347e+000	 7.1534018036e-002
 4.3130797743e-001	 2.7530960067e+000	 1.2218396416e-001
 4.0384360747e-001	 2.7572585137e+000	 1.6837646869e-001
 3.7642968678e-001	 2.7611346927e+000	 2.1082587166e-001
 3.4907019851e-001	 2.7647267465e+000	 2.4987406272e-001
 3.2176905525e-001	 2.7680369414e+000	 2.8544976205e-001
 2.9453009812e-001	 2.7710676047e+000	 3.1702999969e-001
 2.6735709587e-001	 2.7738211230e+000	 3.4360337586e-001
 5.4677077822e-001	 2.7597005006e+000	-1.4363309274e-001
 5.1888145011e-001	 2.7650799904e+000	-6.7053221026e-002
 4.9102627863e-001	 2.7701622037e+000	-5.8576308008e-004
 4.6320955880e-001	 2.7749490850e+000	 5.7547637891e-002
 4.3543551904e-001	 2.7794426520e+000	 1.0891128668e-001
 4.0770831988e-001	 2.7836449935e+000	 1.5480823218e-001
 3.8003205278e-001	 2.7875582669e+000	 1.9623665429e-001
 3.5241073901e-001	 2.7911846960e+000	 2.3384931789e-001
 3.2484832861e-001	 2.7945265689e+000	 2.6791558933e-001
 2.9734869945e-001	 2.7975862351e+000	 2.9828553491e-001
 2.6991565633e-001	 2.8003661041e+000	 3.2435564745e-001
 5.5195367911e-001	 2.7858600079e+000	-1.4845495656e-001
 5.2379998497e-001	 2.7912904905e+000	-6.8741809580e-002
 4.9568077122e-001	 2.7964208787e+000	-9.6618014252e-004
 4.6760037362e-001	 2.8012531354e+000	 5.6831078826e-002
 4.3956306065e-001	 2.8057892974e+000	 1.0641426879e-001
 4.1157303229e-001	 2.8100314733e+000	 1.4930887901e-001
 3.8363441879e-001	 2.8139818411e+000	 1.8676121464e-001
 3.5575127952e-001	 2.8176426455e+000	 2.1970104918e-001
 3.2792760197e-001	 2.8210161963e+000	 2.4870675261e-001
 3.0016730077e-001	 2.8241048655e+000	 2.7397237312e-001
 2.7247421679e-001	 2.8269110851e+000	 2.9527617976e-001
 5.5713657999e-001	 2.8120195152e+000	-1.2609758039e-001
 5.2871851982e-001	 2.8175009906e+000	-4.5241140905e-002
 5.0033526381e-001	 2.8226795537e+000	 2.1750147746e-002
 4.7199118843e-001	 2.8275571857e+000	 7.6973540592e-002
 4.4369060226e-001	 2.8321359428e+000	 1.2235124290e-001
 4.1543774471e-001	 2.8364179532e+000	 1.5959010093e-001
 3.8723678479e-001	 2.8404054153e+000	 1.9014488697e-001
 3.5909182003e-001	 2.8441005950e+000	 2.1518455870e-001
 3.3100687533e-001	 2.8475058238e+000	 2.3556089770e-001
 3.0298590209e-001	 2.8506234959e+000	 2.5177896045e-001
 2.7503277725e-001	 2.8534560662e+000	 2.6396880843e-001
 2.4944717263e-001	 2.5880062554e+000	 5.5215901211e-002
 2.2415566136e-001	 2.5903193466e+000	 1.6685514883e-002
 1.9893258713e-001	 2.5923783926e+000	-1.0441149865e-002
 1.7378131182e-001	 2.5941857736e+000	-2.8722321298e-002
 1.4870512563e-001	 2.5957439165e+000	-4.1587081921e-002
 1.2370724665e-001	 2.5970552924e+000	-5.3358626000e-002
 9.8790820418e-002	 2.5981224149e+000	-6.9272998119e-002
 7.3958919674e-002	 2.5989478376e+000	-9.5493049017e-002
 4.9214544039e-002	 2.5995341519e+000	-1.3911738999e-001
 2.4560619845e-002	 2.5998839856e+000	-2.0818417206e-001
 0.0000000000e+000	 2.6000000000e+000	-3.1166958027e-001
 2.5200573309e-001	 2.6145512364e+000	 3.0730332947e-002
 2.2645480873e-001	 2.6168880529e+000	-1.2847340640e-002
 2.0097302338e-001	 2.6189682184e+000	-4.6043160570e-002
 1.7556377337e-001	 2.6207941375e+000	-7.0915341675e-002
 1.5023038267e-001	 2.6223682622e+000	-9.0449144403e-002
 1.2497610236e-001	 2.6236930888e+000	-1.0858525387e-001
 9.9804110264e-002	 2.6247711567e+000	-1.3024328091e-001
 7.4717510624e-002	 2.6256050456e+000	-1.6134009551e-001
 4.9719333832e-002	 2.6261973738e+000	-2.0880275151e-001
 2.4812536234e-002	 2.6265507956e+000	-2.8057580943e-001
 0.0000000000e+000	 2.6266680000e+000	-3.8562293155e-001
 2.5456429355e-001	 2.6410962175e+000	 7.0434267165e-002
 2.2875395611e-001	 2.6434567592e+000	 3.6067971117e-002
 2.0301345962e-001	 2.6455580441e+000	 1.2230251606e-002
 1.7734623492e-001	 2.6474025015e+000	-2.6355488922e-003
 1.5175563971e-001	 2.6489926079e+000	-1.1068057640e-002
 1.2624495807e-001	 2.6503308852e+000	-1.6621783645e-002
 1.0081740011e-001	 2.6514198985e+000	-2.3895779318e-002
 7.5476101575e-002	 2.6522622537e+000	-3.8556734522e-002
 5.0224123625e-002	 2.6528605956e+000	-6.7356237503e-002
 2.5064452623e-002	 2.6532176057e+000	-1.1814198903e-001
 0.0000000000e+000	 2.6533360000e+000	-1.9986282582e-001
 2.5712285401e-001	 2.6676411986e+000	 1.6777367280e-001
 2.3105310349e-001	 2.6700254655e+000	 1.5521709412e-001
 2.0505389587e-001	 2.6721478699e+000	 1.5348944201e-001
 1.7912869647e-001	 2.6740108654e+000	 1.6150748664e-001
 1.5328089674e-001	 2.6756169535e+000	 1.7723804823e-001
 1.2751381379e-001	 2.6769686815e+000	 1.9766114348e-001
 1.0183068996e-001	 2.6780686402e+000	 2.1873440293e-001
 7.6234692526e-002	 2.6789194617e+000	 2.3535861221e-001
 5.0728913418e-002	 2.6795238174e+000	 2.4134425356e-001
 2.5316369012e-002	 2.6798844157e+000	 2.2937894848e-001
 0.0000000000e+000	 2.6800040000e+000	 1.9099570862e-001
 2.5968141448e-001	 2.6941861797e+000	 2.6526823581e-001
 2.3335225087e-001	 2.6965941718e+000	 2.6875162103e-001
 2.0709433211e-001	 2.6987376957e+000	 2.8283554641e-001
 1.8091115802e-001	 2.7006192293e+000	 3.0703504538e-001
 1.5480615378e-001	 2.7022412992e+000	 3.3993781552e-001
 1.2878266950e-001	 2.7036064779e+000	 3.7916777439e-001
 1.0284397981e-001	 2.7047173820e+000	 4.2134967384e-001
 7.6993283478e-002	 2.7055766698e+000	 4.6207461370e-001
 5.1233703212e-002	 2.7061870393e+000	 4.9586632259e-001
 2.5568285401e-002	 2.7065512258e+000	 5.1614809994e-001
 0.0000000000e+000	 2.7066720000e+000	 5.1521032461e-001
 2.6223997494e-001	 2.7207311608e+000	 3.2183529509e-001
 2.3565139824e-001	 2.7231628781e+000	 3.3736494600e-001
 2.0913476836e-001	 2.7253275214e+000	 3.6287268576e-001
 1.8269361957e-001	 2.7272275933e+000	 3.9839685254e-001
 1.5633141081e-001	 2.7288656449e+000	 4.4307734960e-001
 1.3005152522e-001	 2.7302442743e+000	 4.9511984050e-001
 1.0385726965e-001	 2.7313661237e+000	 5.5176076419e-001
 7.7751874430e-002	 2.7322338778e+000	 6.0923299883e-001
 5.1738493006e-002	 2.7328502611e+000	 6.6273203224e-001
 2.5820201790e-002	 2.7332180358e+000	 7.0638252633e-001
 0.0000000000e+000	 2.7333400000e+000	 7.3320517875e-001
 2.6479853540e-001	 2.7472761419e+000	 3.4534432040e-001
 2.3795054562e-001	 2.7497315844e+000	 3.6873570128e-001
 2.1117520460e-001	 2.7519173472e+000	 4.0108936527e-001
 1.8447608112e-001	 2.7538359572e+000	 4.4289102966e-001
 1.5785666785e-001	 2.7554899906e+000	 4.9376322992e-001
 1.3132038093e-001	 2.7568820706e+000	 5.5243039876e-001
 1.0487055950e-001	 2.7580148655e+000	 6.1668449988e-001
 7.8510465381e-002	 2.7588910859e+000	 6.8335103218e-001
 5.2243282800e-002	 2.7595134829e+000	 7.4825525241e-001
 2.6072118180e-002	 2.7598848459e+000	 8.0618849593e-001
 0.0000000000e+000	 2.7600080000e+000	 8.5087449676e-001
 2.6735709587e-001	 2.7738211230e+000	 3.4360337586e-001
 2.4024969300e-001	 2.7763002906e+000	 3.7050221467e-001
 2.1321564085e-001	 2.7785071730e+000	 4.0495219506e-001
 1.8625854267e-001	 2.7804443211e+000	 4.4780929375e-001
 1.5938192489e-001	 2.7821143363e+000	 4.9910798112e-001
 1.3258923665e-001	 2.7835198670e+000	 5.5802744369e-001
 1.0588384935e-001	 2.7846636072e+000	 6.2285806872e-001
 7.9269056333e-002	 2.7855482939e+000	 6.9096799277e-001
 5.2748072593e-002	 2.7861767048e+000	 7.5876955119e-001
 2.6324034569e-002	 2.7865516559e+000	 8.2168550081e-001
 0.0000000000e+000	 2.7866760000e+000	 8.7411491391e-001
 2.6991565633e-001	 2.8003661041e+000	 3.2435564745e-001
 2.4254884037e-001	 2.8028689969e+000	 3.5025882965e-001
 2.1525607709e-001	 2.8050969987e+000	 3.8190212111e-001
 1.8804100421e-001	 2.8070526851e+000	 4.2043321837e-001
 1.6090718192e-001	 2.8087386819e+000	 4.6622648440e-001
 1.3385809236e-001	 2.8101576634e+000	 5.1885059013e-001
 1.0689713920e-001	 2.8113123490e+000	 5.7703609693e-001
 8.0027647284e-002	 2.8122055020e+000	 6.3864276707e-001
 5.3252862387e-002	 2.8128399266e+000	 7.0062642799e-001
 2.6575950958e-002	 2.8132184660e+000	 7.5900525399e-001
 0.0000000000e+000	 2.8133440000e+000	 8.0882536078e-001
 2.7247421679e-001	 2.8269110851e+000	 2.9527617976e-001
 2.4484798775e-001	 2.8294377032e+000	 3.1555244217e-001
 2.1729651334e-001	 2.8316868245e+000	 3.3935087445e-001
 1.8982346576e-001	 2.8336610490e+000	 3.6803070849e-001
 1.6243243896e-001	 2.8353630276e+000	 4.0223259253e-001
 1.3512694807e-001	 2.8367954597e+000	 4.4184794364e-001
 1.0791042904e-001	 2.8379610907e+000	 4.8598789039e-001
 8.0786238235e-002	 2.8388627100e+000	 5.3295157751e-001
 5.3757652180e-002	 2.8395031484e+000	 5.8019364588e-001
 2.6827867347e-002	 2.8398852760e+000	 6.2429074299e-001
 0.0000000000e+000	 2.8400120000e+000	 6.6090695554e-001
 2.7503277725e-001	 2.8534560662e+000	 2.6396880843e-001
 2.4714713513e-001	 2.8560064095e+000	 2.7387923978e-001
 2.1933694958e-001	 2.8582766502e+000	 2.8467762421e-001
 1.9160592731e-001	 2.8602694129e+000	 2.9785267557e-001
 1.6395769600e-001	 2.8619873733e+000	 3.1423593560e-001
 1.3639580379e-001	 2.8634332561e+000	 3.3397314600e-001
 1.0892371889e-001	 2.8646098325e+000	 3.5649482986e-001
 8.1544829185e-002	 2.8655199181e+000	 3.8048583744e-001
 5.4262441973e-002	 2.8661663703e+000	 4.0385365700e-001
 2.7079783735e-002	 2.8665520861e+000	 4.2369533618e-001
 0.0000000000e+000	 2.8666800000e+000	 4.3626290216e-001
 2.8666800000e+000	 0.0000000000e+000	 1.2194976941e+000
 2.8665520861e+000	 2.7079783735e-002	 1.2439594777e+000
 2.8661663703e+000	 5.4262441973e-002	 1.2703152929e+000
 2.8655199181e+000	 8.1544829185e-002	 1.2955379941e+000
 2.8646098325e+000	 1.0892371889e-001	 1.3173849844e+000
 2.8634332561e+000	 1.3639580379e-001	 1.3343506461e+000
 2.8619873733e+000	 1.6395769600e-001	 1.3456204620e+000
 2.8602694129e+000	 1.9160592731e-001	 1.3510266148e+000
 2.8582766502e+000	 2.1933694958e-001	 1.3510048053e+000
 2.8560064095e+000	 2.4714713513e-001	 1.3465519678e+000
 2.8534560662e+000	 2.7503277725e-001	 1.3391845059e+000
 2.8933440000e+000	 0.0000000000e+000	 1.4693613252e+000
 2.8932148963e+000	 2.7331662338e-002	 1.4581251976e+000
 2.8928255928e+000	 5.4767156051e-002	 1.4513968703e+000
 2.8921731278e+000	 8.2303306352e-002	 1.4463387880e+000
 2.8912545771e+000	 1.0993685675e-001	 1.4408142076e+000
 2.8900670570e+000	 1.3766446918e-001	 1.4333411641e+000
 2.8886077255e+000	 1.6548272425e-001	 1.4230486895e+000
 2.8868737858e+000	 1.9338812150e-001	 1.4096350604e+000
 2.8848624877e+000	 2.2137707978e-001	 1.3933277927e+000
 2.8825711307e+000	 2.4944593765e-001	 1.3748450383e+000
 2.8799970658e+000	 2.7759095395e-001	 1.3553579760e+000
 2.9200080000e+000	 0.0000000000e+000	 1.6581900611e+000
 2.9198777065e+000	 2.7583540941e-002	 1.6224506196e+000
 2.9194848154e+000	 5.5271870128e-002	 1.5926292809e+000
 2.9188263374e+000	 8.3061783519e-002	 1.5661568198e+000
 2.9178993218e+000	 1.1094999461e-001	 1.5410777504e+000
 2.9167008579e+000	 1.3893313458e-001	 1.5160060478e+000
 2.9152280777e+000	 1.6700775251e-001	 1.4900837183e+000
 2.9134781587e+000	 1.9517031570e-001	 1.4629419790e+000
 2.9114483252e+000	 2.2341720997e-001	 1.4346647421e+000
 2.9091358519e+000	 2.5174474017e-001	 1.4057540342e+000
 2.9065380653e+000	 2.8014913065e-001	 1.3770969084e+000
 2.9466720000e+000	 0.0000000000e+000	 1.7864651932e+000
 2.9465405168e+000	 2.7835419544e-002	 1.7363219700e+000
 2.9461440379e+000	 5.5776584205e-002	 1.6924465767e+000
 2.9454795471e+000	 8.3820260685e-002	 1.6526106243e+000
 2.9445440664e+000	 1.1196313247e-001	 1.6151087110e+000
 2.9433346587e+000	 1.4020179997e-001	 1.5787161426e+000
 2.9418484300e+000	 1.6853278077e-001	 1.5426501284e+000
 2.9400825315e+000	 1.9695250989e-001	 1.5065341991e+000
 2.9380341627e+000	 2.2545734016e-001	 1.4703655200e+000
 2.9357005730e+000	 2.5404354269e-001	 1.4344846991e+000
 2.9330790648e+000	 2.8270730734e-001	 1.3995476151e+000
 2.9733360000e+000	 0.0000000000e+000	 1.8545913416e+000
 2.9732033270e+000	 2.8087298146e-002	 1.7990640717e+000
 2.9728032604e+000	 5.6281298282e-002	 1.7492368851e+000
 2.9721327568e+000	 8.4578737851e-002	 1.7032884017e+000
 2.9711888111e+000	 1.1297627033e-001	 1.6598254542e+000
 2.9699684596e+000	 1.4147046536e-001	 1.6178430669e+000
 2.9684687822e+000	 1.7005780903e-001	 1.5766885746e+000
 2.9666869044e+000	 1.9873470408e-001	 1.5360296107e+000
 2.9646200002e+000	 2.2749747036e-001	 1.4958256117e+000
 2.9622652942e+000	 2.5634234521e-001	 1.4563024089e+000
 2.9596200644e+000	 2.8526548404e-001	 1.4179293956e+000
 3.0000000000e+000	 0.0000000000e+000	 1.8628998624e+000
 2.9998661372e+000	 2.8339176748e-002	 1.8099432089e+000
 2.9994624830e+000	 5.6786012359e-002	 1.7613447991e+000
 2.9987859664e+000	 8.5337215017e-002	 1.7157499983e+000
 2.9978335557e+000	 1.1398940818e-001	 1.6721332369e+000
 2.9966022605e+000	 1.4273913076e-001	 1.6297605293e+000
 2.9950891344e+000	 1.7158283728e-001	 1.5881568371e+000
 2.9932912773e+000	 2.0051689827e-001	 1.5470779806e+000
 2.9912058377e+000	 2.2953760055e-001	 1.5064867262e+000
 2.9888300154e+000	 2.5864114773e-001	 1.4665325835e+000
 2.9861610639e+000	 2.8782366074e-001	 1.4275347635e+000
 3.0266640000e+000	 0.0000000000e+000	 1.8116520746e+000
 3.0265289474e+000	 2.8591055351e-002	 1.7681698397e+000
 3.0261217055e+000	 5.7290726436e-002	 1.7270736419e+000
 3.0254391761e+000	 8.6095692183e-002	 1.6875287810e+000
 3.0244783003e+000	 1.1500254604e-001	 1.6489257446e+000
 3.0232360614e+000	 1.4400779615e-001	 1.6108455736e+000
 3.0217094866e+000	 1.7310786554e-001	 1.5730308100e+000
 3.0198956501e+000	 2.0229909246e-001	 1.5353617152e+000
 3.0177916751e+000	 2.3157773074e-001	 1.4978373556e+000
 3.0153947365e+000	 2.6093995025e-001	 1.4605610563e+000
 3.0127020634e+000	 2.9038183743e-001	 1.4237296334e+000
 3.0533280000e+000	 0.0000000000e+000	 1.7010423183e+000
 3.0531917577e+000	 2.8842933953e-002	 1.6729011662e+000
 3.0527809281e+000	 5.7795440513e-002	 1.6446876124e+000
 3.0520923857e+000	 8.6854169349e-002	 1.6161334132e+000
 3.0511230450e+000	 1.1601568390e-001	 1.5870865476e+000
 3.0498698623e+000	 1.4527646154e-001	 1.5574797543e+000
 3.0483298389e+000	 1.7463289379e-001	 1.5273054328e+000
 3.0465000230e+000	 2.0408128665e-001	 1.4965965744e+000
 3.0443775126e+000	 2.3361786093e-001	 1.4654132908e+000
 3.0419594577e+000	 2.6323875277e-001	 1.4338344047e+000
 3.0392430630e+000	 2.9294001413e-001	 1.4019534702e+000
 3.0799920000e+000	 0.0000000000e+000	 1.5312008540e+000
 3.0798545679e+000	 2.9094812556e-002	 1.5232435718e+000
 3.0794401506e+000	 5.8300154590e-002	 1.5124138185e+000
 3.0787455954e+000	 8.7612646515e-002	 1.4990495380e+000
 3.0777677896e+000	 1.1702882176e-001	 1.4834904781e+000
 3.0765036632e+000	 1.4654512693e-001	 1.4660502489e+000
 3.0749501911e+000	 1.7615792205e-001	 1.4469955682e+000
 3.0731043959e+000	 2.0586348084e-001	 1.4265323396e+000
 3.0709633501e+000	 2.3565799112e-001	 1.4047980973e+000
 3.0685241789e+000	 2.6553755529e-001	 1.3818602439e+000
 3.0657840625e+000	 2.9549819082e-001	 1.3577194043e+000
 3.1066560000e+000	 0.0000000000e+000	 1.3021966126e+000
 3.1065173781e+000	 2.9346691158e-002	 1.3182549324e+000
 3.1060993732e+000	 5.8804868668e-002	 1.3284442062e+000
 3.1053988051e+000	 8.8371123681e-002	 1.3337413739e+000
 3.1044125343e+000	 1.1804195962e-001	 1.3350049366e+000
 3.1031374641e+000	 1.4781379233e-001	 1.3329509091e+000
 3.1015705433e+000	 1.7768295031e-001	 1.3281368282e+000
 3.0997087687e+000	 2.0764567503e-001	 1.3209534378e+000
 3.0975491876e+000	 2.3769812132e-001	 1.3116235527e+000
 3.0950889001e+000	 2.6783635781e-001	 1.3002074860e+000
 3.0923250620e+000	 2.9805636752e-001	 1.2866143136e+000
 3.1333200000e+000	 0.0000000000e+000	 1.0140398046e+000
 3.1331801883e+000	 2.9598569761e-002	 1.0569468098e+000
 3.1327585957e+000	 5.9309582745e-002	 1.0909373899e+000
 3.1320520147e+000	 8.9129600848e-002	 1.1176532283e+000
 3.1310572789e+000	 1.1905509748e-001	 1.1384911283e+000
 3.1297712650e+000	 1.4908245772e-001	 1.1545832555e+000
 3.1281908955e+000	 1.7920797856e-001	 1.1667863536e+000
 3.1263131416e+000	 2.0942786922e-001	 1.1756795255e+000
 3.1241350251e+000	 2.3973825151e-001	 1.1815700490e+000
 3.1216536212e+000	 2.7013516033e-001	 1.1845065668e+000
 3.1188660616e+000	 3.0061454421e-001	 1.1842988748e+000
 2.8534560662e+000	 2.7503277725e-001	 1.3391845059e+000
 2.8506234959e+000	 3.0298590209e-001	 1.3315671732e+000
 2.8475058238e+000	 3.3100687533e-001	 1.3243662234e+000
 2.8441005950e+000	 3.5909182003e-001	 1.3167034654e+000
 2.8404054153e+000	 3.8723678479e-001	 1.3079820499e+000
 2.8364179532e+000	 4.1543774471e-001	 1.2978450465e+000
 2.8321359428e+000	 4.4369060226e-001	 1.2861313944e+000
 2.8275571857e+000	 4.7199118843e-001	 1.2728284897e+000
 2.8226795537e+000	 5.0033526381e-001	 1.2580206346e+000
 2.8175009906e+000	 5.2871851982e-001	 1.2418325464e+000
 2.8120195152e+000	 5.5713657999e-001	 1.2243670996e+000
 2.8799970658e+000	 2.7759095395e-001	 1.3553579760e+000
 2.8771381487e+000	 3.0580408065e-001	 1.3369720097e+000
 2.8739914781e+000	 3.3408568682e-001	 1.3201089394e+000
 2.8705545760e+000	 3.6243185948e-001	 1.3039427559e+000
 2.8668250261e+000	 3.9083861047e-001	 1.2878889307e+000
 2.8628004752e+000	 4.1930187744e-001	 1.2715681845e+000
 2.8584786363e+000	 4.4781752477e-001	 1.2547677896e+000
 2.8538572906e+000	 4.7638134466e-001	 1.2373996076e+000
 2.8489342900e+000	 5.0498905826e-001	 1.2194540215e+000
 2.8437075593e+000	 5.3363631693e-001	 1.2009488899e+000
 2.8381750988e+000	 5.6231870349e-001	 1.1818726231e+000
 2.9065380653e+000	 2.8014913065e-001	 1.3770969084e+000
 2.9036528015e+000	 3.0862225920e-001	 1.3502949879e+000
 2.9004771323e+000	 3.3716449831e-001	 1.3255828007e+000
 2.8970085570e+000	 3.6577189893e-001	 1.3022474883e+000
 2.8932446369e+000	 3.9444043615e-001	 1.2797775869e+000
 2.8891829973e+000	 4.2316601018e-001	 1.2578324191e+000
 2.8848213299e+000	 4.5194444728e-001	 1.2362091879e+000
 2.8801573956e+000	 4.8077150089e-001	 1.2148069100e+000
 2.8751890264e+000	 5.0964285272e-001	 1.1935862761e+000
 2.8699141281e+000	 5.3855411404e-001	 1.1725244922e+000
 2.8643306824e+000	 5.6750082698e-001	 1.1515641258e+000
 2.9330790648e+000	 2.8270730734e-001	 1.3995476151e+000
 2.9301674543e+000	 3.1144043775e-001	 1.3666949357e+000
 2.9269627865e+000	 3.4024330980e-001	 1.3360181468e+000
 2.9234625380e+000	 3.6911193838e-001	 1.3069698580e+000
 2.9196642478e+000	 3.9804226183e-001	 1.2791636962e+000
 2.9155655193e+000	 4.2703014291e-001	 1.2523497839e+000
 2.9111640234e+000	 4.5607136979e-001	 1.2263881018e+000
 2.9064575005e+000	 4.8516165711e-001	 1.2012187958e+000
 2.9014437627e+000	 5.1429664717e-001	 1.1768284473e+000
 2.8961206968e+000	 5.4347191115e-001	 1.1532112794e+000
 2.8904862660e+000	 5.7268295047e-001	 1.1303242431e+000
 2.9596200644e+000	 2.8526548404e-001	 1.4179293956e+000
 2.9566821071e+000	 3.1425861630e-001	 1.3814164075e+000
 2.9534484408e+000	 3.4332212130e-001	 1.3467432161e+000
 2.9499165190e+000	 3.7245197783e-001	 1.3135714585e+000
 2.9460838586e+000	 4.0164408750e-001	 1.2816830539e+000
 2.9419480414e+000	 4.3089427565e-001	 1.2509622713e+000
 2.9375067170e+000	 4.6019829230e-001	 1.2213758677e+000
 2.9327576054e+000	 4.8955181334e-001	 1.1929502871e+000
 2.9276984991e+000	 5.1895044162e-001	 1.1657448559e+000
 2.9223272655e+000	 5.4838970826e-001	 1.1398198698e+000
 2.9166418496e+000	 5.7786507396e-001	 1.1151984269e+000
 2.9861610639e+000	 2.8782366074e-001	 1.4275347635e+000
 2.9831967599e+000	 3.1707679486e-001	 1.3897897192e+000
 2.9799340950e+000	 3.4640093279e-001	 1.3531839682e+000
 2.9763705001e+000	 3.7579201728e-001	 1.3176228596e+000
 2.9725034694e+000	 4.0524591318e-001	 1.2830908714e+000
 2.9683305634e+000	 4.3475840838e-001	 1.2496408028e+000
 2.9638494106e+000	 4.6432521481e-001	 1.2173812348e+000
 2.9590577103e+000	 4.9394196957e-001	 1.1864611726e+000
 2.9539532354e+000	 5.2360423607e-001	 1.1570507220e+000
 2.9485338342e+000	 5.5330750536e-001	 1.1293166079e+000
 2.9427974332e+000	 5.8304719746e-001	 1.1033912992e+000
 3.0127020634e+000	 2.9038183743e-001	 1.4237296334e+000
 3.0097114127e+000	 3.1989497341e-001	 1.3872309442e+000
 3.0064197492e+000	 3.4947974428e-001	 1.3508638664e+000
 3.0028244811e+000	 3.7913205673e-001	 1.3148031474e+000
 2.9989230803e+000	 4.0884773886e-001	 1.2792610335e+000
 2.9947130855e+000	 4.3862254111e-001	 1.2444841587e+000
 2.9901921041e+000	 4.6845213732e-001	 1.2107489116e+000
 2.9853578153e+000	 4.9833212579e-001	 1.1783541103e+000
 2.9802079718e+000	 5.2825803052e-001	 1.1476097533e+000
 2.9747404029e+000	 5.5822530247e-001	 1.1188205599e+000
 2.9689530167e+000	 5.8822932095e-001	 1.0922629695e+000
 3.0392430630e+000	 2.9294001413e-001	 1.4019534702e+000
 3.0362260655e+000	 3.2271315196e-001	 1.3692418735e+000
 3.0329054035e+000	 3.5255855577e-001	 1.3354036251e+000
 3.0292784621e+000	 3.8247209617e-001	 1.3008994271e+000
 3.0253426911e+000	 4.1244956453e-001	 1.2661853187e+000
 3.0210956075e+000	 4.4248667385e-001	 1.2317178697e+000
 3.0165347977e+000	 4.7257905983e-001	 1.1979580747e+000
 3.0116579202e+000	 5.0272228202e-001	 1.1653726912e+000
 3.0064627082e+000	 5.3291182497e-001	 1.1344316953e+000
 3.0009469717e+000	 5.6314309958e-001	 1.1056004738e+000
 2.9951086003e+000	 5.9341144444e-001	 1.0793253211e+000
 3.0657840625e+000	 2.9549819082e-001	 1.3577194043e+000
 3.0627407183e+000	 3.2553133051e-001	 1.3314099413e+000
 3.0593910577e+000	 3.5563736725e-001	 1.3025209219e+000
 3.0557324431e+000	 3.8581213562e-001	 1.2718062914e+000
 3.0517623019e+000	 4.1605139021e-001	 1.2399725844e+000
 3.0474781295e+000	 4.4635080658e-001	 1.2076930714e+000
 3.0428774912e+000	 4.7670598234e-001	 1.1756208407e+000
 3.0379580251e+000	 5.0711243824e-001	 1.1443994671e+000
 3.0327174445e+000	 5.3756561942e-001	 1.1146698456e+000
 3.0271535404e+000	 5.6806089669e-001	 1.0870717053e+000
 3.0212641839e+000	 5.9859356793e-001	 1.0622382659e+000
 3.0923250620e+000	 2.9805636752e-001	 1.2866143136e+000
 3.0892553711e+000	 3.2834950906e-001	 1.2694081181e+000
 3.0858767119e+000	 3.5871617874e-001	 1.2480300780e+000
 3.0821864241e+000	 3.8915217507e-001	 1.2235252554e+000
 3.0781819128e+000	 4.1965321588e-001	 1.1968479183e+000
 3.0738606516e+000	 4.5021493931e-001	 1.1688853270e+000
 3.0692201848e+000	 4.8083290485e-001	 1.1404807040e+000
 3.0642581301e+000	 5.1150259447e-001	 1.1124539438e+000
 3.0589721809e+000	 5.4221941387e-001	 1.0856185360e+000
 3.0533601091e+000	 5.7297869379e-001	 1.0607931130e+000
 3.0474197675e+000	 6.0377569142e-001	 1.0388059708e+000
 3.1188660616e+000	 3.0061454421e-001	 1.1842988748e+000
 3.1157700239e+000	 3.3116768761e-001	 1.1789947744e+000
 3.1123623662e+000	 3.6179499023e-001	 1.1678417088e+000
 3.1086404051e+000	 3.9249221452e-001	 1.1521641622e+000
 3.1046015236e+000	 4.2325504155e-001	 1.1331517589e+000
 3.1002431736e+000	 4.5407907204e-001	 1.1118934157e+000
 3.0955628784e+000	 4.8495982735e-001	 1.0894109426e+000
 3.0905582350e+000	 5.1589275069e-001	 1.0666905427e+000
 3.0852269172e+000	 5.4687320832e-001	 1.0447105820e+000
 3.0795666778e+000	 5.7789649090e-001	 1.0244639229e+000
 3.0735753511e+000	 6.0895781491e-001	 1.0069730571e+000
 2.8120195152e+000	 5.5713657999e-001	 1.2243670996e+000
 2.8062323324e+000	 5.8558927002e-001	 1.2015184109e+000
 2.8001384177e+000	 6.1406781368e-001	 1.1702343687e+000
 2.7937360289e+000	 6.4256763062e-001	 1.1318831882e+000
 2.7870235076e+000	 6.7108407844e-001	 1.0875663100e+000
 2.7799992815e+000	 6.9961245439e-001	 1.0450266809e+000
 2.7726618660e+000	 7.2814799717e-001	 1.0068291019e+000
 2.7650098669e+000	 7.5668588880e-001	 9.7077837743e-001
 2.7570419823e+000	 7.8522125655e-001	 9.3463492580e-001
 2.7487570045e+000	 8.1374917503e-001	 8.9610715654e-001
 2.7401538221e+000	 8.4226466823e-001	 8.5284264412e-001
 2.8381750988e+000	 5.6231870349e-001	 1.1818726231e+000
 2.8323340874e+000	 5.9103604200e-001	 1.1571160929e+000
 2.8261834910e+000	 6.1977947462e-001	 1.1230309173e+000
 2.8197215513e+000	 6.4854437840e-001	 1.0814854233e+000
 2.8129465945e+000	 6.7732606774e-001	 1.0348188523e+000
 2.8058570336e+000	 7.0611979615e-001	 9.9248776911e-001
 2.7984513702e+000	 7.3492075806e-001	 9.5504773594e-001
 2.7907281972e+000	 7.6372409067e-001	 9.2025788209e-001
 2.7826862005e+000	 7.9252487593e-001	 8.8582455561e-001
 2.7743241612e+000	 8.2131814262e-001	 8.4939471606e-001
 2.7656409576e+000	 8.5009886846e-001	 8.0854803275e-001
 2.8643306824e+000	 5.6750082698e-001	 1.1515641258e+000
 2.8584358423e+000	 5.9648281398e-001	 1.1246100370e+000
 2.8522285643e+000	 6.2549113556e-001	 1.0873979300e+000
 2.8457070738e+000	 6.5452112617e-001	 1.0423147065e+000
 2.8388696815e+000	 6.8356805703e-001	 9.9358023845e-001
 2.8317147857e+000	 7.1262713792e-001	 9.5106053340e-001
 2.8242408744e+000	 7.4169351896e-001	 9.1383334760e-001
 2.8164465275e+000	 7.7076229254e-001	 8.7965729372e-001
 2.8083304187e+000	 7.9982849530e-001	 8.4623076034e-001
 2.7998913179e+000	 8.2888711020e-001	 8.1118632898e-001
 2.7911280930e+000	 8.5793306869e-001	 7.7208379550e-001
 2.8904862660e+000	 5.7268295047e-001	 1.1303242431e+000
 2.8845375973e+000	 6.0192958596e-001	 1.1011087781e+000
 2.8782736376e+000	 6.3120279650e-001	 1.0606716795e+000
 2.8716925962e+000	 6.6049787394e-001	 1.0119308416e+000
 2.8647927684e+000	 6.8981004632e-001	 9.6162058050e-001
 2.8575725378e+000	 7.1913447968e-001	 9.1866247394e-001
 2.8500303787e+000	 7.4846627985e-001	 8.8125294223e-001
 2.8421648578e+000	 7.7780049441e-001	 8.4719252503e-001
 2.8339746369e+000	 8.0713211467e-001	 8.1421510351e-001
 2.8254584746e+000	 8.3645607779e-001	 7.7998335722e-001
 2.8166152285e+000	 8.6576726892e-001	 7.4208271346e-001
 2.9166418496e+000	 5.7786507396e-001	 1.1151984269e+000
 2.9106393523e+000	 6.0737635794e-001	 1.0838859510e+000
 2.9043187109e+000	 6.3691445745e-001	 1.0403534026e+000
 2.8976781186e+000	 6.6647462171e-001	 9.8805594239e-001
 2.8907158553e+000	 6.9605203562e-001	 9.3685339320e-001
 2.8834302899e+000	 7.2564182144e-001	 8.9335902941e-001
 2.8758198829e+000	 7.5523904074e-001	 8.5552547801e-001
 2.8678831881e+000	 7.8483869628e-001	 8.2123497251e-001
 2.8596188551e+000	 8.1443573404e-001	 7.8829772185e-001
 2.8510256313e+000	 8.4402504538e-001	 7.5444842942e-001
 2.8421023640e+000	 8.7360146914e-001	 7.1734118178e-001
 2.9427974332e+000	 5.8304719746e-001	 1.1033912992e+000
 2.9367411072e+000	 6.1282312992e-001	 1.0703758894e+000
 2.9303637842e+000	 6.4262611839e-001	 1.0241040890e+000
 2.9236636411e+000	 6.7245136949e-001	 9.6885922540e-001
 2.9166389422e+000	 7.0229402491e-001	 9.1733300402e-001
 2.9092880420e+000	 7.3214916321e-001	 8.7336061312e-001
 2.9016093871e+000	 7.6201180164e-001	 8.3501850713e-001
 2.8936015184e+000	 7.9187689815e-001	 8.0030773886e-001
 2.8852630733e+000	 8.2173935342e-001	 7.6715310253e-001
 2.8765927880e+000	 8.5159401296e-001	 7.3340074403e-001
 2.8675894995e+000	 8.8143566937e-001	 6.9681400671e-001
 2.9689530167e+000	 5.8822932095e-001	 1.0922629695e+000
 2.9628428622e+000	 6.1826990190e-001	 1.0581691945e+000
 2.9564088576e+000	 6.4833777933e-001	 1.0097392418e+000
 2.9496491635e+000	 6.7842811726e-001	 9.5270765657e-001
 2.9425620291e+000	 7.0853601420e-001	 9.0125194278e-001
 2.9351457942e+000	 7.3865650497e-001	 8.5701963181e-001
 2.9273988914e+000	 7.6878456253e-001	 8.1824480274e-001
 2.9193198487e+000	 7.9891510002e-001	 7.8308184471e-001
 2.9109072915e+000	 8.2904297279e-001	 7.4960585374e-001
 2.9021599447e+000	 8.5916298055e-001	 7.1581137017e-001
 2.8930766349e+000	 8.8926986960e-001	 6.7960920595e-001
 2.9951086003e+000	 5.9341144444e-001	 1.0793253211e+000
 2.9889446171e+000	 6.2371667388e-001	 1.0450082740e+000
 2.9824539309e+000	 6.5404944027e-001	 9.9522361297e-001
 2.9756346860e+000	 6.8440486503e-001	 9.3776901864e-001
 2.9684851161e+000	 7.1477800350e-001	 8.8693831194e-001
 2.9610035463e+000	 7.4516384673e-001	 8.4282748788e-001
 2.9531883956e+000	 7.7555732342e-001	 8.0385897259e-001
 2.9450381790e+000	 8.0595330189e-001	 7.6837243050e-001
 2.9365515097e+000	 8.3634659216e-001	 7.3462646909e-001
 2.9277271014e+000	 8.6673194813e-001	 7.0079854669e-001
 2.9185637704e+000	 8.9710406983e-001	 6.6498281197e-001
 3.0212641839e+000	 5.9859356793e-001	 1.0622382659e+000
 3.0150463721e+000	 6.2916344586e-001	 1.0287828550e+000
 3.0084990042e+000	 6.5976110121e-001	 9.7866591543e-001
 3.0016202084e+000	 6.9038161280e-001	 9.2233989920e-001
 2.9944082030e+000	 7.2101999279e-001	 8.7285313869e-001
 2.9868612984e+000	 7.5167118849e-001	 8.2941156639e-001
 2.9789778998e+000	 7.8233008431e-001	 7.9065406024e-001
 2.9707565093e+000	 8.1299150376e-001	 7.5513494891e-001
 2.9621957279e+000	 8.4365021153e-001	 7.2132708620e-001
 2.9532942581e+000	 8.7430091572e-001	 6.8762297926e-001
 2.9440509059e+000	 9.0493827006e-001	 6.5233367814e-001
 3.0474197675e+000	 6.0377569142e-001	 1.0388059708e+000
 3.0411481271e+000	 6.3461021783e-001	 1.0075254711e+000
 3.0345440775e+000	 6.6547276215e-001	 9.5831351223e-001
 3.0276057309e+000	 6.9635836057e-001	 9.0484380297e-001
 3.0203312899e+000	 7.2726198208e-001	 8.5758770996e-001
 3.0127190505e+000	 7.5817853025e-001	 8.1553220746e-001
 3.0047674041e+000	 7.8910284520e-001	 7.7755813443e-001
 2.9964748396e+000	 8.2002970563e-001	 7.4246134856e-001
 2.9878399461e+000	 8.5095383090e-001	 7.0895723968e-001
 2.9788614148e+000	 8.8186988331e-001	 6.7568313591e-001
 2.9695380413e+000	 9.1277247028e-001	 6.4119828747e-001
 3.0735753511e+000	 6.0895781491e-001	 1.0069730571e+000
 3.0672498820e+000	 6.4005698981e-001	 9.7940692582e-001
 3.0605891508e+000	 6.7118442308e-001	 9.3274575216e-001
 3.0535912533e+000	 7.0233510834e-001	 8.8382881261e-001
 3.0462543768e+000	 7.3350397137e-001	 8.3986089135e-001
 3.0385768026e+000	 7.6468587201e-001	 8.0007966512e-001
 3.0305569083e+000	 7.9587560609e-001	 7.6363086743e-001
 3.0221931699e+000	 8.2706790750e-001	 7.2957624936e-001
 3.0134841643e+000	 8.5825745028e-001	 6.9689960911e-001
 3.0044285715e+000	 8.8943885089e-001	 6.6451054078e-001
 2.9950251768e+000	 9.2060667051e-001	 6.3124556389e-001
 2.7401538221e+000	 8.4226466823e-001	 8.5284264412e-001
 2.7312314211e+000	 8.7076271134e-001	 8.0296004076e-001
 2.7219888849e+000	 8.9923823169e-001	 7.4718852483e-001
 2.7124253981e+000	 9.2768611232e-001	 6.8697773291e-001
 2.7025402488e+000	 9.5610119473e-001	 6.2367705707e-001
 2.6923328307e+000	 9.8447828143e-001	 5.5851228884e-001
 2.6818026442e+000	 1.0128121385e+000	 4.9255363139e-001
 2.6709492982e+000	 1.0410974981e+000	 4.2671691275e-001
 2.6597725119e+000	 1.0693290614e+000	 3.6241058492e-001
 2.6482721155e+000	 1.0975015011e+000	 3.0276277579e-001
 2.6364480523e+000	 1.1256094643e+000	 2.4788692893e-001
 2.7656409576e+000	 8.5009886846e-001	 8.0854803275e-001
 2.7566355662e+000	 8.7886198190e-001	 7.6117275224e-001
 2.7473070619e+000	 9.0760236309e-001	 7.0789853512e-001
 2.7376546217e+000	 9.3631484747e-001	 6.5029740881e-001
 2.7276775272e+000	 9.6499422857e-001	 5.8983888987e-001
 2.7173751663e+000	 9.9363526055e-001	 5.2786648403e-001
 2.7067470348e+000	 1.0222326608e+000	 4.6556621010e-001
 2.6957927380e+000	 1.0507811125e+000	 4.0396379943e-001
 2.6845119925e+000	 1.0792752675e+000	 3.4385364145e-001
 2.6729046269e+000	 1.1077097490e+000	 2.8579633444e-001
 2.6609705839e+000	 1.1360791543e+000	 2.3049557433e-001
 2.7911280930e+000	 8.5793306869e-001	 7.7208379550e-001
 2.7820397112e+000	 8.8696125246e-001	 7.2662032839e-001
 2.7726252389e+000	 9.1596649450e-001	 6.7530782712e-001
 2.7628838453e+000	 9.4494358263e-001	 6.1980363499e-001
 2.7528148056e+000	 9.7388726241e-001	 5.6166110840e-001
 2.7424175019e+000	 1.0027922397e+000	 5.0230605844e-001
 2.7316914254e+000	 1.0316531831e+000	 4.4300578825e-001
 2.7206361779e+000	 1.0604647269e+000	 3.8486263692e-001
 2.7092514731e+000	 1.0892214736e+000	 3.2874740287e-001
 2.6975371383e+000	 1.1179179968e+000	 2.7529241149e-001
 2.6854931155e+000	 1.1465488442e+000	 2.2484855541e-001
 2.8166152285e+000	 8.6576726892e-001	 7.4208271346e-001
 2.8074438563e+000	 8.9506052302e-001	 6.9806235936e-001
 2.7979434159e+000	 9.2433062590e-001	 6.4830364902e-001
 2.7881130690e+000	 9.5357231778e-001	 5.9451230130e-001
 2.7779520840e+000	 9.8278029625e-001	 5.3828945863e-001
 2.7674598375e+000	 1.0119492188e+000	 4.8110172587e-001
 2.7566358160e+000	 1.0410737054e+000	 4.2428288211e-001
 2.7454796177e+000	 1.0701483413e+000	 3.6895981022e-001
 2.7339909537e+000	 1.0991676797e+000	 3.1605431241e-001
 2.7221696496e+000	 1.1281262447e+000	 2.6623987939e-001
 2.7100156471e+000	 1.1570185342e+000	 2.1990501439e-001
 2.8421023640e+000	 8.7360146914e-001	 7.1734118178e-001
 2.8328480014e+000	 9.0315979358e-001	 6.7442388063e-001
 2.8232615929e+000	 9.3269475730e-001	 6.2593978614e-001
 2.8133422926e+000	 9.6220105294e-001	 5.7360616165e-001
 2.8030893623e+000	 9.9167333009e-001	 5.1903609098e-001
 2.7925021731e+000	 1.0211061979e+000	 4.6370944897e-001
 2.7815802066e+000	 1.0504942277e+000	 4.0897106736e-001
 2.7703230575e+000	 1.0798319557e+000	 3.5596185319e-001
 2.7587304343e+000	 1.1091138858e+000	 3.0561615109e-001
 2.7468021610e+000	 1.1383344926e+000	 2.5861877752e-001
 2.7345381787e+000	 1.1674882241e+000	 2.1536732678e-001
 2.8675894995e+000	 8.8143566937e-001	 6.9681400671e-001
 2.8582521465e+000	 9.1125906414e-001	 6.5478963986e-001
 2.8485797698e+000	 9.4105888870e-001	 6.0743028331e-001
 2.8385715162e+000	 9.7082978809e-001	 5.5642799906e-001
 2.8282266407e+000	 1.0005663639e+000	 5.0337215672e-001
 2.8175445086e+000	 1.0302631770e+000	 4.4972135147e-001
 2.8065245973e+000	 1.0599147500e+000	 3.9679841013e-001
 2.7951664974e+000	 1.0895155700e+000	 3.4572628655e-001
 2.7834699149e+000	 1.1190600919e+000	 2.9742134442e-001
 2.7714346724e+000	 1.1485427405e+000	 2.5255060828e-001
 2.7590607103e+000	 1.1779579140e+000	 2.1149307047e-001
 2.8930766349e+000	 8.8926986960e-001	 6.7960920595e-001
 2.8836562915e+000	 9.1935833470e-001	 6.3839837269e-001
 2.8738979468e+000	 9.4942302010e-001	 5.9214318161e-001
 2.8638007399e+000	 9.7945852325e-001	 5.4247381021e-001
 2.8533639191e+000	 1.0094593978e+000	 4.9092042865e-001
 2.8425868442e+000	 1.0394201561e+000	 4.3888608526e-001
 2.8314689879e+000	 1.0693352723e+000	 3.8763893101e-001
 2.8200099372e+000	 1.0991991844e+000	 3.3825249248e-001
 2.8082093955e+000	 1.1290062980e+000	 2.9159524236e-001
 2.7960671837e+000	 1.1587509884e+000	 2.4828801912e-001
 2.7835832419e+000	 1.1884276040e+000	 2.0866435225e-001
 2.9185637704e+000	 8.9710406983e-001	 6.6498281197e-001
 2.9090604366e+000	 9.2745760526e-001	 6.2463708667e-001
 2.8992161238e+000	 9.5778715150e-001	 5.7959426832e-001
 2.8890299635e+000	 9.8808725840e-001	 5.3138600812e-001
 2.8785011975e+000	 1.0183524316e+000	 4.8144242881e-001
 2.8676291798e+000	 1.0485771352e+000	 4.3109358175e-001
 2.8564133785e+000	 1.0787557946e+000	 3.8150409992e-001
 2.8448533770e+000	 1.1088827988e+000	 3.3367262352e-001
 2.8329488761e+000	 1.1389525041e+000	 2.8839043660e-001
 2.8206996951e+000	 1.1689592362e+000	 2.4620452430e-001
 2.8081057735e+000	 1.1988972939e+000	 2.0737693183e-001
 2.9440509059e+000	 9.0493827006e-001	 6.5233367814e-001
 2.9344645817e+000	 9.3555687582e-001	 6.1303535302e-001
 2.9245343008e+000	 9.6615128290e-001	 5.6944083947e-001
 2.9142591871e+000	 9.9671599356e-001	 5.2294664190e-001
 2.9036384759e+000	 1.0272454655e+000	 4.7485388014e-001
 2.8926715154e+000	 1.0577341144e+000	 4.2636715083e-001
 2.8813577691e+000	 1.0881763169e+000	 3.7853436008e-001
 2.8696968168e+000	 1.1185664132e+000	 3.3224254375e-001
 2.8576883567e+000	 1.1488987102e+000	 2.8817711287e-001
 2.8453322065e+000	 1.1791674841e+000	 2.4678426381e-001
 2.8326283051e+000	 1.2093669839e+000	 2.0822938479e-001
 2.9695380413e+000	 9.1277247028e-001	 6.4119828747e-001
 2.9598687268e+000	 9.4365614638e-001	 6.0325960563e-001
 2.9498524778e+000	 9.7451541430e-001	 5.6147547415e-001
 2.9394884108e+000	 1.0053447287e+000	 5.1707063264e-001
 2.9287757543e+000	 1.0361384993e+000	 4.7118205226e-001
 2.9177138510e+000	 1.0668910935e+000	 4.2485560372e-001
 2.9063021597e+000	 1.0975968391e+000	 3.7899067923e-001
 2.8945402567e+000	 1.1282500276e+000	 3.3433280030e-001
 2.8824278373e+000	 1.1588449163e+000	 2.9143343612e-001
 2.8699647178e+000	 1.1893757320e+000	 2.5061179732e-001
 2.8571508367e+000	 1.2198366738e+000	 2.1191230208e-001
 2.9950251768e+000	 9.2060667051e-001	 6.3124556389e-001
 2.9852728719e+000	 9.5175541694e-001	 5.9510744697e-001
 2.9751706548e+000	 9.8287954570e-001	 5.5561981988e-001
 2.9647176344e+000	 1.0139734639e+000	 5.1379352249e-001
 2.9539130326e+000	 1.0450315331e+000	 4.7058285001e-001
 2.9427561866e+000	 1.0760480726e+000	 4.2682539827e-001
 2.9312465504e+000	 1.1070173614e+000	 3.8324612658e-001
 2.9193836965e+000	 1.1379336420e+000	 3.4041962334e-001
 2.9071673179e+000	 1.1687911224e+000	 2.9873596662e-001
 2.8945972292e+000	 1.1995839799e+000	 2.5836193106e-001
 2.8816733683e+000	 1.2303063637e+000	 2.1919752388e-001
 2.6364480523e+000	 1.1256094643e+000	 2.4788692893e-001
 2.6243022261e+000	 1.1536433759e+000	 1.9737286361e-001
 2.6118330614e+000	 1.1816020650e+000	 1.5033769010e-001
 2.5990408487e+000	 1.2094801237e+000	 1.0533336686e-001
 2.5859259956e+000	 1.2372721302e+000	 6.0517497317e-002
 2.5724890275e+000	 1.2649726523e+000	 1.3666629822e-002
 2.5587305887e+000	 1.2925762503e+000	-3.7806694769e-002
 2.5446514432e+000	 1.3200774803e+000	-9.6833231354e-002
 2.5302524749e+000	 1.3474708973e+000	-1.6388783197e-001
 2.5155346883e+000	 1.3747510586e+000	-2.2671989219e-001
 2.5004992089e+000	 1.4019125270e+000	-2.8585094210e-001
 2.6609705839e+000	 1.1360791543e+000	 2.3049557433e-001
 2.6487117851e+000	 1.1643738191e+000	 1.8032535200e-001
 2.6361266403e+000	 1.1925925618e+000	 1.3441812813e-001
 2.6232154428e+000	 1.2207299242e+000	 9.1001871704e-002
 2.6099786037e+000	 1.2487804339e+000	 4.7870990546e-002
 2.5964166536e+000	 1.2767386083e+000	 2.4012663146e-003
 2.5825302428e+000	 1.3045989571e+000	-4.8431192582e-002
 2.5683201422e+000	 1.3323559857e+000	-1.0802707108e-001
 2.5537872440e+000	 1.3600041986e+000	-1.6991994053e-001
 2.5389325621e+000	 1.3875381023e+000	-2.2608612015e-001
 2.5237572325e+000	 1.4149522090e+000	-2.7992656717e-001
 2.6854931155e+000	 1.1465488442e+000	 2.2484855541e-001
 2.6731213441e+000	 1.1751042623e+000	 1.7687945075e-001
 2.6604202192e+000	 1.2035830587e+000	 1.3039302058e-001
 2.6473900368e+000	 1.2319797246e+000	 8.6245845919e-002
 2.6340312119e+000	 1.2602887376e+000	 4.2389213958e-002
 2.6203442798e+000	 1.2885045643e+000	-4.1478608514e-003
 2.6063298969e+000	 1.3166216639e+000	-5.6772460363e-002
 2.5919888412e+000	 1.3446344912e+000	-1.1742441549e-001
 2.5773220132e+000	 1.3725374998e+000	-1.7321851504e-001
 2.5623304359e+000	 1.4003251459e+000	-2.2408768438e-001
 2.5470152560e+000	 1.4279918910e+000	-2.7388609454e-001
 2.7100156471e+000	 1.1570185342e+000	 2.1990501439e-001
 2.6975309030e+000	 1.1858347055e+000	 1.7615436516e-001
 2.6847137981e+000	 1.2145735555e+000	 1.3309881037e-001
 2.6715646308e+000	 1.2432295251e+000	 8.9072377589e-002
 2.6580838200e+000	 1.2717970413e+000	 4.2523507968e-002
 2.6442719060e+000	 1.3002705204e+000	-7.2747753768e-003
 2.6301295510e+000	 1.3286443707e+000	-6.3849616522e-002
 2.6156575402e+000	 1.3569129966e+000	-1.2303195206e-001
 2.6008567823e+000	 1.3850708010e+000	-1.7400796269e-001
 2.5857283097e+000	 1.4131121895e+000	-2.2081918902e-001
 2.5702732795e+000	 1.4410315730e+000	-2.6769639731e-001
 2.7345381787e+000	 1.1674882241e+000	 2.1536732678e-001
 2.7219404620e+000	 1.1965651487e+000	 1.7456424719e-001
 2.7090073770e+000	 1.2255640523e+000	 1.3384912827e-001
 2.6957392248e+000	 1.2544793256e+000	 9.1449694283e-002
 2.6821364282e+000	 1.2833053451e+000	 4.5083035482e-002
 2.6681995322e+000	 1.3120364764e+000	-8.0932502083e-003
 2.6539292051e+000	 1.3406670775e+000	-6.9645355310e-002
 2.6393262393e+000	 1.3691915020e+000	-1.2512294920e-001
 2.6243915514e+000	 1.3976041023e+000	-1.7244920364e-001
 2.6091261836e+000	 1.4258992331e+000	-2.1631719649e-001
 2.5935313031e+000	 1.4540712550e+000	-2.6127204801e-001
 2.7590607103e+000	 1.1779579140e+000	 2.1149307047e-001
 2.7463500210e+000	 1.2072955920e+000	 1.7251126290e-001
 2.7333009559e+000	 1.2365545492e+000	 1.3279180022e-001
 2.7199138188e+000	 1.2657291261e+000	 9.0515752745e-002
 2.7061890363e+000	 1.2948136488e+000	 4.3343753058e-002
 2.6921271584e+000	 1.3238024324e+000	-1.1635097913e-002
 2.6777288592e+000	 1.3526897843e+000	-7.2155145690e-002
 2.6629949383e+000	 1.3814700074e+000	-1.2391757465e-001
 2.6479263206e+000	 1.4101374035e+000	-1.6864250952e-001
 2.6325240574e+000	 1.4386862768e+000	-2.1056307012e-001
 2.6167893266e+000	 1.4671109370e+000	-2.5447816230e-001
 2.7835832419e+000	 1.1884276040e+000	 2.0866435225e-001
 2.7707595800e+000	 1.2180260352e+000	 1.7051450275e-001
 2.7575945348e+000	 1.2475450460e+000	 1.3059449232e-001
 2.7440884129e+000	 1.2769789265e+000	 8.7097355347e-002
 2.7302416445e+000	 1.3063219525e+000	 3.7688182290e-002
 2.7160547845e+000	 1.3355683884e+000	-2.0469015021e-002
 2.7015285133e+000	 1.3647124911e+000	-7.5825099512e-002
 2.6866636373e+000	 1.3937485129e+000	-1.2164011480e-001
 2.6714610897e+000	 1.4226707048e+000	-1.6274282467e-001
 2.6559219312e+000	 1.4514733204e+000	-2.0348580610e-001
 2.6400473501e+000	 1.4801506190e+000	-2.4713323916e-001
 2.8081057735e+000	 1.1988972939e+000	 2.0737693183e-001
 2.7951691390e+000	 1.2287564784e+000	 1.6919851488e-001
 2.7818881137e+000	 1.2585355428e+000	 1.2802106112e-001
 2.7682630069e+000	 1.2882287270e+000	 8.2107250909e-002
 2.7542942527e+000	 1.3178302562e+000	 2.9186691076e-002
 2.7399824107e+000	 1.3473343444e+000	-3.0510734433e-002
 2.7253281674e+000	 1.3767351979e+000	-8.0354650450e-002
 2.7103323363e+000	 1.4060270183e+000	-1.2126970788e-001
 2.6949958588e+000	 1.4352040060e+000	-1.5807625135e-001
 2.6793198050e+000	 1.4642603640e+000	-1.9568209031e-001
 2.6633053737e+000	 1.4931903010e+000	-2.3901199759e-001
 2.8326283051e+000	 1.2093669839e+000	 2.0822938479e-001
 2.8195786980e+000	 1.2394869216e+000	 1.6928187798e-001
 2.8061816926e+000	 1.2695260397e+000	 1.2591954871e-001
 2.7924376009e+000	 1.2994785275e+000	 7.6531562932e-002
 2.7783468608e+000	 1.3293385599e+000	 1.8971343687e-002
 2.7639100369e+000	 1.3591003005e+000	-3.9071687815e-002
 2.7491278215e+000	 1.3887579047e+000	-8.4473552375e-002
 2.7340010353e+000	 1.4183055237e+000	-1.2162739878e-001
 2.7185306280e+000	 1.4477373073e+000	-1.5528212394e-001
 2.7027176788e+000	 1.4770474077e+000	-1.9027603855e-001
 2.6865633972e+000	 1.5062299830e+000	-2.3151784894e-001
 2.8571508367e+000	 1.2198366738e+000	 2.1191230208e-001
 2.8439882570e+000	 1.2502173649e+000	 1.7156581134e-001
 2.8304752715e+000	 1.2805165365e+000	 1.2521021437e-001
 2.8166121949e+000	 1.3107283279e+000	 7.1417252735e-002
 2.8023994690e+000	 1.3408468636e+000	 9.1216711264e-003
 2.7878376631e+000	 1.3708662565e+000	-4.4945900106e-002
 2.7729274756e+000	 1.4007806115e+000	-8.7000054801e-002
 2.7576697343e+000	 1.4305840291e+000	-1.2154771041e-001
 2.7420653971e+000	 1.4602706085e+000	-1.5320471625e-001
 2.7261155527e+000	 1.4898344513e+000	-1.8667802115e-001
 2.7098214207e+000	 1.5192696650e+000	-2.2674636850e-001
 2.8816733683e+000	 1.2303063637e+000	 2.1919752388e-001
 2.8683978159e+000	 1.2609478081e+000	 1.7692281989e-001
 2.8547688504e+000	 1.2915070333e+000	 1.2687360070e-001
 2.8407867890e+000	 1.3219781284e+000	 6.7859615431e-002
 2.8264520771e+000	 1.3523551673e+000	 3.8392701789e-003
 2.8117652893e+000	 1.3826322125e+000	-4.7011858507e-002
 2.7967271297e+000	 1.4128033184e+000	-8.6838748638e-002
 2.7813384333e+000	 1.4428625346e+000	-1.1995346935e-001
 2.7656001662e+000	 1.4728039098e+000	-1.5077860847e-001
 2.7495134265e+000	 1.5026214949e+000	-1.8382931880e-001
 2.7330794442e+000	 1.5323093471e+000	-2.2369380127e-001
 2.5004992089e+000	 1.4019125270e+000	-2.8585094210e-001
 2.4851449573e+000	 1.4289539205e+000	-3.4294402016e-001
 2.4694755356e+000	 1.4558657382e+000	-3.9784763468e-001
 2.4534924364e+000	 1.4826425783e+000	-4.5057576168e-001
 2.4371972736e+000	 1.5092790580e+000	-5.0098830514e-001
 2.4205917828e+000	 1.5357698167e+000	-5.4879514058e-001
 2.4036778204e+000	 1.5621095196e+000	-5.9356189403e-001
 2.3864573637e+000	 1.5882928607e+000	-6.3471740803e-001
 2.3689325102e+000	 1.6143145666e+000	-6.7156283266e-001
 2.3511054772e+000	 1.6401693995e+000	-7.0328226579e-001
 2.3329786009e+000	 1.6658521609e+000	-7.2895485396e-001
 2.5237572325e+000	 1.4149522090e+000	-2.7992656717e-001
 2.5082601655e+000	 1.4422451241e+000	-3.3316866533e-001
 2.4924449970e+000	 1.4694072580e+000	-3.8530760662e-001
 2.4763132334e+000	 1.4964331589e+000	-4.3621661630e-001
 2.4598665036e+000	 1.5233173939e+000	-4.8560001255e-001
 2.4431065592e+000	 1.5500545525e+000	-5.3299802825e-001
 2.4260352741e+000	 1.5766392503e+000	-5.7779348774e-001
 2.4086546438e+000	 1.6030661319e+000	-6.1922028598e-001
 2.3909667855e+000	 1.6293298748e+000	-6.5637360247e-001
 2.3729739370e+000	 1.6554251926e+000	-6.8822176813e-001
 2.3546784563e+000	 1.6813468383e+000	-7.1361968922e-001
 2.5470152560e+000	 1.4279918910e+000	-2.7388609454e-001
 2.5313753737e+000	 1.4555363276e+000	-3.2433628766e-001
 2.5154144584e+000	 1.4829487779e+000	-3.7456942941e-001
 2.4991340303e+000	 1.5102237396e+000	-4.2433912365e-001
 2.4825357335e+000	 1.5373557298e+000	-4.7321500198e-001
 2.4656213356e+000	 1.5643392883e+000	-5.2058832926e-001
 2.4483927278e+000	 1.5911689809e+000	-5.6567958850e-001
 2.4308519240e+000	 1.6178394030e+000	-6.0754798753e-001
 2.4130010609e+000	 1.6443451829e+000	-6.4510281432e-001
 2.3948423969e+000	 1.6706809857e+000	-6.7711655253e-001
 2.3763783116e+000	 1.6968415158e+000	-7.0223965431e-001
 2.5702732795e+000	 1.4410315730e+000	-2.6769639731e-001
 2.5544905819e+000	 1.4688275311e+000	-3.1629541814e-001
 2.5383839198e+000	 1.4964902977e+000	-3.6537838827e-001
 2.5219548273e+000	 1.5240143202e+000	-4.1459971697e-001
 2.5052049635e+000	 1.5513940657e+000	-4.6341449863e-001
 2.4881361121e+000	 1.5786240241e+000	-5.1108491027e-001
 2.4707501815e+000	 1.6056987115e+000	-5.5668871716e-001
 2.4530492042e+000	 1.6326126741e+000	-5.9912982420e-001
 2.4350353362e+000	 1.6593604911e+000	-6.3715079394e-001
 2.4167108567e+000	 1.6859367787e+000	-6.6934723627e-001
 2.3980781670e+000	 1.7123361933e+000	-6.9418395885e-001
 2.5935313031e+000	 1.4540712550e+000	-2.6127204801e-001
 2.5776057902e+000	 1.4821187347e+000	-3.0884804742e-001
 2.5613533813e+000	 1.5100318175e+000	-3.5743878594e-001
 2.5447756243e+000	 1.5378049009e+000	-4.0661920839e-001
 2.5278741934e+000	 1.5654324017e+000	-4.5574927721e-001
 2.5106508885e+000	 1.5929087599e+000	-5.0398117228e-001
 2.4931076352e+000	 1.6202284422e+000	-5.5026873265e-001
 2.4752464844e+000	 1.6473859452e+000	-5.9337907247e-001
 2.4570696116e+000	 1.6743757993e+000	-6.3190628619e-001
 2.4385793165e+000	 1.7011925718e+000	-6.6428714070e-001
 2.4197780224e+000	 1.7278308708e+000	-6.8881863592e-001
 2.6167893266e+000	 1.4671109370e+000	-2.5447816230e-001
 2.6007209984e+000	 1.4954099382e+000	-3.0175247937e-001
 2.5843228427e+000	 1.5235733373e+000	-3.5041682353e-001
 2.5675964213e+000	 1.5515954815e+000	-3.9998571361e-001
 2.5505434234e+000	 1.5794707376e+000	-4.4974264553e-001
 2.5331656649e+000	 1.6071934957e+000	-4.9874810724e-001
 2.5154650889e+000	 1.6347581728e+000	-5.4584997435e-001
 2.4974437645e+000	 1.6621592163e+000	-5.8969621354e-001
 2.4791038869e+000	 1.6893911074e+000	-6.2874980222e-001
 2.4604477764e+000	 1.7164483649e+000	-6.6130575494e-001
 2.4414778778e+000	 1.7433255482e+000	-6.8551012982e-001
 2.6400473501e+000	 1.4801506190e+000	-2.4713323916e-001
 2.6238362066e+000	 1.5087011417e+000	-2.9472618763e-001
 2.6072923041e+000	 1.5371148572e+000	-3.4394349015e-001
 2.5904172183e+000	 1.5653860622e+000	-3.9425759022e-001
 2.5732126533e+000	 1.5935090735e+000	-4.4489344606e-001
 2.5556804414e+000	 1.6214782315e+000	-4.9483737603e-001
 2.5378225426e+000	 1.6492879035e+000	-5.4284842867e-001
 2.5196410447e+000	 1.6769324874e+000	-5.8747219931e-001
 2.5011381623e+000	 1.7044064156e+000	-6.2705699464e-001
 2.4823162362e+000	 1.7317041579e+000	-6.5977222858e-001
 2.4631777331e+000	 1.7588202257e+000	-6.8362891354e-001
 2.6633053737e+000	 1.4931903010e+000	-2.3901199759e-001
 2.6469514149e+000	 1.5219923453e+000	-2.8744867496e-001
 2.6302617655e+000	 1.5506563770e+000	-3.3761746091e-001
 2.6132380153e+000	 1.5791766428e+000	-3.8896638905e-001
 2.5958818832e+000	 1.6075474094e+000	-4.4067907436e-001
 2.5781952178e+000	 1.6357629673e+000	-4.9168440662e-001
 2.5601799963e+000	 1.6638176341e+000	-5.4066891837e-001
 2.5418383249e+000	 1.6917057586e+000	-5.8609174317e-001
 2.5231724376e+000	 1.7194217238e+000	-6.2620205895e-001
 2.5041846960e+000	 1.7469599510e+000	-6.5905889155e-001
 2.4848775885e+000	 1.7743149032e+000	-6.8255313383e-001
 2.6865633972e+000	 1.5062299830e+000	-2.3151784894e-001
 2.6700666231e+000	 1.5352835488e+000	-2.7961354037e-001
 2.6532312270e+000	 1.5641978968e+000	-3.3100800250e-001
 2.6360588123e+000	 1.5929672234e+000	-3.8361981757e-001
 2.6185511132e+000	 1.6215857453e+000	-4.3655851325e-001
 2.6007099942e+000	 1.6500477031e+000	-4.8871151105e-001
 2.5825374500e+000	 1.6783473647e+000	-5.3870831316e-001
 2.5640356051e+000	 1.7064790297e+000	-5.8493663405e-001
 2.5452067129e+000	 1.7344370319e+000	-6.2556115948e-001
 2.5260531559e+000	 1.7622157441e+000	-6.5854479965e-001
 2.5065774439e+000	 1.7898095807e+000	-6.8167228245e-001
 2.7098214207e+000	 1.5192696650e+000	-2.2674636850e-001
 2.6931818313e+000	 1.5485747523e+000	-2.7358278965e-001
 2.6762006884e+000	 1.5777394166e+000	-3.2404984002e-001
 2.6588796093e+000	 1.6067578041e+000	-3.7770471472e-001
 2.6412203431e+000	 1.6356240813e+000	-4.3197538195e-001
 2.6232247706e+000	 1.6643324389e+000	-4.8533102018e-001
 2.6048949037e+000	 1.6928770954e+000	-5.3635876043e-001
 2.5862328852e+000	 1.7212523008e+000	-5.8338907226e-001
 2.5672409883e+000	 1.7494523401e+000	-6.2451587864e-001
 2.5479216157e+000	 1.7774715371e+000	-6.5761930400e-001
 2.5282772993e+000	 1.8053042581e+000	-6.8039089188e-001
 2.7330794442e+000	 1.5323093471e+000	-2.2369380127e-001
 2.7162970396e+000	 1.5618659559e+000	-2.7008873873e-001
 2.6991701498e+000	 1.5912809365e+000	-3.1950005939e-001
 2.6817004063e+000	 1.6205483847e+000	-3.7169915235e-001
 2.6638895731e+000	 1.6496624172e+000	-4.2636099918e-001
 2.6457395471e+000	 1.6786171747e+000	-4.8094843511e-001
 2.6272523575e+000	 1.7074068260e+000	-5.3301093479e-001
 2.6084301654e+000	 1.7360255719e+000	-5.8083502593e-001
 2.5892752636e+000	 1.7644676483e+000	-6.2245668781e-001
 2.5697900756e+000	 1.7927273302e+000	-6.5568564318e-001
 2.5499771547e+000	 1.8207989356e+000	-6.7813225409e-001
 2.3329786009e+000	 1.6658521609e+000	-7.2895485396e-001
 2.3145543349e+000	 1.6913576940e+000	-7.5473854754e-001
 2.2958352475e+000	 1.7166808857e+000	-7.8644381094e-001
 2.2768240225e+000	 1.7418166714e+000	-8.2252984076e-001
 2.2575234588e+000	 1.7667600385e+000	-8.6143317658e-001
 2.2379364689e+000	 1.7915060304e+000	-9.0158662886e-001
 2.2180660781e+000	 1.8160497488e+000	-9.4143886249e-001
 2.1979154223e+000	 1.8403863575e+000	-9.7947447538e-001
 2.1774877469e+000	 1.8645110856e+000	-1.0142344061e+000
 2.1567864049e+000	 1.8884192298e+000	-1.0443365008e+000
 2.1358148552e+000	 1.9121061584e+000	-1.0684960660e+000
 2.3546784563e+000	 1.6813468383e+000	-7.1361968922e-001
 2.3360828197e+000	 1.7070896074e+000	-7.3880280648e-001
 2.3171896195e+000	 1.7326483391e+000	-7.6987825831e-001
 2.2980015644e+000	 1.7580179215e+000	-8.0539941884e-001
 2.2785214793e+000	 1.7831932957e+000	-8.4389136625e-001
 2.2587523040e+000	 1.8081694587e+000	-8.8387087463e-001
 2.2386970916e+000	 1.8329414669e+000	-9.2386710532e-001
 2.2183590075e+000	 1.8575044390e+000	-9.6244282726e-001
 2.1977413270e+000	 1.8818535596e+000	-9.9821599064e-001
 2.1768474346e+000	 1.9059840820e+000	-1.0298814734e+000
 2.1556808212e+000	 1.9298913311e+000	-1.0562328176e+000
 2.3763783116e+000	 1.6968415158e+000	-7.0223965431e-001
 2.3576113045e+000	 1.7228215208e+000	-7.2677311868e-001
 2.3385439915e+000	 1.7486157924e+000	-7.5711858308e-001
 2.3191791063e+000	 1.7742191716e+000	-7.9195745520e-001
 2.2995194998e+000	 1.7996265529e+000	-8.2993656339e-001
 2.2795681390e+000	 1.8248328871e+000	-8.6968921323e-001
 2.2593281052e+000	 1.8498331850e+000	-9.0985698950e-001
 2.2388025927e+000	 1.8746225205e+000	-9.4911212322e-001
 2.2179949072e+000	 1.8991960337e+000	-9.8618023740e-001
 2.1969084643e+000	 1.9235489341e+000	-1.0198632808e+000
 2.1755467871e+000	 1.9476765037e+000	-1.0490624559e+000
 2.3980781670e+000	 1.7123361933e+000	-6.9418395885e-001
 2.3791397893e+000	 1.7385534342e+000	-7.1800894036e-001
 2.3598983634e+000	 1.7645832457e+000	-7.4750919478e-001
 2.3403566481e+000	 1.7904204218e+000	-7.8152656449e-001
 2.3205175204e+000	 1.8160598101e+000	-8.1886137946e-001
 2.3003839741e+000	 1.8414963155e+000	-8.5829458360e-001
 2.2799591187e+000	 1.8667249031e+000	-8.9861065472e-001
 2.2592461779e+000	 1.8917406020e+000	-9.3862112743e-001
 2.2382484874e+000	 1.9165385078e+000	-9.7718852185e-001
 2.2169694940e+000	 1.9411137862e+000	-1.0132504764e+000
 2.1954127531e+000	 1.9654616763e+000	-1.0458438798e+000
 2.4197780224e+000	 1.7278308708e+000	-6.8881863592e-001
 2.4006682741e+000	 1.7542853477e+000	-7.1187071077e-001
 2.3812527354e+000	 1.7805506991e+000	-7.4039990154e-001
 2.3615341900e+000	 1.8066216719e+000	-7.7343944949e-001
 2.3415155409e+000	 1.8324930672e+000	-8.0997349528e-001
 2.3211998091e+000	 1.8581597438e+000	-8.4896028450e-001
 2.3005901323e+000	 1.8836166213e+000	-8.8935621743e-001
 2.2796897631e+000	 1.9088586835e+000	-9.3014054153e-001
 2.2585020676e+000	 1.9338809819e+000	-9.7034047836e-001
 2.2370305238e+000	 1.9586786384e+000	-1.0090565718e+000
 2.2152787191e+000	 1.9832468489e+000	-1.0454880409e+000
 2.4414778778e+000	 1.7433255482e+000	-6.8551012982e-001
 2.4221967589e+000	 1.7700172611e+000	-7.0772356143e-001
 2.4026071074e+000	 1.7965181524e+000	-7.3514972727e-001
 2.3827117319e+000	 1.8228229220e+000	-7.6704281084e-001
 2.3625135614e+000	 1.8489263244e+000	-8.0259964586e-001
 2.3420156442e+000	 1.8748231722e+000	-8.4098401498e-001
 2.3212211458e+000	 1.9005083394e+000	-8.8135184563e-001
 2.3001333483e+000	 1.9259767650e+000	-9.2287709037e-001
 2.2787556478e+000	 1.9512234559e+000	-9.6477807183e-001
 2.2570915535e+000	 1.9762434905e+000	-1.0063440672e+000
 2.2351446850e+000	 2.0010320215e+000	-1.0469518356e+000
 2.4631777331e+000	 1.7588202257e+000	-6.8362891354e-001
 2.4437252437e+000	 1.7857491745e+000	-7.0494105561e-001
 2.4239614793e+000	 1.8124856058e+000	-7.3113076039e-001
 2.4038892737e+000	 1.8390241722e+000	-7.6170129015e-001
 2.3835115820e+000	 1.8653595816e+000	-7.9608964129e-001
 2.3628314792e+000	 1.8914866005e+000	-8.3369195451e-001
 2.3418521594e+000	 1.9174000575e+000	-8.7388987780e-001
 2.3205769335e+000	 1.9430948465e+000	-9.1607765744e-001
 2.2990092280e+000	 1.9685659300e+000	-9.5968972542e-001
 2.2771525832e+000	 1.9938083427e+000	-1.0042285456e+000
 2.2550106510e+000	 2.0188171941e+000	-1.0459910197e+000
 2.4848775885e+000	 1.7743149032e+000	-6.8255313383e-001
 2.4652537285e+000	 1.8014810879e+000	-7.0290895612e-001
 2.4453158513e+000	 1.8284530591e+000	-7.2773203191e-001
 2.4250668156e+000	 1.8552254223e+000	-7.5680144440e-001
 2.4045096025e+000	 1.8817928388e+000	-7.8982042138e-001
 2.3836473142e+000	 1.9081500289e+000	-8.2644288017e-001
 2.3624831729e+000	 1.9342917756e+000	-8.6630098308e-001
 2.3410205187e+000	 1.9602129280e+000	-9.0903346676e-001
 2.3192628082e+000	 1.9859084041e+000	-9.5431450113e-001
 2.2972136130e+000	 2.0113731948e+000	-1.0006521430e+000
 2.2748766169e+000	 2.0366023667e+000	-1.0392589385e+000
 2.5065774439e+000	 1.7898095807e+000	-6.8167228245e-001
 2.4867822132e+000	 1.8172130013e+000	-7.0102901969e-001
 2.4666702233e+000	 1.8444205124e+000	-7.2436342133e-001
 2.4462443575e+000	 1.8714266724e+000	-7.5175574964e-001
 2.4255076230e+000	 1.8982260959e+000	-7.8320014211e-001
 2.4044631493e+000	 1.9248134572e+000	-8.1863231877e-001
 2.3831141864e+000	 1.9511834937e+000	-8.5795836039e-001
 2.3614641039e+000	 1.9773310094e+000	-9.0108430857e-001
 2.3395163884e+000	 2.0032508782e+000	-9.4784369634e-001
 2.3172746427e+000	 2.0289380470e+000	-9.9068648560e-001
 2.2947425829e+000	 2.0543875393e+000	-1.0261805630e+000
 2.5282772993e+000	 1.8053042581e+000	-6.8039089188e-001
 2.5083106980e+000	 1.8329449147e+000	-6.9872281643e-001
 2.4880245952e+000	 1.8603879658e+000	-7.2045958848e-001
 2.4674218994e+000	 1.8876279226e+000	-7.4600663245e-001
 2.4465056436e+000	 1.9146593531e+000	-7.7567229193e-001
 2.4252789843e+000	 1.9414768856e+000	-8.0969673174e-001
 2.4037452000e+000	 1.9680752119e+000	-8.4828197405e-001
 2.3819076891e+000	 1.9944490909e+000	-8.9162280614e-001
 2.3597699686e+000	 2.0205933522e+000	-9.3587702947e-001
 2.3373356724e+000	 2.0465028991e+000	-9.7351608072e-001
 2.3146085489e+000	 2.0721727119e+000	-1.0062612090e+000
 2.5499771547e+000	 1.8207989356e+000	-6.7813225409e-001
 2.5298391828e+000	 1.8486768282e+000	-6.9543557280e-001
 2.5093789672e+000	 1.8763554191e+000	-7.1548392991e-001
 2.4885994412e+000	 1.9038291727e+000	-7.3903052728e-001
 2.4675036641e+000	 1.9310926103e+000	-7.6671983609e-001
 2.4460948194e+000	 1.9581403139e+000	-7.9911773094e-001
 2.4243762135e+000	 1.9849669300e+000	-8.3674282373e-001
 2.4023512743e+000	 2.0115671724e+000	-8.7879088108e-001
 2.3800235488e+000	 2.0379358263e+000	-9.1612097050e-001
 2.3573967021e+000	 2.0640677512e+000	-9.4876890755e-001
 2.3344745148e+000	 2.0899578845e+000	-9.7908283233e-001
 2.1358148552e+000	 1.9121061584e+000	-1.0684960660e+000
 2.1145798665e+000	 1.9355638122e+000	-1.0872317308e+000
 2.0930819779e+000	 1.9587912834e+000	-1.1041108791e+000
 2.0713249545e+000	 1.9817841752e+000	-1.1225542955e+000
 2.0493126586e+000	 2.0045381730e+000	-1.1458822953e+000
 2.0270490478e+000	 2.0270490478e+000	-1.1718646566e+000
 2.0045381730e+000	 2.0493126586e+000	-1.2020173199e+000
 1.9817841752e+000	 2.0713249545e+000	-1.2311175506e+000
 1.9587912834e+000	 2.0930819779e+000	-1.2420329630e+000
 1.9355638122e+000	 2.1145798665e+000	-1.2355925409e+000
 1.9121061584e+000	 2.1358148552e+000	-1.2130328736e+000
 2.1556808212e+000	 1.9298913311e+000	-1.0562328176e+000
 2.1342483183e+000	 1.9535671727e+000	-1.0770666949e+000
 2.1125504704e+000	 1.9770106908e+000	-1.0950092124e+000
 2.0905910772e+000	 2.0002174476e+000	-1.1132377046e+000
 2.0683740371e+000	 2.0231830883e+000	-1.1302825943e+000
 2.0459033447e+000	 2.0459033447e+000	-1.1455994196e+000
 2.0231830883e+000	 2.0683740371e+000	-1.1634904032e+000
 2.0002174476e+000	 2.0905910772e+000	-1.1881657326e+000
 1.9770106908e+000	 2.1125504704e+000	-1.2077926257e+000
 1.9535671727e+000	 2.1342483183e+000	-1.2079079330e+000
 1.9298913311e+000	 2.1556808212e+000	-1.1894504886e+000
 2.1755467871e+000	 1.9476765037e+000	-1.0490624559e+000
 2.1539167702e+000	 1.9715705332e+000	-1.0729171235e+000
 2.1320189628e+000	 1.9952300982e+000	-1.0931118782e+000
 2.1098571999e+000	 2.0186507199e+000	-1.1093992785e+000
 2.0874354157e+000	 2.0418280036e+000	-1.1188539596e+000
 2.0647576416e+000	 2.0647576416e+000	-1.1253279652e+000
 2.0418280036e+000	 2.0874354157e+000	-1.1328087674e+000
 2.0186507199e+000	 2.1098571999e+000	-1.1451966614e+000
 1.9952300982e+000	 2.1320189628e+000	-1.1655971959e+000
 1.9715705332e+000	 2.1539167702e+000	-1.1746262335e+000
 1.9476765037e+000	 2.1755467871e+000	-1.1624446395e+000
 2.1954127531e+000	 1.9654616763e+000	-1.0458438798e+000
 2.1735852220e+000	 1.9895738937e+000	-1.0735323170e+000
 2.1514874552e+000	 2.0134495056e+000	-1.0954305636e+000
 2.1291233226e+000	 2.0370839923e+000	-1.1068179986e+000
 2.1064967943e+000	 2.0604729190e+000	-1.1104089935e+000
 2.0836119385e+000	 2.0836119385e+000	-1.1098833408e+000
 2.0604729190e+000	 2.1064967943e+000	-1.1088526367e+000
 2.0370839923e+000	 2.1291233226e+000	-1.1108476082e+000
 2.0134495056e+000	 2.1514874552e+000	-1.1193058078e+000
 1.9895738937e+000	 2.1735852220e+000	-1.1341349014e+000
 1.9654616763e+000	 2.1954127531e+000	-1.1305573981e+000
 2.2152787191e+000	 1.9832468489e+000	-1.0454880409e+000
 2.1932536739e+000	 2.0075772542e+000	-1.0771881941e+000
 2.1709559476e+000	 2.0316689130e+000	-1.0966216915e+000
 2.1483894453e+000	 2.0555172647e+000	-1.1044214168e+000
 2.1255581729e+000	 2.0791178343e+000	-1.1038724583e+000
 2.1024662354e+000	 2.1024662354e+000	-1.0982117559e+000
 2.0791178343e+000	 2.1255581729e+000	-1.0906154605e+000
 2.0555172647e+000	 2.1483894453e+000	-1.0841865761e+000
 2.0316689130e+000	 2.1709559476e+000	-1.0819429741e+000
 2.0075772542e+000	 2.1932536739e+000	-1.0868058634e+000
 1.9832468489e+000	 2.2152787191e+000	-1.0924825721e+000
 2.2351446850e+000	 2.0010320215e+000	-1.0469518356e+000
 2.2129221257e+000	 2.0255806147e+000	-1.0783686563e+000
 2.1904244401e+000	 2.0498883204e+000	-1.0955316213e+000
 2.1676555679e+000	 2.0739505371e+000	-1.1012427174e+000
 2.1446195514e+000	 2.0977627496e+000	-1.0982765167e+000
 2.1213205323e+000	 2.1213205323e+000	-1.0893677462e+000
 2.0977627496e+000	 2.1446195514e+000	-1.0771990474e+000
 2.0739505371e+000	 2.1676555679e+000	-1.0643890189e+000
 2.0498883204e+000	 2.1904244401e+000	-1.0534806335e+000
 2.0255806147e+000	 2.2129221257e+000	-1.0469301153e+000
 2.0010320215e+000	 2.2351446850e+000	-1.0470963632e+000
 2.2550106510e+000	 2.0188171941e+000	-1.0459910197e+000
 2.2325905776e+000	 2.0435839752e+000	-1.0752478599e+000
 2.2098929325e+000	 2.0681077278e+000	-1.0913151056e+000
 2.1869216906e+000	 2.0923838094e+000	-1.0964161755e+000
 2.1636809300e+000	 2.1164076649e+000	-1.0927560711e+000
 2.1401748292e+000	 2.1401748292e+000	-1.0825094351e+000
 2.1164076649e+000	 2.1636809300e+000	-1.0678087953e+000
 2.0923838094e+000	 2.1869216906e+000	-1.0507330884e+000
 2.0681077278e+000	 2.2098929325e+000	-1.0332965604e+000
 2.0435839752e+000	 2.2325905776e+000	-1.0174381310e+000
 2.0188171941e+000	 2.2550106510e+000	-1.0050113113e+000
 2.2748766169e+000	 2.0366023667e+000	-1.0392589385e+000
 2.2522590294e+000	 2.0615873357e+000	-1.0671120962e+000
 2.2293614249e+000	 2.0863271352e+000	-1.0832212868e+000
 2.2061878133e+000	 2.1108170818e+000	-1.0891727034e+000
 2.1827423086e+000	 2.1350525802e+000	-1.0865441937e+000
 2.1590291261e+000	 2.1590291261e+000	-1.0768938894e+000
 2.1350525802e+000	 2.1827423086e+000	-1.0617490143e+000
 2.1108170818e+000	 2.2061878133e+000	-1.0425949688e+000
 2.0863271352e+000	 2.2293614249e+000	-1.0208647909e+000
 2.0615873357e+000	 2.2522590294e+000	-9.9792908447e-001
 2.0366023667e+000	 2.2748766169e+000	-9.7508650637e-001
 2.2947425829e+000	 2.0543875393e+000	-1.0261805630e+000
 2.2719274813e+000	 2.0795906962e+000	-1.0533350909e+000
 2.2488299173e+000	 2.1045465426e+000	-1.0705894766e+000
 2.2254539360e+000	 2.1292503542e+000	-1.0788354810e+000
 2.2018036872e+000	 2.1536974956e+000	-1.0789676435e+000
 2.1778834230e+000	 2.1778834230e+000	-1.0718725604e+000
 2.1536974956e+000	 2.2018036872e+000	-1.0584183341e+000
 2.1292503542e+000	 2.2254539360e+000	-1.0394442945e+000
 2.1045465426e+000	 2.2488299173e+000	-1.0157510956e+000
 2.0795906962e+000	 2.2719274813e+000	-9.8809128145e-001
 2.0543875393e+000	 2.2947425829e+000	-9.5716041563e-001
 2.3146085489e+000	 2.0721727119e+000	-1.0062612090e+000
 2.2915959331e+000	 2.0975940567e+000	-1.0333740359e+000
 2.2682984098e+000	 2.1227659500e+000	-1.0528450094e+000
 2.2447200587e+000	 2.1476836265e+000	-1.0648156639e+000
 2.2208650657e+000	 2.1723424109e+000	-1.0694424641e+000
 2.1967377199e+000	 2.1967377199e+000	-1.0668868083e+000
 2.1723424109e+000	 2.2208650657e+000	-1.0573051930e+000
 2.1476836265e+000	 2.2447200587e+000	-1.0408396447e+000
 2.1227659500e+000	 2.2682984098e+000	-1.0176085235e+000
 2.0975940567e+000	 2.2915959331e+000	-9.8769779867e-001
 2.0721727119e+000	 2.3146085489e+000	-9.5115288997e-001
 2.3344745148e+000	 2.0899578845e+000	-9.7908283233e-001
 2.3112643850e+000	 2.1155974172e+000	-1.0067656834e+000
 2.2877669022e+000	 2.1409853574e+000	-1.0294951660e+000
 2.2639861814e+000	 2.1661168989e+000	-1.0466081661e+000
 2.2399264443e+000	 2.1909873262e+000	-1.0574696575e+000
 2.2155920168e+000	 2.2155920168e+000	-1.0614635024e+000
 2.1909873262e+000	 2.2399264443e+000	-1.0579834025e+000
 2.1661168989e+000	 2.2639861814e+000	-1.0464241113e+000
 2.1409853574e+000	 2.2877669022e+000	-1.0261730148e+000
 2.1155974172e+000	 2.3112643850e+000	-9.9660218408e-001
 2.0899578845e+000	 2.3344745148e+000	-9.5706099740e-001
 1.9121061584e+000	 2.1358148552e+000	-1.2130328736e+000
 1.8884192298e+000	 2.1567864049e+000	-1.1897778421e+000
 1.8645110856e+000	 2.1774877469e+000	-1.1786987728e+000
 1.8403863575e+000	 2.1979154223e+000	-1.1770318169e+000
 1.8160497488e+000	 2.2180660781e+000	-1.1819902194e+000
 1.7915060304e+000	 2.2379364689e+000	-1.1907845425e+000
 1.7667600385e+000	 2.2575234588e+000	-1.2006424830e+000
 1.7418166714e+000	 2.2768240225e+000	-1.2088281501e+000
 1.7166808857e+000	 2.2958352475e+000	-1.2126606742e+000
 1.6913576940e+000	 2.3145543349e+000	-1.2095320262e+000
 1.6658521609e+000	 2.3329786009e+000	-1.1969239280e+000
 1.9298913311e+000	 2.1556808212e+000	-1.1894504886e+000
 1.9059840820e+000	 2.1768474346e+000	-1.1685638311e+000
 1.8818535596e+000	 2.1977413270e+000	-1.1591154989e+000
 1.8575044390e+000	 2.2183590075e+000	-1.1584636968e+000
 1.8329414669e+000	 2.2386970916e+000	-1.1639439521e+000
 1.8081694587e+000	 2.2587523040e+000	-1.1728901322e+000
 1.7831932957e+000	 2.2785214793e+000	-1.1826550296e+000
 1.7580179215e+000	 2.2980015644e+000	-1.1906303769e+000
 1.7326483391e+000	 2.3171896195e+000	-1.1942661546e+000
 1.7070896074e+000	 2.3360828197e+000	-1.1910890638e+000
 1.6813468383e+000	 2.3546784563e+000	-1.1787200404e+000
 1.9476765037e+000	 2.1755467871e+000	-1.1624446395e+000
 1.9235489341e+000	 2.1969084643e+000	-1.1458008967e+000
 1.8991960337e+000	 2.2179949072e+000	-1.1395036120e+000
 1.8746225205e+000	 2.2388025927e+000	-1.1410653422e+000
 1.8498331850e+000	 2.2593281052e+000	-1.1479752065e+000
 1.8248328871e+000	 2.2795681390e+000	-1.1577206915e+000
 1.7996265529e+000	 2.2995194998e+000	-1.1678090012e+000
 1.7742191716e+000	 2.3191791063e+000	-1.1757878048e+000
 1.7486157924e+000	 2.3385439915e+000	-1.1792652418e+000
 1.7228215208e+000	 2.3576113045e+000	-1.1759290460e+000
 1.6968415158e+000	 2.3763783116e+000	-1.1635646629e+000
 1.9654616763e+000	 2.1954127531e+000	-1.1305573981e+000
 1.9411137862e+000	 2.2169694940e+000	-1.1201908981e+000
 1.9165385078e+000	 2.2382484874e+000	-1.1187016728e+000
 1.8917406020e+000	 2.2592461779e+000	-1.1237876724e+000
 1.8667249031e+000	 2.2799591187e+000	-1.1331216894e+000
 1.8414963155e+000	 2.3003839741e+000	-1.1443739480e+000
 1.8160598101e+000	 2.3205175204e+000	-1.1552342172e+000
 1.7904204218e+000	 2.3403566481e+000	-1.1634332935e+000
 1.7645832457e+000	 2.3598983634e+000	-1.1667637014e+000
 1.7385534342e+000	 2.3791397893e+000	-1.1630994723e+000
 1.7123361933e+000	 2.3980781670e+000	-1.1504148635e+000
 1.9832468489e+000	 2.2152787191e+000	-1.0924825721e+000
 1.9586786384e+000	 2.2370305238e+000	-1.0905844215e+000
 1.9338809819e+000	 2.2585020676e+000	-1.0956946652e+000
 1.9088586835e+000	 2.2796897631e+000	-1.1057264531e+000
 1.8836166213e+000	 2.3005901323e+000	-1.1185651239e+000
 1.8581597438e+000	 2.3211998091e+000	-1.1320915804e+000
 1.8324930672e+000	 2.3415155409e+000	-1.1442051686e+000
 1.8066216719e+000	 2.3615341900e+000	-1.1528458961e+000
 1.7805506991e+000	 2.3812527354e+000	-1.1560158341e+000
 1.7542853477e+000	 2.4006682741e+000	-1.1517995526e+000
 1.7278308708e+000	 2.4197780224e+000	-1.1383834481e+000
 2.0010320215e+000	 2.2351446850e+000	-1.0470963632e+000
 1.9762434905e+000	 2.2570915535e+000	-1.0559768135e+000
 1.9512234559e+000	 2.2787556478e+000	-1.0696103069e+000
 1.9259767650e+000	 2.3001333483e+000	-1.0861188518e+000
 1.9005083394e+000	 2.3212211458e+000	-1.1036280167e+000
 1.8748231722e+000	 2.3420156442e+000	-1.1202561651e+000
 1.8489263244e+000	 2.3625135614e+000	-1.1341381050e+000
 1.8228229220e+000	 2.3827117319e+000	-1.1434480503e+000
 1.7965181524e+000	 2.4026071074e+000	-1.1464217299e+000
 1.7700172611e+000	 2.4221967589e+000	-1.1413774873e+000
 1.7433255482e+000	 2.4414778778e+000	-1.1267362215e+000
 2.0188171941e+000	 2.2550106510e+000	-1.0050113113e+000
 1.9938083427e+000	 2.2771525832e+000	-1.0155042681e+000
 1.9685659300e+000	 2.2990092280e+000	-1.0397154016e+000
 1.9430948465e+000	 2.3205769335e+000	-1.0643400266e+000
 1.9174000575e+000	 2.3418521594e+000	-1.0877704522e+000
 1.8914866005e+000	 2.3628314792e+000	-1.1083881410e+000
 1.8653595816e+000	 2.3835115820e+000	-1.1245881383e+000
 1.8390241722e+000	 2.4038892737e+000	-1.1348027844e+000
 1.8124856058e+000	 2.4239614793e+000	-1.1375245412e+000
 1.7857491745e+000	 2.4437252437e+000	-1.1313277653e+000
 1.7588202257e+000	 2.4631777331e+000	-1.1148892732e+000
 2.0366023667e+000	 2.2748766169e+000	-9.7508650637e-001
 2.0113731948e+000	 2.2972136130e+000	-9.7283897943e-001
 1.9859084041e+000	 2.3192628082e+000	-1.0054122314e+000
 1.9602129280e+000	 2.3410205187e+000	-1.0398997457e+000
 1.9342917756e+000	 2.3624831729e+000	-1.0705869095e+000
 1.9081500289e+000	 2.3836473142e+000	-1.0961427952e+000
 1.8817928388e+000	 2.4045096025e+000	-1.1152463628e+000
 1.8552254223e+000	 2.4250668156e+000	-1.1266109384e+000
 1.8284530591e+000	 2.4453158513e+000	-1.1290077688e+000
 1.8014810879e+000	 2.4652537285e+000	-1.1212884815e+000
 1.7743149032e+000	 2.4848775885e+000	-1.1024062866e+000
 2.0543875393e+000	 2.2947425829e+000	-9.5716041563e-001
 2.0289380470e+000	 2.3172746427e+000	-9.4292557892e-001
 2.0032508782e+000	 2.3395163884e+000	-9.6660317662e-001
 1.9773310094e+000	 2.3614641039e+000	-1.0124390361e+000
 1.9511834937e+000	 2.3831141864e+000	-1.0518031035e+000
 1.9248134572e+000	 2.4044631493e+000	-1.0833072649e+000
 1.8982260959e+000	 2.4255076230e+000	-1.1059369899e+000
 1.8714266724e+000	 2.4462443575e+000	-1.1187083991e+000
 1.8444205124e+000	 2.4666702233e+000	-1.1206925641e+000
 1.8172130013e+000	 2.4867822132e+000	-1.1110386705e+000
 1.7898095807e+000	 2.5065774439e+000	-1.0889958700e+000
 2.0721727119e+000	 2.3146085489e+000	-9.5115288997e-001
 2.0465028991e+000	 2.3373356724e+000	-9.2712773301e-001
 2.0205933522e+000	 2.3597699686e+000	-9.3674091842e-001
 1.9944490909e+000	 2.3819076891e+000	-9.8172685964e-001
 1.9680752119e+000	 2.4037452000e+000	-1.0312728457e+000
 1.9414768856e+000	 2.4252789843e+000	-1.0697975577e+000
 1.9146593531e+000	 2.4465056436e+000	-1.0966144962e+000
 1.8876279226e+000	 2.4674218994e+000	-1.1110633468e+000
 1.8603879658e+000	 2.4880245952e+000	-1.1125350443e+000
 1.8329449147e+000	 2.5083106980e+000	-1.1004956567e+000
 1.8053042581e+000	 2.5282772993e+000	-1.0745089074e+000
 2.0899578845e+000	 2.3344745148e+000	-9.5706099740e-001
 2.0640677512e+000	 2.3573967021e+000	-9.2559143709e-001
 2.0379358263e+000	 2.3800235488e+000	-9.2296310440e-001
 2.0115671724e+000	 2.4023512743e+000	-9.5245671069e-001
 1.9849669300e+000	 2.4243762135e+000	-1.0089749262e+000
 1.9581403139e+000	 2.4460948194e+000	-1.0556555863e+000
 1.9310926103e+000	 2.4675036641e+000	-1.0873607857e+000
 1.9038291727e+000	 2.4885994412e+000	-1.1037735156e+000
 1.8763554191e+000	 2.5093789672e+000	-1.1046236196e+000
 1.8486768282e+000	 2.5298391828e+000	-1.0897124195e+000
 1.8207989356e+000	 2.5499771547e+000	-1.0589359292e+000
 1.6658521609e+000	 2.3329786009e+000	-1.1969239280e+000
 1.6401693995e+000	 2.3511054772e+000	-1.1790491048e+000
 1.6143145666e+000	 2.3689325102e+000	-1.1601758287e+000
 1.5882928607e+000	 2.3864573637e+000	-1.1380609348e+000
 1.5621095196e+000	 2.4036778204e+000	-1.1106239103e+000
 1.5357698167e+000	 2.4205917828e+000	-1.0759576524e+000
 1.5092790580e+000	 2.4371972736e+000	-1.0323377736e+000
 1.4826425783e+000	 2.4534924364e+000	-9.7823040468e-001
 1.4558657382e+000	 2.4694755356e+000	-9.1229845743e-001
 1.4289539205e+000	 2.4851449573e+000	-8.3340632019e-001
 1.4019125270e+000	 2.5004992089e+000	-7.4062297179e-001
 1.6813468383e+000	 2.3546784563e+000	-1.1787200404e+000
 1.6554251926e+000	 2.3729739370e+000	-1.1617097552e+000
 1.6293298748e+000	 2.3909667855e+000	-1.1442943251e+000
 1.6030661319e+000	 2.4086546438e+000	-1.1238359501e+000
 1.5766392503e+000	 2.4260352741e+000	-1.0978839266e+000
 1.5500545525e+000	 2.4431065592e+000	-1.0641865232e+000
 1.5233173939e+000	 2.4598665036e+000	-1.0207012846e+000
 1.4964331589e+000	 2.4763132334e+000	-9.6560371061e-001
 1.4694072580e+000	 2.4924449970e+000	-8.9729426966e-001
 1.4422451241e+000	 2.5082601655e+000	-8.1440371667e-001
 1.4149522090e+000	 2.5237572325e+000	-7.1579669952e-001
 1.6968415158e+000	 2.3763783116e+000	-1.1635646629e+000
 1.6706809857e+000	 2.3948423969e+000	-1.1472241961e+000
 1.6443451829e+000	 2.4130010609e+000	-1.1312968769e+000
 1.6178394030e+000	 2.4308519240e+000	-1.1128061135e+000
 1.5911689809e+000	 2.4483927278e+000	-1.0889849920e+000
 1.5643392883e+000	 2.4656213356e+000	-1.0572892262e+000
 1.5373557298e+000	 2.4825357335e+000	-1.0154084156e+000
 1.5102237396e+000	 2.4991340303e+000	-9.6127555864e-001
 1.4829487779e+000	 2.5154144584e+000	-8.9307477424e-001
 1.4555363276e+000	 2.5313753737e+000	-8.0924720121e-001
 1.4279918910e+000	 2.5470152560e+000	-7.0849505712e-001
 1.7123361933e+000	 2.3980781670e+000	-1.1504148635e+000
 1.6859367787e+000	 2.4167108567e+000	-1.1344185574e+000
 1.6593604911e+000	 2.4350353362e+000	-1.1198292626e+000
 1.6326126741e+000	 2.4530492042e+000	-1.1033856887e+000
 1.6056987115e+000	 2.4707501815e+000	-1.0820570177e+000
 1.5786240241e+000	 2.4881361121e+000	-1.0530568836e+000
 1.5513940657e+000	 2.5052049635e+000	-1.0138555454e+000
 1.5240143202e+000	 2.5219548273e+000	-9.6219019207e-001
 1.4964902977e+000	 2.5383839198e+000	-8.9607333364e-001
 1.4688275311e+000	 2.5544905819e+000	-8.1379924228e-001
 1.4410315730e+000	 2.5702732795e+000	-7.1394842491e-001
 1.7278308708e+000	 2.4197780224e+000	-1.1383834481e+000
 1.7011925718e+000	 2.4385793165e+000	-1.1222798651e+000
 1.6743757993e+000	 2.4570696116e+000	-1.1087047472e+000
 1.6473859452e+000	 2.4752464844e+000	-1.0941644965e+000
 1.6202284422e+000	 2.4931076352e+000	-1.0754150666e+000
 1.5929087599e+000	 2.5106508885e+000	-1.0494769334e+000
 1.5654324017e+000	 2.5278741934e+000	-1.0136481431e+000
 1.5378049009e+000	 2.5447756243e+000	-9.6551537238e-001
 1.5100318175e+000	 2.5613533813e+000	-9.0296294984e-001
 1.4821187347e+000	 2.5776057902e+000	-8.2417980183e-001
 1.4540712550e+000	 2.5935313031e+000	-7.2766430150e-001
 1.7433255482e+000	 2.4414778778e+000	-1.1267362215e+000
 1.7164483649e+000	 2.4604477764e+000	-1.1099532287e+000
 1.6893911074e+000	 2.4791038869e+000	-1.0969011279e+000
 1.6621592163e+000	 2.4974437645e+000	-1.0839047455e+000
 1.6347581728e+000	 2.5154650889e+000	-1.0675558951e+000
 1.6071934957e+000	 2.5331656649e+000	-1.0447293032e+000
 1.5794707376e+000	 2.5505434234e+000	-1.0125964962e+000
 1.5515954815e+000	 2.5675964213e+000	-9.6863757888e-001
 1.5235733373e+000	 2.5843228427e+000	-9.1065085122e-001
 1.4954099382e+000	 2.6007209984e+000	-8.3676022288e-001
 1.4671109370e+000	 2.6167893266e+000	-7.4542040324e-001
 1.7588202257e+000	 2.4631777331e+000	-1.1148892732e+000
 1.7317041579e+000	 2.4823162362e+000	-1.0967390620e+000
 1.7044064156e+000	 2.5011381623e+000	-1.0835578237e+000
 1.6769324874e+000	 2.5196410447e+000	-1.0715379226e+000
 1.6492879035e+000	 2.5378225426e+000	-1.0571545736e+000
 1.6214782315e+000	 2.5556804414e+000	-1.0371826892e+000
 1.5935090735e+000	 2.5732126533e+000	-1.0087115707e+000
 1.5653860622e+000	 2.5904172183e+000	-9.6915737280e-001
 1.5371148572e+000	 2.6072923041e+000	-9.1627328050e-001
 1.5087011417e+000	 2.6238362066e+000	-8.4815735934e-001
 1.4801506190e+000	 2.6400473501e+000	-7.6325805191e-001
 1.7743149032e+000	 2.4848775885e+000	-1.1024062866e+000
 1.7469599510e+000	 2.5041846960e+000	-1.0820903351e+000
 1.7194217238e+000	 2.5231724376e+000	-1.0679730077e+000
 1.6917057586e+000	 2.5418383249e+000	-1.0561617413e+000
 1.6638176341e+000	 2.5601799963e+000	-1.0430611840e+000
 1.6357629673e+000	 2.5781952178e+000	-1.0253909320e+000
 1.6075474094e+000	 2.5958818832e+000	-1.0002009955e+000
 1.5791766428e+000	 2.6132380153e+000	-9.6488491563e-001
 1.5506563770e+000	 2.6302617655e+000	-9.1719047154e-001
 1.5219923453e+000	 2.6469514149e+000	-8.5522793333e-001
 1.4931903010e+000	 2.6633053737e+000	-7.7747583288e-001
 1.7898095807e+000	 2.5065774439e+000	-1.0889958700e+000
 1.7622157441e+000	 2.5260531559e+000	-1.0656098548e+000
 1.7344370319e+000	 2.5452067129e+000	-1.0496007790e+000
 1.7064790297e+000	 2.5640356051e+000	-1.0370371432e+000
 1.6783473647e+000	 2.5825374500e+000	-1.0242975866e+000
 1.6500477031e+000	 2.6007099942e+000	-1.0080894852e+000
 1.6215857453e+000	 2.6185511132e+000	-9.8546516279e-001
 1.5929672234e+000	 2.6360588123e+000	-9.5383563248e-001
 1.5641978968e+000	 2.6532312270e+000	-9.1098180341e-001
 1.5352835488e+000	 2.6700666231e+000	-8.5503834912e-001
 1.5062299830e+000	 2.6865633972e+000	-7.8388667695e-001
 1.8053042581e+000	 2.5282772993e+000	-1.0745089074e+000
 1.7774715371e+000	 2.5479216157e+000	-1.0470475726e+000
 1.7494523401e+000	 2.5672409883e+000	-1.0280483712e+000
 1.7212523008e+000	 2.5862328852e+000	-1.0135853497e+000
 1.6928770954e+000	 2.6048949037e+000	-1.0000542551e+000
 1.6643324389e+000	 2.6232247706e+000	-9.8419196934e-001
 1.6356240813e+000	 2.6412203431e+000	-9.6309343840e-001
 1.6067578041e+000	 2.6588796093e+000	-9.3422601172e-001
 1.5777394166e+000	 2.6762006884e+000	-8.9528946900e-001
 1.5485747523e+000	 2.6931818313e+000	-8.4407573711e-001
 1.5192696650e+000	 2.7098214207e+000	-7.7975122134e-001
 1.8207989356e+000	 2.5499771547e+000	-1.0589359292e+000
 1.7927273302e+000	 2.5697900756e+000	-1.0262979185e+000
 1.7644676483e+000	 2.5892752636e+000	-1.0030733964e+000
 1.7360255719e+000	 2.6084301654e+000	-9.8538496043e-001
 1.7074068260e+000	 2.6272523575e+000	-9.6968717303e-001
 1.6786171747e+000	 2.6457395471e+000	-9.5278680784e-001
 1.6496624172e+000	 2.6638895731e+000	-9.3186047493e-001
 1.6205483847e+000	 2.6817004063e+000	-9.0417649352e-001
 1.5912809365e+000	 2.6991701498e+000	-8.6767022283e-001
 1.5618659559e+000	 2.7162970396e+000	-8.2147025696e-001
 1.5323093471e+000	 2.7330794442e+000	-7.6496387962e-001
 1.4019125270e+000	 2.5004992089e+000	-7.4062297179e-001
 1.3747510586e+000	 2.5155346883e+000	-6.7001434480e-001
 1.3474708973e+000	 2.5302524749e+000	-6.6105803561e-001
 1.3200774803e+000	 2.5446514432e+000	-7.0805563725e-001
 1.2925762503e+000	 2.5587305887e+000	-7.4923563746e-001
 1.2649726523e+000	 2.5724890275e+000	-7.7408873565e-001
 1.2372721302e+000	 2.5859259956e+000	-7.8363616293e-001
 1.2094801237e+000	 2.5990408487e+000	-7.7896154992e-001
 1.1816020650e+000	 2.6118330614e+000	-7.6117979211e-001
 1.1536433759e+000	 2.6243022261e+000	-7.3140581078e-001
 1.1256094643e+000	 2.6364480523e+000	-6.9072359497e-001
 1.4149522090e+000	 2.5237572325e+000	-7.1579669952e-001
 1.3875381023e+000	 2.5389325621e+000	-6.3553996073e-001
 1.3600041986e+000	 2.5537872440e+000	-6.1178508362e-001
 1.3323559857e+000	 2.5683201422e+000	-6.4964904065e-001
 1.3045989571e+000	 2.5825302428e+000	-7.0563119844e-001
 1.2767386083e+000	 2.5964166536e+000	-7.3997715075e-001
 1.2487804339e+000	 2.6099786037e+000	-7.5449370893e-001
 1.2207299242e+000	 2.6232154428e+000	-7.5102038982e-001
 1.1925925618e+000	 2.6361266403e+000	-7.3139411206e-001
 1.1643738191e+000	 2.6487117851e+000	-6.9741389988e-001
 1.1360791543e+000	 2.6609705839e+000	-6.5080600852e-001
 1.4279918910e+000	 2.5470152560e+000	-7.0849505712e-001
 1.4003251459e+000	 2.5623304359e+000	-6.2249971388e-001
 1.3725374998e+000	 2.5773220132e+000	-5.8758878977e-001
 1.3446344912e+000	 2.5919888412e+000	-6.0962154374e-001
 1.3166216639e+000	 2.6063298969e+000	-6.7762364693e-001
 1.2885045643e+000	 2.6203442798e+000	-7.2581800974e-001
 1.2602887376e+000	 2.6340312119e+000	-7.4904245436e-001
 1.2319797246e+000	 2.6473900368e+000	-7.4982042314e-001
 1.2035830587e+000	 2.6604202192e+000	-7.3064486257e-001
 1.1751042623e+000	 2.6731213441e+000	-6.9355222106e-001
 1.1465488442e+000	 2.6854931155e+000	-6.3858754160e-001
 1.4410315730e+000	 2.5702732795e+000	-7.1394842491e-001
 1.4131121895e+000	 2.5857283097e+000	-6.2550493439e-001
 1.3850708010e+000	 2.6008567823e+000	-5.8255150731e-001
 1.3569129966e+000	 2.6156575402e+000	-5.9151631156e-001
 1.3286443707e+000	 2.6301295510e+000	-6.5740770171e-001
 1.3002705204e+000	 2.6442719060e+000	-7.2335812818e-001
 1.2717970413e+000	 2.6580838200e+000	-7.5869214676e-001
 1.2432295251e+000	 2.6715646308e+000	-7.6637380966e-001
 1.2145735555e+000	 2.6847137981e+000	-7.4750892874e-001
 1.1858347055e+000	 2.6975309030e+000	-7.0443737186e-001
 1.1570185342e+000	 2.7100156471e+000	-6.3985373942e-001
 1.4540712550e+000	 2.5935313031e+000	-7.2766430150e-001
 1.4258992331e+000	 2.6091261836e+000	-6.3946280164e-001
 1.3976041023e+000	 2.6243915514e+000	-5.9106651184e-001
 1.3691915020e+000	 2.6393262393e+000	-5.8935465263e-001
 1.3406670775e+000	 2.6539292051e+000	-6.4110685944e-001
 1.3120364764e+000	 2.6681995322e+000	-7.2488334595e-001
 1.2833053451e+000	 2.6821364282e+000	-7.7396141572e-001
 1.2544793256e+000	 2.6957392248e+000	-7.8770258865e-001
 1.2255640523e+000	 2.7090073770e+000	-7.6957732786e-001
 1.1965651487e+000	 2.7219404620e+000	-7.2286477820e-001
 1.1674882241e+000	 2.7345381787e+000	-6.5063468384e-001
 1.4671109370e+000	 2.6167893266e+000	-7.4542040324e-001
 1.4386862768e+000	 2.6325240574e+000	-6.5956868505e-001
 1.4101374035e+000	 2.6479263206e+000	-6.0782973521e-001
 1.3814700074e+000	 2.6629949383e+000	-5.9741907145e-001
 1.3526897843e+000	 2.6777288592e+000	-6.3491023934e-001
 1.3238024324e+000	 2.6921271584e+000	-7.2036439478e-001
 1.2948136488e+000	 2.7061890363e+000	-7.8430195444e-001
 1.2657291261e+000	 2.7199138188e+000	-8.0730029097e-001
 1.2365545492e+000	 2.7333009559e+000	-7.9317798637e-001
 1.2072955920e+000	 2.7463500210e+000	-7.4554161301e-001
 1.1779579140e+000	 2.7590607103e+000	-6.6776740778e-001
 1.4801506190e+000	 2.6400473501e+000	-7.6325805191e-001
 1.4514733204e+000	 2.6559219312e+000	-6.8129881718e-001
 1.4226707048e+000	 2.6714610897e+000	-6.2775352633e-001
 1.3937485129e+000	 2.6866636373e+000	-6.0896144466e-001
 1.3647124911e+000	 2.7015285133e+000	-6.3204029628e-001
 1.3355683884e+000	 2.7160547845e+000	-7.0425524942e-001
 1.3063219525e+000	 2.7302416445e+000	-7.8657015938e-001
 1.2769789265e+000	 2.7440884129e+000	-8.2237491538e-001
 1.2475450460e+000	 2.7575945348e+000	-8.1543364841e-001
 1.2180260352e+000	 2.7707595800e+000	-7.6960754267e-001
 1.1884276040e+000	 2.7835832419e+000	-6.8851241738e-001
 1.4931903010e+000	 2.6633053737e+000	-7.7747583288e-001
 1.4642603640e+000	 2.6793198050e+000	-6.9999154577e-001
 1.4352040060e+000	 2.6949958588e+000	-6.4443744230e-001
 1.4060270183e+000	 2.7103323363e+000	-6.1860282023e-001
 1.3767351979e+000	 2.7253281674e+000	-6.3005777326e-001
 1.3473343444e+000	 2.7399824107e+000	-6.8609856662e-001
 1.3178302562e+000	 2.7542942527e+000	-7.7856794833e-001
 1.2882287270e+000	 2.7682630069e+000	-8.3054667143e-001
 1.2585355428e+000	 2.7818881137e+000	-8.3387946581e-001
 1.2287564784e+000	 2.7951691390e+000	-7.9261098874e-001
 1.1988972939e+000	 2.8081057735e+000	-7.1053133872e-001
 1.5062299830e+000	 2.6865633972e+000	-7.8388667695e-001
 1.4770474077e+000	 2.7027176788e+000	-7.1083916459e-001
 1.4477373073e+000	 2.7185306280e+000	-6.5531405841e-001
 1.4183055237e+000	 2.7340010353e+000	-6.2505590881e-001
 1.3887579047e+000	 2.7491278215e+000	-6.2756113433e-001
 1.3591003005e+000	 2.7639100369e+000	-6.7005545115e-001
 1.3293385599e+000	 2.7783468608e+000	-7.5847902197e-001
 1.2994785275e+000	 2.7924376009e+000	-8.2982234048e-001
 1.2695260397e+000	 2.8061816926e+000	-8.4643839561e-001
 1.2394869216e+000	 2.8195786980e+000	-8.1248571897e-001
 1.2093669839e+000	 2.8326283051e+000	-7.3186486070e-001
 1.5192696650e+000	 2.7098214207e+000	-7.7975122134e-001
 1.4898344513e+000	 2.7261155527e+000	-7.1288021301e-001
 1.4602706085e+000	 2.7420653971e+000	-6.5950779208e-001
 1.4305840291e+000	 2.7576697343e+000	-6.2719240328e-001
 1.4007806115e+000	 2.7729274756e+000	-6.2325271932e-001
 1.3708662565e+000	 2.7878376631e+000	-6.5474467850e-001
 1.3408468636e+000	 2.8023994690e+000	-7.2844001815e-001
 1.3107283279e+000	 2.8166121949e+000	-8.1856998372e-001
 1.2805165365e+000	 2.8304752715e+000	-8.5139693008e-001
 1.2502173649e+000	 2.8439882570e+000	-8.2752774775e-001
 1.2198366738e+000	 2.8571508367e+000	-7.5091095623e-001
 1.5323093471e+000	 2.7330794442e+000	-7.6496387962e-001
 1.5026214949e+000	 2.7495134265e+000	-7.0564393658e-001
 1.4728039098e+000	 2.7656001662e+000	-6.5622583841e-001
 1.4428625346e+000	 2.7813384333e+000	-6.2397566766e-001
 1.4128033184e+000	 2.7967271297e+000	-6.1593272506e-001
 1.3826322125e+000	 2.8117652893e+000	-6.3888627874e-001
 1.3523551673e+000	 2.8264520771e+000	-6.9935384836e-001
 1.3219781284e+000	 2.8407867890e+000	-7.9549397664e-001
 1.2915070333e+000	 2.8547688504e+000	-8.4738113903e-001
 1.2609478081e+000	 2.8683978159e+000	-8.3637252761e-001
 1.2303063637e+000	 2.8816733683e+000	-7.6640336518e-001
 1.1256094643e+000	 2.6364480523e+000	-6.9072359497e-001
 1.0975015011e+000	 2.6482721155e+000	-6.4696171720e-001
 1.0693290614e+000	 2.6597725119e+000	-6.0697809491e-001
 1.0410974981e+000	 2.6709492982e+000	-5.7010830703e-001
 1.0128121385e+000	 2.6818026442e+000	-5.3357244600e-001
 9.8447828143e-001	 2.6923328307e+000	-4.9642506622e-001
 9.5610119473e-001	 2.7025402488e+000	-4.5824789291e-001
 9.2768611232e-001	 2.7124253981e+000	-4.1868509421e-001
 8.9923823169e-001	 2.7219888849e+000	-3.7733617789e-001
 8.7076271134e-001	 2.7312314211e+000	-3.3377145209e-001
 8.4226466823e-001	 2.7401538221e+000	-2.8752520507e-001
 1.1360791543e+000	 2.6609705839e+000	-6.5080600852e-001
 1.1077097490e+000	 2.6729046269e+000	-6.0094043474e-001
 1.0792752675e+000	 2.6845119925e+000	-5.5387737039e-001
 1.0507811125e+000	 2.6957927380e+000	-5.0884612120e-001
 1.0222326608e+000	 2.7067470348e+000	-4.6544304360e-001
 9.9363526055e-001	 2.7173751663e+000	-4.2328870546e-001
 9.6499422857e-001	 2.7276775272e+000	-3.8191392537e-001
 9.3631484747e-001	 2.7376546217e+000	-3.4089340403e-001
 9.0760236309e-001	 2.7473070619e+000	-2.9974923605e-001
 8.7886198190e-001	 2.7566355662e+000	-2.5796340567e-001
 8.5009886846e-001	 2.7656409576e+000	-2.1497056708e-001
 1.1465488442e+000	 2.6854931155e+000	-6.3858754160e-001
 1.1179179968e+000	 2.6975371383e+000	-5.7736835122e-001
 1.0892214736e+000	 2.7092514731e+000	-5.2021555781e-001
 1.0604647269e+000	 2.7206361779e+000	-4.6675040869e-001
 1.0316531831e+000	 2.7316914254e+000	-4.1658994267e-001
 1.0027922397e+000	 2.7424175019e+000	-3.6936165715e-001
 9.7388726241e-001	 2.7528148056e+000	-3.2460063998e-001
 9.4494358263e-001	 2.7628838453e+000	-2.8186676240e-001
 9.1596649450e-001	 2.7726252389e+000	-2.4065795512e-001
 8.8696125246e-001	 2.7820397112e+000	-2.0041990142e-001
 8.5793306869e-001	 2.7911280930e+000	-1.6053837708e-001
 1.1570185342e+000	 2.7100156471e+000	-6.3985373942e-001
 1.1281262447e+000	 2.7221696496e+000	-5.6810920733e-001
 1.0991676797e+000	 2.7339909537e+000	-5.0168872212e-001
 1.0701483413e+000	 2.7454796177e+000	-4.4030251189e-001
 1.0410737054e+000	 2.7566358160e+000	-3.8364514003e-001
 1.0119492188e+000	 2.7674598375e+000	-3.3138427249e-001
 9.8278029625e-001	 2.7779520840e+000	-2.8318200209e-001
 9.5357231778e-001	 2.7881130690e+000	-2.3856887941e-001
 9.2433062590e-001	 2.7979434159e+000	-1.9709405542e-001
 8.9506052302e-001	 2.8074438563e+000	-1.5821836260e-001
 8.6576726892e-001	 2.8166152285e+000	-1.2132896959e-001
 1.1674882241e+000	 2.7345381787e+000	-6.5063468384e-001
 1.1383344926e+000	 2.7468021610e+000	-5.6974323504e-001
 1.1091138858e+000	 2.7587304343e+000	-4.9505001945e-001
 1.0798319557e+000	 2.7703230575e+000	-4.2641103141e-001
 1.0504942277e+000	 2.7815802066e+000	-3.6365420996e-001
 1.0211061979e+000	 2.7925021731e+000	-3.0656789953e-001
 9.9167333009e-001	 2.8030893623e+000	-2.5491854348e-001
 9.6220105294e-001	 2.8133422926e+000	-2.0833668756e-001
 9.3269475730e-001	 2.8232615929e+000	-1.6644923522e-001
 9.0315979358e-001	 2.8328480014e+000	-1.2878304287e-001
 8.7360146914e-001	 2.8421023640e+000	-9.4776458589e-002
 1.1779579140e+000	 2.7590607103e+000	-6.6776740778e-001
 1.1485427405e+000	 2.7714346724e+000	-5.7928422960e-001
 1.1190600919e+000	 2.7834699149e+000	-4.9747372162e-001
 1.0895155700e+000	 2.7951664974e+000	-4.2239334946e-001
 1.0599147500e+000	 2.8065245973e+000	-3.5405927183e-001
 1.0302631770e+000	 2.8175445086e+000	-2.9243448522e-001
 1.0005663639e+000	 2.8282266407e+000	-2.3744310482e-001
 9.7082978809e-001	 2.8385715162e+000	-1.8886740899e-001
 9.4105888870e-001	 2.8485797698e+000	-1.4646351790e-001
 9.1125906414e-001	 2.8582521465e+000	-1.0987460608e-001
 8.8143566937e-001	 2.8675894995e+000	-7.8639500325e-002
 1.1884276040e+000	 2.7835832419e+000	-6.8851241738e-001
 1.1587509884e+000	 2.7960671837e+000	-5.9415837779e-001
 1.1290062980e+000	 2.8082093955e+000	-5.0653551386e-001
 1.0991991844e+000	 2.8200099372e+000	-4.2595736662e-001
 1.0693352723e+000	 2.8314689879e+000	-3.5268213310e-001
 1.0394201561e+000	 2.8425868442e+000	-2.8690048998e-001
 1.0094593978e+000	 2.8533639191e+000	-2.2874668157e-001
 9.7945852325e-001	 2.8638007399e+000	-1.7820569277e-001
 9.4942302010e-001	 2.8738979468e+000	-1.3521363735e-001
 9.1935833470e-001	 2.8836562915e+000	-9.9579714204e-002
 8.8926986960e-001	 2.8930766349e+000	-7.0992035957e-002
 1.1988972939e+000	 2.8081057735e+000	-7.1053133872e-001
 1.1689592362e+000	 2.8206996951e+000	-6.1218336199e-001
 1.1389525041e+000	 2.8329488761e+000	-5.2019302990e-001
 1.1088827988e+000	 2.8448533770e+000	-4.3518343913e-001
 1.0787557946e+000	 2.8564133785e+000	-3.5770759687e-001
 1.0485771352e+000	 2.8676291798e+000	-2.8823592366e-001
 1.0183524316e+000	 2.8785011975e+000	-2.2714421649e-001
 9.8808725840e-001	 2.8890299635e+000	-1.7473081795e-001
 9.5778715150e-001	 2.8992161238e+000	-1.3110145921e-001
 9.2745760526e-001	 2.9090604366e+000	-9.6300622816e-002
 8.9710406983e-001	 2.9185637704e+000	-7.0214015238e-002
 1.2093669839e+000	 2.8326283051e+000	-7.3186486070e-001
 1.1791674841e+000	 2.8453322065e+000	-6.3154772322e-001
 1.1488987102e+000	 2.8576883567e+000	-5.3676661014e-001
 1.1185664132e+000	 2.8696968168e+000	-4.4850650420e-001
 1.0881763169e+000	 2.8813577691e+000	-3.6766692408e-001
 1.0577341144e+000	 2.8926715154e+000	-2.9504911144e-001
 1.0272454655e+000	 2.9036384759e+000	-2.3134361785e-001
 9.9671599356e-001	 2.9142591871e+000	-1.7714395832e-001
 9.6615128290e-001	 2.9245343008e+000	-1.3284243577e-001
 9.3555687582e-001	 2.9344645817e+000	-9.8744783765e-002
 9.0493827006e-001	 2.9440509059e+000	-7.4982102390e-002
 1.2198366738e+000	 2.8571508367e+000	-7.5091095623e-001
 1.1893757320e+000	 2.8699647178e+000	-6.5079046775e-001
 1.1588449163e+000	 2.8824278373e+000	-5.5492026946e-001
 1.1282500276e+000	 2.8945402567e+000	-4.6469838240e-001
 1.0975968391e+000	 2.9063021597e+000	-3.8142144101e-001
 1.0668910935e+000	 2.9177138510e+000	-3.0627157470e-001
 1.0361384993e+000	 2.9287757543e+000	-2.4030362222e-001
 1.0053447287e+000	 2.9394884108e+000	-1.8445550521e-001
 9.7451541430e-001	 2.9498524778e+000	-1.3945409254e-001
 9.4365614638e-001	 2.9598687268e+000	-1.0591445452e-001
 9.1277247028e-001	 2.9695380413e+000	-8.4260365237e-002
 1.2303063637e+000	 2.8816733683e+000	-7.6640336518e-001
 1.1995839799e+000	 2.8945972292e+000	-6.6878090257e-001
 1.1687911224e+000	 2.9071673179e+000	-5.7364286220e-001
 1.1379336420e+000	 2.9193836965e+000	-4.8285024637e-001
 1.1070173614e+000	 2.9312465504e+000	-3.9814628344e-001
 1.0760480726e+000	 2.9427561866e+000	-3.2114301998e-001
 1.0450315331e+000	 2.9539130326e+000	-2.5330817078e-001
 1.0139734639e+000	 2.9647176344e+000	-1.9595217774e-001
 9.8287954570e-001	 2.9751706548e+000	-1.5024454459e-001
 9.5175541694e-001	 2.9852728719e+000	-1.1709631385e-001
 9.2060667051e-001	 2.9950251768e+000	-9.7290948589e-002
 8.4226466823e-001	 2.7401538221e+000	-2.8752520507e-001
 8.1374917503e-001	 2.7487570045e+000	-2.4313094089e-001
 7.8522125655e-001	 2.7570419823e+000	-2.0743377295e-001
 7.5668588880e-001	 2.7650098669e+000	-1.8327300078e-001
 7.2814799717e-001	 2.7726618660e+000	-1.7330674839e-001
 6.9961245439e-001	 2.7799992815e+000	-1.8000583886e-001
 6.7108407844e-001	 2.7870235076e+000	-2.0564879186e-001
 6.4256763062e-001	 2.7937360289e+000	-2.3372579385e-001
 6.1406781368e-001	 2.8001384177e+000	-2.3143776180e-001
 5.8558927002e-001	 2.8062323324e+000	-1.9629854204e-001
 5.5713657999e-001	 2.8120195152e+000	-1.2609758039e-001
 8.5009886846e-001	 2.7656409576e+000	-2.1497056708e-001
 8.2131814262e-001	 2.7743241612e+000	-1.7433256130e-001
 7.9252487593e-001	 2.7826862005e+000	-1.4202127188e-001
 7.6372409067e-001	 2.7907281972e+000	-1.2089571970e-001
 7.3492075806e-001	 2.7984513702e+000	-1.1360721021e-001
 7.0611979615e-001	 2.8058570336e+000	-1.2259263296e-001
 6.7732606774e-001	 2.8129465945e+000	-1.5006889400e-001
 6.4854437840e-001	 2.8197215513e+000	-1.8713728507e-001
 6.1977947462e-001	 2.8261834910e+000	-1.9371122812e-001
 5.9103604200e-001	 2.8323340874e+000	-1.6370419038e-001
 5.6231870349e-001	 2.8381750988e+000	-9.4346036647e-002
 8.5793306869e-001	 2.7911280930e+000	-1.6053837708e-001
 8.2888711020e-001	 2.7998913179e+000	-1.2352932670e-001
 7.9982849530e-001	 2.8083304187e+000	-9.4369258361e-002
 7.7076229254e-001	 2.8164465275e+000	-7.5915423078e-002
 7.4169351896e-001	 2.8242408744e+000	-7.0791626549e-002
 7.1262713792e-001	 2.8317147857e+000	-8.1380962063e-002
 6.8356805703e-001	 2.8388696815e+000	-1.0981967804e-001
 6.5452112617e-001	 2.8457070738e+000	-1.5293363665e-001
 6.2549113556e-001	 2.8522285643e+000	-1.6810924345e-001
 5.9648281398e-001	 2.8584358423e+000	-1.4288623985e-001
 5.6750082698e-001	 2.8643306824e+000	-7.3942822648e-002
 8.6576726892e-001	 2.8166152285e+000	-1.2132896959e-001
 8.3645607779e-001	 2.8254584746e+000	-8.7837197669e-002
 8.0713211467e-001	 2.8339746369e+000	-6.1618858497e-002
 7.7780049441e-001	 2.8421648578e+000	-4.5509536416e-002
 7.4846627985e-001	 2.8500303787e+000	-4.2086495469e-002
 7.1913447968e-001	 2.8575725378e+000	-5.3660852297e-002
 6.8981004632e-001	 2.8647927684e+000	-8.2270876985e-002
 6.6049787394e-001	 2.8716925962e+000	-1.2832607243e-001
 6.3120279650e-001	 2.8782736376e+000	-1.5190884250e-001
 6.0192958596e-001	 2.8845375973e+000	-1.3120636465e-001
 5.7268295047e-001	 2.8904862660e+000	-6.2358024490e-002
 8.7360146914e-001	 2.8421023640e+000	-9.4776458589e-002
 8.4402504538e-001	 2.8510256313e+000	-6.4692391600e-002
 8.1443573404e-001	 2.8596188551e+000	-4.1216851002e-002
 7.8483869628e-001	 2.8678831881e+000	-2.7145394379e-002
 7.5523904074e-001	 2.8758198829e+000	-2.4991287885e-002
 7.2564182144e-001	 2.8834302899e+000	-3.6977124111e-002
 6.9605203562e-001	 2.8907158553e+000	-6.5027552353e-002
 6.6647462171e-001	 2.8976781186e+000	-1.1076138413e-001
 6.3691445745e-001	 2.9043187109e+000	-1.4259857836e-001
 6.0737635794e-001	 2.9106393523e+000	-1.2621146634e-001
 5.7786507396e-001	 2.9166418496e+000	-5.7218521960e-002
 8.8143566937e-001	 2.8675894995e+000	-7.8639500325e-002
 8.5159401296e-001	 2.8765927880e+000	-5.1843302100e-002
 8.2173935342e-001	 2.8852630733e+000	-3.0908742030e-002
 7.9187689815e-001	 2.8936015184e+000	-1.8574470728e-002
 7.6201180164e-001	 2.9016093871e+000	-1.7273833288e-002
 7.3214916321e-001	 2.9092880420e+000	-2.9125935486e-002
 7.0229402491e-001	 2.9166389422e+000	-5.5927797556e-002
 6.7245136949e-001	 2.9236636411e+000	-9.9147652961e-002
 6.4262611839e-001	 2.9303637842e+000	-1.3788015422e-001
 6.1282312992e-001	 2.9367411072e+000	-1.2563649343e-001
 5.8304719746e-001	 2.9427974332e+000	-5.6311980614e-002
 8.8926986960e-001	 2.8930766349e+000	-7.0992035957e-002
 8.5916298055e-001	 2.9021599447e+000	-4.7342370472e-002
 8.2904297279e-001	 2.9109072915e+000	-2.8731763425e-002
 7.9891510002e-001	 2.9193198487e+000	-1.7826502108e-002
 7.6878456253e-001	 2.9273988914e+000	-1.6965568706e-002
 7.3865650497e-001	 2.9351457942e+000	-2.8151156613e-002
 7.0853601420e-001	 2.9425620291e+000	-5.3040239764e-002
 6.7842811726e-001	 2.9496491635e+000	-9.2937258582e-002
 6.4833777933e-001	 2.9564088576e+000	-1.3566978376e-001
 6.1826990190e-001	 2.9628428622e+000	-1.2740695238e-001
 5.8822932095e-001	 2.9689530167e+000	-5.7590496403e-002
 8.9710406983e-001	 2.9185637704e+000	-7.0214015238e-002
 8.6673194813e-001	 2.9277271014e+000	-4.9537912157e-002
 8.3634659216e-001	 2.9365515097e+000	-3.3007799062e-002
 8.0595330189e-001	 2.9450381790e+000	-2.3203512174e-002
 7.7555732342e-001	 2.9531883956e+000	-2.2356659259e-002
 7.4516384673e-001	 2.9610035463e+000	-3.2340586328e-002
 7.1477800350e-001	 2.9684851161e+000	-5.4661352567e-002
 6.8440486503e-001	 2.9756346860e+000	-9.0449783719e-002
 6.5404944027e-001	 2.9824539309e+000	-1.3409929655e-001
 6.2371667388e-001	 2.9889446171e+000	-1.2964112871e-001
 5.9341144444e-001	 2.9951086003e+000	-5.9173914086e-002
 9.0493827006e-001	 2.9440509059e+000	-7.4982102390e-002
 8.7430091572e-001	 2.9532942581e+000	-5.7065900885e-002
 8.4365021153e-001	 2.9621957279e+000	-4.2336243661e-002
 8.1299150376e-001	 2.9707565093e+000	-3.3273742089e-002
 7.8233008431e-001	 2.9789778998e+000	-3.1990998077e-002
 7.5167118849e-001	 2.9868612984e+000	-4.0222019914e-002
 7.2101999279e-001	 2.9944082030e+000	-5.9312590882e-002
 6.9038161280e-001	 3.0016202084e+000	-9.0211667889e-002
 6.5976110121e-001	 3.0084990042e+000	-1.3151700413e-001
 6.2916344586e-001	 3.0150463721e+000	-1.3065203601e-001
 5.9859356793e-001	 3.0212641839e+000	-5.9352839212e-002
 9.1277247028e-001	 2.9695380413e+000	-8.4260365237e-002
 8.8186988331e-001	 2.9788614148e+000	-6.8841713070e-002
 8.5095383090e-001	 2.9878399461e+000	-5.5586798112e-002
 8.2002970563e-001	 2.9964748396e+000	-4.6865493026e-002
 7.8910284520e-001	 3.0047674041e+000	-4.4661092827e-002
 7.5817853025e-001	 3.0127190505e+000	-5.0559177178e-002
 7.2726198208e-001	 3.0203312899e+000	-6.5737358809e-002
 6.9635836057e-001	 3.0276057309e+000	-9.0956002783e-002
 6.6547276215e-001	 3.0345440775e+000	-1.2648834107e-001
 6.3461021783e-001	 3.0411481271e+000	-1.2894910897e-001
 6.0377569142e-001	 3.0474197675e+000	-5.6591362074e-002
 9.2060667051e-001	 2.9950251768e+000	-9.7290948589e-002
 8.8943885089e-001	 3.0044285715e+000	-8.4051834813e-002
 8.5825745028e-001	 3.0134841643e+000	-7.1892205097e-002
 8.2706790750e-001	 3.0221931699e+000	-6.3060885908e-002
 7.9587560609e-001	 3.0305569083e+000	-5.9402845612e-002
 7.6468587201e-001	 3.0385768026e+000	-6.2347499133e-002
 7.3350397137e-001	 3.0462543768e+000	-7.2897820356e-002
 7.0233510834e-001	 3.0535912533e+000	-9.1620354993e-002
 6.7118442308e-001	 3.0605891508e+000	-1.1863623426e-001
 6.4005698981e-001	 3.0672498820e+000	-1.2323965585e-001
 6.0895781491e-001	 3.0735753511e+000	-4.9529510803e-002
 5.5713657999e-001	 2.8120195152e+000	-1.2609758039e-001
 5.2871851982e-001	 2.8175009906e+000	-4.5241140905e-002
 5.0033526381e-001	 2.8226795537e+000	 2.1750147746e-002
 4.7199118843e-001	 2.8275571857e+000	 7.6973540592e-002
 4.4369060226e-001	 2.8321359428e+000	 1.2235124290e-001
 4.1543774471e-001	 2.8364179532e+000	 1.5959010093e-001
 3.8723678479e-001	 2.8404054153e+000	 1.9014488697e-001
 3.5909182003e-001	 2.8441005950e+000	 2.1518455870e-001
 3.3100687533e-001	 2.8475058238e+000	 2.3556089770e-001
 3.0298590209e-001	 2.8506234959e+000	 2.5177896045e-001
 2.7503277725e-001	 2.8534560662e+000	 2.6396880843e-001
 5.6231870349e-001	 2.8381750988e+000	-9.4346036647e-002
 5.3363631693e-001	 2.8437075593e+000	-1.3016466626e-002
 5.0498905826e-001	 2.8489342900e+000	 5.2493183368e-002
 4.7638134466e-001	 2.8538572906e+000	 1.0441070624e-001
 4.4781752477e-001	 2.8584786363e+000	 1.4480948276e-001
 4.1930187744e-001	 2.8628004752e+000	 1.7557219738e-001
 3.9083861047e-001	 2.8668250261e+000	 1.9835814476e-001
 3.6243185948e-001	 2.8705545760e+000	 2.1457345504e-001
 3.3408568682e-001	 2.8739914781e+000	 2.2534359275e-001
 3.0580408065e-001	 2.8771381487e+000	 2.3148751629e-001
 2.7759095395e-001	 2.8799970658e+000	 2.3349292088e-001
 5.6750082698e-001	 2.8643306824e+000	-7.3942822648e-002
 5.3855411404e-001	 2.8699141281e+000	 8.3536970351e-003
 5.0964285272e-001	 2.8751890264e+000	 7.2950750895e-002
 4.8077150089e-001	 2.8801573956e+000	 1.2223249368e-001
 4.5194444728e-001	 2.8848213299e+000	 1.5845039701e-001
 4.2316601018e-001	 2.8891829973e+000	 1.8369130895e-001
 3.9444043615e-001	 2.8932446369e+000	 1.9984909914e-001
 3.6577189893e-001	 2.8970085570e+000	 2.0859916232e-001
 3.3716449831e-001	 2.9004771323e+000	 2.1137508282e-001
 3.0862225920e-001	 2.9036528015e+000	 2.0934679765e-001
 2.8014913065e-001	 2.9065380653e+000	 2.0339963508e-001
 5.7268295047e-001	 2.8904862660e+000	-6.2358024490e-002
 5.4347191115e-001	 2.8961206968e+000	 2.1297944265e-002
 5.1429664717e-001	 2.9014437627e+000	 8.5487101410e-002
 4.8516165711e-001	 2.9064575005e+000	 1.3276922974e-001
 4.5607136979e-001	 2.9111640234e+000	 1.6559414692e-001
 4.2703014291e-001	 2.9155655193e+000	 1.8627445518e-001
 3.9804226183e-001	 2.9196642478e+000	 1.9696186955e-001
 3.6911193838e-001	 2.9234625380e+000	 1.9962633929e-001
 3.4024330980e-001	 2.9269627865e+000	 1.9603720980e-001
 3.1144043775e-001	 2.9301674543e+000	 1.8774571069e-001
 2.8270730734e-001	 2.9330790648e+000	 1.7606809824e-001
 5.7786507396e-001	 2.9166418496e+000	-5.7218521960e-002
 5.4838970826e-001	 2.9223272655e+000	 2.8117251951e-002
 5.1895044162e-001	 2.9276984991e+000	 9.2367419826e-002
 4.8955181334e-001	 2.9327576054e+000	 1.3828002727e-001
 4.6019829230e-001	 2.9375067170e+000	 1.6851675535e-001
 4.3089427565e-001	 2.9419480414e+000	 1.8563073517e-001
 4.0164408750e-001	 2.9460838586e+000	 1.9204793179e-001
 3.7245197783e-001	 2.9499165190e+000	 1.9005125108e-001
 3.4332212130e-001	 2.9534484408e+000	 1.8176655828e-001
 3.1425861630e-001	 2.9566821071e+000	 1.6914983919e-001
 2.8526548404e-001	 2.9596200644e+000	 1.5397478107e-001
 5.8304719746e-001	 2.9427974332e+000	-5.6311980614e-002
 5.5330750536e-001	 2.9485338342e+000	 3.0979884707e-002
 5.2360423607e-001	 2.9539532354e+000	 9.5751748936e-002
 4.9394196957e-001	 2.9590577103e+000	 1.4094584461e-001
 4.6432521481e-001	 2.9638494106e+000	 1.6944241252e-001
 4.3475840838e-001	 2.9683305634e+000	 1.8404298474e-001
 4.0524591318e-001	 2.9725034694e+000	 1.8745722585e-001
 3.7579201728e-001	 2.9763705001e+000	 1.8229242105e-001
 3.4640093279e-001	 2.9799340950e+000	 1.7104473873e-001
 3.1707679486e-001	 2.9831967599e+000	 1.5609144048e-001
 2.8782366074e-001	 2.9861610639e+000	 1.3968326168e-001
 5.8822932095e-001	 2.9689530167e+000	-5.7590496403e-002
 5.5822530247e-001	 2.9747404029e+000	 3.1916684751e-002
 5.2825803052e-001	 2.9802079718e+000	 9.7689331466e-002
 4.9833212579e-001	 2.9853578153e+000	 1.4286299222e-001
 4.6845213732e-001	 2.9901921041e+000	 1.7053625405e-001
 4.3862254111e-001	 2.9947130855e+000	 1.8375992738e-001
 4.0884773886e-001	 2.9989230803e+000	 1.8552977549e-001
 3.7913205673e-001	 3.0028244811e+000	 1.7878180904e-001
 3.4947974428e-001	 3.0064197492e+000	 1.6638920878e-001
 3.1989497341e-001	 3.0097114127e+000	 1.5115998814e-001
 2.9038183743e-001	 3.0127020634e+000	 1.3583456217e-001
 5.9341144444e-001	 2.9951086003e+000	-5.9173914086e-002
 5.6314309958e-001	 3.0009469717e+000	 3.2816723114e-002
 5.3291182497e-001	 3.0064627082e+000	 1.0011334459e-001
 5.0272228202e-001	 3.0116579202e+000	 1.4603705906e-001
 4.7257905983e-001	 3.0165347977e+000	 1.7389758257e-001
 4.4248667385e-001	 3.0210956075e+000	 1.8698878890e-001
 4.1244956453e-001	 3.0253426911e+000	 1.8858778843e-001
 3.8247209617e-001	 3.0292784621e+000	 1.8195648414e-001
 3.5255855577e-001	 3.0329054035e+000	 1.7034459985e-001
 3.2271315196e-001	 3.0362260655e+000	 1.5699322809e-001
 2.9294001413e-001	 3.0392430630e+000	 1.4513800430e-001
 5.9859356793e-001	 3.0212641839e+000	-5.9352839212e-002
 5.6806089669e-001	 3.0271535404e+000	 3.5423290277e-002
 5.3756561942e-001	 3.0327174445e+000	 1.0483600312e-001
 5.0711243824e-001	 3.0379580251e+000	 1.5237723324e-001
 4.7670598234e-001	 3.0428774912e+000	 1.8155350572e-001
 4.4635080658e-001	 3.0474781295e+000	 1.9588834756e-001
 4.1605139021e-001	 3.0517623019e+000	 1.9892820803e-001
 3.8581213562e-001	 3.0557324431e+000	 1.9425076182e-001
 3.5563736725e-001	 3.0593910577e+000	 1.8547451831e-001
 3.2553133051e-001	 3.0627407183e+000	 1.7626871702e-001
 2.9549819082e-001	 3.0657840625e+000	 1.7036255261e-001
 6.0377569142e-001	 3.0474197675e+000	-5.6591362074e-002
 5.7297869379e-001	 3.0533601091e+000	 4.1330205843e-002
 5.4221941387e-001	 3.0589721809e+000	 1.1354400919e-001
 5.1150259447e-001	 3.0642581301e+000	 1.6369099339e-001
 4.8083290485e-001	 3.0692201848e+000	 1.9545296582e-001
 4.5021493931e-001	 3.0738606516e+000	 2.1256239362e-001
 4.1965321588e-001	 3.0781819128e+000	 2.1881568920e-001
 3.8915217507e-001	 3.0821864241e+000	 2.1808877752e-001
 3.5871617874e-001	 3.0858767119e+000	 2.1435379284e-001
 3.2834950906e-001	 3.0892553711e+000	 2.1169581406e-001
 2.9805636752e-001	 3.0923250620e+000	 2.1432861581e-001
 6.0895781491e-001	 3.0735753511e+000	-4.9529510803e-002
 5.7789649090e-001	 3.0795666778e+000	 5.1978428233e-002
 5.4687320832e-001	 3.0852269172e+000	 1.2779432789e-001
 5.1589275069e-001	 3.0905582350e+000	 1.8167914856e-001
 4.8495982735e-001	 3.0955628784e+000	 2.1746113773e-001
 4.5407907204e-001	 3.1002431736e+000	 2.3905357389e-001
 4.2325504155e-001	 3.1046015236e+000	 2.5047597343e-001
 3.9249221452e-001	 3.1086404051e+000	 2.5587747091e-001
 3.6179499023e-001	 3.1123623662e+000	 2.5956114135e-001
 3.3116768761e-001	 3.1157700239e+000	 2.6600809888e-001
 3.0061454421e-001	 3.1188660616e+000	 2.7990027907e-001
 2.7503277725e-001	 2.8534560662e+000	 2.6396880843e-001
 2.4714713513e-001	 2.8560064095e+000	 2.7387923978e-001
 2.1933694958e-001	 2.8582766502e+000	 2.8467762421e-001
 1.9160592731e-001	 2.8602694129e+000	 2.9785267557e-001
 1.6395769600e-001	 2.8619873733e+000	 3.1423593560e-001
 1.3639580379e-001	 2.8634332561e+000	 3.3397314600e-001
 1.0892371889e-001	 2.8646098325e+000	 3.5649482986e-001
 8.1544829185e-002	 2.8655199181e+000	 3.8048583744e-001
 5.4262441973e-002	 2.8661663703e+000	 4.0385365700e-001
 2.7079783735e-002	 2.8665520861e+000	 4.2369533618e-001
 0.0000000000e+000	 2.8666800000e+000	 4.3626290216e-001
 2.7759095395e-001	 2.8799970658e+000	 2.3349292088e-001
 2.4944593765e-001	 2.8825711307e+000	 2.3198802166e-001
 2.2137707978e-001	 2.8848624877e+000	 2.2880430423e-001
 1.9338812150e-001	 2.8868737858e+000	 2.2554334965e-001
 1.6548272425e-001	 2.8886077255e+000	 2.2321558475e-001
 1.3766446918e-001	 2.8900670570e+000	 2.2221394678e-001
 1.0993685675e-001	 2.8912545771e+000	 2.2228635011e-001
 8.2303306352e-002	 2.8921731278e+000	 2.2250669226e-001
 5.4767156051e-002	 2.8928255928e+000	 2.2124418614e-001
 2.7331662338e-002	 2.8932148963e+000	 2.1613085414e-001
 0.0000000000e+000	 2.8933440000e+000	 2.0402706781e-001
 2.8014913065e-001	 2.9065380653e+000	 2.0339963508e-001
 2.5174474017e-001	 2.9091358519e+000	 1.9313343656e-001
 2.2341720997e-001	 2.9114483252e+000	 1.7913659909e-001
 1.9517031570e-001	 2.9134781587e+000	 1.6316970620e-001
 1.6700775251e-001	 2.9152280777e+000	 1.4647083381e-001
 1.3893313458e-001	 2.9167008579e+000	 1.2973174693e-001
 1.1094999461e-001	 2.9178993218e+000	 1.1307246826e-001
 8.3061783519e-002	 2.9188263374e+000	 9.6013937265e-002
 5.5271870128e-002	 2.9194848154e+000	 7.7448531774e-002
 2.7583540941e-002	 2.9198777065e+000	 5.5608276960e-002
 0.0000000000e+000	 2.9200080000e+000	 2.8030620562e-002
 2.8270730734e-001	 2.9330790648e+000	 1.7606809824e-001
 2.5404354269e-001	 2.9357005730e+000	 1.5964419177e-001
 2.2545734016e-001	 2.9380341627e+000	 1.3788847788e-001
 1.9695250989e-001	 2.9400825315e+000	 1.1276050333e-001
 1.6853278077e-001	 2.9418484300e+000	 8.5768758865e-002
 1.4020179997e-001	 2.9433346587e+000	 5.7949667507e-002
 1.1196313247e-001	 2.9445440664e+000	 2.9844490712e-002
 8.3820260685e-002	 2.9454795471e+000	 1.4738510125e-003
 5.5776584205e-002	 2.9461440379e+000	-2.7690372741e-002
 2.7835419544e-002	 2.9465405168e+000	-5.8755964158e-002
 0.0000000000e+000	 2.9466720000e+000	-9.3444228935e-002
 2.8526548404e-001	 2.9596200644e+000	 1.5397478107e-001
 2.5634234521e-001	 2.9622652942e+000	 1.3396620850e-001
 2.2749747036e-001	 2.9646200002e+000	 1.0741078268e-001
 1.9873470408e-001	 2.9666869044e+000	 7.6500707826e-002
 1.7005780903e-001	 2.9684687822e+000	 4.3051566410e-002
 1.4147046536e-001	 2.9699684596e+000	 8.4843791900e-003
 1.1297627033e-001	 2.9711888111e+000	-2.6194895864e-002
 8.4578737851e-002	 2.9721327568e+000	-6.0418748693e-002
 5.6281298282e-002	 2.9728032604e+000	-9.4084647008e-002
 2.8087298146e-002	 2.9732033270e+000	-1.2758491001e-001
 0.0000000000e+000	 2.9733360000e+000	-1.6184005905e-001
 2.8782366074e-001	 2.9861610639e+000	 1.3968326168e-001
 2.5864114773e-001	 2.9888300154e+000	 1.1865223539e-001
 2.2953760055e-001	 2.9912058377e+000	 9.0180680008e-002
 2.0051689827e-001	 2.9932912773e+000	 5.6720787123e-002
 1.7158283728e-001	 2.9950891344e+000	 2.0425722586e-002
 1.4273913076e-001	 2.9966022605e+000	-1.6864940172e-002
 1.1398940818e-001	 2.9978335557e+000	-5.3642853331e-002
 8.5337215017e-002	 2.9987859664e+000	-8.8751940101e-002
 5.6786012359e-002	 2.9994624830e+000	-1.2141313109e-001
 2.8339176748e-002	 2.9998661372e+000	-1.5125300413e-001
 0.0000000000e+000	 3.0000000000e+000	-1.7833646755e-001
 2.9038183743e-001	 3.0127020634e+000	 1.3583456217e-001
 2.6093995025e-001	 3.0153947365e+000	 1.1635201970e-001
 2.3157773074e-001	 3.0177916751e+000	 8.8791675415e-002
 2.0229909246e-001	 3.0198956501e+000	 5.5886570458e-002
 1.7310786554e-001	 3.0217094866e+000	 2.0151658603e-002
 1.4400779615e-001	 3.0232360614e+000	-1.6127063783e-002
 1.1500254604e-001	 3.0244783003e+000	-5.0907027300e-002
 8.6095692183e-002	 3.0254391761e+000	-8.2407528525e-002
 5.7290726436e-002	 3.0261217055e+000	-1.0913243641e-001
 2.8591055351e-002	 3.0265289474e+000	-1.2989739292e-001
 0.0000000000e+000	 3.0266640000e+000	-1.4386165555e-001
 2.9294001413e-001	 3.0392430630e+000	 1.4513800430e-001
 2.6323875277e-001	 3.0419594577e+000	 1.2980300199e-001
 2.3361786093e-001	 3.0443775126e+000	 1.0594415660e-001
 2.0408128665e-001	 3.0465000230e+000	 7.6589644380e-002
 1.7463289379e-001	 3.0483298389e+000	 4.4634017086e-002
 1.4527646154e-001	 3.0498698623e+000	 1.2831374404e-002
 1.1601568390e-001	 3.0511230450e+000	-1.6215625085e-002
 8.6854169349e-002	 3.0520923857e+000	-4.0071310013e-002
 5.7795440513e-002	 3.0527809281e+000	-5.6487417794e-002
 2.8842933953e-002	 3.0531917577e+000	-6.3428633803e-002
 0.0000000000e+000	 3.0533280000e+000	-5.9103404419e-002
 2.9549819082e-001	 3.0657840625e+000	 1.7036255261e-001
 2.6553755529e-001	 3.0685241789e+000	 1.6182150259e-001
 2.3565799112e-001	 3.0709633501e+000	 1.4443643311e-001
 2.0586348084e-001	 3.0731043959e+000	 1.2153825021e-001
 1.7615792205e-001	 3.0749501911e+000	 9.6412406575e-002
 1.4654512693e-001	 3.0765036632e+000	 7.2296485273e-002
 1.1702882176e-001	 3.0777677896e+000	 5.2373029843e-002
 8.7612646515e-002	 3.0787455954e+000	 3.9757197933e-002
 5.8300154590e-002	 3.0794401506e+000	 3.7478898320e-002
 2.9094812556e-002	 3.0798545679e+000	 4.8459152806e-002
 0.0000000000e+000	 3.0799920000e+000	 7.5480517453e-002
 2.9805636752e-001	 3.0923250620e+000	 2.1432861581e-001
 2.6783635781e-001	 3.0950889001e+000	 2.1529437040e-001
 2.3769812132e-001	 3.0975491876e+000	 2.0715624280e-001
 2.0764567503e-001	 3.0997087687e+000	 1.9354865332e-001
 1.7768295031e-001	 3.1015705433e+000	 1.7815263365e-001
 1.4781379233e-001	 3.1031374641e+000	 1.6469821445e-001
 1.1804195962e-001	 3.1044125343e+000	 1.5696143545e-001
 8.8371123681e-002	 3.1053988051e+000	 1.5875552659e-001
 5.8804868668e-002	 3.1060993732e+000	 1.7391589673e-001
 2.9346691158e-002	 3.1065173781e+000	 2.0627865430e-001
 0.0000000000e+000	 3.1066560000e+000	 2.5965248377e-001
 3.0061454421e-001	 3.1188660616e+000	 2.7990027907e-001
 2.7013516033e-001	 3.1216536212e+000	 2.9317106632e-001
 2.3973825151e-001	 3.1241350251e+000	 2.9707269720e-001
 2.0942786922e-001	 3.1263131416e+000	 2.9553695609e-001
 1.7920797856e-001	 3.1281908955e+000	 2.9263838422e-001
 1.4908245772e-001	 3.1297712650e+000	 2.9260188769e-001
 1.1905509748e-001	 3.1310572789e+000	 2.9980431150e-001
 8.9129600848e-002	 3.1320520147e+000	 3.1876949731e-001
 5.9309582745e-002	 3.1327585957e+000	 3.5415643706e-001
 2.9598569761e-002	 3.1331801883e+000	 4.1074022821e-001
 0.0000000000e+000	 3.1333200000e+000	 4.9338564351e-001
 3.1333200000e+000	 0.0000000000e+000	 1.0140398046e+000
 3.1331801883e+000	 2.9598569761e-002	 1.0569468098e+000
 3.1327585957e+000	 5.9309582745e-002	 1.0909373899e+000
 3.1320520147e+000	 8.9129600848e-002	 1.1176532283e+000
 3.1310572789e+000	 1.1905509748e-001	 1.1384911283e+000
 3.1297712650e+000	 1.4908245772e-001	 1.1545832555e+000
 3.1281908955e+000	 1.7920797856e-001	 1.1667863536e+000
 3.1263131416e+000	 2.0942786922e-001	 1.1756795255e+000
 3.1241350251e+000	 2.3973825151e-001	 1.1815700490e+000
 3.1216536212e+000	 2.7013516033e-001	 1.1845065668e+000
 3.1188660616e+000	 3.0061454421e-001	 1.1842988748e+000
 3.1599880000e+000	 0.0000000000e+000	 7.4817593467e-001
 3.1598469984e+000	 2.9850486150e-002	 8.1542063033e-001
 3.1594218175e+000	 5.9814372538e-002	 8.7071973689e-001
 3.1587092228e+000	 8.9888191798e-002	 9.1642756656e-001
 3.1577060207e+000	 1.2006838732e-001	 9.5452108592e-001
 3.1564090613e+000	 1.5035131343e-001	 9.8658484079e-001
 3.1548152412e+000	 1.8073323560e-001	 1.0138058168e+000
 3.1529215055e+000	 2.1121033076e-001	 1.0369778025e+000
 3.1507248508e+000	 2.4177868775e-001	 1.0565146830e+000
 3.1482223275e+000	 2.7243430770e-001	 1.0724719629e+000
 3.1454110426e+000	 3.0317310467e-001	 1.0845756850e+000
 3.1866560000e+000	 0.0000000000e+000	 5.8679802067e-001
 3.1865138084e+000	 3.0102402539e-002	 6.7047606497e-001
 3.1860850394e+000	 6.0319162331e-002	 7.3927280208e-001
 3.1853664308e+000	 9.0646782748e-002	 7.9632386381e-001
 3.1843547624e+000	 1.2108167717e-001	 8.4424924123e-001
 3.1830468577e+000	 1.5162016914e-001	 8.8514327724e-001
 3.1814395869e+000	 1.8225849263e-001	 9.2057560554e-001
 3.1795298695e+000	 2.1299279231e-001	 9.5160257332e-001
 3.1773146766e+000	 2.4381912399e-001	 9.7878853675e-001
 3.1747910338e+000	 2.7473345507e-001	 1.0022362791e+000
 3.1719560237e+000	 3.0573166513e-001	 1.0216256623e+000
 3.2133240000e+000	 0.0000000000e+000	 5.3078719960e-001
 3.2131806185e+000	 3.0354318928e-002	 6.2195369895e-001
 3.2127482612e+000	 6.0823952124e-002	 6.9555111324e-001
 3.2120236389e+000	 9.1405373698e-002	 7.5555614295e-001
 3.2110035042e+000	 1.2209496702e-001	 8.0528530846e-001
 3.2096846540e+000	 1.5288902486e-001	 8.4739042307e-001
 3.2080639326e+000	 1.8378374966e-001	 8.8386607272e-001
 3.2061382334e+000	 2.1477525386e-001	 9.1606860856e-001
 3.2039045023e+000	 2.4585956023e-001	 9.4474599987e-001
 3.2013597401e+000	 2.7703260245e-001	 9.7007774670e-001
 3.1985010048e+000	 3.0829022558e-001	 9.9172390295e-001
 3.2399920000e+000	 0.0000000000e+000	 5.8094104770e-001
 3.2398474285e+000	 3.0606235317e-002	 6.6962401869e-001
 3.2394114830e+000	 6.1328741917e-002	 7.3845310236e-001
 3.2386808470e+000	 9.2163964649e-002	 7.9229676045e-001
 3.2376522459e+000	 1.2310825686e-001	 8.3521207160e-001
 3.2363224504e+000	 1.5415788057e-001	 8.7044612524e-001
 3.2346882783e+000	 1.8530900670e-001	 9.0045053441e-001
 3.2327465973e+000	 2.1655771540e-001	 9.2690854068e-001
 3.2304943281e+000	 2.4789999647e-001	 9.5077401472e-001
 3.2279284464e+000	 2.7933174982e-001	 9.7232149872e-001
 3.2250459859e+000	 3.1084878604e-001	 9.9120627842e-001
 3.2666600000e+000	 0.0000000000e+000	 7.3797699132e-001
 3.2665142386e+000	 3.0858151706e-002	 8.1319039739e-001
 3.2660747049e+000	 6.1833531710e-002	 8.6682371522e-001
 3.2653380550e+000	 9.2922555600e-002	 9.0467868199e-001
 3.2643009877e+000	 1.2412154671e-001	 9.3158736035e-001
 3.2629602468e+000	 1.5542673628e-001	 9.5141992215e-001
 3.2613126239e+000	 1.8683426373e-001	 9.6710671751e-001
 3.2593549612e+000	 2.1834017695e-001	 9.8067406761e-001
 3.2570841539e+000	 2.4994043271e-001	 9.9329303825e-001
 3.2544971527e+000	 2.8163089719e-001	 1.0053402845e+000
 3.2515909670e+000	 3.1340734650e-001	 1.0164698882e+000
 3.2933280000e+000	 0.0000000000e+000	 1.0025355520e+000
 3.2931810486e+000	 3.1110068095e-002	 1.0522919354e+000
 3.2927379267e+000	 6.2338321504e-002	 1.0794568940e+000
 3.2919952631e+000	 9.3681146551e-002	 1.0907976469e+000
 3.2909497294e+000	 1.2513483655e-001	 1.0919459285e+000
 3.2895980431e+000	 1.5669559199e-001	 1.0874126605e+000
 3.2879369696e+000	 1.8835952077e-001	 1.0806181321e+000
 3.2859633252e+000	 2.2012263849e-001	 1.0739370895e+000
 3.2836739796e+000	 2.5198086895e-001	 1.0687579444e+000
 3.2810658589e+000	 2.8393004456e-001	 1.0655551309e+000
 3.2781359481e+000	 3.1596590696e-001	 1.0639734654e+000
 3.3199960000e+000	 0.0000000000e+000	 1.3751834353e+000
 3.3198478587e+000	 3.1361984484e-002	 1.3865061638e+000
 3.3194011485e+000	 6.2843111297e-002	 1.3750979404e+000
 3.3186524711e+000	 9.4439737501e-002	 1.3487142278e+000
 3.3175984712e+000	 1.2614812640e-001	 1.3138012404e+000
 3.3162358395e+000	 1.5796444771e-001	 1.2755180315e+000
 3.3145613153e+000	 1.8988477780e-001	 1.2377753723e+000
 3.3125716891e+000	 2.2190510004e-001	 1.2032907823e+000
 3.3102638054e+000	 2.5402130520e-001	 1.1736588701e+000
 3.3076345652e+000	 2.8622919194e-001	 1.1494359533e+000
 3.3046809291e+000	 3.1852446741e-001	 1.1302377371e+000
 3.3466640000e+000	 0.0000000000e+000	 1.8033996822e+000
 3.3465146687e+000	 3.1613900873e-002	 1.7692703178e+000
 3.3460643704e+000	 6.3347901090e-002	 1.7144192748e+000
 3.3453096792e+000	 9.5198328452e-002	 1.6468447675e+000
 3.3442472129e+000	 1.2716141625e-001	 1.5731327179e+000
 3.3428736359e+000	 1.5923330342e-001	 1.4985280756e+000
 3.3411856610e+000	 1.9141003483e-001	 1.4270094491e+000
 3.3391800530e+000	 2.2368756159e-001	 1.3613674412e+000
 3.3368536311e+000	 2.5606174144e-001	 1.3032871106e+000
 3.3342032715e+000	 2.8852833931e-001	 1.2534350356e+000
 3.3312259102e+000	 3.2108302787e-001	 1.2118457432e+000
 3.3733320000e+000	 0.0000000000e+000	 1.9704814055e+000
 3.3731814788e+000	 3.1865817262e-002	 1.9185811428e+000
 3.3727275922e+000	 6.3852690883e-002	 1.8477279977e+000
 3.3719668872e+000	 9.5956919402e-002	 1.7657533033e+000
 3.3708959547e+000	 1.2817470609e-001	 1.6790994764e+000
 3.3695114322e+000	 1.6050215913e-001	 1.5928903513e+000
 3.3678100066e+000	 1.9293529187e-001	 1.5110044939e+000
 3.3657884170e+000	 2.2547002313e-001	 1.4361519085e+000
 3.3634434569e+000	 2.5810217768e-001	 1.3699545834e+000
 3.3607719778e+000	 2.9082748668e-001	 1.3130313772e+000
 3.3577708913e+000	 3.2364158833e-001	 1.2650877994e+000
 3.4000000000e+000	 0.0000000000e+000	 1.8230827829e+000
 3.3998482888e+000	 3.2117733651e-002	 1.7861113094e+000
 3.3993908141e+000	 6.4357480676e-002	 1.7295744175e+000
 3.3986240953e+000	 9.6715510352e-002	 1.6612172401e+000
 3.3975446965e+000	 1.2918799594e-001	 1.5874258862e+000
 3.3961492286e+000	 1.6177101484e-001	 1.5132964969e+000
 3.3944343523e+000	 1.9446054890e-001	 1.4427069171e+000
 3.3923967809e+000	 2.2725248468e-001	 1.3783914153e+000
 3.3900332827e+000	 2.6014261392e-001	 1.3220189207e+000
 3.3873406841e+000	 2.9312663406e-001	 1.2742753096e+000
 3.3843158724e+000	 3.2620014879e-001	 1.2349503274e+000
 3.1188660616e+000	 3.0061454421e-001	 1.1842988748e+000
 3.1157700239e+000	 3.3116768761e-001	 1.1789947744e+000
 3.1123623662e+000	 3.6179499023e-001	 1.1678417088e+000
 3.1086404051e+000	 3.9249221452e-001	 1.1521641622e+000
 3.1046015236e+000	 4.2325504155e-001	 1.1331517589e+000
 3.1002431736e+000	 4.5407907204e-001	 1.1118934157e+000
 3.0955628784e+000	 4.8495982735e-001	 1.0894109426e+000
 3.0905582350e+000	 5.1589275069e-001	 1.0666905427e+000
 3.0852269172e+000	 5.4687320832e-001	 1.0447105820e+000
 3.0795666778e+000	 5.7789649090e-001	 1.0244639229e+000
 3.0735753511e+000	 6.0895781491e-001	 1.0069730571e+000
 3.1454110426e+000	 3.0317310467e-001	 1.0845756850e+000
 3.1422886543e+000	 3.3398628893e-001	 1.0903275392e+000
 3.1388519936e+000	 3.6487426358e-001	 1.0887285137e+000
 3.1350983546e+000	 3.9583275502e-001	 1.0813613508e+000
 3.1310250978e+000	 4.2685740756e-001	 1.0696292610e+000
 3.1266296535e+000	 4.5794378445e-001	 1.0548012170e+000
 3.1219095237e+000	 4.8908736896e-001	 1.0380569728e+000
 3.1168622853e+000	 5.2028356550e-001	 1.0205301555e+000
 3.1114855922e+000	 5.5152770090e-001	 1.0033476832e+000
 3.1057771779e+000	 5.8281502575e-001	 9.8766368927e-001
 3.0997348584e+000	 6.1414071579e-001	 9.7468606118e-001
 3.1719560237e+000	 3.0573166513e-001	 1.0216256623e+000
 3.1688072847e+000	 3.3680489025e-001	 1.0339022905e+000
 3.1653416211e+000	 3.6795353694e-001	 1.0377654356e+000
 3.1615563041e+000	 3.9917329552e-001	 1.0350252583e+000
 3.1574486720e+000	 4.3045977356e-001	 1.0272671999e+000
 3.1530161333e+000	 4.6180849686e-001	 1.0159092364e+000
 3.1482561691e+000	 4.9321491056e-001	 1.0022591520e+000
 3.1431663357e+000	 5.2467438031e-001	 9.8757006677e-001
 3.1377442671e+000	 5.5618219349e-001	 9.7309235522e-001
 3.1319876780e+000	 5.8773356059e-001	 9.6012000895e-001
 3.1258943657e+000	 6.1932361667e-001	 9.5002942338e-001
 3.1985010048e+000	 3.0829022558e-001	 9.9172390295e-001
 3.1953259151e+000	 3.3962349156e-001	 1.0060563255e+000
 3.1918312486e+000	 3.7103281029e-001	 1.0114105578e+000
 3.1880142536e+000	 4.0251383602e-001	 1.0097833326e+000
 3.1838722461e+000	 4.3406213955e-001	 1.0029009153e+000
 3.1794026131e+000	 4.6567320926e-001	 9.9228918057e-001
 3.1746028144e+000	 4.9734245217e-001	 9.7934401953e-001
 3.1694703860e+000	 5.2906519512e-001	 9.6540019378e-001
 3.1640029421e+000	 5.6083668607e-001	 9.5179664958e-001
 3.1581981781e+000	 5.9265209544e-001	 9.3993621366e-001
 3.1520538730e+000	 6.2450651756e-001	 9.3133751502e-001
 3.2250459859e+000	 3.1084878604e-001	 9.9120627842e-001
 3.2218445455e+000	 3.4244209288e-001	 1.0032008567e+000
 3.2183208761e+000	 3.7411208365e-001	 1.0062079993e+000
 3.2144722031e+000	 4.0585437652e-001	 1.0023599751e+000
 3.2102958203e+000	 4.3766450555e-001	 9.9347223678e-001
 3.2057890929e+000	 4.6953792167e-001	 9.8112722641e-001
 3.2009494598e+000	 5.0146999377e-001	 9.6675884027e-001
 3.1957744364e+000	 5.3345600993e-001	 9.5173554550e-001
 3.1902616171e+000	 5.6549117866e-001	 9.3744003131e-001
 3.1844086782e+000	 5.9757063029e-001	 9.2534317901e-001
 3.1782133803e+000	 6.2968941844e-001	 9.1707005230e-001
 3.2515909670e+000	 3.1340734650e-001	 1.0164698882e+000
 3.2483631759e+000	 3.4526069420e-001	 1.0218211859e+000
 3.2448105036e+000	 3.7719135700e-001	 1.0187877906e+000
 3.2409301526e+000	 4.0919491702e-001	 1.0095760934e+000
 3.2367193945e+000	 4.4126687155e-001	 9.9602868219e-001
 3.2321755727e+000	 4.7340263408e-001	 9.7972282748e-001
 3.2272961052e+000	 5.0559753538e-001	 9.6206997498e-001
 3.2220784867e+000	 5.3784682474e-001	 9.4441410775e-001
 3.2165202920e+000	 5.7014567124e-001	 9.2812672335e-001
 3.2106191783e+000	 6.0248916513e-001	 9.1469606659e-001
 3.2043728877e+000	 6.3487231932e-001	 9.0580816923e-001
 3.2781359481e+000	 3.1596590696e-001	 1.0639734654e+000
 3.2748818063e+000	 3.4807929552e-001	 1.0584768362e+000
 3.2713001311e+000	 3.8027063035e-001	 1.0458657115e+000
 3.2673881021e+000	 4.1253545752e-001	 1.0283486192e+000
 3.2631429687e+000	 4.4486923755e-001	 1.0077226238e+000
 3.2585620526e+000	 4.7726734648e-001	 9.8548749049e-001
 3.2536427505e+000	 5.0972507698e-001	 9.6296122329e-001
 3.2483825370e+000	 5.4223763955e-001	 9.4139470294e-001
 3.2427789670e+000	 5.7480016382e-001	 9.2208302755e-001
 3.2368296784e+000	 6.0740769998e-001	 9.0647104510e-001
 3.2305323950e+000	 6.4005522020e-001	 8.9625047218e-001
 3.3046809291e+000	 3.1852446741e-001	 1.1302377371e+000
 3.3014004367e+000	 3.5089789683e-001	 1.1098016430e+000
 3.2977897585e+000	 3.8334990371e-001	 1.0842430929e+000
 3.2938460516e+000	 4.1587599802e-001	 1.0556899937e+000
 3.2895665428e+000	 4.4847160355e-001	 1.0258104243e+000
 3.2849485324e+000	 4.8113205889e-001	 9.9594352398e-001
 3.2799893959e+000	 5.1385261859e-001	 9.6723214084e-001
 3.2746865874e+000	 5.4662845436e-001	 9.4075482587e-001
 3.2690376420e+000	 5.7945465641e-001	 9.1765462371e-001
 3.2630401785e+000	 6.1232623482e-001	 8.9926199171e-001
 3.2566919023e+000	 6.4523812109e-001	 8.8720907707e-001
 3.3312259102e+000	 3.2108302787e-001	 1.2118457432e+000
 3.3279190671e+000	 3.5371649815e-001	 1.1725038082e+000
 3.3242793860e+000	 3.8642917706e-001	 1.1308065842e+000
 3.3203040011e+000	 4.1921653852e-001	 1.0887076212e+000
 3.3159901170e+000	 4.5207396955e-001	 1.0476515445e+000
 3.3113350122e+000	 4.8499677130e-001	 1.0087227606e+000
 3.3063360413e+000	 5.1798016019e-001	 9.7279633199e-001
 3.3009906377e+000	 5.5101926917e-001	 9.4068845701e-001
 3.2952963169e+000	 5.8410914899e-001	 9.1330384794e-001
 3.2892506786e+000	 6.1724476967e-001	 8.9177717462e-001
 3.2828514096e+000	 6.5042102197e-001	 8.7760563014e-001
 3.3577708913e+000	 3.2364158833e-001	 1.2650877994e+000
 3.3544376975e+000	 3.5653509947e-001	 1.2186891859e+000
 3.3507690135e+000	 3.8950845042e-001	 1.1689130501e+000
 3.3467619505e+000	 4.2255707902e-001	 1.1181823834e+000
 3.3424136912e+000	 4.5567633555e-001	 1.0684183962e+000
 3.3377214920e+000	 4.8886148370e-001	 1.0211569334e+000
 3.3326826866e+000	 5.2210770180e-001	 9.7767971954e-001
 3.3272946881e+000	 5.5541008398e-001	 9.3950385438e-001
 3.3215549919e+000	 5.8876364158e-001	 9.0760695141e-001
 3.3154611787e+000	 6.2216330452e-001	 8.8283591807e-001
 3.3090109169e+000	 6.5560392285e-001	 8.6646731337e-001
 3.3843158724e+000	 3.2620014879e-001	 1.2349503274e+000
 3.3809563279e+000	 3.5935370079e-001	 1.1960365583e+000
 3.3772586410e+000	 3.9258772377e-001	 1.1520731534e+000
 3.3732199000e+000	 4.2589761953e-001	 1.1056311572e+000
 3.3688372654e+000	 4.5927870155e-001	 1.0587834774e+000
 3.3641079719e+000	 4.9272619611e-001	 1.0132176487e+000
 3.3590293320e+000	 5.2623524340e-001	 9.7035763357e-001
 3.3535987384e+000	 5.5980089879e-001	 9.3149557480e-001
 3.3478136668e+000	 5.9341813416e-001	 8.9793443472e-001
 3.3416716788e+000	 6.2708183937e-001	 8.7114247368e-001
 3.3351704242e+000	 6.6078682374e-001	 8.5292052372e-001
 3.0735753511e+000	 6.0895781491e-001	 1.0069730571e+000
 3.0672498820e+000	 6.4005698981e-001	 9.7940692582e-001
 3.0605891508e+000	 6.7118442308e-001	 9.3274575216e-001
 3.0535912533e+000	 7.0233510834e-001	 8.8382881261e-001
 3.0462543768e+000	 7.3350397137e-001	 8.3986089135e-001
 3.0385768026e+000	 7.6468587201e-001	 8.0007966512e-001
 3.0305569083e+000	 7.9587560609e-001	 7.6363086743e-001
 3.0221931699e+000	 8.2706790750e-001	 7.2957624936e-001
 3.0134841643e+000	 8.5825745028e-001	 6.9689960911e-001
 3.0044285715e+000	 8.8943885089e-001	 6.6451054078e-001
 2.9950251768e+000	 9.2060667051e-001	 6.3124556389e-001
 3.0997348584e+000	 6.1414071579e-001	 9.7468606118e-001
 3.0933555526e+000	 6.4550457888e-001	 9.5092792481e-001
 3.0866381313e+000	 6.7689694086e-001	 9.0761241395e-001
 3.0795806740e+000	 7.0831275271e-001	 8.6337059351e-001
 3.0721813526e+000	 7.3974689706e-001	 8.2275375954e-001
 3.0644384338e+000	 7.7119418997e-001	 7.8526091622e-001
 3.0563502813e+000	 8.0264938300e-001	 7.5029980452e-001
 3.0479153583e+000	 8.3410716520e-001	 7.1719666478e-001
 3.0391322295e+000	 8.6556216530e-001	 6.8520390849e-001
 3.0299995637e+000	 8.9700895394e-001	 6.5350532386e-001
 3.0205161357e+000	 9.2844204599e-001	 6.2121845188e-001
 3.1258943657e+000	 6.1932361667e-001	 9.5002942338e-001
 3.1194612233e+000	 6.5095216796e-001	 9.2871841034e-001
 3.1126871118e+000	 6.8260945863e-001	 8.8826034442e-001
 3.1055700946e+000	 7.1429039708e-001	 8.4766537461e-001
 3.0981083284e+000	 7.4598982274e-001	 8.0947769852e-001
 3.0903000650e+000	 7.7770250793e-001	 7.7342834362e-001
 3.0821436544e+000	 8.0942315991e-001	 7.3915911056e-001
 3.0736375467e+000	 8.4114642290e-001	 7.0623432157e-001
 3.0647802947e+000	 8.7286688032e-001	 6.7415030816e-001
 3.0555705559e+000	 9.0457905698e-001	 6.4234223605e-001
 3.0460070947e+000	 9.3627742146e-001	 6.1018787728e-001
 3.1520538730e+000	 6.2450651756e-001	 9.3133751502e-001
 3.1455668939e+000	 6.5639975703e-001	 9.1132265262e-001
 3.1387360922e+000	 6.8832197640e-001	 8.7340601290e-001
 3.1315595153e+000	 7.2026804145e-001	 8.3561166037e-001
 3.1240353041e+000	 7.5223274842e-001	 7.9912152505e-001
 3.1161616961e+000	 7.8421082589e-001	 7.6386795271e-001
 3.1079370274e+000	 8.1619693681e-001	 7.2969753726e-001
 3.0993597352e+000	 8.4818568061e-001	 6.9638504635e-001
 3.0904283599e+000	 8.8017159535e-001	 6.6364490599e-001
 3.0811415480e+000	 9.1214916002e-001	 6.3113981367e-001
 3.0714980536e+000	 9.4411279694e-001	 5.9848606227e-001
 3.1782133803e+000	 6.2968941844e-001	 9.1707005230e-001
 3.1716725645e+000	 6.6184734610e-001	 8.9740534098e-001
 3.1647850727e+000	 6.9403449417e-001	 8.6187906979e-001
 3.1575489359e+000	 7.2624568582e-001	 8.2622336491e-001
 3.1499622799e+000	 7.5847567410e-001	 7.9089071074e-001
 3.1420233273e+000	 7.9071914385e-001	 7.5598263422e-001
 3.1337304005e+000	 8.2297071372e-001	 7.2151990989e-001
 3.1250819236e+000	 8.5522493831e-001	 6.8745886168e-001
 3.1160764251e+000	 8.8747631037e-001	 6.5370503265e-001
 3.1067125402e+000	 9.1971926307e-001	 6.2012376208e-001
 3.0969890125e+000	 9.5194817241e-001	 5.8654722283e-001
 3.2043728877e+000	 6.3487231932e-001	 9.0580816923e-001
 3.1977782351e+000	 6.6729493517e-001	 8.8575070194e-001
 3.1908340532e+000	 6.9974701194e-001	 8.5262022457e-001
 3.1835383566e+000	 7.3222333019e-001	 8.1862738180e-001
 3.1758892557e+000	 7.6471859979e-001	 7.8410463679e-001
 3.1678849585e+000	 7.9722746181e-001	 7.4928909692e-001
 3.1595237735e+000	 8.2974449062e-001	 7.1434373083e-001
 3.1508041120e+000	 8.6226419602e-001	 6.7937625333e-001
 3.1417244903e+000	 8.9478102539e-001	 6.4445517576e-001
 3.1322835323e+000	 9.2728936611e-001	 6.0962252964e-001
 3.1224799714e+000	 9.5978354789e-001	 5.7490278573e-001
 3.2305323950e+000	 6.4005522020e-001	 8.9625047218e-001
 3.2238839057e+000	 6.7274252424e-001	 8.7562013765e-001
 3.2168830336e+000	 7.0545952971e-001	 8.4467910989e-001
 3.2095277773e+000	 7.3820097456e-001	 8.1206114144e-001
 3.2018162314e+000	 7.7096152547e-001	 7.7819383718e-001
 3.1937465896e+000	 8.0373577976e-001	 7.4341478909e-001
 3.1853171466e+000	 8.3651826753e-001	 7.0799577181e-001
 3.1765263004e+000	 8.6930345372e-001	 6.7216442561e-001
 3.1673725556e+000	 9.0208574042e-001	 6.3612289057e-001
 3.1578545245e+000	 9.3485946916e-001	 6.0006286642e-001
 3.1479709303e+000	 9.6761892336e-001	 5.6417658783e-001
 3.2566919023e+000	 6.4523812109e-001	 8.8720907707e-001
 3.2499895763e+000	 6.7819011332e-001	 8.6623860608e-001
 3.2429320141e+000	 7.1117204748e-001	 8.3721213260e-001
 3.2355171979e+000	 7.4417861893e-001	 8.0587015675e-001
 3.2277432072e+000	 7.7720445115e-001	 7.7269723109e-001
 3.2196082208e+000	 8.1024409772e-001	 7.3809480957e-001
 3.2111105196e+000	 8.4329204444e-001	 7.0240865538e-001
 3.2022484889e+000	 8.7634271142e-001	 6.6595354522e-001
 3.1930206208e+000	 9.0939045544e-001	 6.2903469814e-001
 3.1834255166e+000	 9.4242957220e-001	 5.9196536849e-001
 3.1734618893e+000	 9.7545429884e-001	 5.5508005878e-001
 3.2828514096e+000	 6.5042102197e-001	 8.7760563014e-001
 3.2760952470e+000	 6.8363770239e-001	 8.5668195387e-001
 3.2689809945e+000	 7.1688456525e-001	 8.2948031241e-001
 3.2615066186e+000	 7.5015626330e-001	 7.9950555776e-001
 3.2536701830e+000	 7.8344737683e-001	 7.6725934500e-001
 3.2454698520e+000	 8.1675241568e-001	 7.3316880882e-001
 3.2369038926e+000	 8.5006582134e-001	 6.9761742635e-001
 3.2279706773e+000	 8.8338196913e-001	 6.6097297431e-001
 3.2186686860e+000	 9.1669517046e-001	 6.2361197143e-001
 3.2089965088e+000	 9.4999967524e-001	 5.8594000874e-001
 3.1989528482e+000	 9.8328967431e-001	 5.4840738794e-001
 3.3090109169e+000	 6.5560392285e-001	 8.6646731337e-001
 3.3022009176e+000	 6.8908529146e-001	 8.4612677884e-001
 3.2950299750e+000	 7.2259708303e-001	 8.2084710895e-001
 3.2874960392e+000	 7.5613390767e-001	 7.9252161582e-001
 3.2795971588e+000	 7.8969030251e-001	 7.6162752514e-001
 3.2713314832e+000	 8.2326073364e-001	 7.2857788062e-001
 3.2626972657e+000	 8.5683959825e-001	 6.9375611363e-001
 3.2536928657e+000	 8.9042122683e-001	 6.5754749346e-001
 3.2443167512e+000	 9.2399988549e-001	 6.2036681028e-001
 3.2345675009e+000	 9.5756977829e-001	 5.8268165467e-001
 3.2244438071e+000	 9.9112504979e-001	 5.4503067645e-001
 3.3351704242e+000	 6.6078682374e-001	 8.5292052372e-001
 3.3283065882e+000	 6.9453288053e-001	 8.3384853854e-001
 3.3210789555e+000	 7.2830960080e-001	 8.1077623768e-001
 3.3134854599e+000	 7.6211155205e-001	 7.8457325788e-001
 3.3055241345e+000	 7.9593322820e-001	 7.5564914079e-001
 3.2971931143e+000	 8.2976905160e-001	 7.2436144494e-001
 3.2884906387e+000	 8.6361337515e-001	 6.9105428309e-001
 3.2794150542e+000	 8.9746048454e-001	 6.5609351491e-001
 3.2699648164e+000	 9.3130460051e-001	 6.1989790560e-001
 3.2601384931e+000	 9.6513988133e-001	 5.8296557427e-001
 3.2499347660e+000	 9.9896042527e-001	 5.4589507522e-001
 2.9950251768e+000	 9.2060667051e-001	 6.3124556389e-001
 2.9852728719e+000	 9.5175541694e-001	 5.9510744697e-001
 2.9751706548e+000	 9.8287954570e-001	 5.5561981988e-001
 2.9647176344e+000	 1.0139734639e+000	 5.1379352249e-001
 2.9539130326e+000	 1.0450315331e+000	 4.7058285001e-001
 2.9427561866e+000	 1.0760480726e+000	 4.2682539827e-001
 2.9312465504e+000	 1.1070173614e+000	 3.8324612658e-001
 2.9193836965e+000	 1.1379336420e+000	 3.4041962334e-001
 2.9071673179e+000	 1.1687911224e+000	 2.9873596662e-001
 2.8945972292e+000	 1.1995839799e+000	 2.5836193106e-001
 2.8816733683e+000	 1.2303063637e+000	 2.1919752388e-001
 3.0205161357e+000	 9.2844204599e-001	 6.2121845188e-001
 3.0106808279e+000	 9.5985590252e-001	 5.8664198070e-001
 3.0004926299e+000	 9.9124493185e-001	 5.4925041596e-001
 2.9899506428e+000	 1.0226034935e+000	 5.0983169125e-001
 2.9790540820e+000	 1.0539259011e+000	 4.6912522788e-001
 2.9678022789e+000	 1.0852064254e+000	 4.2776744788e-001
 2.9561946830e+000	 1.1164392970e+000	 3.8629274528e-001
 2.9442308632e+000	 1.1476187090e+000	 3.4509681197e-001
 2.9319105098e+000	 1.1787388205e+000	 3.0440225677e-001
 2.9192334358e+000	 1.2097937591e+000	 2.6421921431e-001
 2.9061995786e+000	 1.2407776243e+000	 2.2430091949e-001
 3.0460070947e+000	 9.3627742146e-001	 6.1018787728e-001
 3.0360887840e+000	 9.6795638809e-001	 5.7630904420e-001
 3.0258146050e+000	 9.9961031800e-001	 5.4017392411e-001
 3.0151836512e+000	 1.0312335231e+000	 5.0235300861e-001
 3.0041951313e+000	 1.0628202690e+000	 4.6337834469e-001
 2.9928483712e+000	 1.0943647782e+000	 4.2369426606e-001
 2.9811428157e+000	 1.1258612325e+000	 3.8365561745e-001
 2.9690780299e+000	 1.1573037761e+000	 3.4349204529e-001
 2.9566537017e+000	 1.1886865187e+000	 3.0327334558e-001
 2.9438696424e+000	 1.2200035384e+000	 2.6286942407e-001
 2.9307257889e+000	 1.2512488848e+000	 2.2190483655e-001
 3.0714980536e+000	 9.4411279694e-001	 5.9848606227e-001
 3.0614967401e+000	 9.7605687366e-001	 5.6464703977e-001
 3.0511365801e+000	 1.0079757041e+000	 5.2911842933e-001
 3.0404166596e+000	 1.0398635527e+000	 4.9225765798e-001
 3.0293361807e+000	 1.0717146369e+000	 4.5439593562e-001
 3.0178944636e+000	 1.1035231310e+000	 4.1579378423e-001
 3.0060909483e+000	 1.1352831680e+000	 3.7663684607e-001
 2.9939251966e+000	 1.1669888432e+000	 3.3700104918e-001
 2.9813968936e+000	 1.1986342169e+000	 2.9681765545e-001
 2.9685058490e+000	 1.2302133177e+000	 2.5583252128e-001
 2.9552519993e+000	 1.2617201454e+000	 2.1355953045e-001
 3.0969890125e+000	 9.5194817241e-001	 5.8654722283e-001
 3.0869046962e+000	 9.8415735924e-001	 5.5229033216e-001
 3.0764585552e+000	 1.0163410903e+000	 5.1689649733e-001
 3.0656496680e+000	 1.0484935822e+000	 4.8052799068e-001
 3.0544772300e+000	 1.0806090049e+000	 4.4330618573e-001
 3.0429405559e+000	 1.1126814838e+000	 4.0532015676e-001
 3.0310390810e+000	 1.1447051035e+000	 3.6659605522e-001
 3.0187723634e+000	 1.1766739103e+000	 3.2706793254e-001
 3.0061400855e+000	 1.2085819151e+000	 2.8654246057e-001
 2.9931420557e+000	 1.2404230969e+000	 2.4465744192e-001
 2.9797782096e+000	 1.2721914059e+000	 2.0083406120e-001
 3.1224799714e+000	 9.5978354789e-001	 5.7490278573e-001
 3.1123126523e+000	 9.9225784481e-001	 5.3996409132e-001
 3.1017805303e+000	 1.0247064764e+000	 5.0441971369e-001
 3.0908826764e+000	 1.0571236118e+000	 4.6822253513e-001
 3.0796182794e+000	 1.0895033728e+000	 4.3130527934e-001
 3.0679866482e+000	 1.1218398366e+000	 3.9358682125e-001
 3.0559872136e+000	 1.1541270390e+000	 3.5494293200e-001
 3.0436195301e+000	 1.1863589773e+000	 3.1517718141e-001
 3.0308832774e+000	 1.2185296133e+000	 2.7398530381e-001
 3.0177782623e+000	 1.2506328762e+000	 2.3091290719e-001
 3.0043044200e+000	 1.2826626665e+000	 1.8530646763e-001
 3.1479709303e+000	 9.6761892336e-001	 5.6417658783e-001
 3.1377206083e+000	 1.0003583304e+000	 5.2847911504e-001
 3.1271025054e+000	 1.0330718626e+000	 4.9266193383e-001
 3.1161156848e+000	 1.0657536414e+000	 4.5646998268e-001
 3.1047593287e+000	 1.0983977407e+000	 4.1965092512e-001
 3.0930327405e+000	 1.1309981894e+000	 3.8195953442e-001
 3.0809353463e+000	 1.1635489746e+000	 3.4312974453e-001
 3.0684666968e+000	 1.1960440444e+000	 3.0284563030e-001
 3.0556264693e+000	 1.2284773114e+000	 2.6070539263e-001
 3.0424144689e+000	 1.2608426555e+000	 2.1617821536e-001
 3.0288306303e+000	 1.2931339270e+000	 1.6855392666e-001
 3.1734618893e+000	 9.7545429884e-001	 5.5508005878e-001
 3.1631285644e+000	 1.0084588160e+000	 5.1872663263e-001
 3.1524244805e+000	 1.0414372487e+000	 4.8267519024e-001
 3.1413486932e+000	 1.0743836710e+000	 4.4646315127e-001
 3.1299003781e+000	 1.1072921087e+000	 4.0965585832e-001
 3.1180788328e+000	 1.1401565422e+000	 3.7184938491e-001
 3.1058834789e+000	 1.1729709101e+000	 3.3264383721e-001
 3.0933138635e+000	 1.2057291115e+000	 2.9161441190e-001
 3.0803696612e+000	 1.2384250096e+000	 2.4827497512e-001
 3.0670506755e+000	 1.2710524347e+000	 2.0203401619e-001
 3.0533568406e+000	 1.3036051876e+000	 1.5214289830e-001
 3.1989528482e+000	 9.8328967431e-001	 5.4840738794e-001
 3.1885365205e+000	 1.0165593015e+000	 5.1166869983e-001
 3.1777464556e+000	 1.0498026349e+000	 4.7557849627e-001
 3.1665817016e+000	 1.0830137006e+000	 4.3945292826e-001
 3.1550414274e+000	 1.1161864766e+000	 4.0268132138e-001
 3.1431249251e+000	 1.1493148950e+000	 3.6470578428e-001
 3.1308316116e+000	 1.1823928456e+000	 3.2500010470e-001
 3.1181610302e+000	 1.2154141786e+000	 2.8304088637e-001
 3.1051128531e+000	 1.2483727078e+000	 2.3827069736e-001
 3.0916868821e+000	 1.2812622140e+000	 1.9005306896e-001
 3.0778830510e+000	 1.3140764481e+000	 1.3761925734e-001
 3.2244438071e+000	 9.9112504979e-001	 5.4503067645e-001
 3.2139444766e+000	 1.0246597871e+000	 5.0835109431e-001
 3.2030684307e+000	 1.0581680210e+000	 4.7255220528e-001
 3.1918147100e+000	 1.0916437302e+000	 4.3674219352e-001
 3.1801824768e+000	 1.1250808445e+000	 4.0013052412e-001
 3.1681710175e+000	 1.1584732478e+000	 3.6200943745e-001
 3.1557797442e+000	 1.1918147811e+000	 3.2173344558e-001
 3.1430081969e+000	 1.2250992456e+000	 2.7869055150e-001
 3.1298560450e+000	 1.2583204060e+000	 2.3226494299e-001
 3.1163230887e+000	 1.2914719933e+000	 1.8179098506e-001
 3.1024092613e+000	 1.3245477087e+000	 1.2649841241e-001
 3.2499347660e+000	 9.9896042527e-001	 5.4589507522e-001
 3.2393524327e+000	 1.0327602727e+000	 5.0986996958e-001
 3.2283904058e+000	 1.0665334072e+000	 4.7483235236e-001
 3.2170477184e+000	 1.1002737598e+000	 4.3967972388e-001
 3.2053235261e+000	 1.1339752124e+000	 4.0344208471e-001
 3.1932171098e+000	 1.1676316006e+000	 3.6526529370e-001
 3.1807278769e+000	 1.2012367166e+000	 3.2439119701e-001
 3.1678553637e+000	 1.2347843127e+000	 2.8012893458e-001
 3.1545992369e+000	 1.2682681041e+000	 2.3181715623e-001
 3.1409592953e+000	 1.3016817725e+000	 1.7877695580e-001
 3.1269354717e+000	 1.3350189692e+000	 1.2029522870e-001
 2.8816733683e+000	 1.2303063637e+000	 2.1919752388e-001
 2.8683978159e+000	 1.2609478081e+000	 1.7692281989e-001
 2.8547688504e+000	 1.2915070333e+000	 1.2687360070e-001
 2.8407867890e+000	 1.3219781284e+000	 6.7859615431e-002
 2.8264520771e+000	 1.3523551673e+000	 3.8392701789e-003
 2.8117652893e+000	 1.3826322125e+000	-4.7011858507e-002
 2.7967271297e+000	 1.4128033184e+000	-8.6838748638e-002
 2.7813384333e+000	 1.4428625346e+000	-1.1995346935e-001
 2.7656001662e+000	 1.4728039098e+000	-1.5077860847e-001
 2.7495134265e+000	 1.5026214949e+000	-1.8382931880e-001
 2.7330794442e+000	 1.5323093471e+000	-2.2369380127e-001
 2.9061995786e+000	 1.2407776243e+000	 2.2430091949e-001
 2.8928110367e+000	 1.2716798610e+000	 1.7978241401e-001
 2.8790660737e+000	 1.3024991789e+000	 1.2572249613e-001
 2.8649650095e+000	 1.3332296165e+000	 6.1198958375e-002
 2.8505082935e+000	 1.3638651974e+000	-8.0200124343e-004
 2.8356965050e+000	 1.3943999336e+000	-4.8853561058e-002
 2.8205303541e+000	 1.4248278287e+000	-8.6912022922e-002
 2.8050106830e+000	 1.4551428820e+000	-1.1906219227e-001
 2.7891384659e+000	 1.4853390912e+000	-1.4950096552e-001
 2.7729148103e+000	 1.5154104568e+000	-1.8251928702e-001
 2.7563409568e+000	 1.5453509852e+000	-2.2248244830e-001
 2.9307257889e+000	 1.2512488848e+000	 2.2190483655e-001
 2.9172242575e+000	 1.2824119140e+000	 1.7499621464e-001
 2.9033632970e+000	 1.3134913245e+000	 1.1694163227e-001
 2.8891432301e+000	 1.3444811046e+000	 4.9030786817e-002
 2.8745645099e+000	 1.3753752276e+000	-8.8102157340e-003
 2.8596277206e+000	 1.4061676547e+000	-5.3940708487e-002
 2.8443335785e+000	 1.4368523391e+000	-9.0082235605e-002
 2.8286829326e+000	 1.4674232293e+000	-1.2108660380e-001
 2.8126767656e+000	 1.4978742726e+000	-1.5091954645e-001
 2.7963161942e+000	 1.5281994187e+000	-1.8364257839e-001
 2.7796024694e+000	 1.5583926234e+000	-2.2339309278e-001
 2.9552519993e+000	 1.2617201454e+000	 2.1355953045e-001
 2.9416374783e+000	 1.2931439669e+000	 1.6413216890e-001
 2.9276605203e+000	 1.3244834701e+000	 1.0211315419e-001
 2.9133214507e+000	 1.3557325927e+000	 3.4791968309e-002
 2.8986207263e+000	 1.3868852577e+000	-1.8907400570e-002
 2.8835589363e+000	 1.4179353758e+000	-6.1108301897e-002
 2.8681368029e+000	 1.4488768495e+000	-9.5291382288e-002
 2.8523551823e+000	 1.4797035767e+000	-1.2506969807e-001
 2.8362150654e+000	 1.5104094540e+000	-1.5417236990e-001
 2.8197175780e+000	 1.5409883806e+000	-1.8642632137e-001
 2.8028639820e+000	 1.5714342615e+000	-2.2573615408e-001
 2.9797782096e+000	 1.2721914059e+000	 2.0083406120e-001
 2.9660506991e+000	 1.3038760199e+000	 1.4876633958e-001
 2.9519577435e+000	 1.3354756156e+000	 8.2888075620e-002
 2.9374996712e+000	 1.3669840809e+000	 1.9790716013e-002
 2.9226769427e+000	 1.3983952878e+000	-2.9902909153e-002
 2.9074901520e+000	 1.4297030969e+000	-6.9277227532e-002
 2.8919400273e+000	 1.4609013599e+000	-1.0156587583e-001
 2.8760274320e+000	 1.4919839241e+000	-1.3013739812e-001
 2.8597533651e+000	 1.5229446355e+000	-1.5847888192e-001
 2.8431189619e+000	 1.5537773424e+000	-1.9017756564e-001
 2.8261254946e+000	 1.5844758997e+000	-2.2890047108e-001
 3.0043044200e+000	 1.2826626665e+000	 1.8530646763e-001
 2.9904639199e+000	 1.3146080728e+000	 1.3047242591e-001
 2.9762549668e+000	 1.3464677612e+000	 6.3195957836e-002
 2.9616778918e+000	 1.3782355690e+000	 5.2486991850e-003
 2.9467331591e+000	 1.4099053180e+000	-4.0691073327e-002
 2.9314213677e+000	 1.4414708180e+000	-7.7451821172e-002
 2.9157432517e+000	 1.4729258703e+000	-1.0801401397e-001
 2.8996996817e+000	 1.5042642715e+000	-1.3549591821e-001
 2.8832916648e+000	 1.5354798169e+000	-1.6313720481e-001
 2.8665203457e+000	 1.5665663043e+000	-1.9428040953e-001
 2.8493870072e+000	 1.5975175378e+000	-2.3235030066e-001
 3.0288306303e+000	 1.2931339270e+000	 1.6855392666e-001
 3.0148771406e+000	 1.3253401258e+000	 1.1081127301e-001
 3.0005521901e+000	 1.3574599068e+000	 4.5505157519e-002
 2.9858561124e+000	 1.3894870571e+000	-7.6966148916e-003
 2.9707893755e+000	 1.4214153481e+000	-5.0248857845e-002
 2.9553525834e+000	 1.4532385390e+000	-8.4717432185e-002
 2.9395464761e+000	 1.4849503807e+000	-1.1382344444e-001
 2.9233719313e+000	 1.5165446189e+000	-1.4042912162e-001
 2.9068299645e+000	 1.5480149983e+000	-1.6752137974e-001
 2.8899217296e+000	 1.5793552662e+000	-1.9819311984e-001
 2.8726485198e+000	 1.6105591760e+000	-2.3562230759e-001
 3.0533568406e+000	 1.3036051876e+000	 1.5214289830e-001
 3.0392903614e+000	 1.3360721787e+000	 9.1431599592e-002
 3.0248494134e+000	 1.3684520523e+000	 3.0990007622e-002
 3.0100343330e+000	 1.4007385452e+000	-1.7989701600e-002
 2.9948455920e+000	 1.4329253782e+000	-5.7633516852e-002
 2.9792837991e+000	 1.4650062601e+000	-9.0237987233e-002
 2.9633497005e+000	 1.4969748911e+000	-1.1825862752e-001
 2.9470441810e+000	 1.5288249663e+000	-1.4429587426e-001
 2.9303682642e+000	 1.5605501797e+000	-1.7107860356e-001
 2.9133231134e+000	 1.5921442281e+000	-2.0144524460e-001
 2.8959100323e+000	 1.6236008141e+000	-2.3832254614e-001
 3.0778830510e+000	 1.3140764481e+000	 1.3761925734e-001
 3.0637035822e+000	 1.3468042317e+000	 7.6060238322e-002
 3.0491466367e+000	 1.3794441979e+000	 2.0743485898e-002
 3.0342125535e+000	 1.4119900333e+000	-2.4654724075e-002
 3.0189018084e+000	 1.4444354083e+000	-6.1980252286e-002
 3.0032150148e+000	 1.4767739812e+000	-9.3253553662e-002
 2.9871529249e+000	 1.5089994015e+000	-1.2065829646e-001
 2.9707164307e+000	 1.5411053137e+000	-1.4652739416e-001
 2.9539065639e+000	 1.5730853612e+000	-1.7332646012e-001
 2.9367244973e+000	 1.6049331899e+000	-2.0363471906e-001
 2.9191715449e+000	 1.6366424523e+000	-2.4012343406e-001
 3.1024092613e+000	 1.3245477087e+000	 1.2649841241e-001
 3.0881168030e+000	 1.3575362846e+000	 6.6776439769e-002
 3.0734438600e+000	 1.3904363435e+000	 1.5779384971e-002
 3.0583907741e+000	 1.4232415214e+000	-2.6793282434e-002
 3.0429580248e+000	 1.4559454385e+000	-6.2499874078e-002
 3.0271462304e+000	 1.4885417023e+000	-9.3077902592e-002
 3.0109561493e+000	 1.5210239119e+000	-1.2043291558e-001
 2.9943886803e+000	 1.5533856610e+000	-1.4662459724e-001
 2.9774448636e+000	 1.5856205426e+000	-1.7385014639e-001
 2.9601258812e+000	 1.6177221518e+000	-2.0442496527e-001
 2.9424330575e+000	 1.6496840905e+000	-2.4076071920e-001
 3.1269354717e+000	 1.3350189692e+000	 1.2029522870e-001
 3.1125300238e+000	 1.3682683376e+000	 6.4636700698e-002
 3.0977410833e+000	 1.4014284891e+000	 1.7034476030e-002
 3.0825689947e+000	 1.4344930095e+000	-2.3582166931e-002
 3.0670142412e+000	 1.4674554686e+000	-5.8476462056e-002
 3.0510774461e+000	 1.5003094234e+000	-8.9096071726e-002
 3.0347593738e+000	 1.5330484222e+000	-1.1706213647e-001
 3.0180609300e+000	 1.5656660084e+000	-1.4415543948e-001
 3.0009831633e+000	 1.5981557240e+000	-1.7229969367e-001
 2.9835272650e+000	 1.6305111137e+000	-2.0354198576e-001
 2.9656945701e+000	 1.6627257286e+000	-2.4003043922e-001
 2.7330794442e+000	 1.5323093471e+000	-2.2369380127e-001
 2.7162970396e+000	 1.5618659559e+000	-2.7008873873e-001
 2.6991701498e+000	 1.5912809365e+000	-3.1950005939e-001
 2.6817004063e+000	 1.6205483847e+000	-3.7169915235e-001
 2.6638895731e+000	 1.6496624172e+000	-4.2636099918e-001
 2.6457395471e+000	 1.6786171747e+000	-4.8094843511e-001
 2.6272523575e+000	 1.7074068260e+000	-5.3301093479e-001
 2.6084301654e+000	 1.7360255719e+000	-5.8083502593e-001
 2.5892752636e+000	 1.7644676483e+000	-6.2245668781e-001
 2.5697900756e+000	 1.7927273302e+000	-6.5568564318e-001
 2.5499771547e+000	 1.8207989356e+000	-6.7813225409e-001
 2.7563409568e+000	 1.5453509852e+000	-2.2248244830e-001
 2.7394157154e+000	 1.5751591533e+000	-2.6865643052e-001
 2.7221430570e+000	 1.6048244877e+000	-3.1719301831e-001
 2.7045246267e+000	 1.6343410342e+000	-3.6781944736e-001
 2.6865622037e+000	 1.6637028591e+000	-4.2020816666e-001
 2.6682577011e+000	 1.6929040534e+000	-4.7395771594e-001
 2.6496131651e+000	 1.7219387363e+000	-5.2694133950e-001
 2.6306307755e+000	 1.7508010592e+000	-5.7558717078e-001
 2.6113128445e+000	 1.7794852089e+000	-6.1788155759e-001
 2.5916618160e+000	 1.8079854119e+000	-6.5158374753e-001
 2.5716802653e+000	 1.8362959375e+000	-6.7424199158e-001
 2.7796024694e+000	 1.5583926234e+000	-2.2339309278e-001
 2.7625343913e+000	 1.5884523507e+000	-2.6901740313e-001
 2.7451159642e+000	 1.6183680390e+000	-3.1638976147e-001
 2.7273488472e+000	 1.6481336836e+000	-3.6522687338e-001
 2.7092348344e+000	 1.6777433009e+000	-4.1519437550e-001
 2.6907758550e+000	 1.7071909321e+000	-4.6588678716e-001
 2.6719739728e+000	 1.7364706467e+000	-5.1680651115e-001
 2.6528313856e+000	 1.7655765466e+000	-5.6618033052e-001
 2.6333504253e+000	 1.7945027696e+000	-6.0949738683e-001
 2.6135335564e+000	 1.8232434935e+000	-6.4433868949e-001
 2.5933833760e+000	 1.8517929394e+000	-6.6821624335e-001
 2.8028639820e+000	 1.5714342615e+000	-2.2573615408e-001
 2.7856530671e+000	 1.6017455481e+000	-2.7055955259e-001
 2.7680888714e+000	 1.6319115902e+000	-3.1654923346e-001
 2.7501730676e+000	 1.6619263330e+000	-3.6344424619e-001
 2.7319074651e+000	 1.6917837428e+000	-4.1093654528e-001
 2.7132940090e+000	 1.7214778108e+000	-4.5864990153e-001
 2.6943347804e+000	 1.7510025570e+000	-5.0611777381e-001
 2.6750319957e+000	 1.7803520339e+000	-5.5276030763e-001
 2.6553880061e+000	 1.8095203303e+000	-5.9702347417e-001
 2.6354052969e+000	 1.8385015752e+000	-6.3365586641e-001
 2.6150864867e+000	 1.8672899413e+000	-6.5973756698e-001
 2.8261254946e+000	 1.5844758997e+000	-2.2890047108e-001
 2.8087717430e+000	 1.6150387455e+000	-2.7274771161e-001
 2.7910617786e+000	 1.6454551415e+000	-3.1720588789e-001
 2.7729972881e+000	 1.6757189825e+000	-3.6206856074e-001
 2.7545800958e+000	 1.7058241847e+000	-4.0708645310e-001
 2.7358121630e+000	 1.7357646895e+000	-4.5194520473e-001
 2.7166955881e+000	 1.7655344673e+000	-4.9624199352e-001
 2.6972326058e+000	 1.7951275212e+000	-5.3946119870e-001
 2.6774255869e+000	 1.8245378910e+000	-5.8094929695e-001
 2.6572770373e+000	 1.8537596569e+000	-6.1926128245e-001
 2.6367895974e+000	 1.8827869432e+000	-6.4851643199e-001
 2.8493870072e+000	 1.5975175378e+000	-2.3235030066e-001
 2.8318904189e+000	 1.6283319429e+000	-2.7512051186e-001
 2.8140346857e+000	 1.6589986927e+000	-3.1796640547e-001
 2.7958215085e+000	 1.6895116319e+000	-3.6076755637e-001
 2.7772527264e+000	 1.7198646266e+000	-4.0336526947e-001
 2.7583303170e+000	 1.7500515682e+000	-4.4553905993e-001
 2.7390563958e+000	 1.7800663776e+000	-4.8698190066e-001
 2.7194332159e+000	 1.8099030085e+000	-5.2727442184e-001
 2.6994631677e+000	 1.8395554517e+000	-5.6585826402e-001
 2.6791487777e+000	 1.8690177385e+000	-6.0200880162e-001
 2.6584927081e+000	 1.8982839451e+000	-6.3429528074e-001
 2.8726485198e+000	 1.6105591760e+000	-2.3562230759e-001
 2.8550090947e+000	 1.6416251403e+000	-2.7728723675e-001
 2.8370075929e+000	 1.6725422440e+000	-3.1850640218e-001
 2.8186457290e+000	 1.7033042813e+000	-3.5927627194e-001
 2.7999253571e+000	 1.7339050684e+000	-3.9955995118e-001
 2.7808484710e+000	 1.7643384469e+000	-4.3926226841e-001
 2.7614172034e+000	 1.7945982879e+000	-4.7820352384e-001
 2.7416338260e+000	 1.8246784959e+000	-5.1609209466e-001
 2.7215007486e+000	 1.8545730124e+000	-5.5249611000e-001
 2.7010205182e+000	 1.8842758202e+000	-5.8681442453e-001
 2.6801958187e+000	 1.9137809471e+000	-6.1824713414e-001
 2.8959100323e+000	 1.6236008141e+000	-2.3832254614e-001
 2.8781277706e+000	 1.6549183377e+000	-2.7892466524e-001
 2.8599805001e+000	 1.6860857952e+000	-3.1856712794e-001
 2.8414699494e+000	 1.7170969308e+000	-3.5739359124e-001
 2.8225979878e+000	 1.7479455103e+000	-3.9551962481e-001
 2.8033666250e+000	 1.7786253257e+000	-4.3300628179e-001
 2.7837780111e+000	 1.8091301983e+000	-4.6983222056e-001
 2.7638344362e+000	 1.8394539832e+000	-5.0586458307e-001
 2.7435383294e+000	 1.8695905731e+000	-5.4082885421e-001
 2.7228922586e+000	 1.8995339019e+000	-5.7427794370e-001
 2.7018989294e+000	 1.9292779490e+000	-6.0556074800e-001
 2.9191715449e+000	 1.6366424523e+000	-2.4012343406e-001
 2.9012464465e+000	 1.6682115351e+000	-2.7977390721e-001
 2.8829534073e+000	 1.6996293465e+000	-3.1795215632e-001
 2.8642941699e+000	 1.7308895802e+000	-3.5497877951e-001
 2.8452706184e+000	 1.7619859522e+000	-3.9115196159e-001
 2.8258847789e+000	 1.7929122044e+000	-4.2671940610e-001
 2.8061388188e+000	 1.8236621086e+000	-4.6184870089e-001
 2.7860350463e+000	 1.8542294705e+000	-4.9659633445e-001
 2.7655759102e+000	 1.8846081337e+000	-5.3087559947e-001
 2.7447639990e+000	 1.9147919835e+000	-5.6442363894e-001
 2.7236020401e+000	 1.9447749509e+000	-5.9676790618e-001
 2.9424330575e+000	 1.6496840905e+000	-2.4076071920e-001
 2.9243651223e+000	 1.6815047326e+000	-2.7963723075e-001
 2.9059263145e+000	 1.7131728977e+000	-3.1652406586e-001
 2.8871183903e+000	 1.7446822296e+000	-3.5194801126e-001
 2.8679432491e+000	 1.7760263941e+000	-3.8641954383e-001
 2.8484029329e+000	 1.8071990831e+000	-4.2040299827e-001
 2.8284996264e+000	 1.8381940189e+000	-4.5428504482e-001
 2.8082356564e+000	 1.8690049578e+000	-4.8834170586e-001
 2.7876134910e+000	 1.8996256944e+000	-5.2270416108e-001
 2.7666357395e+000	 1.9300500652e+000	-5.5732361044e-001
 2.7453051508e+000	 1.9602719528e+000	-5.9193548166e-001
 2.9656945701e+000	 1.6627257286e+000	-2.4003043922e-001
 2.9474837982e+000	 1.6947979300e+000	-2.7837488196e-001
 2.9288992217e+000	 1.7267164490e+000	-3.1420111339e-001
 2.9099426108e+000	 1.7584748791e+000	-3.4827089013e-001
 2.8906158798e+000	 1.7900668359e+000	-3.8133622355e-001
 2.8709210869e+000	 1.8214859618e+000	-4.1410765537e-001
 2.8508604341e+000	 1.8527259292e+000	-4.4722071331e-001
 2.8304362665e+000	 1.8837804452e+000	-4.8120078780e-001
 2.8096510718e+000	 1.9146432551e+000	-5.1642669318e-001
 2.7885074799e+000	 1.9453081468e+000	-5.5309319755e-001
 2.7670082615e+000	 1.9757689547e+000	-5.9117282368e-001
 2.5499771547e+000	 1.8207989356e+000	-6.7813225409e-001
 2.5298391828e+000	 1.8486768282e+000	-6.9543557280e-001
 2.5093789672e+000	 1.8763554191e+000	-7.1548392991e-001
 2.4885994412e+000	 1.9038291727e+000	-7.3903052728e-001
 2.4675036641e+000	 1.9310926103e+000	-7.6671983609e-001
 2.4460948194e+000	 1.9581403139e+000	-7.9911773094e-001
 2.4243762135e+000	 1.9849669300e+000	-8.3674282373e-001
 2.4023512743e+000	 2.0115671724e+000	-8.7879088108e-001
 2.3800235488e+000	 2.0379358263e+000	-9.1612097050e-001
 2.3573967021e+000	 2.0640677512e+000	-9.4876890755e-001
 2.3344745148e+000	 2.0899578845e+000	-9.7908283233e-001
 2.5716802653e+000	 1.8362959375e+000	-6.7424199158e-001
 2.5513708972e+000	 1.8644111016e+000	-6.9117625417e-001
 2.5307365427e+000	 1.8923252678e+000	-7.1021575214e-001
 2.5097801601e+000	 1.9200328533e+000	-7.3242415726e-001
 2.4885048347e+000	 1.9475283327e+000	-7.5874446537e-001
 2.4669137771e+000	 1.9748062421e+000	-7.9003051340e-001
 2.4450103220e+000	 2.0018611821e+000	-8.2704523505e-001
 2.4227979263e+000	 2.0286878219e+000	-8.6273388491e-001
 2.4002801674e+000	 2.0552809020e+000	-8.9314463116e-001
 2.3774607413e+000	 2.0816352384e+000	-9.2089369408e-001
 2.3543434610e+000	 2.1077457252e+000	-9.4862111986e-001
 2.5933833760e+000	 1.8517929394e+000	-6.6821624335e-001
 2.5729026116e+000	 1.8801453750e+000	-6.8606969593e-001
 2.5520941181e+000	 1.9082951165e+000	-7.0552779603e-001
 2.5309608789e+000	 1.9362365338e+000	-7.2786930776e-001
 2.5095060052e+000	 1.9639640551e+000	-7.5424047177e-001
 2.4877327348e+000	 1.9914721702e+000	-7.8568816759e-001
 2.4656444305e+000	 2.0187554343e+000	-8.1973532840e-001
 2.4432445784e+000	 2.0458084713e+000	-8.4776477018e-001
 2.4205367859e+000	 2.0726259777e+000	-8.7183184548e-001
 2.3975247805e+000	 2.0992027255e+000	-8.9476624068e-001
 2.3742124071e+000	 2.1255335658e+000	-9.1941795109e-001
 2.6150864867e+000	 1.8672899413e+000	-6.5973756698e-001
 2.5944343260e+000	 1.8958796485e+000	-6.7977718120e-001
 2.5734516935e+000	 1.9242649652e+000	-7.0107410830e-001
 2.5521415977e+000	 1.9524402144e+000	-7.2502833299e-001
 2.5305071758e+000	 1.9803997775e+000	-7.5289554675e-001
 2.5085516926e+000	 2.0081380983e+000	-7.8515890433e-001
 2.4862785390e+000	 2.0356496864e+000	-8.1255222763e-001
 2.4636912304e+000	 2.0629291208e+000	-8.3398819793e-001
 2.4407934044e+000	 2.0899710534e+000	-8.5239333415e-001
 2.4175888197e+000	 2.1167702127e+000	-8.7072943401e-001
 2.3940813533e+000	 2.1433214065e+000	-8.9197659918e-001
 2.6367895974e+000	 1.8827869432e+000	-6.4851643199e-001
 2.6159660404e+000	 1.9116139219e+000	-6.7199523781e-001
 2.5948092690e+000	 1.9402348139e+000	-6.9655088769e-001
 2.5733223165e+000	 1.9686438949e+000	-7.2361212832e-001
 2.5515083463e+000	 1.9968354999e+000	-7.5445170117e-001
 2.5293706503e+000	 2.0248040264e+000	-7.8414199839e-001
 2.5069126475e+000	 2.0525439385e+000	-8.0556954306e-001
 2.4841378824e+000	 2.0800497702e+000	-8.2155808861e-001
 2.4610500230e+000	 2.1073161292e+000	-8.3508649703e-001
 2.4376528589e+000	 2.1343376998e+000	-8.4916939951e-001
 2.4139502994e+000	 2.1611092471e+000	-8.6683921839e-001
 2.6584927081e+000	 1.8982839451e+000	-6.3429528074e-001
 2.6374977548e+000	 1.9273481954e+000	-6.6245974672e-001
 2.6161668444e+000	 1.9562046626e+000	-6.9170065536e-001
 2.5945030353e+000	 1.9848475755e+000	-7.2338437948e-001
 2.5725095169e+000	 2.0132712223e+000	-7.5693995342e-001
 2.5501896080e+000	 2.0414699545e+000	-7.8196315603e-001
 2.5275467561e+000	 2.0694381906e+000	-7.9890927799e-001
 2.5045845345e+000	 2.0971704197e+000	-8.1067495559e-001
 2.4813066415e+000	 2.1246612049e+000	-8.2021275970e-001
 2.4577168980e+000	 2.1519051869e+000	-8.3051289904e-001
 2.4338192456e+000	 2.1788970878e+000	-8.4458433371e-001
 2.6801958187e+000	 1.9137809471e+000	-6.1824713414e-001
 2.6590294692e+000	 1.9430824688e+000	-6.5095005904e-001
 2.6375244199e+000	 1.9721745113e+000	-6.8631643714e-001
 2.6156837542e+000	 2.0010512561e+000	-7.2415457391e-001
 2.5935106874e+000	 2.0297069447e+000	-7.5677540636e-001
 2.5710085658e+000	 2.0581358826e+000	-7.7873314235e-001
 2.5481808646e+000	 2.0863324428e+000	-7.9273919893e-001
 2.5250311865e+000	 2.1142910692e+000	-8.0158325061e-001
 2.5015632601e+000	 2.1420062806e+000	-8.0811492743e-001
 2.4777809372e+000	 2.1694726741e+000	-8.1522472980e-001
 2.4536881917e+000	 2.1966849284e+000	-8.2582432392e-001
 2.7018989294e+000	 1.9292779490e+000	-6.0556074800e-001
 2.6805611835e+000	 1.9588167422e+000	-6.3886142455e-001
 2.6588819953e+000	 1.9881443600e+000	-6.8024595705e-001
 2.6368644730e+000	 2.0172549366e+000	-7.2284407348e-001
 2.6145118580e+000	 2.0461426671e+000	-7.5397253438e-001
 2.5918275235e+000	 2.0748018108e+000	-7.7460706997e-001
 2.5688149731e+000	 2.1032266949e+000	-7.8727021956e-001
 2.5454778386e+000	 2.1314117186e+000	-7.9456872023e-001
 2.5218198786e+000	 2.1593513563e+000	-7.9917454629e-001
 2.4978449764e+000	 2.1870401612e+000	-8.0380512458e-001
 2.4735571379e+000	 2.2144727691e+000	-8.1120289833e-001
 2.7236020401e+000	 1.9447749509e+000	-5.9676790618e-001
 2.7020928979e+000	 1.9745510157e+000	-6.3165296216e-001
 2.6802395708e+000	 2.0041142087e+000	-6.7480246859e-001
 2.6580451918e+000	 2.0334586172e+000	-7.1722047756e-001
 2.6355130285e+000	 2.0625783895e+000	-7.4869022006e-001
 2.6126464812e+000	 2.0914677389e+000	-7.6978185364e-001
 2.5894490816e+000	 2.1201209470e+000	-7.8275379762e-001
 2.5659244906e+000	 2.1485323681e+000	-7.8995577298e-001
 2.5420764971e+000	 2.1766964320e+000	-7.9380927085e-001
 2.5179090156e+000	 2.2046076483e+000	-7.9678715324e-001
 2.4934260840e+000	 2.2322606097e+000	-8.0139256764e-001
 2.7453051508e+000	 1.9602719528e+000	-5.9193548166e-001
 2.7236246123e+000	 1.9902852891e+000	-6.2986364182e-001
 2.7015971462e+000	 2.0200840574e+000	-6.7221328110e-001
 2.6792259106e+000	 2.0496622977e+000	-7.0886832503e-001
 2.6565141991e+000	 2.0790141119e+000	-7.4112738054e-001
 2.6334654390e+000	 2.1081336670e+000	-7.6449367814e-001
 2.6100831901e+000	 2.1370151992e+000	-7.7947934411e-001
 2.5863711426e+000	 2.1656530175e+000	-7.8810485638e-001
 2.5623331157e+000	 2.1940415077e+000	-7.9247023824e-001
 2.5379730548e+000	 2.2221751355e+000	-7.9473412535e-001
 2.5132950302e+000	 2.2500484504e+000	-7.9709210926e-001
 2.7670082615e+000	 1.9757689547e+000	-5.9117282368e-001
 2.7451563267e+000	 2.0060195626e+000	-6.3323162196e-001
 2.7229547217e+000	 2.0360539061e+000	-6.7183700310e-001
 2.7004066295e+000	 2.0658659783e+000	-7.0399240912e-001
 2.6775153696e+000	 2.0954498343e+000	-7.3260454443e-001
 2.6542843967e+000	 2.1247995951e+000	-7.5901547874e-001
 2.6307172986e+000	 2.1539094513e+000	-7.7777164402e-001
 2.6068177947e+000	 2.1827736670e+000	-7.8940984340e-001
 2.5825897342e+000	 2.2113865834e+000	-7.9563944813e-001
 2.5580370939e+000	 2.2397426226e+000	-7.9823699391e-001
 2.5331639763e+000	 2.2678362910e+000	-7.9902402733e-001
 2.3344745148e+000	 2.0899578845e+000	-9.7908283233e-001
 2.3112643850e+000	 2.1155974172e+000	-1.0067656834e+000
 2.2877669022e+000	 2.1409853574e+000	-1.0294951660e+000
 2.2639861814e+000	 2.1661168989e+000	-1.0466081661e+000
 2.2399264443e+000	 2.1909873262e+000	-1.0574696575e+000
 2.2155920168e+000	 2.2155920168e+000	-1.0614635024e+000
 2.1909873262e+000	 2.2399264443e+000	-1.0579834025e+000
 2.1661168989e+000	 2.2639861814e+000	-1.0464241113e+000
 2.1409853574e+000	 2.2877669022e+000	-1.0261730148e+000
 2.1155974172e+000	 2.3112643850e+000	-9.9660218408e-001
 2.0899578845e+000	 2.3344745148e+000	-9.5706099740e-001
 2.3543434610e+000	 2.1077457252e+000	-9.4862111986e-001
 2.3309357874e+000	 2.1336034785e+000	-9.7663747361e-001
 2.3072383152e+000	 2.1592074979e+000	-1.0025204163e+000
 2.2832551943e+000	 2.1845529366e+000	-1.0248421949e+000
 2.2589906824e+000	 2.2096350385e+000	-1.0422156296e+000
 2.2344491421e+000	 2.2344491421e+000	-1.0532856119e+000
 2.2096350385e+000	 2.2589906824e+000	-1.0567207455e+000
 2.1845529366e+000	 2.2832551943e+000	-1.0512052441e+000
 2.1592074979e+000	 2.3072383152e+000	-1.0354311984e+000
 2.1336034785e+000	 2.3309357874e+000	-1.0080913179e+000
 2.1077457252e+000	 2.3543434610e+000	-9.6787224954e-001
 2.3742124071e+000	 2.1255335658e+000	-9.1941795109e-001
 2.3506071898e+000	 2.1516095398e+000	-9.4681796668e-001
 2.3267097282e+000	 2.1774296385e+000	-9.7469906350e-001
 2.3025242072e+000	 2.2029889742e+000	-1.0010004340e+000
 2.2780549204e+000	 2.2282827509e+000	-1.0237120133e+000
 2.2533062674e+000	 2.2533062674e+000	-1.0408664062e+000
 2.2282827509e+000	 2.2780549204e+000	-1.0505309556e+000
 2.2029889742e+000	 2.3025242072e+000	-1.0508000699e+000
 2.1774296385e+000	 2.3267097282e+000	-1.0397879257e+000
 2.1516095398e+000	 2.3506071898e+000	-1.0156216583e+000
 2.1255335658e+000	 2.3742124071e+000	-9.7643514390e-001
 2.3940813533e+000	 2.1433214065e+000	-8.9197659918e-001
 2.3702785922e+000	 2.1696156011e+000	-9.1796687356e-001
 2.3461811411e+000	 2.1956517791e+000	-9.4680762848e-001
 2.3217932201e+000	 2.2214250118e+000	-9.7593336362e-001
 2.2971191585e+000	 2.2469304632e+000	-1.0028372082e+000
 2.2721633927e+000	 2.2721633927e+000	-1.0250630113e+000
 2.2469304632e+000	 2.2971191585e+000	-1.0401975755e+000
 2.2214250118e+000	 2.3217932201e+000	-1.0458631591e+000
 2.1956517791e+000	 2.3461811411e+000	-1.0397103677e+000
 2.1696156011e+000	 2.3702785922e+000	-1.0194115523e+000
 2.1433214065e+000	 2.3940813533e+000	-9.8265482412e-001
 2.4139502994e+000	 2.1611092471e+000	-8.6683921839e-001
 2.3899499946e+000	 2.1876216623e+000	-8.9077858248e-001
 2.3656525541e+000	 2.2138739197e+000	-9.1965444619e-001
 2.3410622330e+000	 2.2398610495e+000	-9.5052187280e-001
 2.3161833966e+000	 2.2655781755e+000	-9.8050019221e-001
 2.2910205180e+000	 2.2910205180e+000	-1.0067649887e+000
 2.2655781755e+000	 2.3161833966e+000	-1.0265402406e+000
 2.2398610495e+000	 2.3410622330e+000	-1.0370907431e+000
 2.2138739197e+000	 2.3656525541e+000	-1.0357149424e+000
 2.1876216623e+000	 2.3899499946e+000	-1.0197383029e+000
 2.1611092471e+000	 2.4139502994e+000	-9.8650732493e-001
 2.4338192456e+000	 2.1788970878e+000	-8.4458433371e-001
 2.4096213971e+000	 2.2056277236e+000	-8.6597973853e-001
 2.3851239671e+000	 2.2320960602e+000	-8.9407728513e-001
 2.3603312458e+000	 2.2582970871e+000	-9.2567486500e-001
 2.3352476346e+000	 2.2842258879e+000	-9.5763805394e-001
 2.3098776433e+000	 2.3098776433e+000	-9.8689173307e-001
 2.2842258879e+000	 2.3352476346e+000	-1.0104118756e+000
 2.2582970871e+000	 2.3603312458e+000	-1.0252176381e+000
 2.2320960602e+000	 2.3851239671e+000	-1.0283638915e+000
 2.2056277236e+000	 2.4096213971e+000	-1.0169343209e+000
 2.1788970878e+000	 2.4338192456e+000	-9.8803521576e-001
 2.4536881917e+000	 2.1966849284e+000	-8.2582432392e-001
 2.4292927995e+000	 2.2236337849e+000	-8.4432680885e-001
 2.4045953801e+000	 2.2503182008e+000	-8.7094094739e-001
 2.3796002587e+000	 2.2767331247e+000	-9.0232684126e-001
 2.3543118727e+000	 2.3028736002e+000	-9.3521350395e-001
 2.3287347687e+000	 2.3287347687e+000	-9.6638985153e-001
 2.3028736002e+000	 2.3543118727e+000	-9.9269587886e-001
 2.2767331247e+000	 2.3796002587e+000	-1.0110141680e+000
 2.2503182008e+000	 2.4045953801e+000	-1.0182618715e+000
 2.2236337849e+000	 2.4292927995e+000	-1.0113833081e+000
 2.1966849284e+000	 2.4536881917e+000	-9.8734329964e-001
 2.4735571379e+000	 2.2144727691e+000	-8.1120289833e-001
 2.4489642019e+000	 2.2416398462e+000	-8.2660363425e-001
 2.4240667931e+000	 2.2685403414e+000	-8.5113484999e-001
 2.3988692716e+000	 2.2951691624e+000	-8.8143546263e-001
 2.3733761107e+000	 2.3215213125e+000	-9.1421236558e-001
 2.3475918940e+000	 2.3475918940e+000	-9.4623052693e-001
 2.3215213125e+000	 2.3733761107e+000	-9.7430329800e-001
 2.2951691624e+000	 2.3988692716e+000	-9.9528308821e-001
 2.2685403414e+000	 2.4240667931e+000	-1.0060525577e+000
 2.2416398462e+000	 2.4489642019e+000	-1.0035164733e+000
 2.2144727691e+000	 2.4735571379e+000	-9.8459436467e-001
 2.4934260840e+000	 2.2322606097e+000	-8.0139256764e-001
 2.4686356043e+000	 2.2596459074e+000	-8.1361896796e-001
 2.4435382061e+000	 2.2867624820e+000	-8.3557058888e-001
 2.4181382845e+000	 2.3136052000e+000	-8.6397909285e-001
 2.3924403488e+000	 2.3401690249e+000	-8.9564104646e-001
 2.3664490193e+000	 2.3664490193e+000	-9.2740686450e-001
 2.3401690249e+000	 2.3924403488e+000	-9.5616999459e-001
 2.3136052000e+000	 2.4181382845e+000	-9.7885650866e-001
 2.2867624820e+000	 2.4435382061e+000	-9.9241526212e-001
 2.2596459074e+000	 2.4686356043e+000	-9.9380877549e-001
 2.2322606097e+000	 2.4934260840e+000	-9.8000498471e-001
 2.5132950302e+000	 2.2500484504e+000	-7.9709210926e-001
 2.4883070067e+000	 2.2776519687e+000	-8.0620400228e-001
 2.4630096191e+000	 2.3049846225e+000	-8.2517948624e-001
 2.4374072974e+000	 2.3320412377e+000	-8.5095432241e-001
 2.4115045869e+000	 2.3588167372e+000	-8.8052399182e-001
 2.3853061446e+000	 2.3853061446e+000	-9.1093122369e-001
 2.3588167372e+000	 2.4115045869e+000	-9.3925380049e-001
 2.3320412377e+000	 2.4374072974e+000	-9.6259281664e-001
 2.3049846225e+000	 2.4630096191e+000	-9.7806156223e-001
 2.2776519687e+000	 2.4883070067e+000	-9.8277519652e-001
 2.2500484504e+000	 2.5132950302e+000	-9.7384136694e-001
 2.5331639763e+000	 2.2678362910e+000	-7.9902402733e-001
 2.5079784091e+000	 2.2956580300e+000	-8.0520988373e-001
 2.4824810320e+000	 2.3232067631e+000	-8.2091012227e-001
 2.4566763103e+000	 2.3504772753e+000	-8.4337347508e-001
 2.4305688249e+000	 2.3774644495e+000	-8.6990112064e-001
 2.4041632699e+000	 2.4041632699e+000	-8.9783253566e-001
 2.3774644495e+000	 2.4305688249e+000	-9.2453166524e-001
 2.3504772753e+000	 2.4566763103e+000	-9.4737359986e-001
 2.3232067631e+000	 2.4824810320e+000	-9.6373194212e-001
 2.2956580300e+000	 2.5079784091e+000	-9.7096703867e-001
 2.2678362910e+000	 2.5331639763e+000	-9.6641524346e-001
 2.0899578845e+000	 2.3344745148e+000	-9.5706099740e-001
 2.0640677512e+000	 2.3573967021e+000	-9.2559143709e-001
 2.0379358263e+000	 2.3800235488e+000	-9.2296310440e-001
 2.0115671724e+000	 2.4023512743e+000	-9.5245671069e-001
 1.9849669300e+000	 2.4243762135e+000	-1.0089749262e+000
 1.9581403139e+000	 2.4460948194e+000	-1.0556555863e+000
 1.9310926103e+000	 2.4675036641e+000	-1.0873607857e+000
 1.9038291727e+000	 2.4885994412e+000	-1.1037735156e+000
 1.8763554191e+000	 2.5093789672e+000	-1.1046236196e+000
 1.8486768282e+000	 2.5298391828e+000	-1.0897124195e+000
 1.8207989356e+000	 2.5499771547e+000	-1.0589359292e+000
 2.1077457252e+000	 2.3543434610e+000	-9.6787224954e-001
 2.0816352384e+000	 2.3774607413e+000	-9.3144867643e-001
 2.0552809020e+000	 2.4002801674e+000	-9.1893309607e-001
 2.0286878219e+000	 2.4227979263e+000	-9.3400970912e-001
 2.0018611821e+000	 2.4450103220e+000	-9.8018091076e-001
 1.9748062421e+000	 2.4669137771e+000	-1.0372837771e+000
 1.9475283327e+000	 2.4885048347e+000	-1.0759415997e+000
 1.9200328533e+000	 2.5097801601e+000	-1.0960093232e+000
 1.8923252678e+000	 2.5307365427e+000	-1.0975126078e+000
 1.8644111016e+000	 2.5513708972e+000	-1.0805466759e+000
 1.8362959375e+000	 2.5716802653e+000	-1.0453003345e+000
 2.1255335658e+000	 2.3742124071e+000	-9.7643514390e-001
 2.0992027255e+000	 2.3975247805e+000	-9.3737225491e-001
 2.0726259777e+000	 2.4205367859e+000	-9.1757490323e-001
 2.0458084713e+000	 2.4432445784e+000	-9.2101536054e-001
 2.0187554343e+000	 2.4656444305e+000	-9.5147097552e-001
 1.9914721702e+000	 2.4877327348e+000	-1.0098100534e+000
 1.9639640551e+000	 2.5095060052e+000	-1.0587403627e+000
 1.9362365338e+000	 2.5309608789e+000	-1.0855010022e+000
 1.9082951165e+000	 2.5520941181e+000	-1.0903100951e+000
 1.8801453750e+000	 2.5729026116e+000	-1.0734575076e+000
 1.8517929394e+000	 2.5933833760e+000	-1.0353298925e+000
 2.1433214065e+000	 2.3940813533e+000	-9.8265482412e-001
 2.1167702127e+000	 2.4175888197e+000	-9.4294045032e-001
 2.0899710534e+000	 2.4407934044e+000	-9.1818075898e-001
 2.0629291208e+000	 2.4636912304e+000	-9.1252319715e-001
 2.0356496864e+000	 2.4862785390e+000	-9.2990939511e-001
 2.0081380983e+000	 2.5085516926e+000	-9.7406368235e-001
 1.9803997775e+000	 2.5305071758e+000	-1.0340004047e+000
 1.9524402144e+000	 2.5521415977e+000	-1.0704275661e+000
 1.9242649652e+000	 2.5734516935e+000	-1.0811810555e+000
 1.8958796485e+000	 2.5944343260e+000	-1.0666479980e+000
 1.8672899413e+000	 2.6150864867e+000	-1.0273197777e+000
 2.1611092471e+000	 2.4139502994e+000	-9.8650732493e-001
 2.1343376998e+000	 2.4376528589e+000	-9.4781492680e-001
 2.1073161292e+000	 2.4610500230e+000	-9.2013754698e-001
 2.0800497702e+000	 2.4841378824e+000	-9.0768735307e-001
 2.0525439385e+000	 2.5069126475e+000	-9.1446195707e-001
 2.0248040264e+000	 2.5293706503e+000	-9.4423239701e-001
 1.9968354999e+000	 2.5515083463e+000	-1.0001538847e+000
 1.9686438949e+000	 2.5733223165e+000	-1.0491622357e+000
 1.9402348139e+000	 2.5948092690e+000	-1.0684881299e+000
 1.9116139219e+000	 2.6159660404e+000	-1.0585203502e+000
 1.8827869432e+000	 2.6367895974e+000	-1.0197636436e+000
 2.1788970878e+000	 2.4338192456e+000	-9.8803521576e-001
 2.1519051869e+000	 2.4577168980e+000	-9.5173585670e-001
 2.1246612049e+000	 2.4813066415e+000	-9.2292146107e-001
 2.0971704197e+000	 2.5045845345e+000	-9.0576082471e-001
 2.0694381906e+000	 2.5275467561e+000	-9.0420153601e-001
 2.0414699545e+000	 2.5501896080e+000	-9.2195757304e-001
 2.0132712223e+000	 2.5725095169e+000	-9.6249859047e-001
 1.9848475755e+000	 2.5945030353e+000	-1.0202666682e+000
 1.9562046626e+000	 2.6161668444e+000	-1.0507859083e+000
 1.9273481954e+000	 2.6374977548e+000	-1.0476703010e+000
 1.8982839451e+000	 2.6584927081e+000	-1.0113482511e+000
 2.1966849284e+000	 2.4536881917e+000	-9.8734329964e-001
 2.1694726741e+000	 2.4777809372e+000	-9.5451712146e-001
 2.1420062806e+000	 2.5015632601e+000	-9.2609276465e-001
 2.1142910692e+000	 2.5250311865e+000	-9.0608984892e-001
 2.0863324428e+000	 2.5481808646e+000	-8.9830215397e-001
 2.0581358826e+000	 2.5710085658e+000	-9.0628497931e-001
 2.0297069447e+000	 2.5935106874e+000	-9.3334428016e-001
 2.0010512561e+000	 2.6156837542e+000	-9.8252765138e-001
 1.9721745113e+000	 2.6375244199e+000	-1.0268153715e+000
 1.9430824688e+000	 2.6590294692e+000	-1.0328816922e+000
 1.9137809471e+000	 2.6801958187e+000	-1.0006539931e+000
 2.2144727691e+000	 2.4735571379e+000	-9.8459436467e-001
 2.1870401612e+000	 2.4978449764e+000	-9.5604158697e-001
 2.1593513563e+000	 2.5218198786e+000	-9.2929064446e-001
 2.1314117186e+000	 2.5454778386e+000	-9.0810839242e-001
 2.1032266949e+000	 2.5688149731e+000	-8.9603316628e-001
 2.0748018108e+000	 2.5918275235e+000	-8.9636204781e-001
 2.0461426671e+000	 2.6145118580e+000	-9.1213999315e-001
 2.0172549366e+000	 2.6368644730e+000	-9.4615089739e-001
 1.9881443600e+000	 2.6588819953e+000	-9.9549848286e-001
 1.9588167422e+000	 2.6805611835e+000	-1.0127828445e+000
 1.9292779490e+000	 2.7018989294e+000	-9.8613377146e-001
 2.2322606097e+000	 2.4934260840e+000	-9.8000498471e-001
 2.2046076483e+000	 2.5179090156e+000	-9.5625644950e-001
 2.1766964320e+000	 2.5420764971e+000	-9.3222815320e-001
 2.1485323681e+000	 2.5659244906e+000	-9.1133274630e-001
 2.1201209470e+000	 2.5894490816e+000	-8.9675356575e-001
 2.0914677389e+000	 2.6126464812e+000	-8.9143194848e-001
 2.0625783895e+000	 2.6355130285e+000	-8.9805649190e-001
 2.0334586172e+000	 2.6580451918e+000	-9.1905433859e-001
 2.0041142087e+000	 2.6802395708e+000	-9.5623362949e-001
 1.9745510157e+000	 2.7020928979e+000	-9.8579901327e-001
 1.9447749509e+000	 2.7236020401e+000	-9.6798150229e-001
 2.2500484504e+000	 2.5132950302e+000	-9.7384136694e-001
 2.2221751355e+000	 2.5379730548e+000	-9.5516864796e-001
 2.1940415077e+000	 2.5623331157e+000	-9.3468723634e-001
 2.1656530175e+000	 2.5863711426e+000	-9.1535621971e-001
 2.1370151992e+000	 2.6100831901e+000	-8.9990639869e-001
 2.1081336670e+000	 2.6334654390e+000	-8.9082778587e-001
 2.0790141119e+000	 2.6565141991e+000	-8.9035913612e-001
 2.0496622977e+000	 2.6792259106e+000	-9.0015626020e-001
 2.0200840574e+000	 2.7015971462e+000	-9.2098915377e-001
 1.9902852891e+000	 2.7236246123e+000	-9.5209447565e-001
 1.9602719528e+000	 2.7453051508e+000	-9.4656865556e-001
 2.2678362910e+000	 2.5331639763e+000	-9.6641524346e-001
 2.2397426226e+000	 2.5580370939e+000	-9.5284033919e-001
 2.2113865834e+000	 2.5825897342e+000	-9.3651383838e-001
 2.1827736670e+000	 2.6068177947e+000	-9.1984392731e-001
 2.1539094513e+000	 2.6307172986e+000	-9.0501328669e-001
 2.1247995951e+000	 2.6542843967e+000	-8.9396691080e-001
 2.0954498343e+000	 2.6775153696e+000	-8.8814519636e-001
 2.0658659783e+000	 2.7004066295e+000	-8.8777481870e-001
 2.0360539061e+000	 2.7229547217e+000	-8.9526760133e-001
 2.0060195626e+000	 2.7451563267e+000	-9.1339569042e-001
 1.9757689547e+000	 2.7670082615e+000	-9.2230404006e-001
 1.8207989356e+000	 2.5499771547e+000	-1.0589359292e+000
 1.7927273302e+000	 2.5697900756e+000	-1.0262979185e+000
 1.7644676483e+000	 2.5892752636e+000	-1.0030733964e+000
 1.7360255719e+000	 2.6084301654e+000	-9.8538496043e-001
 1.7074068260e+000	 2.6272523575e+000	-9.6968717303e-001
 1.6786171747e+000	 2.6457395471e+000	-9.5278680784e-001
 1.6496624172e+000	 2.6638895731e+000	-9.3186047493e-001
 1.6205483847e+000	 2.6817004063e+000	-9.0417649352e-001
 1.5912809365e+000	 2.6991701498e+000	-8.6767022283e-001
 1.5618659559e+000	 2.7162970396e+000	-8.2147025696e-001
 1.5323093471e+000	 2.7330794442e+000	-7.6496387962e-001
 1.8362959375e+000	 2.5716802653e+000	-1.0453003345e+000
 1.8079854119e+000	 2.5916618160e+000	-1.0073549080e+000
 1.7794852089e+000	 2.6113128445e+000	-9.7942013088e-001
 1.7508010592e+000	 2.6306307755e+000	-9.5770360414e-001
 1.7219387363e+000	 2.6496131651e+000	-9.3875471771e-001
 1.6929040534e+000	 2.6682577011e+000	-9.1948193668e-001
 1.6637028591e+000	 2.6865622037e+000	-8.9677956193e-001
 1.6343410342e+000	 2.7045246267e+000	-8.6878253384e-001
 1.6048244877e+000	 2.7221430570e+000	-8.3450607565e-001
 1.5751591533e+000	 2.7394157154e+000	-7.9322351219e-001
 1.5453509852e+000	 2.7563409568e+000	-7.4444666573e-001
 1.8517929394e+000	 2.5933833760e+000	-1.0353298925e+000
 1.8232434935e+000	 2.6135335564e+000	-9.9305702661e-001
 1.7945027696e+000	 2.6333504253e+000	-9.6083522718e-001
 1.7655765466e+000	 2.6528313856e+000	-9.3498724587e-001
 1.7364706467e+000	 2.6719739728e+000	-9.1214818357e-001
 1.7071909321e+000	 2.6907758550e+000	-8.8897430666e-001
 1.6777433009e+000	 2.7092348344e+000	-8.6370485897e-001
 1.6481336836e+000	 2.7273488472e+000	-8.3525159411e-001
 1.6183680390e+000	 2.7451159642e+000	-8.0279916340e-001
 1.5884523507e+000	 2.7625343913e+000	-7.6578409207e-001
 1.5583926234e+000	 2.7796024694e+000	-7.2387410811e-001
 1.8672899413e+000	 2.6150864867e+000	-1.0273197777e+000
 1.8385015752e+000	 2.6354052969e+000	-9.8181308879e-001
 1.8095203303e+000	 2.6553880061e+000	-9.4582834141e-001
 1.7803520339e+000	 2.6750319957e+000	-9.1573640683e-001
 1.7510025570e+000	 2.6943347804e+000	-8.8803210918e-001
 1.7214778108e+000	 2.7132940090e+000	-8.6098521595e-001
 1.6917837428e+000	 2.7319074651e+000	-8.3342630415e-001
 1.6619263330e+000	 2.7501730676e+000	-8.0447540554e-001
 1.6319115902e+000	 2.7680888714e+000	-7.7351946386e-001
 1.6017455481e+000	 2.7856530671e+000	-7.4019008716e-001
 1.5714342615e+000	 2.8028639820e+000	-7.0434172910e-001
 1.8827869432e+000	 2.6367895974e+000	-1.0197636436e+000
 1.8537596569e+000	 2.6572770373e+000	-9.7222869786e-001
 1.8245378910e+000	 2.6774255869e+000	-9.3294181989e-001
 1.7951275212e+000	 2.6972326058e+000	-8.9825682950e-001
 1.7655344673e+000	 2.7166955881e+000	-8.6643534269e-001
 1.7357646895e+000	 2.7358121630e+000	-8.3624686501e-001
 1.7058241847e+000	 2.7545800958e+000	-8.0676900659e-001
 1.6757189825e+000	 2.7729972881e+000	-7.7736333234e-001
 1.6454551415e+000	 2.7910617786e+000	-7.4765143296e-001
 1.6150387455e+000	 2.8087717430e+000	-7.1749136693e-001
 1.5844758997e+000	 2.8261254946e+000	-6.8695461301e-001
 1.8982839451e+000	 2.6584927081e+000	-1.0113482511e+000
 1.8690177385e+000	 2.6791487777e+000	-9.6286957663e-001
 1.8395554517e+000	 2.6994631677e+000	-9.2058427797e-001
 1.8099030085e+000	 2.7194332159e+000	-8.8272469076e-001
 1.7800663776e+000	 2.7390563958e+000	-8.4801653107e-001
 1.7500515682e+000	 2.7583303170e+000	-8.1551468965e-001
 1.7198646266e+000	 2.7772527264e+000	-7.8457740161e-001
 1.6895116319e+000	 2.7958215085e+000	-7.5484054364e-001
 1.6589986927e+000	 2.8140346857e+000	-7.2619222619e-001
 1.6283319429e+000	 2.8318904189e+000	-6.9874783775e-001
 1.5975175378e+000	 2.8493870072e+000	-6.7282568704e-001
 1.9137809471e+000	 2.6801958187e+000	-1.0006539931e+000
 1.8842758202e+000	 2.7010205182e+000	-9.5219390431e-001
 1.8545730124e+000	 2.7215007486e+000	-9.0898553236e-001
 1.8246784959e+000	 2.7416338260e+000	-8.6972462144e-001
 1.7945982879e+000	 2.7614172034e+000	-8.3345989961e-001
 1.7643384469e+000	 2.7808484710e+000	-7.9956551227e-001
 1.7339050684e+000	 2.7999253571e+000	-7.6771346872e-001
 1.7033042813e+000	 2.8186457290e+000	-7.3784628777e-001
 1.6725422440e+000	 2.8370075929e+000	-7.1015001764e-001
 1.6416251403e+000	 2.8550090947e+000	-6.8502779468e-001
 1.6105591760e+000	 2.8726485198e+000	-6.6307409286e-001
 1.9292779490e+000	 2.7018989294e+000	-9.8613377146e-001
 1.8995339019e+000	 2.7228922586e+000	-9.4043018920e-001
 1.8695905731e+000	 2.7435383294e+000	-8.9865697544e-001
 1.8394539832e+000	 2.7638344362e+000	-8.5986945175e-001
 1.8091301983e+000	 2.7837780111e+000	-8.2347343991e-001
 1.7786253257e+000	 2.8033666250e+000	-7.8919580038e-001
 1.7479455103e+000	 2.8225979878e+000	-7.5705505135e-001
 1.7170969308e+000	 2.8414699494e+000	-7.2733226309e-001
 1.6860857952e+000	 2.8599805001e+000	-7.0054241141e-001
 1.6549183377e+000	 2.8781277706e+000	-6.7740636188e-001
 1.6236008141e+000	 2.8959100323e+000	-6.5882364385e-001
 1.9447749509e+000	 2.7236020401e+000	-9.6798150229e-001
 1.9147919835e+000	 2.7447639990e+000	-9.2801845374e-001
 1.8846081337e+000	 2.7655759102e+000	-8.9014105709e-001
 1.8542294705e+000	 2.7860350463e+000	-8.5379843357e-001
 1.8236621086e+000	 2.8061388188e+000	-8.1878720482e-001
 1.7929122044e+000	 2.8258847789e+000	-7.8522002613e-001
 1.7619859522e+000	 2.8452706184e+000	-7.5349427227e-001
 1.7308895802e+000	 2.8642941699e+000	-7.2426108007e-001
 1.6996293465e+000	 2.8829534073e+000	-6.9839494003e-001
 1.6682115351e+000	 2.9012464465e+000	-6.7696401661e-001
 1.6366424523e+000	 2.9191715449e+000	-6.6120136317e-001
 1.9602719528e+000	 2.7453051508e+000	-9.4656865556e-001
 1.9300500652e+000	 2.7666357395e+000	-9.1543283573e-001
 1.8996256944e+000	 2.7876134910e+000	-8.8400954015e-001
 1.8690049578e+000	 2.8082356564e+000	-8.5217556948e-001
 1.8381940189e+000	 2.8284996264e+000	-8.2015170428e-001
 1.8071990831e+000	 2.8484029329e+000	-7.8846912139e-001
 1.7760263941e+000	 2.8679432491e+000	-7.5793603978e-001
 1.7446822296e+000	 2.8871183903e+000	-7.2960480948e-001
 1.7131728977e+000	 2.9059263145e+000	-7.0473964520e-001
 1.6815047326e+000	 2.9243651223e+000	-6.8478519231e-001
 1.6496840905e+000	 2.9424330575e+000	-6.7133609825e-001
 1.9757689547e+000	 2.7670082615e+000	-9.2230404006e-001
 1.9453081468e+000	 2.7885074799e+000	-9.0317987714e-001
 1.9146432551e+000	 2.8096510718e+000	-8.8086186279e-001
 1.8837804452e+000	 2.8304362665e+000	-8.5568804286e-001
 1.8527259292e+000	 2.8508604341e+000	-8.2833639660e-001
 1.8214859618e+000	 2.8709210869e+000	-7.9978902320e-001
 1.7900668359e+000	 2.8906158798e+000	-7.7129663939e-001
 1.7584748791e+000	 2.9099426108e+000	-7.4434361203e-001
 1.7267164490e+000	 2.9288992217e+000	-7.2061373635e-001
 1.6947979300e+000	 2.9474837982e+000	-7.0195695627e-001
 1.6627257286e+000	 2.9656945701e+000	-6.9035720735e-001
 1.5323093471e+000	 2.7330794442e+000	-7.6496387962e-001
 1.5026214949e+000	 2.7495134265e+000	-7.0564393658e-001
 1.4728039098e+000	 2.7656001662e+000	-6.5622583841e-001
 1.4428625346e+000	 2.7813384333e+000	-6.2397566766e-001
 1.4128033184e+000	 2.7967271297e+000	-6.1593272506e-001
 1.3826322125e+000	 2.8117652893e+000	-6.3888627874e-001
 1.3523551673e+000	 2.8264520771e+000	-6.9935384836e-001
 1.3219781284e+000	 2.8407867890e+000	-7.9549397664e-001
 1.2915070333e+000	 2.8547688504e+000	-8.4738113903e-001
 1.2609478081e+000	 2.8683978159e+000	-8.3637252761e-001
 1.2303063637e+000	 2.8816733683e+000	-7.6640336518e-001
 1.5453509852e+000	 2.7563409568e+000	-7.4444666573e-001
 1.5154104568e+000	 2.7729148103e+000	-6.9279150784e-001
 1.4853390912e+000	 2.7891384659e+000	-6.4778140503e-001
 1.4551428820e+000	 2.8050106830e+000	-6.1633668409e-001
 1.4248278287e+000	 2.8205303541e+000	-6.0516643589e-001
 1.3943999336e+000	 2.8356965050e+000	-6.2074501996e-001
 1.3638651974e+000	 2.8505082935e+000	-6.6929014070e-001
 1.3332296165e+000	 2.8649650095e+000	-7.5674223856e-001
 1.3024991789e+000	 2.8790660737e+000	-8.2945956881e-001
 1.2716798610e+000	 2.8928110367e+000	-8.3324268777e-001
 1.2407776243e+000	 2.9061995786e+000	-7.7198890998e-001
 1.5583926234e+000	 2.7796024694e+000	-7.2387410811e-001
 1.5281994187e+000	 2.7963161942e+000	-6.7903257698e-001
 1.4978742726e+000	 2.8126767656e+000	-6.3779285802e-001
 1.4674232293e+000	 2.8286829326e+000	-6.0672753850e-001
 1.4368523391e+000	 2.8443335785e+000	-5.9221404004e-001
 1.4061676547e+000	 2.8596277206e+000	-6.0041086347e-001
 1.3753752276e+000	 2.8745645099e+000	-6.3723544414e-001
 1.3444811046e+000	 2.8891432301e+000	-7.0834367108e-001
 1.3134913245e+000	 2.9033632970e+000	-7.9483479208e-001
 1.2824119140e+000	 2.9172242575e+000	-8.1443568634e-001
 1.2512488848e+000	 2.9307257889e+000	-7.6328017667e-001
 1.5714342615e+000	 2.8028639820e+000	-7.0434172910e-001
 1.5409883806e+000	 2.8197175780e+000	-6.6552109168e-001
 1.5104094540e+000	 2.8362150654e+000	-6.2748574001e-001
 1.4797035767e+000	 2.8523551823e+000	-5.9645869177e-001
 1.4488768495e+000	 2.8681368029e+000	-5.7848436068e-001
 1.4179353758e+000	 2.8835589363e+000	-5.7940452633e-001
 1.3868852577e+000	 2.8986207263e+000	-6.0483595548e-001
 1.3557325927e+000	 2.9133214507e+000	-6.6014972892e-001
 1.3244834701e+000	 2.9276605203e+000	-7.4570040852e-001
 1.2931439669e+000	 2.9416374783e+000	-7.8207738586e-001
 1.2617201454e+000	 2.9552519993e+000	-7.4234348120e-001
 1.5844758997e+000	 2.8261254946e+000	-6.8695461301e-001
 1.5537773424e+000	 2.8431189619e+000	-6.5341845000e-001
 1.5229446355e+000	 2.8597533651e+000	-6.1809064289e-001
 1.4919839241e+000	 2.8760274320e+000	-5.8684296309e-001
 1.4609013599e+000	 2.8919400273e+000	-5.6538559795e-001
 1.4297030969e+000	 2.9074901520e+000	-5.5924283004e-001
 1.3983952878e+000	 2.9226769427e+000	-5.7373041103e-001
 1.3669840809e+000	 2.9374996712e+000	-6.1393468551e-001
 1.3354756156e+000	 2.9519577435e+000	-6.8469350584e-001
 1.3038760199e+000	 2.9660506991e+000	-7.3845876680e-001
 1.2721914059e+000	 2.9797782096e+000	-7.1141657478e-001
 1.5975175378e+000	 2.8493870072e+000	-6.7282568704e-001
 1.5665663043e+000	 2.8665203457e+000	-6.4389180617e-001
 1.5354798169e+000	 2.8832916648e+000	-6.1084155680e-001
 1.5042642715e+000	 2.8996996817e+000	-5.7919394060e-001
 1.4729258703e+000	 2.9157432517e+000	-5.5432381995e-001
 1.4414708180e+000	 2.9314213677e+000	-5.4143729051e-001
 1.4099053180e+000	 2.9467331591e+000	-5.4554879443e-001
 1.3782355690e+000	 2.9616778918e+000	-5.7146003014e-001
 1.3464677612e+000	 2.9762549668e+000	-6.2374070009e-001
 1.3146080728e+000	 2.9904639199e+000	-6.8601782468e-001
 1.2826626665e+000	 3.0043044200e+000	-6.7289150337e-001
 1.6105591760e+000	 2.8726485198e+000	-6.6307409286e-001
 1.5793552662e+000	 2.8899217296e+000	-6.3811246395e-001
 1.5480149983e+000	 2.9068299645e+000	-6.0697430274e-001
 1.5165446189e+000	 2.9233719313e+000	-5.7482447101e-001
 1.4849503807e+000	 2.9395464761e+000	-5.4670152702e-001
 1.4532385390e+000	 2.9553525834e+000	-5.2749277506e-001
 1.4214153481e+000	 2.9707893755e+000	-5.2191110436e-001
 1.3894870571e+000	 2.9858561124e+000	-5.3447367396e-001
 1.3574599068e+000	 3.0005521901e+000	-5.6948248524e-001
 1.3253401258e+000	 3.0148771406e+000	-6.2732150080e-001
 1.2931339270e+000	 3.0288306303e+000	-6.2929749021e-001
 1.6236008141e+000	 2.8959100323e+000	-6.5882364385e-001
 1.5921442281e+000	 2.9133231134e+000	-6.3725435270e-001
 1.5605501797e+000	 2.9303682642e+000	-6.0772504419e-001
 1.5288249663e+000	 2.9470441810e+000	-5.7504522362e-001
 1.4969748911e+000	 2.9633497005e+000	-5.4391628534e-001
 1.4650062601e+000	 2.9792837991e+000	-5.1890622268e-001
 1.4329253782e+000	 2.9948455920e+000	-5.0442617876e-001
 1.4007385452e+000	 3.0100343330e+000	-5.0470889556e-001
 1.3684520523e+000	 3.0248494134e+000	-5.2378910319e-001
 1.3360721787e+000	 3.0392903614e+000	-5.6548587542e-001
 1.3036051876e+000	 3.0533568406e+000	-5.8328384016e-001
 1.6366424523e+000	 2.9191715449e+000	-6.6120136317e-001
 1.6049331899e+000	 2.9367244973e+000	-6.4249258144e-001
 1.5730853612e+000	 2.9539065639e+000	-6.1432887327e-001
 1.5411053137e+000	 2.9707164307e+000	-5.8116332474e-001
 1.5089994015e+000	 2.9871529249e+000	-5.4735942592e-001
 1.4767739812e+000	 3.0032150148e+000	-5.1716542410e-001
 1.4444354083e+000	 3.0189018084e+000	-4.9469057251e-001
 1.4119900333e+000	 3.0342125535e+000	-4.8388333278e-001
 1.3794441979e+000	 3.0491466367e+000	-4.8851157304e-001
 1.3468042317e+000	 3.0637035822e+000	-5.1214478739e-001
 1.3140764481e+000	 3.0778830510e+000	-5.3760286468e-001
 1.6496840905e+000	 2.9424330575e+000	-6.7133609825e-001
 1.6177221518e+000	 2.9601258812e+000	-6.5500206672e-001
 1.5856205426e+000	 2.9774448636e+000	-6.2801846727e-001
 1.5533856610e+000	 2.9943886803e+000	-5.9448105851e-001
 1.5210239119e+000	 3.0109561493e+000	-5.5841480534e-001
 1.4885417023e+000	 3.0271462304e+000	-5.2374785819e-001
 1.4559454385e+000	 3.0429580248e+000	-4.9428748543e-001
 1.4232415214e+000	 3.0583907741e+000	-4.7369801830e-001
 1.3904363435e+000	 3.0734438600e+000	-4.6548085021e-001
 1.3575362846e+000	 3.0881168030e+000	-4.7295651559e-001
 1.3245477087e+000	 3.1024092613e+000	-4.9509282622e-001
 1.6627257286e+000	 2.9656945701e+000	-6.9035720735e-001
 1.6305111137e+000	 2.9835272650e+000	-6.7595623007e-001
 1.5981557240e+000	 3.0009831633e+000	-6.5002281178e-001
 1.5656660084e+000	 3.0180609300e+000	-6.1629463050e-001
 1.5330484222e+000	 3.0347593738e+000	-5.7845762492e-001
 1.5003094234e+000	 3.0510774461e+000	-5.4011958183e-001
 1.4674554686e+000	 3.0670142412e+000	-5.0478573796e-001
 1.4344930095e+000	 3.0825689947e+000	-4.7583645646e-001
 1.4014284891e+000	 3.0977410833e+000	-4.5650701978e-001
 1.3682683376e+000	 3.1125300238e+000	-4.4986956379e-001
 1.3350189692e+000	 3.1269354717e+000	-4.5881716019e-001
 1.2303063637e+000	 2.8816733683e+000	-7.6640336518e-001
 1.1995839799e+000	 2.8945972292e+000	-6.6878090257e-001
 1.1687911224e+000	 2.9071673179e+000	-5.7364286220e-001
 1.1379336420e+000	 2.9193836965e+000	-4.8285024637e-001
 1.1070173614e+000	 2.9312465504e+000	-3.9814628344e-001
 1.0760480726e+000	 2.9427561866e+000	-3.2114301998e-001
 1.0450315331e+000	 2.9539130326e+000	-2.5330817078e-001
 1.0139734639e+000	 2.9647176344e+000	-1.9595217774e-001
 9.8287954570e-001	 2.9751706548e+000	-1.5024454459e-001
 9.5175541694e-001	 2.9852728719e+000	-1.1709631385e-001
 9.2060667051e-001	 2.9950251768e+000	-9.7290948589e-002
 1.2407776243e+000	 2.9061995786e+000	-7.7198890998e-001
 1.2097937591e+000	 2.9192334358e+000	-6.7884023859e-001
 1.1787388205e+000	 2.9319105098e+000	-5.8612290602e-001
 1.1476187090e+000	 2.9442308632e+000	-4.9618943001e-001
 1.1164392970e+000	 2.9561946830e+000	-4.1125762173e-001
 1.0852064254e+000	 2.9678022789e+000	-3.3339694470e-001
 1.0539259011e+000	 2.9790540820e+000	-2.6451504796e-001
 1.0226034935e+000	 2.9899506428e+000	-2.0634441946e-001
 9.9124493185e-001	 3.0004926299e+000	-1.6045512372e-001
 9.5985590252e-001	 3.0106808279e+000	-1.2814823549e-001
 9.2844204599e-001	 3.0205161357e+000	-1.1056984277e-001
 1.2512488848e+000	 2.9307257889e+000	-7.6328017667e-001
 1.2200035384e+000	 2.9438696424e+000	-6.7611692993e-001
 1.1886865187e+000	 2.9566537017e+000	-5.8722972154e-001
 1.1573037761e+000	 2.9690780299e+000	-4.9947012512e-001
 1.1258612325e+000	 2.9811428157e+000	-4.1553745806e-001
 1.0943647782e+000	 2.9928483712e+000	-3.3796500352e-001
 1.0628202690e+000	 3.0041951313e+000	-2.6910631347e-001
 1.0312335231e+000	 3.0151836512e+000	-2.1112153298e-001
 9.9961031800e-001	 3.0258146050e+000	-1.6598685430e-001
 9.6795638809e-001	 3.0360887840e+000	-1.3539800661e-001
 9.3627742146e-001	 3.0460070947e+000	-1.2086880715e-001
 1.2617201454e+000	 2.9552519993e+000	-7.4234348120e-001
 1.2302133177e+000	 2.9685058490e+000	-6.6260746239e-001
 1.1986342169e+000	 2.9813968936e+000	-5.7886141923e-001
 1.1669888432e+000	 2.9939251966e+000	-4.9446307766e-001
 1.1352831680e+000	 3.0060909483e+000	-4.1259983334e-001
 1.1035231310e+000	 3.0178944636e+000	-3.3627493818e-001
 1.0717146369e+000	 3.0293361807e+000	-2.6829366439e-001
 1.0398635527e+000	 3.0404166596e+000	-2.1124938013e-001
 1.0079757041e+000	 3.0511365801e+000	-1.6753002718e-001
 9.7605687366e-001	 3.0614967401e+000	-1.3923080858e-001
 9.4411279694e-001	 3.0714980536e+000	-1.2823865494e-001
 1.2721914059e+000	 2.9797782096e+000	-7.1141657478e-001
 1.2404230969e+000	 2.9931420557e+000	-6.4048589225e-001
 1.2085819151e+000	 3.0061400855e+000	-5.6310014438e-001
 1.1766739103e+000	 3.0187723634e+000	-4.8312979223e-001
 1.1447051035e+000	 3.0310390810e+000	-4.0425646305e-001
 1.1126814838e+000	 3.0429405559e+000	-3.2995920808e-001
 1.0806090049e+000	 3.0544772300e+000	-2.6350062359e-001
 1.0484935822e+000	 3.0656496680e+000	-2.0791276246e-001
 1.0163410903e+000	 3.0764585552e+000	-1.6598278864e-001
 9.8415735924e-001	 3.0869046962e+000	-1.4026478480e-001
 9.5194817241e-001	 3.0969890125e+000	-1.3296996827e-001
 1.2826626665e+000	 3.0043044200e+000	-6.7289150337e-001
 1.2506328762e+000	 3.0177782623e+000	-6.1208765738e-001
 1.2185296133e+000	 3.0308832774e+000	-5.4219680401e-001
 1.1863589773e+000	 3.0436195301e+000	-4.6760813791e-001
 1.1541270390e+000	 3.0559872136e+000	-3.9250318390e-001
 1.1218398366e+000	 3.0679866482e+000	-3.2084223874e-001
 1.0895033728e+000	 3.0796182794e+000	-2.5635054995e-001
 1.0571236118e+000	 3.0908826764e+000	-2.0250415228e-001
 1.0247064764e+000	 3.1017805303e+000	-1.6251530849e-001
 9.9225784481e-001	 3.1123126523e+000	-1.3934108815e-001
 9.5978354789e-001	 3.1224799714e+000	-1.3558373958e-001
 1.2931339270e+000	 3.0288306303e+000	-6.2929749021e-001
 1.2608426555e+000	 3.0424144689e+000	-5.7989340129e-001
 1.2284773114e+000	 3.0556264693e+000	-5.1855579831e-001
 1.1960440444e+000	 3.0684666968e+000	-4.5019795138e-001
 1.1635489746e+000	 3.0809353463e+000	-3.7950639215e-001
 1.1309981894e+000	 3.0930327405e+000	-3.1092765760e-001
 1.0983977407e+000	 3.1047593287e+000	-2.4865463312e-001
 1.0657536414e+000	 3.1161156848e+000	-1.9661240691e-001
 1.0330718626e+000	 3.1271025054e+000	-1.5844357749e-001
 1.0003583304e+000	 3.1377206083e+000	-1.3751391272e-001
 9.6761892336e-001	 3.1479709303e+000	-1.3682199986e-001
 1.3036051876e+000	 3.0533568406e+000	-5.8328384016e-001
 1.2710524347e+000	 3.0670506755e+000	-5.4651280964e-001
 1.2384250096e+000	 3.0803696612e+000	-4.9471975612e-001
 1.2057291115e+000	 3.0933138635e+000	-4.3334663751e-001
 1.1729709101e+000	 3.1058834789e+000	-3.6758947388e-001
 1.1401565422e+000	 3.1180788328e+000	-3.0238551792e-001
 1.1072921087e+000	 3.1299003781e+000	-2.4239987361e-001
 1.0743836710e+000	 3.1413486932e+000	-1.9201146691e-001
 1.0414372487e+000	 3.1524244805e+000	-1.5529830386e-001
 1.0084588160e+000	 3.1631285644e+000	-1.3604051083e-001
 9.7545429884e-001	 3.1734618893e+000	-1.3763843472e-001
 1.3140764481e+000	 3.0778830510e+000	-5.3760286468e-001
 1.2812622140e+000	 3.0916868821e+000	-5.1466845819e-001
 1.2483727078e+000	 3.1051128531e+000	-4.7335427444e-001
 1.2154141786e+000	 3.1181610302e+000	-4.1963476747e-001
 1.1823928456e+000	 3.1308316116e+000	-3.5921922797e-001
 1.1493148950e+000	 3.1431249251e+000	-2.9753951134e-001
 1.1161864766e+000	 3.1550414274e+000	-2.3973704919e-001
 1.0830137006e+000	 3.1665817016e+000	-1.9064903922e-001
 1.0498026349e+000	 3.1777464556e+000	-1.5479374234e-001
 1.0165593015e+000	 3.1885365205e+000	-1.3635484977e-001
 9.8328967431e-001	 3.1989528482e+000	-1.3918898877e-001
 1.3245477087e+000	 3.1024092613e+000	-4.9509282622e-001
 1.2914719933e+000	 3.1163230887e+000	-4.8717967178e-001
 1.2583204060e+000	 3.1298560450e+000	-4.5723266165e-001
 1.2250992456e+000	 3.1430081969e+000	-4.1176167463e-001
 1.1918147811e+000	 3.1557797442e+000	-3.5699228185e-001
 1.1584732478e+000	 3.1681710175e+000	-2.9885416989e-001
 1.1250808445e+000	 3.1801824768e+000	-2.4296866816e-001
 1.0916437302e+000	 3.1918147100e+000	-1.9463526616e-001
 1.0581680210e+000	 3.2030684307e+000	-1.5881704221e-001
 1.0246597871e+000	 3.2139444766e+000	-1.4012496208e-001
 9.9112504979e-001	 3.2244438071e+000	-1.4282245911e-001
 1.3350189692e+000	 3.1269354717e+000	-4.5881716019e-001
 1.3016817725e+000	 3.1409592953e+000	-4.6694639375e-001
 1.2682681041e+000	 3.1545992369e+000	-4.4922068422e-001
 1.2347843127e+000	 3.1678553637e+000	-4.1253104823e-001
 1.2012367166e+000	 3.1807278769e+000	-3.6362150065e-001
 1.1676316006e+000	 3.1932171098e+000	-3.0892205788e-001
 1.1339752124e+000	 3.2053235261e+000	-2.5453691044e-001
 1.1002737598e+000	 3.2170477184e+000	-2.0623138095e-001
 1.0665334072e+000	 3.2283904058e+000	-1.6941758173e-001
 1.0327602727e+000	 3.2393524327e+000	-1.4913872560e-001
 9.9896042527e-001	 3.2499347660e+000	-1.5007107842e-001
 9.2060667051e-001	 2.9950251768e+000	-9.7290948589e-002
 8.8943885089e-001	 3.0044285715e+000	-8.4051834813e-002
 8.5825745028e-001	 3.0134841643e+000	-7.1892205097e-002
 8.2706790750e-001	 3.0221931699e+000	-6.3060885908e-002
 7.9587560609e-001	 3.0305569083e+000	-5.9402845612e-002
 7.6468587201e-001	 3.0385768026e+000	-6.2347499133e-002
 7.3350397137e-001	 3.0462543768e+000	-7.2897820356e-002
 7.0233510834e-001	 3.0535912533e+000	-9.1620354993e-002
 6.7118442308e-001	 3.0605891508e+000	-1.1863623426e-001
 6.4005698981e-001	 3.0672498820e+000	-1.2323965585e-001
 6.0895781491e-001	 3.0735753511e+000	-4.9529510803e-002
 9.2844204599e-001	 3.0205161357e+000	-1.1056984277e-001
 8.9700895394e-001	 3.0299995637e+000	-9.9850017045e-002
 8.6556216530e-001	 3.0391322295e+000	-8.9103252060e-002
 8.3410716520e-001	 3.0479153583e+000	-8.0458703363e-002
 8.0264938300e-001	 3.0563502813e+000	-7.5626151335e-002
 7.7119418997e-001	 3.0644384338e+000	-7.5883713122e-002
 7.3974689706e-001	 3.0721813526e+000	-8.2066271710e-002
 7.0831275271e-001	 3.0795806740e+000	-9.4554723360e-002
 6.7689694086e-001	 3.0866381313e+000	-1.1326615329e-001
 6.4550457888e-001	 3.0933555526e+000	-1.1820651028e-001
 6.1414071579e-001	 3.0997348584e+000	-4.4238057785e-002
 9.3627742146e-001	 3.0460070947e+000	-1.2086880715e-001
 9.0457905698e-001	 3.0555705559e+000	-1.1347626405e-001
 8.7286688032e-001	 3.0647802947e+000	-1.0498043617e-001
 8.4114642290e-001	 3.0736375467e+000	-9.7403368429e-002
 8.0942315991e-001	 3.0821436544e+000	-9.2334454497e-002
 7.7770250793e-001	 3.0903000650e+000	-9.0917490757e-002
 7.4598982274e-001	 3.0981083284e+000	-9.3838343975e-002
 7.1429039708e-001	 3.1055700946e+000	-1.0131334313e-001
 6.8260945863e-001	 3.1126871118e+000	-1.1307851548e-001
 6.5095216796e-001	 3.1194612233e+000	-1.1755378569e-001
 6.1932361667e-001	 3.1258943657e+000	-4.5711324520e-002
 9.4411279694e-001	 3.0714980536e+000	-1.2823865494e-001
 9.1214916002e-001	 3.0811415480e+000	-1.2464176680e-001
 8.8017159535e-001	 3.0904283599e+000	-1.1891401467e-001
 8.4818568061e-001	 3.0993597352e+000	-1.1298323501e-001
 8.1619693681e-001	 3.1079370274e+000	-1.0833365549e-001
 7.8421082589e-001	 3.1161616961e+000	-1.0599222513e-001
 7.5223274842e-001	 3.1240353041e+000	-1.0651544156e-001
 7.2026804145e-001	 3.1315595153e+000	-1.0997679546e-001
 6.8832197640e-001	 3.1387360922e+000	-1.1595496332e-001
 6.5639975703e-001	 3.1455668939e+000	-1.1886123286e-001
 6.2450651756e-001	 3.1520538730e+000	-5.1287355742e-002
 9.5194817241e-001	 3.0969890125e+000	-1.3296996827e-001
 9.1971926307e-001	 3.1067125402e+000	-1.3330331623e-001
 8.8747631037e-001	 3.1160764251e+000	-1.3054388641e-001
 8.5522493831e-001	 3.1250819236e+000	-1.2653852197e-001
 8.2297071372e-001	 3.1337304005e+000	-1.2268190060e-001
 7.9071914385e-001	 3.1420233273e+000	-1.1990207483e-001
 7.5847567410e-001	 3.1499622799e+000	-1.1864637864e-001
 7.2624568582e-001	 3.1575489359e+000	-1.1886783120e-001
 6.9403449417e-001	 3.1647850727e+000	-1.2001218038e-001
 6.6184734610e-001	 3.1716725645e+000	-1.1996714434e-001
 6.2968941844e-001	 3.1782133803e+000	-5.8548288355e-002
 9.5978354789e-001	 3.1224799714e+000	-1.3558373958e-001
 9.2728936611e-001	 3.1322835323e+000	-1.3965452672e-001
 8.9478102539e-001	 3.1417244903e+000	-1.3975141668e-001
 8.6226419602e-001	 3.1508041120e+000	-1.3765375765e-001
 8.2974449062e-001	 3.1595237735e+000	-1.3468266410e-001
 7.9722746181e-001	 3.1678849585e+000	-1.3168570059e-001
 7.6471859979e-001	 3.1758892557e+000	-1.2902178671e-001
 7.3222333019e-001	 3.1835383566e+000	-1.2654646511e-001
 6.9974701194e-001	 3.1908340532e+000	-1.2359768752e-001
 6.6729493517e-001	 3.1977782351e+000	-1.1898228538e-001
 6.3487231932e-001	 3.2043728877e+000	-6.5319195838e-002
 9.6761892336e-001	 3.1479709303e+000	-1.3682199986e-001
 9.3485946916e-001	 3.1578545245e+000	-1.4411704886e-001
 9.0208574042e-001	 3.1673725556e+000	-1.4665125193e-001
 8.6930345372e-001	 3.1765263004e+000	-1.4615021332e-001
 8.3651826753e-001	 3.1853171466e+000	-1.4387781618e-001
 8.0373577976e-001	 3.1937465896e+000	-1.4061998302e-001
 7.7096152547e-001	 3.2018162314e+000	-1.3666849679e-001
 7.3820097456e-001	 3.2095277773e+000	-1.3180503644e-001
 7.0545952971e-001	 3.2168830336e+000	-1.2528559525e-001
 6.7274252424e-001	 3.2238839057e+000	-1.1582546285e-001
 6.4005522020e-001	 3.2305323950e+000	-6.9666863317e-002
 9.7545429884e-001	 3.1734618893e+000	-1.3763843472e-001
 9.4242957220e-001	 3.1834255166e+000	-1.4733177229e-001
 9.0939045544e-001	 3.1930206208e+000	-1.5158312518e-001
 8.7634271142e-001	 3.2022484889e+000	-1.5207832603e-001
 8.4329204444e-001	 3.2111105196e+000	-1.5004067765e-001
 8.1024409772e-001	 3.2196082208e+000	-1.4621372269e-001
 7.7720445115e-001	 3.2277432072e+000	-1.4084389767e-001
 7.4417861893e-001	 3.2355171979e+000	-1.3366323777e-001
 7.1117204748e-001	 3.2429320141e+000	-1.2387231478e-001
 6.7819011332e-001	 3.2499895763e+000	-1.1012360437e-001
 6.4523812109e-001	 3.2566919023e+000	-6.9898497207e-002
 9.8328967431e-001	 3.1989528482e+000	-1.3918898877e-001
 9.4999967524e-001	 3.2089965088e+000	-1.5015001908e-001
 9.1669517046e-001	 3.2186686860e+000	-1.5510365249e-001
 8.8338196913e-001	 3.2279706773e+000	-1.5571011168e-001
 8.5006582134e-001	 3.2369038926e+000	-1.5316906214e-001
 8.1675241568e-001	 3.2454698520e+000	-1.4820132340e-001
 7.8344737683e-001	 3.2536701830e+000	-1.4103027166e-001
 7.5015626330e-001	 3.2615066186e+000	-1.3136311383e-001
 7.1688456525e-001	 3.2689809945e+000	-1.1837223004e-001
 6.8363770239e-001	 3.2760952470e+000	-1.0067679725e-001
 6.5042102197e-001	 3.2828514096e+000	-6.4560373075e-002
 9.9112504979e-001	 3.2244438071e+000	-1.4282245911e-001
 9.5756977829e-001	 3.2345675009e+000	-1.5362472819e-001
 9.2399988549e-001	 3.2443167512e+000	-1.5797812107e-001
 8.9042122683e-001	 3.2536928657e+000	-1.5753156860e-001
 8.5683959825e-001	 3.2626972657e+000	-1.5347830642e-001
 8.2326073364e-001	 3.2713314832e+000	-1.4653645965e-001
 7.8969030251e-001	 3.2795971588e+000	-1.3692910893e-001
 7.5613390767e-001	 3.2874960392e+000	-1.2436403188e-001
 7.2259708303e-001	 3.2950299750e+000	-1.0801333283e-001
 6.8908529146e-001	 3.3022009176e+000	-8.6493190693e-002
 6.5560392285e-001	 3.3090109169e+000	-5.2436425159e-002
 9.9896042527e-001	 3.2499347660e+000	-1.5007107842e-001
 9.6513988133e-001	 3.2601384931e+000	-1.5900163142e-001
 9.3130460051e-001	 3.2699648164e+000	-1.6117226943e-001
 8.9746048454e-001	 3.2794150542e+000	-1.5823507238e-001
 8.6361337515e-001	 3.2884906387e+000	-1.5139428950e-001
 8.2976905160e-001	 3.2971931143e+000	-1.4138572910e-001
 7.9593322820e-001	 3.3055241345e+000	-1.2845540173e-001
 7.6211155205e-001	 3.3134854599e+000	-1.1233762547e-001
 7.2830960080e-001	 3.3210789555e+000	-9.2232823170e-002
 6.9453288053e-001	 3.3283065882e+000	-6.6785259429e-002
 6.6078682374e-001	 3.3351704242e+000	-3.2540124791e-002
 6.0895781491e-001	 3.0735753511e+000	-4.9529510803e-002
 5.7789649090e-001	 3.0795666778e+000	 5.1978428233e-002
 5.4687320832e-001	 3.0852269172e+000	 1.2779432789e-001
 5.1589275069e-001	 3.0905582350e+000	 1.8167914856e-001
 4.8495982735e-001	 3.0955628784e+000	 2.1746113773e-001
 4.5407907204e-001	 3.1002431736e+000	 2.3905357389e-001
 4.2325504155e-001	 3.1046015236e+000	 2.5047597343e-001
 3.9249221452e-001	 3.1086404051e+000	 2.5587747091e-001
 3.6179499023e-001	 3.1123623662e+000	 2.5956114135e-001
 3.3116768761e-001	 3.1157700239e+000	 2.6600809888e-001
 3.0061454421e-001	 3.1188660616e+000	 2.7990027907e-001
 6.1414071579e-001	 3.0997348584e+000	-4.4238057785e-002
 5.8281502575e-001	 3.1057771779e+000	 5.9779550008e-002
 5.5152770090e-001	 3.1114855922e+000	 1.3837135333e-001
 5.2028356550e-001	 3.1168622853e+000	 1.9538776336e-001
 4.8908736896e-001	 3.1219095237e+000	 2.3477163237e-001
 4.5794378445e-001	 3.1266296535e+000	 2.6058456183e-001
 4.2685740756e-001	 3.1310250978e+000	 2.7703664697e-001
 3.9583275502e-001	 3.1350983546e+000	 2.8851828038e-001
 3.6487426358e-001	 3.1388519936e+000	 2.9963269981e-001
 3.3398628893e-001	 3.1422886543e+000	 3.1522803611e-001
 3.0317310467e-001	 3.1454110426e+000	 3.4042769503e-001
 6.1932361667e-001	 3.1258943657e+000	-4.5711324520e-002
 5.8773356059e-001	 3.1319876780e+000	 5.8298180611e-002
 5.5618219349e-001	 3.1377442671e+000	 1.3725510812e-001
 5.2467438031e-001	 3.1431663357e+000	 1.9506699992e-001
 4.9321491056e-001	 3.1482561691e+000	 2.3575631254e-001
 4.6180849686e-001	 3.1530161333e+000	 2.6349596441e-001
 4.3045977356e-001	 3.1574486720e+000	 2.8264829227e-001
 3.9917329552e-001	 3.1615563041e+000	 2.9780594736e-001
 3.6795353694e-001	 3.1653416211e+000	 3.1383332874e-001
 3.3680489025e-001	 3.1688072847e+000	 3.3590722682e-001
 3.0573166513e-001	 3.1719560237e+000	 3.6955543380e-001
 6.2450651756e-001	 3.1520538730e+000	-5.1287355742e-002
 5.9265209544e-001	 3.1581981781e+000	 5.0423690417e-002
 5.6083668607e-001	 3.1640029421e+000	 1.2754819904e-001
 5.2906519512e-001	 3.1694703860e+000	 1.8401093604e-001
 4.9734245217e-001	 3.1746028144e+000	 2.2387127022e-001
 4.6567320926e-001	 3.1794026131e+000	 2.5136866840e-001
 4.3406213955e-001	 3.1838722461e+000	 2.7097157200e-001
 4.0251383602e-001	 3.1880142536e+000	 2.8742808860e-001
 3.7103281029e-001	 3.1918312486e+000	 3.0581700358e-001
 3.3962349156e-001	 3.1953259151e+000	 3.3159769802e-001
 3.0829022558e-001	 3.1985010048e+000	 3.7065764824e-001
 6.2968941844e-001	 3.1782133803e+000	-5.8548288355e-002
 5.9757063029e-001	 3.1844086782e+000	 3.8818240108e-002
 5.6549117866e-001	 3.1902616171e+000	 1.1214498069e-001
 5.3345600993e-001	 3.1957744364e+000	 1.6532631053e-001
 5.0146999377e-001	 3.2009494598e+000	 2.0240800100e-001
 4.6953792167e-001	 3.2057890929e+000	 2.2764340451e-001
 4.3766450555e-001	 3.2102958203e+000	 2.4555299414e-001
 4.0585437652e-001	 3.2144722031e+000	 2.6098558762e-001
 3.7411208365e-001	 3.2183208761e+000	 2.7917966400e-001
 3.4244209288e-001	 3.2218445455e+000	 3.0582326772e-001
 3.1084878604e-001	 3.2250459859e+000	 3.4711108993e-001
 6.3487231932e-001	 3.2043728877e+000	-6.5319195838e-002
 6.0248916513e-001	 3.2106191783e+000	 2.5917231473e-002
 5.7014567124e-001	 3.2165202920e+000	 9.3731323716e-002
 5.3784682474e-001	 3.2220784867e+000	 1.4193162668e-001
 5.0559753538e-001	 3.2272961052e+000	 1.7449185675e-001
 4.7340263408e-001	 3.2321755727e+000	 1.9561855881e-001
 4.4126687155e-001	 3.2367193945e+000	 2.0982208731e-001
 4.0919491702e-001	 3.2409301526e+000	 2.2198913502e-001
 3.7719135700e-001	 3.2448105036e+000	 2.3745511588e-001
 3.4526069420e-001	 3.2483631759e+000	 2.6207480093e-001
 3.1340734650e-001	 3.2515909670e+000	 3.0228970723e-001
 6.4005522020e-001	 3.2305323950e+000	-6.9666863317e-002
 6.0740769998e-001	 3.2368296784e+000	 1.3929842571e-002
 5.7480016382e-001	 3.2427789670e+000	 7.4784483254e-002
 5.4223763955e-001	 3.2483825370e+000	 1.1655637319e-001
 5.0972507698e-001	 3.2536427505e+000	 1.4308063389e-001
 4.7726734648e-001	 3.2585620526e+000	 1.5844813908e-001
 4.4486923755e-001	 3.2631429687e+000	 1.6708875197e-001
 4.1253545752e-001	 3.2673881021e+000	 1.7385596687e-001
 3.8027063035e-001	 3.2713001311e+000	 1.8411115504e-001
 3.4807929552e-001	 3.2748818063e+000	 2.0380571273e-001
 3.1596590696e-001	 3.2781359481e+000	 2.3955951745e-001
 6.4523812109e-001	 3.2566919023e+000	-6.9898497207e-002
 6.1232623482e-001	 3.2630401785e+000	 4.8396424997e-003
 5.7945465641e-001	 3.2690376420e+000	 5.7573062140e-002
 5.4662845436e-001	 3.2746865874e+000	 9.1740355731e-002
 5.1385261859e-001	 3.2799893959e+000	 1.1096328943e-001
 4.8113205889e-001	 3.2849485324e+000	 1.1913988741e-001
 4.4847160355e-001	 3.2895665428e+000	 1.2054077730e-001
 4.1587599802e-001	 3.2938460516e+000	 1.1990678975e-001
 3.8334990371e-001	 3.2977897585e+000	 1.2254590009e-001
 3.5089789683e-001	 3.3014004367e+000	 1.3442770452e-001
 3.1852446741e-001	 3.3046809291e+000	 1.6227373786e-001
 6.5042102197e-001	 3.2828514096e+000	-6.4560373075e-002
 6.1724476967e-001	 3.2892506786e+000	 4.0528134710e-004
 5.8410914899e-001	 3.2952963169e+000	 4.4157063475e-002
 5.5101926917e-001	 3.3009906377e+000	 6.9833133176e-002
 5.1798016019e-001	 3.3063360413e+000	 8.0758777846e-002
 4.8499677130e-001	 3.3113350122e+000	 8.0553530765e-002
 4.5207396955e-001	 3.3159901170e+000	 7.3241514716e-002
 4.1921653852e-001	 3.3203040011e+000	 6.3362882210e-002
 3.8642917706e-001	 3.3242793860e+000	 5.6084322959e-002
 3.5371649815e-001	 3.3279190671e+000	 5.7306720445e-002
 3.2108302787e-001	 3.3312259102e+000	 7.3768160990e-002
 6.5560392285e-001	 3.3090109169e+000	-5.2436425159e-002
 6.2216330452e-001	 3.3154611787e+000	 2.1612511375e-003
 5.8876364158e-001	 3.3215549919e+000	 3.6388027657e-002
 5.5541008398e-001	 3.3272946881e+000	 5.2993552549e-002
 5.2210770180e-001	 3.3326826866e+000	 5.4915002027e-002
 4.8886148370e-001	 3.3377214920e+000	 4.5748783670e-002
 4.5567633555e-001	 3.3424136912e+000	 3.0038723466e-002
 4.2255707902e-001	 3.3467619505e+000	 1.2604064196e-002
 3.8950845042e-001	 3.3507690135e+000	-1.0280389987e-003
 3.5653509947e-001	 3.3544376975e+000	-4.5291084496e-003
 3.2364158833e-001	 3.3577708913e+000	 9.3087505065e-003
 6.6078682374e-001	 3.3351704242e+000	-3.2540124791e-002
 6.2708183937e-001	 3.3416716788e+000	 1.1693606099e-002
 5.9341813416e-001	 3.3478136668e+000	 3.7248370333e-002
 5.5980089879e-001	 3.3535987384e+000	 4.7025564555e-002
 5.2623524340e-001	 3.3590293320e+000	 4.4236070820e-002
 4.9272619611e-001	 3.3641079719e+000	 3.2535119737e-002
 4.5927870155e-001	 3.3688372654e+000	 1.6142765557e-002
 4.2589761953e-001	 3.3732199000e+000	-4.8907639877e-005
 3.9258772377e-001	 3.3772586410e+000	-1.0380758385e-002
 3.5935370079e-001	 3.3809563279e+000	-8.3426847275e-003
 3.2620014879e-001	 3.3843158724e+000	 1.3500166412e-002
 3.0061454421e-001	 3.1188660616e+000	 2.7990027907e-001
 2.7013516033e-001	 3.1216536212e+000	 2.9317106632e-001
 2.3973825151e-001	 3.1241350251e+000	 2.9707269720e-001
 2.0942786922e-001	 3.1263131416e+000	 2.9553695609e-001
 1.7920797856e-001	 3.1281908955e+000	 2.9263838422e-001
 1.4908245772e-001	 3.1297712650e+000	 2.9260188769e-001
 1.1905509748e-001	 3.1310572789e+000	 2.9980431150e-001
 8.9129600848e-002	 3.1320520147e+000	 3.1876949731e-001
 5.9309582745e-002	 3.1327585957e+000	 3.5415643706e-001
 2.9598569761e-002	 3.1331801883e+000	 4.1074022821e-001
 0.0000000000e+000	 3.1333200000e+000	 4.9338564351e-001
 3.0317310467e-001	 3.1454110426e+000	 3.4042769503e-001
 2.7243430770e-001	 3.1482223275e+000	 3.6595326660e-001
 2.4177868775e-001	 3.1507248508e+000	 3.8166258410e-001
 2.1121033076e-001	 3.1529215055e+000	 3.9179198123e-001
 1.8073323560e-001	 3.1548152412e+000	 4.0082036569e-001
 1.5035131343e-001	 3.1564090613e+000	 4.1348247274e-001
 1.2006838732e-001	 3.1577060207e+000	 4.3477539514e-001
 8.9888191798e-002	 3.1587092228e+000	 4.6995787496e-001
 5.9814372538e-002	 3.1594218175e+000	 5.2454194333e-001
 2.9850486150e-002	 3.1598469984e+000	 6.0427659408e-001
 0.0000000000e+000	 3.1599880000e+000	 7.1512329226e-001
 3.0573166513e-001	 3.1719560237e+000	 3.6955543380e-001
 2.7473345507e-001	 3.1747910338e+000	 4.0418016851e-001
 2.4381912399e-001	 3.1773146766e+000	 4.2817361267e-001
 2.1299279231e-001	 3.1795298695e+000	 4.4609620993e-001
 1.8225849263e-001	 3.1814395869e+000	 4.6285404678e-001
 1.5162016914e-001	 3.1830468577e+000	 4.8371818424e-001
 1.2108167717e-001	 3.1843547624e+000	 5.1433654351e-001
 9.0646782748e-002	 3.1853664308e+000	 5.6073779699e-001
 6.0319162331e-002	 3.1860850394e+000	 6.2932682318e-001
 3.0102402539e-002	 3.1865138084e+000	 7.2687139040e-001
 0.0000000000e+000	 3.1866560000e+000	 8.6047985711e-001
 3.0829022558e-001	 3.1985010048e+000	 3.7065764824e-001
 2.7703260245e-001	 3.2013597401e+000	 4.1097026038e-001
 2.4585956023e-001	 3.2039045023e+000	 4.3938832907e-001
 2.1477525386e-001	 3.2061382334e+000	 4.6080755160e-001
 1.8378374966e-001	 3.2080639326e+000	 4.8057580534e-001
 1.5288902486e-001	 3.2096846540e+000	 5.0451901655e-001
 1.2209496702e-001	 3.2110035042e+000	 5.3895882662e-001
 9.1405373698e-002	 3.2120236389e+000	 5.9072147097e-001
 6.0823952124e-002	 3.2127482612e+000	 6.6713740023e-001
 3.0354318928e-002	 3.2131806185e+000	 7.7603128565e-001
 0.0000000000e+000	 3.2133240000e+000	 9.2570218305e-001
 3.1084878604e-001	 3.2250459859e+000	 3.4711108993e-001
 2.7933174982e-001	 3.2279284464e+000	 3.8947608654e-001
 2.4789999647e-001	 3.2304943281e+000	 4.1815512857e-001
 2.1655771540e-001	 3.2327465973e+000	 4.3838178604e-001
 1.8530900670e-001	 3.2346882783e+000	 4.5595203201e-001
 1.5415788057e-001	 3.2363224504e+000	 4.7725713492e-001
 1.2310825686e-001	 3.2376522459e+000	 5.0930755602e-001
 9.2163964649e-002	 3.2386808470e+000	 5.5974722911e-001
 6.1328741917e-002	 3.2394114830e+000	 6.3685772115e-001
 3.0606235317e-002	 3.2398474285e+000	 7.4955189221e-001
 0.0000000000e+000	 3.2399920000e+000	 9.0735681345e-001
 3.1340734650e-001	 3.2515909670e+000	 3.0228970723e-001
 2.8163089719e-001	 3.2544971527e+000	 3.4287817855e-001
 2.4994043271e-001	 3.2570841539e+000	 3.6738151385e-001
 2.1834017695e-001	 3.2593549612e+000	 3.8136513635e-001
 1.8683426373e-001	 3.2613126239e+000	 3.9107099957e-001
 1.5542673628e-001	 3.2629602468e+000	 4.0345801746e-001
 1.2412154671e-001	 3.2643009877e+000	 4.2623266995e-001
 9.2922555600e-002	 3.2653380550e+000	 4.6786912112e-001
 6.1833531710e-002	 3.2660747049e+000	 5.3761831566e-001
 3.0858151706e-002	 3.2665142386e+000	 6.4550564719e-001
 0.0000000000e+000	 3.2666600000e+000	 8.0231694039e-001
 3.1596590696e-001	 3.2781359481e+000	 2.3955951745e-001
 2.8393004456e-001	 3.2810658589e+000	 2.7437928933e-001
 2.5198086895e-001	 3.2836739796e+000	 2.9002768576e-001
 2.2012263849e-001	 3.2859633252e+000	 2.9238720551e-001
 1.8835952077e-001	 3.2879369696e+000	 2.8813512882e-001
 1.5669559199e-001	 3.2895980431e+000	 2.8479202808e-001
 1.2513483655e-001	 3.2909497294e+000	 2.9075958552e-001
 9.3681146551e-002	 3.2919952631e+000	 3.1534701260e-001
 6.2338321504e-002	 3.2927379267e+000	 3.6878550245e-001
 3.1110068095e-002	 3.2931810486e+000	 4.6223028214e-001
 0.0000000000e+000	 3.2933280000e+000	 6.0774998913e-001
 3.1852446741e-001	 3.3046809291e+000	 1.6227373786e-001
 2.8622919194e-001	 3.3076345652e+000	 1.8719891298e-001
 2.5402130520e-001	 3.3102638054e+000	 1.8910044800e-001
 2.2190510004e-001	 3.3125716891e+000	 1.7415425633e-001
 1.8988477780e-001	 3.3145613153e+000	 1.4945362863e-001
 1.5796444771e-001	 3.3162358395e+000	 1.2306639609e-001
 1.2614812640e-001	 3.3175984712e+000	 1.0408049184e-001
 9.4439737501e-002	 3.3186524711e+000	 1.0263716041e-001
 6.2843111297e-002	 3.3194011485e+000	 1.2995121031e-001
 3.1361984484e-002	 3.3198478587e+000	 1.9831784836e-001
 0.0000000000e+000	 3.3199960000e+000	 3.2110580090e-001
 3.2108302787e-001	 3.3312259102e+000	 7.3768160990e-002
 2.8852833931e-001	 3.3342032715e+000	 8.4620634386e-002
 2.5606174144e-001	 3.3368536311e+000	 6.8608820900e-002
 2.2368756159e-001	 3.3391800530e+000	 3.2527474811e-002
 1.9141003483e-001	 3.3411856610e+000	-1.6113198541e-002
 1.5923330342e-001	 3.3428736359e+000	-6.8803117638e-002
 1.2716141625e-001	 3.3442472129e+000	-1.1598594742e-001
 9.5198328452e-002	 3.3453096792e+000	-1.4701788912e-001
 6.3347901090e-002	 3.3460643704e+000	-1.5013113222e-001
 3.1613900873e-002	 3.3465146687e+000	-1.1240151504e-001
 0.0000000000e+000	 3.3466640000e+000	-1.9719963659e-002
 3.2364158833e-001	 3.3577708913e+000	 9.3087505065e-003
 2.9082748668e-001	 3.3607719778e+000	 1.7905964995e-002
 2.5810217768e-001	 3.3634434569e+000	-2.5144941733e-003
 2.2547002313e-001	 3.3657884170e+000	-4.5126606633e-002
 1.9293529187e-001	 3.3678100066e+000	-1.0212604572e-001
 1.6050215913e-001	 3.3695114322e+000	-1.6468107725e-001
 1.2817470609e-001	 3.3708959547e+000	-2.2288895060e-001
 9.5956919402e-002	 3.3719668872e+000	-2.6573720400e-001
 6.3852690883e-002	 3.3727275922e+000	-2.8106936194e-001
 3.1865817262e-002	 3.3731814788e+000	-2.5555455840e-001
 0.0000000000e+000	 3.3733320000e+000	-1.7466064685e-001
 3.2620014879e-001	 3.3843158724e+000	 1.3500166412e-002
 2.9312663406e-001	 3.3873406841e+000	 3.0643401459e-002
 2.6014261392e-001	 3.3900332827e+000	 1.7420893712e-002
 2.2725248468e-001	 3.3923967809e+000	-1.9003065578e-002
 1.9446054890e-001	 3.3944343523e+000	-7.0459251485e-002
 1.6177101484e-001	 3.3961492286e+000	-1.2772770804e-001
 1.2918799594e-001	 3.3975446965e+000	-1.8049717851e-001
 9.6715510352e-002	 3.3986240953e+000	-2.1732916357e-001
 6.4357480676e-002	 3.3993908141e+000	-2.2562606813e-001
 3.2117733651e-002	 3.3998482888e+000	-1.9160295767e-001
 0.0000000000e+000	 3.4000000000e+000	-1.0026247694e-001
 3.4000000000e+000	 0.0000000000e+000	 1.8230827829e+000
 3.3998482888e+000	 3.2117733651e-002	 1.7861113094e+000
 3.3993908141e+000	 6.4357480676e-002	 1.7295744175e+000
 3.3986240953e+000	 9.6715510352e-002	 1.6612172401e+000
 3.3975446965e+000	 1.2918799594e-001	 1.5874258862e+000
 3.3961492286e+000	 1.6177101484e-001	 1.5132964969e+000
 3.3944343523e+000	 1.9446054890e-001	 1.4427069171e+000
 3.3923967809e+000	 2.2725248468e-001	 1.3783914153e+000
 3.3900332827e+000	 2.6014261392e-001	 1.3220189207e+000
 3.3873406841e+000	 2.9312663406e-001	 1.2742753096e+000
 3.3843158724e+000	 3.2620014879e-001	 1.2349503274e+000
 3.4266680000e+000	 0.0000000000e+000	 1.5374894172e+000
 3.4265150989e+000	 3.2369650039e-002	 1.5288609284e+000
 3.4260540359e+000	 6.4862270468e-002	 1.4990984727e+000
 3.4252813033e+000	 9.7474101301e-002	 1.4558963694e+000
 3.4241934382e+000	 1.3020128578e-001	 1.4056243068e+000
 3.4227870249e+000	 1.6303987056e-001	 1.3533948465e+000
 3.4210586980e+000	 1.9598580593e-001	 1.3031331487e+000
 3.4190051448e+000	 2.2903494622e-001	 1.2576493687e+000
 3.4166231084e+000	 2.6218305016e-001	 1.2187142218e+000
 3.4139093904e+000	 2.9542578143e-001	 1.1871382762e+000
 3.4108608535e+000	 3.2875870925e-001	 1.1628555987e+000
 3.4533360000e+000	 0.0000000000e+000	 1.2903140680e+000
 3.4531819089e+000	 3.2621566427e-002	 1.3043746961e+000
 3.4527172577e+000	 6.5367060260e-002	 1.2961616620e+000
 3.4519385114e+000	 9.8232692251e-002	 1.2733104088e+000
 3.4508421800e+000	 1.3121457563e-001	 1.2421686748e+000
 3.4494248213e+000	 1.6430872627e-001	 1.2078621899e+000
 3.4476830437e+000	 1.9751106297e-001	 1.1743621681e+000
 3.4456135087e+000	 2.3081740777e-001	 1.1445550696e+000
 3.4432129342e+000	 2.6422348640e-001	 1.1203151527e+000
 3.4404780966e+000	 2.9772492880e-001	 1.1025804120e+000
 3.4374058346e+000	 3.3131726971e-001	 1.0914325589e+000
 3.4800040000e+000	 0.0000000000e+000	 1.0810888530e+000
 3.4798487190e+000	 3.2873482815e-002	 1.1128050175e+000
 3.4793804796e+000	 6.5871850052e-002	 1.1214532005e+000
 3.4785957194e+000	 9.8991283199e-002	 1.1146042024e+000
 3.4774909217e+000	 1.3222786547e-001	 1.0985807938e+000
 3.4760626177e+000	 1.6557758198e-001	 1.0785213338e+000
 3.4743073894e+000	 1.9903632000e-001	 1.0584447323e+000
 3.4722218727e+000	 2.3259986931e-001	 1.0413172489e+000
 3.4698027599e+000	 2.6626392265e-001	 1.0291216797e+000
 3.4670468029e+000	 3.0002407618e-001	 1.0229295580e+000
 3.4639508156e+000	 3.3387583017e-001	 1.0229770677e+000
 3.5066720000e+000	 0.0000000000e+000	 9.0927270469e-001
 3.5065155291e+000	 3.3125399203e-002	 9.5423546353e-001
 3.5060437014e+000	 6.6376639843e-002	 9.7559731871e-001
 3.5052529275e+000	 9.9749874148e-002	 9.8086105839e-001
 3.5041396635e+000	 1.3324115532e-001	 9.7632408188e-001
 3.5027004140e+000	 1.6684643769e-001	 9.6713965975e-001
 3.5009317350e+000	 2.0056157703e-001	 9.5737905324e-001
 3.4988302366e+000	 2.3438233086e-001	 9.5009500853e-001
 3.4963925857e+000	 2.6830435889e-001	 9.4738720694e-001
 3.4936155092e+000	 3.0232322355e-001	 9.5047033182e-001
 3.4904957967e+000	 3.3643439063e-001	 9.5974549108e-001
 3.5333400000e+000	 0.0000000000e+000	 7.7425413218e-001
 3.5331823391e+000	 3.3377315591e-002	 8.2868360679e-001
 3.5327069232e+000	 6.6881429635e-002	 8.5915613336e-001
 3.5319101355e+000	 1.0050846510e-001	 8.7310561434e-001
 3.5307884052e+000	 1.3425444516e-001	 8.7680639459e-001
 3.5293382104e+000	 1.6811529340e-001	 8.7543186890e-001
 3.5275560807e+000	 2.0208683407e-001	 8.7311343229e-001
 3.5254386005e+000	 2.3616479241e-001	 8.7300031245e-001
 3.5229824115e+000	 2.7034479513e-001	 8.7732089644e-001
 3.5201842155e+000	 3.0462237093e-001	 8.8744624834e-001
 3.5170407778e+000	 3.3899295109e-001	 9.0395659963e-001
 3.5600080000e+000	 0.0000000000e+000	 6.7535385882e-001
 3.5598491492e+000	 3.3629231979e-002	 7.3610373065e-001
 3.5593701451e+000	 6.7386219427e-002	 7.7263238699e-001
 3.5585673436e+000	 1.0126705605e-001	 7.9230657096e-001
 3.5574371470e+000	 1.3526773500e-001	 8.0138271698e-001
 3.5559760068e+000	 1.6938414911e-001	 8.0506259861e-001
 3.5541804264e+000	 2.0361209110e-001	 8.0754876906e-001
 3.5520469645e+000	 2.3794725395e-001	 8.1210035892e-001
 3.5495722372e+000	 2.7238523137e-001	 8.2108987514e-001
 3.5467529218e+000	 3.0692151830e-001	 8.3606173633e-001
 3.5435857589e+000	 3.4155151155e-001	 8.5779337008e-001
 3.5866760000e+000	 0.0000000000e+000	 6.1182734228e-001
 3.5865159592e+000	 3.3881148367e-002	 6.7638941657e-001
 3.5860333669e+000	 6.7891009218e-002	 7.1647206529e-001
 3.5852245516e+000	 1.0202564699e-001	 7.3937930270e-001
 3.5840858887e+000	 1.3628102485e-001	 7.5135773312e-001
 3.5826138031e+000	 1.7065300483e-001	 7.5764891847e-001
 3.5808047721e+000	 2.0513734813e-001	 7.6254095348e-001
 3.5786553284e+000	 2.3972971550e-001	 7.6941983961e-001
 3.5761620630e+000	 2.7442566762e-001	 7.8082133493e-001
 3.5733216281e+000	 3.0922066568e-001	 7.9848405495e-001
 3.5701307400e+000	 3.4411007201e-001	 8.2340469641e-001
 3.6133440000e+000	 0.0000000000e+000	 5.8286718301e-001
 3.6131827693e+000	 3.4133064755e-002	 6.4937601686e-001
 3.6126965887e+000	 6.8395799010e-002	 6.9106689738e-001
 3.6118817597e+000	 1.0278423794e-001	 7.1518835080e-001
 3.6107346305e+000	 1.3729431469e-001	 7.2798827882e-001
 3.6092515995e+000	 1.7192186054e-001	 7.3476271137e-001
 3.6074291178e+000	 2.0666260517e-001	 7.3990314590e-001
 3.6052636923e+000	 2.4151217705e-001	 7.4694309167e-001
 3.6027518887e+000	 2.7646610386e-001	 7.5860453125e-001
 3.5998903343e+000	 3.1151981305e-001	 7.7684511582e-001
 3.5966757211e+000	 3.4666863247e-001	 8.0290701434e-001
 3.6400120000e+000	 0.0000000000e+000	 5.8760542679e-001
 3.6398495793e+000	 3.4384981144e-002	 6.5484301853e-001
 3.6393598106e+000	 6.8900588802e-002	 6.9675674550e-001
 3.6385389677e+000	 1.0354282889e-001	 7.2054980507e-001
 3.6373833723e+000	 1.3830760454e-001	 7.3248568360e-001
 3.6358893958e+000	 1.7319071625e-001	 7.3793294576e-001
 3.6340534634e+000	 2.0818786220e-001	 7.4140795152e-001
 3.6318720562e+000	 2.4329463859e-001	 7.4661614813e-001
 3.6293417145e+000	 2.7850654010e-001	 7.5649268558e-001
 3.6264590406e+000	 3.1381896043e-001	 7.7324321546e-001
 3.6232207021e+000	 3.4922719293e-001	 7.9838584394e-001
 3.6666800000e+000	 0.0000000000e+000	 6.2511576681e-001
 3.6665163894e+000	 3.4636897532e-002	 6.9251630373e-001
 3.6660230324e+000	 6.9405378595e-002	 7.3383188958e-001
 3.6651961758e+000	 1.0430141984e-001	 7.5623358004e-001
 3.6640321140e+000	 1.3932089439e-001	 7.6601800768e-001
 3.6625271922e+000	 1.7445957196e-001	 7.6864784451e-001
 3.6606778091e+000	 2.0971311924e-001	 7.6878949428e-001
 3.6584804202e+000	 2.4507710014e-001	 7.7034869191e-001
 3.6559315402e+000	 2.8054697635e-001	 7.7650479646e-001
 3.6530277469e+000	 3.1611810781e-001	 7.8974468268e-001
 3.6497656832e+000	 3.5178575339e-001	 8.1189725453e-001
 3.3843158724e+000	 3.2620014879e-001	 1.2349503274e+000
 3.3809563279e+000	 3.5935370079e-001	 1.1960365583e+000
 3.3772586410e+000	 3.9258772377e-001	 1.1520731534e+000
 3.3732199000e+000	 4.2589761953e-001	 1.1056311572e+000
 3.3688372654e+000	 4.5927870155e-001	 1.0587834774e+000
 3.3641079719e+000	 4.9272619611e-001	 1.0132176487e+000
 3.3590293320e+000	 5.2623524340e-001	 9.7035763357e-001
 3.3535987384e+000	 5.5980089879e-001	 9.3149557480e-001
 3.3478136668e+000	 5.9341813416e-001	 8.9793443472e-001
 3.3416716788e+000	 6.2708183937e-001	 8.7114247368e-001
 3.3351704242e+000	 6.6078682374e-001	 8.5292052372e-001
 3.4108608535e+000	 3.2875870925e-001	 1.1628555987e+000
 3.4074749583e+000	 3.6217230211e-001	 1.1373318938e+000
 3.4037482685e+000	 3.9566699713e-001	 1.1045808224e+000
 3.3996778495e+000	 4.2923816003e-001	 1.0673316508e+000
 3.3952608395e+000	 4.6288106755e-001	 1.0278199035e+000
 3.3904944517e+000	 4.9659090852e-001	 9.8789605388e-001
 3.3853759773e+000	 5.3036278501e-001	 9.4914327382e-001
 3.3799027887e+000	 5.6419171360e-001	 9.1300522149e-001
 3.3740723418e+000	 5.9807262675e-001	 8.8092487478e-001
 3.3678821789e+000	 6.3200037421e-001	 8.5449543315e-001
 3.3613299316e+000	 6.6596972462e-001	 8.3562432057e-001
 3.4374058346e+000	 3.3131726971e-001	 1.0914325589e+000
 3.4339935887e+000	 3.6499090342e-001	 1.0778105616e+000
 3.4302378959e+000	 3.9874627048e-001	 1.0551640880e+000
 3.4261357990e+000	 4.3257870053e-001	 1.0263268878e+000
 3.4216844137e+000	 4.6648343355e-001	 9.9364301505e-001
 3.4168809315e+000	 5.0045562093e-001	 9.5907109164e-001
 3.4117226227e+000	 5.3449032662e-001	 9.2429764634e-001
 3.4062068391e+000	 5.6858252842e-001	 8.9086057698e-001
 3.4003310168e+000	 6.0272711934e-001	 8.6028381556e-001
 3.3940926790e+000	 6.3691890906e-001	 8.3422429616e-001
 3.3874894389e+000	 6.7115262551e-001	 8.1482998040e-001
 3.4639508156e+000	 3.3387583017e-001	 1.0229770677e+000
 3.4605122191e+000	 3.6780950474e-001	 1.0196942008e+000
 3.4567275234e+000	 4.0182554384e-001	 1.0059467543e+000
 3.4525937485e+000	 4.3591924104e-001	 9.8462439057e-001
 3.4481079879e+000	 4.7008579956e-001	 9.5813080800e-001
 3.4432674113e+000	 5.0432033334e-001	 9.2848320247e-001
 3.4380692681e+000	 5.3861786822e-001	 8.9742081201e-001
 3.4325108894e+000	 5.7297334323e-001	 8.6652366672e-001
 3.4265896917e+000	 6.0738161193e-001	 8.3734269942e-001
 3.4203031791e+000	 6.4183744391e-001	 8.1154239641e-001
 3.4136489462e+000	 6.7633552640e-001	 7.9196041550e-001
 3.4904957967e+000	 3.3643439063e-001	 9.5974549108e-001
 3.4870308495e+000	 3.7062810607e-001	 9.6516877464e-001
 3.4832171509e+000	 4.0490481720e-001	 9.5902052532e-001
 3.4790516980e+000	 4.3925978154e-001	 9.4420299350e-001
 3.4745315620e+000	 4.7368816556e-001	 9.2313592034e-001
 3.4696538911e+000	 5.0818504575e-001	 8.9785079579e-001
 3.4644159134e+000	 5.4274540983e-001	 8.7009420176e-001
 3.4588149398e+000	 5.7736415804e-001	 8.4144143822e-001
 3.4528483667e+000	 6.1203610452e-001	 8.1342166709e-001
 3.4465136792e+000	 6.4675597877e-001	 7.8765583750e-001
 3.4398084535e+000	 6.8151842728e-001	 7.6809388496e-001
 3.5170407778e+000	 3.3899295109e-001	 9.0395659963e-001
 3.5135494799e+000	 3.7344670739e-001	 9.1638623905e-001
 3.5097067784e+000	 4.0798409055e-001	 9.1644645557e-001
 3.5055096475e+000	 4.4260032205e-001	 9.0701409402e-001
 3.5009551362e+000	 4.7729053156e-001	 8.9048670310e-001
 3.4960403710e+000	 5.1204975816e-001	 8.6887116510e-001
 3.4907625588e+000	 5.4687295144e-001	 8.4388140483e-001
 3.4851189901e+000	 5.8175497286e-001	 8.1704645438e-001
 3.4791070416e+000	 6.1669059710e-001	 7.8983019242e-001
 3.4727241793e+000	 6.5167451362e-001	 7.6376410875e-001
 3.4659679608e+000	 6.8670132817e-001	 7.4430170091e-001
 3.5435857589e+000	 3.4155151155e-001	 8.5779337008e-001
 3.5400681103e+000	 3.7626530871e-001	 8.7546612424e-001
 3.5361964059e+000	 4.1106336391e-001	 8.8025632451e-001
 3.5319675970e+000	 4.4594086255e-001	 8.7498283533e-001
 3.5273787104e+000	 4.8089289757e-001	 8.6198823218e-001
 3.5224268508e+000	 5.1591447057e-001	 8.4322135310e-001
 3.5171092041e+000	 5.5100049305e-001	 8.2032891471e-001
 3.5114230404e+000	 5.8614578767e-001	 7.9475755208e-001
 3.5053657166e+000	 6.2134508969e-001	 7.6786768874e-001
 3.4989346794e+000	 6.5659304847e-001	 7.4106067862e-001
 3.4921274681e+000	 6.9188422906e-001	 7.2165367524e-001
 3.5701307400e+000	 3.4411007201e-001	 8.2340469641e-001
 3.5665867407e+000	 3.7908391003e-001	 8.4449703457e-001
 3.5626860333e+000	 4.1414263727e-001	 8.5245393766e-001
 3.5584255465e+000	 4.4928140306e-001	 8.5000922525e-001
 3.5538022846e+000	 4.8449526357e-001	 8.3942326477e-001
 3.5488133306e+000	 5.1977918299e-001	 8.2255896917e-001
 3.5434558495e+000	 5.5512803466e-001	 8.0096683510e-001
 3.5377270908e+000	 5.9053660249e-001	 7.7598046756e-001
 3.5316243916e+000	 6.2599958229e-001	 7.4882408855e-001
 3.5251451795e+000	 6.6151158332e-001	 7.2073356694e-001
 3.5182869755e+000	 6.9706712995e-001	 7.0121815444e-001
 3.5966757211e+000	 3.4666863247e-001	 8.0290701434e-001
 3.5931053711e+000	 3.8190251135e-001	 8.2553807068e-001
 3.5891756608e+000	 4.1722191063e-001	 8.3501635878e-001
 3.5848834960e+000	 4.5262194356e-001	 8.3396919438e-001
 3.5802258587e+000	 4.8809762958e-001	 8.2455314297e-001
 3.5751998104e+000	 5.2364389540e-001	 8.0852296173e-001
 3.5698024949e+000	 5.5925557627e-001	 7.8730954793e-001
 3.5640311411e+000	 5.9492741731e-001	 7.6210843058e-001
 3.5578830665e+000	 6.3065407488e-001	 7.3398039778e-001
 3.5513556796e+000	 6.6643011817e-001	 7.0396589700e-001
 3.5444464828e+000	 7.0225003084e-001	 6.8406203874e-001
 3.6232207021e+000	 3.4922719293e-001	 7.9838584394e-001
 3.6196240015e+000	 3.8472111267e-001	 8.2062017811e-001
 3.6156652883e+000	 4.2030118399e-001	 8.2989507651e-001
 3.6113414455e+000	 4.5596248407e-001	 8.2871559648e-001
 3.6066494329e+000	 4.9169999558e-001	 8.1911864738e-001
 3.6015862902e+000	 5.2750860781e-001	 8.0273434786e-001
 3.5961491402e+000	 5.6338311789e-001	 7.8085634538e-001
 3.5903351915e+000	 5.9931823212e-001	 7.5452272878e-001
 3.5841417415e+000	 6.3530856747e-001	 7.2460922607e-001
 3.5775661797e+000	 6.7134865303e-001	 6.9210497956e-001
 3.5706059901e+000	 7.0743293173e-001	 6.7125078629e-001
 3.6497656832e+000	 3.5178575339e-001	 8.1189725453e-001
 3.6461426319e+000	 3.8753971400e-001	 8.3174742583e-001
 3.6421549158e+000	 4.2338045735e-001	 8.3901710876e-001
 3.6377993950e+000	 4.5930302458e-001	 8.3607915432e-001
 3.6330730071e+000	 4.9530236159e-001	 8.2484080319e-001
 3.6279727701e+000	 5.3137332022e-001	 8.0679690225e-001
 3.6224957856e+000	 5.6751065950e-001	 7.8309202768e-001
 3.6166392418e+000	 6.0370904694e-001	 7.5459324387e-001
 3.6104004164e+000	 6.3996306006e-001	 7.2197529405e-001
 3.6037766798e+000	 6.7626718788e-001	 6.8650502786e-001
 3.5967654974e+000	 7.1261583262e-001	 6.6384840335e-001
 3.3351704242e+000	 6.6078682374e-001	 8.5292052372e-001
 3.3283065882e+000	 6.9453288053e-001	 8.3384853854e-001
 3.3210789555e+000	 7.2830960080e-001	 8.1077623768e-001
 3.3134854599e+000	 7.6211155205e-001	 7.8457325788e-001
 3.3055241345e+000	 7.9593322820e-001	 7.5564914079e-001
 3.2971931143e+000	 8.2976905160e-001	 7.2436144494e-001
 3.2884906387e+000	 8.6361337515e-001	 6.9105428309e-001
 3.2794150542e+000	 8.9746048454e-001	 6.5609351491e-001
 3.2699648164e+000	 9.3130460051e-001	 6.1989790560e-001
 3.2601384931e+000	 9.6513988133e-001	 5.8296557427e-001
 3.2499347660e+000	 9.9896042527e-001	 5.4589507522e-001
 3.3613299316e+000	 6.6596972462e-001	 8.3562432057e-001
 3.3544122588e+000	 6.9998046961e-001	 8.1818965988e-001
 3.3471279360e+000	 7.3402211857e-001	 7.9645132693e-001
 3.3394748806e+000	 7.6808919642e-001	 7.7156416303e-001
 3.3314511103e+000	 8.0217615388e-001	 7.4444021672e-001
 3.3230547455e+000	 8.3627736956e-001	 7.1520143711e-001
 3.3142840118e+000	 8.7038715206e-001	 6.8390818828e-001
 3.3051372426e+000	 9.0449974224e-001	 6.5084595790e-001
 3.2956128816e+000	 9.3860931553e-001	 6.1637896573e-001
 3.2857094853e+000	 9.7270998438e-001	 5.8098004171e-001
 3.2754257250e+000	 1.0067958007e+000	 5.4525477366e-001
 3.3874894389e+000	 6.7115262551e-001	 8.1482998040e-001
 3.3805179294e+000	 7.0542805868e-001	 7.9921459980e-001
 3.3731769164e+000	 7.3973463634e-001	 7.7847644844e-001
 3.3654643012e+000	 7.7406684079e-001	 7.5390139437e-001
 3.3573780861e+000	 8.0841907956e-001	 7.2656024855e-001
 3.3489163767e+000	 8.4278568752e-001	 6.9733156938e-001
 3.3400773848e+000	 8.7716092897e-001	 6.6692685507e-001
 3.3308594310e+000	 9.1153899995e-001	 6.3587630820e-001
 3.3212609468e+000	 9.4591403056e-001	 6.0376127927e-001
 3.3112804774e+000	 9.8028008742e-001	 5.7063163820e-001
 3.3009166839e+000	 1.0146311762e+000	 5.3701935332e-001
 3.4136489462e+000	 6.7633552640e-001	 7.9196041550e-001
 3.4066236000e+000	 7.1087564776e-001	 7.7796168528e-001
 3.3992258969e+000	 7.4544715412e-001	 7.5824529588e-001
 3.3914537219e+000	 7.8004448516e-001	 7.3419398937e-001
 3.3833050618e+000	 8.1466200525e-001	 7.0697767829e-001
 3.3747780078e+000	 8.4929400548e-001	 6.7757562427e-001
 3.3658707579e+000	 8.8393470588e-001	 6.4680105734e-001
 3.3565816195e+000	 9.1857825765e-001	 6.1532841430e-001
 3.3469090120e+000	 9.5321874558e-001	 5.8372336907e-001
 3.3368514696e+000	 9.8785019047e-001	 5.5247581947e-001
 3.3264076428e+000	 1.0224665517e+000	 5.2174059506e-001
 3.4398084535e+000	 6.8151842728e-001	 7.6809388496e-001
 3.4327292707e+000	 7.1632323683e-001	 7.5543330934e-001
 3.4252748774e+000	 7.5115967189e-001	 7.3668376759e-001
 3.4174431425e+000	 7.8602212954e-001	 7.1328688125e-001
 3.4092320376e+000	 8.2090493093e-001	 6.8647317256e-001
 3.4006396390e+000	 8.5580232344e-001	 6.5728360042e-001
 3.3916641309e+000	 8.9070848278e-001	 6.2659359289e-001
 3.3823038079e+000	 9.2561751536e-001	 5.9513976885e-001
 3.3725570773e+000	 9.6052346061e-001	 5.6354953567e-001
 3.3624224617e+000	 9.9542029351e-001	 5.3237374172e-001
 3.3518986017e+000	 1.0303019272e+000	 5.0211943866e-001
 3.4659679608e+000	 6.8670132817e-001	 7.4430170091e-001
 3.4588349413e+000	 7.2177082591e-001	 7.3263146535e-001
 3.4513238578e+000	 7.5687218967e-001	 7.1471849371e-001
 3.4434325632e+000	 7.9199977391e-001	 6.9202683847e-001
 3.4351590134e+000	 8.2714785662e-001	 6.6581068525e-001
 3.4265012702e+000	 8.6231064140e-001	 6.3713522438e-001
 3.4174575040e+000	 8.9748225969e-001	 6.0690007828e-001
 3.4080259963e+000	 9.3265677307e-001	 5.7586549191e-001
 3.3982051425e+000	 9.6782817563e-001	 5.4468148801e-001
 3.3879934539e+000	 1.0029903966e+000	 5.1392018072e-001
 3.3773895607e+000	 1.0381373026e+000	 4.8410871188e-001
 3.4921274681e+000	 6.9188422906e-001	 7.2165367524e-001
 3.4849406119e+000	 7.2721841499e-001	 7.1055769293e-001
 3.4773728383e+000	 7.6258470745e-001	 6.9327667961e-001
 3.4694219839e+000	 7.9797741829e-001	 6.7126221040e-001
 3.4610859892e+000	 8.3339078231e-001	 6.4575672689e-001
 3.4523629013e+000	 8.6881895936e-001	 6.1781371783e-001
 3.4432508770e+000	 9.0425603660e-001	 5.8832051816e-001
 3.4337481848e+000	 9.3969603077e-001	 5.5802394908e-001
 3.4238532077e+000	 9.7513289066e-001	 5.2755901625e-001
 3.4135644460e+000	 1.0105604996e+000	 4.9747705971e-001
 3.4028805196e+000	 1.0459726781e+000	 4.6829789506e-001
 3.5182869755e+000	 6.9706712995e-001	 7.0121815444e-001
 3.5110462825e+000	 7.3266600407e-001	 6.9021301138e-001
 3.5034218188e+000	 7.6829722522e-001	 6.7328594125e-001
 3.4954114045e+000	 8.0395506266e-001	 6.5184266911e-001
 3.4870129649e+000	 8.3963370799e-001	 6.2708001875e-001
 3.4782245325e+000	 8.7532727733e-001	 6.0000537116e-001
 3.4690442501e+000	 9.1102981351e-001	 5.7145880704e-001
 3.4594703732e+000	 9.4673528848e-001	 5.4213817239e-001
 3.4495012729e+000	 9.8243760569e-001	 5.1262730021e-001
 3.4391354382e+000	 1.0181306026e+000	 4.8342426145e-001
 3.4283714785e+000	 1.0538080536e+000	 4.5499127012e-001
 3.5444464828e+000	 7.0225003084e-001	 6.8406203874e-001
 3.5371519531e+000	 7.3811359314e-001	 6.7259784154e-001
 3.5294707992e+000	 7.7400974300e-001	 6.5567413292e-001
 3.5214008252e+000	 8.0993270704e-001	 6.3461894744e-001
 3.5129399407e+000	 8.4587663368e-001	 6.1055114709e-001
 3.5040861637e+000	 8.8183559529e-001	 5.8439912103e-001
 3.4948376231e+000	 9.1780359042e-001	 5.5692223854e-001
 3.4851925616e+000	 9.5377454619e-001	 5.2873531090e-001
 3.4751493381e+000	 9.8974232071e-001	 5.0033631233e-001
 3.4647064304e+000	 1.0257007057e+000	 4.7213466415e-001
 3.4538624374e+000	 1.0616434291e+000	 4.4449910023e-001
 3.5706059901e+000	 7.0743293173e-001	 6.7125078629e-001
 3.5632576237e+000	 7.4356118222e-001	 6.5871191660e-001
 3.5555197797e+000	 7.7972226078e-001	 6.4136916772e-001
 3.5473902459e+000	 8.1591035141e-001	 6.2044257362e-001
 3.5388669165e+000	 8.5211955937e-001	 5.9694221756e-001
 3.5299477948e+000	 8.8834391325e-001	 5.7168613155e-001
 3.5206309962e+000	 9.2457736733e-001	 5.4532102151e-001
 3.5109147501e+000	 9.6081380390e-001	 5.1834609131e-001
 3.5007974033e+000	 9.9704703574e-001	 4.9114023352e-001
 3.4902774225e+000	 1.0332708087e+000	 4.6399027853e-001
 3.4793533964e+000	 1.0694788046e+000	 4.3713699322e-001
 3.5967654974e+000	 7.1261583262e-001	 6.6384840335e-001
 3.5893632944e+000	 7.4900877130e-001	 6.4955418239e-001
 3.5815687602e+000	 7.8543477855e-001	 6.3129883120e-001
 3.5733796665e+000	 8.2188799579e-001	 6.1016560259e-001
 3.5647938922e+000	 8.5836248506e-001	 5.8702650979e-001
 3.5558094260e+000	 8.9485223122e-001	 5.6255937890e-001
 3.5464243692e+000	 9.3135114424e-001	 5.3726780284e-001
 3.5366369385e+000	 9.6785306161e-001	 5.1150428815e-001
 3.5264454685e+000	 1.0043517508e+000	 4.8549688119e-001
 3.5158484147e+000	 1.0408409118e+000	 4.5937731293e-001
 3.5048443553e+000	 1.0773141800e+000	 4.3322528150e-001
 3.2499347660e+000	 9.9896042527e-001	 5.4589507522e-001
 3.2393524327e+000	 1.0327602727e+000	 5.0986996958e-001
 3.2283904058e+000	 1.0665334072e+000	 4.7483235236e-001
 3.2170477184e+000	 1.1002737598e+000	 4.3967972388e-001
 3.2053235261e+000	 1.1339752124e+000	 4.0344208471e-001
 3.1932171098e+000	 1.1676316006e+000	 3.6526529370e-001
 3.1807278769e+000	 1.2012367166e+000	 3.2439119701e-001
 3.1678553637e+000	 1.2347843127e+000	 2.8012893458e-001
 3.1545992369e+000	 1.2682681041e+000	 2.3181715623e-001
 3.1409592953e+000	 1.3016817725e+000	 1.7877695580e-001
 3.1269354717e+000	 1.3350189692e+000	 1.2029522870e-001
 3.2754257250e+000	 1.0067958007e+000	 5.4525477366e-001
 3.2647603887e+000	 1.0408607582e+000	 5.1057131533e-001
 3.2537123809e+000	 1.0748987933e+000	 4.7687354359e-001
 3.2422807268e+000	 1.1089037894e+000	 4.4284617605e-001
 3.2304645755e+000	 1.1428695804e+000	 4.0734137587e-001
 3.2182632021e+000	 1.1767899534e+000	 3.6936396496e-001
 3.2056760095e+000	 1.2106586521e+000	 3.2805222427e-001
 3.1927025304e+000	 1.2444693798e+000	 2.8264929726e-001
 3.1793424288e+000	 1.2782158023e+000	 2.3246490808e-001
 3.1655955019e+000	 1.3118915518e+000	 1.7682718652e-001
 3.1514616820e+000	 1.3454902298e+000	 1.1695132389e-001
 3.3009166839e+000	 1.0146311762e+000	 5.3701935332e-001
 3.2901683448e+000	 1.0489612438e+000	 5.0440683846e-001
 3.2790343560e+000	 1.0832641795e+000	 4.7269172933e-001
 3.2675137352e+000	 1.1175338190e+000	 4.4034851977e-001
 3.2556056248e+000	 1.1517639483e+000	 4.0605437274e-001
 3.2433092944e+000	 1.1859483062e+000	 3.6868025009e-001
 3.2306241422e+000	 1.2200805877e+000	 3.2727242927e-001
 3.2175496971e+000	 1.2541544469e+000	 2.8102401824e-001
 3.2040856206e+000	 1.2881635005e+000	 2.2923615845e-001
 3.1902317086e+000	 1.3221013311e+000	 1.7126869095e-001
 3.1759878923e+000	 1.3559614903e+000	 1.1287421971e-001
 3.3264076428e+000	 1.0224665517e+000	 5.2174059506e-001
 3.3155763009e+000	 1.0570617294e+000	 4.9198304359e-001
 3.3043563311e+000	 1.0916295656e+000	 4.6294807557e-001
 3.2927467436e+000	 1.1261638486e+000	 4.3289296188e-001
 3.2807466742e+000	 1.1606583162e+000	 4.0032192361e-001
 3.2683553867e+000	 1.1951066590e+000	 3.6397863601e-001
 3.2555722748e+000	 1.2295025232e+000	 3.2282850937e-001
 3.2423968638e+000	 1.2638395139e+000	 2.7603033129e-001
 3.2288288125e+000	 1.2981111987e+000	 2.2289693791e-001
 3.2148679152e+000	 1.3323111103e+000	 1.6284467065e-001
 3.2005141027e+000	 1.3664327509e+000	 1.0843150697e-001
 3.3518986017e+000	 1.0303019272e+000	 5.0211943866e-001
 3.3409842570e+000	 1.0651622150e+000	 4.7428954231e-001
 3.3296783062e+000	 1.0999949518e+000	 4.4835817089e-001
 3.3179797520e+000	 1.1347938782e+000	 4.2122967458e-001
 3.3058877235e+000	 1.1695526842e+000	 3.9091713073e-001
 3.2934014791e+000	 1.2042650118e+000	 3.5604292888e-001
 3.2805204075e+000	 1.2389244587e+000	 3.1550235959e-001
 3.2672440305e+000	 1.2735245810e+000	 2.6843540175e-001
 3.2535720044e+000	 1.3080588968e+000	 2.1418684565e-001
 3.2395041218e+000	 1.3425208896e+000	 1.5325622331e-001
 3.2250403130e+000	 1.3769040114e+000	 1.0393616983e-001
 3.3773895607e+000	 1.0381373026e+000	 4.8410871188e-001
 3.3663922131e+000	 1.0732627005e+000	 4.5687227128e-001
 3.3550002813e+000	 1.1083603379e+000	 4.3181656404e-001
 3.3432127604e+000	 1.1434239078e+000	 4.0651131265e-001
 3.3310287729e+000	 1.1784470521e+000	 3.7863783170e-001
 3.3184475714e+000	 1.2134233646e+000	 3.4566823767e-001
 3.3054685401e+000	 1.2483463942e+000	 3.0607255101e-001
 3.2920911972e+000	 1.2832096481e+000	 2.5898729212e-001
 3.2783151963e+000	 1.3180065950e+000	 2.0380949512e-001
 3.2641403284e+000	 1.3527306689e+000	 1.4439347754e-001
 3.2495665234e+000	 1.3873752720e+000	 9.9647885579e-002
 3.4028805196e+000	 1.0459726781e+000	 4.6829789506e-001
 3.3918001691e+000	 1.0813631861e+000	 4.4170858817e-001
 3.3803222564e+000	 1.1167257241e+000	 4.1737839026e-001
 3.3684457688e+000	 1.1520539374e+000	 3.9283053820e-001
 3.3561698223e+000	 1.1873414200e+000	 3.6571078258e-001
 3.3434936637e+000	 1.2225817174e+000	 3.3384727606e-001
 3.3304166728e+000	 1.2577683297e+000	 2.9530583466e-001
 3.3169383640e+000	 1.2928947151e+000	 2.4840595280e-001
 3.3030583882e+000	 1.3279542932e+000	 1.9242298391e-001
 3.2887765350e+000	 1.3629404481e+000	 1.3653180699e-001
 3.2740927337e+000	 1.3978465325e+000	 9.5774346044e-002
 3.4283714785e+000	 1.0538080536e+000	 4.5499127012e-001
 3.4172081252e+000	 1.0894636717e+000	 4.2904237865e-001
 3.4056442315e+000	 1.1250911102e+000	 4.0529603468e-001
 3.3936787772e+000	 1.1606839670e+000	 3.8124772185e-001
 3.3813108716e+000	 1.1962357880e+000	 3.5451127837e-001
 3.3685397560e+000	 1.2317400702e+000	 3.2287937531e-001
 3.3553648054e+000	 1.2671902652e+000	 2.8438857916e-001
 3.3417855307e+000	 1.3025797822e+000	 2.3738904207e-001
 3.3278015801e+000	 1.3379019914e+000	 1.8085287177e-001
 3.3134127416e+000	 1.3731502274e+000	 1.2988382341e-001
 3.2986189440e+000	 1.4083177931e+000	 9.2472599464e-002
 3.4538624374e+000	 1.0616434291e+000	 4.4449910023e-001
 3.4426160813e+000	 1.0975641573e+000	 4.1912400684e-001
 3.4309662066e+000	 1.1334564964e+000	 3.9576734677e-001
 3.4189117856e+000	 1.1693139966e+000	 3.7191558558e-001
 3.4064519210e+000	 1.2051301559e+000	 3.4516914578e-001
 3.3935858483e+000	 1.2408984230e+000	 3.1330341115e-001
 3.3803129381e+000	 1.2766122007e+000	 2.7433454108e-001
 3.3666326974e+000	 1.3122648493e+000	 2.2659014953e-001
 3.3525447720e+000	 1.3478496895e+000	 1.7090138335e-001
 3.3380489483e+000	 1.3833600067e+000	 1.2459178289e-001
 3.3231451544e+000	 1.4187890536e+000	 8.9850411832e-002
 3.4793533964e+000	 1.0694788046e+000	 4.3713699322e-001
 3.4680240374e+000	 1.1056646428e+000	 4.1220967327e-001
 3.4562881817e+000	 1.1418218825e+000	 3.8899646951e-001
 3.4441447940e+000	 1.1779440262e+000	 3.6499359250e-001
 3.4315929703e+000	 1.2140245238e+000	 3.3780651416e-001
 3.4186319407e+000	 1.2500567758e+000	 3.0521143164e-001
 3.4052610708e+000	 1.2860341363e+000	 2.6522177506e-001
 3.3914798641e+000	 1.3219499164e+000	 2.1615982577e-001
 3.3772879639e+000	 1.3577973877e+000	 1.6244066928e-001
 3.3626851549e+000	 1.3935697859e+000	 1.1997122012e-001
 3.3476713647e+000	 1.4292603142e+000	 8.7706917738e-002
 3.5048443553e+000	 1.0773141800e+000	 4.3322528150e-001
 3.4934319935e+000	 1.1137651284e+000	 4.0856079108e-001
 3.4816101568e+000	 1.1501872686e+000	 3.8519322572e-001
 3.4693778024e+000	 1.1865740558e+000	 3.6064735695e-001
 3.4567340197e+000	 1.2229188917e+000	 3.3255216341e-001
 3.4436780330e+000	 1.2592151286e+000	 2.9870268504e-001
 3.4302092034e+000	 1.2954560718e+000	 2.5712716321e-001
 3.4163270308e+000	 1.3316349834e+000	 2.0615954687e-001
 3.4020311558e+000	 1.3677450859e+000	 1.5524403342e-001
 3.3873213615e+000	 1.4037795652e+000	 1.1551572384e-001
 3.3721975751e+000	 1.4397315747e+000	 8.4882356773e-002
 3.1269354717e+000	 1.3350189692e+000	 1.2029522870e-001
 3.1125300238e+000	 1.3682683376e+000	 6.4636700698e-002
 3.0977410833e+000	 1.4014284891e+000	 1.7034476030e-002
 3.0825689947e+000	 1.4344930095e+000	-2.3582166931e-002
 3.0670142412e+000	 1.4674554686e+000	-5.8476462056e-002
 3.0510774461e+000	 1.5003094234e+000	-8.9096071726e-002
 3.0347593738e+000	 1.5330484222e+000	-1.1706213647e-001
 3.0180609300e+000	 1.5656660084e+000	-1.4415543948e-001
 3.0009831633e+000	 1.5981557240e+000	-1.7229969367e-001
 2.9835272650e+000	 1.6305111137e+000	-2.0354198576e-001
 2.9656945701e+000	 1.6627257286e+000	-2.4003043922e-001
 3.1514616820e+000	 1.3454902298e+000	 1.1695132389e-001
 3.1369432446e+000	 1.3790003905e+000	 6.5780510091e-002
 3.1220383066e+000	 1.4124206346e+000	 2.1030756974e-002
 3.1067472152e+000	 1.4457444976e+000	-1.8075508355e-002
 3.0910704576e+000	 1.4789654987e+000	-5.2514242417e-002
 3.0750086618e+000	 1.5120771445e+000	-8.3452052456e-002
 3.0585625982e+000	 1.5450729326e+000	-1.1223543784e-001
 3.0417331797e+000	 1.5779463558e+000	-1.4037698480e-001
 3.0245214630e+000	 1.6106909054e+000	-1.6953852112e-001
 3.0069286489e+000	 1.6433000755e+000	-2.0151126537e-001
 2.9889560827e+000	 1.6757673668e+000	-2.3819303438e-001
 3.1759878923e+000	 1.3559614903e+000	 1.1287421971e-001
 3.1613564654e+000	 1.3897324435e+000	 6.5919763492e-002
 3.1463355299e+000	 1.4234127802e+000	 2.3905464584e-002
 3.1309254358e+000	 1.4569959857e+000	-1.3674349113e-002
 3.1151266740e+000	 1.4904755289e+000	-4.7531005608e-002
 3.0989398775e+000	 1.5238448656e+000	-7.8574068527e-002
 3.0823658226e+000	 1.5570974430e+000	-1.0790072211e-001
 3.0654054293e+000	 1.5902267032e+000	-1.3678193806e-001
 3.0480597627e+000	 1.6232260869e+000	-1.6664542973e-001
 3.0303300327e+000	 1.6560890374e+000	-1.9905542872e-001
 3.0122175953e+000	 1.6888090049e+000	-2.3568934941e-001
 3.2005141027e+000	 1.3664327509e+000	 1.0843150697e-001
 3.1857696862e+000	 1.4004644964e+000	 6.5369822618e-002
 3.1706327532e+000	 1.4344049258e+000	 2.5919916189e-002
 3.1551036564e+000	 1.4682474739e+000	-1.0172386514e-002
 3.1391828904e+000	 1.5019855590e+000	-4.3375629458e-002
 3.1228710932e+000	 1.5356125867e+000	-7.4365580902e-002
 3.1061690470e+000	 1.5691219534e+000	-1.0401471397e-001
 3.0890776790e+000	 1.6025070506e+000	-1.3337828729e-001
 3.0715980624e+000	 1.6357612683e+000	-1.6367703023e-001
 3.0537314166e+000	 1.6688779993e+000	-1.9627646818e-001
 3.0354791079e+000	 1.7018506431e+000	-2.3266295558e-001
 3.2250403130e+000	 1.3769040114e+000	 1.0393616983e-001
 3.2101829069e+000	 1.4111965494e+000	 6.4391300963e-002
 3.1949299765e+000	 1.4453970713e+000	 2.7280916792e-002
 3.1792818770e+000	 1.4794989620e+000	-7.4172424103e-003
 3.1632391068e+000	 1.5134955891e+000	-3.9950003882e-002
 3.1468023089e+000	 1.5473803077e+000	-7.0781854327e-002
 3.1299722714e+000	 1.5811464638e+000	-1.0058446813e-001
 3.1127499287e+000	 1.6147873980e+000	-1.3022264330e-001
 3.0951363621e+000	 1.6482964497e+000	-1.6073664868e-001
 3.0771328004e+000	 1.6816669612e+000	-1.9332101853e-001
 3.0587406205e+000	 1.7148922812e+000	-2.2929986442e-001
 3.2495665234e+000	 1.3873752720e+000	 9.9647885579e-002
 3.2345961277e+000	 1.4219286023e+000	 6.3191520450e-002
 3.2192271998e+000	 1.4563892169e+000	 2.8142370756e-002
 3.2034600975e+000	 1.4907504501e+000	-5.3086976816e-003
 3.1872953232e+000	 1.5250056192e+000	-3.7207112151e-002
 3.1707335246e+000	 1.5591480288e+000	-6.7827885419e-002
 3.1537754958e+000	 1.5931709742e+000	-9.7665143696e-002
 3.1364221784e+000	 1.6270677453e+000	-1.2741785914e-001
 3.1186746618e+000	 1.6608316311e+000	-1.5797178940e-001
 3.1005341843e+000	 1.6944559230e+000	-1.9037766125e-001
 3.0820021331e+000	 1.7279339194e+000	-2.2582567049e-001
 3.2740927337e+000	 1.3978465325e+000	 9.5774346044e-002
 3.2590093485e+000	 1.4326606553e+000	 6.1925988254e-002
 3.2435244231e+000	 1.4673813625e+000	 2.8606912504e-002
 3.2276383181e+000	 1.5020019382e+000	-3.7969086521e-003
 3.2113515396e+000	 1.5365156494e+000	-3.5149094867e-002
 3.1946647403e+000	 1.5709157499e+000	-6.5556314079e-002
 3.1775787202e+000	 1.6051954846e+000	-9.5357762361e-002
 3.1600944280e+000	 1.6393480927e+000	-1.2511063389e-001
 3.1422129615e+000	 1.6733668126e+000	-1.5557158268e-001
 3.1239355681e+000	 1.7072448849e+000	-1.8767421388e-001
 3.1052636456e+000	 1.7409755575e+000	-2.2250267969e-001
 3.2986189440e+000	 1.4083177931e+000	 9.2472599464e-002
 3.2834225693e+000	 1.4433927082e+000	 6.0699892778e-002
 3.2678216464e+000	 1.4783735081e+000	 2.8727555255e-002
 3.2518165387e+000	 1.5132534263e+000	-2.8806063862e-003
 3.2354077560e+000	 1.5480256795e+000	-3.3825297539e-002
 3.2185959559e+000	 1.5826834710e+000	-6.4065319091e-002
 3.2013819446e+000	 1.6172199950e+000	-9.3806951257e-002
 3.1837666777e+000	 1.6516284401e+000	-1.2348910158e-001
 3.1657512612e+000	 1.6859019940e+000	-1.5376421790e-001
 3.1473369520e+000	 1.7200338468e+000	-1.8547500515e-001
 3.1285251582e+000	 1.7540171957e+000	-2.1962702371e-001
 3.3231451544e+000	 1.4187890536e+000	 8.9850411832e-002
 3.3078357901e+000	 1.4541247611e+000	 5.9569617775e-002
 3.2921188697e+000	 1.4893656536e+000	 2.8509356848e-002
 3.2759947593e+000	 1.5245049144e+000	-2.6052797422e-003
 3.2594639724e+000	 1.5595357096e+000	-3.3330302612e-002
 3.2425271716e+000	 1.5944511921e+000	-6.3496498741e-002
 3.2251851690e+000	 1.6292445053e+000	-9.3198671300e-002
 3.2074389274e+000	 1.6639087875e+000	-1.2278040584e-001
 3.1892895609e+000	 1.6984371754e+000	-1.5281436287e-001
 3.1707383359e+000	 1.7328228087e+000	-1.8407813673e-001
 3.1517866708e+000	 1.7670588338e+000	-2.1752576161e-001
 3.3476713647e+000	 1.4292603142e+000	 8.7706917738e-002
 3.3322490109e+000	 1.4648568141e+000	 5.8544273688e-002
 3.3164160930e+000	 1.5003577992e+000	 2.7911101786e-002
 3.3001729799e+000	 1.5357564025e+000	-3.0613430197e-003
 3.2835201888e+000	 1.5710457397e+000	-3.3801946743e-002
 3.2664583873e+000	 1.6062189132e+000	-6.4032737198e-002
 3.2489883934e+000	 1.6412690157e+000	-9.3757931724e-002
 3.2311111771e+000	 1.6761891349e+000	-1.2324826127e-001
 3.2128278607e+000	 1.7109723568e+000	-1.5302057009e-001
 3.1941397197e+000	 1.7456117705e+000	-1.8381273222e-001
 3.1750481834e+000	 1.7801004720e+000	-2.1655396885e-001
 3.3721975751e+000	 1.4397315747e+000	 8.4882356773e-002
 3.3566622317e+000	 1.4755888670e+000	 5.6818723926e-002
 3.3407133163e+000	 1.5113499448e+000	 2.6769097846e-002
 3.3243512004e+000	 1.5470078906e+000	-4.3822889833e-003
 3.3075764053e+000	 1.5825557699e+000	-3.5419324077e-002
 3.2903896030e+000	 1.6179866343e+000	-6.5896057406e-002
 3.2727916178e+000	 1.6532935261e+000	-9.5746491544e-002
 3.2547834267e+000	 1.6884694823e+000	-1.2519050198e-001
 3.2363661604e+000	 1.7235075382e+000	-1.5471267059e-001
 3.2175411036e+000	 1.7584007324e+000	-1.8503617407e-001
 3.1983096960e+000	 1.7931421101e+000	-2.1709181470e-001
 2.9656945701e+000	 1.6627257286e+000	-2.4003043922e-001
 2.9474837982e+000	 1.6947979300e+000	-2.7837488196e-001
 2.9288992217e+000	 1.7267164490e+000	-3.1420111339e-001
 2.9099426108e+000	 1.7584748791e+000	-3.4827089013e-001
 2.8906158798e+000	 1.7900668359e+000	-3.8133622355e-001
 2.8709210869e+000	 1.8214859618e+000	-4.1410765537e-001
 2.8508604341e+000	 1.8527259292e+000	-4.4722071331e-001
 2.8304362665e+000	 1.8837804452e+000	-4.8120078780e-001
 2.8096510718e+000	 1.9146432551e+000	-5.1642669318e-001
 2.7885074799e+000	 1.9453081468e+000	-5.5309319755e-001
 2.7670082615e+000	 1.9757689547e+000	-5.9117282368e-001
 2.9889560827e+000	 1.6757673668e+000	-2.3819303438e-001
 2.9706024740e+000	 1.7080911274e+000	-2.7606555552e-001
 2.9518721289e+000	 1.7402600002e+000	-3.1094682101e-001
 2.9327668313e+000	 1.7722675285e+000	-3.4383882029e-001
 2.9132885105e+000	 1.8041072778e+000	-3.7574077936e-001
 2.8934392409e+000	 1.8357728405e+000	-4.0761545586e-001
 2.8732212418e+000	 1.8672578395e+000	-4.4035347762e-001
 2.8526368766e+000	 1.8985559325e+000	-4.7473597869e-001
 2.8316886526e+000	 1.9296608158e+000	-5.1139581075e-001
 2.8103792203e+000	 1.9605662285e+000	-5.5077762930e-001
 2.7887113722e+000	 1.9912659566e+000	-5.9309717373e-001
 3.0122175953e+000	 1.6888090049e+000	-2.3568934941e-001
 2.9937211499e+000	 1.7213843248e+000	-2.7295222340e-001
 2.9748450361e+000	 1.7538035515e+000	-3.0687341628e-001
 2.9555910517e+000	 1.7860601779e+000	-3.3867764513e-001
 2.9359611411e+000	 1.8181477197e+000	-3.6959422174e-001
 2.9159573949e+000	 1.8500597192e+000	-4.0082131667e-001
 2.8955820494e+000	 1.8817897498e+000	-4.3348812409e-001
 2.8748374867e+000	 1.9133314198e+000	-4.6861519515e-001
 2.8537262335e+000	 1.9446783765e+000	-5.0707323231e-001
 2.8322509608e+000	 1.9758243102e+000	-5.4954066023e-001
 2.8104144828e+000	 2.0067629585e+000	-5.9600477365e-001
 3.0354791079e+000	 1.7018506431e+000	-2.3266295558e-001
 3.0168398258e+000	 1.7346775222e+000	-2.6921505023e-001
 2.9978179433e+000	 1.7673471027e+000	-3.0219227326e-001
 2.9784152722e+000	 1.7998528273e+000	-3.3302525519e-001
 2.9586337718e+000	 1.8321881615e+000	-3.6315699273e-001
 2.9384755489e+000	 1.8643465979e+000	-3.9400502776e-001
 2.9179428571e+000	 1.8963216601e+000	-4.2692137832e-001
 2.8970380968e+000	 1.9281069071e+000	-4.6315050303e-001
 2.8757638143e+000	 1.9596959371e+000	-5.0378560711e-001
 2.8541227012e+000	 1.9910823918e+000	-5.4972362184e-001
 2.8321175935e+000	 2.0222599604e+000	-5.9674053214e-001
 3.0587406205e+000	 1.7148922812e+000	-2.2929986442e-001
 3.0399585016e+000	 1.7479707196e+000	-2.6507436659e-001
 3.0207908505e+000	 1.7808906540e+000	-2.9715262134e-001
 3.0012394926e+000	 1.8136454768e+000	-3.2715505414e-001
 2.9813064025e+000	 1.8462286034e+000	-3.5672267919e-001
 2.9609937029e+000	 1.8786334766e+000	-3.8747713585e-001
 2.9403036647e+000	 1.9108535705e+000	-4.2097832153e-001
 2.9192387069e+000	 1.9428823945e+000	-4.5867991719e-001
 2.8978013951e+000	 1.9747134978e+000	-5.0188312916e-001
 2.8759944416e+000	 2.0063404735e+000	-5.5129542187e-001
 2.8538207042e+000	 2.0377569623e+000	-5.9506946494e-001
 3.0820021331e+000	 1.7279339194e+000	-2.2582567049e-001
 3.0630771775e+000	 1.7612639170e+000	-2.6078764620e-001
 3.0437637577e+000	 1.7944342052e+000	-2.9203835244e-001
 3.0240637131e+000	 1.8274381262e+000	-3.2137259233e-001
 3.0039790332e+000	 1.8602690453e+000	-3.5061446990e-001
 2.9835118568e+000	 1.8929203553e+000	-3.8157522288e-001
 2.9626644724e+000	 1.9253854808e+000	-4.1600848946e-001
 2.9414393170e+000	 1.9576578818e+000	-4.5556332039e-001
 2.9198389759e+000	 1.9897310585e+000	-5.0173527676e-001
 2.8978661821e+000	 2.0215985551e+000	-5.5130328831e-001
 2.8755238149e+000	 2.0532539642e+000	-5.9152865843e-001
 3.1052636456e+000	 1.7409755575e+000	-2.2250267969e-001
 3.0861958534e+000	 1.7745571144e+000	-2.5664646918e-001
 3.0667366648e+000	 1.8079777565e+000	-2.8716481492e-001
 3.0468879335e+000	 1.8412307756e+000	-3.1601218778e-001
 3.0266516638e+000	 1.8743094872e+000	-3.4518160097e-001
 3.0060300108e+000	 1.9072072340e+000	-3.7666017405e-001
 2.9850252801e+000	 1.9399173911e+000	-4.1238196169e-001
 2.9636399271e+000	 1.9724333691e+000	-4.5417837381e-001
 2.9418765567e+000	 2.0047486192e+000	-5.0351076049e-001
 2.9197379225e+000	 2.0368566368e+000	-5.4950953561e-001
 2.8972269256e+000	 2.0687509661e+000	-5.8665733838e-001
 3.1285251582e+000	 1.7540171957e+000	-2.1962702371e-001
 3.1093145292e+000	 1.7878503118e+000	-2.5297347207e-001
 3.0897095720e+000	 1.8215213077e+000	-2.8287559490e-001
 3.0697121540e+000	 1.8550234251e+000	-3.1143353550e-001
 3.0493242945e+000	 1.8883499290e+000	-3.4079579034e-001
 3.0285481648e+000	 1.9214941128e+000	-3.7311243566e-001
 3.0073860877e+000	 1.9544493014e+000	-4.1048544198e-001
 2.9858405372e+000	 1.9872088564e+000	-4.5491641948e-001
 2.9639141376e+000	 2.0197661799e+000	-5.0456086674e-001
 2.9416096629e+000	 2.0521147185e+000	-5.4646602128e-001
 2.9189300362e+000	 2.0842479680e+000	-5.8099578887e-001
 3.1517866708e+000	 1.7670588338e+000	-2.1752576161e-001
 3.1324332051e+000	 1.8011435092e+000	-2.5011928532e-001
 3.1126824792e+000	 1.8350648590e+000	-2.7953928569e-001
 3.0925363745e+000	 1.8688160745e+000	-3.0801830546e-001
 3.0719969252e+000	 1.9023903709e+000	-3.3784766194e-001
 3.0510663188e+000	 1.9357809915e+000	-3.7132826355e-001
 3.0297468954e+000	 1.9689812117e+000	-4.1071832994e-001
 3.0080411473e+000	 2.0019843437e+000	-4.5814176287e-001
 2.9859517184e+000	 2.0347837405e+000	-5.0442801485e-001
 2.9634814034e+000	 2.0673728001e+000	-5.4272501531e-001
 2.9406331469e+000	 2.0997449699e+000	-5.7508426667e-001
 3.1750481834e+000	 1.7801004720e+000	-2.1655396885e-001
 3.1555518810e+000	 1.8144367066e+000	-2.4845945880e-001
 3.1356553864e+000	 1.8486084102e+000	-2.7754624585e-001
 3.1153605949e+000	 1.8826087239e+000	-3.0616673002e-001
 3.0946695558e+000	 1.9164308128e+000	-3.3674315989e-001
 3.0735844728e+000	 1.9500678702e+000	-3.7171596256e-001
 3.0521077031e+000	 1.9835131220e+000	-4.1348878475e-001
 3.0302417574e+000	 2.0167598311e+000	-4.6179503604e-001
 3.0079892992e+000	 2.0498013012e+000	-5.0367664717e-001
 2.9853531438e+000	 2.0826308818e+000	-5.3883816129e-001
 2.9623362576e+000	 2.1152419718e+000	-5.6946191104e-001
 3.1983096960e+000	 1.7931421101e+000	-2.1709181470e-001
 3.1786705568e+000	 1.8277299040e+000	-2.4839137612e-001
 3.1586282936e+000	 1.8621519615e+000	-2.7730534654e-001
 3.1381848154e+000	 1.8964013734e+000	-3.0629418121e-001
 3.1173421865e+000	 1.9304712547e+000	-3.3789995344e-001
 3.0961026268e+000	 1.9643547489e+000	-3.7469211732e-001
 3.0744685107e+000	 1.9980450323e+000	-4.1920978100e-001
 3.0524423675e+000	 2.0315353184e+000	-4.6491021165e-001
 3.0300268800e+000	 2.0648188619e+000	-5.0287008151e-001
 3.0072248842e+000	 2.0978889635e+000	-5.3535543265e-001
 2.9840393683e+000	 2.1307389737e+000	-5.6466564944e-001
 2.7670082615e+000	 1.9757689547e+000	-5.9117282368e-001
 2.7451563267e+000	 2.0060195626e+000	-6.3323162196e-001
 2.7229547217e+000	 2.0360539061e+000	-6.7183700310e-001
 2.7004066295e+000	 2.0658659783e+000	-7.0399240912e-001
 2.6775153696e+000	 2.0954498343e+000	-7.3260454443e-001
 2.6542843967e+000	 2.1247995951e+000	-7.5901547874e-001
 2.6307172986e+000	 2.1539094513e+000	-7.7777164402e-001
 2.6068177947e+000	 2.1827736670e+000	-7.8940984340e-001
 2.5825897342e+000	 2.2113865834e+000	-7.9563944813e-001
 2.5580370939e+000	 2.2397426226e+000	-7.9823699391e-001
 2.5331639763e+000	 2.2678362910e+000	-7.9902402733e-001
 2.7887113722e+000	 1.9912659566e+000	-5.9309717373e-001
 2.7666880411e+000	 2.0217538360e+000	-6.3620084275e-001
 2.7443122971e+000	 2.0520237548e+000	-6.7124923527e-001
 2.7215873483e+000	 2.0820696589e+000	-7.0012716157e-001
 2.6985165402e+000	 2.1118855567e+000	-7.2539883980e-001
 2.6751033544e+000	 2.1414655232e+000	-7.4952638200e-001
 2.6513514071e+000	 2.1708037034e+000	-7.7258361705e-001
 2.6272644467e+000	 2.1998943164e+000	-7.8839427355e-001
 2.6028463527e+000	 2.2287316591e+000	-7.9758015150e-001
 2.5781011331e+000	 2.2573101097e+000	-8.0150878370e-001
 2.5530329225e+000	 2.2856241316e+000	-8.0160142200e-001
 2.8104144828e+000	 2.0067629585e+000	-5.9600477365e-001
 2.7882197555e+000	 2.0374881094e+000	-6.3618536608e-001
 2.7656698726e+000	 2.0679936035e+000	-6.6816766222e-001
 2.7427680671e+000	 2.0982733394e+000	-6.9428010500e-001
 2.7195177107e+000	 2.1283212791e+000	-7.1676008343e-001
 2.6959223122e+000	 2.1581314513e+000	-7.3774135721e-001
 2.6719855156e+000	 2.1876979556e+000	-7.5924183452e-001
 2.6477110988e+000	 2.2170149659e+000	-7.7964043045e-001
 2.6231029713e+000	 2.2460767348e+000	-7.9255281665e-001
 2.5981651723e+000	 2.2748775969e+000	-7.9868163362e-001
 2.5729018686e+000	 2.3034119723e+000	-7.9906055837e-001
 2.8321175935e+000	 2.0222599604e+000	-5.9674053214e-001
 2.8097514699e+000	 2.0532223829e+000	-6.3370408644e-001
 2.7870274480e+000	 2.0839634522e+000	-6.6309898425e-001
 2.7639487859e+000	 2.1144770200e+000	-6.8694400392e-001
 2.7405188813e+000	 2.1447570015e+000	-7.0716512317e-001
 2.7167412699e+000	 2.1747973795e+000	-7.2558298010e-001
 2.6926196241e+000	 2.2045922077e+000	-7.4390069965e-001
 2.6681577508e+000	 2.2341356153e+000	-7.6369218024e-001
 2.6433595898e+000	 2.2634218105e+000	-7.8107471306e-001
 2.6182292115e+000	 2.2924450840e+000	-7.9026241326e-001
 2.5927708148e+000	 2.3211998129e+000	-7.9189337223e-001
 2.8538207042e+000	 2.0377569623e+000	-5.9506946494e-001
 2.8312831843e+000	 2.0689566563e+000	-6.2927998435e-001
 2.8083850235e+000	 2.0999333008e+000	-6.5655385584e-001
 2.7851295047e+000	 2.1306807005e+000	-6.7861552933e-001
 2.7615200518e+000	 2.1611927239e+000	-6.9709476523e-001
 2.7375602276e+000	 2.1914633076e+000	-7.1351408451e-001
 2.7132537326e+000	 2.2214864598e+000	-7.2927659661e-001
 2.6886044029e+000	 2.2512562648e+000	-7.4565430364e-001
 2.6636162084e+000	 2.2807668862e+000	-7.6368481311e-001
 2.6382932507e+000	 2.3100125711e+000	-7.7677986736e-001
 2.6126397609e+000	 2.3389876536e+000	-7.8061403304e-001
 2.8755238149e+000	 2.0532539642e+000	-5.9152865843e-001
 2.8528148987e+000	 2.0846909297e+000	-6.2343900073e-001
 2.8297425989e+000	 2.1159031495e+000	-6.4904570453e-001
 2.8063102236e+000	 2.1468843811e+000	-6.6979402072e-001
 2.7825212224e+000	 2.1776284463e+000	-6.8703247786e-001
 2.7583791854e+000	 2.2081292357e+000	-7.0200027296e-001
 2.7338878411e+000	 2.2383807119e+000	-7.1581505318e-001
 2.7090510549e+000	 2.2683769142e+000	-7.2946119033e-001
 2.6838728269e+000	 2.2981119619e+000	-7.4377864892e-001
 2.6583572899e+000	 2.3275800583e+000	-7.5878185031e-001
 2.6325087071e+000	 2.3567754942e+000	-7.6575605271e-001
 2.8972269256e+000	 2.0687509661e+000	-5.8665733838e-001
 2.8743466130e+000	 2.1004252032e+000	-6.1670890722e-001
 2.8511001744e+000	 2.1318729982e+000	-6.4108954667e-001
 2.8274909424e+000	 2.1630880617e+000	-6.6098024637e-001
 2.8035223929e+000	 2.1940641687e+000	-6.7746309466e-001
 2.7791981431e+000	 2.2247951638e+000	-6.9150856128e-001
 2.7545219496e+000	 2.2552749641e+000	-7.0396318426e-001
 2.7294977070e+000	 2.2854975637e+000	-7.1553776702e-001
 2.7041294454e+000	 2.3154570376e+000	-7.2679619012e-001
 2.6784213290e+000	 2.3451475454e+000	-7.3814493955e-001
 2.6523776532e+000	 2.3745633349e+000	-7.4786940540e-001
 2.9189300362e+000	 2.0842479680e+000	-5.8099578887e-001
 2.8958783274e+000	 2.1161594766e+000	-6.0961817246e-001
 2.8724577498e+000	 2.1478428469e+000	-6.3320080041e-001
 2.8486716612e+000	 2.1792917422e+000	-6.5267516187e-001
 2.8245235635e+000	 2.2104998912e+000	-6.6887151745e-001
 2.8000171008e+000	 2.2414610919e+000	-6.8250602415e-001
 2.7751560581e+000	 2.2721692162e+000	-6.9416827831e-001
 2.7499443590e+000	 2.3026182132e+000	-7.0430938665e-001
 2.7243860640e+000	 2.3328021133e+000	-7.1323067423e-001
 2.6984853682e+000	 2.3627150325e+000	-7.2107313509e-001
 2.6722465994e+000	 2.3923511755e+000	-7.2780772814e-001
 2.9406331469e+000	 2.0997449699e+000	-5.7508426667e-001
 2.9174100418e+000	 2.1318937500e+000	-6.0269482477e-001
 2.8938153252e+000	 2.1638126956e+000	-6.2589409600e-001
 2.8698523800e+000	 2.1954954228e+000	-6.4537866718e-001
 2.8455247340e+000	 2.2269356136e+000	-6.6174141877e-001
 2.8208360586e+000	 2.2581270200e+000	-6.7545844169e-001
 2.7957901666e+000	 2.2890634683e+000	-6.8687638615e-001
 2.7703910110e+000	 2.3197388626e+000	-6.9620035753e-001
 2.7446426825e+000	 2.3501471890e+000	-7.0348247206e-001
 2.7185494074e+000	 2.3802825197e+000	-7.0861118275e-001
 2.6921155456e+000	 2.4101390162e+000	-7.1130148214e-001
 2.9623362576e+000	 2.1152419718e+000	-5.6946191104e-001
 2.9389417562e+000	 2.1476280235e+000	-5.9646531122e-001
 2.9151729007e+000	 2.1797825443e+000	-6.1968208348e-001
 2.8910330989e+000	 2.2116991033e+000	-6.3958836206e-001
 2.8665259046e+000	 2.2433713360e+000	-6.5655394407e-001
 2.8416550163e+000	 2.2747929482e+000	-6.7082894683e-001
 2.8164242751e+000	 2.3059577205e+000	-6.8253091204e-001
 2.7908376631e+000	 2.3368595121e+000	-6.9163247612e-001
 2.7648993011e+000	 2.3674922647e+000	-6.9794972473e-001
 2.7386134466e+000	 2.3978500068e+000	-7.0113134595e-001
 2.7119844917e+000	 2.4279268568e+000	-7.0064869362e-001
 2.9840393683e+000	 2.1307389737e+000	-5.6466564944e-001
 2.9604734706e+000	 2.1633622969e+000	-5.9145335334e-001
 2.9365304761e+000	 2.1957523930e+000	-6.1507423794e-001
 2.9122138177e+000	 2.2279027839e+000	-6.3579830015e-001
 2.8875270751e+000	 2.2598070584e+000	-6.5378641343e-001
 2.8624739740e+000	 2.2914588763e+000	-6.6907667368e-001
 2.8370583836e+000	 2.3228519726e+000	-6.8157120695e-001
 2.8112843151e+000	 2.3539801615e+000	-6.9102356355e-001
 2.7851559196e+000	 2.3848373405e+000	-6.9702682131e-001
 2.7586774858e+000	 2.4154174939e+000	-6.9900251753e-001
 2.7318534379e+000	 2.4457146975e+000	-6.9619052556e-001
 2.5331639763e+000	 2.2678362910e+000	-7.9902402733e-001
 2.5079784091e+000	 2.2956580300e+000	-8.0520988373e-001
 2.4824810320e+000	 2.3232067631e+000	-8.2091012227e-001
 2.4566763103e+000	 2.3504772753e+000	-8.4337347508e-001
 2.4305688249e+000	 2.3774644495e+000	-8.6990112064e-001
 2.4041632699e+000	 2.4041632699e+000	-8.9783253566e-001
 2.3774644495e+000	 2.4305688249e+000	-9.2453166524e-001
 2.3504772753e+000	 2.4566763103e+000	-9.4737359986e-001
 2.3232067631e+000	 2.4824810320e+000	-9.6373194212e-001
 2.2956580300e+000	 2.5079784091e+000	-9.7096703867e-001
 2.2678362910e+000	 2.5331639763e+000	-9.6641524346e-001
 2.5530329225e+000	 2.2856241316e+000	-8.0160142200e-001
 2.5276498115e+000	 2.3136640913e+000	-8.0550132026e-001
 2.5019524450e+000	 2.3414289037e+000	-8.1826227083e-001
 2.4759453232e+000	 2.3689133129e+000	-8.3749113025e-001
 2.4496330630e+000	 2.3961121619e+000	-8.6083892662e-001
 2.4230203952e+000	 2.4230203952e+000	-8.8598488500e-001
 2.3961121619e+000	 2.4496330630e+000	-9.1062081624e-001
 2.3689133129e+000	 2.4759453232e+000	-9.3243607011e-001
 2.3414289037e+000	 2.5019524450e+000	-9.4910324772e-001
 2.3136640913e+000	 2.5276498115e+000	-9.5826485988e-001
 2.2856241316e+000	 2.5530329225e+000	-9.5752110884e-001
 2.5729018686e+000	 2.3034119723e+000	-7.9906055837e-001
 2.5473212140e+000	 2.3316701525e+000	-8.0167170321e-001
 2.5214238580e+000	 2.3596510443e+000	-8.1239280712e-001
 2.4952143361e+000	 2.3873493506e+000	-8.2917223537e-001
 2.4686973011e+000	 2.4147598742e+000	-8.4999431213e-001
 2.4418775206e+000	 2.4418775206e+000	-8.7286147845e-001
 2.4147598742e+000	 2.4686973011e+000	-8.9577686030e-001
 2.3873493506e+000	 2.4952143361e+000	-9.1672746043e-001
 2.3596510443e+000	 2.5214238580e+000	-9.3366818125e-001
 2.3316701525e+000	 2.5473212140e+000	-9.4450687757e-001
 2.3034119723e+000	 2.5729018686e+000	-9.4709062755e-001
 2.5927708148e+000	 2.3211998129e+000	-7.9189337223e-001
 2.5669926164e+000	 2.3496762138e+000	-7.9419749534e-001
 2.5408952710e+000	 2.3778731848e+000	-8.0376661511e-001
 2.5144833490e+000	 2.4057853882e+000	-8.1887450219e-001
 2.4877615391e+000	 2.4334075865e+000	-8.3782272127e-001
 2.4607346459e+000	 2.4607346459e+000	-8.5892087794e-001
 2.4334075865e+000	 2.4877615391e+000	-8.8046732373e-001
 2.4057853882e+000	 2.5144833490e+000	-9.0073054661e-001
 2.3778731848e+000	 2.5408952710e+000	-9.1793146674e-001
 2.3496762138e+000	 2.5669926164e+000	-9.3022684887e-001
 2.3211998129e+000	 2.5927708148e+000	-9.3569403115e-001
 2.6126397609e+000	 2.3389876536e+000	-7.8061403304e-001
 2.5866640188e+000	 2.3676822751e+000	-7.8357783361e-001
 2.5603666840e+000	 2.3960953254e+000	-7.9287165771e-001
 2.5337523619e+000	 2.4242214259e+000	-8.0707909088e-001
 2.5068257772e+000	 2.4520552989e+000	-8.2480338128e-001
 2.4795917712e+000	 2.4795917712e+000	-8.4464572861e-001
 2.4520552989e+000	 2.5068257772e+000	-8.6518408130e-001
 2.4242214259e+000	 2.5337523619e+000	-8.8495268268e-001
 2.3960953254e+000	 2.5603666840e+000	-9.0242259957e-001
 2.3676822751e+000	 2.5866640188e+000	-9.1598345705e-001
 2.3389876536e+000	 2.6126397609e+000	-9.2392659166e-001
 2.6325087071e+000	 2.3567754942e+000	-7.6575605271e-001
 2.6063354212e+000	 2.3856883364e+000	-7.7033151418e-001
 2.5798380970e+000	 2.4143174660e+000	-7.8021584456e-001
 2.5530213748e+000	 2.4426574635e+000	-7.9428736822e-001
 2.5258900153e+000	 2.4707030112e+000	-8.1143595915e-001
 2.4984488965e+000	 2.4984488965e+000	-8.3053932256e-001
 2.4707030112e+000	 2.5258900153e+000	-8.5043983619e-001
 2.4426574635e+000	 2.5530213748e+000	-8.6992220676e-001
 2.4143174660e+000	 2.5798380970e+000	-8.8769218843e-001
 2.3856883364e+000	 2.6063354212e+000	-9.0235660038e-001
 2.3567754942e+000	 2.6325087071e+000	-9.1240486842e-001
 2.6523776532e+000	 2.3745633349e+000	-7.4786940540e-001
 2.6260068236e+000	 2.4036943977e+000	-7.5499399057e-001
 2.5993095100e+000	 2.4325396066e+000	-7.6632391551e-001
 2.5722903877e+000	 2.4610935011e+000	-7.8101768344e-001
 2.5449542533e+000	 2.4893507235e+000	-7.9823723774e-001
 2.5173060218e+000	 2.5173060218e+000	-8.1712218344e-001
 2.4893507235e+000	 2.5449542533e+000	-8.3676462211e-001
 2.4610935011e+000	 2.5722903877e+000	-8.5618487003e-001
 2.4325396066e+000	 2.5993095100e+000	-8.7430832109e-001
 2.4036943977e+000	 2.6260068236e+000	-8.8994370507e-001
 2.3745633349e+000	 2.6523776532e+000	-9.0176297913e-001
 2.6722465994e+000	 2.3923511755e+000	-7.2780772814e-001
 2.6456782260e+000	 2.4217004589e+000	-7.3811438473e-001
 2.6187809230e+000	 2.4507617471e+000	-7.5173433885e-001
 2.5915594006e+000	 2.4795295388e+000	-7.6780216083e-001
 2.5640184914e+000	 2.5079984359e+000	-7.8573781019e-001
 2.5361631471e+000	 2.5361631471e+000	-8.0492867098e-001
 2.5079984359e+000	 2.5640184914e+000	-8.2470232642e-001
 2.4795295388e+000	 2.5915594006e+000	-8.4430028765e-001
 2.4507617471e+000	 2.6187809230e+000	-8.6285295278e-001
 2.4217004589e+000	 2.6456782260e+000	-8.7935606115e-001
 2.3923511755e+000	 2.6722465994e+000	-8.9257164211e-001
 2.6921155456e+000	 2.4101390162e+000	-7.1130148214e-001
 2.6653496285e+000	 2.4397065202e+000	-7.2025251006e-001
 2.6382523360e+000	 2.4689838877e+000	-7.3699622360e-001
 2.6108284135e+000	 2.4979655764e+000	-7.5518350808e-001
 2.5830827295e+000	 2.5266461482e+000	-7.7447879185e-001
 2.5550202725e+000	 2.5550202725e+000	-7.9450360422e-001
 2.5266461482e+000	 2.5830827295e+000	-8.1480723315e-001
 2.4979655764e+000	 2.6108284135e+000	-8.3483841045e-001
 2.4689838877e+000	 2.6382523360e+000	-8.5391831592e-001
 2.4397065202e+000	 2.6653496285e+000	-8.7121518015e-001
 2.4101390162e+000	 2.6921155456e+000	-8.8419325700e-001
 2.7119844917e+000	 2.4279268568e+000	-7.0064869362e-001
 2.6850210309e+000	 2.4577125815e+000	-7.0504581473e-001
 2.6577237489e+000	 2.4872060283e+000	-7.2266624511e-001
 2.6300974264e+000	 2.5164016141e+000	-7.4371183972e-001
 2.6021469675e+000	 2.5452938605e+000	-7.6500854861e-001
 2.5738773978e+000	 2.5738773978e+000	-7.8639890253e-001
 2.5452938605e+000	 2.6021469675e+000	-8.0764058492e-001
 2.5164016141e+000	 2.6300974264e+000	-8.2837601639e-001
 2.4872060283e+000	 2.6577237489e+000	-8.4810335015e-001
 2.4577125815e+000	 2.6850210309e+000	-8.6534080314e-001
 2.4279268568e+000	 2.7119844917e+000	-8.7706668644e-001
 2.7318534379e+000	 2.4457146975e+000	-6.9619052556e-001
 2.7046924333e+000	 2.4757186428e+000	-6.9689678888e-001
 2.6771951619e+000	 2.5054281689e+000	-7.1028817568e-001
 2.6493664393e+000	 2.5348376517e+000	-7.3394151479e-001
 2.6212112056e+000	 2.5639415729e+000	-7.5787944106e-001
 2.5927345231e+000	 2.5927345231e+000	-7.8117024371e-001
 2.5639415729e+000	 2.6212112056e+000	-8.0376716282e-001
 2.5348376517e+000	 2.6493664393e+000	-8.2549322068e-001
 2.5054281689e+000	 2.6771951619e+000	-8.4574244752e-001
 2.4757186428e+000	 2.7046924333e+000	-8.6148648947e-001
 2.4457146975e+000	 2.7318534379e+000	-8.7212114597e-001
 2.2678362910e+000	 2.5331639763e+000	-9.6641524346e-001
 2.2397426226e+000	 2.5580370939e+000	-9.5284033919e-001
 2.2113865834e+000	 2.5825897342e+000	-9.3651383838e-001
 2.1827736670e+000	 2.6068177947e+000	-9.1984392731e-001
 2.1539094513e+000	 2.6307172986e+000	-9.0501328669e-001
 2.1247995951e+000	 2.6542843967e+000	-8.9396691080e-001
 2.0954498343e+000	 2.6775153696e+000	-8.8814519636e-001
 2.0658659783e+000	 2.7004066295e+000	-8.8777481870e-001
 2.0360539061e+000	 2.7229547217e+000	-8.9526760133e-001
 2.0060195626e+000	 2.7451563267e+000	-9.1339569042e-001
 1.9757689547e+000	 2.7670082615e+000	-9.2230404006e-001
 2.2856241316e+000	 2.5530329225e+000	-9.5752110884e-001
 2.2573101097e+000	 2.5781011331e+000	-9.4868872668e-001
 2.2287316591e+000	 2.6028463527e+000	-9.3652659265e-001
 2.1998943164e+000	 2.6272644467e+000	-9.2284819009e-001
 2.1708037034e+000	 2.6513514071e+000	-9.0924469960e-001
 2.1414655232e+000	 2.6751033544e+000	-8.9690954922e-001
 2.1118855567e+000	 2.6985165402e+000	-8.8551311115e-001
 2.0820696589e+000	 2.7215873483e+000	-8.7684479145e-001
 2.0520237548e+000	 2.7443122971e+000	-8.7330634480e-001
 2.0217538360e+000	 2.7666880411e+000	-8.7727695733e-001
 1.9912659566e+000	 2.7887113722e+000	-8.8818569041e-001
 2.3034119723e+000	 2.5729018686e+000	-9.4709062755e-001
 2.2748775969e+000	 2.5981651723e+000	-9.4245531394e-001
 2.2460767348e+000	 2.6231029713e+000	-9.3403084825e-001
 2.2170149659e+000	 2.6477110988e+000	-9.2304419734e-001
 2.1876979556e+000	 2.6719855156e+000	-9.1043464236e-001
 2.1581314513e+000	 2.6959223122e+000	-8.9542377997e-001
 2.1283212791e+000	 2.7195177107e+000	-8.7902611171e-001
 2.0982733394e+000	 2.7427680671e+000	-8.6324714759e-001
 2.0679936035e+000	 2.7656698726e+000	-8.5009032449e-001
 2.0374881094e+000	 2.7882197555e+000	-8.4155347834e-001
 2.0067629585e+000	 2.8104144828e+000	-8.3962523315e-001
 2.3211998129e+000	 2.5927708148e+000	-9.3569403115e-001
 2.2924450840e+000	 2.6182292115e+000	-9.3474869106e-001
 2.2634218105e+000	 2.6433595898e+000	-9.2966943266e-001
 2.2341356153e+000	 2.6681577508e+000	-9.2109921481e-001
 2.2045922077e+000	 2.6926196241e+000	-9.0801427828e-001
 2.1747973795e+000	 2.7167412699e+000	-8.9045807304e-001
 2.1447570015e+000	 2.7405188813e+000	-8.7001652810e-001
 2.1144770200e+000	 2.7639487859e+000	-8.4829247554e-001
 2.0839634522e+000	 2.7870274480e+000	-8.2690277779e-001
 2.0532223829e+000	 2.8097514699e+000	-8.0747531257e-001
 2.0222599604e+000	 2.8321175935e+000	-7.9164583577e-001
 2.3389876536e+000	 2.6126397609e+000	-9.2392659166e-001
 2.3100125711e+000	 2.6382932507e+000	-9.2620273869e-001
 2.2807668862e+000	 2.6636162084e+000	-9.2411103778e-001
 2.2512562648e+000	 2.6886044029e+000	-9.1662586882e-001
 2.2214864598e+000	 2.7132537326e+000	-9.0264716550e-001
 2.1914633076e+000	 2.7375602276e+000	-8.8329591106e-001
 2.1611927239e+000	 2.7615200518e+000	-8.5975195788e-001
 2.1306807005e+000	 2.7851295047e+000	-8.3322731037e-001
 2.0999333008e+000	 2.8083850235e+000	-8.0496378412e-001
 2.0689566563e+000	 2.8312831843e+000	-7.7623048369e-001
 2.0377569623e+000	 2.8538207042e+000	-7.4832111934e-001
 2.3567754942e+000	 2.6325087071e+000	-9.1240486842e-001
 2.3275800583e+000	 2.6583572899e+000	-9.1747283787e-001
 2.2981119619e+000	 2.6838728269e+000	-9.1734164468e-001
 2.2683769142e+000	 2.7090510549e+000	-9.0987066573e-001
 2.2383807119e+000	 2.7338878411e+000	-8.9556332130e-001
 2.2081292357e+000	 2.7583791854e+000	-8.7515662024e-001
 2.1776284463e+000	 2.7825212224e+000	-8.4943626854e-001
 2.1468843811e+000	 2.8063102236e+000	-8.1923507931e-001
 2.1159031495e+000	 2.8297425989e+000	-7.8543114383e-001
 2.0846909297e+000	 2.8528148987e+000	-7.4894578207e-001
 2.0532539642e+000	 2.8755238149e+000	-7.1074129348e-001
 2.3745633349e+000	 2.6523776532e+000	-9.0176297913e-001
 2.3451475454e+000	 2.6784213290e+000	-9.0889402858e-001
 2.3154570376e+000	 2.7041294454e+000	-9.0908691031e-001
 2.2854975637e+000	 2.7294977070e+000	-9.0200644718e-001
 2.2552749641e+000	 2.7545219496e+000	-8.8792947921e-001
 2.2247951638e+000	 2.7791981431e+000	-8.6719644727e-001
 2.1940641687e+000	 2.8035223929e+000	-8.4021062860e-001
 2.1630880617e+000	 2.8274909424e+000	-8.0743707782e-001
 2.1318729982e+000	 2.8511001744e+000	-7.6940128966e-001
 2.1004252032e+000	 2.8743466130e+000	-7.2668760219e-001
 2.0687509661e+000	 2.8972269256e+000	-6.7993736126e-001
 2.3923511755e+000	 2.6722465994e+000	-8.9257164211e-001
 2.3627150325e+000	 2.6984853682e+000	-8.9984491624e-001
 2.3328021133e+000	 2.7243860640e+000	-9.0043503203e-001
 2.3026182132e+000	 2.7499443590e+000	-8.9414389907e-001
 2.2721692162e+000	 2.7751560581e+000	-8.8085022766e-001
 2.2414610919e+000	 2.8000171008e+000	-8.6050966193e-001
 2.2104998912e+000	 2.8245235635e+000	-8.3315456565e-001
 2.1792917422e+000	 2.8486716612e+000	-7.9889347426e-001
 2.1478428469e+000	 2.8724577498e+000	-7.5791022919e-001
 2.1161594766e+000	 2.8958783274e+000	-7.1046281330e-001
 2.0842479680e+000	 2.9189300362e+000	-6.5688190880e-001
 2.4101390162e+000	 2.6921155456e+000	-8.8419325700e-001
 2.3802825197e+000	 2.7185494074e+000	-8.9119249208e-001
 2.3501471890e+000	 2.7446426825e+000	-8.9243797286e-001
 2.3197388626e+000	 2.7703910110e+000	-8.8733274029e-001
 2.2890634683e+000	 2.7957901666e+000	-8.7536917170e-001
 2.2581270200e+000	 2.8208360586e+000	-8.5612968397e-001
 2.2269356136e+000	 2.8455247340e+000	-8.2928705010e-001
 2.1954954228e+000	 2.8698523800e+000	-7.9460434208e-001
 2.1638126956e+000	 2.8938153252e+000	-7.5193451652e-001
 2.1318937500e+000	 2.9174100418e+000	-7.0121966187e-001
 2.0997449699e+000	 2.9406331469e+000	-6.4248992906e-001
 2.4279268568e+000	 2.7119844917e+000	-8.7706668644e-001
 2.3978500068e+000	 2.7386134466e+000	-8.8392802063e-001
 2.3674922647e+000	 2.7648993011e+000	-8.8608811398e-001
 2.3368595121e+000	 2.7908376631e+000	-8.8256293284e-001
 2.3059577205e+000	 2.8164242751e+000	-8.7247011687e-001
 2.2747929482e+000	 2.8416550163e+000	-8.5503023307e-001
 2.2433713360e+000	 2.8665259046e+000	-8.2956760326e-001
 2.2116991033e+000	 2.8910330989e+000	-7.9551071778e-001
 2.1797825443e+000	 2.9151729007e+000	-7.5239225185e-001
 2.1476280235e+000	 2.9389417562e+000	-6.9984870393e-001
 2.1152419718e+000	 2.9623362576e+000	-6.3761967822e-001
 2.4457146975e+000	 2.7318534379e+000	-8.7212114597e-001
 2.4154174939e+000	 2.7586774858e+000	-8.7898474271e-001
 2.3848373405e+000	 2.7851559196e+000	-8.8231950333e-001
 2.3539801615e+000	 2.8112843151e+000	-8.8076591209e-001
 2.3228519726e+000	 2.8370583836e+000	-8.7307827403e-001
 2.2914588763e+000	 2.8624739740e+000	-8.5812650066e-001
 2.2598070584e+000	 2.8875270751e+000	-8.3489742855e-001
 2.2279027839e+000	 2.9122138177e+000	-8.0249568355e-001
 2.1957523930e+000	 2.9365304761e+000	-7.6014410734e-001
 2.1633622969e+000	 2.9604734706e+000	-7.0718376595e-001
 2.1307389737e+000	 2.9840393683e+000	-6.4307356306e-001
 1.9757689547e+000	 2.7670082615e+000	-9.2230404006e-001
 1.9453081468e+000	 2.7885074799e+000	-9.0317987714e-001
 1.9146432551e+000	 2.8096510718e+000	-8.8086186279e-001
 1.8837804452e+000	 2.8304362665e+000	-8.5568804286e-001
 1.8527259292e+000	 2.8508604341e+000	-8.2833639660e-001
 1.8214859618e+000	 2.8709210869e+000	-7.9978902320e-001
 1.7900668359e+000	 2.8906158798e+000	-7.7129663939e-001
 1.7584748791e+000	 2.9099426108e+000	-7.4434361203e-001
 1.7267164490e+000	 2.9288992217e+000	-7.2061373635e-001
 1.6947979300e+000	 2.9474837982e+000	-7.0195695627e-001
 1.6627257286e+000	 2.9656945701e+000	-6.9035720735e-001
 1.9912659566e+000	 2.7887113722e+000	-8.8818569041e-001
 1.9605662285e+000	 2.8103792203e+000	-8.8382263385e-001
 1.9296608158e+000	 2.8316886526e+000	-8.7296519132e-001
 1.8985559325e+000	 2.8526368766e+000	-8.5642035165e-001
 1.8672578395e+000	 2.8732212418e+000	-8.3533106548e-001
 1.8357728405e+000	 2.8934392409e+000	-8.1113812613e-001
 1.8041072778e+000	 2.9132885105e+000	-7.8554244648e-001
 1.7722675285e+000	 2.9327668313e+000	-7.6046796644e-001
 1.7402600002e+000	 2.9518721289e+000	-7.3802541141e-001
 1.7080911274e+000	 2.9706024740e+000	-7.2047710670e-001
 1.6757673668e+000	 2.9889560827e+000	-7.1020303648e-001
 2.0067629585e+000	 2.8104144828e+000	-8.3962523315e-001
 1.9758243102e+000	 2.8322509608e+000	-8.5048653075e-001
 1.9446783765e+000	 2.8537262335e+000	-8.5305385102e-001
 1.9133314198e+000	 2.8748374867e+000	-8.4684023620e-001
 1.8817897498e+000	 2.8955820494e+000	-8.3343685224e-001
 1.8500597192e+000	 2.9159573949e+000	-8.1472705249e-001
 1.8181477197e+000	 2.9359611411e+000	-7.9284639648e-001
 1.7860601779e+000	 2.9555910517e+000	-7.7014339721e-001
 1.7538035515e+000	 2.9748450361e+000	-7.4914122730e-001
 1.7213843248e+000	 2.9937211499e+000	-7.3250059792e-001
 1.6888090049e+000	 3.0122175953e+000	-7.2298400735e-001
 2.0222599604e+000	 2.8321175935e+000	-7.9164583577e-001
 1.9910823918e+000	 2.8541227012e+000	-8.0454732197e-001
 1.9596959371e+000	 2.8757638143e+000	-8.2244989761e-001
 1.9281069071e+000	 2.8970380968e+000	-8.2822779712e-001
 1.8963216601e+000	 2.9179428571e+000	-8.2390444906e-001
 1.8643465979e+000	 2.9384755489e+000	-8.1179040623e-001
 1.8321881615e+000	 2.9586337718e+000	-7.9444106649e-001
 1.7998528273e+000	 2.9784152722e+000	-7.7461522267e-001
 1.7673471027e+000	 2.9978179433e+000	-7.5523468193e-001
 1.7346775222e+000	 3.0168398258e+000	-7.3934517795e-001
 1.7018506431e+000	 3.0354791079e+000	-7.3007878079e-001
 2.0377569623e+000	 2.8538207042e+000	-7.4832111934e-001
 2.0063404735e+000	 2.8759944416e+000	-7.4889627331e-001
 1.9747134978e+000	 2.8978013951e+000	-7.8247774408e-001
 1.9428823945e+000	 2.9192387069e+000	-8.0186476145e-001
 1.9108535705e+000	 2.9403036647e+000	-8.0798515814e-001
 1.8786334766e+000	 2.9609937029e+000	-8.0356209293e-001
 1.8462286034e+000	 2.9813064025e+000	-7.9155672842e-001
 1.8136454768e+000	 3.0012394926e+000	-7.7512454409e-001
 1.7808906540e+000	 3.0207908505e+000	-7.5757283247e-001
 1.7479707196e+000	 3.0399585016e+000	-7.4231961132e-001
 1.7148922812e+000	 3.0587406205e+000	-7.3285416506e-001
 2.0532539642e+000	 2.8755238149e+000	-7.1074129348e-001
 2.0215985551e+000	 2.8978661821e+000	-6.9781031934e-001
 1.9897310585e+000	 2.9198389759e+000	-7.3446372145e-001
 1.9576578818e+000	 2.9414393170e+000	-7.6903395213e-001
 1.9253854808e+000	 2.9626644724e+000	-7.8693028478e-001
 1.8929203553e+000	 2.9835118568e+000	-7.9127465219e-001
 1.8602690453e+000	 3.0039790332e+000	-7.8542063700e-001
 1.8274381262e+000	 3.0240637131e+000	-7.7290750627e-001
 1.7944342052e+000	 3.0437637577e+000	-7.5741554592e-001
 1.7612639170e+000	 3.0630771775e+000	-7.4272293789e-001
 1.7279339194e+000	 3.0820021331e+000	-7.3266440180e-001
 2.0687509661e+000	 2.8972269256e+000	-6.7993736126e-001
 2.0368566368e+000	 2.9197379225e+000	-6.5529893196e-001
 2.0047486192e+000	 2.9418765567e+000	-6.8056689400e-001
 1.9724333691e+000	 2.9636399271e+000	-7.3101880259e-001
 1.9399173911e+000	 2.9850252801e+000	-7.6199057676e-001
 1.9072072340e+000	 3.0060300108e+000	-7.7615863678e-001
 1.8743094872e+000	 3.0266516638e+000	-7.7725636440e-001
 1.8412307756e+000	 3.0468879335e+000	-7.6919460381e-001
 1.8079777565e+000	 3.0667366648e+000	-7.5601479397e-001
 1.7745571144e+000	 3.0861958534e+000	-7.4184377372e-001
 1.7409755575e+000	 3.1052636456e+000	-7.3085049065e-001
 2.0842479680e+000	 2.9189300362e+000	-6.5688190880e-001
 2.0521147185e+000	 2.9416096629e+000	-6.2230330448e-001
 2.0197661799e+000	 2.9639141376e+000	-6.3389711713e-001
 1.9872088564e+000	 2.9858405372e+000	-6.8910291416e-001
 1.9544493014e+000	 3.0073860877e+000	-7.3441570766e-001
 1.9214941128e+000	 3.0285481648e+000	-7.5944203626e-001
 1.8883499290e+000	 3.0493242945e+000	-7.6828317903e-001
 1.8550234251e+000	 3.0697121540e+000	-7.6521003077e-001
 1.8215213077e+000	 3.0897095720e+000	-7.5461398963e-001
 1.7878503118e+000	 3.1093145292e+000	-7.4095965135e-001
 1.7540171957e+000	 3.1285251582e+000	-7.2873955059e-001
 2.0997449699e+000	 2.9406331469e+000	-6.4248992906e-001
 2.0673728001e+000	 2.9634814034e+000	-5.9970803369e-001
 2.0347837405e+000	 2.9859517184e+000	-5.9923902507e-001
 2.0019843437e+000	 3.0080411473e+000	-6.4471092113e-001
 1.9689812117e+000	 3.0297468954e+000	-7.0545380176e-001
 1.9357809915e+000	 3.0510663188e+000	-7.4234974253e-001
 1.9023903709e+000	 3.0719969252e+000	-7.5971546624e-001
 1.8688160745e+000	 3.0925363745e+000	-7.6217107148e-001
 1.8350648590e+000	 3.1126824792e+000	-7.5444736368e-001
 1.8011435092e+000	 3.1324332051e+000	-7.4133639792e-001
 1.7670588338e+000	 3.1517866708e+000	-7.2764421618e-001
 2.1152419718e+000	 2.9623362576e+000	-6.3761967822e-001
 2.0826308818e+000	 2.9853531438e+000	-5.8834190008e-001
 2.0498013012e+000	 3.0079892992e+000	-5.7740276548e-001
 2.0167598311e+000	 3.0302417574e+000	-6.0866839741e-001
 1.9835131220e+000	 3.0521077031e+000	-6.7635099850e-001
 1.9500678702e+000	 3.0735844728e+000	-7.2610305542e-001
 1.9164308128e+000	 3.0946695558e+000	-7.5276218885e-001
 1.8826087239e+000	 3.1153605949e+000	-7.6128753030e-001
 1.8486084102e+000	 3.1356553864e+000	-7.5673937865e-001
 1.8144367066e+000	 3.1555518810e+000	-7.4422754880e-001
 1.7801004720e+000	 3.1750481834e+000	-7.2886206682e-001
 2.1307389737e+000	 2.9840393683e+000	-6.4307356306e-001
 2.0978889635e+000	 3.0072248842e+000	-5.8897868129e-001
 2.0648188619e+000	 3.0300268800e+000	-5.6914406858e-001
 2.0315353184e+000	 3.0524423675e+000	-5.8765512179e-001
 1.9980450323e+000	 3.0744685107e+000	-6.4835105437e-001
 1.9643547489e+000	 3.0961026268e+000	-7.1191922607e-001
 1.9304712547e+000	 3.1173421865e+000	-7.4862638532e-001
 1.8964013734e+000	 3.1381848154e+000	-7.6376119852e-001
 1.8621519615e+000	 3.1586282936e+000	-7.6270417863e-001
 1.8277299040e+000	 3.1786705568e+000	-7.5087379522e-001
 1.7931421101e+000	 3.1983096960e+000	-7.3367508739e-001
 1.6627257286e+000	 2.9656945701e+000	-6.9035720735e-001
 1.6305111137e+000	 2.9835272650e+000	-6.7595623007e-001
 1.5981557240e+000	 3.0009831633e+000	-6.5002281178e-001
 1.5656660084e+000	 3.0180609300e+000	-6.1629463050e-001
 1.5330484222e+000	 3.0347593738e+000	-5.7845762492e-001
 1.5003094234e+000	 3.0510774461e+000	-5.4011958183e-001
 1.4674554686e+000	 3.0670142412e+000	-5.0478573796e-001
 1.4344930095e+000	 3.0825689947e+000	-4.7583645646e-001
 1.4014284891e+000	 3.0977410833e+000	-4.5650701978e-001
 1.3682683376e+000	 3.1125300238e+000	-4.4986956379e-001
 1.3350189692e+000	 3.1269354717e+000	-4.5881716019e-001
 1.6757673668e+000	 2.9889560827e+000	-7.1020303648e-001
 1.6433000755e+000	 3.0069286489e+000	-6.9717623568e-001
 1.6106909054e+000	 3.0245214630e+000	-6.7201048508e-001
 1.5779463558e+000	 3.0417331797e+000	-6.3810971534e-001
 1.5450729326e+000	 3.0585625982e+000	-5.9884387885e-001
 1.5120771445e+000	 3.0750086618e+000	-5.5752210299e-001
 1.4789654987e+000	 3.0910704576e+000	-5.1736792576e-001
 1.4457444976e+000	 3.1067472152e+000	-4.8149667466e-001
 1.4124206346e+000	 3.1220383066e+000	-4.5289503093e-001
 1.3790003905e+000	 3.1369432446e+000	-4.3440280284e-001
 1.3454902298e+000	 3.1514616820e+000	-4.2869691411e-001
 1.6888090049e+000	 3.0122175953e+000	-7.2298400735e-001
 1.6560890374e+000	 3.0303300327e+000	-7.1066412946e-001
 1.6232260869e+000	 3.0480597627e+000	-6.8581049235e-001
 1.5902267032e+000	 3.0654054293e+000	-6.5154197022e-001
 1.5570974430e+000	 3.0823658226e+000	-6.1095841261e-001
 1.5238448656e+000	 3.0989398775e+000	-5.6711329706e-001
 1.4904755289e+000	 3.1151266740e+000	-5.2298854182e-001
 1.4569959857e+000	 3.1309254358e+000	-4.8147154034e-001
 1.4234127802e+000	 3.1463355299e+000	-4.4533445963e-001
 1.3897324435e+000	 3.1613564654e+000	-4.1721582556e-001
 1.3559614903e+000	 3.1759878923e+000	-3.9960439934e-001
 1.7018506431e+000	 3.0354791079e+000	-7.3007878079e-001
 1.6688779993e+000	 3.0537314166e+000	-7.1785248328e-001
 1.6357612683e+000	 3.0715980624e+000	-6.9287768451e-001
 1.6025070506e+000	 3.0890776790e+000	-6.5803598156e-001
 1.5691219534e+000	 3.1061690470e+000	-6.1620210315e-001
 1.5356125867e+000	 3.1228710932e+000	-5.7021599518e-001
 1.5019855590e+000	 3.1391828904e+000	-5.2285715421e-001
 1.4682474739e+000	 3.1551036564e+000	-4.7682127106e-001
 1.4344049258e+000	 3.1706327532e+000	-4.3469922691e-001
 1.4004644964e+000	 3.1857696862e+000	-3.9895846363e-001
 1.3664327509e+000	 3.2005141027e+000	-3.7192673138e-001
 1.7148922812e+000	 3.0587406205e+000	-7.3285416506e-001
 1.6816669612e+000	 3.0771328004e+000	-7.2015955045e-001
 1.6482964497e+000	 3.0951363621e+000	-6.9465128744e-001
 1.6147873980e+000	 3.1127499287e+000	-6.5902059779e-001
 1.5811464638e+000	 3.1299722714e+000	-6.1596120176e-001
 1.5473803077e+000	 3.1468023089e+000	-5.6814077044e-001
 1.5134955891e+000	 3.1632391068e+000	-5.1817472377e-001
 1.4794989620e+000	 3.1792818770e+000	-4.6860243735e-001
 1.4453970713e+000	 3.1949299765e+000	-4.2186590009e-001
 1.4111965494e+000	 3.2101829069e+000	-3.8029084364e-001
 1.3769040114e+000	 3.2250403130e+000	-3.4607034464e-001
 1.7279339194e+000	 3.0820021331e+000	-7.3266440180e-001
 1.6944559230e+000	 3.1005341843e+000	-7.1898856996e-001
 1.6608316311e+000	 3.1186746618e+000	-6.9255418784e-001
 1.6270677453e+000	 3.1364221784e+000	-6.5590815871e-001
 1.5931709742e+000	 3.1537754958e+000	-6.1160646799e-001
 1.5591480288e+000	 3.1707335246e+000	-5.6218493624e-001
 1.5250056192e+000	 3.1872953232e+000	-5.1013242592e-001
 1.4907504501e+000	 3.2034600975e+000	-4.5786656574e-001
 1.4563892169e+000	 3.2192271998e+000	-4.0771203432e-001
 1.4219286023e+000	 3.2345961277e+000	-3.6188142329e-001
 1.3873752720e+000	 3.2495665234e+000	-3.2245867857e-001
 1.7409755575e+000	 3.1052636456e+000	-7.3085049065e-001
 1.7072448849e+000	 3.1239355681e+000	-7.1572710696e-001
 1.6733668126e+000	 3.1422129615e+000	-6.8799225433e-001
 1.6393480927e+000	 3.1600944280e+000	-6.5009376111e-001
 1.6051954846e+000	 3.1775787202e+000	-6.0449234250e-001
 1.5709157499e+000	 3.1946647403e+000	-5.5363158828e-001
 1.5365156494e+000	 3.2113515396e+000	-4.9991052263e-001
 1.5020019382e+000	 3.2276383181e+000	-4.4565880074e-001
 1.4673813625e+000	 3.2435244231e+000	-3.9311458359e-001
 1.4326606553e+000	 3.2590093485e+000	-3.4440510973e-001
 1.3978465325e+000	 3.2740927337e+000	-3.0152996084e-001
 1.7540171957e+000	 3.1285251582e+000	-7.2873955059e-001
 1.7200338468e+000	 3.1473369520e+000	-7.1174642746e-001
 1.6859019940e+000	 3.1657512612e+000	-6.8235369203e-001
 1.6516284401e+000	 3.1837666777e+000	-6.4295455871e-001
 1.6172199950e+000	 3.2013819446e+000	-5.9595615699e-001
 1.5826834710e+000	 3.2185959559e+000	-5.4374868799e-001
 1.5480256795e+000	 3.2354077560e+000	-4.8867728207e-001
 1.5132534263e+000	 3.2518165387e+000	-4.3301662267e-001
 1.4783735081e+000	 3.2678216464e+000	-3.7894837771e-001
 1.4433927082e+000	 3.2834225693e+000	-3.2854145592e-001
 1.4083177931e+000	 3.2986189440e+000	-2.8373508249e-001
 1.7670588338e+000	 3.1517866708e+000	-7.2764421618e-001
 1.7328228087e+000	 3.1707383359e+000	-7.0840090553e-001
 1.6984371754e+000	 3.1892895609e+000	-6.7700842885e-001
 1.6639087875e+000	 3.2074389274e+000	-6.3584909465e-001
 1.6292445053e+000	 3.2251851690e+000	-5.8731737902e-001
 1.5944511921e+000	 3.2425271716e+000	-5.3378818518e-001
 1.5595357096e+000	 3.2594639724e+000	-4.7758794355e-001
 1.5245049144e+000	 3.2759947593e+000	-4.2096861838e-001
 1.4893656536e+000	 3.2921188697e+000	-3.6608466176e-001
 1.4541247611e+000	 3.3078357901e+000	-3.1497293085e-001
 1.4187890536e+000	 3.3231451544e+000	-2.6953556033e-001
 1.7801004720e+000	 3.1750481834e+000	-7.2886206682e-001
 1.7456117705e+000	 3.1941397197e+000	-7.0702746136e-001
 1.7109723568e+000	 3.2128278607e+000	-6.7330753182e-001
 1.6761891349e+000	 3.2311111771e+000	-6.3011666485e-001
 1.6412690157e+000	 3.2489883934e+000	-5.7987689028e-001
 1.6062189132e+000	 3.2664583873e+000	-5.2498517795e-001
 1.5710457397e+000	 3.2835201888e+000	-4.6778372522e-001
 1.5357564025e+000	 3.3001729799e+000	-4.1053330223e-001
 1.5003577992e+000	 3.3164160930e+000	-3.5538969485e-001
 1.4648568141e+000	 3.3322490109e+000	-3.0438325993e-001
 1.4292603142e+000	 3.3476713647e+000	-2.5922039397e-001
 1.7931421101e+000	 3.1983096960e+000	-7.3367508739e-001
 1.7584007324e+000	 3.2175411036e+000	-7.0894502852e-001
 1.7235075382e+000	 3.2363661604e+000	-6.7258265206e-001
 1.6884694823e+000	 3.2547834267e+000	-6.2707671069e-001
 1.6532935261e+000	 3.2727916178e+000	-5.7491629623e-001
 1.6179866343e+000	 3.2903896030e+000	-5.1855710792e-001
 1.5825557699e+000	 3.3075764053e+000	-4.6039087264e-001
 1.5470078906e+000	 3.3243512004e+000	-4.0271798476e-001
 1.5113499448e+000	 3.3407133163e+000	-3.4764154299e-001
 1.4755888670e+000	 3.3566622317e+000	-2.9679599344e-001
 1.4397315747e+000	 3.3721975751e+000	-2.5248579920e-001
 1.3350189692e+000	 3.1269354717e+000	-4.5881716019e-001
 1.3016817725e+000	 3.1409592953e+000	-4.6694639375e-001
 1.2682681041e+000	 3.1545992369e+000	-4.4922068422e-001
 1.2347843127e+000	 3.1678553637e+000	-4.1253104823e-001
 1.2012367166e+000	 3.1807278769e+000	-3.6362150065e-001
 1.1676316006e+000	 3.1932171098e+000	-3.0892205788e-001
 1.1339752124e+000	 3.2053235261e+000	-2.5453691044e-001
 1.1002737598e+000	 3.2170477184e+000	-2.0623138095e-001
 1.0665334072e+000	 3.2283904058e+000	-1.6941758173e-001
 1.0327602727e+000	 3.2393524327e+000	-1.4913872560e-001
 9.9896042527e-001	 3.2499347660e+000	-1.5007107842e-001
 1.3454902298e+000	 3.1514616820e+000	-4.2869691411e-001
 1.3118915518e+000	 3.1655955019e+000	-4.4703016522e-001
 1.2782158023e+000	 3.1793424288e+000	-4.4278626711e-001
 1.2444693798e+000	 3.1927025304e+000	-4.1587809256e-001
 1.2106586521e+000	 3.2056760095e+000	-3.7354596589e-001
 1.1767899534e+000	 3.2182632021e+000	-3.2270080426e-001
 1.1428695804e+000	 3.2304645755e+000	-2.6991306752e-001
 1.1089037894e+000	 3.2422807268e+000	-2.2140026853e-001
 1.0748987933e+000	 3.2537123809e+000	-1.8301295042e-001
 1.0408607582e+000	 3.2647603887e+000	-1.6021907933e-001
 1.0067958007e+000	 3.2754257250e+000	-1.5810363930e-001
 1.3559614903e+000	 3.1759878923e+000	-3.9960439934e-001
 1.3221013311e+000	 3.1902317086e+000	-4.1916356959e-001
 1.2881635005e+000	 3.2040856206e+000	-4.2985872063e-001
 1.2541544469e+000	 3.2175496971e+000	-4.1403618717e-001
 1.2200805877e+000	 3.2306241422e+000	-3.7938661429e-001
 1.1859483062e+000	 3.2433092944e+000	-3.3326086290e-001
 1.1517639483e+000	 3.2556056248e+000	-2.8265987204e-001
 1.1175338190e+000	 3.2675137352e+000	-2.3422283171e-001
 1.0832641795e+000	 3.2790343560e+000	-1.9421356475e-001
 1.0489612438e+000	 3.2901683448e+000	-1.6850506083e-001
 1.0146311762e+000	 3.3009166839e+000	-1.6256215035e-001
 1.3664327509e+000	 3.2005141027e+000	-3.7192673138e-001
 1.3323111103e+000	 3.2148679152e+000	-3.8437319822e-001
 1.2981111987e+000	 3.2288288125e+000	-4.1114402929e-001
 1.2638395139e+000	 3.2423968638e+000	-4.0743087971e-001
 1.2295025232e+000	 3.2555722748e+000	-3.8132841226e-001
 1.1951066590e+000	 3.2683553867e+000	-3.4058621805e-001
 1.1606583162e+000	 3.2807466742e+000	-2.9259973334e-001
 1.1261638486e+000	 3.2927467436e+000	-2.4439919143e-001
 1.0916295656e+000	 3.3043563311e+000	-2.0263649958e-001
 1.0570617294e+000	 3.3155763009e+000	-1.7356997845e-001
 1.0224665517e+000	 3.3264076428e+000	-1.6304694973e-001
 1.3769040114e+000	 3.2250403130e+000	-3.4607034464e-001
 1.3425208896e+000	 3.2395041218e+000	-3.4771893597e-001
 1.3080588968e+000	 3.2535720044e+000	-3.8745100876e-001
 1.2735245810e+000	 3.2672440305e+000	-3.9661366504e-001
 1.2389244587e+000	 3.2805204075e+000	-3.7970316391e-001
 1.2042650118e+000	 3.2934014791e+000	-3.4482625969e-001
 1.1695526842e+000	 3.3058877235e+000	-2.9973662072e-001
 1.1347938782e+000	 3.3179797520e+000	-2.5182468349e-001
 1.0999949518e+000	 3.3296783062e+000	-2.0810512050e-001
 1.0651622150e+000	 3.3409842570e+000	-1.7546470238e-001
 1.0303019272e+000	 3.3518986017e+000	-1.6101214067e-001
 1.3873752720e+000	 3.2495665234e+000	-3.2245867857e-001
 1.3527306689e+000	 3.2641403284e+000	-3.1546677173e-001
 1.3180065950e+000	 3.2783151963e+000	-3.5967337482e-001
 1.2832096481e+000	 3.2920911972e+000	-3.8224457968e-001
 1.2483463942e+000	 3.3054685401e+000	-3.7497268326e-001
 1.2134233646e+000	 3.3184475714e+000	-3.4627958548e-001
 1.1784470521e+000	 3.3310287729e+000	-3.0424054695e-001
 1.1434239078e+000	 3.3432127604e+000	-2.5690328816e-001
 1.1083603379e+000	 3.3550002813e+000	-2.1248097986e-001
 1.0732627005e+000	 3.3663922131e+000	-1.7825134631e-001
 1.0381373026e+000	 3.3773895607e+000	-1.6089212372e-001
 1.3978465325e+000	 3.2740927337e+000	-3.0152996084e-001
 1.3629404481e+000	 3.2887765350e+000	-2.8787171295e-001
 1.3279542932e+000	 3.3030583882e+000	-3.2877193582e-001
 1.2928947151e+000	 3.3169383640e+000	-3.6507492899e-001
 1.2577683297e+000	 3.3304166728e+000	-3.6771210579e-001
 1.2225817174e+000	 3.3434936637e+000	-3.4558538806e-001
 1.1873414200e+000	 3.3561698223e+000	-3.0781625536e-001
 1.1520539374e+000	 3.3684457688e+000	-2.6294354338e-001
 1.1167257241e+000	 3.3803222564e+000	-2.1899527648e-001
 1.0813631861e+000	 3.3918001691e+000	-1.8344084302e-001
 1.0459726781e+000	 3.4028805196e+000	-1.6313902402e-001
 1.4083177931e+000	 3.2986189440e+000	-2.8373508249e-001
 1.3731502274e+000	 3.3134127416e+000	-2.6516244712e-001
 1.3379019914e+000	 3.3278015801e+000	-2.9662968768e-001
 1.3025797822e+000	 3.3417855307e+000	-3.4597732526e-001
 1.2671902652e+000	 3.3553648054e+000	-3.5921230735e-001
 1.2317400702e+000	 3.3685397560e+000	-3.4505069748e-001
 1.1962357880e+000	 3.3813108716e+000	-3.1269628507e-001
 1.1606839670e+000	 3.3936787772e+000	-2.7089623439e-001
 1.1250911102e+000	 3.4056442315e+000	-2.2787480118e-001
 1.0894636717e+000	 3.4172081252e+000	-1.9127468551e-001
 1.0538080536e+000	 3.4283714785e+000	-1.6810568744e-001
 1.4187890536e+000	 3.3231451544e+000	-2.6953556033e-001
 1.3833600067e+000	 3.3380489483e+000	-2.4757594241e-001
 1.3478496895e+000	 3.3525447720e+000	-2.7006601108e-001
 1.3122648493e+000	 3.3666326974e+000	-3.2634834388e-001
 1.2766122007e+000	 3.3803129381e+000	-3.5101230921e-001
 1.2408984230e+000	 3.3935858483e+000	-3.4548886913e-001
 1.2051301559e+000	 3.4064519210e+000	-3.1918591658e-001
 1.1693139966e+000	 3.4189117856e+000	-2.8103314220e-001
 1.1334564964e+000	 3.4309662066e+000	-2.3941603038e-001
 1.0975641573e+000	 3.4426160813e+000	-2.0211774516e-001
 1.0616434291e+000	 3.4538624374e+000	-1.7626854562e-001
 1.4292603142e+000	 3.3476713647e+000	-2.5922039397e-001
 1.3935697859e+000	 3.3626851549e+000	-2.3500014718e-001
 1.3577973877e+000	 3.3772879639e+000	-2.5035974524e-001
 1.3219499164e+000	 3.3914798641e+000	-3.0708293107e-001
 1.2860341363e+000	 3.4052610708e+000	-3.4367876372e-001
 1.2500567758e+000	 3.4186319407e+000	-3.4735408265e-001
 1.2140245238e+000	 3.4315929703e+000	-3.2768167826e-001
 1.1779440262e+000	 3.4441447940e+000	-2.9373636453e-001
 1.1418218825e+000	 3.4562881817e+000	-2.5402939381e-001
 1.1056646428e+000	 3.4680240374e+000	-2.1645101611e-001
 1.0694788046e+000	 3.4793533964e+000	-1.8822079460e-001
 1.4397315747e+000	 3.3721975751e+000	-2.5248579920e-001
 1.4037795652e+000	 3.3873213615e+000	-2.2748273546e-001
 1.3677450859e+000	 3.4020311558e+000	-2.3751889102e-001
 1.3316349834e+000	 3.4163270308e+000	-2.8895543804e-001
 1.2954560718e+000	 3.4302092034e+000	-3.3784986008e-001
 1.2592151286e+000	 3.4436780330e+000	-3.5119109524e-001
 1.2229188917e+000	 3.4567340197e+000	-3.3867726969e-001
 1.1865740558e+000	 3.4693778024e+000	-3.0949047578e-001
 1.1501872686e+000	 3.4816101568e+000	-2.7223175227e-001
 1.1137651284e+000	 3.4934319935e+000	-2.3486446490e-001
 1.0773141800e+000	 3.5048443553e+000	-2.0466566987e-001
 9.9896042527e-001	 3.2499347660e+000	-1.5007107842e-001
 9.6513988133e-001	 3.2601384931e+000	-1.5900163142e-001
 9.3130460051e-001	 3.2699648164e+000	-1.6117226943e-001
 8.9746048454e-001	 3.2794150542e+000	-1.5823507238e-001
 8.6361337515e-001	 3.2884906387e+000	-1.5139428950e-001
 8.2976905160e-001	 3.2971931143e+000	-1.4138572910e-001
 7.9593322820e-001	 3.3055241345e+000	-1.2845540173e-001
 7.6211155205e-001	 3.3134854599e+000	-1.1233762547e-001
 7.2830960080e-001	 3.3210789555e+000	-9.2232823170e-002
 6.9453288053e-001	 3.3283065882e+000	-6.6785259429e-002
 6.6078682374e-001	 3.3351704242e+000	-3.2540124791e-002
 1.0067958007e+000	 3.2754257250e+000	-1.5810363930e-001
 9.7270998438e-001	 3.2857094853e+000	-1.6374408827e-001
 9.3860931553e-001	 3.2956128816e+000	-1.6242394786e-001
 9.0449974224e-001	 3.3051372426e+000	-1.5583857197e-001
 8.7038715206e-001	 3.3142840118e+000	-1.4524567562e-001
 8.3627736956e-001	 3.3230547455e+000	-1.3144343740e-001
 8.0217615388e-001	 3.3314511103e+000	-1.1474761048e-001
 7.6808919642e-001	 3.3394748806e+000	-9.5072207311e-002
 7.3402211857e-001	 3.3471279360e+000	-7.1693685710e-002
 6.9998046961e-001	 3.3544122588e+000	-4.2829332664e-002
 6.6596972462e-001	 3.3613299316e+000	-5.9931406114e-003
 1.0146311762e+000	 3.3009166839e+000	-1.6256215035e-001
 9.8028008742e-001	 3.3112804774e+000	-1.6399332954e-001
 9.4591403056e-001	 3.3212609468e+000	-1.5832533967e-001
 9.1153899995e-001	 3.3308594310e+000	-1.4737671196e-001
 8.7716092897e-001	 3.3400773848e+000	-1.3275035707e-001
 8.4278568752e-001	 3.3489163767e+000	-1.1579805289e-001
 8.0841907956e-001	 3.3573780861e+000	-9.6617832790e-002
 7.7406684079e-001	 3.3654643012e+000	-7.4632255414e-002
 7.3973463634e-001	 3.3731769164e+000	-4.8606611468e-002
 7.0542805868e-001	 3.3805179294e+000	-1.6640144326e-002
 6.7115262551e-001	 3.3874894389e+000	 2.3839592254e-002
 1.0224665517e+000	 3.3264076428e+000	-1.6304694973e-001
 9.8785019047e-001	 3.3368514696e+000	-1.5939064083e-001
 9.5321874558e-001	 3.3469090120e+000	-1.4941855799e-001
 9.1857825765e-001	 3.3565816195e+000	-1.3524116093e-001
 8.8393470588e-001	 3.3658707579e+000	-1.1813148776e-001
 8.4929400548e-001	 3.3747780078e+000	-9.8744549200e-002
 8.1466200525e-001	 3.3833050618e+000	-7.7098341943e-002
 7.8004448516e-001	 3.3914537219e+000	-5.2558952647e-002
 7.4544715412e-001	 3.3992258969e+000	-2.3829427896e-002
 7.1087564776e-001	 3.4066236000e+000	 1.1057910163e-002
 6.7633552640e-001	 3.4136489462e+000	 5.4746016390e-002
 1.0303019272e+000	 3.3518986017e+000	-1.6101214067e-001
 9.9542029351e-001	 3.3624224617e+000	-1.5392580275e-001
 9.6052346061e-001	 3.3725570773e+000	-1.4082336793e-001
 9.2561751536e-001	 3.3823038079e+000	-1.2360082104e-001
 8.9070848278e-001	 3.3916641309e+000	-1.0353767525e-001
 8.5580232344e-001	 3.4006396390e+000	-8.1285962647e-002
 8.2090493093e-001	 3.4092320376e+000	-5.6852315506e-002
 7.8602212954e-001	 3.4174431425e+000	-2.9584185017e-002
 7.5115967189e-001	 3.4252748774e+000	 1.8401463576e-003
 7.1632323683e-001	 3.4327292707e+000	 3.9418097634e-002
 6.8151842728e-001	 3.4398084535e+000	 8.5826198322e-002
 1.0381373026e+000	 3.3773895607e+000	-1.6089212372e-001
 1.0029903966e+000	 3.3879934539e+000	-1.5026264849e-001
 9.6782817563e-001	 3.3982051425e+000	-1.3363431024e-001
 9.3265677307e-001	 3.4080259963e+000	-1.1295662492e-001
 8.9748225969e-001	 3.4174575040e+000	-8.9553052228e-002
 8.6231064140e-001	 3.4265012702e+000	-6.4109603205e-002
 8.2714785662e-001	 3.4351590134e+000	-3.6658056555e-002
 7.9199977391e-001	 3.4434325632e+000	-6.5633585626e-003
 7.5687218967e-001	 3.4513238578e+000	 2.7485157261e-002
 7.2177082591e-001	 3.4588349413e+000	 6.7479088762e-002
 6.8670132817e-001	 3.4659679608e+000	 1.1609317110e-001
 1.0459726781e+000	 3.4028805196e+000	-1.6313902402e-001
 1.0105604996e+000	 3.4135644460e+000	-1.4874263296e-001
 9.7513289066e-001	 3.4238532077e+000	-1.2833352573e-001
 9.3969603077e-001	 3.4337481848e+000	-1.0391080197e-001
 9.0425603660e-001	 3.4432508770e+000	-7.6890974773e-002
 8.6881895936e-001	 3.4523629013e+000	-4.8029205973e-002
 8.3339078231e-001	 3.4610859892e+000	-1.7417174724e-002
 7.9797741829e-001	 3.4694219839e+000	 1.5528268267e-002
 7.6258470745e-001	 3.4773728383e+000	 5.2072602558e-002
 7.2721841499e-001	 3.4849406119e+000	 9.4167673731e-002
 6.9188422906e-001	 3.4921274681e+000	 1.4445263101e-001
 1.0538080536e+000	 3.4283714785e+000	-1.6810568744e-001
 1.0181306026e+000	 3.4391354382e+000	-1.4987849760e-001
 9.8243760569e-001	 3.4495012729e+000	-1.2553102134e-001
 9.4673528848e-001	 3.4594703732e+000	-9.7191730482e-002
 9.1102981351e-001	 3.4690442501e+000	-6.6388942101e-002
 8.7532727733e-001	 3.4782245325e+000	-3.3980336740e-002
 8.3963370799e-001	 3.4870129649e+000	-1.5047360483e-004
 8.0395506266e-001	 3.4954114045e+000	 3.5599221008e-002
 7.6829722522e-001	 3.5034218188e+000	 7.4456599190e-002
 7.3266600407e-001	 3.5110462825e+000	 1.1830146950e-001
 6.9706712995e-001	 3.5182869755e+000	 1.6970519504e-001
 1.0616434291e+000	 3.4538624374e+000	-1.7626854562e-001
 1.0257007057e+000	 3.4647064304e+000	-1.5426206559e-001
 9.8974232071e-001	 3.4751493381e+000	-1.2595869798e-001
 9.5377454619e-001	 3.4851925616e+000	-9.3648443245e-002
 9.1780359042e-001	 3.4948376231e+000	-5.9003579215e-002
 8.8183559529e-001	 3.5040861637e+000	-2.3015849325e-002
 8.4587663368e-001	 3.5129399407e+000	 1.4006121210e-002
 8.0993270704e-001	 3.5214008252e+000	 5.2445415967e-002
 7.7400974300e-001	 3.5294707992e+000	 9.3381532014e-002
 7.3811359314e-001	 3.5371519531e+000	 1.3859161906e-001
 7.0225003084e-001	 3.5444464828e+000	 1.9054866078e-001
 1.0694788046e+000	 3.4793533964e+000	-1.8822079460e-001
 1.0332708087e+000	 3.4902774225e+000	-1.6261693246e-001
 9.9704703574e-001	 3.5007974033e+000	-1.3046445936e-001
 9.6081380390e-001	 3.5109147501e+000	-9.4245203542e-002
 9.2457736733e-001	 3.5206309962e+000	-5.5805679289e-002
 8.8834391325e-001	 3.5299477948e+000	-1.6301392016e-002
 8.5211955937e-001	 3.5388669165e+000	 2.3805595522e-002
 8.1591035141e-001	 3.5473902459e+000	 6.4753738919e-002
 7.7972226078e-001	 3.5555197797e+000	 1.0748518477e-001
 7.4356118222e-001	 3.5632576237e+000	 1.5364548315e-001
 7.0743293173e-001	 3.5706059901e+000	 2.0558026886e-001
 1.0773141800e+000	 3.5048443553e+000	-2.0466566987e-001
 1.0408409118e+000	 3.5158484147e+000	-1.7577692927e-001
 1.0043517508e+000	 3.5264454685e+000	-1.4000639748e-001
 9.6785306161e-001	 3.5366369385e+000	-1.0005614782e-001
 9.3135114424e-001	 3.5464243692e+000	-5.7975302709e-002
 8.9485223122e-001	 3.5558094260e+000	-1.5110960631e-002
 8.5836248506e-001	 3.5647938922e+000	 2.7893843330e-002
 8.2188799579e-001	 3.5733796665e+000	 7.1105597139e-002
 7.8543477855e-001	 3.5815687602e+000	 1.1530185420e-001
 7.4900877130e-001	 3.5893632944e+000	 1.6196932480e-001
 7.1261583262e-001	 3.5967654974e+000	 2.1329896756e-001
 6.6078682374e-001	 3.3351704242e+000	-3.2540124791e-002
 6.2708183937e-001	 3.3416716788e+000	 1.1693606099e-002
 5.9341813416e-001	 3.3478136668e+000	 3.7248370333e-002
 5.5980089879e-001	 3.3535987384e+000	 4.7025564555e-002
 5.2623524340e-001	 3.3590293320e+000	 4.4236070820e-002
 4.9272619611e-001	 3.3641079719e+000	 3.2535119737e-002
 4.5927870155e-001	 3.3688372654e+000	 1.6142765557e-002
 4.2589761953e-001	 3.3732199000e+000	-4.8907639877e-005
 3.9258772377e-001	 3.3772586410e+000	-1.0380758385e-002
 3.5935370079e-001	 3.3809563279e+000	-8.3426847275e-003
 3.2620014879e-001	 3.3843158724e+000	 1.3500166412e-002
 6.6596972462e-001	 3.3613299316e+000	-5.9931406114e-003
 6.3200037421e-001	 3.3678821789e+000	 2.8967918403e-002
 5.9807262675e-001	 3.3740723418e+000	 4.7776193540e-002
 5.6419171360e-001	 3.3799027887e+000	 5.3154871484e-002
 5.3036278501e-001	 3.3853759773e+000	 4.8206879481e-002
 4.9659090852e-001	 3.3904944517e+000	 3.6545461664e-002
 4.6288106755e-001	 3.3952608395e+000	 2.2410168629e-002
 4.2923816003e-001	 3.3996778495e+000	 1.0769449977e-002
 3.9566699713e-001	 3.4037482685e+000	 7.4110063420e-003
 3.6217230211e-001	 3.4074749583e+000	 1.9021016797e-002
 3.2875870925e-001	 3.4108608535e+000	 5.3253310634e-002
 6.7115262551e-001	 3.3874894389e+000	 2.3839592254e-002
 6.3691890906e-001	 3.3940926790e+000	 5.0159213600e-002
 6.0272711934e-001	 3.4003310168e+000	 6.2121070109e-002
 5.6858252842e-001	 3.4062068391e+000	 6.3053648546e-002
 5.3449032662e-001	 3.4117226227e+000	 5.5905326127e-002
 5.0045562093e-001	 3.4168809315e+000	 4.4199662882e-002
 4.6648343355e-001	 3.4216844137e+000	 3.2146588154e-002
 4.3257870053e-001	 3.4261357990e+000	 2.4740076831e-002
 3.9874627048e-001	 3.4302378959e+000	 2.7843540518e-002
 3.6499090342e-001	 3.4339935887e+000	 4.8264113496e-002
 3.3131726971e-001	 3.4374058346e+000	 9.3816961384e-002
 6.7633552640e-001	 3.4136489462e+000	 5.4746016390e-002
 6.4183744391e-001	 3.4203031791e+000	 7.4424813951e-002
 6.0738161193e-001	 3.4265896917e+000	 7.9461884786e-002
 5.7297334323e-001	 3.4325108894e+000	 7.5883539971e-002
 5.3861786822e-001	 3.4380692681e+000	 6.6441674876e-002
 5.0432033334e-001	 3.4432674113e+000	 5.4527098929e-002
 4.7008579956e-001	 3.4481079879e+000	 4.4275578260e-002
 4.3591924104e-001	 3.4525937485e+000	 4.0660270762e-002
 4.0182554384e-001	 3.4567275234e+000	 4.9571850014e-002
 3.6780950474e-001	 3.4605122191e+000	 7.7887564129e-002
 3.3387583017e-001	 3.4639508156e+000	 1.3353041838e-001
 6.8151842728e-001	 3.4398084535e+000	 8.5826198322e-002
 6.4675597877e-001	 3.4465136792e+000	 1.0077671996e-001
 6.1203610452e-001	 3.4528483667e+000	 9.8835753281e-002
 5.7736415804e-001	 3.4588149398e+000	 9.0670533610e-002
 5.4274540983e-001	 3.4644159134e+000	 7.8799312963e-002
 5.0818504575e-001	 3.4696538911e+000	 6.6441817236e-002
 4.7368816556e-001	 3.4745315620e+000	 5.7619780531e-002
 4.3925978154e-001	 3.4790516980e+000	 5.7243791536e-002
 4.0490481720e-001	 3.4832171509e+000	 7.1187822281e-002
 3.7062810607e-001	 3.4870308495e+000	 1.0635275390e-001
 3.3643439063e-001	 3.4904957967e+000	 1.7072015125e-001
 6.8670132817e-001	 3.4659679608e+000	 1.1609317110e-001
 6.5167451362e-001	 3.4727241793e+000	 1.2808736519e-001
 6.1669059710e-001	 3.4791070416e+000	 1.1914288621e-001
 5.8175497286e-001	 3.4851189901e+000	 1.0630888071e-001
 5.4687295144e-001	 3.4907625588e+000	 9.1837676926e-002
 5.1204975816e-001	 3.4960403710e+000	 7.8744424216e-002
 4.7729053156e-001	 3.5009551362e+000	 7.0901730377e-002
 4.4260032205e-001	 3.5055096475e+000	 7.3120548698e-002
 4.0798409055e-001	 3.5097067784e+000	 9.1218761671e-002
 3.7344670739e-001	 3.5135494799e+000	 1.3207884697e-001
 3.3899295109e-001	 3.5170407778e+000	 2.0369594270e-001
 6.9188422906e-001	 3.4921274681e+000	 1.4445263101e-001
 6.5659304847e-001	 3.4989346794e+000	 1.5509538692e-001
 6.2134508969e-001	 3.5053657166e+000	 1.3915148501e-001
 5.8614578767e-001	 3.5114230404e+000	 1.2156506663e-001
 5.5100049305e-001	 3.5171092041e+000	 1.0429525158e-001
 5.1591447057e-001	 3.5224268508e+000	 9.0124069777e-002
 4.8089289757e-001	 3.5273787104e+000	 8.2744788162e-002
 4.4594086255e-001	 3.5319675970e+000	 8.6836444151e-002
 4.1106336391e-001	 3.5361964059e+000	 1.0812611203e-001
 3.7626530871e-001	 3.5400681103e+000	 1.5344036127e-001
 3.4155151155e-001	 3.5435857589e+000	 2.3074729131e-001
 6.9706712995e-001	 3.5182869755e+000	 1.6970519504e-001
 6.6151158332e-001	 3.5251451795e+000	 1.8041141192e-001
 6.2599958229e-001	 3.5316243916e+000	 1.5750266807e-001
 5.9053660249e-001	 3.5377270908e+000	 1.3508182979e-001
 5.5512803466e-001	 3.5434558495e+000	 1.1479263795e-001
 5.1977918299e-001	 3.5488133306e+000	 9.9160524165e-002
 4.8449526357e-001	 3.5538022846e+000	 9.1674188583e-002
 4.4928140306e-001	 3.5584255465e+000	 9.6853361416e-002
 4.1414263727e-001	 3.5626860333e+000	 1.2030435680e-001
 3.7908391003e-001	 3.5665867407e+000	 1.6876495408e-001
 3.4411007201e-001	 3.5701307400e+000	 2.5014006067e-001
 7.0225003084e-001	 3.5444464828e+000	 1.9054866078e-001
 6.6643011817e-001	 3.5513556796e+000	 2.0252385637e-001
 6.3065407488e-001	 3.5578830665e+000	 1.7271542566e-001
 5.9492741731e-001	 3.5640311411e+000	 1.4538222650e-001
 5.5925557627e-001	 3.5698024949e+000	 1.2183568670e-001
 5.2364389540e-001	 3.5751998104e+000	 1.0432634238e-001
 4.8809762958e-001	 3.5802258587e+000	 9.6118202204e-002
 4.5262194356e-001	 3.5848834960e+000	 1.0154929398e-001
 4.1722191063e-001	 3.5891756608e+000	 1.2608008749e-001
 3.8190251135e-001	 3.5931053711e+000	 1.7633140731e-001
 3.4666863247e-001	 3.5966757211e+000	 2.6011336182e-001
 7.0743293173e-001	 3.5706059901e+000	 2.0558026886e-001
 6.7134865303e-001	 3.5775661797e+000	 2.1910370896e-001
 6.3530856747e-001	 3.5841417415e+000	 1.8319160203e-001
 5.9931823212e-001	 3.5903351915e+000	 1.5087373912e-001
 5.6338311789e-001	 3.5961491402e+000	 1.2381869353e-001
 5.2750860781e-001	 3.6015862902e+000	 1.0398911166e-001
 4.9169999558e-001	 3.6066494329e+000	 9.4409403377e-002
 4.5596248407e-001	 3.6113414455e+000	 9.9218605618e-002
 4.2030118399e-001	 3.6156652883e+000	 1.2371123185e-001
 3.8472111267e-001	 3.6196240015e+000	 1.7436780255e-001
 3.4922719293e-001	 3.6232207021e+000	 2.5887665740e-001
 7.1261583262e-001	 3.5967654974e+000	 2.1329896756e-001
 6.7626718788e-001	 3.6037766798e+000	 2.2769343850e-001
 6.3996306006e-001	 3.6104004164e+000	 1.8722090341e-001
 6.0370904694e-001	 3.6166392418e+000	 1.4985242552e-001
 5.6751065950e-001	 3.6224957856e+000	 1.1902765359e-001
 5.3137332022e-001	 3.6279727701e+000	 9.6413777840e-002
 4.9530236159e-001	 3.6330730071e+000	 8.4786039146e-002
 4.5930302458e-001	 3.6377993950e+000	 8.8072415944e-002
 4.2338045735e-001	 3.6421549158e+000	 1.1138643361e-001
 3.8753971400e-001	 3.6461426319e+000	 1.6104987589e-001
 3.5178575339e-001	 3.6497656832e+000	 2.4460707589e-001
 3.2620014879e-001	 3.3843158724e+000	 1.3500166412e-002
 2.9312663406e-001	 3.3873406841e+000	 3.0643401459e-002
 2.6014261392e-001	 3.3900332827e+000	 1.7420893712e-002
 2.2725248468e-001	 3.3923967809e+000	-1.9003065578e-002
 1.9446054890e-001	 3.3944343523e+000	-7.0459251485e-002
 1.6177101484e-001	 3.3961492286e+000	-1.2772770804e-001
 1.2918799594e-001	 3.3975446965e+000	-1.8049717851e-001
 9.6715510352e-002	 3.3986240953e+000	-2.1732916357e-001
 6.4357480676e-002	 3.3993908141e+000	-2.2562606813e-001
 3.2117733651e-002	 3.3998482888e+000	-1.9160295767e-001
 0.0000000000e+000	 3.4000000000e+000	-1.0026247694e-001
 3.2875870925e-001	 3.4108608535e+000	 5.3253310634e-002
 2.9542578143e-001	 3.4139093904e+000	 8.3649023906e-002
 2.6218305016e-001	 3.4166231084e+000	 8.2643649218e-002
 2.2903494622e-001	 3.4190051448e+000	 5.7761473468e-002
 1.9598580593e-001	 3.4210586980e+000	 1.7556899975e-002
 1.6303987056e-001	 3.4227870249e+000	-2.8343355622e-002
 1.3020128578e-001	 3.4241934382e+000	-6.9203002671e-002
 9.7474101301e-002	 3.4252813033e+000	-9.3143224124e-002
 6.4862270468e-002	 3.4260540359e+000	-8.7113479839e-002
 3.2369650039e-002	 3.4265150989e+000	-3.6865572487e-002
 0.0000000000e+000	 3.4266680000e+000	 7.3069479049e-002
 3.3131726971e-001	 3.4374058346e+000	 9.3816961384e-002
 2.9772492880e-001	 3.4404780966e+000	 1.3605090195e-001
 2.6422348640e-001	 3.4432129342e+000	 1.4548505383e-001
 2.3081740777e-001	 3.4456135087e+000	 1.2997416340e-001
 1.9751106297e-001	 3.4476830437e+000	 9.8429231231e-002
 1.6430872627e-001	 3.4494248213e+000	 6.0855814493e-002
 1.3121457563e-001	 3.4508421800e+000	 2.8387717289e-002
 9.8232692251e-002	 3.4519385114e+000	 1.3316713571e-002
 6.5367060260e-002	 3.4527172577e+000	 2.9118877083e-002
 3.2621566427e-002	 3.4531819089e+000	 9.0478023452e-002
 0.0000000000e+000	 3.4533360000e+000	 2.1330672742e-001
 3.3387583017e-001	 3.4639508156e+000	 1.3353041838e-001
 3.0002407618e-001	 3.4670468029e+000	 1.8607248369e-001
 2.6626392265e-001	 3.4698027599e+000	 2.0415107562e-001
 2.3259986931e-001	 3.4722218727e+000	 1.9592434875e-001
 1.9903632000e-001	 3.4743073894e+000	 1.7063354521e-001
 1.6557758198e-001	 3.4760626177e+000	 1.3863710205e-001
 1.3222786547e-001	 3.4774909217e+000	 1.1144049566e-001
 9.8991283199e-002	 3.4785957194e+000	 1.0172249163e-001
 6.5871850052e-002	 3.4793804796e+000	 1.2335839230e-001
 3.2873482815e-002	 3.4798487190e+000	 1.9144080064e-001
 0.0000000000e+000	 3.4800040000e+000	 3.2229837096e-001
 3.3643439063e-001	 3.4904957967e+000	 1.7072015125e-001
 3.0232322355e-001	 3.4936155092e+000	 2.3195289600e-001
 2.6830435889e-001	 3.4963925857e+000	 2.5689220901e-001
 2.3438233086e-001	 3.4988302366e+000	 2.5397517321e-001
 2.0056157703e-001	 3.5009317350e+000	 2.3274922269e-001
 1.6684643769e-001	 3.5027004140e+000	 2.0390174351e-001
 1.3324115532e-001	 3.5041396635e+000	 1.7928579049e-001
 9.9749874148e-002	 3.5052529275e+000	 1.7194261231e-001
 6.6376639843e-002	 3.5060437014e+000	 1.9612159585e-001
 3.3125399203e-002	 3.5065155291e+000	 2.6729816144e-001
 0.0000000000e+000	 3.5066720000e+000	 4.0219008755e-001
 3.3899295109e-001	 3.5170407778e+000	 2.0369594270e-001
 3.0462237093e-001	 3.5201842155e+000	 2.7194191192e-001
 2.7034479513e-001	 3.5229824115e+000	 3.0199735961e-001
 2.3616479241e-001	 3.5254386005e+000	 3.0255647738e-001
 2.0208683407e-001	 3.5275560807e+000	 2.8345123033e-001
 1.6811529340e-001	 3.5293382104e+000	 2.5567612969e-001
 1.3425444516e-001	 3.5307884052e+000	 2.3140953169e-001
 1.0050846510e-001	 3.5319101355e+000	 2.2403217918e-001
 6.6881429635e-002	 3.5327069232e+000	 2.4814361611e-001
 3.3377315591e-002	 3.5331823391e+000	 3.1957702001e-001
 0.0000000000e+000	 3.5333400000e+000	 4.5541293812e-001
 3.4155151155e-001	 3.5435857589e+000	 2.3074729131e-001
 3.0692151830e-001	 3.5467529218e+000	 3.0429521488e-001
 2.7238523137e-001	 3.5495722372e+000	 3.3778806039e-001
 2.3794725395e-001	 3.5520469645e+000	 3.4015805943e-001
 2.0361209110e-001	 3.5541804264e+000	 3.2150252031e-001
 1.6938414911e-001	 3.5559760068e+000	 2.9310344078e-001
 1.3526773500e-001	 3.5574371470e+000	 2.6744408956e-001
 1.0126705605e-001	 3.5585673436e+000	 2.5822329859e-001
 6.7386219427e-002	 3.5593701451e+000	 2.8036811537e-001
 3.3629231979e-002	 3.5598491492e+000	 3.5004537396e-001
 0.0000000000e+000	 3.5600080000e+000	 4.8467267762e-001
 3.4411007201e-001	 3.5701307400e+000	 2.5014006067e-001
 3.0922066568e-001	 3.5733216281e+000	 3.2726994453e-001
 2.7442566762e-001	 3.5761620630e+000	 3.6261300193e-001
 2.3972971550e-001	 3.5786553284e+000	 3.6532327963e-001
 2.0513734813e-001	 3.5808047721e+000	 3.4574680120e-001
 1.7065300483e-001	 3.5826138031e+000	 3.1543567712e-001
 1.3628102485e-001	 3.5840858887e+000	 2.8715966075e-001
 1.0202564699e-001	 3.5852245516e+000	 2.7491591773e-001
 6.7891009218e-002	 3.5860333669e+000	 2.9393767796e-001
 3.3881148367e-002	 3.5865159592e+000	 3.6070234211e-001
 0.0000000000e+000	 3.5866760000e+000	 4.9293954287e-001
 3.4666863247e-001	 3.5966757211e+000	 2.6011336182e-001
 3.1151981305e-001	 3.5998903343e+000	 3.3912050939e-001
 2.7646610386e-001	 3.6027518887e+000	 3.7484286055e-001
 2.4151217705e-001	 3.6052636923e+000	 3.7664299134e-001
 2.0666260517e-001	 3.6074291178e+000	 3.5510166085e-001
 1.7192186054e-001	 3.6092515995e+000	 3.2202606515e-001
 1.3729431469e-001	 3.6107346305e+000	 2.9045605002e-001
 1.0278423794e-001	 3.6118817597e+000	 2.7466907647e-001
 6.8395799010e-002	 3.6126965887e+000	 2.9018462781e-001
 3.4133064755e-002	 3.6131827693e+000	 3.5376864443e-001
 0.0000000000e+000	 3.6133440000e+000	 4.8343849263e-001
 3.4922719293e-001	 3.6232207021e+000	 2.5887665740e-001
 3.1381896043e-001	 3.6264590406e+000	 3.3809465284e-001
 2.7850654010e-001	 3.6293417145e+000	 3.7286540897e-001
 2.4329463859e-001	 3.6318720562e+000	 3.7274978128e-001
 2.0818786220e-001	 3.6340534634e+000	 3.4855202325e-001
 1.7319071625e-001	 3.6358893958e+000	 3.1232181944e-001
 1.3830760454e-001	 3.6373833723e+000	 2.7735482776e-001
 1.0354282889e-001	 3.6385389677e+000	 2.5819255191e-001
 6.8900588802e-002	 3.6393598106e+000	 2.7062225322e-001
 3.4384981144e-002	 3.6398495793e+000	 3.3167750128e-001
 0.0000000000e+000	 3.6400120000e+000	 4.5963987665e-001
 3.5178575339e-001	 3.6497656832e+000	 2.4460707589e-001
 3.1611810781e-001	 3.6530277469e+000	 3.2242975943e-001
 2.8054697635e-001	 3.6559315402e+000	 3.5508089527e-001
 2.4507710014e-001	 3.6584804202e+000	 3.5231250369e-001
 2.0971311924e-001	 3.6606778091e+000	 3.2514392242e-001
 1.7445957196e-001	 3.6625271922e+000	 2.8585724264e-001
 1.3932089439e-001	 3.6640321140e+000	 2.4799184373e-001
 1.0430141984e-001	 3.6651961758e+000	 2.2633887563e-001
 6.9405378595e-002	 3.6660230324e+000	 2.3693641816e-001
 3.4636897532e-002	 3.6665163894e+000	 2.9706593076e-001
 0.0000000000e+000	 3.6666800000e+000	 4.2525051202e-001
 3.6666800000e+000	 0.0000000000e+000	 6.2511576681e-001
 3.6665163894e+000	 3.4636897532e-002	 6.9251630373e-001
 3.6660230324e+000	 6.9405378595e-002	 7.3383188958e-001
 3.6651961758e+000	 1.0430141984e-001	 7.5623358004e-001
 3.6640321140e+000	 1.3932089439e-001	 7.6601800768e-001
 3.6625271922e+000	 1.7445957196e-001	 7.6864784451e-001
 3.6606778091e+000	 2.0971311924e-001	 7.6878949428e-001
 3.6584804202e+000	 2.4507710014e-001	 7.7034869191e-001
 3.6559315402e+000	 2.8054697635e-001	 7.7650479646e-001
 3.6530277469e+000	 3.1611810781e-001	 7.8974468268e-001
 3.6497656832e+000	 3.5178575339e-001	 8.1189725453e-001
 3.6933440000e+000	 0.0000000000e+000	 6.7590212525e-001
 3.6931791996e+000	 3.4888776135e-002	 7.4222385650e-001
 3.6926822549e+000	 6.9910092673e-002	 7.8186376456e-001
 3.6918493855e+000	 1.0505989701e-001	 8.0192353354e-001
 3.6906768587e+000	 1.4033403225e-001	 8.0870017728e-001
 3.6891609931e+000	 1.7572823736e-001	 8.0772187909e-001
 3.6872981613e+000	 2.1123814750e-001	 8.0378032569e-001
 3.6850847930e+000	 2.4685929434e-001	 8.0096024367e-001
 3.6825173777e+000	 2.8258710654e-001	 8.0266696429e-001
 3.6795924681e+000	 3.1841691033e-001	 8.1165296886e-001
 3.6763066828e+000	 3.5434393009e-001	 8.3004449252e-001
 3.7200080000e+000	 0.0000000000e+000	 7.2224721996e-001
 3.7198420098e+000	 3.5140654739e-002	 7.8526793174e-001
 3.7193414775e+000	 7.0414806752e-002	 8.2161089011e-001
 3.7185025951e+000	 1.0581837418e-001	 8.3822244515e-001
 3.7173216033e+000	 1.4134717011e-001	 8.4131861427e-001
 3.7157947940e+000	 1.7699690275e-001	 8.3641606789e-001
 3.7139185136e+000	 2.1276317576e-001	 8.2835883647e-001
 3.7116891659e+000	 2.4864148853e-001	 8.2134147973e-001
 3.7091032152e+000	 2.8462723674e-001	 8.1892958485e-001
 3.7061571893e+000	 3.2071571285e-001	 8.2407859455e-001
 3.7028476823e+000	 3.5690210679e-001	 8.3915209969e-001
 3.7466720000e+000	 0.0000000000e+000	 7.6572924492e-001
 3.7465048200e+000	 3.5392533342e-002	 8.2343926315e-001
 3.7460007000e+000	 7.0919520830e-002	 8.5501339683e-001
 3.7451558048e+000	 1.0657685135e-001	 8.6716238417e-001
 3.7439663479e+000	 1.4236030797e-001	 8.6594582053e-001
 3.7424285949e+000	 1.7826556815e-001	 8.5679804081e-001
 3.7405388658e+000	 2.1428820401e-001	 8.4454891192e-001
 3.7382935388e+000	 2.5042368272e-001	 8.3344030985e-001
 3.7356890527e+000	 2.8666736693e-001	 8.2713919034e-001
 3.7327219104e+000	 3.2301451537e-001	 8.2874830490e-001
 3.7293886818e+000	 3.5946028349e-001	 8.4081575563e-001
 3.7733360000e+000	 0.0000000000e+000	 8.0780059383e-001
 3.7731676302e+000	 3.5644411946e-002	 8.5842056655e-001
 3.7726599226e+000	 7.1424234909e-002	 8.8391956597e-001
 3.7718090145e+000	 1.0733532852e-001	 8.9069817633e-001
 3.7706110926e+000	 1.4337344583e-001	 8.8459015309e-001
 3.7690623958e+000	 1.7953423355e-001	 8.7088293487e-001
 3.7671592180e+000	 2.1581323227e-001	 8.5433221418e-001
 3.7648979116e+000	 2.5220587691e-001	 8.3917137602e-001
 3.7622748902e+000	 2.8870749713e-001	 8.2911675763e-001
 3.7592866316e+000	 3.2531331789e-001	 8.2736983337e-001
 3.7559296814e+000	 3.6201846019e-001	 8.3661757958e-001
 3.8000000000e+000	 0.0000000000e+000	 8.4979227369e-001
 3.7998304405e+000	 3.5896290549e-002	 8.9179054922e-001
 3.7993191451e+000	 7.1928948989e-002	 9.1008943211e-001
 3.7984622241e+000	 1.0809380568e-001	 9.1071060126e-001
 3.7972558372e+000	 1.4438658369e-001	 8.9919862202e-001
 3.7956961966e+000	 1.8080289894e-001	 8.8063580234e-001
 3.7937795703e+000	 2.1733826053e-001	 8.5965021436e-001
 3.7915022845e+000	 2.5398807111e-001	 8.4041772695e-001
 3.7888607277e+000	 2.9074762732e-001	 8.2665904763e-001
 3.7858513528e+000	 3.2761212042e-001	 8.2163293278e-001
 3.7824706809e+000	 3.6457663688e-001	 8.2812688426e-001
 3.8266640000e+000	 0.0000000000e+000	 8.9291813395e-001
 3.8264932507e+000	 3.6148169153e-002	 9.2502775150e-001
 3.8259783677e+000	 7.2433663068e-002	 9.3519823449e-001
 3.8251154338e+000	 1.0885228285e-001	 9.2900945467e-001
 3.8239005819e+000	 1.4539972155e-001	 9.1165956867e-001
 3.8223299975e+000	 1.8207156434e-001	 8.8797391409e-001
 3.8203999225e+000	 2.1886328879e-001	 8.6240613451e-001
 3.8181066574e+000	 2.5577026530e-001	 8.3903241588e-001
 3.8154465652e+000	 2.9278775752e-001	 8.2153988056e-001
 3.8124160740e+000	 3.2991092294e-001	 8.1321035401e-001
 3.8090116804e+000	 3.6713481358e-001	 8.1690088823e-001
 3.8533280000e+000	 0.0000000000e+000	 9.3827891991e-001
 3.8531560609e+000	 3.6400047757e-002	 9.5951422863e-001
 3.8526375902e+000	 7.2938377147e-002	 9.6083972420e-001
 3.8517686435e+000	 1.0961076002e-001	 9.4733648178e-001
 3.8505453265e+000	 1.4641285941e-001	 9.2380522991e-001
 3.8489637984e+000	 1.8334022973e-001	 8.9476896347e-001
 3.8470202747e+000	 2.2038831705e-001	 8.6446680350e-001
 3.8447110303e+000	 2.5755245950e-001	 8.3684002539e-001
 3.8420324026e+000	 2.9482788771e-001	 8.1551135054e-001
 3.8389807951e+000	 3.3220972546e-001	 8.0375877518e-001
 3.8355526800e+000	 3.6969299028e-001	 8.0448538868e-001
 3.8799920000e+000	 0.0000000000e+000	 9.8686615915e-001
 3.8798188711e+000	 3.6651926360e-002	 9.9653908061e-001
 3.8792968128e+000	 7.3443091225e-002	 9.8852933431e-001
 3.8784218531e+000	 1.1036923719e-001	 9.6736818812e-001
 3.8771900711e+000	 1.4742599728e-001	 9.3741419402e-001
 3.8755975993e+000	 1.8460889513e-001	 9.0284917524e-001
 3.8736406269e+000	 2.2191334531e-001	 8.6766443128e-001
 3.8713154031e+000	 2.5933465369e-001	 8.3563812283e-001
 3.8686182401e+000	 2.9686801791e-001	 8.1030498215e-001
 3.8655455163e+000	 3.3450852798e-001	 7.9491968349e-001
 3.8620936795e+000	 3.7225116698e-001	 7.9241539670e-001
 3.9066560000e+000	 0.0000000000e+000	 1.0395658887e+000
 3.9064816814e+000	 3.6903804964e-002	 1.0373018373e+000
 3.9059560353e+000	 7.3947805304e-002	 1.0197072194e+000
 3.9050750628e+000	 1.1112771436e-001	 9.9071853368e-001
 3.9038348158e+000	 1.4843913514e-001	 9.5421375330e-001
 3.9022314002e+000	 1.8587756052e-001	 9.1400132433e-001
 3.9002609792e+000	 2.2343837357e-001	 8.7379830516e-001
 3.8979197760e+000	 2.6111684788e-001	 8.3719864954e-001
 3.8952040776e+000	 2.9890814810e-001	 8.0763283185e-001
 3.8921102375e+000	 3.3680733051e-001	 7.8832021203e-001
 3.8886346791e+000	 3.7480934368e-001	 7.8221573672e-001
 3.9333200000e+000	 0.0000000000e+000	 1.0971622308e+000
 3.9331444916e+000	 3.7155683567e-002	 1.0829157056e+000
 3.9326152578e+000	 7.4452519382e-002	 1.0557411706e+000
 3.9317282725e+000	 1.1188619153e-001	 1.0189415159e+000
 3.9304795604e+000	 1.4945227300e-001	 9.7588215823e-001
 3.9288652011e+000	 1.8714622592e-001	 9.2997266852e-001
 3.9268813314e+000	 2.2496340183e-001	 8.8463641192e-001
 3.9245241489e+000	 2.6289904207e-001	 8.4326924708e-001
 3.9217899151e+000	 3.0094827830e-001	 8.0918853690e-001
 3.9186749587e+000	 3.3910613303e-001	 7.8557393378e-001
 3.9151756786e+000	 3.7736752037e-001	 7.7540161183e-001
 3.6497656832e+000	 3.5178575339e-001	 8.1189725453e-001
 3.6461426319e+000	 3.8753971400e-001	 8.3174742583e-001
 3.6421549158e+000	 4.2338045735e-001	 8.3901710876e-001
 3.6377993950e+000	 4.5930302458e-001	 8.3607915432e-001
 3.6330730071e+000	 4.9530236159e-001	 8.2484080319e-001
 3.6279727701e+000	 5.3137332022e-001	 8.0679690225e-001
 3.6224957856e+000	 5.6751065950e-001	 7.8309202768e-001
 3.6166392418e+000	 6.0370904694e-001	 7.5459324387e-001
 3.6104004164e+000	 6.3996306006e-001	 7.2197529405e-001
 3.6037766798e+000	 6.7626718788e-001	 6.8650502786e-001
 3.5967654974e+000	 7.1261583262e-001	 6.6384840335e-001
 3.6763066828e+000	 3.5434393009e-001	 8.3004449252e-001
 3.6726572847e+000	 3.9035789255e-001	 8.4681066757e-001
 3.6686405700e+000	 4.2645926884e-001	 8.5153874169e-001
 3.6642533760e+000	 4.6264306403e-001	 8.4644793321e-001
 3.6594926179e+000	 4.9890418727e-001	 8.3329437283e-001
 3.6543552921e+000	 5.3523745296e-001	 8.1341562455e-001
 3.6488384791e+000	 5.7163758201e-001	 7.8778404618e-001
 3.6429393467e+000	 6.0809920317e-001	 7.5707082147e-001
 3.6366551528e+000	 6.4461685451e-001	 7.2172256767e-001
 3.6299832485e+000	 6.8118498499e-001	 6.8355763025e-001
 3.6229210810e+000	 7.1779795611e-001	 6.5892443297e-001
 3.7028476823e+000	 3.5690210679e-001	 8.3915209969e-001
 3.6991719375e+000	 3.9317607110e-001	 8.5335534341e-001
 3.6951262243e+000	 4.2953808033e-001	 8.5620994704e-001
 3.6907073570e+000	 4.6598310348e-001	 8.4974914376e-001
 3.6859122288e+000	 5.0250601294e-001	 8.3554563767e-001
 3.6807378142e+000	 5.3910158569e-001	 8.1474687208e-001
 3.6751811727e+000	 5.7576450452e-001	 7.8811905925e-001
 3.6692394517e+000	 6.1248935939e-001	 7.5610191018e-001
 3.6629098892e+000	 6.4927064896e-001	 7.1887608116e-001
 3.6561898172e+000	 6.8610278210e-001	 6.7903076448e-001
 3.6490766646e+000	 7.2298007960e-001	 6.5292725710e-001
 3.7293886818e+000	 3.5946028349e-001	 8.4081575563e-001
 3.7256865903e+000	 3.9599424966e-001	 8.5283211336e-001
 3.7216118785e+000	 4.3261689182e-001	 8.5431941540e-001
 3.7171613380e+000	 4.6932314293e-001	 8.4709940086e-001
 3.7123318396e+000	 5.0610783862e-001	 8.3253590995e-001
 3.7071203362e+000	 5.4296571843e-001	 8.1156031278e-001
 3.7015238663e+000	 5.7989142703e-001	 7.8470560931e-001
 3.6955395566e+000	 6.1687951562e-001	 7.5215125014e-001
 3.6891646255e+000	 6.5392444342e-001	 7.1378081248e-001
 3.6823963859e+000	 6.9102057921e-001	 6.7313666470e-001
 3.6752322482e+000	 7.2816220310e-001	 6.4600860927e-001
 3.7559296814e+000	 3.6201846019e-001	 8.3661757958e-001
 3.7522012431e+000	 3.9881242821e-001	 8.4668279458e-001
 3.7480975327e+000	 4.3569570332e-001	 8.4715134972e-001
 3.7436153190e+000	 4.7266318238e-001	 8.3961492005e-001
 3.7387514504e+000	 5.0970966430e-001	 8.2521001916e-001
 3.7335028583e+000	 5.4682985117e-001	 8.0463297107e-001
 3.7278665598e+000	 5.8401834954e-001	 7.7816345020e-001
 3.7218396615e+000	 6.2126967185e-001	 7.4569875475e-001
 3.7154193619e+000	 6.5857823787e-001	 7.0680106980e-001
 3.7086029546e+000	 6.9593837632e-001	 6.6611112697e-001
 3.7013878317e+000	 7.3334432659e-001	 6.3834424908e-001
 3.7824706809e+000	 3.6457663688e-001	 8.2812688426e-001
 3.7787158959e+000	 4.0163060677e-001	 8.3634086385e-001
 3.7745831870e+000	 4.3877451481e-001	 8.3598573642e-001
 3.7700693001e+000	 4.7600322183e-001	 8.2841158107e-001
 3.7651710613e+000	 5.1331148998e-001	 8.1451619558e-001
 3.7598853803e+000	 5.5069398390e-001	 7.9474896300e-001
 3.7542092534e+000	 5.8814527205e-001	 7.6912316949e-001
 3.7481397664e+000	 6.2565982808e-001	 7.3723905919e-001
 3.7416740982e+000	 6.6323203232e-001	 6.9832000951e-001
 3.7348095233e+000	 7.0085617343e-001	 6.5821261983e-001
 3.7275434153e+000	 7.3852645008e-001	 6.3013299213e-001
 3.8090116804e+000	 3.6713481358e-001	 8.1690088823e-001
 3.8052305487e+000	 4.0444878532e-001	 8.2323192853e-001
 3.8010688412e+000	 4.4185332630e-001	 8.2209859432e-001
 3.7965232811e+000	 4.7934326128e-001	 8.1460497802e-001
 3.7915906721e+000	 5.1691331566e-001	 8.0140594886e-001
 3.7862679023e+000	 5.5455811664e-001	 7.8269923410e-001
 3.7805519469e+000	 5.9227219456e-001	 7.5822582011e-001
 3.7744398714e+000	 6.3004998430e-001	 7.2728108448e-001
 3.7679288346e+000	 6.6788582677e-001	 6.8874582900e-001
 3.7610160921e+000	 7.0577397054e-001	 6.4972141927e-001
 3.7536989989e+000	 7.4370857358e-001	 6.2159576694e-001
 3.8355526800e+000	 3.6969299028e-001	 8.0448538868e-001
 3.8317452015e+000	 4.0726696387e-001	 8.0877416729e-001
 3.8275544954e+000	 4.4493213779e-001	 8.0676220249e-001
 3.8229772621e+000	 4.8268330073e-001	 7.9931045701e-001
 3.8180102829e+000	 5.2051514133e-001	 7.8683394191e-001
 3.8126504244e+000	 5.5842224937e-001	 7.6928129974e-001
 3.8068946405e+000	 5.9639911707e-001	 7.4612256114e-001
 3.8007399763e+000	 6.3444014053e-001	 7.1634761612e-001
 3.7941835709e+000	 6.7253962123e-001	 6.7862783697e-001
 3.7872226608e+000	 7.1069176765e-001	 6.4093876686e-001
 3.7798545825e+000	 7.4889069707e-001	 6.1297469798e-001
 3.8620936795e+000	 3.7225116698e-001	 7.9241539670e-001
 3.8582598543e+000	 4.1008514243e-001	 7.9437874240e-001
 3.8540401497e+000	 4.4801094928e-001	 7.9124530800e-001
 3.8494312431e+000	 4.8602334018e-001	 7.8364314184e-001
 3.8444298938e+000	 5.2411696701e-001	 7.7175786038e-001
 3.8390329464e+000	 5.6228638211e-001	 7.5529898791e-001
 3.8332373341e+000	 6.0052603959e-001	 7.3347430710e-001
 3.8270400812e+000	 6.3883029676e-001	 7.0497489678e-001
 3.8204383073e+000	 6.7719341568e-001	 6.6842232149e-001
 3.8134292295e+000	 7.1560956476e-001	 6.3218605004e-001
 3.8060101661e+000	 7.5407282056e-001	 6.0453221317e-001
 3.8886346791e+000	 3.7480934368e-001	 7.8221573672e-001
 3.8847745071e+000	 4.1290332098e-001	 7.8145018458e-001
 3.8805258039e+000	 4.5108976078e-001	 7.7681331465e-001
 3.8758852241e+000	 4.8936337964e-001	 7.6871794820e-001
 3.8708495046e+000	 5.2771879269e-001	 7.5713827778e-001
 3.8654154685e+000	 5.6615051484e-001	 7.4156218432e-001
 3.8595800276e+000	 6.0465296210e-001	 7.2095138550e-001
 3.8533401861e+000	 6.4322045299e-001	 6.9371223230e-001
 3.8466930436e+000	 6.8184721013e-001	 6.5854365775e-001
 3.8396357982e+000	 7.2052736187e-001	 6.2380400336e-001
 3.8321657497e+000	 7.5925494406e-001	 5.9655017501e-001
 3.9151756786e+000	 3.7736752037e-001	 7.7540161183e-001
 3.9112891599e+000	 4.1572149954e-001	 7.7138675200e-001
 3.9070114582e+000	 4.5416857227e-001	 7.6472845339e-001
 3.9023392051e+000	 4.9270341909e-001	 7.5564958706e-001
 3.8972691155e+000	 5.3132061837e-001	 7.4393851669e-001
 3.8917979905e+000	 5.7001464758e-001	 7.2888657968e-001
 3.8859227212e+000	 6.0877988461e-001	 7.0923320209e-001
 3.8796402911e+000	 6.4761060921e-001	 6.8312161032e-001
 3.8729477800e+000	 6.8650100458e-001	 6.4942412660e-001
 3.8658423669e+000	 7.2544515898e-001	 6.1615192979e-001
 3.8583213333e+000	 7.6443706755e-001	 5.8932903400e-001
 3.5967654974e+000	 7.1261583262e-001	 6.6384840335e-001
 3.5893632944e+000	 7.4900877130e-001	 6.4955418239e-001
 3.5815687602e+000	 7.8543477855e-001	 6.3129883120e-001
 3.5733796665e+000	 8.2188799579e-001	 6.1016560259e-001
 3.5647938922e+000	 8.5836248506e-001	 5.8702650979e-001
 3.5558094260e+000	 8.9485223122e-001	 5.6255937890e-001
 3.5464243692e+000	 9.3135114424e-001	 5.3726780284e-001
 3.5366369385e+000	 9.6785306161e-001	 5.1150428815e-001
 3.5264454685e+000	 1.0043517508e+000	 4.8549688119e-001
 3.5158484147e+000	 1.0408409118e+000	 4.5937731293e-001
 3.5048443553e+000	 1.0773141800e+000	 4.3322528150e-001
 3.6229210810e+000	 7.1779795611e-001	 6.5892443297e-001
 3.6154650493e+000	 7.5445554328e-001	 6.4272732227e-001
 3.6076138335e+000	 7.9114643950e-001	 6.2345901845e-001
 3.5993651890e+000	 8.2786474356e-001	 6.0205737805e-001
 3.5907169792e+000	 8.6460447435e-001	 5.7924764847e-001
 3.5816671781e+000	 9.0135957298e-001	 5.5555859826e-001
 3.5722138734e+000	 9.3812390514e-001	 5.3134162658e-001
 3.5623552688e+000	 9.7489126348e-001	 5.0679316250e-001
 3.5520896867e+000	 1.0116553701e+000	 4.8197752816e-001
 3.5414155714e+000	 1.0484098794e+000	 4.5687053946e-001
 3.5303314908e+000	 1.0851483803e+000	 4.3137085542e-001
 3.6490766646e+000	 7.2298007960e-001	 6.5292725710e-001
 3.6415668043e+000	 7.5990231526e-001	 6.3522221184e-001
 3.6336589068e+000	 7.9685810044e-001	 6.1524842181e-001
 3.6253507114e+000	 8.3384149134e-001	 5.9380932012e-001
 3.6166400661e+000	 8.7084646365e-001	 5.7149470098e-001
 3.6075249303e+000	 9.0786691475e-001	 5.4869582389e-001
 3.5980033777e+000	 9.4489666604e-001	 5.2562357579e-001
 3.5880735991e+000	 9.8192946535e-001	 5.0233002156e-001
 3.5777339049e+000	 1.0189589895e+000	 4.7873092524e-001
 3.5669827281e+000	 1.0559788470e+000	 4.5464708015e-001
 3.5558186262e+000	 1.0929825805e+000	 4.2981797300e-001
 3.6752322482e+000	 7.2816220310e-001	 6.4600860927e-001
 3.6676685592e+000	 7.6534908725e-001	 6.2714094903e-001
 3.6597039801e+000	 8.0256976138e-001	 6.0672070388e-001
 3.6513362338e+000	 8.3981823911e-001	 5.8542860700e-001
 3.6425631530e+000	 8.7708845295e-001	 5.6373104404e-001
 3.6333826824e+000	 9.1437425652e-001	 5.4189402260e-001
 3.6237928819e+000	 9.5166942693e-001	 5.2000027902e-001
 3.6137919294e+000	 9.8896766723e-001	 4.9796987409e-001
 3.6033781231e+000	 1.0262626089e+000	 4.7558222756e-001
 3.5925498848e+000	 1.0635478146e+000	 4.5251525496e-001
 3.5813057617e+000	 1.1008167807e+000	 4.2836096613e-001
 3.7013878317e+000	 7.3334432659e-001	 6.3834424908e-001
 3.6937703142e+000	 7.7079585923e-001	 6.1860960261e-001
 3.6857490534e+000	 8.0828142233e-001	 5.9795324437e-001
 3.6773217563e+000	 8.4579498689e-001	 5.7694570764e-001
 3.6684862399e+000	 8.8333044224e-001	 5.5594277187e-001
 3.6592404345e+000	 9.2088159828e-001	 5.3509818356e-001
 3.6495823861e+000	 9.5844218783e-001	 5.1437959483e-001
 3.6395102597e+000	 9.9600586910e-001	 4.9358809331e-001
 3.6290223413e+000	 1.0335662283e+000	 4.7237960396e-001
 3.6181170415e+000	 1.0711167822e+000	 4.5030188930e-001
 3.6067928972e+000	 1.1086509810e+000	 4.2681172253e-001
 3.7275434153e+000	 7.3852645008e-001	 6.3013299213e-001
 3.7198720691e+000	 7.7624263121e-001	 6.0977718163e-001
 3.7117941267e+000	 8.1399308327e-001	 5.8904605944e-001
 3.7033072787e+000	 8.5177173467e-001	 5.6841326165e-001
 3.6944093268e+000	 8.8957243154e-001	 5.4813754737e-001
 3.6850981866e+000	 9.2738894005e-001	 5.2827415194e-001
 3.6753718904e+000	 9.6521494873e-001	 5.0868943926e-001
 3.6652285900e+000	 1.0030440710e+000	 4.8907924963e-001
 3.6546665595e+000	 1.0408698477e+000	 4.6898952164e-001
 3.6436841982e+000	 1.0786857497e+000	 4.4785119255e-001
 3.6322800327e+000	 1.1164851812e+000	 4.2499860529e-001
 3.7536989989e+000	 7.4370857358e-001	 6.2159576694e-001
 3.7459738241e+000	 7.8168940319e-001	 6.0081463414e-001
 3.7378392000e+000	 8.1970474421e-001	 5.8012075213e-001
 3.7292928012e+000	 8.5774848244e-001	 5.5990499172e-001
 3.7203324137e+000	 8.9581442084e-001	 5.4034348713e-001
 3.7109559387e+000	 9.3389628182e-001	 5.2140749724e-001
 3.7011613946e+000	 9.7198770963e-001	 5.0287664842e-001
 3.6909469203e+000	 1.0100822729e+000	 4.8435597883e-001
 3.6803107777e+000	 1.0481734670e+000	 4.6529563123e-001
 3.6692513549e+000	 1.0862547173e+000	 4.4502367172e-001
 3.6577671681e+000	 1.1243193814e+000	 4.2276540666e-001
 3.7798545825e+000	 7.4889069707e-001	 6.1297469798e-001
 3.7720755791e+000	 7.8713617517e-001	 5.9191387381e-001
 3.7638842733e+000	 8.2541640516e-001	 5.7131949240e-001
 3.7552783236e+000	 8.6372523022e-001	 5.5151464703e-001
 3.7462555007e+000	 9.0205641013e-001	 5.3260807843e-001
 3.7368136908e+000	 9.4040362358e-001	 5.1450241446e-001
 3.7269508988e+000	 9.7876047052e-001	 4.9690587452e-001
 3.7166652506e+000	 1.0171204747e+000	 4.7934570270e-001
 3.7059549959e+000	 1.0554770864e+000	 4.6119768560e-001
 3.6948185116e+000	 1.0938236849e+000	 4.4169507844e-001
 3.6832543036e+000	 1.1321535817e+000	 4.1997033473e-001
 3.8060101661e+000	 7.5407282056e-001	 6.0453221317e-001
 3.7981773340e+000	 7.9258294715e-001	 5.8328683310e-001
 3.7899293467e+000	 8.3112806610e-001	 5.6280402534e-001
 3.7812638460e+000	 8.6970197799e-001	 5.4335497618e-001
 3.7721785876e+000	 9.0829839943e-001	 5.2499712694e-001
 3.7626714430e+000	 9.4691096535e-001	 5.0758065662e-001
 3.7527404031e+000	 9.8553323142e-001	 4.9075851383e-001
 3.7423835808e+000	 1.0241586766e+000	 4.7399857600e-001
 3.7315992141e+000	 1.0627807058e+000	 4.5661049064e-001
 3.7203856683e+000	 1.1013926525e+000	 4.3775538766e-001
 3.7087414391e+000	 1.1399877819e+000	 4.1648503120e-001
 3.8321657497e+000	 7.5925494406e-001	 5.9655017501e-001
 3.8242790890e+000	 7.9802971914e-001	 5.7516454175e-001
 3.8159744200e+000	 8.3683972704e-001	 5.5475470615e-001
 3.8072493685e+000	 8.7567872577e-001	 5.3555672824e-001
 3.7981016745e+000	 9.1454038873e-001	 5.1759373339e-001
 3.7885291951e+000	 9.5341830711e-001	 5.0068049719e-001
 3.7785299073e+000	 9.9230599232e-001	 4.8443166486e-001
 3.7681019111e+000	 1.0311968785e+000	 4.6827246701e-001
 3.7572434323e+000	 1.0700843252e+000	 4.5146288661e-001
 3.7459528250e+000	 1.1089616201e+000	 4.3310780657e-001
 3.7342285745e+000	 1.1478219821e+000	 4.1219361886e-001
 3.8583213333e+000	 7.6443706755e-001	 5.8932903400e-001
 3.8503808439e+000	 8.0347649112e-001	 5.6779622930e-001
 3.8420194933e+000	 8.4255138799e-001	 5.4736956075e-001
 3.8332348909e+000	 8.8165547354e-001	 5.2826768046e-001
 3.8240247614e+000	 9.2078237802e-001	 5.1049729802e-001
 3.8143869472e+000	 9.5992564888e-001	 4.9385572084e-001
 3.8043194115e+000	 9.9907875321e-001	 4.7793711545e-001
 3.7938202414e+000	 1.0382350804e+000	 4.6214160753e-001
 3.7828876505e+000	 1.0773879445e+000	 4.4569675855e-001
 3.7715199817e+000	 1.1165305877e+000	 4.2766781240e-001
 3.7597157100e+000	 1.1556561824e+000	 4.0699177738e-001
 3.5048443553e+000	 1.0773141800e+000	 4.3322528150e-001
 3.4934319935e+000	 1.1137651284e+000	 4.0856079108e-001
 3.4816101568e+000	 1.1501872686e+000	 3.8519322572e-001
 3.4693778024e+000	 1.1865740558e+000	 3.6064735695e-001
 3.4567340197e+000	 1.2229188917e+000	 3.3255216341e-001
 3.4436780330e+000	 1.2592151286e+000	 2.9870268504e-001
 3.4302092034e+000	 1.2954560718e+000	 2.5712716321e-001
 3.4163270308e+000	 1.3316349834e+000	 2.0615954687e-001
 3.4020311558e+000	 1.3677450859e+000	 1.5524403342e-001
 3.3873213615e+000	 1.4037795652e+000	 1.1551572384e-001
 3.3721975751e+000	 1.4397315747e+000	 8.4882356773e-002
 3.5303314908e+000	 1.0851483803e+000	 4.3137085542e-001
 3.5188361386e+000	 1.1218643990e+000	 4.0686574397e-001
 3.5069283338e+000	 1.1585514001e+000	 3.8317502442e-001
 3.4946070260e+000	 1.1952027909e+000	 3.5786417059e-001
 3.4818712981e+000	 1.2318119256e+000	 3.2859722231e-001
 3.4687203686e+000	 1.2683721077e+000	 2.9319896722e-001
 3.4551535940e+000	 1.3048765941e+000	 2.4972266018e-001
 3.4411704707e+000	 1.3413185978e+000	 1.9708125842e-001
 3.4267706364e+000	 1.3776912920e+000	 1.4926411219e-001
 3.4119538729e+000	 1.4139878131e+000	 1.1148122072e-001
 3.3967201067e+000	 1.4502012647e+000	 8.1796410493e-002
 3.5558186262e+000	 1.0929825805e+000	 4.2981797300e-001
 3.5442402836e+000	 1.1299636695e+000	 4.0548395246e-001
 3.5322465108e+000	 1.1669155315e+000	 3.8146151549e-001
 3.5198362497e+000	 1.2038315261e+000	 3.5536254723e-001
 3.5070085764e+000	 1.2407049594e+000	 3.2489104303e-001
 3.4937627042e+000	 1.2775290868e+000	 2.8790556207e-001
 3.4800979847e+000	 1.3142971164e+000	 2.4248748012e-001
 3.4660139105e+000	 1.3510022122e+000	 1.8958884709e-001
 3.4515101171e+000	 1.3876374981e+000	 1.4432664256e-001
 3.4365863842e+000	 1.4241960610e+000	 1.0801691522e-001
 3.4212426383e+000	 1.4606709546e+000	 7.8907184531e-002
 3.5813057617e+000	 1.1008167807e+000	 4.2836096613e-001
 3.5696444287e+000	 1.1380629401e+000	 4.0420093268e-001
 3.5575646878e+000	 1.1752796629e+000	 3.7983332597e-001
 3.5450654733e+000	 1.2124602613e+000	 3.5292258081e-001
 3.5321458548e+000	 1.2495979933e+000	 3.2121791231e-001
 3.5188050398e+000	 1.2866860660e+000	 2.8261598207e-001
 3.5050423753e+000	 1.3237176387e+000	 2.3522963541e-001
 3.4908573503e+000	 1.3606858266e+000	 1.8328847693e-001
 3.4762495977e+000	 1.3975837042e+000	 1.4007740113e-001
 3.4612188956e+000	 1.4344043088e+000	 1.0483674633e-001
 3.4457651699e+000	 1.4711406446e+000	 7.5999888348e-002
 3.6067928972e+000	 1.1086509810e+000	 4.2681172253e-001
 3.5950485738e+000	 1.1461622107e+000	 4.0281886926e-001
 3.5828828648e+000	 1.1836437943e+000	 3.7808699212e-001
 3.5702946969e+000	 1.2210889964e+000	 3.5033965889e-001
 3.5572831332e+000	 1.2584910271e+000	 3.1737695263e-001
 3.5438473754e+000	 1.2958430451e+000	 2.7713828782e-001
 3.5299867659e+000	 1.3331381610e+000	 2.2777158017e-001
 3.5157007902e+000	 1.3703694410e+000	 1.7779523425e-001
 3.5009890783e+000	 1.4075299103e+000	 1.3619476271e-001
 3.4858514070e+000	 1.4446125567e+000	 1.0168540213e-001
 3.4702877015e+000	 1.4816103345e+000	 7.2888502463e-002
 3.6322800327e+000	 1.1164851812e+000	 4.2499860529e-001
 3.6204527189e+000	 1.1542614812e+000	 4.0115558608e-001
 3.6082010418e+000	 1.1920079257e+000	 3.7603399033e-001
 3.5955239206e+000	 1.2297177316e+000	 3.4742356271e-001
 3.5824204116e+000	 1.2673840610e+000	 3.1318130062e-001
 3.5688897110e+000	 1.3050000242e+000	 2.7129435409e-001
 3.5549311565e+000	 1.3425586833e+000	 2.2053886496e-001
 3.5405442300e+000	 1.3800530554e+000	 1.7275699232e-001
 3.5257285589e+000	 1.4174761164e+000	 1.3238816627e-001
 3.5104839184e+000	 1.4548208046e+000	 9.8336780207e-002
 3.4948102331e+000	 1.4920800244e+000	 6.9414235624e-002
 3.6577671681e+000	 1.1243193814e+000	 4.2276540666e-001
 3.6458568640e+000	 1.1623607518e+000	 3.9904355063e-001
 3.6335192188e+000	 1.2003720571e+000	 3.7349980065e-001
 3.6207531442e+000	 1.2383464667e+000	 3.4399759881e-001
 3.6075576900e+000	 1.2762770948e+000	 3.0845731578e-001
 3.5939320466e+000	 1.3141570033e+000	 2.6491916471e-001
 3.5798755472e+000	 1.3519792056e+000	 2.1386593757e-001
 3.5653876698e+000	 1.3897366698e+000	 1.6785291069e-001
 3.5504680395e+000	 1.4274223225e+000	 1.2839660466e-001
 3.5351164297e+000	 1.4650290525e+000	 9.4592469880e-002
 3.5193327647e+000	 1.5025497144e+000	 6.5444001782e-002
 3.6832543036e+000	 1.1321535817e+000	 4.1997033473e-001
 3.6712610090e+000	 1.1704600224e+000	 3.9632891023e-001
 3.6588373958e+000	 1.2087361885e+000	 3.7032300131e-001
 3.6459823679e+000	 1.2469752019e+000	 3.3989776059e-001
 3.6326949684e+000	 1.2851701287e+000	 3.0304381789e-001
 3.6189743822e+000	 1.3233139825e+000	 2.5786013486e-001
 3.6048199378e+000	 1.3613997279e+000	 2.0740654170e-001
 3.5902311097e+000	 1.3994202842e+000	 1.6279195892e-001
 3.5752075201e+000	 1.4373685286e+000	 1.2398713699e-001
 3.5597489411e+000	 1.4752373004e+000	 9.0280255277e-002
 3.5438552963e+000	 1.5130194043e+000	 6.0868915891e-002
 3.7087414391e+000	 1.1399877819e+000	 4.1648503120e-001
 3.6966651541e+000	 1.1785592929e+000	 3.9287055875e-001
 3.6841555728e+000	 1.2171003199e+000	 3.6635439282e-001
 3.6712115915e+000	 1.2556039371e+000	 3.3497191836e-001
 3.6578322468e+000	 1.2940631625e+000	 2.9679135183e-001
 3.6440167178e+000	 1.3324709616e+000	 2.4997645943e-001
 3.6297643284e+000	 1.3708202502e+000	 2.0084421246e-001
 3.6150745495e+000	 1.4091038986e+000	 1.5731146343e-001
 3.5999470007e+000	 1.4473147347e+000	 1.1895342250e-001
 3.5843814525e+000	 1.4854455482e+000	 8.5252638176e-002
 3.5683778279e+000	 1.5234890943e+000	 5.5602807626e-002
 3.7342285745e+000	 1.1478219821e+000	 4.1219361886e-001
 3.7220692992e+000	 1.1866585635e+000	 3.8853923229e-001
 3.7094737498e+000	 1.2254644513e+000	 3.6145615012e-001
 3.6964408151e+000	 1.2642326722e+000	 3.2907903655e-001
 3.6829695251e+000	 1.3029561964e+000	 2.8956147843e-001
 3.6690590534e+000	 1.3416279407e+000	 2.4149542249e-001
 3.6547087190e+000	 1.3802407725e+000	 1.9389105304e-001
 3.6399179893e+000	 1.4187875129e+000	 1.5117567654e-001
 3.6246864813e+000	 1.4572609408e+000	 1.1311427507e-001
 3.6090139638e+000	 1.4956537961e+000	 7.9385379702e-002
 3.5929003595e+000	 1.5339587842e+000	 4.9580752185e-002
 3.7597157100e+000	 1.1556561824e+000	 4.0699177738e-001
 3.7474734443e+000	 1.1947578341e+000	 3.8321663240e-001
 3.7347919268e+000	 1.2338285827e+000	 3.5550100159e-001
 3.7216700388e+000	 1.2728614074e+000	 3.2208841679e-001
 3.7081068035e+000	 1.3118492302e+000	 2.8122609017e-001
 3.6941013890e+000	 1.3507849198e+000	 2.3268839098e-001
 3.6796531097e+000	 1.3896612948e+000	 1.8628634242e-001
 3.6647614292e+000	 1.4284711273e+000	 1.4417436637e-001
 3.6494259619e+000	 1.4672071469e+000	 1.0631223716e-001
 3.6336464752e+000	 1.5058620440e+000	 7.2576059988e-002
 3.6174228910e+000	 1.5444284742e+000	 4.2757617331e-002
 3.3721975751e+000	 1.4397315747e+000	 8.4882356773e-002
 3.3566622317e+000	 1.4755888670e+000	 5.6818723926e-002
 3.3407133163e+000	 1.5113499448e+000	 2.6769097846e-002
 3.3243512004e+000	 1.5470078906e+000	-4.3822889833e-003
 3.3075764053e+000	 1.5825557699e+000	-3.5419324077e-002
 3.2903896030e+000	 1.6179866343e+000	-6.5896057406e-002
 3.2727916178e+000	 1.6532935261e+000	-9.5746491544e-002
 3.2547834267e+000	 1.6884694823e+000	-1.2519050198e-001
 3.2363661604e+000	 1.7235075382e+000	-1.5471267059e-001
 3.2175411036e+000	 1.7584007324e+000	-1.8503617407e-001
 3.1983096960e+000	 1.7931421101e+000	-2.1709181470e-001
 3.3967201067e+000	 1.4502012647e+000	 8.1796410493e-002
 3.3810717907e+000	 1.4863193103e+000	 5.4298829393e-002
 3.3650068952e+000	 1.5223404416e+000	 2.4869763242e-002
 3.3485257945e+000	 1.5582576911e+000	-5.7982246545e-003
 3.3316290134e+000	 1.5940640736e+000	-3.7014178390e-002
 3.3143172292e+000	 1.6297525903e+000	-6.7829158822e-002
 3.2965912719e+000	 1.6653162329e+000	-9.7834558322e-002
 3.2784521257e+000	 1.7007479877e+000	-1.2722010118e-001
 3.2599009295e+000	 1.7360408395e+000	-1.5646056499e-001
 3.2409389774e+000	 1.7711877760e+000	-1.8628855742e-001
 3.2215677195e+000	 1.8061817922e+000	-2.1766216422e-001
 3.4212426383e+000	 1.4606709546e+000	 7.8907184531e-002
 3.4054813497e+000	 1.4970497535e+000	 5.1723593197e-002
 3.3893004741e+000	 1.5333309384e+000	 2.2790769979e-002
 3.3727003885e+000	 1.5695074916e+000	-7.3062703845e-003
 3.3556816216e+000	 1.6055723773e+000	-3.7987390842e-002
 3.3382448554e+000	 1.6415185463e+000	-6.8679487328e-002
 3.3203909260e+000	 1.6773389397e+000	-9.8776521007e-002
 3.3021208248e+000	 1.7130264931e+000	-1.2803203528e-001
 3.2834356986e+000	 1.7485741407e+000	-1.5691696540e-001
 3.2643368512e+000	 1.7839748197e+000	-1.8619663975e-001
 3.2448257431e+000	 1.8192214742e+000	-2.1688149769e-001
 3.4457651699e+000	 1.4711406446e+000	 7.5999888348e-002
 3.4298909086e+000	 1.5077801967e+000	 4.8946809861e-002
 3.4135940530e+000	 1.5443214353e+000	 2.0446380245e-002
 3.3968749825e+000	 1.5807572920e+000	-9.0457910862e-003
 3.3797342297e+000	 1.6170806810e+000	-3.9079881816e-002
 3.3621724816e+000	 1.6532845023e+000	-6.9213922238e-002
 3.3441905801e+000	 1.6893616465e+000	-9.9016064468e-002
 3.3257895238e+000	 1.7253049986e+000	-1.2808796979e-001
 3.3069704678e+000	 1.7611074420e+000	-1.5657200055e-001
 3.2877347250e+000	 1.7967618633e+000	-1.8527885217e-001
 3.2680837666e+000	 1.8322611562e+000	-2.1529619965e-001
 3.4702877015e+000	 1.4816103345e+000	 7.2888502463e-002
 3.4543004676e+000	 1.5185106399e+000	 4.5849106115e-002
 3.4378876319e+000	 1.5553119321e+000	 1.7775947205e-002
 3.4210495765e+000	 1.5920070925e+000	-1.1026159210e-002
 3.4037868379e+000	 1.6285889847e+000	-4.0259651758e-002
 3.3861001078e+000	 1.6650504584e+000	-6.9636178691e-002
 3.3679902342e+000	 1.7013843533e+000	-9.8878777215e-002
 3.3494582228e+000	 1.7375835040e+000	-1.2772424687e-001
 3.3305052369e+000	 1.7736407432e+000	-1.5593420016e-001
 3.3111325989e+000	 1.8095489069e+000	-1.8406808044e-001
 3.2913417901e+000	 1.8453008382e+000	-2.1346287009e-001
 3.4948102331e+000	 1.4920800244e+000	 6.9414235624e-002
 3.4787100266e+000	 1.5292410832e+000	 4.2336391517e-002
 3.4621812108e+000	 1.5663024289e+000	 1.4742350397e-002
 3.4452241706e+000	 1.6032568930e+000	-1.3234795864e-002
 3.4278394461e+000	 1.6400972884e+000	-4.1471215837e-002
 3.4100277339e+000	 1.6768164144e+000	-6.9854166044e-002
 3.3917898883e+000	 1.7134070602e+000	-9.8284061663e-002
 3.3731269218e+000	 1.7498620094e+000	-1.2667675967e-001
 3.3540400061e+000	 1.7861740445e+000	-1.5496601811e-001
 3.3345304727e+000	 1.8223359506e+000	-1.8310608989e-001
 3.3145998137e+000	 1.8583405202e+000	-2.1194546147e-001
 3.5193327647e+000	 1.5025497144e+000	 6.5444001782e-002
 3.5031195856e+000	 1.5399715264e+000	 3.8338326905e-002
 3.4864747897e+000	 1.5772929258e+000	 1.1330447354e-002
 3.4693987646e+000	 1.6145066935e+000	-1.5638743829e-002
 3.4518920542e+000	 1.6516055921e+000	-4.2640143931e-002
 3.4339553601e+000	 1.6885823704e+000	-6.9758121775e-002
 3.4155895424e+000	 1.7254297670e+000	-9.7092462095e-002
 3.3967956208e+000	 1.7621405148e+000	-1.2476054084e-001
 3.3775747752e+000	 1.7987073457e+000	-1.5289969337e-001
 3.3579283465e+000	 1.8351229942e+000	-1.8166973176e-001
 3.3378578372e+000	 1.8713802022e+000	-2.1125556232e-001
 3.5438552963e+000	 1.5130194043e+000	 6.0868915891e-002
 3.5275291446e+000	 1.5507019696e+000	 3.3806809823e-002
 3.5107683686e+000	 1.5882834226e+000	 7.5455406445e-003
 3.4935733586e+000	 1.6257564939e+000	-1.8186226380e-002
 3.4759446624e+000	 1.6631138959e+000	-4.3674652285e-002
 3.4578829863e+000	 1.7003483264e+000	-6.9222242412e-002
 3.4393891965e+000	 1.7374524738e+000	-9.5149647802e-002
 3.4204643198e+000	 1.7744190203e+000	-1.2179771623e-001
 3.4011095443e+000	 1.8112406470e+000	-1.4952975299e-001
 3.3813262203e+000	 1.8479100378e+000	-1.7873394547e-001
 3.3611158607e+000	 1.8844198842e+000	-2.0982590011e-001
 3.5683778279e+000	 1.5234890943e+000	 5.5602807626e-002
 3.5519387036e+000	 1.5614324128e+000	 2.8714476099e-002
 3.5350619475e+000	 1.5992739195e+000	 3.4118596210e-003
 3.5177479526e+000	 1.6370062944e+000	-2.0808192584e-002
 3.4999972705e+000	 1.6746221996e+000	-4.4467182555e-002
 3.4818106125e+000	 1.7121142824e+000	-6.8106302494e-002
 3.4631888507e+000	 1.7494751806e+000	-9.2288077616e-002
 3.4441330188e+000	 1.7866975257e+000	-1.1759827763e-001
 3.4246443135e+000	 1.8237739482e+000	-1.4464805499e-001
 3.4047240942e+000	 1.8606970815e+000	-1.7407626184e-001
 3.3843738843e+000	 1.8974595662e+000	-2.0655189147e-001
 3.5929003595e+000	 1.5339587842e+000	 4.9580752185e-002
 3.5763482626e+000	 1.5721628561e+000	 2.3053216810e-002
 3.5593555264e+000	 1.6102644163e+000	-1.0289438592e-003
 3.5419225467e+000	 1.6482560949e+000	-2.3419849738e-002
 3.5240498787e+000	 1.6861305033e+000	-4.4895968834e-002
 3.5057382387e+000	 1.7238802385e+000	-6.6257262141e-002
 3.4869885048e+000	 1.7614978874e+000	-8.8328653451e-002
 3.4678017179e+000	 1.7989760311e+000	-1.1196178717e-001
 3.4481790826e+000	 1.8363072495e+000	-1.3803703026e-001
 3.4281219680e+000	 1.8734841251e+000	-1.6746566780e-001
 3.4076319078e+000	 1.9104992482e+000	-2.0119223549e-001
 3.6174228910e+000	 1.5444284742e+000	 4.2757617331e-002
 3.6007578216e+000	 1.5828932993e+000	 1.6832709890e-002
 3.5836491053e+000	 1.6212549131e+000	-5.7192863785e-003
 3.5660971407e+000	 1.6595058954e+000	-2.5922183538e-002
 3.5481024868e+000	 1.6976388070e+000	-4.4826593250e-002
 3.5296658649e+000	 1.7356461945e+000	-6.3510863766e-002
 3.5107881589e+000	 1.7735205942e+000	-8.3082363349e-002
 3.4914704169e+000	 1.8112545366e+000	-1.0467907148e-001
 3.4717138517e+000	 1.8488405507e+000	-1.2947143192e-001
 3.4515198418e+000	 1.8862711687e+000	-1.5866441463e-001
 3.4308899314e+000	 1.9235389302e+000	-1.9349972713e-001
 3.1983096960e+000	 1.7931421101e+000	-2.1709181470e-001
 3.1786705568e+000	 1.8277299040e+000	-2.4839137612e-001
 3.1586282936e+000	 1.8621519615e+000	-2.7730534654e-001
 3.1381848154e+000	 1.8964013734e+000	-3.0629418121e-001
 3.1173421865e+000	 1.9304712547e+000	-3.3789995344e-001
 3.0961026268e+000	 1.9643547489e+000	-3.7469211732e-001
 3.0744685107e+000	 1.9980450323e+000	-4.1920978100e-001
 3.0524423675e+000	 2.0315353184e+000	-4.6491021165e-001
 3.0300268800e+000	 2.0648188619e+000	-5.0287008151e-001
 3.0072248842e+000	 2.0978889635e+000	-5.3535543265e-001
 2.9840393683e+000	 2.1307389737e+000	-5.6466564944e-001
 3.2215677195e+000	 1.8061817922e+000	-2.1766216422e-001
 3.2017857650e+000	 1.8410211076e+000	-2.4843060252e-001
 3.1815977550e+000	 1.8756934813e+000	-2.7732963459e-001
 3.1610056124e+000	 1.9101919540e+000	-3.0691157924e-001
 3.1400114165e+000	 1.9445095906e+000	-3.3982272146e-001
 3.1186174032e+000	 1.9786394847e+000	-3.7874643164e-001
 3.0968259644e+000	 2.0125747630e+000	-4.2494480931e-001
 3.0746396477e+000	 2.0463085895e+000	-4.6607361962e-001
 3.0520611554e+000	 2.0798341701e+000	-5.0052188977e-001
 3.0290933441e+000	 2.1131447565e+000	-5.3068900605e-001
 3.0057392237e+000	 2.1462336512e+000	-5.5897205172e-001
 3.2448257431e+000	 1.8192214742e+000	-2.1688149769e-001
 3.2249009733e+000	 1.8543123111e+000	-2.4719344383e-001
 3.2045672165e+000	 1.8892350011e+000	-2.7623734416e-001
 3.1838264094e+000	 1.9239825346e+000	-3.0663698914e-001
 3.1626806464e+000	 1.9585479265e+000	-3.4112295289e-001
 3.1411321796e+000	 1.9929242205e+000	-3.8247299615e-001
 3.1191834182e+000	 2.0271044936e+000	-4.2705663984e-001
 3.0968369279e+000	 2.0610818606e+000	-4.6396760853e-001
 3.0740954307e+000	 2.0948494782e+000	-4.9523473189e-001
 3.0509618039e+000	 2.1284005496e+000	-5.2333194196e-001
 3.0274390790e+000	 2.1617283286e+000	-5.5072928974e-001
 3.2680837666e+000	 1.8322611562e+000	-2.1529619965e-001
 3.2480161815e+000	 1.8676035146e+000	-2.4524871494e-001
 3.2275366779e+000	 1.9027765210e+000	-2.7460975000e-001
 3.2066472063e+000	 1.9377731153e+000	-3.0605516418e-001
 3.1853498764e+000	 1.9725862624e+000	-3.4238093762e-001
 3.1636469561e+000	 2.0072089563e+000	-3.8600100487e-001
 3.1415408719e+000	 2.0416342243e+000	-4.2624262163e-001
 3.1190342081e+000	 2.0758551317e+000	-4.5930446331e-001
 3.0961297061e+000	 2.1098647864e+000	-4.8769819271e-001
 3.0728302637e+000	 2.1436563427e+000	-5.1394852720e-001
 3.0491389344e+000	 2.1772230061e+000	-5.4057448694e-001
 3.2913417901e+000	 1.8453008382e+000	-2.1346287009e-001
 3.2711313898e+000	 1.8808947182e+000	-2.4317108860e-001
 3.2505061393e+000	 1.9163180408e+000	-2.7302966608e-001
 3.2294680033e+000	 1.9515636959e+000	-3.0574812303e-001
 3.2080191063e+000	 1.9866245983e+000	-3.4417000849e-001
 3.1861617325e+000	 2.0214936921e+000	-3.8736802050e-001
 3.1638983256e+000	 2.0561639549e+000	-4.2322660212e-001
 3.1412314882e+000	 2.0906284029e+000	-4.5278802479e-001
 3.1181639814e+000	 2.1248800946e+000	-4.7859287207e-001
 3.0946987236e+000	 2.1589121357e+000	-5.0319360302e-001
 3.0708387898e+000	 2.1927176836e+000	-5.2913493087e-001
 3.3145998137e+000	 1.8583405202e+000	-2.1194546147e-001
 3.2942465980e+000	 1.8941859217e+000	-2.4153808707e-001
 3.2734756007e+000	 1.9298595606e+000	-2.7207828474e-001
 3.2522888003e+000	 1.9653542766e+000	-3.0629182990e-001
 3.2306883363e+000	 2.0006629342e+000	-3.4704952280e-001
 3.2086765089e+000	 2.0357784278e+000	-3.8687504141e-001
 3.1862557793e+000	 2.0706936855e+000	-4.1872384321e-001
 3.1634287684e+000	 2.1054016740e+000	-4.4511286343e-001
 3.1401982568e+000	 2.1398954027e+000	-4.6858950249e-001
 3.1165671834e+000	 2.1741679288e+000	-4.9171162507e-001
 3.0925386452e+000	 2.2082123611e+000	-5.1702707421e-001
 3.3378578372e+000	 1.8713802022e+000	-2.1125556232e-001
 3.3173618062e+000	 1.9074771252e+000	-2.4092706049e-001
 3.2964450622e+000	 1.9434010804e+000	-2.7233200230e-001
 3.2751095973e+000	 1.9791448572e+000	-3.0825286124e-001
 3.2533575662e+000	 2.0147012702e+000	-3.4987650390e-001
 3.2311912853e+000	 2.0500631636e+000	-3.8524563626e-001
 3.2086132330e+000	 2.0852234162e+000	-4.1344023687e-001
 3.1856260486e+000	 2.1201749451e+000	-4.3696344214e-001
 3.1622325321e+000	 2.1549107109e+000	-4.5834805700e-001
 3.1384356433e+000	 2.1894237219e+000	-4.8013571436e-001
 3.1142385006e+000	 2.2237070385e+000	-5.0485552814e-001
 3.3611158607e+000	 1.8844198842e+000	-2.0982590011e-001
 3.3404770145e+000	 1.9207683288e+000	-2.4172554775e-001
 3.3194145236e+000	 1.9569426003e+000	-2.7435923179e-001
 3.2979303943e+000	 1.9929354379e+000	-3.1218505965e-001
 3.2760267961e+000	 2.0287396061e+000	-3.5191217930e-001
 3.2537060618e+000	 2.0643478994e+000	-3.8319408928e-001
 3.2309706867e+000	 2.0997531468e+000	-4.0807150949e-001
 3.2078233288e+000	 2.1349482162e+000	-4.2901326856e-001
 3.1842668075e+000	 2.1699260190e+000	-4.4851684724e-001
 3.1603041031e+000	 2.2046795149e+000	-4.6908669987e-001
 3.1359383559e+000	 2.2392017160e+000	-4.9321204813e-001
 3.3843738843e+000	 1.8974595662e+000	-2.0655189147e-001
 3.3635922227e+000	 1.9340595323e+000	-2.4150403667e-001
 3.3423839850e+000	 1.9704841201e+000	-2.7834391342e-001
 3.3207511913e+000	 2.0067260185e+000	-3.1829115683e-001
 3.2986960261e+000	 2.0427779420e+000	-3.5387603959e-001
 3.2762208382e+000	 2.0786326352e+000	-3.8142464253e-001
 3.2533281404e+000	 2.1142828775e+000	-4.0330241542e-001
 3.2300206090e+000	 2.1497214873e+000	-4.2192403751e-001
 3.2063010828e+000	 2.1849413272e+000	-4.3973161264e-001
 3.1821725629e+000	 2.2199353080e+000	-4.5917215285e-001
 3.1576382113e+000	 2.2546963935e+000	-4.8267451274e-001
 3.4076319078e+000	 1.9104992482e+000	-2.0119223549e-001
 3.3867074309e+000	 1.9473507358e+000	-2.3915358965e-001
 3.3653534464e+000	 1.9840256399e+000	-2.8103891769e-001
 3.3435719883e+000	 2.0205165991e+000	-3.2448291728e-001
 3.3213652560e+000	 2.0568162779e+000	-3.5647783583e-001
 3.2987356146e+000	 2.0929173710e+000	-3.8063072733e-001
 3.2756855941e+000	 2.1288126081e+000	-3.9980592043e-001
 3.2522178891e+000	 2.1644947584e+000	-4.1634476385e-001
 3.2283353582e+000	 2.1999566354e+000	-4.3261460087e-001
 3.2040410228e+000	 2.2351911011e+000	-4.5098541355e-001
 3.1793380667e+000	 2.2701910710e+000	-4.7380589569e-001
 3.4308899314e+000	 1.9235389302e+000	-1.9349972713e-001
 3.4098226392e+000	 1.9606419394e+000	-2.3441591809e-001
 3.3883229079e+000	 1.9975671597e+000	-2.8134650739e-001
 3.3663927853e+000	 2.0343071798e+000	-3.2660153899e-001
 3.3440344860e+000	 2.0708546138e+000	-3.5969223862e-001
 3.3212503911e+000	 2.1072021068e+000	-3.8149418540e-001
 3.2980430479e+000	 2.1433423388e+000	-3.9824237541e-001
 3.2744151693e+000	 2.1792680296e+000	-4.1291090640e-001
 3.2503696335e+000	 2.2149719435e+000	-4.2777364016e-001
 3.2259094826e+000	 2.2504468941e+000	-4.4510461057e-001
 3.2010379221e+000	 2.2856857484e+000	-4.6715323140e-001
 2.9840393683e+000	 2.1307389737e+000	-5.6466564944e-001
 2.9604734706e+000	 2.1633622969e+000	-5.9145335334e-001
 2.9365304761e+000	 2.1957523930e+000	-6.1507423794e-001
 2.9122138177e+000	 2.2279027839e+000	-6.3579830015e-001
 2.8875270751e+000	 2.2598070584e+000	-6.5378641343e-001
 2.8624739740e+000	 2.2914588763e+000	-6.6907667368e-001
 2.8370583836e+000	 2.3228519726e+000	-6.8157120695e-001
 2.8112843151e+000	 2.3539801615e+000	-6.9102356355e-001
 2.7851559196e+000	 2.3848373405e+000	-6.9702682131e-001
 2.7586774858e+000	 2.4154174939e+000	-6.9900251753e-001
 2.7318534379e+000	 2.4457146975e+000	-6.9619052556e-001
 3.0057392237e+000	 2.1462336512e+000	-5.5897205172e-001
 2.9820019554e+000	 2.1790942103e+000	-5.8576212454e-001
 2.9578848481e+000	 2.2117198463e+000	-6.0996914817e-001
 2.9333913595e+000	 2.2441040340e+000	-6.3168097901e-001
 2.9085250957e+000	 2.2762403155e+000	-6.5087347176e-001
 2.8832898091e+000	 2.3081223046e+000	-6.6739644308e-001
 2.8576893972e+000	 2.3397436907e+000	-6.8096011246e-001
 2.8317279003e+000	 2.3710982430e+000	-6.9112215020e-001
 2.8054094998e+000	 2.4021798145e+000	-6.9727546048e-001
 2.7787385155e+000	 2.4329823461e+000	-6.9863682435e-001
 2.7517194038e+000	 2.4634998701e+000	-6.9423652344e-001
 3.0274390790e+000	 2.1617283286e+000	-5.5072928974e-001
 3.0035304402e+000	 2.1948261237e+000	-5.7755734253e-001
 2.9792392201e+000	 2.2276872997e+000	-6.0232006452e-001
 2.9545689014e+000	 2.2603052841e+000	-6.2495652021e-001
 2.9295231162e+000	 2.2926735727e+000	-6.4529086340e-001
 2.9041056441e+000	 2.3247857330e+000	-6.6301782948e-001
 2.8783204107e+000	 2.3566354088e+000	-6.7768872038e-001
 2.8521714855e+000	 2.3882163245e+000	-6.8869801779e-001
 2.8256630800e+000	 2.4195222886e+000	-6.9527075833e-001
 2.7987995452e+000	 2.4505471982e+000	-6.9645080082e-001
 2.7715853698e+000	 2.4812850427e+000	-6.9109011205e-001
 3.0491389344e+000	 2.1772230061e+000	-5.4057448694e-001
 3.0250589250e+000	 2.2105580372e+000	-5.6744870401e-001
 3.0005935921e+000	 2.2436547530e+000	-5.9270976687e-001
 2.9757464433e+000	 2.2765065343e+000	-6.1618078609e-001
 2.9505211367e+000	 2.3091068299e+000	-6.3756701715e-001
 2.9249214792e+000	 2.3414491613e+000	-6.5644079161e-001
 2.8989514243e+000	 2.3735271269e+000	-6.7222695650e-001
 2.8726150707e+000	 2.4053344060e+000	-6.8418896376e-001
 2.8459166602e+000	 2.4368647627e+000	-6.9141574909e-001
 2.8188605750e+000	 2.4681120504e+000	-6.9280953662e-001
 2.7914513357e+000	 2.4990702153e+000	-6.8707470113e-001
 3.0708387898e+000	 2.1927176836e+000	-5.2913493087e-001
 3.0465874098e+000	 2.2262899506e+000	-5.5603571499e-001
 3.0219479640e+000	 2.2596222063e+000	-5.8171051381e-001
 2.9969239852e+000	 2.2927077844e+000	-6.0589883621e-001
 2.9715191573e+000	 2.3255400870e+000	-6.2821935141e-001
 2.9457373142e+000	 2.3581125897e+000	-6.4815416865e-001
 2.9195824378e+000	 2.3904188451e+000	-6.6503364095e-001
 2.8930586559e+000	 2.4224524875e+000	-6.7802184100e-001
 2.8661702404e+000	 2.4542072368e+000	-6.8610285500e-001
 2.8389216047e+000	 2.4856769025e+000	-6.8806803713e-001
 2.8113173017e+000	 2.5168553879e+000	-6.8250436238e-001
 3.0925386452e+000	 2.2082123611e+000	-5.1702707421e-001
 3.0681158946e+000	 2.2420218640e+000	-5.4390663338e-001
 3.0433023360e+000	 2.2755896597e+000	-5.6988292789e-001
 3.0181015271e+000	 2.3089090345e+000	-5.9464375570e-001
 2.9925171778e+000	 2.3419733442e+000	-6.1775304544e-001
 2.9665531493e+000	 2.3747760180e+000	-6.3863439378e-001
 2.9402134514e+000	 2.4073105632e+000	-6.5655514265e-001
 2.9135022411e+000	 2.4395705690e+000	-6.7061115142e-001
 2.8864238206e+000	 2.4715497108e+000	-6.7971241637e-001
 2.8589826344e+000	 2.5032417546e+000	-6.8256968693e-001
 2.8311832677e+000	 2.5346405605e+000	-6.7768222265e-001
 3.1142385006e+000	 2.2237070385e+000	-5.0485552814e-001
 3.0896443794e+000	 2.2577537774e+000	-5.3163740498e-001
 3.0646567080e+000	 2.2915571130e+000	-5.5777487535e-001
 3.0392790689e+000	 2.3251102847e+000	-5.8293547920e-001
 3.0135151984e+000	 2.3584066014e+000	-6.0665980755e-001
 2.9873689843e+000	 2.3914394464e+000	-6.2834420585e-001
 2.9608444649e+000	 2.4242022813e+000	-6.4722403333e-001
 2.9339458263e+000	 2.4566886504e+000	-6.6235764048e-001
 2.9066774008e+000	 2.4888921849e+000	-6.7261122434e-001
 2.8790436642e+000	 2.5208066068e+000	-6.7664471775e-001
 2.8510492336e+000	 2.5524257331e+000	-6.7289886363e-001
 3.1359383559e+000	 2.2392017160e+000	-4.9321204813e-001
 3.1111728642e+000	 2.2734856908e+000	-5.1979059307e-001
 3.0860110799e+000	 2.3075245664e+000	-5.4592034053e-001
 3.0604566108e+000	 2.3413115348e+000	-5.7127961065e-001
 3.0345132189e+000	 2.3748398586e+000	-5.9541664013e-001
 3.0081848194e+000	 2.4081028747e+000	-6.1773135921e-001
 2.9814754785e+000	 2.4410939994e+000	-6.3745774098e-001
 2.9543894115e+000	 2.4738067319e+000	-6.5364689266e-001
 2.9269309810e+000	 2.5062346590e+000	-6.6515105606e-001
 2.8991046939e+000	 2.5383714589e+000	-6.7060868069e-001
 2.8709151996e+000	 2.5702109057e+000	-6.6843072780e-001
 3.1576382113e+000	 2.2546963935e+000	-4.8267451274e-001
 3.1327013490e+000	 2.2892176042e+000	-5.0891430207e-001
 3.1073654519e+000	 2.3234920197e+000	-5.3483829535e-001
 3.0816341527e+000	 2.3575127849e+000	-5.6016623913e-001
 3.0555112394e+000	 2.3912731157e+000	-5.8448460194e-001
 3.0290006544e+000	 2.4247663031e+000	-6.0722733184e-001
 3.0021064920e+000	 2.4579857176e+000	-6.2765720285e-001
 2.9748329967e+000	 2.4909248134e+000	-6.4484792771e-001
 2.9471845612e+000	 2.5235771331e+000	-6.5766721224e-001
 2.9191657236e+000	 2.5559363111e+000	-6.6476092246e-001
 2.8907811656e+000	 2.5879960783e+000	-6.6453853024e-001
 3.1793380667e+000	 2.2701910710e+000	-4.7380589569e-001
 3.1542298338e+000	 2.3049495177e+000	-4.9954109528e-001
 3.1287198239e+000	 2.3394594730e+000	-5.2503156397e-001
 3.1028116945e+000	 2.3737140351e+000	-5.5006875091e-001
 3.0765092600e+000	 2.4077063729e+000	-5.7430756754e-001
 3.0498164895e+000	 2.4414297315e+000	-5.9724603182e-001
 3.0227375055e+000	 2.4748774357e+000	-6.1820551798e-001
 2.9952765819e+000	 2.5080428949e+000	-6.3631179786e-001
 2.9674381414e+000	 2.5409196071e+000	-6.5047705706e-001
 2.9392267533e+000	 2.5735011632e+000	-6.5938306551e-001
 2.9106471315e+000	 2.6057812509e+000	-6.6146567604e-001
 3.2010379221e+000	 2.2856857484e+000	-4.6715323140e-001
 3.1757583185e+000	 2.3206814311e+000	-4.9218690735e-001
 3.1500741959e+000	 2.3554269264e+000	-5.1698568294e-001
 3.1239892364e+000	 2.3899152852e+000	-5.4144263790e-001
 3.0975072805e+000	 2.4241396301e+000	-5.6531098422e-001
 3.0706323245e+000	 2.4580931598e+000	-5.8818250223e-001
 3.0433685191e+000	 2.4917691538e+000	-6.0946659930e-001
 3.0157201671e+000	 2.5251609764e+000	-6.2837018573e-001
 2.9876917216e+000	 2.5582620812e+000	-6.4387856008e-001
 2.9592877831e+000	 2.5910660154e+000	-6.5473749176e-001
 2.9305130975e+000	 2.6235664236e+000	-6.5943668313e-001
 2.7318534379e+000	 2.4457146975e+000	-6.9619052556e-001
 2.7046924333e+000	 2.4757186428e+000	-6.9689678888e-001
 2.6771951619e+000	 2.5054281689e+000	-7.1028817568e-001
 2.6493664393e+000	 2.5348376517e+000	-7.3394151479e-001
 2.6212112056e+000	 2.5639415729e+000	-7.5787944106e-001
 2.5927345231e+000	 2.5927345231e+000	-7.8117024371e-001
 2.5639415729e+000	 2.6212112056e+000	-8.0376716282e-001
 2.5348376517e+000	 2.6493664393e+000	-8.2549322068e-001
 2.5054281689e+000	 2.6771951619e+000	-8.4574244752e-001
 2.4757186428e+000	 2.7046924333e+000	-8.6148648947e-001
 2.4457146975e+000	 2.7318534379e+000	-8.7212114597e-001
 2.7517194038e+000	 2.4634998701e+000	-6.9423652344e-001
 2.7243608852e+000	 2.4937220033e+000	-6.9208566136e-001
 2.6966636544e+000	 2.5236475763e+000	-7.0135508037e-001
 2.6686325620e+000	 2.5532709241e+000	-7.2248689736e-001
 2.6402725842e+000	 2.5825864882e+000	-7.4972956901e-001
 2.6115888200e+000	 2.6115888200e+000	-7.7551061209e-001
 2.5825864882e+000	 2.6402725842e+000	-7.9991820188e-001
 2.5532709241e+000	 2.6686325620e+000	-8.2291876864e-001
 2.5236475763e+000	 2.6966636544e+000	-8.4225258740e-001
 2.4937220033e+000	 2.7243608852e+000	-8.5648680942e-001
 2.4634998701e+000	 2.7517194038e+000	-8.6598793327e-001
 2.7715853698e+000	 2.4812850427e+000	-6.9109011205e-001
 2.7440293370e+000	 2.5117253638e+000	-6.8686120200e-001
 2.7161321468e+000	 2.5418669837e+000	-6.9284379554e-001
 2.6878986846e+000	 2.5717041965e+000	-7.0965858847e-001
 2.6593339627e+000	 2.6012314035e+000	-7.3720297129e-001
 2.6304431169e+000	 2.6304431169e+000	-7.6614070259e-001
 2.6012314035e+000	 2.6593339627e+000	-7.9288283849e-001
 2.5717041965e+000	 2.6878986846e+000	-8.1646626444e-001
 2.5418669837e+000	 2.7161321468e+000	-8.3449451101e-001
 2.5117253638e+000	 2.7440293370e+000	-8.4733351504e-001
 2.4812850427e+000	 2.7715853698e+000	-8.5551908708e-001
 2.7914513357e+000	 2.4990702153e+000	-6.8707470113e-001
 2.7636977889e+000	 2.5297287243e+000	-6.8150984033e-001
 2.7356006392e+000	 2.5600863910e+000	-6.8501797612e-001
 2.7071648073e+000	 2.5901374688e+000	-6.9835319198e-001
 2.6783953413e+000	 2.6198763188e+000	-7.2198576890e-001
 2.6492974138e+000	 2.6492974138e+000	-7.5365406216e-001
 2.6198763188e+000	 2.6783953413e+000	-7.8298881979e-001
 2.5901374688e+000	 2.7071648073e+000	-8.0629697449e-001
 2.5600863910e+000	 2.7356006392e+000	-8.2345476358e-001
 2.5297287243e+000	 2.7636977889e+000	-8.3509477686e-001
 2.4990702153e+000	 2.7914513357e+000	-8.4188516963e-001
 2.8113173017e+000	 2.5168553879e+000	-6.8250436238e-001
 2.7833662407e+000	 2.5477320848e+000	-6.7630940144e-001
 2.7550691316e+000	 2.5783057984e+000	-6.7813313142e-001
 2.7264309300e+000	 2.6085707412e+000	-6.8881885489e-001
 2.6974567199e+000	 2.6385212342e+000	-7.0891186176e-001
 2.6681517107e+000	 2.6681517107e+000	-7.3864530768e-001
 2.6385212342e+000	 2.6974567199e+000	-7.6970104675e-001
 2.6085707412e+000	 2.7264309300e+000	-7.9327984448e-001
 2.5783057984e+000	 2.7550691316e+000	-8.1006195842e-001
 2.5477320848e+000	 2.7833662407e+000	-8.2077817736e-001
 2.5168553879e+000	 2.8113173017e+000	-8.2619290648e-001
 2.8311832677e+000	 2.5346405605e+000	-6.7768222265e-001
 2.8030346926e+000	 2.5657354453e+000	-6.7152743352e-001
 2.7745376241e+000	 2.5965252058e+000	-6.7243490081e-001
 2.7456970527e+000	 2.6270040136e+000	-6.8129397771e-001
 2.7165180985e+000	 2.6571661495e+000	-6.9868214636e-001
 2.6870060076e+000	 2.6870060076e+000	-7.2393834386e-001
 2.6571661495e+000	 2.7165180985e+000	-7.5366336647e-001
 2.6270040136e+000	 2.7456970527e+000	-7.7822948891e-001
 2.5965252058e+000	 2.7745376241e+000	-7.9518835238e-001
 2.5657354453e+000	 2.8030346926e+000	-8.0533236542e-001
 2.5346405605e+000	 2.8311832677e+000	-8.0948693791e-001
 2.8510492336e+000	 2.5524257331e+000	-6.7289886363e-001
 2.8227031444e+000	 2.5837388058e+000	-6.6741954375e-001
 2.7940061165e+000	 2.6147446132e+000	-6.6815733942e-001
 2.7649631754e+000	 2.6454372859e+000	-6.7600546419e-001
 2.7355794770e+000	 2.6758110648e+000	-6.9135023338e-001
 2.7058603045e+000	 2.7058603045e+000	-7.1166112786e-001
 2.6758110648e+000	 2.7355794770e+000	-7.3621710553e-001
 2.6454372859e+000	 2.7649631754e+000	-7.6190771219e-001
 2.6147446132e+000	 2.7940061165e+000	-7.7965142643e-001
 2.5837388058e+000	 2.8227031444e+000	-7.8964871251e-001
 2.5524257331e+000	 2.8510492336e+000	-7.9275156765e-001
 2.8709151996e+000	 2.5702109057e+000	-6.6843072780e-001
 2.8423715963e+000	 2.6017421663e+000	-6.6422774226e-001
 2.8134746089e+000	 2.6329640206e+000	-6.6552121308e-001
 2.7842292981e+000	 2.6638705583e+000	-6.7316698127e-001
 2.7546408556e+000	 2.6944559801e+000	-6.8604517490e-001
 2.7247146013e+000	 2.7247146013e+000	-7.0217834603e-001
 2.6944559801e+000	 2.7546408556e+000	-7.2180881509e-001
 2.6638705583e+000	 2.7842292981e+000	-7.4502503713e-001
 2.6329640206e+000	 2.8134746089e+000	-7.6421547103e-001
 2.6017421663e+000	 2.8423715963e+000	-7.7456297047e-001
 2.5702109057e+000	 2.8709151996e+000	-7.7691250943e-001
 2.8907811656e+000	 2.5879960783e+000	-6.6453853024e-001
 2.8620400481e+000	 2.6197455268e+000	-6.6217879380e-001
 2.8329431013e+000	 2.6511834280e+000	-6.6473230225e-001
 2.8034954208e+000	 2.6823038307e+000	-6.7247155081e-001
 2.7737022342e+000	 2.7131008954e+000	-6.8288325536e-001
 2.7435688982e+000	 2.7435688982e+000	-6.9581123984e-001
 2.7131008954e+000	 2.7737022342e+000	-7.1146436095e-001
 2.6823038307e+000	 2.8034954208e+000	-7.2993484500e-001
 2.6511834280e+000	 2.8329431013e+000	-7.4959317611e-001
 2.6197455268e+000	 2.8620400481e+000	-7.6085693092e-001
 2.5879960783e+000	 2.8907811656e+000	-7.6283863129e-001
 2.9106471315e+000	 2.6057812509e+000	-6.6146567604e-001
 2.8817085000e+000	 2.6377488873e+000	-6.6148257654e-001
 2.8524115938e+000	 2.6694028354e+000	-6.6596500683e-001
 2.8227615435e+000	 2.7007371031e+000	-6.7327086058e-001
 2.7927636128e+000	 2.7317458107e+000	-6.8214349965e-001
 2.7624231951e+000	 2.7624231951e+000	-6.9283867277e-001
 2.7317458107e+000	 2.7927636128e+000	-7.0547738084e-001
 2.7007371031e+000	 2.8227615435e+000	-7.2006244376e-001
 2.6694028354e+000	 2.8524115938e+000	-7.3649536038e-001
 2.6377488873e+000	 2.8817085000e+000	-7.4926008612e-001
 2.6057812509e+000	 2.9106471315e+000	-7.5134369772e-001
 2.9305130975e+000	 2.6235664236e+000	-6.5943668313e-001
 2.9013769518e+000	 2.6557522478e+000	-6.6233044801e-001
 2.8718800862e+000	 2.6876222428e+000	-6.6857355627e-001
 2.8420276662e+000	 2.7191703754e+000	-6.7579987160e-001
 2.8118249913e+000	 2.7503907261e+000	-6.8406378762e-001
 2.7812774920e+000	 2.7812774920e+000	-6.9349820581e-001
 2.7503907261e+000	 2.8118249913e+000	-7.0409965686e-001
 2.7191703754e+000	 2.8420276662e+000	-7.1574585351e-001
 2.6876222428e+000	 2.8718800862e+000	-7.2821353075e-001
 2.6557522478e+000	 2.9013769518e+000	-7.4045129127e-001
 2.6235664236e+000	 2.9305130975e+000	-7.4318810990e-001
 2.4457146975e+000	 2.7318534379e+000	-8.7212114597e-001
 2.4154174939e+000	 2.7586774858e+000	-8.7898474271e-001
 2.3848373405e+000	 2.7851559196e+000	-8.8231950333e-001
 2.3539801615e+000	 2.8112843151e+000	-8.8076591209e-001
 2.3228519726e+000	 2.8370583836e+000	-8.7307827403e-001
 2.2914588763e+000	 2.8624739740e+000	-8.5812650066e-001
 2.2598070584e+000	 2.8875270751e+000	-8.3489742855e-001
 2.2279027839e+000	 2.9122138177e+000	-8.0249568355e-001
 2.1957523930e+000	 2.9365304761e+000	-7.6014410734e-001
 2.1633622969e+000	 2.9604734706e+000	-7.0718376595e-001
 2.1307389737e+000	 2.9840393683e+000	-6.4307356306e-001
 2.4634998701e+000	 2.7517194038e+000	-8.6598793327e-001
 2.4329823461e+000	 2.7787385155e+000	-8.7269590138e-001
 2.4021798145e+000	 2.8054094998e+000	-8.7708940140e-001
 2.3710982430e+000	 2.8317279003e+000	-8.7747116634e-001
 2.3397436907e+000	 2.8576893972e+000	-8.7226877759e-001
 2.3081223046e+000	 2.8832898091e+000	-8.6003692070e-001
 2.2762403155e+000	 2.9085250957e+000	-8.3945913471e-001
 2.2441040340e+000	 2.9333913595e+000	-8.0934906827e-001
 2.2117198463e+000	 2.9578848481e+000	-7.6865125934e-001
 2.1790942103e+000	 2.9820019554e+000	-7.1644145867e-001
 2.1462336512e+000	 3.0057392237e+000	-6.5192652082e-001
 2.4812850427e+000	 2.7715853698e+000	-8.5551908708e-001
 2.4505471982e+000	 2.7987995452e+000	-8.6168109079e-001
 2.4195222886e+000	 2.8256630800e+000	-8.6669062171e-001
 2.3882163245e+000	 2.8521714855e+000	-8.6857571206e-001
 2.3566354088e+000	 2.8783204107e+000	-8.6549824189e-001
 2.3247857330e+000	 2.9041056441e+000	-8.5575656157e-001
 2.2926735727e+000	 2.9295231162e+000	-8.3778757212e-001
 2.2603052841e+000	 2.9545689014e+000	-8.1016827671e-001
 2.2276872997e+000	 2.9792392201e+000	-7.7161682071e-001
 2.1948261237e+000	 3.0035304402e+000	-7.2099304145e-001
 2.1617283286e+000	 3.0274390790e+000	-6.5729855218e-001
 2.4990702153e+000	 2.7914513357e+000	-8.4188516963e-001
 2.4681120504e+000	 2.8188605750e+000	-8.4721052728e-001
 2.4368647627e+000	 2.8459166602e+000	-8.5246533248e-001
 2.4053344060e+000	 2.8726150707e+000	-8.5546473962e-001
 2.3735271269e+000	 2.8989514243e+000	-8.5416475875e-001
 2.3414491613e+000	 2.9249214792e+000	-8.4666514260e-001
 2.3091068299e+000	 2.9505211367e+000	-8.3121169869e-001
 2.2765065343e+000	 2.9757464433e+000	-8.0619804051e-001
 2.2436547530e+000	 3.0005935921e+000	-7.7016679591e-001
 2.2105580372e+000	 3.0250589250e+000	-7.2181029471e-001
 2.1772230061e+000	 3.0491389344e+000	-6.5997076148e-001
 2.5168553879e+000	 2.8113173017e+000	-8.2619290648e-001
 2.4856769025e+000	 2.8389216047e+000	-8.3048741609e-001
 2.4542072368e+000	 2.8661702404e+000	-8.3568629882e-001
 2.4224524875e+000	 2.8930586559e+000	-8.3945246450e-001
 2.3904188451e+000	 2.9195824378e+000	-8.3959473088e-001
 2.3581125897e+000	 2.9457373142e+000	-8.3407087373e-001
 2.3255400870e+000	 2.9715191573e+000	-8.2099007248e-001
 2.2927077844e+000	 2.9969239852e+000	-7.9861476602e-001
 2.2596222063e+000	 3.0219479640e+000	-7.6536193783e-001
 2.2262899506e+000	 3.0465874098e+000	-7.1980385379e-001
 2.1927176836e+000	 3.0708387898e+000	-6.6066827987e-001
 2.5346405605e+000	 2.8311832677e+000	-8.0948693791e-001
 2.5032417546e+000	 2.8589826344e+000	-8.1264979397e-001
 2.4715497108e+000	 2.8864238206e+000	-8.1755878640e-001
 2.4395705690e+000	 2.9135022411e+000	-8.2178406058e-001
 2.4073105632e+000	 2.9402134514e+000	-8.2304480187e-001
 2.3747760180e+000	 2.9665531493e+000	-8.1921234835e-001
 2.3419733442e+000	 2.9925171778e+000	-8.0831267232e-001
 2.3089090345e+000	 3.0181015271e+000	-7.8852824635e-001
 2.2755896597e+000	 3.0433023360e+000	-7.5819931416e-001
 2.2420218640e+000	 3.0681158946e+000	-7.1582459129e-001
 2.2082123611e+000	 3.0925386452e+000	-6.6006142431e-001
 2.5524257331e+000	 2.8510492336e+000	-7.9275156765e-001
 2.5208066068e+000	 2.8790436642e+000	-7.9477236535e-001
 2.4888921849e+000	 2.9066774008e+000	-7.9922245589e-001
 2.4566886504e+000	 2.9339458263e+000	-8.0363758244e-001
 2.4242022813e+000	 2.9608444649e+000	-8.0570377502e-001
 2.3914394464e+000	 2.9873689843e+000	-8.0326042602e-001
 2.3584066014e+000	 3.0135151984e+000	-7.9430271072e-001
 2.3251102847e+000	 3.0392790689e+000	-7.7698336976e-001
 2.2915571130e+000	 3.0646567080e+000	-7.4961387537e-001
 2.2577537774e+000	 3.0896443794e+000	-7.1066500794e-001
 2.2237070385e+000	 3.1142385006e+000	-6.5876687362e-001
 2.5702109057e+000	 2.8709151996e+000	-7.7691250943e-001
 2.5383714589e+000	 2.8991046939e+000	-7.7786833237e-001
 2.5062346590e+000	 2.9269309810e+000	-7.8175324848e-001
 2.4738067319e+000	 2.9543894115e+000	-7.8612587738e-001
 2.4410939994e+000	 2.9814754785e+000	-7.8869452153e-001
 2.4081028747e+000	 3.0081848194e+000	-7.8732010550e-001
 2.3748398586e+000	 3.0345132189e+000	-7.8001843934e-001
 2.3413115348e+000	 3.0604566108e+000	-7.6496182424e-001
 2.3075245664e+000	 3.0860110799e+000	-7.4048002408e-001
 2.2734856908e+000	 3.1111728642e+000	-7.0506063138e-001
 2.2392017160e+000	 3.1359383559e+000	-6.5734886049e-001
 2.5879960783e+000	 2.8907811656e+000	-7.6283863129e-001
 2.5559363111e+000	 2.9191657236e+000	-7.6289121902e-001
 2.5235771331e+000	 2.9471845612e+000	-7.6616526304e-001
 2.4909248134e+000	 2.9748329967e+000	-7.7029848756e-001
 2.4579857176e+000	 3.0021064920e+000	-7.7307587855e-001
 2.4247663031e+000	 3.0290006544e+000	-7.7243238865e-001
 2.3912731157e+000	 3.0555112394e+000	-7.6645494766e-001
 2.3575127849e+000	 3.0816341527e+000	-7.5338379878e-001
 2.3234920197e+000	 3.1073654519e+000	-7.3161318587e-001
 2.2892176042e+000	 3.1327013490e+000	-6.9969142264e-001
 2.2546963935e+000	 3.1576382113e+000	-6.5632037883e-001
 2.6057812509e+000	 2.9106471315e+000	-7.5134369772e-001
 2.5735011632e+000	 2.9392267533e+000	-7.5073668971e-001
 2.5409196071e+000	 2.9674381414e+000	-7.5341262523e-001
 2.5080428949e+000	 2.9952765819e+000	-7.5714354267e-001
 2.4748774357e+000	 3.0227375055e+000	-7.5984453756e-001
 2.4414297315e+000	 3.0498164895e+000	-7.5957613550e-001
 2.4077063729e+000	 3.0765092600e+000	-7.5454595483e-001
 2.3737140351e+000	 3.1028116945e+000	-7.4310968117e-001
 2.3394594730e+000	 3.1287198239e+000	-7.2377138136e-001
 2.3049495177e+000	 3.1542298338e+000	-6.9518318991e-001
 2.2701910710e+000	 3.1793380667e+000	-6.5614440579e-001
 2.6235664236e+000	 2.9305130975e+000	-7.4318810990e-001
 2.5910660154e+000	 2.9592877831e+000	-7.4224436257e-001
 2.5582620812e+000	 2.9876917216e+000	-7.4439134898e-001
 2.5251609764e+000	 3.0157201671e+000	-7.4758964378e-001
 2.4917691538e+000	 3.0433685191e+000	-7.4993692360e-001
 2.4580931598e+000	 3.0706323245e+000	-7.4966991107e-001
 2.4241396301e+000	 3.0975072805e+000	-7.4516559528e-001
 2.3899152852e+000	 3.1239892364e+000	-7.3494175283e-001
 2.3554269264e+000	 3.1500741959e+000	-7.1765679964e-001
 2.3206814311e+000	 3.1757583185e+000	-6.9210900918e-001
 2.2856857484e+000	 3.2010379221e+000	-6.5723513752e-001
 2.1307389737e+000	 2.9840393683e+000	-6.4307356306e-001
 2.0978889635e+000	 3.0072248842e+000	-5.8897868129e-001
 2.0648188619e+000	 3.0300268800e+000	-5.6914406858e-001
 2.0315353184e+000	 3.0524423675e+000	-5.8765512179e-001
 1.9980450323e+000	 3.0744685107e+000	-6.4835105437e-001
 1.9643547489e+000	 3.0961026268e+000	-7.1191922607e-001
 1.9304712547e+000	 3.1173421865e+000	-7.4862638532e-001
 1.8964013734e+000	 3.1381848154e+000	-7.6376119852e-001
 1.8621519615e+000	 3.1586282936e+000	-7.6270417863e-001
 1.8277299040e+000	 3.1786705568e+000	-7.5087379522e-001
 1.7931421101e+000	 3.1983096960e+000	-7.3367508739e-001
 2.1462336512e+000	 3.0057392237e+000	-6.5192652082e-001
 2.1131447565e+000	 3.0290933441e+000	-5.9467800187e-001
 2.0798341701e+000	 3.0520611554e+000	-5.6763170019e-001
 2.0463085895e+000	 3.0746396477e+000	-5.7505391465e-001
 2.0125747630e+000	 3.0968259644e+000	-6.2109177214e-001
 1.9786394847e+000	 3.1186174032e+000	-6.9434319640e-001
 1.9445095906e+000	 3.1400114165e+000	-7.4222325479e-001
 1.9101919540e+000	 3.1610056124e+000	-7.6491290265e-001
 1.8756934813e+000	 3.1815977550e+000	-7.6808857053e-001
 1.8410211076e+000	 3.2017857650e+000	-7.5745416486e-001
 1.8061817922e+000	 3.2215677195e+000	-7.3868757422e-001
 2.1617283286e+000	 3.0274390790e+000	-6.5729855218e-001
 2.1284005496e+000	 3.0509618039e+000	-5.9842997993e-001
 2.0948494782e+000	 3.0740954307e+000	-5.6586347489e-001
 2.0610818606e+000	 3.0968369279e+000	-5.6398887912e-001
 2.0271044936e+000	 3.1191834182e+000	-5.9707353016e-001
 1.9929242205e+000	 3.1411321796e+000	-6.6758744129e-001
 1.9585479265e+000	 3.1626806464e+000	-7.2810048533e-001
 1.9239825346e+000	 3.1838264094e+000	-7.5967659680e-001
 1.8892350011e+000	 3.2045672165e+000	-7.6824931429e-001
 1.8543123111e+000	 3.2249009733e+000	-7.5977113277e-001
 1.8192214742e+000	 3.2448257431e+000	-7.4015789309e-001
 2.1772230061e+000	 3.0491389344e+000	-6.5997076148e-001
 2.1436563427e+000	 3.0728302637e+000	-6.0082174376e-001
 2.1098647864e+000	 3.0961297061e+000	-5.6426383489e-001
 2.0758551317e+000	 3.1190342081e+000	-5.5475426982e-001
 2.0416342243e+000	 3.1415408719e+000	-5.7662662879e-001
 2.0072089563e+000	 3.1636469561e+000	-6.3408287458e-001
 1.9725862624e+000	 3.1853498764e+000	-7.0691221592e-001
 1.9377731153e+000	 3.2066472063e+000	-7.4867042296e-001
 1.9027765210e+000	 3.2275366779e+000	-7.6380704647e-001
 1.8676035146e+000	 3.2480161815e+000	-7.5848748510e-001
 1.8322611562e+000	 3.2680837666e+000	-7.3883172759e-001
 2.1927176836e+000	 3.0708387898e+000	-6.6066827987e-001
 2.1589121357e+000	 3.0946987236e+000	-6.0238975449e-001
 2.1248800946e+000	 3.1181639814e+000	-5.6321102402e-001
 2.0906284029e+000	 3.1412314882e+000	-5.4760174664e-001
 2.0561639549e+000	 3.1638983256e+000	-5.5990892572e-001
 2.0214936921e+000	 3.1861617325e+000	-6.0434864190e-001
 1.9866245983e+000	 3.2080191063e+000	-6.7931992203e-001
 1.9515636959e+000	 3.2294680033e+000	-7.3251843999e-001
 1.9163180408e+000	 3.2505061393e+000	-7.5538601677e-001
 1.8808947182e+000	 3.2711313898e+000	-7.5426641471e-001
 1.8453008382e+000	 3.2913417901e+000	-7.3545104104e-001
 2.2082123611e+000	 3.0925386452e+000	-6.6006142431e-001
 2.1741679288e+000	 3.1165671834e+000	-6.0362073548e-001
 2.1398954027e+000	 3.1401982568e+000	-5.6303781517e-001
 2.1054016740e+000	 3.1634287684e+000	-5.4274092911e-001
 2.0706936855e+000	 3.1862557793e+000	-5.4703880725e-001
 2.0357784278e+000	 3.2086765089e+000	-5.8011212857e-001
 2.0006629342e+000	 3.2306883363e+000	-6.4600524706e-001
 1.9653542766e+000	 3.2522888003e+000	-7.1184969827e-001
 1.9298595606e+000	 3.2734756007e+000	-7.4361313721e-001
 1.8941859217e+000	 3.2942465980e+000	-7.4777058322e-001
 1.8583405202e+000	 3.3145998137e+000	-7.3075319027e-001
 2.2237070385e+000	 3.1142385006e+000	-6.5876687362e-001
 2.1894237219e+000	 3.1384356433e+000	-6.0495262717e-001
 2.1549107109e+000	 3.1622325321e+000	-5.6403227065e-001
 2.1201749451e+000	 3.1856260486e+000	-5.4033999012e-001
 2.0852234162e+000	 3.2086132330e+000	-5.3809564392e-001
 2.0500631636e+000	 3.2311912853e+000	-5.6139605686e-001
 2.0147012702e+000	 3.2533575662e+000	-6.1420654472e-001
 1.9791448572e+000	 3.2751095973e+000	-6.8729736463e-001
 1.9434010804e+000	 3.2964450622e+000	-7.2911708098e-001
 1.9074771252e+000	 3.3173618062e+000	-7.3966123017e-001
 1.8713802022e+000	 3.3378578372e+000	-7.2544146436e-001
 2.2392017160e+000	 3.1359383559e+000	-6.5734886049e-001
 2.2046795149e+000	 3.1603041031e+000	-6.0677556633e-001
 2.1699260190e+000	 3.1842668075e+000	-5.6643853404e-001
 2.1349482162e+000	 3.2078233288e+000	-5.4052628684e-001
 2.0997531468e+000	 3.2309706867e+000	-5.3312028825e-001
 2.0643478994e+000	 3.2537060618e+000	-5.4818610080e-001
 2.0287396061e+000	 3.2760267961e+000	-5.8956475940e-001
 1.9929354379e+000	 3.2979303943e+000	-6.5949789520e-001
 1.9569426003e+000	 3.3194145236e+000	-7.1252742832e-001
 1.9207683288e+000	 3.3404770145e+000	-7.3053832894e-001
 1.8844198842e+000	 3.3611158607e+000	-7.1937103130e-001
 2.2546963935e+000	 3.1576382113e+000	-6.5632037883e-001
 2.2199353080e+000	 3.1821725629e+000	-6.0943288847e-001
 2.1849413272e+000	 3.2063010828e+000	-5.7045765200e-001
 2.1497214873e+000	 3.2300206090e+000	-5.4338702724e-001
 2.1142828775e+000	 3.2533281404e+000	-5.3211561223e-001
 2.0786326352e+000	 3.2762208382e+000	-5.4043132220e-001
 2.0427779420e+000	 3.2986960261e+000	-5.7200666056e-001
 2.0067260185e+000	 3.3207511913e+000	-6.3039024566e-001
 1.9704841201e+000	 3.3423839850e+000	-6.9439992030e-001
 1.9340595323e+000	 3.3635922227e+000	-7.2031553031e-001
 1.8974595662e+000	 3.3843738843e+000	-7.1318778463e-001
 2.2701910710e+000	 3.1793380667e+000	-6.5614440579e-001
 2.2351911011e+000	 3.2040410228e+000	-6.1322215231e-001
 2.1999566354e+000	 3.2283353582e+000	-5.7624842450e-001
 2.1644947584e+000	 3.2522178891e+000	-5.4896997034e-001
 2.1288126081e+000	 3.2756855941e+000	-5.3504708290e-001
 2.0929173710e+000	 3.2987356146e+000	-5.3804464762e-001
 2.0568162779e+000	 3.3213652560e+000	-5.6142335837e-001
 2.0205165991e+000	 3.3435719883e+000	-6.0846374538e-001
 1.9840256399e+000	 3.3653534464e+000	-6.7481104011e-001
 1.9473507358e+000	 3.3867074309e+000	-7.0977354994e-001
 1.9104992482e+000	 3.4076319078e+000	-7.0805681819e-001
 2.2856857484e+000	 3.2010379221e+000	-6.5723513752e-001
 2.2504468941e+000	 3.2259094826e+000	-6.1839618526e-001
 2.2149719435e+000	 3.2503696335e+000	-5.8392828220e-001
 2.1792680296e+000	 3.2744151693e+000	-5.5728415878e-001
 2.1433423388e+000	 3.2980430479e+000	-5.4184337413e-001
 2.1072021068e+000	 3.3212503911e+000	-5.4090338445e-001
 2.0708546138e+000	 3.3440344860e+000	-5.5762694283e-001
 2.0343071798e+000	 3.3663927853e+000	-5.9470415174e-001
 1.9975671597e+000	 3.3883229079e+000	-6.5463056756e-001
 1.9606419394e+000	 3.4098226392e+000	-7.0000450972e-001
 1.9235389302e+000	 3.4308899314e+000	-7.0512664507e-001
 1.7931421101e+000	 3.1983096960e+000	-7.3367508739e-001
 1.7584007324e+000	 3.2175411036e+000	-7.0894502852e-001
 1.7235075382e+000	 3.2363661604e+000	-6.7258265206e-001
 1.6884694823e+000	 3.2547834267e+000	-6.2707671069e-001
 1.6532935261e+000	 3.2727916178e+000	-5.7491629623e-001
 1.6179866343e+000	 3.2903896030e+000	-5.1855710792e-001
 1.5825557699e+000	 3.3075764053e+000	-4.6039087264e-001
 1.5470078906e+000	 3.3243512004e+000	-4.0271798476e-001
 1.5113499448e+000	 3.3407133163e+000	-3.4764154299e-001
 1.4755888670e+000	 3.3566622317e+000	-2.9679599344e-001
 1.4397315747e+000	 3.3721975751e+000	-2.5248579920e-001
 1.8061817922e+000	 3.2215677195e+000	-7.3868757422e-001
 1.7711877760e+000	 3.2409389774e+000	-7.1114390900e-001
 1.7360408395e+000	 3.2599009295e+000	-6.7214646693e-001
 1.7007479877e+000	 3.2784521257e+000	-6.2429976647e-001
 1.6653162329e+000	 3.2965912719e+000	-5.7019842292e-001
 1.6297525903e+000	 3.3143172292e+000	-5.1239232592e-001
 1.5940640736e+000	 3.3316290134e+000	-4.5335514151e-001
 1.5582576911e+000	 3.3485257945e+000	-3.9507036634e-001
 1.5223404416e+000	 3.3650068952e+000	-3.3947960698e-001
 1.4863193103e+000	 3.3810717907e+000	-2.8918261310e-001
 1.4502012647e+000	 3.3967201067e+000	-2.4673730973e-001
 1.8192214742e+000	 3.2448257431e+000	-7.4015789309e-001
 1.7839748197e+000	 3.2643368512e+000	-7.1030659619e-001
 1.7485741407e+000	 3.2834356986e+000	-6.6903961561e-001
 1.7130264931e+000	 3.3021208248e+000	-6.1911783518e-001
 1.6773389397e+000	 3.3203909260e+000	-5.6327889524e-001
 1.6415185463e+000	 3.3382448554e+000	-5.0415538968e-001
 1.6055723773e+000	 3.3556816216e+000	-4.4359026659e-001
 1.5695074916e+000	 3.3727003885e+000	-3.8406779805e-001
 1.5333309384e+000	 3.3893004741e+000	-3.2837912843e-001
 1.4970497535e+000	 3.4054813497e+000	-2.7927666981e-001
 1.4606709546e+000	 3.4212426383e+000	-2.3945566072e-001
 1.8322611562e+000	 3.2680837666e+000	-7.3883172759e-001
 1.7967618633e+000	 3.2877347250e+000	-7.0726936681e-001
 1.7611074420e+000	 3.3069704678e+000	-6.6416257239e-001
 1.7253049986e+000	 3.3257895238e+000	-6.1246862468e-001
 1.6893616465e+000	 3.3441905801e+000	-5.5488602975e-001
 1.6532845023e+000	 3.3621724816e+000	-4.9342745943e-001
 1.6170806810e+000	 3.3797342297e+000	-4.3100135613e-001
 1.5807572920e+000	 3.3968749825e+000	-3.7061387375e-001
 1.5443214353e+000	 3.4135940530e+000	-3.1524017384e-001
 1.5077801967e+000	 3.4298909086e+000	-2.6780383295e-001
 1.4711406446e+000	 3.4457651699e+000	-2.3115832240e-001
 1.8453008382e+000	 3.2913417901e+000	-7.3545104104e-001
 1.8095489069e+000	 3.3111325989e+000	-7.0286067521e-001
 1.7736407432e+000	 3.3305052369e+000	-6.5840488462e-001
 1.7375835040e+000	 3.3494582228e+000	-6.0481697759e-001
 1.7013843533e+000	 3.3679902342e+000	-5.4451688548e-001
 1.6650504584e+000	 3.3861001078e+000	-4.8074371837e-001
 1.6285889847e+000	 3.4037868379e+000	-4.1675209734e-001
 1.5920070925e+000	 3.4210495765e+000	-3.5577320386e-001
 1.5553119321e+000	 3.4378876319e+000	-3.0099181200e-001
 1.5185106399e+000	 3.4543004676e+000	-2.5552555164e-001
 1.4816103345e+000	 3.4702877015e+000	-2.2240633438e-001
 1.8583405202e+000	 3.3145998137e+000	-7.3075319027e-001
 1.8223359506e+000	 3.3345304727e+000	-6.9789792781e-001
 1.7861740445e+000	 3.3540400061e+000	-6.5194540778e-001
 1.7498620094e+000	 3.3731269218e+000	-5.9585005799e-001
 1.7134070602e+000	 3.3917898883e+000	-5.3314040553e-001
 1.6768164144e+000	 3.4100277339e+000	-4.6735728051e-001
 1.6400972884e+000	 3.4278394461e+000	-4.0202577186e-001
 1.6032568930e+000	 3.4452241706e+000	-3.4062963363e-001
 1.5663024289e+000	 3.4621812108e+000	-2.8658809040e-001
 1.5292410832e+000	 3.4787100266e+000	-2.4323497784e-001
 1.4920800244e+000	 3.4948102331e+000	-2.1380014198e-001
 1.8713802022e+000	 3.3378578372e+000	-7.2544146436e-001
 1.8351229942e+000	 3.3579283465e+000	-6.9232108472e-001
 1.7987073457e+000	 3.3775747752e+000	-6.4481588326e-001
 1.7621405148e+000	 3.3967956208e+000	-5.8677083119e-001
 1.7254297670e+000	 3.4155895424e+000	-5.2205449607e-001
 1.6885823704e+000	 3.4339553601e+000	-4.5452792673e-001
 1.6516055921e+000	 3.4518920542e+000	-3.8801615649e-001
 1.6145066935e+000	 3.4693987646e+000	-3.2628228189e-001
 1.5772929258e+000	 3.4864747897e+000	-2.7300405869e-001
 1.5399715264e+000	 3.5031195856e+000	-2.3175294303e-001
 1.5025497144e+000	 3.5193327647e+000	-2.0597549408e-001
 1.8844198842e+000	 3.3611158607e+000	-7.1937103130e-001
 1.8479100378e+000	 3.3813262203e+000	-6.8653493652e-001
 1.8112406470e+000	 3.4011095443e+000	-6.3829288306e-001
 1.7744190203e+000	 3.4204643198e+000	-5.7888592987e-001
 1.7374524738e+000	 3.4393891965e+000	-5.1255678771e-001
 1.7003483264e+000	 3.4578829863e+000	-4.4351811680e-001
 1.6631138959e+000	 3.4759446624e+000	-3.7592358262e-001
 1.6257564939e+000	 3.4935733586e+000	-3.1384161956e-001
 1.5882834226e+000	 3.5107683686e+000	-2.6123183672e-001
 1.5507019696e+000	 3.5275291446e+000	-2.2192398594e-001
 1.5130194043e+000	 3.5438552963e+000	-1.9959939974e-001
 1.8974595662e+000	 3.3843738843e+000	-7.1318778463e-001
 1.8606970815e+000	 3.4047240942e+000	-6.8178078030e-001
 1.8237739482e+000	 3.4246443135e+000	-6.3365898471e-001
 1.7866975257e+000	 3.4441330188e+000	-5.7349554232e-001
 1.7494751806e+000	 3.4631888507e+000	-5.0594060328e-001
 1.7121142824e+000	 3.4818106125e+000	-4.3558903348e-001
 1.6746221996e+000	 3.4999972705e+000	-3.6695103027e-001
 1.6370062944e+000	 3.5177479526e+000	-3.0442558591e-001
 1.5992739195e+000	 3.5350619475e+000	-2.5227672519e-001
 1.5614324128e+000	 3.5519387036e+000	-2.1461242868e-001
 1.5234890943e+000	 3.5683778279e+000	-1.9536614054e-001
 1.9104992482e+000	 3.4076319078e+000	-7.0805681819e-001
 1.8734841251e+000	 3.4281219680e+000	-6.7928748969e-001
 1.8363072495e+000	 3.4481790826e+000	-6.3218484652e-001
 1.7989760311e+000	 3.4678017179e+000	-5.7188930792e-001
 1.7614978874e+000	 3.4869885048e+000	-5.0349095544e-001
 1.7238802385e+000	 3.5057382387e+000	-4.3199665748e-001
 1.6861305033e+000	 3.5240498787e+000	-3.6230025474e-001
 1.6482560949e+000	 3.5419225467e+000	-2.9915574099e-001
 1.6102644163e+000	 3.5593555264e+000	-2.4715335684e-001
 1.5721628561e+000	 3.5763482626e+000	-2.1069849920e-001
 1.5339587842e+000	 3.5929003595e+000	-1.9399333605e-001
 1.9235389302e+000	 3.4308899314e+000	-7.0512664507e-001
 1.8862711687e+000	 3.4515198418e+000	-6.8026716744e-001
 1.8488405507e+000	 3.4717138517e+000	-6.3512500701e-001
 1.8112545366e+000	 3.4914704169e+000	-5.7534224128e-001
 1.7735205942e+000	 3.5107881589e+000	-5.0648057258e-001
 1.7356461945e+000	 3.5296658649e+000	-4.3398787149e-001
 1.6976388070e+000	 3.5481024868e+000	-3.6316794456e-001
 1.6595058954e+000	 3.5660971407e+000	-2.9915345228e-001
 1.6212549131e+000	 3.5836491053e+000	-2.4688188611e-001
 1.5828932993e+000	 3.6007578216e+000	-2.1107449768e-001
 1.5444284742e+000	 3.6174228910e+000	-1.9621806000e-001
 1.4397315747e+000	 3.3721975751e+000	-2.5248579920e-001
 1.4037795652e+000	 3.3873213615e+000	-2.2748273546e-001
 1.3677450859e+000	 3.4020311558e+000	-2.3751889102e-001
 1.3316349834e+000	 3.4163270308e+000	-2.8895543804e-001
 1.2954560718e+000	 3.4302092034e+000	-3.3784986008e-001
 1.2592151286e+000	 3.4436780330e+000	-3.5119109524e-001
 1.2229188917e+000	 3.4567340197e+000	-3.3867726969e-001
 1.1865740558e+000	 3.4693778024e+000	-3.0949047578e-001
 1.1501872686e+000	 3.4816101568e+000	-2.7223175227e-001
 1.1137651284e+000	 3.4934319935e+000	-2.3486446490e-001
 1.0773141800e+000	 3.5048443553e+000	-2.0466566987e-001
 1.4502012647e+000	 3.3967201067e+000	-2.4673730973e-001
 1.4139878131e+000	 3.4119538729e+000	-2.2220117722e-001
 1.3776912920e+000	 3.4267706364e+000	-2.2841023390e-001
 1.3413185978e+000	 3.4411704707e+000	-2.7166345538e-001
 1.3048765941e+000	 3.4551535940e+000	-3.3077371506e-001
 1.2683721077e+000	 3.4687203686e+000	-3.5404675783e-001
 1.2318119256e+000	 3.4818712981e+000	-3.4908769416e-001
 1.1952027909e+000	 3.4946070260e+000	-3.2516013279e-001
 1.1585514001e+000	 3.5069283338e+000	-2.9092981162e-001
 1.1218643990e+000	 3.5188361386e+000	-2.5440895265e-001
 1.0851483803e+000	 3.5303314908e+000	-2.2290882843e-001
 1.4606709546e+000	 3.4212426383e+000	-2.3945566072e-001
 1.4241960610e+000	 3.4365863842e+000	-2.1632843568e-001
 1.3876374981e+000	 3.4515101171e+000	-2.1988430785e-001
 1.3510022122e+000	 3.4660139105e+000	-2.5625168687e-001
 1.3142971164e+000	 3.4800979847e+000	-3.1958836940e-001
 1.2775290868e+000	 3.4937627042e+000	-3.5278996152e-001
 1.2407049594e+000	 3.5070085764e+000	-3.5555903453e-001
 1.2038315261e+000	 3.5198362497e+000	-3.3722663255e-001
 1.1669155315e+000	 3.5322465108e+000	-3.0650861509e-001
 1.1299636695e+000	 3.5442402836e+000	-2.7145114485e-001
 1.0929825805e+000	 3.5558186262e+000	-2.3938461966e-001
 1.4711406446e+000	 3.4457651699e+000	-2.3115832240e-001
 1.4344043088e+000	 3.4612188956e+000	-2.1016134150e-001
 1.3975837042e+000	 3.4762495977e+000	-2.1202662980e-001
 1.3606858266e+000	 3.4908573503e+000	-2.4270247465e-001
 1.3237176387e+000	 3.5050423753e+000	-3.0487394599e-001
 1.2866860660e+000	 3.5188050398e+000	-3.4781586591e-001
 1.2495979933e+000	 3.5321458548e+000	-3.5830934803e-001
 1.2124602613e+000	 3.5450654733e+000	-3.4573762267e-001
 1.1752796629e+000	 3.5575646878e+000	-3.1885087963e-001
 1.1380629401e+000	 3.5696444287e+000	-2.8571305559e-001
 1.1008167807e+000	 3.5813057617e+000	-2.5365730252e-001
 1.4816103345e+000	 3.4702877015e+000	-2.2240633438e-001
 1.4446125567e+000	 3.4858514070e+000	-2.0404847192e-001
 1.4075299103e+000	 3.5009890783e+000	-2.0498239112e-001
 1.3703694410e+000	 3.5157007902e+000	-2.3096649098e-001
 1.3331381610e+000	 3.5299867659e+000	-2.8726768421e-001
 1.2958430451e+000	 3.5438473754e+000	-3.3958848819e-001
 1.2584910271e+000	 3.5572831332e+000	-3.5763714247e-001
 1.2210889964e+000	 3.5702946969e+000	-3.5083259737e-001
 1.1836437943e+000	 3.5828828648e+000	-3.2794231876e-001
 1.1461622107e+000	 3.5950485738e+000	-2.9703055008e-001
 1.1086509810e+000	 3.6067928972e+000	-2.6541549649e-001
 1.4920800244e+000	 3.4948102331e+000	-2.1380014198e-001
 1.4548208046e+000	 3.5104839184e+000	-1.9838588795e-001
 1.4174761164e+000	 3.5257285589e+000	-1.9895210504e-001
 1.3800530554e+000	 3.5405442300e+000	-2.2105731204e-001
 1.3425586833e+000	 3.5549311565e+000	-2.6977188408e-001
 1.3050000242e+000	 3.5688897110e+000	-3.2863252467e-001
 1.2673840610e+000	 3.5824204116e+000	-3.5391326472e-001
 1.2297177316e+000	 3.5955239206e+000	-3.5273486585e-001
 1.1920079257e+000	 3.6082010418e+000	-3.3386370295e-001
 1.1542614812e+000	 3.6204527189e+000	-3.0534550827e-001
 1.1164851812e+000	 3.6322800327e+000	-2.7446445929e-001
 1.5025497144e+000	 3.5193327647e+000	-2.0597549408e-001
 1.4650290525e+000	 3.5351164297e+000	-1.9361294175e-001
 1.4274223225e+000	 3.5504680395e+000	-1.9418733245e-001
 1.3897366698e+000	 3.5653876698e+000	-2.1304707081e-001
 1.3519792056e+000	 3.5798755472e+000	-2.5505546512e-001
 1.3141570033e+000	 3.5939320466e+000	-3.1552527294e-001
 1.2762770948e+000	 3.6075576900e+000	-3.4757289668e-001
 1.2383464667e+000	 3.6207531442e+000	-3.5174363441e-001
 1.2003720571e+000	 3.6335192188e+000	-3.3678303959e-001
 1.1623607518e+000	 3.6458568640e+000	-3.1069811372e-001
 1.1243193814e+000	 3.6577671681e+000	-2.8071849480e-001
 1.5130194043e+000	 3.5438552963e+000	-1.9959939974e-001
 1.4752373004e+000	 3.5597489411e+000	-1.9020815083e-001
 1.4373685286e+000	 3.5752075201e+000	-1.9098648220e-001
 1.3994202842e+000	 3.5902311097e+000	-2.0706219206e-001
 1.3613997279e+000	 3.6048199378e+000	-2.4308147426e-001
 1.3233139825e+000	 3.6189743822e+000	-3.0088865003e-001
 1.2851701287e+000	 3.6326949684e+000	-3.3910765354e-001
 1.2469752019e+000	 3.6459823679e+000	-3.4822619684e-001
 1.2087361885e+000	 3.6588373958e+000	-3.3694786684e-001
 1.1704600224e+000	 3.6712610090e+000	-3.1321926159e-001
 1.1321535817e+000	 3.6832543036e+000	-2.8419348514e-001
 1.5234890943e+000	 3.5683778279e+000	-1.9536614054e-001
 1.4854455482e+000	 3.5843814525e+000	-1.8868513582e-001
 1.4473147347e+000	 3.5999470007e+000	-1.8969068255e-001
 1.4091038986e+000	 3.6150745495e+000	-2.0327920536e-001
 1.3708202502e+000	 3.6297643284e+000	-2.3386945295e-001
 1.3324709616e+000	 3.6440167178e+000	-2.8538130176e-001
 1.2940631625e+000	 3.6578322468e+000	-3.2905777929e-001
 1.2556039371e+000	 3.6712115915e+000	-3.4261022780e-001
 1.2171003199e+000	 3.6841555728e+000	-3.3467765593e-001
 1.1785592929e+000	 3.6966651541e+000	-3.1312308005e-001
 1.1399877819e+000	 3.7087414391e+000	-2.8499954075e-001
 1.5339587842e+000	 3.5929003595e+000	-1.9399333605e-001
 1.4956537961e+000	 3.6090139638e+000	-1.8958861874e-001
 1.4572609408e+000	 3.6246864813e+000	-1.9067972019e-001
 1.4187875129e+000	 3.6399179893e+000	-2.0192063255e-001
 1.3802407725e+000	 3.6547087190e+000	-2.2749202925e-001
 1.3416279407e+000	 3.6690590534e+000	-2.7109574814e-001
 1.3029561964e+000	 3.6829695251e+000	-3.1800443490e-001
 1.2642326722e+000	 3.6964408151e+000	-3.3537617436e-001
 1.2254644513e+000	 3.7094737498e+000	-3.3035631665e-001
 1.1866585635e+000	 3.7220692992e+000	-3.1069955971e-001
 1.1478219821e+000	 3.7342285745e+000	-2.8333376295e-001
 1.5444284742e+000	 3.6174228910e+000	-1.9621806000e-001
 1.5058620440e+000	 3.6336464752e+000	-1.9349047904e-001
 1.4672071469e+000	 3.6494259619e+000	-1.9436804363e-001
 1.4284711273e+000	 3.6647614292e+000	-2.0325094601e-001
 1.3896612948e+000	 3.6796531097e+000	-2.2407083811e-001
 1.3507849198e+000	 3.6941013890e+000	-2.6028612722e-001
 1.3118492302e+000	 3.7081068035e+000	-3.0656207490e-001
 1.2728614074e+000	 3.7216700388e+000	-3.2704974096e-001
 1.2338285827e+000	 3.7347919268e+000	-3.2442480111e-001
 1.1947578341e+000	 3.7474734443e+000	-3.0630728582e-001
 1.1556561824e+000	 3.7597157100e+000	-2.7947311355e-001
 1.0773141800e+000	 3.5048443553e+000	-2.0466566987e-001
 1.0408409118e+000	 3.5158484147e+000	-1.7577692927e-001
 1.0043517508e+000	 3.5264454685e+000	-1.4000639748e-001
 9.6785306161e-001	 3.5366369385e+000	-1.0005614782e-001
 9.3135114424e-001	 3.5464243692e+000	-5.7975302709e-002
 8.9485223122e-001	 3.5558094260e+000	-1.5110960631e-002
 8.5836248506e-001	 3.5647938922e+000	 2.7893843330e-002
 8.2188799579e-001	 3.5733796665e+000	 7.1105597139e-002
 7.8543477855e-001	 3.5815687602e+000	 1.1530185420e-001
 7.4900877130e-001	 3.5893632944e+000	 1.6196932480e-001
 7.1261583262e-001	 3.5967654974e+000	 2.1329896756e-001
 1.0851483803e+000	 3.5303314908e+000	-2.2290882843e-001
 1.0484098794e+000	 3.5414155714e+000	-1.9139790137e-001
 1.0116553701e+000	 3.5520896867e+000	-1.5263344293e-001
 9.7489126348e-001	 3.5623552688e+000	-1.0956682586e-001
 9.3812390514e-001	 3.5722138734e+000	-6.4416195841e-002
 9.0135957298e-001	 3.5816671781e+000	-1.8729981540e-002
 8.6460447435e-001	 3.5907169792e+000	 2.6667683803e-002
 8.2786474356e-001	 3.5993651890e+000	 7.1670044867e-002
 7.9114643950e-001	 3.6076138335e+000	 1.1688751914e-001
 7.5445554328e-001	 3.6154650493e+000	 1.6364405671e-001
 7.1779795611e-001	 3.6229210810e+000	 2.1397053875e-001
 1.0929825805e+000	 3.5558186262e+000	-2.3938461966e-001
 1.0559788470e+000	 3.5669827281e+000	-2.0607449558e-001
 1.0189589895e+000	 3.5777339049e+000	-1.6519645292e-001
 9.8192946535e-001	 3.5880735991e+000	-1.1988180436e-001
 9.4489666604e-001	 3.5980033777e+000	-7.2522681624e-002
 9.0786691475e-001	 3.6075249303e+000	-2.4827907430e-002
 8.7084646365e-001	 3.6166400661e+000	 2.2223913020e-002
 8.3384149134e-001	 3.6253507114e+000	 6.8376939578e-002
 7.9685810044e-001	 3.6336589068e+000	 1.1409600776e-001
 7.5990231526e-001	 3.6415668043e+000	 1.6056112951e-001
 7.2298007960e-001	 3.6490766646e+000	 2.0965908142e-001
 1.1008167807e+000	 3.5813057617e+000	-2.5365730252e-001
 1.0635478146e+000	 3.5925498848e+000	-2.1922580847e-001
 1.0262626089e+000	 3.6033781231e+000	-1.7697969262e-001
 9.8896766723e-001	 3.6137919294e+000	-1.3019629803e-001
 9.5166942693e-001	 3.6237928819e+000	-8.1409322504e-002
 9.1437425652e-001	 3.6333826824e+000	-3.2458183748e-002
 8.7708845295e-001	 3.6425631530e+000	 1.5551663708e-002
 8.3981823911e-001	 3.6513362338e+000	 6.2240445785e-002
 8.0256976138e-001	 3.6597039801e+000	 1.0794995119e-001
 7.6534908725e-001	 3.6676685592e+000	 1.5373603878e-001
 7.2816220310e-001	 3.6752322482e+000	 2.0135829187e-001
 1.1086509810e+000	 3.6067928972e+000	-2.6541549649e-001
 1.0711167822e+000	 3.6181170415e+000	-2.3040510281e-001
 1.0335662283e+000	 3.6290223413e+000	-1.8742247208e-001
 9.9600586910e-001	 3.6395102597e+000	-1.3985603325e-001
 9.5844218783e-001	 3.6495823861e+000	-9.0347616006e-002
 9.2088159828e-001	 3.6592404345e+000	-4.0836373758e-002
 8.8333044224e-001	 3.6684862399e+000	 7.4740626825e-003
 8.4579498689e-001	 3.6773217563e+000	 5.4106180659e-002
 8.0828142233e-001	 3.6857490534e+000	 9.9302288397e-002
 7.7079585923e-001	 3.6937703142e+000	 1.4401488762e-001
 7.3334432659e-001	 3.7013878317e+000	 1.8989426331e-001
 1.1164851812e+000	 3.6322800327e+000	-2.7446445929e-001
 1.0786857497e+000	 3.6436841982e+000	-2.3929221996e-001
 1.0408698477e+000	 3.6546665595e+000	-1.9609958219e-001
 1.0030440710e+000	 3.6652285900e+000	-1.4835002297e-001
 9.6521494873e-001	 3.6753718904e+000	-9.8758996702e-002
 9.2738894005e-001	 3.6850981866e+000	-4.9333417390e-002
 8.8957243154e-001	 3.6944093268e+000	-1.3453143276e-003
 8.5177173467e-001	 3.7033072787e+000	 4.4657353576e-002
 8.1399308327e-001	 3.7117941267e+000	 8.8842062047e-002
 7.7624263121e-001	 3.7198720691e+000	 1.3207981069e-001
 7.3852645008e-001	 3.7275434153e+000	 1.7593051079e-001
 1.1243193814e+000	 3.6577671681e+000	-2.8071849480e-001
 1.0862547173e+000	 3.6692513549e+000	-2.4568612698e-001
 1.0481734670e+000	 3.6803107777e+000	-2.0271401070e-001
 1.0100822729e+000	 3.6909469203e+000	-1.5530348112e-001
 9.7198770963e-001	 3.7011613946e+000	-1.0620797789e-001
 9.3389628182e-001	 3.7109559387e+000	-5.7469028815e-002
 8.9581442084e-001	 3.7203324137e+000	-1.0396124240e-002
 8.5774848244e-001	 3.7292928012e+000	 3.4420772970e-002
 8.1970474421e-001	 3.7378392000e+000	 7.7100086619e-002
 7.8168940319e-001	 3.7459738241e+000	 1.1845427707e-001
 7.4370857358e-001	 3.7536989989e+000	 1.5997288263e-001
 1.1321535817e+000	 3.6832543036e+000	-2.8419348514e-001
 1.0938236849e+000	 3.6948185116e+000	-2.4949759180e-001
 1.0554770864e+000	 3.7059549959e+000	-2.0708978920e-001
 1.0171204747e+000	 3.7166652506e+000	-1.6046373527e-001
 9.7876047052e-001	 3.7269508988e+000	-1.1239542619e-001
 9.4040362358e-001	 3.7368136908e+000	-6.4905226035e-002
 9.0205641013e-001	 3.7462555007e+000	-1.9315067967e-002
 8.6372523022e-001	 3.7552783236e+000	 2.3772726913e-002
 8.2541640516e-001	 3.7638842733e+000	 6.4454495126e-002
 7.8713617517e-001	 3.7720755791e+000	 1.0350827782e-001
 7.4889069707e-001	 3.7798545825e+000	 1.4237436407e-001
 1.1399877819e+000	 3.7087414391e+000	-2.8499954075e-001
 1.1013926525e+000	 3.7203856683e+000	-2.5074198042e-001
 1.0627807058e+000	 3.7315992141e+000	-2.0916496481e-001
 1.0241586766e+000	 3.7423835808e+000	-1.6372290805e-001
 9.8553323142e-001	 3.7527404031e+000	-1.1715196278e-001
 9.4691096535e-001	 3.7626714430e+000	-7.1439986121e-002
 9.0829839943e-001	 3.7721785876e+000	-2.7879825306e-002
 8.6970197799e-001	 3.7812638460e+000	 1.2944743499e-002
 8.3112806610e-001	 3.7899293467e+000	 5.1136170213e-002
 7.9258294715e-001	 3.7981773340e+000	 8.7463403741e-002
 7.5407282056e-001	 3.8060101661e+000	 1.2333977819e-001
 1.1478219821e+000	 3.7342285745e+000	-2.8333376295e-001
 1.1089616201e+000	 3.7459528250e+000	-2.4953217023e-001
 1.0700843252e+000	 3.7572434323e+000	-2.0898469053e-001
 1.0311968785e+000	 3.7681019111e+000	-1.6506537974e-001
 9.9230599232e-001	 3.7785299073e+000	-1.2043148496e-001
 9.5341830711e-001	 3.7885291951e+000	-7.7001020110e-002
 9.1454038873e-001	 3.7981016745e+000	-3.6003107467e-002
 8.7567872577e-001	 3.8072493685e+000	 2.0292367844e-003
 8.3683972704e-001	 3.8159744200e+000	 3.7234065171e-002
 7.9802971914e-001	 3.8242790890e+000	 7.0397818594e-002
 7.5925494406e-001	 3.8321657497e+000	 1.0293038899e-001
 1.1556561824e+000	 3.7597157100e+000	-2.7947311355e-001
 1.1165305877e+000	 3.7715199817e+000	-2.4607157399e-001
 1.0773879445e+000	 3.7828876505e+000	-2.0669442883e-001
 1.0382350804e+000	 3.7938202414e+000	-1.6459287964e-001
 9.9907875321e-001	 3.8043194115e+000	-1.2230480271e-001
 9.5992564888e-001	 3.8143869472e+000	-8.1639661871e-002
 9.2078237802e-001	 3.8240247614e+000	-4.3726821664e-002
 8.8165547354e-001	 3.8332348909e+000	-9.0149563021e-003
 8.4255138799e-001	 3.8420194933e+000	 2.2700420089e-002
 8.0347649112e-001	 3.8503808439e+000	 5.2251132787e-002
 7.6443706755e-001	 3.8583213333e+000	 8.1068411425e-002
 7.1261583262e-001	 3.5967654974e+000	 2.1329896756e-001
 6.7626718788e-001	 3.6037766798e+000	 2.2769343850e-001
 6.3996306006e-001	 3.6104004164e+000	 1.8722090341e-001
 6.0370904694e-001	 3.6166392418e+000	 1.4985242552e-001
 5.6751065950e-001	 3.6224957856e+000	 1.1902765359e-001
 5.3137332022e-001	 3.6279727701e+000	 9.6413777840e-002
 4.9530236159e-001	 3.6330730071e+000	 8.4786039146e-002
 4.5930302458e-001	 3.6377993950e+000	 8.8072415944e-002
 4.2338045735e-001	 3.6421549158e+000	 1.1138643361e-001
 3.8753971400e-001	 3.6461426319e+000	 1.6104987589e-001
 3.5178575339e-001	 3.6497656832e+000	 2.4460707589e-001
 7.1779795611e-001	 3.6229210810e+000	 2.1397053875e-001
 6.8118498499e-001	 3.6299832485e+000	 2.2889133638e-001
 6.4461685451e-001	 3.6366551528e+000	 1.8567978683e-001
 6.0809920317e-001	 3.6429393467e+000	 1.4382194400e-001
 5.7163758201e-001	 3.6488384791e+000	 1.0969698866e-001
 5.3523745296e-001	 3.6543552921e+000	 8.4659694546e-002
 4.9890418727e-001	 3.6594926179e+000	 7.1216438393e-002
 4.6264306403e-001	 3.6642533760e+000	 7.3061229618e-002
 4.2645926884e-001	 3.6686405700e+000	 9.5100027589e-002
 3.9035789255e-001	 3.6726572847e+000	 1.4346521313e-001
 3.5434393009e-001	 3.6763066828e+000	 2.2552197111e-001
 7.2298007960e-001	 3.6490766646e+000	 2.0965908142e-001
 6.8610278210e-001	 3.6561898172e+000	 2.2506262493e-001
 6.4927064896e-001	 3.6629098892e+000	 1.8113870481e-001
 6.1248935939e-001	 3.6692394517e+000	 1.3589908799e-001
 5.7576450452e-001	 3.6751811727e+000	 9.9576095185e-002
 5.3910158569e-001	 3.6807378142e+000	 7.3186196549e-002
 5.0250601294e-001	 3.6859122288e+000	 5.8937570671e-002
 4.6598310348e-001	 3.6907073570e+000	 6.0257006217e-002
 4.2953808033e-001	 3.6951262243e+000	 8.1805286022e-002
 3.9317607110e-001	 3.6991719375e+000	 1.2948301025e-001
 3.5690210679e-001	 3.7028476823e+000	 2.1042869732e-001
 7.2816220310e-001	 3.6752322482e+000	 2.0135829187e-001
 6.9102057921e-001	 3.6823963859e+000	 2.1714488235e-001
 6.5392444342e-001	 3.6891646255e+000	 1.7421775524e-001
 6.1687951562e-001	 3.6955395566e+000	 1.2659238638e-001
 5.7989142703e-001	 3.7015238663e+000	 8.9023195448e-002
 5.4296571843e-001	 3.7071203362e+000	 6.2168908064e-002
 5.0610783862e-001	 3.7123318396e+000	 4.7916526356e-002
 4.6932314293e-001	 3.7171613380e+000	 4.9398603621e-002
 4.3261689182e-001	 3.7216118785e+000	 7.0999227516e-002
 3.9599424966e-001	 3.7256865903e+000	 1.1835076132e-001
 3.5946028349e-001	 3.7293886818e+000	 1.9832326638e-001
 7.3334432659e-001	 3.7013878317e+000	 1.8989426331e-001
 6.9593837632e-001	 3.7086029546e+000	 2.0591198673e-001
 6.5857823787e-001	 3.7154193619e+000	 1.6537072020e-001
 6.2126967185e-001	 3.7218396615e+000	 1.1624472422e-001
 5.8401834954e-001	 3.7278665598e+000	 7.8234653546e-002
 5.4682985117e-001	 3.7335028583e+000	 5.1628615301e-002
 5.0970966430e-001	 3.7387514504e+000	 3.7975927697e-002
 4.7266318238e-001	 3.7436153190e+000	 4.0094240077e-002
 4.3569570332e-001	 3.7480975327e+000	 6.2065620353e-002
 3.9881242821e-001	 3.7522012431e+000	 1.0922375522e-001
 3.6201846019e-001	 3.7559296814e+000	 1.8813427331e-001
 7.3852645008e-001	 3.7275434153e+000	 1.7593051079e-001
 7.0085617343e-001	 3.7348095233e+000	 1.9197869442e-001
 6.6323203232e-001	 3.7416740982e+000	 1.5489279490e-001
 6.2565982808e-001	 3.7481397664e+000	 1.0504016571e-001
 5.8814527205e-001	 3.7542092534e+000	 6.7250836622e-002
 5.5069398390e-001	 3.7598853803e+000	 4.1436114244e-002
 5.1331148998e-001	 3.7651710613e+000	 2.8797715327e-002
 4.7600322183e-001	 3.7700693001e+000	 3.1824175520e-002
 4.3877451481e-001	 3.7745831870e+000	 5.4276518539e-002
 4.0163060677e-001	 3.7787158959e+000	 1.0116543012e-001
 3.6457663688e-001	 3.7824706809e+000	 1.7872203672e-001
 7.4370857358e-001	 3.7536989989e+000	 1.5997288263e-001
 7.0577397054e-001	 3.7610160921e+000	 1.7580511511e-001
 6.6788582677e-001	 3.7679288346e+000	 1.4290047862e-001
 6.3004998430e-001	 3.7744398714e+000	 9.3010702901e-002
 5.9227219456e-001	 3.7805519469e+000	 5.5961920935e-002
 5.5455811664e-001	 3.7862679023e+000	 3.1317025131e-002
 5.1691331566e-001	 3.7915906721e+000	 1.9926926114e-002
 4.7934326128e-001	 3.7965232811e+000	 2.3943411569e-002
 4.4185332630e-001	 3.8010688412e+000	 4.6793846490e-002
 4.0444878532e-001	 3.8052305487e+000	 9.3147809152e-002
 3.6713481358e-001	 3.8090116804e+000	 1.6887785539e-001
 7.4889069707e-001	 3.7798545825e+000	 1.4237436407e-001
 7.1069176765e-001	 3.7872226608e+000	 1.5770108863e-001
 6.7253962123e-001	 3.7941835709e+000	 1.2886544425e-001
 6.3444014053e-001	 3.8007399763e+000	 8.0042933920e-002
 5.9639911707e-001	 3.8068946405e+000	 4.4113645447e-002
 5.5842224937e-001	 3.8126504244e+000	 2.0856575248e-002
 5.2051514133e-001	 3.8180102829e+000	 1.0775462756e-002
 4.8268330073e-001	 3.8229772621e+000	 1.5684409282e-002
 4.4493213779e-001	 3.8275544954e+000	 3.8671030024e-002
 4.0726696387e-001	 3.8317452015e+000	 8.4052013363e-002
 3.6969299028e-001	 3.8355526800e+000	 1.5732337547e-001
 7.5407282056e-001	 3.8060101661e+000	 1.2333977819e-001
 7.1560956476e-001	 3.8134292295e+000	 1.3783046807e-001
 6.7719341568e-001	 3.8204383073e+000	 1.1261404725e-001
 6.3883029676e-001	 3.8270400812e+000	 6.5884674032e-002
 6.0052603959e-001	 3.8332373341e+000	 3.1313015463e-002
 5.6228638211e-001	 3.8390329464e+000	 9.5043515535e-003
 5.2411696701e-001	 3.8444298938e+000	 6.2585553039e-004
 4.8602334018e-001	 3.8494312431e+000	 6.1598238324e-003
 4.4801094928e-001	 3.8540401497e+000	 2.8854671409e-002
 4.1008514243e-001	 3.8582598543e+000	 7.2668848156e-002
 3.7225116698e-001	 3.8620936795e+000	 1.4271006294e-001
 7.5925494406e-001	 3.8321657497e+000	 1.0293038899e-001
 7.2052736187e-001	 3.8396357982e+000	 1.1621531392e-001
 6.8184721013e-001	 3.8466930436e+000	 9.4091485264e-002
 6.4322045299e-001	 3.8533401861e+000	 5.0151502710e-002
 6.0465296210e-001	 3.8595800276e+000	 1.7033958694e-002
 5.6615051484e-001	 3.8654154685e+000	-3.4209754140e-003
 5.2771879269e-001	 3.8708495046e+000	-1.1364983445e-002
 4.8936337964e-001	 3.8758852241e+000	-5.6347447176e-003
 4.5108976078e-001	 3.8805258039e+000	 1.6186266373e-002
 4.1290332098e-001	 3.8847745071e+000	 5.7699459801e-002
 3.7480934368e-001	 3.8886346791e+000	 1.2361877631e-001
 7.6443706755e-001	 3.8583213333e+000	 8.1068411425e-002
 7.2544515898e-001	 3.8658423669e+000	 9.2740003159e-002
 6.8650100458e-001	 3.8729477800e+000	 7.3108989344e-002
 6.4761060921e-001	 3.8796402911e+000	 3.2333249806e-002
 6.0877988461e-001	 3.8859227212e+000	 6.2293601493e-004
 5.7001464758e-001	 3.8917979905e+000	-1.8726954989e-002
 5.3132061837e-001	 3.8972691155e+000	-2.6162013064e-002
 4.9270341909e-001	 3.9023392051e+000	-2.0817985302e-002
 4.5416857227e-001	 3.9070114582e+000	-5.9603891994e-004
 4.1572149954e-001	 3.9112891599e+000	 3.7756058630e-002
 3.7736752037e-001	 3.9151756786e+000	 9.8559434784e-002
 3.5178575339e-001	 3.6497656832e+000	 2.4460707589e-001
 3.1611810781e-001	 3.6530277469e+000	 3.2242975943e-001
 2.8054697635e-001	 3.6559315402e+000	 3.5508089527e-001
 2.4507710014e-001	 3.6584804202e+000	 3.5231250369e-001
 2.0971311924e-001	 3.6606778091e+000	 3.2514392242e-001
 1.7445957196e-001	 3.6625271922e+000	 2.8585724264e-001
 1.3932089439e-001	 3.6640321140e+000	 2.4799184373e-001
 1.0430141984e-001	 3.6651961758e+000	 2.2633887563e-001
 6.9405378595e-002	 3.6660230324e+000	 2.3693641816e-001
 3.4636897532e-002	 3.6665163894e+000	 2.9706593076e-001
 0.0000000000e+000	 3.6666800000e+000	 4.2525051202e-001
 3.5434393009e-001	 3.6763066828e+000	 2.2552197111e-001
 3.1841691033e-001	 3.6795924681e+000	 3.0151913568e-001
 2.8258710654e-001	 3.6825173777e+000	 3.3210090639e-001
 2.4685929434e-001	 3.6850847930e+000	 3.2716684836e-001
 2.1123814750e-001	 3.6872981613e+000	 2.9790214314e-001
 1.7572823736e-001	 3.6891609931e+000	 2.5676621095e-001
 1.4033403225e-001	 3.6906768587e+000	 2.1748106347e-001
 1.0505989701e-001	 3.6918493855e+000	 1.9502026374e-001
 6.9910092673e-002	 3.6926822549e+000	 2.0559924318e-001
 3.4888776135e-002	 3.6931791996e+000	 2.6666760232e-001
 0.0000000000e+000	 3.6933440000e+000	 3.9690392028e-001
 3.5690210679e-001	 3.7028476823e+000	 2.1042869732e-001
 3.2071571285e-001	 3.7061571893e+000	 2.8508793391e-001
 2.8462723674e-001	 3.7091032152e+000	 3.1449261717e-001
 2.4864148853e-001	 3.7116891659e+000	 3.0861128412e-001
 2.1276317576e-001	 3.7139185136e+000	 2.7870651356e-001
 1.7699690275e-001	 3.7157947940e+000	 2.3731667256e-001
 1.4134717011e-001	 3.7173216033e+000	 1.9823807025e-001
 1.0581837418e-001	 3.7185025951e+000	 1.7650842351e-001
 7.0414806752e-002	 3.7193414775e+000	 1.8839240421e-001
 3.5140654739e-002	 3.7198420098e+000	 2.5136990757e-001
 0.0000000000e+000	 3.7200080000e+000	 3.8412757122e-001
 3.5946028349e-001	 3.7293886818e+000	 1.9832326638e-001
 3.2301451537e-001	 3.7327219104e+000	 2.7184513839e-001
 2.8666736693e-001	 3.7356890527e+000	 3.0060897585e-001
 2.5042368272e-001	 3.7382935388e+000	 2.9457920352e-001
 2.1428820401e-001	 3.7405388658e+000	 2.6501262005e-001
 1.7826556815e-001	 3.7424285949e+000	 2.2443319007e-001
 1.4236030797e-001	 3.7439663479e+000	 1.8660796760e-001
 1.0657685135e-001	 3.7451558048e+000	 1.6652508260e-001
 7.0919520830e-002	 3.7460007000e+000	 1.8037458017e-001
 3.5392533342e-002	 3.7465048200e+000	 2.4553276389e-001
 0.0000000000e+000	 3.7466720000e+000	 3.8055057636e-001
 3.6201846019e-001	 3.7559296814e+000	 1.8813427331e-001
 3.2531331789e-001	 3.7592866316e+000	 2.6046203638e-001
 2.8870749713e-001	 3.7622748902e+000	 2.8880104860e-001
 2.5220587691e-001	 3.7648979116e+000	 2.8304407655e-001
 2.1581323227e-001	 3.7671592180e+000	 2.5436426935e-001
 1.7953423355e-001	 3.7690623958e+000	 2.1518290136e-001
 1.4337344583e-001	 3.7706110926e+000	 1.7913901882e-001
 1.0733532852e-001	 3.7718090145e+000	 1.6106194958e-001
 7.1424234909e-002	 3.7726599226e+000	 1.7694748481e-001
 3.5644411946e-002	 3.7731676302e+000	 2.4393839533e-001
 0.0000000000e+000	 3.7733360000e+000	 3.8030981824e-001
 3.6457663688e-001	 3.7824706809e+000	 1.7872203672e-001
 3.2761212042e-001	 3.7858513528e+000	 2.4957007658e-001
 2.9074762732e-001	 3.7888607277e+000	 2.7741449370e-001
 2.5398807111e-001	 3.7915022845e+000	 2.7201444205e-001
 2.1733826053e-001	 3.7937795703e+000	 2.4438690285e-001
 1.8080289894e-001	 3.7956961966e+000	 2.0676726614e-001
 1.4438658369e-001	 3.7972558372e+000	 1.7257263925e-001
 1.0809380568e-001	 3.7984622241e+000	 1.5636886911e-001
 7.1928948989e-002	 3.7993191451e+000	 1.7384210582e-001
 3.5896290549e-002	 3.7998304405e+000	 2.4177558061e-001
 0.0000000000e+000	 3.8000000000e+000	 3.7803213567e-001
 3.6713481358e-001	 3.8090116804e+000	 1.6887785539e-001
 3.2991092294e-001	 3.8124160740e+000	 2.3775888294e-001
 2.9278775752e-001	 3.8154465652e+000	 2.6478623567e-001
 2.5577026530e-001	 3.8181066574e+000	 2.5952914918e-001
 2.1886328879e-001	 3.8203999225e+000	 2.3278131633e-001
 1.8207156434e-001	 3.8223299975e+000	 1.9651417865e-001
 1.4539972155e-001	 3.8239005819e+000	 1.6383382052e-001
 1.0885228285e-001	 3.8251154338e+000	 1.4894248009e-001
 7.2433663068e-002	 3.8259783677e+000	 1.6710552281e-001
 3.6148169153e-002	 3.8264932507e+000	 2.3462456049e-001
 0.0000000000e+000	 3.8266640000e+000	 3.6881725376e-001
 3.6969299028e-001	 3.8355526800e+000	 1.5732337547e-001
 3.3220972546e-001	 3.8389807951e+000	 2.2357441625e-001
 2.9482788771e-001	 3.8420324026e+000	 2.4924132961e-001
 2.5755245950e-001	 3.8447110303e+000	 2.4365283682e-001
 2.2038831705e-001	 3.8470202747e+000	 2.1731767029e-001
 1.8334022973e-001	 3.8489637984e+000	 1.8187042883e-001
 1.4641285941e-001	 3.8505453265e+000	 1.5002196595e-001
 1.0961076002e-001	 3.8517686435e+000	 1.3551535229e-001
 7.2938377147e-002	 3.8526375902e+000	 1.5308827598e-001
 3.6400047757e-002	 3.8531560609e+000	 2.1844257266e-001
 0.0000000000e+000	 3.8533280000e+000	 3.4822142274e-001
 3.7225116698e-001	 3.8620936795e+000	 1.4271006294e-001
 3.3450852798e-001	 3.8655455163e+000	 2.0551727632e-001
 2.9686801791e-001	 3.8686182401e+000	 2.2909000657e-001
 2.5933465369e-001	 3.8713154031e+000	 2.2247163927e-001
 2.2191334531e-001	 3.8736406269e+000	 1.9582977699e-001
 1.8460889513e-001	 3.8755975993e+000	 1.6039449508e-001
 1.4742599728e-001	 3.8771900711e+000	 1.2840211717e-001
 1.1036923719e-001	 3.8784218531e+000	 1.1304557862e-001
 7.3443091225e-002	 3.8792968128e+000	 1.2843225904e-001
 3.6651926360e-002	 3.8798188711e+000	 1.8954998394e-001
 0.0000000000e+000	 3.8799920000e+000	 3.1224173129e-001
 3.7480934368e-001	 3.8886346791e+000	 1.2361877631e-001
 3.3680733051e-001	 3.8921102375e+000	 1.8204113810e-001
 2.9890814810e-001	 3.8952040776e+000	 2.0262489142e-001
 2.6111684788e-001	 3.8979197760e+000	 1.9408910769e-001
 2.2343837357e-001	 3.9002609792e+000	 1.6620965091e-001
 1.8587756052e-001	 3.9022314002e+000	 1.2974965287e-001
 1.4843913514e-001	 3.9038348158e+000	 9.6396553460e-002
 1.1112771436e-001	 3.9050750628e+000	 7.8706801068e-002
 7.3947805304e-002	 3.9059560353e+000	 9.0059111280e-002
 3.6903804964e-002	 3.9064816814e+000	 1.4461699119e-001
 0.0000000000e+000	 3.9066560000e+000	 2.5730106233e-001
 3.7736752037e-001	 3.9151756786e+000	 9.8559434784e-002
 3.3910613303e-001	 3.9186749587e+000	 1.5155131542e-001
 3.0094827830e-001	 3.9217899151e+000	 1.6811838484e-001
 2.6289904207e-001	 3.9245241489e+000	 1.5662233687e-001
 2.2496340183e-001	 3.9268813314e+000	 1.2640231018e-001
 1.8714622592e-001	 3.9288652011e+000	 8.7697384182e-002
 1.4945227300e-001	 3.9304795604e+000	 5.1576745934e-002
 1.1188619153e-001	 3.9317282725e+000	 2.9878649915e-002
 7.4452519382e-002	 3.9326152578e+000	 3.5159085214e-002
 3.7155683567e-002	 3.9331444916e+000	 8.0650864061e-002
 0.0000000000e+000	 3.9333200000e+000	 1.8023366075e-001
 3.9333200000e+000	 0.0000000000e+000	 1.0971622308e+000
 3.9331444916e+000	 3.7155683567e-002	 1.0829157056e+000
 3.9326152578e+000	 7.4452519382e-002	 1.0557411706e+000
 3.9317282725e+000	 1.1188619153e-001	 1.0189415159e+000
 3.9304795604e+000	 1.4945227300e-001	 9.7588215823e-001
 3.9288652011e+000	 1.8714622592e-001	 9.2997266852e-001
 3.9268813314e+000	 2.2496340183e-001	 8.8463641192e-001
 3.9245241489e+000	 2.6289904207e-001	 8.4326924708e-001
 3.9217899151e+000	 3.0094827830e-001	 8.0918853690e-001
 3.9186749587e+000	 3.3910613303e-001	 7.8557393378e-001
 3.9151756786e+000	 3.7736752037e-001	 7.7540161183e-001
 3.9599880000e+000	 0.0000000000e+000	 1.1109039087e+000
 3.9598113016e+000	 3.7407599955e-002	 1.0916285156e+000
 3.9592784797e+000	 7.4957309175e-002	 1.0612183486e+000
 3.9583854805e+000	 1.1264478248e-001	 1.0223280195e+000
 3.9571283022e+000	 1.5046556284e-001	 9.7780288765e-001
 3.9555029975e+000	 1.8841508163e-001	 9.3065288228e-001
 3.9535056771e+000	 2.2648865886e-001	 8.8401315515e-001
 3.9511325128e+000	 2.6468150362e-001	 8.4109265592e-001
 3.9483797409e+000	 3.0298871454e-001	 8.0511193889e-001
 3.9452436650e+000	 3.4140528040e-001	 7.7923173154e-001
 3.9417206597e+000	 3.7992608084e-001	 7.6647401643e-001
 3.9866560000e+000	 0.0000000000e+000	 1.0286260951e+000
 3.9864781117e+000	 3.7659516343e-002	 1.0186155119e+000
 3.9859417015e+000	 7.5462098967e-002	 9.9798263580e-001
 3.9850426886e+000	 1.1340337343e-001	 9.6874306469e-001
 3.9837770439e+000	 1.5147885269e-001	 9.3323881226e-001
 3.9821407938e+000	 1.8968393734e-001	 8.9410383943e-001
 3.9801300227e+000	 2.2801391590e-001	 8.5421517946e-001
 3.9777408767e+000	 2.6646396517e-001	 8.1663079482e-001
 3.9749695666e+000	 3.0502915079e-001	 7.8451553334e-001
 3.9718123712e+000	 3.4370442778e-001	 7.6105678400e-001
 3.9682656408e+000	 3.8248464130e-001	 7.4937166566e-001
 4.0133240000e+000	 0.0000000000e+000	 8.6278691167e-001
 4.0131449217e+000	 3.7911432732e-002	 8.7419974093e-001
 4.0126049233e+000	 7.5966888759e-002	 8.7390180713e-001
 4.0116998966e+000	 1.1416196437e-001	 8.6363675478e-001
 4.0104257857e+000	 1.5249214253e-001	 8.4553724880e-001
 4.0087785902e+000	 1.9095279306e-001	 8.2206485397e-001
 4.0067543684e+000	 2.2953917293e-001	 7.9594637643e-001
 4.0043492407e+000	 2.6824642672e-001	 7.7010629696e-001
 4.0015593924e+000	 3.0706958703e-001	 7.4759489007e-001
 3.9983810775e+000	 3.4600357516e-001	 7.3148600733e-001
 3.9948106218e+000	 3.8504320176e-001	 7.2476796339e-001
 4.0399920000e+000	 0.0000000000e+000	 7.1192213890e-001
 4.0398117318e+000	 3.8163349120e-002	 7.4178381278e-001
 4.0392681452e+000	 7.6471678551e-002	 7.5866529423e-001
 4.0383571047e+000	 1.1492055532e-001	 7.6426199719e-001
 4.0370745274e+000	 1.5350543238e-001	 7.6065848949e-001
 4.0354163865e+000	 1.9222164877e-001	 7.5026966368e-001
 4.0333787141e+000	 2.3106442997e-001	 7.3577851029e-001
 4.0309576046e+000	 2.7002888826e-001	 7.2007010749e-001
 4.0281492181e+000	 3.0911002327e-001	 7.0616140262e-001
 4.0249497838e+000	 3.4830272253e-001	 6.9712632470e-001
 4.0213556029e+000	 3.8760176222e-001	 6.9601573170e-001
 4.0666600000e+000	 0.0000000000e+000	 5.9329550271e-001
 4.0664785418e+000	 3.8415265508e-002	 6.3645093231e-001
 4.0659313670e+000	 7.6976468342e-002	 6.6597476461e-001
 4.0650143127e+000	 1.1567914627e-001	 6.8346613381e-001
 4.0637232692e+000	 1.5451872222e-001	 6.9091119051e-001
 4.0620541829e+000	 1.9349050448e-001	 6.9062573276e-001
 4.0600030598e+000	 2.3258968700e-001	 6.8519459577e-001
 4.0575659685e+000	 2.7181134981e-001	 6.7740739767e-001
 4.0547390439e+000	 3.1115045952e-001	 6.7019019813e-001
 4.0515184901e+000	 3.5060186991e-001	 6.6653258703e-001
 4.0479005840e+000	 3.9016032268e-001	 6.6940968268e-001
 4.0933280000e+000	 0.0000000000e+000	 5.0754903265e-001
 4.0931453519e+000	 3.8667181896e-002	 5.5885349681e-001
 4.0925945888e+000	 7.7481258134e-002	 5.9649883647e-001
 4.0916715208e+000	 1.1643773722e-001	 6.2194003571e-001
 4.0903720110e+000	 1.5553201207e-001	 6.3701463545e-001
 4.0886919793e+000	 1.9475936019e-001	 6.4388699788e-001
 4.0866274055e+000	 2.3411494403e-001	 6.4498950184e-001
 4.0841743324e+000	 2.7359381136e-001	 6.4296024970e-001
 4.0813288697e+000	 3.1319089576e-001	 6.4057682298e-001
 4.0780871964e+000	 3.5290101728e-001	 6.4068558160e-001
 4.0744455651e+000	 3.9271888314e-001	 6.4612596112e-001
 4.1199960000e+000	 0.0000000000e+000	 4.5536013099e-001
 4.1198121619e+000	 3.8919098284e-002	 5.0967096463e-001
 4.1192578107e+000	 7.7986047926e-002	 5.5092554729e-001
 4.1183287288e+000	 1.1719632817e-001	 5.8038696449e-001
 4.1170207527e+000	 1.5654530191e-001	 5.9969402379e-001
 4.1153297756e+000	 1.9602821590e-001	 6.1080732992e-001
 4.1132517511e+000	 2.3564020107e-001	 6.1595247987e-001
 4.1107826964e+000	 2.7537627290e-001	 6.1755994105e-001
 4.1079186954e+000	 3.1523133200e-001	 6.1820112957e-001
 4.1046559027e+000	 3.5520016466e-001	 6.2052016053e-001
 4.1009905462e+000	 3.9527744361e-001	 6.2716069874e-001
 4.1466640000e+000	 0.0000000000e+000	 4.3744043524e-001
 4.1464789720e+000	 3.9171014672e-002	 4.8960885041e-001
 4.1459210325e+000	 7.8490837717e-002	 5.2996148017e-001
 4.1449859369e+000	 1.1795491912e-001	 5.5952182890e-001
 4.1436694945e+000	 1.5755859176e-001	 5.7967985724e-001
 4.1419675720e+000	 1.9729707162e-001	 5.9214004989e-001
 4.1398760968e+000	 2.3716545810e-001	 5.9886680930e-001
 4.1373910603e+000	 2.7715873445e-001	 6.0202672057e-001
 4.1345085212e+000	 3.1727176825e-001	 6.0392718387e-001
 4.1312246089e+000	 3.5749931203e-001	 6.0695086256e-001
 4.1275355273e+000	 3.9783600407e-001	 6.1348534838e-001
 4.1733320000e+000	 0.0000000000e+000	 4.5453472438e-001
 4.1731457820e+000	 3.9422931060e-002	 4.9939775873e-001
 4.1725842543e+000	 7.8995627510e-002	 5.3433092412e-001
 4.1716431449e+000	 1.1871351007e-001	 5.6007047092e-001
 4.1703182362e+000	 1.5857188160e-001	 5.7770735127e-001
 4.1686053684e+000	 1.9856592733e-001	 5.8863746593e-001
 4.1665004425e+000	 2.3869071514e-001	 5.9450946043e-001
 4.1639994242e+000	 2.7894119600e-001	 5.9716959777e-001
 4.1610983469e+000	 3.1931220449e-001	 5.9860318236e-001
 4.1577933152e+000	 3.5979845941e-001	 6.0087195905e-001
 4.1540805083e+000	 4.0039456453e-001	 6.0604686071e-001
 4.2000000000e+000	 0.0000000000e+000	 5.0741986665e-001
 4.1998125921e+000	 3.9674847448e-002	 5.3979245489e-001
 4.1992474762e+000	 7.9500417302e-002	 5.6477506673e-001
 4.1983003530e+000	 1.1947210102e-001	 5.8276897993e-001
 4.1969669780e+000	 1.5958517145e-001	 5.9451587063e-001
 4.1952431647e+000	 1.9983478304e-001	 6.0105043031e-001
 4.1931247882e+000	 2.4021597217e-001	 6.0365077348e-001
 4.1906077882e+000	 2.8072365755e-001	 6.0378614473e-001
 4.1876881727e+000	 3.2135264073e-001	 6.0306137777e-001
 4.1843620215e+000	 3.6209760679e-001	 6.0315750501e-001
 4.1806254894e+000	 4.0295312499e-001	 6.0576786237e-001
 3.9151756786e+000	 3.7736752037e-001	 7.7540161183e-001
 3.9112891599e+000	 4.1572149954e-001	 7.7138675200e-001
 3.9070114582e+000	 4.5416857227e-001	 7.6472845339e-001
 3.9023392051e+000	 4.9270341909e-001	 7.5564958706e-001
 3.8972691155e+000	 5.3132061837e-001	 7.4393851669e-001
 3.8917979905e+000	 5.7001464758e-001	 7.2888657968e-001
 3.8859227212e+000	 6.0877988461e-001	 7.0923320209e-001
 3.8796402911e+000	 6.4761060921e-001	 6.8312161032e-001
 3.8729477800e+000	 6.8650100458e-001	 6.4942412660e-001
 3.8658423669e+000	 7.2544515898e-001	 6.1615192979e-001
 3.8583213333e+000	 7.6443706755e-001	 5.8932903400e-001
 3.9417206597e+000	 3.7992608084e-001	 7.6647401643e-001
 3.9378077903e+000	 4.1854010086e-001	 7.6020081290e-001
 3.9335010856e+000	 4.5724784563e-001	 7.5211800915e-001
 3.9287971546e+000	 4.9604395959e-001	 7.4233836430e-001
 3.9236926896e+000	 5.3492298437e-001	 7.3054468096e-001
 3.9181844704e+000	 5.7387935999e-001	 7.1591152391e-001
 3.9122693665e+000	 6.1290742622e-001	 6.9703435446e-001
 3.9059443414e+000	 6.5200142403e-001	 6.7186919512e-001
 3.8992064550e+000	 6.9115549717e-001	 6.3957413325e-001
 3.8920528670e+000	 7.3036369383e-001	 6.0758650222e-001
 3.8844808406e+000	 7.6961996844e-001	 5.8108050495e-001
 3.9682656408e+000	 3.8248464130e-001	 7.4937166566e-001
 3.9643264207e+000	 4.2135870218e-001	 7.4355415189e-001
 3.9599907131e+000	 4.6032711899e-001	 7.3595673628e-001
 3.9552551041e+000	 4.9938450010e-001	 7.2671537024e-001
 3.9501162638e+000	 5.3852535038e-001	 7.1554113673e-001
 3.9445709502e+000	 5.7774407240e-001	 7.0162517208e-001
 3.9386160119e+000	 6.1703496783e-001	 6.8355076186e-001
 3.9322483918e+000	 6.5639223885e-001	 6.5921588291e-001
 3.9254651299e+000	 6.9580998976e-001	 6.2819247364e-001
 3.9182633671e+000	 7.3528222869e-001	 5.9722034877e-001
 3.9106403479e+000	 7.7480286933e-001	 5.7081627774e-001
 3.9948106218e+000	 3.8504320176e-001	 7.2476796339e-001
 3.9908450511e+000	 4.2417730350e-001	 7.2231741067e-001
 3.9864803406e+000	 4.6340639235e-001	 7.1727358682e-001
 3.9817130536e+000	 5.0272504061e-001	 7.0993503193e-001
 3.9765398380e+000	 5.4212771638e-001	 7.0018107408e-001
 3.9709574300e+000	 5.8160878482e-001	 6.8735888515e-001
 3.9649626573e+000	 6.2116250944e-001	 6.7017744473e-001
 3.9585524421e+000	 6.6078305366e-001	 6.4661184767e-001
 3.9517238049e+000	 7.0046448236e-001	 6.1674503146e-001
 3.9444738672e+000	 7.4020076354e-001	 5.8654708115e-001
 3.9367998552e+000	 7.7998577022e-001	 5.6003584687e-001
 4.0213556029e+000	 3.8760176222e-001	 6.9601573170e-001
 4.0173636815e+000	 4.2699590482e-001	 6.9815790542e-001
 4.0129699681e+000	 4.6648566571e-001	 6.9711780154e-001
 4.0081710031e+000	 5.0606558111e-001	 6.9303119275e-001
 4.0029634122e+000	 5.4573008239e-001	 6.8568482646e-001
 3.9973439098e+000	 5.8547349723e-001	 6.7443565544e-001
 3.9913093026e+000	 6.2529005105e-001	 6.5829901982e-001
 3.9848564924e+000	 6.6517386848e-001	 6.3549604457e-001
 3.9779824798e+000	 7.0511897495e-001	 6.0668703859e-001
 3.9706843673e+000	 7.4511929839e-001	 5.7704736316e-001
 3.9629593625e+000	 7.8516867111e-001	 5.5022380945e-001
 4.0479005840e+000	 3.9016032268e-001	 6.6940968268e-001
 4.0438823119e+000	 4.2981450615e-001	 6.7473001117e-001
 4.0394595956e+000	 4.6956493906e-001	 6.7667771175e-001
 4.0346289526e+000	 5.0940612162e-001	 6.7538924419e-001
 4.0293869863e+000	 5.4933244839e-001	 6.7066938863e-001
 4.0237303896e+000	 5.8933820964e-001	 6.6188385118e-001
 4.0176559480e+000	 6.2941759266e-001	 6.4784303337e-001
 4.0111605428e+000	 6.6956468330e-001	 6.2668684426e-001
 4.0042411548e+000	 7.0977346754e-001	 5.9937048897e-001
 3.9968948674e+000	 7.5003783325e-001	 5.7018915604e-001
 3.9891188698e+000	 7.9035157200e-001	 5.4285010903e-001
 4.0744455651e+000	 3.9271888314e-001	 6.4612596112e-001
 4.0704009423e+000	 4.3263310747e-001	 6.5333524212e-001
 4.0659492230e+000	 4.7264421242e-001	 6.5711192363e-001
 4.0610869021e+000	 5.1274666212e-001	 6.5760321857e-001
 4.0558105605e+000	 5.5293481440e-001	 6.5464219789e-001
 4.0501168695e+000	 5.9320292205e-001	 6.4764254715e-001
 4.0440025933e+000	 6.3354513427e-001	 6.3548436507e-001
 4.0374645931e+000	 6.7395549811e-001	 6.1644697810e-001
 4.0304998298e+000	 7.1442796013e-001	 5.9166190964e-001
 4.0231053675e+000	 7.5495636810e-001	 5.6461676767e-001
 4.0152783771e+000	 7.9553447288e-001	 5.3815761419e-001
 4.1009905462e+000	 3.9527744361e-001	 6.2716069874e-001
 4.0969195727e+000	 4.3545170879e-001	 6.3503148102e-001
 4.0924388505e+000	 4.7572348578e-001	 6.3953379617e-001
 4.0875448516e+000	 5.1608720263e-001	 6.4083408062e-001
 4.0822341347e+000	 5.5653718040e-001	 6.3880236123e-001
 4.0765033493e+000	 5.9706763447e-001	 6.3290935527e-001
 4.0703492387e+000	 6.3767267588e-001	 6.2211449350e-001
 4.0637686435e+000	 6.7834631293e-001	 6.0486309292e-001
 4.0567585047e+000	 7.1908245272e-001	 5.8228878438e-001
 4.0493158676e+000	 7.5987490295e-001	 5.5724120586e-001
 4.0414378845e+000	 8.0071737377e-001	 5.3217701066e-001
 4.1275355273e+000	 3.9783600407e-001	 6.1348534838e-001
 4.1234382031e+000	 4.3827031011e-001	 6.2084780272e-001
 4.1189284780e+000	 4.7880275914e-001	 6.2502408485e-001
 4.1140028011e+000	 5.1942774314e-001	 6.2620669365e-001
 4.1086577088e+000	 5.6013954641e-001	 6.2430964770e-001
 4.1028898291e+000	 6.0093234688e-001	 6.1886813048e-001
 4.0966958841e+000	 6.4180021749e-001	 6.0892894312e-001
 4.0900726938e+000	 6.8273712774e-001	 5.9310822302e-001
 4.0830171797e+000	 7.2373694531e-001	 5.7241169558e-001
 4.0755263677e+000	 7.6479343780e-001	 5.4914920579e-001
 4.0675973918e+000	 8.0590027466e-001	 5.2540337212e-001
 4.1540805083e+000	 4.0039456453e-001	 6.0604686071e-001
 4.1499568335e+000	 4.4108891143e-001	 6.1178477890e-001
 4.1454181055e+000	 4.8188203250e-001	 6.1463136684e-001
 4.1404607506e+000	 5.2276828364e-001	 6.1481035681e-001
 4.1350812830e+000	 5.6374191241e-001	 6.1228512841e-001
 4.1292763089e+000	 6.0479705929e-001	 6.0666111062e-001
 4.1230425294e+000	 6.4592775910e-001	 5.9707887907e-001
 4.1163767441e+000	 6.8712794256e-001	 5.8231112107e-001
 4.1092758546e+000	 7.2839143789e-001	 5.6314542109e-001
 4.1017368678e+000	 7.6971197265e-001	 5.4143079594e-001
 4.0937568991e+000	 8.1108317555e-001	 5.1889096319e-001
 4.1806254894e+000	 4.0295312499e-001	 6.0576786237e-001
 4.1764754639e+000	 4.4390751276e-001	 6.0881478091e-001
 4.1719077330e+000	 4.8496130586e-001	 6.0937246129e-001
 4.1669187001e+000	 5.2610882415e-001	 6.0769933448e-001
 4.1615048572e+000	 5.6734427842e-001	 6.0381180606e-001
 4.1556627888e+000	 6.0866177170e-001	 5.9738963625e-001
 4.1493891748e+000	 6.5005530071e-001	 5.8767190679e-001
 4.1426807945e+000	 6.9151875737e-001	 5.7355709041e-001
 4.1355345296e+000	 7.3304593048e-001	 5.5555984679e-001
 4.1279473679e+000	 7.7463050750e-001	 5.3513010073e-001
 4.1199164064e+000	 8.1626607643e-001	 5.1364756735e-001
 3.8583213333e+000	 7.6443706755e-001	 5.8932903400e-001
 3.8503808439e+000	 8.0347649112e-001	 5.6779622930e-001
 3.8420194933e+000	 8.4255138799e-001	 5.4736956075e-001
 3.8332348909e+000	 8.8165547354e-001	 5.2826768046e-001
 3.8240247614e+000	 9.2078237802e-001	 5.1049729802e-001
 3.8143869472e+000	 9.5992564888e-001	 4.9385572084e-001
 3.8043194115e+000	 9.9907875321e-001	 4.7793711545e-001
 3.7938202414e+000	 1.0382350804e+000	 4.6214160753e-001
 3.7828876505e+000	 1.0773879445e+000	 4.4569675855e-001
 3.7715199817e+000	 1.1165305877e+000	 4.2766781240e-001
 3.7597157100e+000	 1.1556561824e+000	 4.0699177738e-001
 3.8844808406e+000	 7.6961996844e-001	 5.8108050495e-001
 3.8764865146e+000	 8.0892408020e-001	 5.5929073561e-001
 3.8680684737e+000	 8.4826390576e-001	 5.3869912087e-001
 3.8592243116e+000	 8.8763311792e-001	 5.1952585566e-001
 3.8499517372e+000	 9.2702530371e-001	 5.0177977723e-001
 3.8402485784e+000	 9.6643396684e-001	 4.8525869606e-001
 3.8301127846e+000	 1.0058525301e+000	 4.6955353628e-001
 3.8195424299e+000	 1.0452743381e+000	 4.5405563386e-001
 3.8085357157e+000	 1.0846926596e+000	 4.3797547956e-001
 3.7970909739e+000	 1.1241006908e+000	 4.2035273283e-001
 3.7852066689e+000	 1.1634915578e+000	 4.0008776504e-001
 3.9106403479e+000	 7.7480286933e-001	 5.7081627774e-001
 3.9025921852e+000	 8.1437166927e-001	 5.4858266722e-001
 3.8941174542e+000	 8.5397642354e-001	 5.2763331836e-001
 3.8852137322e+000	 8.9361076229e-001	 5.0821015369e-001
 3.8758787129e+000	 9.3326822940e-001	 4.9034333542e-001
 3.8661102095e+000	 9.7294228481e-001	 4.7384920474e-001
 3.8559061576e+000	 1.0126263070e+000	 4.5833049377e-001
 3.8452646183e+000	 1.0523135958e+000	 4.4318976258e-001
 3.8341837809e+000	 1.0919973746e+000	 4.2762905958e-001
 3.8226619660e+000	 1.1316707938e+000	 4.1067565352e-001
 3.8106976279e+000	 1.1713269333e+000	 3.9120286143e-001
 3.9367998552e+000	 7.7998577022e-001	 5.6003584687e-001
 3.9286978558e+000	 8.1981925835e-001	 5.3715739849e-001
 3.9201664347e+000	 8.5968894132e-001	 5.1562540049e-001
 3.9112031529e+000	 8.9958840667e-001	 4.9572466733e-001
 3.9018056887e+000	 9.3951115509e-001	 4.7752685490e-001
 3.8919718407e+000	 9.7945060277e-001	 4.6088582035e-001
 3.8816995307e+000	 1.0194000839e+000	 4.4543558425e-001
 3.8709868067e+000	 1.0593528535e+000	 4.3060038252e-001
 3.8598318461e+000	 1.0993020896e+000	 4.1559380189e-001
 3.8482329582e+000	 1.1392408968e+000	 3.9944126900e-001
 3.8361885868e+000	 1.1791623088e+000	 3.8099943077e-001
 3.9629593625e+000	 7.8516867111e-001	 5.5022380945e-001
 3.9548035264e+000	 8.2526684743e-001	 5.2648381129e-001
 3.9462154151e+000	 8.6540145909e-001	 5.0411088542e-001
 3.9371925736e+000	 9.0556605105e-001	 4.8345491180e-001
 3.9277326645e+000	 9.4575408077e-001	 4.6465020928e-001
 3.9178334719e+000	 9.8595892073e-001	 4.4760812180e-001
 3.9074929037e+000	 1.0261738609e+000	 4.3201251242e-001
 3.8967089952e+000	 1.0663921112e+000	 4.1732635849e-001
 3.8854799114e+000	 1.1066068046e+000	 4.0278999251e-001
 3.8738039503e+000	 1.1468109999e+000	 3.8744030856e-001
 3.8616795457e+000	 1.1869976843e+000	 3.7012849055e-001
 3.9891188698e+000	 7.9035157200e-001	 5.4285010903e-001
 3.9809091970e+000	 8.3071443651e-001	 5.1801452879e-001
 3.9722643956e+000	 8.7111397687e-001	 4.9450777841e-001
 3.9631819942e+000	 9.1154369542e-001	 4.7276801629e-001
 3.9536596403e+000	 9.5199700646e-001	 4.5301442319e-001
 3.9436951030e+000	 9.9246723870e-001	 4.3523681469e-001
 3.9332862767e+000	 1.0329476378e+000	 4.1918844495e-001
 3.9224311836e+000	 1.0734313689e+000	 4.0438905641e-001
 3.9111279766e+000	 1.1139115197e+000	 3.9012186813e-001
 3.8993749425e+000	 1.1543811029e+000	 3.7544944114e-001
 3.8871705046e+000	 1.1948330598e+000	 3.5922954787e-001
 4.0152783771e+000	 7.9553447288e-001	 5.3815761419e-001
 4.0070148676e+000	 8.3616202558e-001	 5.1293964420e-001
 3.9983133761e+000	 8.7682649465e-001	 4.8821676648e-001
 3.9891714149e+000	 9.1752133979e-001	 4.6501289459e-001
 3.9795866160e+000	 9.5823993215e-001	 4.4390181249e-001
 3.9695567342e+000	 9.9897555666e-001	 4.2497383463e-001
 3.9590796498e+000	 1.0397214147e+000	 4.0807217676e-001
 3.9481533720e+000	 1.0804706266e+000	 3.9279235490e-001
 3.9367760418e+000	 1.1212162347e+000	 3.7847757330e-001
 3.9249459346e+000	 1.1619512060e+000	 3.6423117280e-001
 3.9126614635e+000	 1.2026684352e+000	 3.4893043200e-001
 4.0414378845e+000	 8.0071737377e-001	 5.3217701066e-001
 4.0331205382e+000	 8.4160961466e-001	 5.0783435044e-001
 4.0243623565e+000	 8.8253901242e-001	 4.8376763489e-001
 4.0151608355e+000	 9.2349898417e-001	 4.6050152546e-001
 4.0055135918e+000	 9.6448285783e-001	 4.3845518222e-001
 3.9954183654e+000	 1.0054838746e+000	 4.1800243335e-001
 3.9848730228e+000	 1.0464951916e+000	 3.9975417621e-001
 3.9738755604e+000	 1.0875098843e+000	 3.8352264401e-001
 3.9624241070e+000	 1.1285209497e+000	 3.6872910751e-001
 3.9505169268e+000	 1.1695213090e+000	 3.5453373718e-001
 3.9381524225e+000	 1.2105038107e+000	 3.3984712352e-001
 4.0675973918e+000	 8.0590027466e-001	 5.2540337212e-001
 4.0592262089e+000	 8.4705720374e-001	 5.0195751957e-001
 4.0504113370e+000	 8.8825153020e-001	 4.7863497901e-001
 4.0411502562e+000	 9.2947662854e-001	 4.5593340290e-001
 4.0314405676e+000	 9.7072578352e-001	 4.3425125339e-001
 4.0212799965e+000	 1.0119921926e+000	 4.1387448419e-001
 4.0106663959e+000	 1.0532689685e+000	 3.9496675583e-001
 3.9995977489e+000	 1.0945491420e+000	 3.7754881157e-001
 3.9880721722e+000	 1.1358256647e+000	 3.6173226258e-001
 3.9760879189e+000	 1.1770914121e+000	 3.4709097929e-001
 3.9636433814e+000	 1.2183391862e+000	 3.3258358005e-001
 4.0937568991e+000	 8.1108317555e-001	 5.1889096319e-001
 4.0853318795e+000	 8.5250479281e-001	 4.9631731526e-001
 4.0764603175e+000	 8.9396404797e-001	 4.7375790844e-001
 4.0671396769e+000	 9.3545427291e-001	 4.5168698618e-001
 4.0573675433e+000	 9.7696870920e-001	 4.3048527366e-001
 4.0471416277e+000	 1.0185005105e+000	 4.1042674656e-001
 4.0364597689e+000	 1.0600427454e+000	 3.9166807911e-001
 4.0253199373e+000	 1.1015883997e+000	 3.7422867585e-001
 4.0137202374e+000	 1.1431303798e+000	 3.5797834880e-001
 4.0016589111e+000	 1.1846615151e+000	 3.4261892328e-001
 3.9891343403e+000	 1.2261745617e+000	 3.2773155891e-001
 4.1199164064e+000	 8.1626607643e-001	 5.1364756735e-001
 4.1114375501e+000	 8.5795238189e-001	 4.9187525772e-001
 4.1025092979e+000	 8.9967656574e-001	 4.7004254432e-001
 4.0931290975e+000	 9.4143191729e-001	 4.4860379064e-001
 4.0832945191e+000	 9.8321163488e-001	 4.2792486904e-001
 4.0730032589e+000	 1.0250088285e+000	 4.0826998285e-001
 4.0622531420e+000	 1.0668165223e+000	 3.8979044128e-001
 4.0510421257e+000	 1.1086276574e+000	 3.7250556239e-001
 4.0393683026e+000	 1.1504350948e+000	 3.5628954712e-001
 4.0272299033e+000	 1.1922316182e+000	 3.4085317256e-001
 4.0146252992e+000	 1.2340099371e+000	 3.2572499712e-001
 3.7597157100e+000	 1.1556561824e+000	 4.0699177738e-001
 3.7474734443e+000	 1.1947578341e+000	 3.8321663240e-001
 3.7347919268e+000	 1.2338285827e+000	 3.5550100159e-001
 3.7216700388e+000	 1.2728614074e+000	 3.2208841679e-001
 3.7081068035e+000	 1.3118492302e+000	 2.8122609017e-001
 3.6941013890e+000	 1.3507849198e+000	 2.3268839098e-001
 3.6796531097e+000	 1.3896612948e+000	 1.8628634242e-001
 3.6647614292e+000	 1.4284711273e+000	 1.4417436637e-001
 3.6494259619e+000	 1.4672071469e+000	 1.0631223716e-001
 3.6336464752e+000	 1.5058620440e+000	 7.2576059988e-002
 3.6174228910e+000	 1.5444284742e+000	 4.2757617331e-002
 3.7852066689e+000	 1.1634915578e+000	 4.0008776504e-001
 3.7728814004e+000	 1.2028583196e+000	 3.7643370897e-001
 3.7601139019e+000	 1.2421939689e+000	 3.4836023181e-001
 3.7469030472e+000	 1.2814914370e+000	 3.1421224738e-001
 3.7332478529e+000	 1.3207435981e+000	 2.7232185342e-001
 3.7191474813e+000	 1.3599432726e+000	 2.2421487683e-001
 3.7046012423e+000	 1.3990832303e+000	 1.7895759440e-001
 3.6896085959e+000	 1.4381561944e+000	 1.3743510084e-001
 3.6741691538e+000	 1.4771548451e+000	 9.9786626439e-002
 3.6582826818e+000	 1.5160718233e+000	 6.6071212774e-002
 3.6419491014e+000	 1.5548997347e+000	 3.6266747914e-002
 3.8106976279e+000	 1.1713269333e+000	 3.9120286143e-001
 3.7982893564e+000	 1.2109588052e+000	 3.6814899645e-001
 3.7854358770e+000	 1.2505593550e+000	 3.4025395983e-001
 3.7721360556e+000	 1.2901214666e+000	 3.0593991936e-001
 3.7583889022e+000	 1.3296379661e+000	 2.6359855637e-001
 3.7441935736e+000	 1.3691016254e+000	 2.1690375845e-001
 3.7295493750e+000	 1.4085051658e+000	 1.7295479253e-001
 3.7144557626e+000	 1.4478412615e+000	 1.3216580977e-001
 3.6989123457e+000	 1.4871025432e+000	 9.4823984414e-002
 3.6829188884e+000	 1.5262816025e+000	 6.1140801699e-002
 3.6664753117e+000	 1.5653709953e+000	 3.1250838047e-002
 3.8361885868e+000	 1.1791623088e+000	 3.8099943077e-001
 3.8236973125e+000	 1.2190592908e+000	 3.5888444391e-001
 3.8107578521e+000	 1.2589247412e+000	 3.3157863216e-001
 3.7973690640e+000	 1.2987514962e+000	 2.9755854109e-001
 3.7835299516e+000	 1.3385323340e+000	 2.5534863013e-001
 3.7692396659e+000	 1.3782599782e+000	 2.1073656036e-001
 3.7544975076e+000	 1.4179271013e+000	 1.6823116504e-001
 3.7393029293e+000	 1.4575263286e+000	 1.2830593320e-001
 3.7236555376e+000	 1.4970502414e+000	 9.1365091747e-002
 3.7075550951e+000	 1.5364913818e+000	 5.7742700944e-002
 3.6910015221e+000	 1.5758422558e+000	 2.7701234758e-002
 3.8616795457e+000	 1.1869976843e+000	 3.7012849055e-001
 3.8491052686e+000	 1.2271597764e+000	 3.4915354452e-001
 3.8360798272e+000	 1.2672901273e+000	 3.2272509552e-001
 3.8226020724e+000	 1.3073815258e+000	 2.8935244226e-001
 3.8086710009e+000	 1.3474267019e+000	 2.4812298140e-001
 3.7942857582e+000	 1.3874183310e+000	 2.0571263849e-001
 3.7794456403e+000	 1.4273490369e+000	 1.6475804938e-001
 3.7641500960e+000	 1.4672113956e+000	 1.2581283941e-001
 3.7483987295e+000	 1.5069979396e+000	 8.9368005526e-002
 3.7321913017e+000	 1.5467011611e+000	 5.5850927056e-002
 3.7155277324e+000	 1.5863135164e+000	 2.5623800351e-002
 3.8871705046e+000	 1.1948330598e+000	 3.5922954787e-001
 3.8745132247e+000	 1.2352602619e+000	 3.3946110823e-001
 3.8614018023e+000	 1.2756555135e+000	 3.1407832166e-001
 3.8478350808e+000	 1.3160115554e+000	 2.8160286735e-001
 3.8338120503e+000	 1.3563210699e+000	 2.4203059935e-001
 3.8193318505e+000	 1.3965766838e+000	 2.0184809277e-001
 3.8043937729e+000	 1.4367709724e+000	 1.6252371792e-001
 3.7889972628e+000	 1.4768964627e+000	 1.2466057577e-001
 3.7731419214e+000	 1.5169456378e+000	 8.8806747827e-002
 3.7568275083e+000	 1.5569109403e+000	 5.5454278420e-002
 3.7400539428e+000	 1.5967847769e+000	 2.5037516597e-002
 3.9126614635e+000	 1.2026684352e+000	 3.4893043200e-001
 3.8999211807e+000	 1.2433607475e+000	 3.3030303440e-001
 3.8867237774e+000	 1.2840208996e+000	 3.0601713552e-001
 3.8730680892e+000	 1.3246415850e+000	 2.7458767536e-001
 3.8589530996e+000	 1.3652154378e+000	 2.3714356029e-001
 3.8443779429e+000	 1.4057350366e+000	 1.9917469041e-001
 3.8293419056e+000	 1.4461929079e+000	 1.6153221586e-001
 3.8138444295e+000	 1.4865815298e+000	 1.2483863264e-001
 3.7978851133e+000	 1.5268933359e+000	 8.9670007780e-002
 3.7814637149e+000	 1.5671207196e+000	 5.6554988140e-002
 3.7645801531e+000	 1.6072560375e+000	 2.5973101646e-002
 3.9381524225e+000	 1.2105038107e+000	 3.3984712352e-001
 3.9253291368e+000	 1.2514612331e+000	 3.2216608458e-001
 3.9120457525e+000	 1.2923862858e+000	 2.9891394661e-001
 3.8983010976e+000	 1.3332716146e+000	 2.6858104555e-001
 3.8840941490e+000	 1.3741098057e+000	 2.3354810631e-001
 3.8694240352e+000	 1.4148933894e+000	 1.9773879928e-001
 3.8542900382e+000	 1.4556148434e+000	 1.6180221056e-001
 3.8386915962e+000	 1.4962665968e+000	 1.2635071982e-001
 3.8226283052e+000	 1.5368410341e+000	 9.1959856550e-002
 3.8060999215e+000	 1.5773304989e+000	 5.9167389714e-002
 3.7891063634e+000	 1.6177272980e+000	 2.8471639087e-002
 3.9636433814e+000	 1.2183391862e+000	 3.3258358005e-001
 3.9507370929e+000	 1.2595617187e+000	 3.1552765525e-001
 3.9373677276e+000	 1.3007516719e+000	 2.9313448338e-001
 3.9235341059e+000	 1.3419016441e+000	 2.6399625442e-001
 3.9092351983e+000	 1.3830041737e+000	 2.3134368103e-001
 3.8944701275e+000	 1.4240517422e+000	 1.9760033104e-001
 3.8792381709e+000	 1.4650367789e+000	 1.6336585203e-001
 3.8635387629e+000	 1.5059516639e+000	 1.2921355480e-001
 3.8473714971e+000	 1.5467887323e+000	 9.5690474633e-002
 3.8307361281e+000	 1.5875402781e+000	 6.3316594932e-002
 3.8136325738e+000	 1.6281985585e+000	 3.2583218611e-002
 3.9891343403e+000	 1.2261745617e+000	 3.2773155891e-001
 3.9761450490e+000	 1.2676622042e+000	 3.1085555066e-001
 3.9626897027e+000	 1.3091170580e+000	 2.8903753060e-001
 3.9487671143e+000	 1.3505316737e+000	 2.6117762313e-001
 3.9343762477e+000	 1.3918985416e+000	 2.3064197291e-001
 3.9195162198e+000	 1.4332100950e+000	 1.9883169350e-001
 3.9041863035e+000	 1.4744587144e+000	 1.6626764390e-001
 3.8883859296e+000	 1.5156367310e+000	 1.3345566255e-001
 3.8721146890e+000	 1.5567364305e+000	 1.0088689093e-001
 3.8553723347e+000	 1.5977500574e+000	 6.9037183453e-002
 3.8381587841e+000	 1.6386698191e+000	 3.8365587760e-002
 4.0146252992e+000	 1.2340099371e+000	 3.2572499712e-001
 4.0015530051e+000	 1.2757626898e+000	 3.0860761353e-001
 3.9880116778e+000	 1.3174824442e+000	 2.8697466946e-001
 3.9740001227e+000	 1.3591617033e+000	 2.6029771761e-001
 3.9595172970e+000	 1.4007929095e+000	 2.3156596580e-001
 3.9445623121e+000	 1.4423684478e+000	 2.0151675183e-001
 3.9291344362e+000	 1.4838806500e+000	 1.7056332448e-001
 3.9132330963e+000	 1.5253217981e+000	 1.3911618608e-001
 3.8968578809e+000	 1.5666841286e+000	 1.0758373305e-001
 3.8800085414e+000	 1.6079598367e+000	 7.6371903530e-002
 3.8626849945e+000	 1.6491410796e+000	 4.5882814258e-002
 3.6174228910e+000	 1.5444284742e+000	 4.2757617331e-002
 3.6007578216e+000	 1.5828932993e+000	 1.6832709890e-002
 3.5836491053e+000	 1.6212549131e+000	-5.7192863785e-003
 3.5660971407e+000	 1.6595058954e+000	-2.5922183538e-002
 3.5481024868e+000	 1.6976388070e+000	-4.4826593250e-002
 3.5296658649e+000	 1.7356461945e+000	-6.3510863766e-002
 3.5107881589e+000	 1.7735205942e+000	-8.3082363349e-002
 3.4914704169e+000	 1.8112545366e+000	-1.0467907148e-001
 3.4717138517e+000	 1.8488405507e+000	-1.2947143192e-001
 3.4515198418e+000	 1.8862711687e+000	-1.5866441463e-001
 3.4308899314e+000	 1.9235389302e+000	-1.9349972713e-001
 3.6419491014e+000	 1.5548997347e+000	 3.6266747914e-002
 3.6251710424e+000	 1.5936253522e+000	 1.0939714629e-002
 3.6079463286e+000	 1.6322470587e+000	-1.0134187507e-002
 3.5902753613e+000	 1.6707573835e+000	-2.8235536210e-002
 3.5721587033e+000	 1.7091488371e+000	-4.4676175691e-002
 3.5535970806e+000	 1.7474139156e+000	-6.0799983609e-002
 3.5345913833e+000	 1.7855451046e+000	-7.7984008012e-002
 3.5151426665e+000	 1.8235348839e+000	-9.7639933717e-002
 3.4952521515e+000	 1.8613757321e+000	-1.2121582994e-001
 3.4749212257e+000	 1.8990601306e+000	-1.5019812360e-001
 3.4541514439e+000	 1.9365805684e+000	-1.8611373572e-001
 3.6664753117e+000	 1.5653709953e+000	 3.1250838047e-002
 3.6495842632e+000	 1.6043574052e+000	 6.2634573098e-003
 3.6322435519e+000	 1.6432392043e+000	-1.3749145384e-002
 3.6144535818e+000	 1.6820088716e+000	-3.0280493903e-002
 3.5962149197e+000	 1.7206588672e+000	-4.4859428244e-002
 3.5775282962e+000	 1.7591816367e+000	-5.9050790429e-002
 3.5583946077e+000	 1.7975696150e+000	-7.4456507444e-002
 3.5388149162e+000	 1.8358152313e+000	-9.2717028571e-002
 3.5187904512e+000	 1.8739109136e+000	-1.1551306638e-001
 3.4983226095e+000	 1.9118490925e+000	-1.4456758284e-001
 3.4774129565e+000	 1.9496222066e+000	-1.8164795479e-001
 3.6910015221e+000	 1.5758422558e+000	 2.7701234758e-002
 3.6739974839e+000	 1.6150894581e+000	 2.8371799325e-003
 3.6565407752e+000	 1.6542313498e+000	-1.6489507564e-002
 3.6386318024e+000	 1.6932603597e+000	-3.1942289708e-002
 3.6202711361e+000	 1.7321688974e+000	-4.5223571509e-002
 3.6014595119e+000	 1.7709493578e+000	-5.8075394775e-002
 3.5821978321e+000	 1.8095941253e+000	-7.2280559582e-002
 3.5624871659e+000	 1.8480955787e+000	-8.9664128421e-002
 3.5423287509e+000	 1.8864460950e+000	-1.1209525947e-001
 3.5217239934e+000	 1.9246380543e+000	-1.4148930727e-001
 3.5006744691e+000	 1.9626638447e+000	-1.7981012124e-001
 3.7155277324e+000	 1.5863135164e+000	 2.5623800351e-002
 3.6984107047e+000	 1.6258215111e+000	 7.0673632076e-004
 3.6808379985e+000	 1.6652234954e+000	-1.8269947463e-002
 3.6628100230e+000	 1.7045118478e+000	-3.3097425414e-002
 3.6443273525e+000	 1.7436789275e+000	-4.5609013248e-002
 3.6253907276e+000	 1.7827170788e+000	-5.7680958579e-002
 3.6060010565e+000	 1.8216186357e+000	-7.1233693513e-002
 3.5861594156e+000	 1.8603759261e+000	-8.8233501627e-002
 3.5658670506e+000	 1.8989812764e+000	-1.1069454266e-001
 3.5451253772e+000	 1.9374270162e+000	-1.4068116963e-001
 3.5239359817e+000	 1.9757054829e+000	-1.8031046499e-001
 3.7400539428e+000	 1.5967847769e+000	 2.5037516597e-002
 3.7228239255e+000	 1.6365535640e+000	-7.0832013048e-005
 3.7051352218e+000	 1.6762156410e+000	-1.8995917542e-002
 3.6869882436e+000	 1.7157633359e+000	-3.3615155112e-002
 3.6683835689e+000	 1.7551889576e+000	-4.5850864479e-002
 3.6493219433e+000	 1.7944847999e+000	-5.7671246456e-002
 3.6298042809e+000	 1.8336431461e+000	-7.1091859383e-002
 3.6098316652e+000	 1.8726562735e+000	-8.8177545111e-002
 3.5894053503e+000	 1.9115164578e+000	-1.1104474450e-001
 3.5685267611e+000	 1.9502159781e+000	-1.4186413330e-001
 3.5471974943e+000	 1.9887471210e+000	-1.8286350058e-001
 3.7645801531e+000	 1.6072560375e+000	 2.5973101646e-002
 3.7472371463e+000	 1.6472856170e+000	 5.7129174352e-004
 3.7294324451e+000	 1.6872077866e+000	-1.8565091706e-002
 3.7111664641e+000	 1.7270148240e+000	-3.3358958966e-002
 3.6924397853e+000	 1.7666989878e+000	-4.5780446597e-002
 3.6732531590e+000	 1.8062525210e+000	-5.7848168821e-002
 3.6536075053e+000	 1.8456676565e+000	-7.1631010759e-002
 3.6335039149e+000	 1.8849366209e+000	-8.9250409877e-002
 3.6129436500e+000	 1.9240516393e+000	-1.1288306196e-001
 3.5919281449e+000	 1.9630049400e+000	-1.4476397834e-001
 3.5704590069e+000	 2.0017887592e+000	-1.8717247508e-001
 3.7891063634e+000	 1.6177272980e+000	 2.8471639087e-002
 3.7716503671e+000	 1.6580176699e+000	 2.7082985290e-003
 3.7537296684e+000	 1.6981999321e+000	-1.6868797422e-002
 3.7353446847e+000	 1.7382663121e+000	-3.2188007592e-002
 3.7164960017e+000	 1.7782090179e+000	-4.5226789948e-002
 3.6971843747e+000	 1.8180202421e+000	-5.8013317174e-002
 3.6774107297e+000	 1.8576921669e+000	-7.2628679792e-002
 3.6571761646e+000	 1.8972169683e+000	-9.1209619789e-002
 3.6364819497e+000	 1.9365868207e+000	-1.1595172711e-001
 3.6153295288e+000	 1.9757939018e+000	-1.4911302123e-001
 3.5937205195e+000	 2.0148303973e+000	-1.9187311732e-001
 3.8136325738e+000	 1.6281985585e+000	 3.2583218611e-002
 3.7960635879e+000	 1.6687497229e+000	 6.4223629432e-003
 3.7780268917e+000	 1.7091920777e+000	-1.3793438017e-002
 3.7595229053e+000	 1.7495178002e+000	-2.9958617464e-002
 3.7405522181e+000	 1.7897190480e+000	-4.4018124213e-002
 3.7211155904e+000	 1.8297879632e+000	-5.7969491924e-002
 3.7012139541e+000	 1.8697166773e+000	-7.3865545499e-002
 3.6808484143e+000	 1.9094973156e+000	-9.3817683934e-002
 3.6600202494e+000	 1.9491220021e+000	-1.1999966776e-001
 3.6387309127e+000	 1.9885828637e+000	-1.5465182851e-001
 3.6169820321e+000	 2.0278720355e+000	-1.9620876372e-001
 3.8381587841e+000	 1.6386698191e+000	 3.8365587760e-002
 3.8204768087e+000	 1.6794817758e+000	 1.1801263013e-002
 3.8023241150e+000	 1.7201842233e+000	-9.2219055844e-003
 3.7837011259e+000	 1.7607692884e+000	-2.6525697759e-002
 3.7646084345e+000	 1.8012290781e+000	-4.1983360995e-002
 3.7450468061e+000	 1.8415556843e+000	-5.7522223081e-002
 3.7250171785e+000	 1.8817411877e+000	-7.5126995474e-002
 3.7045206639e+000	 1.9217776630e+000	-9.6843702821e-002
 3.6835585491e+000	 1.9616571835e+000	-1.2478416222e-001
 3.6621322965e+000	 2.0013718256e+000	-1.6112216049e-001
 3.6402435447e+000	 2.0409136736e+000	-2.0014732672e-001
 3.8626849945e+000	 1.6491410796e+000	 4.5882814258e-002
 3.8448900295e+000	 1.6902138288e+000	 1.8937009735e-002
 3.8266213383e+000	 1.7311763688e+000	-3.0349849328e-003
 3.8078793464e+000	 1.7720207765e+000	-2.1744189015e-002
 3.7886646509e+000	 1.8127391083e+000	-3.8953568940e-002
 3.7689780217e+000	 1.8533234054e+000	-5.6481284122e-002
 3.7488204029e+000	 1.8937656981e+000	-7.6204681327e-002
 3.7281929136e+000	 1.9340580104e+000	-1.0006496872e-001
 3.7070968488e+000	 1.9741923649e+000	-1.3007248836e-001
 3.6855336804e+000	 2.0141607875e+000	-1.6742132604e-001
 3.6635050572e+000	 2.0539553118e+000	-2.0366817268e-001
 3.4308899314e+000	 1.9235389302e+000	-1.9349972713e-001
 3.4098226392e+000	 1.9606419394e+000	-2.3441591809e-001
 3.3883229079e+000	 1.9975671597e+000	-2.8134650739e-001
 3.3663927853e+000	 2.0343071798e+000	-3.2660153899e-001
 3.3440344860e+000	 2.0708546138e+000	-3.5969223862e-001
 3.3212503911e+000	 2.1072021068e+000	-3.8149418540e-001
 3.2980430479e+000	 2.1433423388e+000	-3.9824237541e-001
 3.2744151693e+000	 2.1792680296e+000	-4.1291090640e-001
 3.2503696335e+000	 2.2149719435e+000	-4.2777364016e-001
 3.2259094826e+000	 2.2504468941e+000	-4.4510461057e-001
 3.2010379221e+000	 2.2856857484e+000	-4.6715323140e-001
 3.4541514439e+000	 1.9365805684e+000	-1.8611373572e-001
 3.4329413150e+000	 1.9739351368e+000	-2.2986962451e-001
 3.4112958151e+000	 2.0111107110e+000	-2.8079691154e-001
 3.3892170058e+000	 2.0480998292e+000	-3.2606763617e-001
 3.3667071167e+000	 2.0848950557e+000	-3.6097256832e-001
 3.3437685451e+000	 2.1214889855e+000	-3.8529532425e-001
 3.3204038555e+000	 2.1578742491e+000	-4.0012704753e-001
 3.2966157794e+000	 2.1940435169e+000	-4.1258417605e-001
 3.2724072143e+000	 2.2299895042e+000	-4.2564123825e-001
 3.2477812230e+000	 2.2657049758e+000	-4.4148877039e-001
 3.2227410328e+000	 2.3011827503e+000	-4.6228916236e-001
 3.4774129565e+000	 1.9496222066e+000	-1.8164795479e-001
 3.4560599909e+000	 1.9872283342e+000	-2.2806990939e-001
 3.4342687223e+000	 2.0246542622e+000	-2.8025886688e-001
 3.4120412262e+000	 2.0618924786e+000	-3.2511543704e-001
 3.3893797473e+000	 2.0989354976e+000	-3.6127259672e-001
 3.3662866990e+000	 2.1357758642e+000	-3.8842114608e-001
 3.3427646632e+000	 2.1724061594e+000	-4.0627279894e-001
 3.3188163895e+000	 2.2088190042e+000	-4.1634575538e-001
 3.2944447951e+000	 2.2450070649e+000	-4.2667840461e-001
 3.2696529635e+000	 2.2809630575e+000	-4.4013224735e-001
 3.2444441434e+000	 2.3166797522e+000	-4.5882549290e-001
 3.5006744691e+000	 1.9626638447e+000	-1.7981012124e-001
 3.4791786668e+000	 2.0005215316e+000	-2.2871785070e-001
 3.4572416294e+000	 2.0381978135e+000	-2.7961452192e-001
 3.4348654467e+000	 2.0756851281e+000	-3.2367955152e-001
 3.4120523780e+000	 2.1129759395e+000	-3.6053683184e-001
 3.3888048530e+000	 2.1500627430e+000	-3.8982305660e-001
 3.3651254708e+000	 2.1869380697e+000	-4.1119154780e-001
 3.3410169996e+000	 2.2235944915e+000	-4.2431639474e-001
 3.3164823760e+000	 2.2600246256e+000	-4.3150837768e-001
 3.2915247039e+000	 2.2962211391e+000	-4.4163678858e-001
 3.2661472541e+000	 2.3321767542e+000	-4.5733687420e-001
 3.5239359817e+000	 1.9757054829e+000	-1.8031046499e-001
 3.5022973426e+000	 2.0138147290e+000	-2.3038606864e-001
 3.4802145366e+000	 2.0517413647e+000	-2.7879801565e-001
 3.4576896671e+000	 2.0894777775e+000	-3.2170536634e-001
 3.4347250087e+000	 2.1270163813e+000	-3.5872023594e-001
 3.4113230070e+000	 2.1643496217e+000	-3.8946319013e-001
 3.3874862785e+000	 2.2014699800e+000	-4.1356714540e-001
 3.3632176097e+000	 2.2383699789e+000	-4.3068160664e-001
 3.3385199568e+000	 2.2750421863e+000	-4.4047722461e-001
 3.3133964443e+000	 2.3114792208e+000	-4.4658294858e-001
 3.2878503648e+000	 2.3476737561e+000	-4.5837565836e-001
 3.5471974943e+000	 1.9887471210e+000	-1.8286350058e-001
 3.5254160185e+000	 2.0271079264e+000	-2.3196736621e-001
 3.5031874438e+000	 2.0652849160e+000	-2.7775458497e-001
 3.4805138876e+000	 2.1032704269e+000	-3.1914902015e-001
 3.4573976394e+000	 2.1410568232e+000	-3.5578820918e-001
 3.4338411610e+000	 2.1786365004e+000	-3.8731385702e-001
 3.4098470862e+000	 2.2160018903e+000	-4.1337574560e-001
 3.3854182198e+000	 2.2531454662e+000	-4.3363600596e-001
 3.3605575376e+000	 2.2900597470e+000	-4.4777373543e-001
 3.3352681848e+000	 2.3267373025e+000	-4.5548993796e-001
 3.3095534755e+000	 2.3631707580e+000	-4.6247090589e-001
 3.5704590069e+000	 2.0017887592e+000	-1.8717247508e-001
 3.5485346943e+000	 2.0404011238e+000	-2.3340655034e-001
 3.5261603510e+000	 2.0788284673e+000	-2.7644052311e-001
 3.5033381080e+000	 2.1170630764e+000	-3.1597737077e-001
 3.4800702700e+000	 2.1550972651e+000	-3.5171656532e-001
 3.4563593150e+000	 2.1929233791e+000	-3.8335752653e-001
 3.4322078938e+000	 2.2305338007e+000	-4.1060347684e-001
 3.4076188299e+000	 2.2679209535e+000	-4.3316568449e-001
 3.3825951184e+000	 2.3050773076e+000	-4.5076807749e-001
 3.3571399252e+000	 2.3419953841e+000	-4.6315220587e-001
 3.3312565862e+000	 2.3786677599e+000	-4.7012738564e-001
 3.5937205195e+000	 2.0148303973e+000	-1.9187311732e-001
 3.5716533702e+000	 2.0536943212e+000	-2.3465977671e-001
 3.5491332582e+000	 2.0923720185e+000	-2.7482313099e-001
 3.5261623285e+000	 2.1308557258e+000	-3.1216795496e-001
 3.5027429007e+000	 2.1691377070e+000	-3.4649149953e-001
 3.4788774690e+000	 2.2072102578e+000	-3.7758680183e-001
 3.4545687015e+000	 2.2450657110e+000	-4.0524642249e-001
 3.4298194401e+000	 2.2826964408e+000	-4.2926659726e-001
 3.4046326992e+000	 2.3200948683e+000	-4.4945178525e-001
 3.3790116656e+000	 2.3572534658e+000	-4.6561959132e-001
 3.3529596968e+000	 2.3941647618e+000	-4.7760603554e-001
 3.6169820321e+000	 2.0278720355e+000	-1.9620876372e-001
 3.5947720461e+000	 2.0669875186e+000	-2.3569448628e-001
 3.5721061654e+000	 2.1059155698e+000	-2.7288066167e-001
 3.5489865489e+000	 2.1446483752e+000	-3.0770894110e-001
 3.5254155314e+000	 2.1831781488e+000	-3.4010954896e-001
 3.5013956229e+000	 2.2214971365e+000	-3.7000438734e-001
 3.4769295092e+000	 2.2595976213e+000	-3.9731059362e-001
 3.4520200502e+000	 2.2974719282e+000	-4.2194453839e-001
 3.4266702800e+000	 2.3351124290e+000	-4.4382624650e-001
 3.4008834061e+000	 2.3725115475e+000	-4.6288421854e-001
 3.3746628075e+000	 2.4096617637e+000	-4.7906062532e-001
 3.6402435447e+000	 2.0409136736e+000	-2.0014732672e-001
 3.6178907219e+000	 2.0802807161e+000	-2.3648933557e-001
 3.5950790726e+000	 2.1194591210e+000	-2.7060225828e-001
 3.5718107694e+000	 2.1584410247e+000	-3.0259907505e-001
 3.5480881620e+000	 2.1972185907e+000	-3.3257754611e-001
 3.5239137769e+000	 2.2357840152e+000	-3.6062304890e-001
 3.4992903168e+000	 2.2741295316e+000	-3.8681189426e-001
 3.4742206603e+000	 2.3122474155e+000	-4.1121510953e-001
 3.4487078609e+000	 2.3501299897e+000	-4.3390267142e-001
 3.4227551465e+000	 2.3877696291e+000	-4.5494816626e-001
 3.3963659182e+000	 2.4251587656e+000	-4.7443385001e-001
 3.6635050572e+000	 2.0539553118e+000	-2.0366817268e-001
 3.6410093978e+000	 2.0935739135e+000	-2.3703412102e-001
 3.6180519798e+000	 2.1330026723e+000	-2.6798788580e-001
 3.5946349899e+000	 2.1722336741e+000	-2.9684761954e-001
 3.5707607927e+000	 2.2112590326e+000	-3.2391256560e-001
 3.5464319309e+000	 2.2500708939e+000	-3.4946556690e-001
 3.5216511245e+000	 2.2886614419e+000	-3.7377607972e-001
 3.4964212704e+000	 2.3270229028e+000	-3.9710368131e-001
 3.4707454417e+000	 2.3651475504e+000	-4.1970205452e-001
 3.4446268869e+000	 2.4030277108e+000	-4.4182342727e-001
 3.4180690289e+000	 2.4406557675e+000	-4.6372343914e-001
 3.2010379221e+000	 2.2856857484e+000	-4.6715323140e-001
 3.1757583185e+000	 2.3206814311e+000	-4.9218690735e-001
 3.1500741959e+000	 2.3554269264e+000	-5.1698568294e-001
 3.1239892364e+000	 2.3899152852e+000	-5.4144263790e-001
 3.0975072805e+000	 2.4241396301e+000	-5.6531098422e-001
 3.0706323245e+000	 2.4580931598e+000	-5.8818250223e-001
 3.0433685191e+000	 2.4917691538e+000	-6.0946659930e-001
 3.0157201671e+000	 2.5251609764e+000	-6.2837018573e-001
 2.9876917216e+000	 2.5582620812e+000	-6.4387856008e-001
 2.9592877831e+000	 2.5910660154e+000	-6.5473749176e-001
 2.9305130975e+000	 2.6235664236e+000	-6.5943668313e-001
 3.2227410328e+000	 2.3011827503e+000	-4.6228916236e-001
 3.1972900329e+000	 2.3364157045e+000	-4.8614889557e-001
 3.1714317713e+000	 2.3713967751e+000	-5.0982153717e-001
 3.1451699552e+000	 2.4061189658e+000	-5.3330980157e-001
 3.1185084511e+000	 2.4405753525e+000	-5.5647311542e-001
 3.0914512822e+000	 2.4747590879e+000	-5.7900478951e-001
 3.0640026276e+000	 2.5086634059e+000	-6.0040983072e-001
 3.0361668192e+000	 2.5422816258e+000	-6.1998359772e-001
 3.0079483401e+000	 2.5756071569e+000	-6.3679150170e-001
 2.9793518222e+000	 2.6086335025e+000	-6.4964994873e-001
 2.9503820436e+000	 2.6413542642e+000	-6.5710871481e-001
 3.2444441434e+000	 2.3166797522e+000	-4.5882549290e-001
 3.2188217473e+000	 2.3521499780e+000	-4.8076558188e-001
 3.1927893468e+000	 2.3873666238e+000	-5.0270421328e-001
 3.1663506741e+000	 2.4223226463e+000	-5.2474038725e-001
 3.1395096216e+000	 2.4570110749e+000	-5.4682628746e-001
 3.1122702400e+000	 2.4914250160e+000	-5.6874317127e-001
 3.0846367361e+000	 2.5255576581e+000	-5.9007791795e-001
 3.0566134712e+000	 2.5594022753e+000	-6.1020044814e-001
 3.0282049587e+000	 2.5929522326e+000	-6.2824222490e-001
 2.9994158614e+000	 2.6262009896e+000	-6.4307604245e-001
 2.9702509898e+000	 2.6591421048e+000	-6.5329730204e-001
 3.2661472541e+000	 2.3321767542e+000	-4.5733687420e-001
 3.2403534617e+000	 2.3678842514e+000	-4.7658218486e-001
 3.2141469222e+000	 2.4033364725e+000	-4.9615117223e-001
 3.1875313929e+000	 2.4385263269e+000	-5.1622634728e-001
 3.1605107922e+000	 2.4734467973e+000	-5.3683976176e-001
 3.1330891977e+000	 2.5080909442e+000	-5.5784759722e-001
 3.1052708446e+000	 2.5424519102e+000	-5.7890543063e-001
 3.0770601233e+000	 2.5765229248e+000	-5.9944439972e-001
 3.0484615772e+000	 2.6102973083e+000	-6.1864848765e-001
 3.0194799006e+000	 2.6437684768e+000	-6.3543314273e-001
 2.9901199359e+000	 2.6769299455e+000	-6.4824063913e-001
 3.2878503648e+000	 2.3476737561e+000	-4.5837565836e-001
 3.2618851761e+000	 2.3836185248e+000	-4.7412062233e-001
 3.2355044976e+000	 2.4193063212e+000	-4.9065558399e-001
 3.2087121117e+000	 2.4547300074e+000	-5.0823436153e-001
 3.1815119627e+000	 2.4898825197e+000	-5.2695655181e-001
 3.1539081554e+000	 2.5247568723e+000	-5.4674079675e-001
 3.1259049531e+000	 2.5593461623e+000	-5.6729874580e-001
 3.0975067753e+000	 2.5936435742e+000	-5.8810994728e-001
 3.0687181957e+000	 2.6276423840e+000	-6.0839789830e-001
 3.0395439398e+000	 2.6613359639e+000	-6.2710747824e-001
 3.0099888821e+000	 2.6947177861e+000	-6.4152487025e-001
 3.3095534755e+000	 2.3631707580e+000	-4.6247090589e-001
 3.2834168905e+000	 2.3993527983e+000	-4.7387847321e-001
 3.2568620731e+000	 2.4352761699e+000	-4.8668524542e-001
 3.2298928305e+000	 2.4709336880e+000	-5.0120471350e-001
 3.2025131332e+000	 2.5063182421e+000	-5.1759225990e-001
 3.1747271132e+000	 2.5414228004e+000	-5.3581707923e-001
 3.1465390616e+000	 2.5762404145e+000	-5.5563481496e-001
 3.1179534273e+000	 2.6107642237e+000	-5.7656115520e-001
 3.0889748143e+000	 2.6449874597e+000	-5.9784662743e-001
 3.0596079790e+000	 2.6789034510e+000	-6.1820926684e-001
 3.0298578282e+000	 2.7125056268e+000	-6.3346391815e-001
 3.3312565862e+000	 2.3786677599e+000	-4.7012738564e-001
 3.3049486049e+000	 2.4150870717e+000	-4.7632793225e-001
 3.2782196485e+000	 2.4512460186e+000	-4.8468149170e-001
 3.2510735493e+000	 2.4871373686e+000	-4.9555016033e-001
 3.2235143038e+000	 2.5227539645e+000	-5.0913390825e-001
 3.1955460709e+000	 2.5580887285e+000	-5.2544112904e-001
 3.1671731701e+000	 2.5931346666e+000	-5.4425992623e-001
 3.1384000794e+000	 2.6278848731e+000	-5.6513039009e-001
 3.1092314328e+000	 2.6623325355e+000	-5.8731811497e-001
 3.0796720181e+000	 2.6964709382e+000	-6.0836719391e-001
 3.0497267744e+000	 2.7302934674e+000	-6.2443046134e-001
 3.3529596968e+000	 2.3941647618e+000	-4.7760603554e-001
 3.3264803193e+000	 2.4308213452e+000	-4.8191475818e-001
 3.2995772240e+000	 2.4672158673e+000	-4.8505810148e-001
 3.2722542682e+000	 2.5033410491e+000	-4.9165479718e-001
 3.2445154743e+000	 2.5391896869e+000	-5.0193876491e-001
 3.2163650286e+000	 2.5747546566e+000	-5.1594679566e-001
 3.1878072786e+000	 2.6100289187e+000	-5.3348846170e-001
 3.1588467314e+000	 2.6450055226e+000	-5.5411704895e-001
 3.1294880513e+000	 2.6796776112e+000	-5.7684921025e-001
 3.0997360573e+000	 2.7140384253e+000	-5.9787131772e-001
 3.0695957205e+000	 2.7480813081e+000	-6.1475416922e-001
 3.3746628075e+000	 2.4096617637e+000	-4.7906062532e-001
 3.3480120336e+000	 2.4465556186e+000	-4.8857714024e-001
 3.3209347994e+000	 2.4831857160e+000	-4.8820019622e-001
 3.2934349870e+000	 2.5195447297e+000	-4.8987291607e-001
 3.2655166449e+000	 2.5556254093e+000	-4.9633316448e-001
 3.2371839863e+000	 2.5914205848e+000	-5.0763587903e-001
 3.2084413871e+000	 2.6269231708e+000	-5.2360165039e-001
 3.1792933835e+000	 2.6621261720e+000	-5.4378628295e-001
 3.1497446699e+000	 2.6970226869e+000	-5.6609976870e-001
 3.1198000965e+000	 2.7316059124e+000	-5.8701774916e-001
 3.0894646667e+000	 2.7658691487e+000	-6.0472296531e-001
 3.3963659182e+000	 2.4251587656e+000	-4.7443385001e-001
 3.3695437480e+000	 2.4622898920e+000	-4.8890286224e-001
 3.3422923749e+000	 2.4991555647e+000	-4.9349818923e-001
 3.3146157058e+000	 2.5357484103e+000	-4.9052785955e-001
 3.2865178154e+000	 2.5720611317e+000	-4.9261132406e-001
 3.2580029441e+000	 2.6080865129e+000	-5.0077691033e-001
 3.2290754956e+000	 2.6438174230e+000	-5.1484631679e-001
 3.1997400355e+000	 2.6792468215e+000	-5.3415385052e-001
 3.1700012884e+000	 2.7143677626e+000	-5.5530861440e-001
 3.1398641357e+000	 2.7491733996e+000	-5.7606185887e-001
 3.1093336128e+000	 2.7836569894e+000	-5.9458428628e-001
 3.4180690289e+000	 2.4406557675e+000	-4.6372343914e-001
 3.3910754624e+000	 2.4780241655e+000	-4.8234683318e-001
 3.3636499503e+000	 2.5151254134e+000	-4.9306599103e-001
 3.3357964246e+000	 2.5519520908e+000	-4.9383400811e-001
 3.3075189860e+000	 2.5884968541e+000	-4.9103415456e-001
 3.2788219018e+000	 2.6247524410e+000	-4.9560392843e-001
 3.2497096041e+000	 2.6607116751e+000	-5.0743362538e-001
 3.2201866875e+000	 2.6963674709e+000	-5.2488402094e-001
 3.1902579069e+000	 2.7317128383e+000	-5.4470387019e-001
 3.1599281749e+000	 2.7667408867e+000	-5.6521949922e-001
 3.1292025590e+000	 2.8014448300e+000	-5.8454633674e-001
 2.9305130975e+000	 2.6235664236e+000	-6.5943668313e-001
 2.9013769518e+000	 2.6557522478e+000	-6.6233044801e-001
 2.8718800862e+000	 2.6876222428e+000	-6.6857355627e-001
 2.8420276662e+000	 2.7191703754e+000	-6.7579987160e-001
 2.8118249913e+000	 2.7503907261e+000	-6.8406378762e-001
 2.7812774920e+000	 2.7812774920e+000	-6.9349820581e-001
 2.7503907261e+000	 2.8118249913e+000	-7.0409965686e-001
 2.7191703754e+000	 2.8420276662e+000	-7.1574585351e-001
 2.6876222428e+000	 2.8718800862e+000	-7.2821353075e-001
 2.6557522478e+000	 2.9013769518e+000	-7.4045129127e-001
 2.6235664236e+000	 2.9305130975e+000	-7.4318810990e-001
 2.9503820436e+000	 2.6413542642e+000	-6.5710871481e-001
 2.9210483543e+000	 2.6737583091e+000	-6.6303417401e-001
 2.8913514992e+000	 2.7058443834e+000	-6.7024352979e-001
 2.8612966790e+000	 2.7376064131e+000	-6.7787783930e-001
 2.8308892294e+000	 2.7690384384e+000	-6.8609013387e-001
 2.8001346173e+000	 2.8001346173e+000	-6.9487748379e-001
 2.7690384384e+000	 2.8308892294e+000	-7.0409914433e-001
 2.7376064131e+000	 2.8612966790e+000	-7.1349515337e-001
 2.7058443834e+000	 2.8913514992e+000	-7.2270520924e-001
 2.6737583091e+000	 2.9210483543e+000	-7.3128765857e-001
 2.6413542642e+000	 2.9503820436e+000	-7.3498851870e-001
 2.9702509898e+000	 2.6591421048e+000	-6.5329730204e-001
 2.9407197567e+000	 2.6917643704e+000	-6.6130431073e-001
 2.9108229122e+000	 2.7240665239e+000	-6.6934225889e-001
 2.8805656919e+000	 2.7560424507e+000	-6.7751658491e-001
 2.8499534675e+000	 2.7876861507e+000	-6.8585827685e-001
 2.8189917427e+000	 2.8189917427e+000	-6.9423941393e-001
 2.7876861507e+000	 2.8499534675e+000	-7.0239237284e-001
 2.7560424507e+000	 2.8805656919e+000	-7.0992948686e-001
 2.7240665239e+000	 2.9108229122e+000	-7.1636297812e-001
 2.6917643704e+000	 2.9407197567e+000	-7.2112498464e-001
 2.6591421048e+000	 2.9702509898e+000	-7.2326244940e-001
 2.9901199359e+000	 2.6769299455e+000	-6.4824063913e-001
 2.9603911591e+000	 2.7097704316e+000	-6.5741051714e-001
 2.9302943251e+000	 2.7422886645e+000	-6.6636056060e-001
 2.8998347048e+000	 2.7744784884e+000	-6.7519265983e-001
 2.8690177055e+000	 2.8063338631e+000	-6.8382675200e-001
 2.8378488680e+000	 2.8378488680e+000	-6.9202046373e-001
 2.8063338631e+000	 2.8690177055e+000	-6.9938939576e-001
 2.7744784884e+000	 2.8998347048e+000	-7.0542786169e-001
 2.7422886645e+000	 2.9302943251e+000	-7.0952989258e-001
 2.7097704316e+000	 2.9603911591e+000	-7.1101032088e-001
 2.6769299455e+000	 2.9901199359e+000	-7.0912576028e-001
 3.0099888821e+000	 2.6947177861e+000	-6.4152487025e-001
 2.9800625615e+000	 2.7277764929e+000	-6.5180769240e-001
 2.9497657381e+000	 2.7605108051e+000	-6.6174270620e-001
 2.9191037177e+000	 2.7929145260e+000	-6.7133637475e-001
 2.8880819436e+000	 2.8249815754e+000	-6.8040827082e-001
 2.8567059933e+000	 2.8567059933e+000	-6.8861180707e-001
 2.8249815754e+000	 2.8880819436e+000	-6.9545561853e-001
 2.7929145260e+000	 2.9191037177e+000	-7.0032540033e-001
 2.7605108051e+000	 2.9497657381e+000	-7.0250600418e-001
 2.7277764929e+000	 2.9800625615e+000	-7.0120359823e-001
 2.6947177861e+000	 3.0099888821e+000	-6.9556769878e-001
 3.0298578282e+000	 2.7125056268e+000	-6.3346391815e-001
 2.9997339639e+000	 2.7457825542e+000	-6.4490530510e-001
 2.9692371511e+000	 2.7787329457e+000	-6.5588775869e-001
 2.9383727306e+000	 2.8113505636e+000	-6.6633315932e-001
 2.9071461816e+000	 2.8436292877e+000	-6.7597109744e-001
 2.8755631186e+000	 2.8755631186e+000	-6.8436071195e-001
 2.8436292877e+000	 2.9071461816e+000	-6.9091319129e-001
 2.8113505636e+000	 2.9383727306e+000	-6.9491473135e-001
 2.7787329457e+000	 2.9692371511e+000	-6.9554974445e-001
 2.7457825542e+000	 2.9997339639e+000	-6.9192411565e-001
 2.7125056268e+000	 3.0298578282e+000	-6.8308830592e-001
 3.0497267744e+000	 2.7302934674e+000	-6.2443046134e-001
 3.0194053663e+000	 2.7637886155e+000	-6.3706869795e-001
 2.9887085641e+000	 2.7969550862e+000	-6.4915090506e-001
 2.9576417435e+000	 2.8297866013e+000	-6.6052491699e-001
 2.9262104197e+000	 2.8622770001e+000	-6.7084042059e-001
 2.8944202439e+000	 2.8944202439e+000	-6.7957192384e-001
 2.8622770001e+000	 2.9262104197e+000	-6.8604239799e-001
 2.8297866013e+000	 2.9576417435e+000	-6.8944737808e-001
 2.7969550862e+000	 2.9887085641e+000	-6.8887930676e-001
 2.7637886155e+000	 3.0194053663e+000	-6.8335190865e-001
 2.7302934674e+000	 3.0497267744e+000	-6.7182438611e-001
 3.0695957205e+000	 2.7480813081e+000	-6.1475416922e-001
 3.0390767687e+000	 2.7817946767e+000	-6.2862038775e-001
 3.0081799771e+000	 2.8151772268e+000	-6.4184478370e-001
 2.9769107564e+000	 2.8482226389e+000	-6.5421137498e-001
 2.9452746578e+000	 2.8809247124e+000	-6.6529972098e-001
 2.9132773692e+000	 2.9132773692e+000	-6.7450904515e-001
 2.8809247124e+000	 2.9452746578e+000	-6.8108304211e-001
 2.8482226389e+000	 2.9769107564e+000	-6.8413514476e-001
 2.8151772268e+000	 3.0081799771e+000	-6.8267402663e-001
 2.7817946767e+000	 3.0390767687e+000	-6.7562911746e-001
 2.7480813081e+000	 3.0695957205e+000	-6.6187591374e-001
 3.0894646667e+000	 2.7658691487e+000	-6.0472296531e-001
 3.0587481711e+000	 2.7998007380e+000	-6.1984136057e-001
 3.0276513901e+000	 2.8333993674e+000	-6.3424080721e-001
 2.9961797693e+000	 2.8666586766e+000	-6.4765142980e-001
 2.9643388958e+000	 2.8995724247e+000	-6.5959213453e-001
 2.9321344945e+000	 2.9321344945e+000	-6.6939591082e-001
 2.8995724247e+000	 2.9643388958e+000	-6.7623582916e-001
 2.8666586766e+000	 2.9961797693e+000	-6.7915150014e-001
 2.8333993674e+000	 3.0276513901e+000	-6.7707576056e-001
 2.7998007380e+000	 3.0587481711e+000	-6.6886135473e-001
 2.7658691487e+000	 3.0894646667e+000	-6.5330738356e-001
 3.1093336128e+000	 2.7836569894e+000	-5.9458428628e-001
 3.0784195736e+000	 2.8178067993e+000	-6.1097236263e-001
 3.0471228031e+000	 2.8516215080e+000	-6.2657048064e-001
 3.0154487822e+000	 2.8850947142e+000	-6.4106448842e-001
 2.9834031339e+000	 2.9182201371e+000	-6.5392181144e-001
 2.9509916199e+000	 2.9509916199e+000	-6.6441796027e-001
 2.9182201371e+000	 2.9834031339e+000	-6.7166374609e-001
 2.8850947142e+000	 3.0154487822e+000	-6.7463295878e-001
 2.8516215080e+000	 3.0471228031e+000	-6.7219026336e-001
 2.8178067993e+000	 3.0784195736e+000	-6.6311907305e-001
 2.7836569894e+000	 3.1093336128e+000	-6.4614916186e-001
 3.1292025590e+000	 2.8014448300e+000	-5.8454633674e-001
 3.0980909760e+000	 2.8358128606e+000	-6.0221518688e-001
 3.0665942160e+000	 2.8698436485e+000	-6.1902671563e-001
 3.0347177951e+000	 2.9035307518e+000	-6.3463180523e-001
 3.0024673720e+000	 2.9368678494e+000	-6.4845527144e-001
 2.9698487452e+000	 2.9698487452e+000	-6.5972360585e-001
 2.9368678494e+000	 3.0024673720e+000	-6.6749343779e-001
 2.9035307518e+000	 3.0347177951e+000	-6.7068046010e-001
 2.8698436485e+000	 3.0665942160e+000	-6.6808856414e-001
 2.8358128606e+000	 3.0980909760e+000	-6.5843893192e-001
 2.8014448300e+000	 3.1292025590e+000	-6.4039883865e-001
 2.6235664236e+000	 2.9305130975e+000	-7.4318810990e-001
 2.5910660154e+000	 2.9592877831e+000	-7.4224436257e-001
 2.5582620812e+000	 2.9876917216e+000	-7.4439134898e-001
 2.5251609764e+000	 3.0157201671e+000	-7.4758964378e-001
 2.4917691538e+000	 3.0433685191e+000	-7.4993692360e-001
 2.4580931598e+000	 3.0706323245e+000	-7.4966991107e-001
 2.4241396301e+000	 3.0975072805e+000	-7.4516559528e-001
 2.3899152852e+000	 3.1239892364e+000	-7.3494175283e-001
 2.3554269264e+000	 3.1500741959e+000	-7.1765679964e-001
 2.3206814311e+000	 3.1757583185e+000	-6.9210900918e-001
 2.2856857484e+000	 3.2010379221e+000	-6.5723513752e-001
 2.6413542642e+000	 2.9503820436e+000	-7.3498851870e-001
 2.6086335025e+000	 2.9793518222e+000	-7.3421537813e-001
 2.5756071569e+000	 3.0079483401e+000	-7.3616729971e-001
 2.5422816258e+000	 3.0361668192e+000	-7.3901159158e-001
 2.5086634059e+000	 3.0640026276e+000	-7.4104627065e-001
 2.4747590879e+000	 3.0914512822e+000	-7.4070153774e-001
 2.4405753525e+000	 3.1185084511e+000	-7.3654051562e-001
 2.4061189658e+000	 3.1451699552e+000	-7.2725927629e-001
 2.3713967751e+000	 3.1714317713e+000	-7.1168619033e-001
 2.3364157045e+000	 3.1972900329e+000	-6.8878063648e-001
 2.3011827503e+000	 3.2227410328e+000	-6.5763111534e-001
 2.6591421048e+000	 2.9702509898e+000	-7.2326244940e-001
 2.6262009896e+000	 2.9994158614e+000	-7.2327126073e-001
 2.5929522326e+000	 3.0282049587e+000	-7.2556847605e-001
 2.5594022753e+000	 3.0566134712e+000	-7.2851117084e-001
 2.5255576581e+000	 3.0846367361e+000	-7.3058158860e-001
 2.4914250160e+000	 3.1122702400e+000	-7.3038816368e-001
 2.4570110749e+000	 3.1395096216e+000	-7.2666579023e-001
 2.4223226463e+000	 3.1663506741e+000	-7.1827536622e-001
 2.3873666238e+000	 3.1927893468e+000	-7.0420264769e-001
 2.3521499780e+000	 3.2188217473e+000	-6.8355645446e-001
 2.3166797522e+000	 3.2444441434e+000	-6.5556627400e-001
 2.6769299455e+000	 2.9901199359e+000	-7.0912576028e-001
 2.6437684768e+000	 3.0194799006e+000	-7.0990451375e-001
 2.6102973083e+000	 3.0484615772e+000	-7.1305490837e-001
 2.5765229248e+000	 3.0770601233e+000	-7.1652696074e-001
 2.5424519102e+000	 3.1052708446e+000	-7.1897144302e-001
 2.5080909442e+000	 3.1330891977e+000	-7.1916019094e-001
 2.4734467973e+000	 3.1605107922e+000	-7.1598591655e-001
 2.4385263269e+000	 3.1875313929e+000	-7.0846127845e-001
 2.4033364725e+000	 3.2141469222e+000	-6.9571724781e-001
 2.3678842514e+000	 3.2403534617e+000	-6.7700081387e-001
 2.3321767542e+000	 3.2661472541e+000	-6.5167207906e-001
 2.6947177861e+000	 3.0099888821e+000	-6.9556769878e-001
 2.6613359639e+000	 3.0395439398e+000	-6.9456378973e-001
 2.6276423840e+000	 3.0687181957e+000	-6.9904307181e-001
 2.5936435742e+000	 3.0975067753e+000	-7.0345396300e-001
 2.5593461623e+000	 3.1259049531e+000	-7.0660047499e-001
 2.5247568723e+000	 3.1539081554e+000	-7.0740341913e-001
 2.4898825197e+000	 3.1815119627e+000	-7.0489977481e-001
 2.4547300074e+000	 3.2087121117e+000	-6.9824129513e-001
 2.4193063212e+000	 3.2355044976e+000	-6.8669239030e-001
 2.3836185248e+000	 3.2618851761e+000	-6.6962733612e-001
 2.3476737561e+000	 3.2878503648e+000	-6.4652686035e-001
 2.7125056268e+000	 3.0298578282e+000	-6.8308830592e-001
 2.6789034510e+000	 3.0596079790e+000	-6.7840180888e-001
 2.6449874597e+000	 3.0889748143e+000	-6.8390747958e-001
 2.6107642237e+000	 3.1179534273e+000	-6.8964516858e-001
 2.5762404145e+000	 3.1465390616e+000	-6.9381094872e-001
 2.5414228004e+000	 3.1747271132e+000	-6.9546058144e-001
 2.5063182421e+000	 3.2025131332e+000	-6.9376216077e-001
 2.4709336880e+000	 3.2298928305e+000	-6.8799426232e-001
 2.4352761699e+000	 3.2568620731e+000	-6.7754334951e-001
 2.3993527983e+000	 3.2834168905e+000	-6.6190048690e-001
 2.3631707580e+000	 3.3095534755e+000	-6.4065741716e-001
 2.7302934674e+000	 3.0497267744e+000	-6.7182438611e-001
 2.6964709382e+000	 3.0796720181e+000	-6.6385836835e-001
 2.6623325355e+000	 3.1092314328e+000	-6.6798227974e-001
 2.6278848731e+000	 3.1384000794e+000	-6.7541312859e-001
 2.5931346666e+000	 3.1671731701e+000	-6.8090430354e-001
 2.5580887285e+000	 3.1955460709e+000	-6.8363288538e-001
 2.5227539645e+000	 3.2235143038e+000	-6.8288532251e-001
 2.4871373686e+000	 3.2510735493e+000	-6.7805513101e-001
 2.4512460186e+000	 3.2782196485e+000	-6.6863982781e-001
 2.4150870717e+000	 3.3049486049e+000	-6.5423715025e-001
 2.3786677599e+000	 3.3312565862e+000	-6.3454062199e-001
 2.7480813081e+000	 3.0695957205e+000	-6.6187591374e-001
 2.7140384253e+000	 3.0997360573e+000	-6.5114175104e-001
 2.6796776112e+000	 3.1294880513e+000	-6.5231645193e-001
 2.6450055226e+000	 3.1588467314e+000	-6.6103152918e-001
 2.6100289187e+000	 3.1878072786e+000	-6.6814271043e-001
 2.5747546566e+000	 3.2163650286e+000	-6.7218155760e-001
 2.5391896869e+000	 3.2445154743e+000	-6.7254050118e-001
 2.5033410491e+000	 3.2722542682e+000	-6.6871650117e-001
 2.4672158673e+000	 3.2995772240e+000	-6.6030751087e-001
 2.4308213452e+000	 3.3264803193e+000	-6.4700820315e-001
 2.3941647618e+000	 3.3529596968e+000	-6.2907519545e-001
 2.7658691487e+000	 3.0894646667e+000	-6.5330738356e-001
 2.7316059124e+000	 3.1198000965e+000	-6.4027733006e-001
 2.6970226869e+000	 3.1497446699e+000	-6.3888838837e-001
 2.6621261720e+000	 3.1792933835e+000	-6.4673677025e-001
 2.6269231708e+000	 3.2084413871e+000	-6.5575063244e-001
 2.5914205848e+000	 3.2371839863e+000	-6.6132939304e-001
 2.5556254093e+000	 3.2655166449e+000	-6.6295947547e-001
 2.5195447297e+000	 3.2934349870e+000	-6.6023016881e-001
 2.4831857160e+000	 3.3209347994e+000	-6.5282962481e-001
 2.4465556186e+000	 3.3480120336e+000	-6.4085021086e-001
 2.4096617637e+000	 3.3746628075e+000	-6.2547691418e-001
 2.7836569894e+000	 3.1093336128e+000	-6.4614916186e-001
 2.7491733996e+000	 3.1398641357e+000	-6.3125729180e-001
 2.7143677626e+000	 3.1700012884e+000	-6.2774915859e-001
 2.6792468215e+000	 3.1997400355e+000	-6.3334960088e-001
 2.6438174230e+000	 3.2290754956e+000	-6.4391638931e-001
 2.6080865129e+000	 3.2580029441e+000	-6.5126230781e-001
 2.5720611317e+000	 3.2865178154e+000	-6.5433610962e-001
 2.5357484103e+000	 3.3146157058e+000	-6.5280867598e-001
 2.4991555647e+000	 3.3422923749e+000	-6.4658077328e-001
 2.4622898920e+000	 3.3695437480e+000	-6.3711408396e-001
 2.4251587656e+000	 3.3963659182e+000	-6.2434196686e-001
 2.8014448300e+000	 3.1292025590e+000	-6.4039883865e-001
 2.7667408867e+000	 3.1599281749e+000	-6.2404197252e-001
 2.7317128383e+000	 3.1902579069e+000	-6.1883050389e-001
 2.6963674709e+000	 3.2201866875e+000	-6.2251641530e-001
 2.6607116751e+000	 3.2497096041e+000	-6.3279372570e-001
 2.6247524410e+000	 3.2788219018e+000	-6.4213089595e-001
 2.5884968541e+000	 3.3075189860e+000	-6.4682790489e-001
 2.5519520908e+000	 3.3357964246e+000	-6.4663822683e-001
 2.5151254134e+000	 3.3636499503e+000	-6.4294755469e-001
 2.4780241655e+000	 3.3910754624e+000	-6.3633646767e-001
 2.4406557675e+000	 3.4180690289e+000	-6.2619727516e-001
 2.2856857484e+000	 3.2010379221e+000	-6.5723513752e-001
 2.2504468941e+000	 3.2259094826e+000	-6.1839618526e-001
 2.2149719435e+000	 3.2503696335e+000	-5.8392828220e-001
 2.1792680296e+000	 3.2744151693e+000	-5.5728415878e-001
 2.1433423388e+000	 3.2980430479e+000	-5.4184337413e-001
 2.1072021068e+000	 3.3212503911e+000	-5.4090338445e-001
 2.0708546138e+000	 3.3440344860e+000	-5.5762694283e-001
 2.0343071798e+000	 3.3663927853e+000	-5.9470415174e-001
 1.9975671597e+000	 3.3883229079e+000	-6.5463056756e-001
 1.9606419394e+000	 3.4098226392e+000	-7.0000450972e-001
 1.9235389302e+000	 3.4308899314e+000	-7.0512664507e-001
 2.3011827503e+000	 3.2227410328e+000	-6.5763111534e-001
 2.2657049758e+000	 3.2477812230e+000	-6.2255882008e-001
 2.2299895042e+000	 3.2724072143e+000	-5.9055799341e-001
 2.1940435169e+000	 3.2966157794e+000	-5.6478264038e-001
 2.1578742491e+000	 3.3204038555e+000	-5.4832693109e-001
 2.1214889855e+000	 3.3437685451e+000	-5.4420299692e-001
 2.0848950557e+000	 3.3667071167e+000	-5.5512343275e-001
 2.0480998292e+000	 3.3892170058e+000	-5.8359240480e-001
 2.0111107110e+000	 3.4112958151e+000	-6.3208972566e-001
 1.9739351368e+000	 3.4329413150e+000	-6.8578643004e-001
 1.9365805684e+000	 3.4541514439e+000	-6.9912555320e-001
 2.3166797522e+000	 3.2444441434e+000	-6.5556627400e-001
 2.2809630575e+000	 3.2696529635e+000	-6.2365713633e-001
 2.2450070649e+000	 3.2944447951e+000	-5.9365800374e-001
 2.2088190042e+000	 3.3188163895e+000	-5.6846218082e-001
 2.1724061594e+000	 3.3427646632e+000	-5.5092683864e-001
 2.1357758642e+000	 3.3662866990e+000	-5.4381125676e-001
 2.0989354976e+000	 3.3893797473e+000	-5.4948407594e-001
 2.0618924786e+000	 3.4120412262e+000	-5.7025139566e-001
 2.0246542622e+000	 3.4342687223e+000	-6.0841105794e-001
 1.9872283342e+000	 3.4560599909e+000	-6.6221962810e-001
 1.9496222066e+000	 3.4774129565e+000	-6.8493206742e-001
 2.3321767542e+000	 3.2661472541e+000	-6.5167207906e-001
 2.2962211391e+000	 3.2915247039e+000	-6.2238604378e-001
 2.2600246256e+000	 3.3164823760e+000	-5.9396484837e-001
 2.2235944915e+000	 3.3410169996e+000	-5.6910183170e-001
 2.1869380697e+000	 3.3651254708e+000	-5.5062187013e-001
 2.1500627430e+000	 3.3888048530e+000	-5.4079899575e-001
 2.1129759395e+000	 3.4120523780e+000	-5.4176675209e-001
 2.0756851281e+000	 3.4348654467e+000	-5.5566519119e-001
 2.0381978135e+000	 3.4572416294e+000	-5.8463876411e-001
 2.0005215316e+000	 3.4791786668e+000	-6.3083348540e-001
 1.9626638447e+000	 3.5006744691e+000	-6.6387591859e-001
 2.3476737561e+000	 3.2878503648e+000	-6.4652686035e-001
 2.3114792208e+000	 3.3133964443e+000	-6.1938502612e-001
 2.2750421863e+000	 3.3385199568e+000	-5.9217539370e-001
 2.2383699789e+000	 3.3632176097e+000	-5.6778482304e-001
 2.2014699800e+000	 3.3874862785e+000	-5.4846898525e-001
 2.1643496217e+000	 3.4113230070e+000	-5.3619606615e-001
 2.1270163813e+000	 3.4347250087e+000	-5.3295280578e-001
 2.0894777775e+000	 3.4576896671e+000	-5.4074323236e-001
 2.0517413647e+000	 3.4802145366e+000	-5.6158657516e-001
 2.0138147290e+000	 3.5022973426e+000	-5.9751439369e-001
 1.9757054829e+000	 3.5239359817e+000	-6.3724570319e-001
 2.3631707580e+000	 3.3095534755e+000	-6.4065741716e-001
 2.3267373025e+000	 3.3352681848e+000	-6.1524319273e-001
 2.2900597470e+000	 3.3605575376e+000	-5.8942031084e-001
 2.2531454662e+000	 3.3854182198e+000	-5.6554956528e-001
 2.2160018903e+000	 3.4098470862e+000	-5.4544690279e-001
 2.1786365004e+000	 3.4338411610e+000	-5.3095611326e-001
 2.1410568232e+000	 3.4573976394e+000	-5.2394850903e-001
 2.1032704269e+000	 3.4805138876e+000	-5.2632169374e-001
 2.0652849160e+000	 3.5031874438e+000	-5.3999745184e-001
 2.0271079264e+000	 3.5254160185e+000	-5.6691879892e-001
 1.9887471210e+000	 3.5471974943e+000	-6.0628474133e-001
 2.3786677599e+000	 3.3312565862e+000	-6.3454062199e-001
 2.3419953841e+000	 3.3571399252e+000	-6.1104589959e-001
 2.3050773076e+000	 3.3825951184e+000	-5.8673763137e-001
 2.2679209535e+000	 3.4076188299e+000	-5.6330309259e-001
 2.2305338007e+000	 3.4322078938e+000	-5.4245924366e-001
 2.1929233791e+000	 3.4563593150e+000	-5.2595811320e-001
 2.1550972651e+000	 3.4800702700e+000	-5.1558652329e-001
 2.1170630764e+000	 3.5033381080e+000	-5.1316484585e-001
 2.0788284673e+000	 3.5261603510e+000	-5.2054482308e-001
 2.0404011238e+000	 3.5485346943e+000	-5.3960649475e-001
 2.0017887592e+000	 3.5704590069e+000	-5.7225428371e-001
 2.3941647618e+000	 3.3529596968e+000	-6.2907519545e-001
 2.3572534658e+000	 3.3790116656e+000	-6.0788049949e-001
 2.3200948683e+000	 3.4046326992e+000	-5.8494452413e-001
 2.2826964408e+000	 3.4298194401e+000	-5.6187913909e-001
 2.2450657110e+000	 3.4545687015e+000	-5.4033611721e-001
 2.2072102578e+000	 3.4788774690e+000	-5.2200790819e-001
 2.1691377070e+000	 3.5027429007e+000	-5.0862736101e-001
 2.1308557258e+000	 3.5261623285e+000	-5.0196642015e-001
 2.0923720185e+000	 3.5491332582e+000	-5.0383383094e-001
 2.0536943212e+000	 3.5716533702e+000	-5.1607189939e-001
 2.0148303973e+000	 3.5937205195e+000	-5.4055236104e-001
 2.4096617637e+000	 3.3746628075e+000	-6.2547691418e-001
 2.3725115475e+000	 3.4008834061e+000	-6.0645831255e-001
 2.3351124290e+000	 3.4266702800e+000	-5.8478725867e-001
 2.2974719282e+000	 3.4520200502e+000	-5.6203974965e-001
 2.2595976213e+000	 3.4769295092e+000	-5.3983570355e-001
 2.2214971365e+000	 3.5013956229e+000	-5.1983973919e-001
 2.1831781488e+000	 3.5254155314e+000	-5.0376084683e-001
 2.1446483752e+000	 3.5489865489e+000	-4.9335097649e-001
 2.1059155698e+000	 3.5721061654e+000	-4.9040258186e-001
 2.0669875186e+000	 3.5947720461e+000	-4.9674516784e-001
 2.0278720355e+000	 3.6169820321e+000	-5.1424089957e-001
 2.4251587656e+000	 3.3963659182e+000	-6.2434196686e-001
 2.3877696291e+000	 3.4227551465e+000	-6.0742268368e-001
 2.3501299897e+000	 3.4487078609e+000	-5.8694281948e-001
 2.3122474155e+000	 3.4742206603e+000	-5.6447688649e-001
 2.2741295316e+000	 3.4992903168e+000	-5.4164583235e-001
 2.2357840152e+000	 3.5239137769e+000	-5.2011777618e-001
 2.1972185907e+000	 3.5480881620e+000	-5.0160757837e-001
 2.1584410247e+000	 3.5718107694e+000	-4.8787527308e-001
 2.1194591210e+000	 3.5950790726e+000	-4.8072340401e-001
 2.0802807161e+000	 3.6178907219e+000	-4.8199331442e-001
 2.0409136736e+000	 3.6402435447e+000	-4.9356045277e-001
 2.4406557675e+000	 3.4180690289e+000	-6.2619727516e-001
 2.4030277108e+000	 3.4446268869e+000	-6.1135058196e-001
 2.3651475504e+000	 3.4707454417e+000	-5.9202051661e-001
 2.3270229028e+000	 3.4964212704e+000	-5.6981403176e-001
 2.2886614419e+000	 3.5216511245e+000	-5.4638555801e-001
 2.2500708939e+000	 3.5464319309e+000	-5.2343764610e-001
 2.2112590326e+000	 3.5707607927e+000	-5.0272038663e-001
 2.1722336741e+000	 3.5946349899e+000	-4.8602963868e-001
 2.1330026723e+000	 3.6180519798e+000	-4.7520411031e-001
 2.0935739135e+000	 3.6410093978e+000	-4.7212134543e-001
 2.0539553118e+000	 3.6635050572e+000	-4.7869268190e-001
 1.9235389302e+000	 3.4308899314e+000	-7.0512664507e-001
 1.8862711687e+000	 3.4515198418e+000	-6.8026716744e-001
 1.8488405507e+000	 3.4717138517e+000	-6.3512500701e-001
 1.8112545366e+000	 3.4914704169e+000	-5.7534224128e-001
 1.7735205942e+000	 3.5107881589e+000	-5.0648057258e-001
 1.7356461945e+000	 3.5296658649e+000	-4.3398787149e-001
 1.6976388070e+000	 3.5481024868e+000	-3.6316794456e-001
 1.6595058954e+000	 3.5660971407e+000	-2.9915345228e-001
 1.6212549131e+000	 3.5836491053e+000	-2.4688188611e-001
 1.5828932993e+000	 3.6007578216e+000	-2.1107449768e-001
 1.5444284742e+000	 3.6174228910e+000	-1.9621806000e-001
 1.9365805684e+000	 3.4541514439e+000	-6.9912555320e-001
 1.8990601306e+000	 3.4749212257e+000	-6.7958141770e-001
 1.8613757321e+000	 3.4952521515e+000	-6.3761017402e-001
 1.8235348839e+000	 3.5151426665e+000	-5.7935160857e-001
 1.7855451046e+000	 3.5345913833e+000	-5.1083423142e-001
 1.7474139156e+000	 3.5535970806e+000	-4.3794128386e-001
 1.7091488371e+000	 3.5721587033e+000	-3.6638013780e-001
 1.6707573835e+000	 3.5902753613e+000	-3.0165500406e-001
 1.6322470587e+000	 3.6079463286e+000	-2.4904284895e-001
 1.5936253522e+000	 3.6251710424e+000	-2.1357240222e-001
 1.5548997347e+000	 3.6419491014e+000	-2.0000612605e-001
 1.9496222066e+000	 3.4774129565e+000	-6.8493206742e-001
 1.9118490925e+000	 3.4983226095e+000	-6.7206608766e-001
 1.8739109136e+000	 3.5187904512e+000	-6.3460046514e-001
 1.8358152313e+000	 3.5388149162e+000	-5.7913112923e-001
 1.7975696150e+000	 3.5583946077e+000	-5.1211277311e-001
 1.7591816367e+000	 3.5775282962e+000	-4.3982441106e-001
 1.7206588672e+000	 3.5962149197e+000	-3.6833849557e-001
 1.6820088716e+000	 3.6144535818e+000	-3.0349350201e-001
 1.6432392043e+000	 3.6322435519e+000	-2.5086987005e-001
 1.6043574052e+000	 3.6495842632e+000	-2.1576917475e-001
 1.5653709953e+000	 3.6664753117e+000	-2.0319638589e-001
 1.9626638447e+000	 3.5006744691e+000	-6.6387591859e-001
 1.9246380543e+000	 3.5217239934e+000	-6.5885799111e-001
 1.8864460950e+000	 3.5423287509e+000	-6.2706472355e-001
 1.8480955787e+000	 3.5624871659e+000	-5.7550710037e-001
 1.8095941253e+000	 3.5821978321e+000	-5.1102580094e-001
 1.7709493578e+000	 3.6014595119e+000	-4.4025639414e-001
 1.7321688974e+000	 3.6202711361e+000	-3.6959826134e-001
 1.6932603597e+000	 3.6386318024e+000	-3.0518714552e-001
 1.6542313498e+000	 3.6565407752e+000	-2.5287120523e-001
 1.6150894581e+000	 3.6739974839e+000	-2.1819043538e-001
 1.5758422558e+000	 3.6910015221e+000	-2.0635930197e-001
 1.9757054829e+000	 3.5239359817e+000	-6.3724570319e-001
 1.9374270162e+000	 3.5451253772e+000	-6.4106004420e-001
 1.8989812764e+000	 3.5658670506e+000	-6.1594474318e-001
 1.8603759261e+000	 3.5861594156e+000	-5.6928519587e-001
 1.8216186357e+000	 3.6060010565e+000	-5.0826826480e-001
 1.7827170788e+000	 3.6253907276e+000	-4.3984720082e-001
 1.7436789275e+000	 3.6443273525e+000	-3.7071046213e-001
 1.7045118478e+000	 3.6628100230e+000	-3.0725431827e-001
 1.6652234954e+000	 3.6808379985e+000	-2.5555910666e-001
 1.6258215111e+000	 3.6984107047e+000	-2.2136899196e-001
 1.5863135164e+000	 3.7155277324e+000	-2.1007506382e-001
 1.9887471210e+000	 3.5471974943e+000	-6.0628474133e-001
 1.9502159781e+000	 3.5685267611e+000	-6.1973705474e-001
 1.9115164578e+000	 3.5894053503e+000	-6.0215101023e-001
 1.8726562735e+000	 3.6098316652e+000	-5.6124618150e-001
 1.8336431461e+000	 3.6298042809e+000	-5.0451617168e-001
 1.7944847999e+000	 3.6493219433e+000	-4.3919335335e-001
 1.7551889576e+000	 3.6683835689e+000	-3.7221767621e-001
 1.7157633359e+000	 3.6869882436e+000	-3.1020941860e-001
 1.6762156410e+000	 3.7051352218e+000	-2.5944573892e-001
 1.6365535640e+000	 3.7228239255e+000	-2.2584086524e-001
 1.5967847769e+000	 3.7400539428e+000	-2.1492974591e-001
 2.0017887592e+000	 3.5704590069e+000	-5.7225428371e-001
 1.9630049400e+000	 3.5919281449e+000	-5.9591153580e-001
 1.9240516393e+000	 3.6129436500e+000	-5.8655847444e-001
 1.8849366209e+000	 3.6335039149e+000	-5.5214166451e-001
 1.8456676565e+000	 3.6536075053e+000	-5.0042233445e-001
 1.8062525210e+000	 3.6732531590e+000	-4.3887369793e-001
 1.7666989878e+000	 3.6924397853e+000	-3.7464984482e-001
 1.7270148240e+000	 3.7111664641e+000	-3.1455873535e-001
 1.6872077866e+000	 3.7294324451e+000	-2.6503914136e-001
 1.6472856170e+000	 3.7472371463e+000	-2.3214136008e-001
 1.6072560375e+000	 3.7645801531e+000	-2.2151151042e-001
 2.0148303973e+000	 3.5937205195e+000	-5.4055236104e-001
 1.9757939018e+000	 3.6153295288e+000	-5.7055954238e-001
 1.9365868207e+000	 3.6364819497e+000	-5.7000234868e-001
 1.8972169683e+000	 3.6571761646e+000	-5.4268987594e-001
 1.8576921669e+000	 3.6774107297e+000	-4.9661215731e-001
 1.8180202421e+000	 3.6971843747e+000	-4.3944521380e-001
 1.7782090179e+000	 3.7164960017e+000	-3.7852012573e-001
 1.7382663121e+000	 3.7353446847e+000	-3.2079636719e-001
 1.6981999321e+000	 3.7537296684e+000	-2.7283923444e-001
 1.6580176699e+000	 3.7716503671e+000	-2.4080118060e-001
 1.6177272980e+000	 3.7891063634e+000	-2.3040685299e-001
 2.0278720355e+000	 3.6169820321e+000	-5.1424089957e-001
 1.9885828637e+000	 3.6387309127e+000	-5.4460653019e-001
 1.9491220021e+000	 3.6600202494e+000	-5.5327393557e-001
 1.9094973156e+000	 3.6808484143e+000	-5.3357148445e-001
 1.8697166773e+000	 3.7012139541e+000	-4.9367945624e-001
 1.8297879632e+000	 3.7211155904e+000	-4.4143886019e-001
 1.7897190480e+000	 3.7405522181e+000	-3.8432078696e-001
 1.7495178002e+000	 3.7595229053e+000	-3.2940018338e-001
 1.7091920777e+000	 3.7780268917e+000	-2.8333386822e-001
 1.6687497229e+000	 3.7960635879e+000	-2.5234258720e-001
 1.6281985585e+000	 3.8136325738e+000	-2.4219688940e-001
 2.0409136736e+000	 3.6402435447e+000	-4.9356045277e-001
 2.0013718256e+000	 3.6621322965e+000	-5.1895727160e-001
 1.9616571835e+000	 3.6835585491e+000	-5.3711647998e-001
 1.9217776630e+000	 3.7045206639e+000	-5.2542543999e-001
 1.8817411877e+000	 3.7250171785e+000	-4.9218231282e-001
 1.8415556843e+000	 3.7450468061e+000	-4.4535545955e-001
 1.8012290781e+000	 3.7646084345e+000	-3.9251913866e-001
 1.7607692884e+000	 3.7837011259e+000	-3.4082782412e-001
 1.7201842233e+000	 3.8023241150e+000	-2.9699491116e-001
 1.6794817758e+000	 3.8204768087e+000	-2.6727559382e-001
 1.6386698191e+000	 3.8381587841e+000	-2.5745368151e-001
 2.0539553118e+000	 3.6635050572e+000	-4.7869268190e-001
 2.0141607875e+000	 3.6855336804e+000	-4.9779521973e-001
 1.9741923649e+000	 3.7070968488e+000	-5.2222104622e-001
 1.9340580104e+000	 3.7281929136e+000	-5.1884484617e-001
 1.8937656981e+000	 3.7488204029e+000	-4.9263896007e-001
 1.8533234054e+000	 3.7689780217e+000	-4.5166161523e-001
 1.8127391083e+000	 3.7886646509e+000	-4.0355350166e-001
 1.7720207765e+000	 3.8078793464e+000	-3.5551273883e-001
 1.7311763688e+000	 3.8266213383e+000	-3.1427437720e-001
 1.6902138288e+000	 3.8448900295e+000	-2.8609420334e-001
 1.6491410796e+000	 3.8626849945e+000	-2.7673660051e-001
 1.5444284742e+000	 3.6174228910e+000	-1.9621806000e-001
 1.5058620440e+000	 3.6336464752e+000	-1.9349047904e-001
 1.4672071469e+000	 3.6494259619e+000	-1.9436804363e-001
 1.4284711273e+000	 3.6647614292e+000	-2.0325094601e-001
 1.3896612948e+000	 3.6796531097e+000	-2.2407083811e-001
 1.3507849198e+000	 3.6941013890e+000	-2.6028612722e-001
 1.3118492302e+000	 3.7081068035e+000	-3.0656207490e-001
 1.2728614074e+000	 3.7216700388e+000	-3.2704974096e-001
 1.2338285827e+000	 3.7347919268e+000	-3.2442480111e-001
 1.1947578341e+000	 3.7474734443e+000	-3.0630728582e-001
 1.1556561824e+000	 3.7597157100e+000	-2.7947311355e-001
 1.5548997347e+000	 3.6419491014e+000	-2.0000612605e-001
 1.5160718233e+000	 3.6582826818e+000	-1.9836931276e-001
 1.4771548451e+000	 3.6741691538e+000	-1.9864112350e-001
 1.4381561944e+000	 3.6896085959e+000	-2.0496187219e-001
 1.3990832303e+000	 3.7046012423e+000	-2.2100937638e-001
 1.3599432726e+000	 3.7191474813e+000	-2.4999510188e-001
 1.3207435981e+000	 3.7332478529e+000	-2.9202932824e-001
 1.2814914370e+000	 3.7469030472e+000	-3.1444535787e-001
 1.2421939689e+000	 3.7601139019e+000	-3.1315009963e-001
 1.2028583196e+000	 3.7728814004e+000	-2.9561130124e-001
 1.1634915578e+000	 3.7852066689e+000	-2.6843559254e-001
 1.5653709953e+000	 3.6664753117e+000	-2.0319638589e-001
 1.5262816025e+000	 3.6829188884e+000	-2.0223220288e-001
 1.4871025432e+000	 3.6989123457e+000	-2.0158659786e-001
 1.4478412615e+000	 3.7144557626e+000	-2.0513918376e-001
 1.4085051658e+000	 3.7295493750e+000	-2.1631521496e-001
 1.3691016254e+000	 3.7441935736e+000	-2.3808259934e-001
 1.3296379661e+000	 3.7583889022e+000	-2.7274502183e-001
 1.2901214666e+000	 3.7721360556e+000	-2.9568295437e-001
 1.2505593550e+000	 3.7854358770e+000	-2.9438714725e-001
 1.2109588052e+000	 3.7982893564e+000	-2.7616399505e-001
 1.1713269333e+000	 3.8106976279e+000	-2.4744270697e-001
 1.5758422558e+000	 3.6910015221e+000	-2.0635930197e-001
 1.5364913818e+000	 3.7075550951e+000	-2.0572516666e-001
 1.4970502414e+000	 3.7236555376e+000	-2.0395955516e-001
 1.4575263286e+000	 3.7393029293e+000	-2.0468005822e-001
 1.4179271013e+000	 3.7544975076e+000	-2.1106011166e-001
 1.3782599782e+000	 3.7692396659e+000	-2.2582689719e-001
 1.3385323340e+000	 3.7835299516e+000	-2.5126147690e-001
 1.2987514962e+000	 3.7973690640e+000	-2.7325035703e-001
 1.2589247412e+000	 3.8107578521e+000	-2.7097359574e-001
 1.2190592908e+000	 3.8236973125e+000	-2.5117948625e-001
 1.1791623088e+000	 3.8361885868e+000	-2.2010959629e-001
 1.5863135164e+000	 3.7155277324e+000	-2.1007506382e-001
 1.5467011611e+000	 3.7321913017e+000	-2.0950572377e-001
 1.5069979396e+000	 3.7483987295e+000	-2.0652749573e-001
 1.4672113956e+000	 3.7641500960e+000	-2.0449411451e-001
 1.4273490369e+000	 3.7794456403e+000	-2.0632740219e-001
 1.3874183310e+000	 3.7942857582e+000	-2.1451608208e-001
 1.3474267019e+000	 3.8086710009e+000	-2.3111681397e-001
 1.3073815258e+000	 3.8226020724e+000	-2.4960206403e-001
 1.2672901273e+000	 3.8360798272e+000	-2.4571555881e-001
 1.2271597764e+000	 3.8491052686e+000	-2.2384129165e-001
 1.1869976843e+000	 3.8616795457e+000	-1.9002082964e-001
 1.5967847769e+000	 3.7400539428e+000	-2.1492974591e-001
 1.5569109403e+000	 3.7568275083e+000	-2.1423921329e-001
 1.5169456378e+000	 3.7731419214e+000	-2.1006683698e-001
 1.4768964627e+000	 3.7889972628e+000	-2.0550013512e-001
 1.4367709724e+000	 3.8043937729e+000	-2.0320896757e-001
 1.3965766838e+000	 3.8193318505e+000	-2.0544529050e-001
 1.3563210699e+000	 3.8338120503e+000	-2.1404511573e-001
 1.3160115554e+000	 3.8478350808e+000	-2.2715374971e-001
 1.2756555135e+000	 3.8614018023e+000	-2.2138260178e-001
 1.2352602619e+000	 3.8745132247e+000	-1.9729783032e-001
 1.1948330598e+000	 3.8871705046e+000	-1.6072645402e-001
 1.6072560375e+000	 3.7645801531e+000	-2.2151151042e-001
 1.5671207196e+000	 3.7814637149e+000	-2.2059515366e-001
 1.5268933359e+000	 3.7978851133e+000	-2.1535945836e-001
 1.4865815298e+000	 3.8138444295e+000	-2.0862282368e-001
 1.4461929079e+000	 3.8293419056e+000	-2.0280223160e-001
 1.4057350366e+000	 3.8443779429e+000	-1.9991397304e-001
 1.3652154378e+000	 3.8589530996e+000	-2.0157655751e-001
 1.3246415850e+000	 3.8730680892e+000	-2.0827677627e-001
 1.2840208996e+000	 3.8867237774e+000	-2.0070272843e-001
 1.2433607475e+000	 3.8999211807e+000	-1.7465791447e-001
 1.2026684352e+000	 3.9126614635e+000	-1.3573801683e-001
 1.6177272980e+000	 3.7891063634e+000	-2.3040685299e-001
 1.5773304989e+000	 3.8060999215e+000	-2.2924364348e-001
 1.5368410341e+000	 3.8226283052e+000	-2.2318928417e-001
 1.4962665968e+000	 3.8386915962e+000	-2.1478959624e-001
 1.4556148434e+000	 3.8542900382e+000	-2.0620718692e-001
 1.4148933894e+000	 3.8694240352e+000	-1.9922318099e-001
 1.3741098057e+000	 3.8840941490e+000	-1.9524111039e-001
 1.3332716146e+000	 3.8983010976e+000	-1.9529271215e-001
 1.2923862858e+000	 3.9120457525e+000	-1.8635736523e-001
 1.2514612331e+000	 3.9253291368e+000	-1.5898622714e-001
 1.2105038107e+000	 3.9381524225e+000	-1.1852456393e-001
 1.6281985585e+000	 3.8136325738e+000	-2.4219688940e-001
 1.5875402781e+000	 3.8307361281e+000	-2.4085180150e-001
 1.5467887323e+000	 3.8473714971e+000	-2.3433890259e-001
 1.5059516639e+000	 3.8635387629e+000	-2.2492740494e-001
 1.4650367789e+000	 3.8792381709e+000	-2.1452344836e-001
 1.4240517422e+000	 3.8944701275e+000	-2.0467287433e-001
 1.3830041737e+000	 3.9092351983e+000	-1.9656612831e-001
 1.3419016441e+000	 3.9235341059e+000	-1.9104503616e-001
 1.3007516719e+000	 3.9373677276e+000	-1.8097634308e-001
 1.2595617187e+000	 3.9507370929e+000	-1.5329878759e-001
 1.2183391862e+000	 3.9636433814e+000	-1.1250861435e-001
 1.6386698191e+000	 3.8381587841e+000	-2.5745368151e-001
 1.5977500574e+000	 3.8553723347e+000	-2.5608024395e-001
 1.5567364305e+000	 3.8721146890e+000	-2.4958621929e-001
 1.5156367310e+000	 3.8883859296e+000	-2.3995959241e-001
 1.4744587144e+000	 3.9041863035e+000	-2.2884733244e-001
 1.4332100950e+000	 3.9195162198e+000	-2.1755925013e-001
 1.3918985416e+000	 3.9343762477e+000	-2.0707394885e-001
 1.3505316737e+000	 3.9487671143e+000	-1.9804660369e-001
 1.3091170580e+000	 3.9626897027e+000	-1.8713287662e-001
 1.2676622042e+000	 3.9761450490e+000	-1.6055840465e-001
 1.2261745617e+000	 3.9891343403e+000	-1.2106211256e-001
 1.6491410796e+000	 3.8626849945e+000	-2.7673660051e-001
 1.6079598367e+000	 3.8800085414e+000	-2.7557959749e-001
 1.5666841286e+000	 3.8968578809e+000	-2.6970114404e-001
 1.5253217981e+000	 3.9132330963e+000	-2.6080277562e-001
 1.4838806500e+000	 3.9291344362e+000	-2.5026896175e-001
 1.4423684478e+000	 3.9445623121e+000	-2.3917209042e-001
 1.4007929095e+000	 3.9595172970e+000	-2.2827950727e-001
 1.3591617033e+000	 3.9740001227e+000	-2.1806233169e-001
 1.3174824442e+000	 3.9880116778e+000	-2.0733854125e-001
 1.2757626898e+000	 4.0015530051e+000	-1.8366776294e-001
 1.2340099371e+000	 4.0146252992e+000	-1.4712796010e-001
 1.1556561824e+000	 3.7597157100e+000	-2.7947311355e-001
 1.1165305877e+000	 3.7715199817e+000	-2.4607157399e-001
 1.0773879445e+000	 3.7828876505e+000	-2.0669442883e-001
 1.0382350804e+000	 3.7938202414e+000	-1.6459287964e-001
 9.9907875321e-001	 3.8043194115e+000	-1.2230480271e-001
 9.5992564888e-001	 3.8143869472e+000	-8.1639661871e-002
 9.2078237802e-001	 3.8240247614e+000	-4.3726821664e-002
 8.8165547354e-001	 3.8332348909e+000	-9.0149563021e-003
 8.4255138799e-001	 3.8420194933e+000	 2.2700420089e-002
 8.0347649112e-001	 3.8503808439e+000	 5.2251132787e-002
 7.6443706755e-001	 3.8583213333e+000	 8.1068411425e-002
 1.1634915578e+000	 3.7852066689e+000	-2.6843559254e-001
 1.1241006908e+000	 3.7970909739e+000	-2.3470006487e-001
 1.0846926596e+000	 3.8085357157e+000	-1.9594908585e-001
 1.0452743381e+000	 3.8195424299e+000	-1.5529194186e-001
 1.0058525301e+000	 3.8301127846e+000	-1.1512768043e-001
 9.6643396684e-001	 3.8402485784e+000	-7.7137155547e-002
 9.2702530371e-001	 3.8499517372e+000	-4.2330193056e-002
 8.8763311792e-001	 3.8592243116e+000	-1.1051470143e-002
 8.4826390576e-001	 3.8680684737e+000	 1.6989136786e-002
 8.0892408020e-001	 3.8764865146e+000	 4.2687367190e-002
 7.6961996844e-001	 3.8844808406e+000	 6.7513429989e-002
 1.1713269333e+000	 3.8106976279e+000	-2.4744270697e-001
 1.1316707938e+000	 3.8226619660e+000	-2.1226318224e-001
 1.0919973746e+000	 3.8341837809e+000	-1.7316644643e-001
 1.0523135958e+000	 3.8452646183e+000	-1.3312379847e-001
 1.0126263070e+000	 3.8559061576e+000	-9.4391357768e-002
 9.7294228481e-001	 3.8661102095e+000	-5.8535325530e-002
 9.3326822940e-001	 3.8758787129e+000	-2.6426400764e-002
 8.9361076229e-001	 3.8852137322e+000	 1.6955054480e-003
 8.5397642354e-001	 3.8941174542e+000	 2.6213981470e-002
 8.1437166927e-001	 3.9025921852e+000	 4.8098061476e-002
 7.7480286933e-001	 3.9106403479e+000	 6.8867615809e-002
 1.1791623088e+000	 3.8361885868e+000	-2.2010959629e-001
 1.1392408968e+000	 3.8482329582e+000	-1.8276370127e-001
 1.0993020896e+000	 3.8598318461e+000	-1.4268552282e-001
 1.0593528535e+000	 3.8709868067e+000	-1.0271010341e-001
 1.0194000839e+000	 3.8816995307e+000	-6.4955634963e-002
 9.7945060277e-001	 3.8919718407e+000	-3.0851812461e-002
 9.3951115509e-001	 3.9018056887e+000	-1.1423637168e-003
 8.9958840667e-001	 3.9112031529e+000	 2.4051504552e-002
 8.5968894132e-001	 3.9201664347e+000	 4.5216499298e-002
 8.1981925835e-001	 3.9286978558e+000	 6.3406057511e-002
 7.7998577022e-001	 3.9367998552e+000	 8.0202014086e-002
 1.1869976843e+000	 3.8616795457e+000	-1.9002082964e-001
 1.1468109999e+000	 3.8738039503e+000	-1.5017385140e-001
 1.1066068046e+000	 3.8854799114e+000	-1.0881569751e-001
 1.0663921112e+000	 3.8967089952e+000	-6.8644641731e-002
 1.0261738609e+000	 3.9074929037e+000	-3.1637652406e-002
 9.8595892073e-001	 3.9178334719e+000	 9.1774268984e-004
 9.4575408077e-001	 3.9277326645e+000	 2.8412985633e-002
 9.0556605105e-001	 3.9371925736e+000	 5.0855378096e-002
 8.6540145909e-001	 3.9462154151e+000	 6.8846272886e-002
 8.2526684743e-001	 3.9548035264e+000	 8.3536391593e-002
 7.8516867111e-001	 3.9629593625e+000	 9.6583503152e-002
 1.1948330598e+000	 3.8871705046e+000	-1.6072645402e-001
 1.1543811029e+000	 3.8993749425e+000	-1.1843190504e-001
 1.1139115197e+000	 3.9111279766e+000	-7.5833817354e-002
 1.0734313689e+000	 3.9224311836e+000	-3.5490892907e-002
 1.0329476378e+000	 3.9332862767e+000	 7.6665545310e-004
 9.9246723870e-001	 3.9436951030e+000	 3.1801309983e-002
 9.5199700646e-001	 3.9536596403e+000	 5.7149958219e-002
 9.1154369542e-001	 3.9631819942e+000	 7.6960236328e-002
 8.7111397687e-001	 3.9722643956e+000	 9.1961591213e-002
 8.3071443651e-001	 3.9809091970e+000	 1.0341673143e-001
 7.9035157200e-001	 3.9891188698e+000	 1.1307504191e-001
 1.2026684352e+000	 3.9126614635e+000	-1.3573801683e-001
 1.1619512060e+000	 3.9249459346e+000	-9.1438728879e-002
 1.1212162347e+000	 3.9367760418e+000	-4.7981239717e-002
 1.0804706266e+000	 3.9481533720e+000	-7.7795369581e-003
 1.0397214147e+000	 3.9590796498e+000	 2.7490738685e-002
 9.9897555666e-001	 3.9695567342e+000	 5.6852152789e-002
 9.5823993215e-001	 3.9795866160e+000	 7.9999441014e-002
 9.1752133979e-001	 3.9891714149e+000	 9.7234470461e-002
 8.7682649465e-001	 3.9983133761e+000	 1.0943019969e-001
 8.3616202558e-001	 4.0070148676e+000	 1.1818663120e-001
 7.9553447288e-001	 4.0152783771e+000	 1.2576407490e-001
 1.2105038107e+000	 3.9381524225e+000	-1.1852456393e-001
 1.1695213090e+000	 3.9505169268e+000	-7.3054299388e-002
 1.1285209497e+000	 3.9624241070e+000	-2.9460832890e-002
 1.0875098843e+000	 3.9738755604e+000	 9.9940937182e-003
 1.0464951916e+000	 3.9848730228e+000	 4.3799563232e-002
 1.0054838746e+000	 3.9954183654e+000	 7.1150577771e-002
 9.6448285783e-001	 4.0055135918e+000	 9.2024709124e-002
 9.2349898417e-001	 4.0151608355e+000	 1.0750021470e-001
 8.8253901242e-001	 4.0243623565e+000	 1.1875209721e-001
 8.4160961466e-001	 4.0331205382e+000	 1.2724292232e-001
 8.0071737377e-001	 4.0414378845e+000	 1.3474514312e-001
 1.2183391862e+000	 3.9636433814e+000	-1.1250861435e-001
 1.1770914121e+000	 3.9760879189e+000	-6.7094184119e-002
 1.1358256647e+000	 3.9880721722e+000	-2.4433932825e-002
 1.0945491420e+000	 3.9995977489e+000	 1.3372614517e-002
 1.0532689685e+000	 4.0106663959e+000	 4.5348240425e-002
 1.0119921926e+000	 4.0212799965e+000	 7.1492500901e-002
 9.7072578352e-001	 4.0314405676e+000	 9.2038576920e-002
 9.2947662854e-001	 4.0411502562e+000	 1.0765981923e-001
 8.8825153020e-001	 4.0504113370e+000	 1.1939593375e-001
 8.4705720374e-001	 4.0592262089e+000	 1.2861921126e-001
 8.0590027466e-001	 4.0675973918e+000	 1.3698945667e-001
 1.2261745617e+000	 3.9891343403e+000	-1.2106211256e-001
 1.1846615151e+000	 4.0016589111e+000	-7.7321173515e-002
 1.1431303798e+000	 4.0137202374e+000	-3.6548646983e-002
 1.1015883997e+000	 4.0253199373e+000	-2.1157437027e-005
 1.0600427454e+000	 4.0364597689e+000	 3.1467074624e-002
 1.0185005105e+000	 4.0471416277e+000	 5.7650239731e-002
 9.7696870920e-001	 4.0573675433e+000	 7.8723570585e-002
 9.3545427291e-001	 4.0671396769e+000	 9.5299502302e-002
 8.9396404797e-001	 4.0764603175e+000	 1.0833735922e-001
 8.5250479281e-001	 4.0853318795e+000	 1.1910800013e-001
 8.1108317555e-001	 4.0937568991e+000	 1.2914979108e-001
 1.2340099371e+000	 4.0146252992e+000	-1.4712796010e-001
 1.1922316182e+000	 4.0272299033e+000	-1.0560668633e-001
 1.1504350948e+000	 4.0393683026e+000	-6.6274464369e-002
 1.1086276574e+000	 4.0510421257e+000	-3.0520047791e-002
 1.0668165223e+000	 4.0622531420e+000	 8.4568336660e-004
 1.0250088285e+000	 4.0730032589e+000	 2.7520139138e-002
 9.8321163488e-001	 4.0832945191e+000	 4.9642623857e-002
 9.4143191729e-001	 4.0931290975e+000	 6.7748775328e-002
 8.9967656574e-001	 4.1025092979e+000	 8.2703725537e-002
 8.5795238189e-001	 4.1114375501e+000	 9.5665503574e-002
 8.1626607643e-001	 4.1199164064e+000	 1.0804201798e-001
 7.6443706755e-001	 3.8583213333e+000	 8.1068411425e-002
 7.2544515898e-001	 3.8658423669e+000	 9.2740003159e-002
 6.8650100458e-001	 3.8729477800e+000	 7.3108989344e-002
 6.4761060921e-001	 3.8796402911e+000	 3.2333249806e-002
 6.0877988461e-001	 3.8859227212e+000	 6.2293601493e-004
 5.7001464758e-001	 3.8917979905e+000	-1.8726954989e-002
 5.3132061837e-001	 3.8972691155e+000	-2.6162013064e-002
 4.9270341909e-001	 3.9023392051e+000	-2.0817985302e-002
 4.5416857227e-001	 3.9070114582e+000	-5.9603891994e-004
 4.1572149954e-001	 3.9112891599e+000	 3.7756058630e-002
 3.7736752037e-001	 3.9151756786e+000	 9.8559434784e-002
 7.6961996844e-001	 3.8844808406e+000	 6.7513429989e-002
 7.3036369383e-001	 3.8920528670e+000	 7.7132542367e-002
 6.9115549717e-001	 3.8992064550e+000	 5.9249141115e-002
 6.5200142403e-001	 3.9059443414e+000	 2.1578353715e-002
 6.1290742622e-001	 3.9122693665e+000	-9.0546958123e-003
 5.7387935999e-001	 3.9181844704e+000	-2.7814185485e-002
 5.3492298437e-001	 3.9236926896e+000	-3.5367007570e-002
 4.9604395959e-001	 3.9287971546e+000	-3.1078350264e-002
 4.5724784563e-001	 3.9335010856e+000	-1.3101241992e-002
 4.1854010086e-001	 3.9378077903e+000	 2.1528638043e-002
 3.7992608084e-001	 3.9417206597e+000	 7.6795583536e-002
 7.7480286933e-001	 3.9106403479e+000	 6.8867615809e-002
 7.3528222869e-001	 3.9182633671e+000	 7.6136889476e-002
 6.9580998976e-001	 3.9254651299e+000	 5.9352406841e-002
 6.5639223885e-001	 3.9322483918e+000	 2.4612311656e-002
 6.1703496783e-001	 3.9386160119e+000	-5.1885226316e-003
 5.7774407240e-001	 3.9445709502e+000	-2.3702698977e-002
 5.3852535038e-001	 3.9501162638e+000	-3.1699017264e-002
 4.9938450010e-001	 3.9552551041e+000	-2.8653665757e-002
 4.6032711899e-001	 3.9599907131e+000	-1.2855009304e-002
 4.2135870218e-001	 3.9643264207e+000	 1.8487055715e-002
 3.8248464130e-001	 3.9682656408e+000	 6.9129991926e-002
 7.7998577022e-001	 3.9367998552e+000	 8.0202014086e-002
 7.4020076354e-001	 3.9444738672e+000	 8.5041213199e-002
 7.0046448236e-001	 3.9517238049e+000	 6.8994787907e-002
 6.6078305366e-001	 3.9585524421e+000	 3.7181678033e-002
 6.2116250944e-001	 3.9649626573e+000	 8.3609954741e-003
 5.8160878482e-001	 3.9709574300e+000	-9.7671140224e-003
 5.4212771638e-001	 3.9765398380e+000	-1.7947889113e-002
 5.0272504061e-001	 3.9817130536e+000	-1.5644242601e-002
 4.6340639235e-001	 3.9864803406e+000	-1.1577853190e-003
 4.2417730350e-001	 3.9908450511e+000	 2.8246333146e-002
 3.8504320176e-001	 3.9948106218e+000	 7.6213694762e-002
 7.8516867111e-001	 3.9629593625e+000	 9.6583503152e-002
 7.4511929839e-001	 3.9706843673e+000	 9.9122666939e-002
 7.0511897495e-001	 3.9779824798e+000	 8.3733967046e-002
 6.6517386848e-001	 3.9848564924e+000	 5.5022468453e-002
 6.2529005105e-001	 3.9913093026e+000	 2.7703344762e-002
 5.8547349723e-001	 3.9973439098e+000	 1.0568710764e-002
 5.4573008239e-001	 4.0029634122e+000	 3.0513225059e-003
 5.0606558111e-001	 4.0081710031e+000	 5.8619115172e-003
 4.6648566571e-001	 4.0129699681e+000	 2.0571716813e-002
 4.2699590482e-001	 4.0173636815e+000	 4.9648172108e-002
 3.8760176222e-001	 4.0213556029e+000	 9.6358885104e-002
 7.9035157200e-001	 3.9891188698e+000	 1.1307504191e-001
 7.5003783325e-001	 3.9968948674e+000	 1.1364749023e-001
 7.0977346754e-001	 4.0042411548e+000	 9.9184555233e-002
 6.6956468330e-001	 4.0111605428e+000	 7.4320390185e-002
 6.2941759266e-001	 4.0176559480e+000	 5.0070868147e-002
 5.8933820964e-001	 4.0237303896e+000	 3.5596393318e-002
 5.4933244839e-001	 4.0293869863e+000	 3.0255999826e-002
 5.0940612162e-001	 4.0346289526e+000	 3.4491933450e-002
 4.6956493906e-001	 4.0394595956e+000	 4.9731194851e-002
 4.2981450615e-001	 4.0438823119e+000	 7.8256881484e-002
 3.9016032268e-001	 4.0479005840e+000	 1.2309175532e-001
 7.9553447288e-001	 4.0152783771e+000	 1.2576407490e-001
 7.5495636810e-001	 4.0231053675e+000	 1.2623862905e-001
 7.1442796013e-001	 4.0304998298e+000	 1.1466425543e-001
 6.7395549811e-001	 4.0374645931e+000	 9.4911661220e-002
 6.3354513427e-001	 4.0440025933e+000	 7.5108849603e-002
 5.9320292205e-001	 4.0501168695e+000	 6.3947601086e-002
 5.5293481440e-001	 4.0558105605e+000	 6.0993433838e-002
 5.1274666212e-001	 4.0610869021e+000	 6.6648277192e-002
 4.7264421242e-001	 4.0659492230e+000	 8.2233536742e-002
 4.3263310747e-001	 4.0704009423e+000	 1.0986454565e-001
 3.9271888314e-001	 4.0744455651e+000	 1.5233731865e-001
 8.0071737377e-001	 4.0414378845e+000	 1.3474514312e-001
 7.5987490295e-001	 4.0493158676e+000	 1.3642778608e-001
 7.1908245272e-001	 4.0567585047e+000	 1.2828932277e-001
 6.7834631293e-001	 4.0637686435e+000	 1.1381065852e-001
 6.3767267588e-001	 4.0703492387e+000	 9.9027763647e-002
 5.9706763447e-001	 4.0765033493e+000	 9.1528903961e-002
 5.5653718040e-001	 4.0822341347e+000	 9.1137299954e-002
 5.1608720263e-001	 4.0875448516e+000	 9.8226900669e-002
 4.7572348578e-001	 4.0924388505e+000	 1.1402713195e-001
 4.3545170879e-001	 4.0969195727e+000	 1.4050062150e-001
 3.9527744361e-001	 4.1009905462e+000	 1.8023328809e-001
 8.0590027466e-001	 4.0675973918e+000	 1.3698945667e-001
 7.6479343780e-001	 4.0755263677e+000	 1.4063638434e-001
 7.2373694531e-001	 4.0830171797e+000	 1.3636963412e-001
 6.8273712774e-001	 4.0900726938e+000	 1.2728997109e-001
 6.4180021749e-001	 4.0966958841e+000	 1.1792921094e-001
 6.0093234688e-001	 4.1028898291e+000	 1.1439283889e-001
 5.6013954641e-001	 4.1086577088e+000	 1.1672262243e-001
 5.1942774314e-001	 4.1140028011e+000	 1.2527519787e-001
 4.7880275914e-001	 4.1189284780e+000	 1.4120001106e-001
 4.3827031011e-001	 4.1234382031e+000	 1.6632048960e-001
 3.9783600407e-001	 4.1275355273e+000	 2.0302762442e-001
 8.1108317555e-001	 4.0937568991e+000	 1.2914979108e-001
 7.6971197265e-001	 4.1017368678e+000	 1.3540992398e-001
 7.2839143789e-001	 4.1092758546e+000	 1.3537599548e-001
 6.8712794256e-001	 4.1163767441e+000	 1.3177793236e-001
 6.4592775910e-001	 4.1230425294e+000	 1.2808634944e-001
 6.0479705929e-001	 4.1292763089e+000	 1.2875771057e-001
 5.6374191241e-001	 4.1350812830e+000	 1.3394263058e-001
 5.2276828364e-001	 4.1404607506e+000	 1.4398938194e-001
 4.8188203250e-001	 4.1454181055e+000	 1.5997776892e-001
 4.4108891143e-001	 4.1499568335e+000	 1.8360392946e-001
 4.0039456453e-001	 4.1540805083e+000	 2.1707757479e-001
 8.1626607643e-001	 4.1199164064e+000	 1.0804201798e-001
 7.7463050750e-001	 4.1279473679e+000	 1.1745498217e-001
 7.3304593048e-001	 4.1355345296e+000	 1.2193684098e-001
 6.9151875737e-001	 4.1426807945e+000	 1.2385561416e-001
 6.5005530071e-001	 4.1493891748e+000	 1.2593979304e-001
 6.0866177170e-001	 4.1556627888e+000	 1.3100398037e-001
 5.6734427842e-001	 4.1615048572e+000	 1.3914565223e-001
 5.2610882415e-001	 4.1669187001e+000	 1.5071189635e-001
 4.8496130586e-001	 4.1719077330e+000	 1.6672150551e-001
 4.4390751276e-001	 4.1764754639e+000	 1.8875360108e-001
 4.0295312499e-001	 4.1806254894e+000	 2.1884870471e-001
 3.7736752037e-001	 3.9151756786e+000	 9.8559434784e-002
 3.3910613303e-001	 3.9186749587e+000	 1.5155131542e-001
 3.0094827830e-001	 3.9217899151e+000	 1.6811838484e-001
 2.6289904207e-001	 3.9245241489e+000	 1.5662233687e-001
 2.2496340183e-001	 3.9268813314e+000	 1.2640231018e-001
 1.8714622592e-001	 3.9288652011e+000	 8.7697384182e-002
 1.4945227300e-001	 3.9304795604e+000	 5.1576745934e-002
 1.1188619153e-001	 3.9317282725e+000	 2.9878649915e-002
 7.4452519382e-002	 3.9326152578e+000	 3.5159085214e-002
 3.7155683567e-002	 3.9331444916e+000	 8.0650864061e-002
 0.0000000000e+000	 3.9333200000e+000	 1.8023366075e-001
 3.7992608084e-001	 3.9417206597e+000	 7.6795583536e-002
 3.4140528040e-001	 3.9452436650e+000	 1.2418343978e-001
 3.0298871454e-001	 3.9483797409e+000	 1.3688464395e-001
 2.6468150362e-001	 3.9511325128e+000	 1.2290471086e-001
 2.2648865886e-001	 3.9535056771e+000	 9.1137735525e-002
 1.8841508163e-001	 3.9555029975e+000	 5.1280580888e-002
 1.5046556284e-001	 3.9571283022e+000	 1.3755904346e-002
 1.1264478248e-001	 3.9583854805e+000	-1.0354828286e-002
 7.4957309175e-002	 3.9592784797e+000	-9.3674105118e-003
 3.7407599955e-002	 3.9598113016e+000	 2.8960675174e-002
 0.0000000000e+000	 3.9599880000e+000	 1.1739798981e-001
 3.8248464130e-001	 3.9682656408e+000	 6.9129991926e-002
 3.4370442778e-001	 3.9718123712e+000	 1.1244451355e-001
 3.0502915079e-001	 3.9749695666e+000	 1.2352420983e-001
 2.6646396517e-001	 3.9777408767e+000	 1.1005336449e-001
 2.2801391590e-001	 3.9801300227e+000	 8.0508831385e-002
 1.8968393734e-001	 3.9821407938e+000	 4.4065459123e-002
 1.5147885269e-001	 3.9837770439e+000	 1.0511584783e-002
 1.1340337343e-001	 3.9850426886e+000	-9.8242271206e-003
 7.5462098967e-002	 3.9859417015e+000	-6.1342535991e-003
 3.7659516343e-002	 3.9864781117e+000	 3.2820235211e-002
 0.0000000000e+000	 3.9866560000e+000	 1.1867426026e-001
 3.8504320176e-001	 3.9948106218e+000	 7.6213694762e-002
 3.4600357516e-001	 3.9983810775e+000	 1.1813300147e-001
 3.0706958703e-001	 4.0015593924e+000	 1.3105955922e-001
 2.6824642672e-001	 4.0043492407e+000	 1.2218742067e-001
 2.2953917293e-001	 4.0067543684e+000	 9.9456926023e-002
 1.9095279306e-001	 4.0087785902e+000	 7.1459939649e-002
 1.5249214253e-001	 4.0104257857e+000	 4.7346192922e-002
 1.1416196437e-001	 4.0116998966e+000	 3.6754410799e-002
 7.5966888759e-002	 4.0126049233e+000	 4.9749702722e-002
 3.7911432732e-002	 4.0131449217e+000	 9.6766707061e-002
 0.0000000000e+000	 4.0133240000e+000	 1.8855802468e-001
 3.8760176222e-001	 4.0213556029e+000	 9.6358885104e-002
 3.4830272253e-001	 4.0249497838e+000	 1.3782697649e-001
 3.0911002327e-001	 4.0281492181e+000	 1.5280944364e-001
 2.7002888826e-001	 4.0309576046e+000	 1.4813690673e-001
 2.3106442997e-001	 4.0333787141e+000	 1.3130717396e-001
 1.9222164877e-001	 4.0354163865e+000	 1.1040496323e-001
 1.5350543238e-001	 4.0370745274e+000	 9.4028961560e-002
 1.1492055532e-001	 4.0383571047e+000	 9.1225609333e-002
 7.6471678551e-002	 4.0392681452e+000	 1.1142904172e-001
 3.8163349120e-002	 4.0398117318e+000	 1.6440666373e-001
 0.0000000000e+000	 4.0399920000e+000	 2.6020988411e-001
 3.9016032268e-001	 4.0479005840e+000	 1.2309175532e-001
 3.5060186991e-001	 4.0515184901e+000	 1.6325760070e-001
 3.1115045952e-001	 4.0547390439e+000	 1.7933365041e-001
 2.7181134981e-001	 4.0575659685e+000	 1.7770836078e-001
 2.3258968700e-001	 4.0600030598e+000	 1.6538919106e-001
 1.9349050448e-001	 4.0620541829e+000	 1.4992530633e-001
 1.5451872222e-001	 4.0637232692e+000	 1.3933752623e-001
 1.1567914627e-001	 4.0650143127e+000	 1.4205488813e-001
 7.6976468342e-002	 4.0659313670e+000	 1.6685724157e-001
 3.8415265508e-002	 4.0664785418e+000	 2.2282333811e-001
 0.0000000000e+000	 4.0666600000e+000	 3.1928393192e-001
 3.9271888314e-001	 4.0744455651e+000	 1.5233731865e-001
 3.5290101728e-001	 4.0780871964e+000	 1.9057291638e-001
 3.1319089576e-001	 4.0813288697e+000	 2.0693932016e-001
 2.7359381136e-001	 4.0841743324e+000	 2.0735167071e-001
 2.3411494403e-001	 4.0866274055e+000	 1.9829730275e-001
 1.9475936019e-001	 4.0886919793e+000	 1.8676159065e-001
 1.5553201207e-001	 4.0903720110e+000	 1.8016092878e-001
 1.1643773722e-001	 4.0916715208e+000	 1.8628219641e-001
 7.7481258134e-002	 4.0925945888e+000	 2.1322810878e-001
 3.8667181896e-002	 4.0931453519e+000	 2.6936790645e-001
 0.0000000000e+000	 4.0933280000e+000	 3.6329288843e-001
 3.9527744361e-001	 4.1009905462e+000	 1.8023328809e-001
 3.5520016466e-001	 4.1046559027e+000	 2.1603221185e-001
 3.1523133200e-001	 4.1079186954e+000	 2.3200756725e-001
 2.7537627290e-001	 4.1107826964e+000	 2.3356995978e-001
 2.3564020107e-001	 4.1132517511e+000	 2.2665685169e-001
 1.9602821590e-001	 4.1153297756e+000	 2.1766171526e-001
 1.5654530191e-001	 4.1170207527e+000	 2.1337018946e-001
 1.1719632817e-001	 4.1183287288e+000	 2.2090257118e-001
 7.7986047926e-002	 4.1192578107e+000	 2.4766202766e-001
 3.8919098284e-002	 4.1198121619e+000	 3.0128797011e-001
 0.0000000000e+000	 4.1199960000e+000	 3.8961408518e-001
 3.9783600407e-001	 4.1275355273e+000	 2.0302762442e-001
 3.5749931203e-001	 4.1312246089e+000	 2.3598767693e-001
 3.1727176825e-001	 4.1345085212e+000	 2.5099366885e-001
 2.7715873445e-001	 4.1373910603e+000	 2.5292033173e-001
 2.3716545810e-001	 4.1398760968e+000	 2.4712548848e-001
 1.9729707162e-001	 4.1419675720e+000	 2.3938268254e-001
 1.5755859176e-001	 4.1436694945e+000	 2.3582065793e-001
 1.1795491912e-001	 4.1449859369e+000	 2.4286900336e-001
 7.8490837717e-002	 4.1459210325e+000	 2.6720933156e-001
 3.9171014672e-002	 4.1464789720e+000	 3.1573142252e-001
 0.0000000000e+000	 4.1466640000e+000	 3.9549381849e-001
 4.0039456453e-001	 4.1540805083e+000	 2.1707757479e-001
 3.5979845941e-001	 4.1577933152e+000	 2.4688400449e-001
 3.1931220449e-001	 4.1610983469e+000	 2.6042721867e-001
 2.7894119600e-001	 4.1639994242e+000	 2.6201456572e-001
 2.3869071514e-001	 4.1665004425e+000	 2.5639439698e-001
 1.9856592733e-001	 4.1686053684e+000	 2.4869234301e-001
 1.5857188160e-001	 4.1703182362e+000	 2.4435426700e-001
 1.1871351007e-001	 4.1716431449e+000	 2.4909518987e-001
 7.8995627510e-002	 4.1725842543e+000	 2.6885354315e-001
 3.9422931060e-002	 4.1731457820e+000	 3.0975016751e-001
 0.0000000000e+000	 4.1733320000e+000	 3.7805153607e-001
 4.0295312499e-001	 4.1806254894e+000	 2.1884870471e-001
 3.6209760679e-001	 4.1843620215e+000	 2.4525797214e-001
 3.2135264073e-001	 4.1876881727e+000	 2.5691224689e-001
 2.8072365755e-001	 4.1906077882e+000	 2.5751976339e-001
 2.4021597217e-001	 4.1931247882e+000	 2.5118945710e-001
 1.9983478304e-001	 4.1952431647e+000	 2.4237106272e-001
 1.5958517145e-001	 4.1969669780e+000	 2.3580169348e-001
 1.1947210102e-001	 4.1983003530e+000	 2.3645817695e-001
 7.9500417302e-002	 4.1992474762e+000	 2.4951448945e-001
 3.9674847448e-002	 4.1998125921e+000	 2.8030369555e-001
 0.0000000000e+000	 4.2000000000e+000	 3.3428386420e-001
 4.2000000000e+000	 0.0000000000e+000	 5.0741986665e-001
 4.1998125921e+000	 3.9674847448e-002	 5.3979245489e-001
 4.1992474762e+000	 7.9500417302e-002	 5.6477506673e-001
 4.1983003530e+000	 1.1947210102e-001	 5.8276897993e-001
 4.1969669780e+000	 1.5958517145e-001	 5.9451587063e-001
 4.1952431647e+000	 1.9983478304e-001	 6.0105043031e-001
 4.1931247882e+000	 2.4021597217e-001	 6.0365077348e-001
 4.1906077882e+000	 2.8072365755e-001	 6.0378614473e-001
 4.1876881727e+000	 3.2135264073e-001	 6.0306137777e-001
 4.1843620215e+000	 3.6209760679e-001	 6.0315750501e-001
 4.1806254894e+000	 4.0295312499e-001	 6.0576786237e-001
 4.2266680000e+000	 0.0000000000e+000	 5.7319646289e-001
 4.2264794022e+000	 3.9926763837e-002	 5.9175662468e-001
 4.2259106980e+000	 8.0005207095e-002	 6.0555778371e-001
 4.2249575610e+000	 1.2023069197e-001	 6.1466777349e-001
 4.2236157197e+000	 1.6059846130e-001	 6.1947923333e-001
 4.2218809611e+000	 2.0110363876e-001	 6.2066474349e-001
 4.2197491339e+000	 2.4174122921e-001	 6.1913000770e-001
 4.2172161521e+000	 2.8250611909e-001	 6.1596457222e-001
 4.2142779985e+000	 3.2339307698e-001	 6.1238951173e-001
 4.2109307278e+000	 3.6439675416e-001	 6.0970145404e-001
 4.2071704705e+000	 4.0551168545e-001	 6.0921225928e-001
 4.2533360000e+000	 0.0000000000e+000	 6.2823038054e-001
 4.2531462122e+000	 4.0178680226e-002	 6.3547142760e-001
 4.2525739199e+000	 8.0509996888e-002	 6.4012585632e-001
 4.2516147691e+000	 1.2098928292e-001	 6.4197747192e-001
 4.2502644615e+000	 1.6161175114e-001	 6.4111923772e-001
 4.2485187574e+000	 2.0237249447e-001	 6.3791103438e-001
 4.2463734795e+000	 2.4326648624e-001	 6.3293573536e-001
 4.2438245160e+000	 2.8428858064e-001	 6.2695306781e-001
 4.2408678242e+000	 3.2543351322e-001	 6.2085066580e-001
 4.2374994341e+000	 3.6669590154e-001	 6.1559166122e-001
 4.2337154516e+000	 4.0807024591e-001	 6.1215809713e-001
 4.2800040000e+000	 0.0000000000e+000	 6.7226302321e-001
 4.2798130223e+000	 4.0430596615e-002	 6.7057405064e-001
 4.2792371417e+000	 8.1014786682e-002	 6.6804126353e-001
 4.2782719771e+000	 1.2174787387e-001	 6.6421172416e-001
 4.2769132032e+000	 1.6262504099e-001	 6.5892584860e-001
 4.2751565538e+000	 2.0364135018e-001	 6.5227790193e-001
 4.2729978252e+000	 2.4479174328e-001	 6.4457509114e-001
 4.2704328799e+000	 2.8607104219e-001	 6.3629470478e-001
 4.2674576500e+000	 3.2747394947e-001	 6.2803868193e-001
 4.2640681404e+000	 3.6899504892e-001	 6.2048492820e-001
 4.2602604327e+000	 4.1062880637e-001	 6.1433463196e-001
 4.3066720000e+000	 0.0000000000e+000	 7.0509194159e-001
 4.3064798323e+000	 4.0682513004e-002	 6.9675180904e-001
 4.3059003635e+000	 8.1519576475e-002	 6.8891030126e-001
 4.3049291852e+000	 1.2250646482e-001	 6.8092288543e-001
 4.3035619450e+000	 1.6363833084e-001	 6.7242231861e-001
 4.3017943502e+000	 2.0491020590e-001	 6.6328199678e-001
 4.2996221709e+000	 2.4631700032e-001	 6.5357819660e-001
 4.2970412439e+000	 2.8785350374e-001	 6.4355063767e-001
 4.2940474757e+000	 3.2951438571e-001	 6.3356072350e-001
 4.2906368466e+000	 3.7129419629e-001	 6.2404674988e-001
 4.2868054138e+000	 4.1318736684e-001	 6.1547530172e-001
 4.3333400000e+000	 0.0000000000e+000	 7.2656910573e-001
 4.3331466424e+000	 4.0934429394e-002	 7.1374047565e-001
 4.3325635854e+000	 8.2024366269e-002	 7.0238198318e-001
 4.3315863932e+000	 1.2326505578e-001	 6.9170050247e-001
 4.3302106868e+000	 1.6465162068e-001	 6.8116376961e-001
 4.3284321465e+000	 2.0617906161e-001	 6.7046670949e-001
 4.3262465166e+000	 2.4784225735e-001	 6.5949696433e-001
 4.3236496078e+000	 2.8963596529e-001	 6.4829903000e-001
 4.3206373015e+000	 3.3155482196e-001	 6.3703633295e-001
 4.3172055529e+000	 3.7359334367e-001	 6.2595050691e-001
 4.3133503949e+000	 4.1574592730e-001	 6.1531705690e-001
 4.3600080000e+000	 0.0000000000e+000	 7.3659924079e-001
 4.3598134524e+000	 4.1186345783e-002	 7.2132267172e-001
 4.3592268072e+000	 8.2529156063e-002	 7.0814650052e-001
 4.3582436013e+000	 1.2402364673e-001	 6.9616985527e-001
 4.3568594285e+000	 1.6566491053e-001	 6.8473582793e-001
 4.3550699429e+000	 2.0744791733e-001	 6.7340090936e-001
 4.3528708623e+000	 2.4936751439e-001	 6.6190394931e-001
 4.3502579717e+000	 2.9141842684e-001	 6.5013402571e-001
 4.3472271273e+000	 3.3359525820e-001	 6.3809652958e-001
 4.3437742592e+000	 3.7589249104e-001	 6.2587669452e-001
 4.3398953759e+000	 4.1830448776e-001	 6.1359972377e-001
 4.3866760000e+000	 0.0000000000e+000	 7.3513822343e-001
 4.3864802625e+000	 4.1438262172e-002	 7.1932631646e-001
 4.3858900290e+000	 8.3033945857e-002	 7.0593373854e-001
 4.3849008094e+000	 1.2478223768e-001	 6.9399055281e-001
 4.3835081703e+000	 1.6667820038e-001	 6.8275331072e-001
 4.3817077393e+000	 2.0871677304e-001	 6.7167773148e-001
 4.3794952079e+000	 2.5089277143e-001	 6.6039124541e-001
 4.3768663357e+000	 2.9320088839e-001	 6.4866476253e-001
 4.3738169530e+000	 3.3563569445e-001	 6.3638294569e-001
 4.3703429655e+000	 3.7819163842e-001	 6.2351218618e-001
 4.3664403570e+000	 4.2086304822e-001	 6.1006539886e-001
 4.4133440000e+000	 0.0000000000e+000	 7.2219153639e-001
 4.4131470725e+000	 4.1690178561e-002	 7.0762313299e-001
 4.4125532509e+000	 8.3538735650e-002	 6.9551184713e-001
 4.4115580174e+000	 1.2554082863e-001	 6.8485518076e-001
 4.4101569120e+000	 1.6769149023e-001	 6.7485896163e-001
 4.4083455356e+000	 2.0998562876e-001	 6.6491341021e-001
 4.4061195536e+000	 2.5241802846e-001	 6.5456942518e-001
 4.4034746996e+000	 2.9498334994e-001	 6.4351442532e-001
 4.4004067788e+000	 3.3767613069e-001	 6.3154699957e-001
 4.3969116718e+000	 3.8049078580e-001	 6.1854953070e-001
 4.3929853381e+000	 4.2342160868e-001	 6.0445787334e-001
 4.4400120000e+000	 0.0000000000e+000	 6.9781277879e-001
 4.4398138826e+000	 4.1942094950e-002	 6.8612720810e-001
 4.4392164727e+000	 8.4043525443e-002	 6.7668586337e-001
 4.4382152255e+000	 1.2629941958e-001	 6.6848799863e-001
 4.4368056538e+000	 1.6870478007e-001	 6.6072223351e-001
 4.4349833320e+000	 2.1125448447e-001	 6.5274615702e-001
 4.4327438993e+000	 2.5394328550e-001	 6.4406652114e-001
 4.4300830635e+000	 2.9676581148e-001	 6.3431933798e-001
 4.4269966045e+000	 3.3971656693e-001	 6.2324910363e-001
 4.4234803781e+000	 3.8278993317e-001	 6.1068628125e-001
 4.4195303192e+000	 4.2598016914e-001	 5.9652208608e-001
 4.4666800000e+000	 0.0000000000e+000	 6.6210222966e-001
 4.4664806926e+000	 4.2194011339e-002	 6.5479360386e-001
 4.4658796945e+000	 8.4548315236e-002	 6.4929638384e-001
 4.4648724335e+000	 1.2705801053e-001	 6.4464368461e-001
 4.4634543955e+000	 1.6971806992e-001	 6.4003811625e-001
 4.4616211283e+000	 2.1252334018e-001	 6.3483508073e-001
 4.4593682450e+000	 2.5546854253e-001	 6.2852704674e-001
 4.4566914274e+000	 2.9854827303e-001	 6.2072809198e-001
 4.4535864303e+000	 3.4175700318e-001	 6.1115790641e-001
 4.4500490843e+000	 3.8508908055e-001	 5.9962435504e-001
 4.4460753003e+000	 4.2853872961e-001	 5.8600360411e-001
 4.1806254894e+000	 4.0295312499e-001	 6.0576786237e-001
 4.1764754639e+000	 4.4390751276e-001	 6.0881478091e-001
 4.1719077330e+000	 4.8496130586e-001	 6.0937246129e-001
 4.1669187001e+000	 5.2610882415e-001	 6.0769933448e-001
 4.1615048572e+000	 5.6734427842e-001	 6.0381180606e-001
 4.1556627888e+000	 6.0866177170e-001	 5.9738963625e-001
 4.1493891748e+000	 6.5005530071e-001	 5.8767190679e-001
 4.1426807945e+000	 6.9151875737e-001	 5.7355709041e-001
 4.1355345296e+000	 7.3304593048e-001	 5.5555984679e-001
 4.1279473679e+000	 7.7463050750e-001	 5.3513010073e-001
 4.1199164064e+000	 8.1626607643e-001	 5.1364756735e-001
 4.2071704705e+000	 4.0551168545e-001	 6.0921225928e-001
 4.2029940943e+000	 4.4672611408e-001	 6.0907956970e-001
 4.1983973605e+000	 4.8804057921e-001	 6.0688300288e-001
 4.1933766496e+000	 5.2944936465e-001	 6.0292270468e-001
 4.1879284314e+000	 5.7094664442e-001	 5.9727553985e-001
 4.1820492686e+000	 6.1252648411e-001	 5.8970367753e-001
 4.1757358201e+000	 6.5418284232e-001	 5.7955365889e-001
 4.1689848448e+000	 6.9590957218e-001	 5.6581119200e-001
 4.1617932046e+000	 7.3770042307e-001	 5.4870078590e-001
 4.1541578680e+000	 7.7954904235e-001	 5.2932624187e-001
 4.1460759137e+000	 8.2144897732e-001	 5.0874465945e-001
 4.2337154516e+000	 4.0807024591e-001	 6.1215809713e-001
 4.2295127247e+000	 4.4954471540e-001	 6.0895726165e-001
 4.2248869879e+000	 4.9111985257e-001	 6.0406039893e-001
 4.2198345991e+000	 5.3278990516e-001	 5.9781977385e-001
 4.2143520055e+000	 5.7454901042e-001	 5.9038374485e-001
 4.2084357484e+000	 6.1639119652e-001	 5.8160878892e-001
 4.2020824655e+000	 6.5831038393e-001	 5.7096190758e-001
 4.1952888952e+000	 7.0030038700e-001	 5.5747210469e-001
 4.1880518795e+000	 7.4235491566e-001	 5.4108979407e-001
 4.1803683681e+000	 7.8446757720e-001	 5.2261858506e-001
 4.1722354210e+000	 8.2663187820e-001	 5.0282069385e-001
 4.2602604327e+000	 4.1062880637e-001	 6.1433463196e-001
 4.2560313550e+000	 4.5236331672e-001	 6.0825399762e-001
 4.2513766154e+000	 4.9419912593e-001	 6.0078755671e-001
 4.2462925485e+000	 5.3613044566e-001	 5.9234809211e-001
 4.2407755797e+000	 5.7815137642e-001	 5.8316447976e-001
 4.2348222282e+000	 6.2025590893e-001	 5.7319739763e-001
 4.2284291109e+000	 6.6243792553e-001	 5.6204531837e-001
 4.2215929455e+000	 7.0469120181e-001	 5.4872750701e-001
 4.2143105545e+000	 7.4700940824e-001	 5.3295917314e-001
 4.2065788682e+000	 7.8938611205e-001	 5.1527784966e-001
 4.1983949284e+000	 8.3181477909e-001	 4.9617816106e-001
 4.2868054138e+000	 4.1318736684e-001	 6.1547530172e-001
 4.2825499854e+000	 4.5518191804e-001	 6.0677574807e-001
 4.2778662429e+000	 4.9727839929e-001	 5.9694304720e-001
 4.2727504980e+000	 5.3947098617e-001	 5.8645685762e-001
 4.2671991539e+000	 5.8175374243e-001	 5.7563354931e-001
 4.2612087080e+000	 6.2412062134e-001	 5.6454585189e-001
 4.2547757562e+000	 6.6656546714e-001	 5.5293269288e-001
 4.2478969958e+000	 7.0908201662e-001	 5.3974393478e-001
 4.2405692295e+000	 7.5166390083e-001	 5.2451736780e-001
 4.2327893683e+000	 7.9430464689e-001	 5.0754851891e-001
 4.2245544357e+000	 8.3699767997e-001	 4.8909128056e-001
 4.3133503949e+000	 4.1574592730e-001	 6.1531705690e-001
 4.3090686158e+000	 4.5800051936e-001	 6.0432778196e-001
 4.3043558704e+000	 5.0035767265e-001	 5.9240070956e-001
 4.2992084475e+000	 5.4281152667e-001	 5.8008665299e-001
 4.2936227281e+000	 5.8535610843e-001	 5.6779436814e-001
 4.2875951879e+000	 6.2798533375e-001	 5.5571440658e-001
 4.2811224016e+000	 6.7069300875e-001	 5.4372678434e-001
 4.2742010462e+000	 7.1347283143e-001	 5.3066695451e-001
 4.2668279044e+000	 7.5631839342e-001	 5.1594926307e-001
 4.2589998684e+000	 7.9922318174e-001	 4.9964925854e-001
 4.2507139430e+000	 8.4218058085e-001	 4.8180653709e-001
 4.3398953759e+000	 4.1830448776e-001	 6.1359972377e-001
 4.3355872462e+000	 4.6081912068e-001	 6.0071416459e-001
 4.3308454979e+000	 5.0343694600e-001	 5.8702928086e-001
 4.3256663970e+000	 5.4615206717e-001	 5.7316920349e-001
 4.3200463022e+000	 5.8895847443e-001	 5.5963784289e-001
 4.3139816677e+000	 6.3185004616e-001	 5.4674722405e-001
 4.3074690469e+000	 6.7482055036e-001	 5.3450609485e-001
 4.3005050965e+000	 7.1786364625e-001	 5.2162134620e-001
 4.2930865794e+000	 7.6097288600e-001	 5.0741648838e-001
 4.2852103685e+000	 8.0414171659e-001	 4.9177333948e-001
 4.2768734503e+000	 8.4736348174e-001	 4.7454321898e-001
 4.3664403570e+000	 4.2086304822e-001	 6.1006539886e-001
 4.3621058766e+000	 4.6363772201e-001	 5.9573728299e-001
 4.3573351253e+000	 5.0651621936e-001	 5.8069205007e-001
 4.3521243465e+000	 5.4949260768e-001	 5.6562715603e-001
 4.3464698764e+000	 5.9256084044e-001	 5.5114227203e-001
 4.3403681475e+000	 6.3571475857e-001	 5.3767238948e-001
 4.3338156923e+000	 6.7894809196e-001	 5.2533581548e-001
 4.3268091469e+000	 7.2225446106e-001	 5.1271129490e-001
 4.3193452543e+000	 7.6562737859e-001	 4.9905772807e-001
 4.3114208686e+000	 8.0906025144e-001	 4.8408906473e-001
 4.3030329576e+000	 8.5254638262e-001	 4.6749395832e-001
 4.3929853381e+000	 4.2342160868e-001	 6.0445787334e-001
 4.3886245070e+000	 4.6645632333e-001	 5.8919739793e-001
 4.3838247528e+000	 5.0959549272e-001	 5.7324653509e-001
 4.3785822960e+000	 5.5283314818e-001	 5.5737387815e-001
 4.3728934506e+000	 5.9616320644e-001	 5.4227326249e-001
 4.3667546273e+000	 6.3957947098e-001	 5.2850194011e-001
 4.3601623377e+000	 6.8307563357e-001	 5.1626329944e-001
 4.3531131972e+000	 7.2664527587e-001	 5.0402059094e-001
 4.3456039293e+000	 7.7028187117e-001	 4.9098903797e-001
 4.3376313687e+000	 8.1397878628e-001	 4.7674019994e-001
 4.3291924649e+000	 8.5772928351e-001	 4.6082527293e-001
 4.4195303192e+000	 4.2598016914e-001	 5.9652208608e-001
 4.4151431374e+000	 4.6927492465e-001	 5.8089222113e-001
 4.4103143803e+000	 5.1267476608e-001	 5.6454418201e-001
 4.4050402455e+000	 5.5617368869e-001	 5.4831327600e-001
 4.3993170248e+000	 5.9976557244e-001	 5.3298366244e-001
 4.3931411071e+000	 6.4344418339e-001	 5.1923190790e-001
 4.3865089830e+000	 6.8720317518e-001	 5.0731814886e-001
 4.3794172475e+000	 7.3103609068e-001	 4.9561283824e-001
 4.3718626043e+000	 7.7493636376e-001	 4.8330416783e-001
 4.3638418688e+000	 8.1889732113e-001	 4.6984640780e-001
 4.3553519723e+000	 8.6291218439e-001	 4.5467811007e-001
 4.4460753003e+000	 4.2853872961e-001	 5.8600360411e-001
 4.4416617678e+000	 4.7209352597e-001	 5.7061651690e-001
 4.4368040078e+000	 5.1575403944e-001	 5.5443008555e-001
 4.4314981950e+000	 5.5951422919e-001	 5.3833963068e-001
 4.4257405989e+000	 6.0336793844e-001	 5.2321350957e-001
 4.4195275870e+000	 6.4730889580e-001	 5.0984237486e-001
 4.4128556284e+000	 6.9133071679e-001	 4.9851231749e-001
 4.4057212979e+000	 7.3542690550e-001	 4.8753167049e-001
 4.3981212792e+000	 7.7959085635e-001	 4.7607488928e-001
 4.3900523689e+000	 8.2381585598e-001	 4.6350368585e-001
 4.3815114796e+000	 8.6809508528e-001	 4.4916839182e-001
 4.1199164064e+000	 8.1626607643e-001	 5.1364756735e-001
 4.1114375501e+000	 8.5795238189e-001	 4.9187525772e-001
 4.1025092979e+000	 8.9967656574e-001	 4.7004254432e-001
 4.0931290975e+000	 9.4143191729e-001	 4.4860379064e-001
 4.0832945191e+000	 9.8321163488e-001	 4.2792486904e-001
 4.0730032589e+000	 1.0250088285e+000	 4.0826998285e-001
 4.0622531420e+000	 1.0668165223e+000	 3.8979044128e-001
 4.0510421257e+000	 1.1086276574e+000	 3.7250556239e-001
 4.0393683026e+000	 1.1504350948e+000	 3.5628954712e-001
 4.0272299033e+000	 1.1922316182e+000	 3.4085317256e-001
 4.0146252992e+000	 1.2340099371e+000	 3.2572499712e-001
 4.1460759137e+000	 8.2144897732e-001	 5.0874465945e-001
 4.1375432207e+000	 8.6339997096e-001	 4.8766112236e-001
 4.1285582784e+000	 9.0538908352e-001	 4.6644470935e-001
 4.1191185182e+000	 9.4740956166e-001	 4.4553265781e-001
 4.1092214949e+000	 9.8945456057e-001	 4.2527846759e-001
 4.0988648900e+000	 1.0315171465e+000	 4.0593875641e-001
 4.0880465150e+000	 1.0735902992e+000	 3.8766145401e-001
 4.0767643142e+000	 1.1156669151e+000	 3.7046743686e-001
 4.0650163678e+000	 1.1577398098e+000	 3.5423671120e-001
 4.0528008954e+000	 1.1998017212e+000	 3.3869017469e-001
 4.0401162582e+000	 1.2418453126e+000	 3.2337071284e-001
 4.1722354210e+000	 8.2663187820e-001	 5.0282069385e-001
 4.1636488913e+000	 8.6884756003e-001	 4.8232339230e-001
 4.1546072589e+000	 9.1110160129e-001	 4.6159854099e-001
 4.1451079388e+000	 9.5338720603e-001	 4.4106829171e-001
 4.1351484706e+000	 9.9569748625e-001	 4.2107590353e-001
 4.1247265212e+000	 1.0380254644e+000	 4.0187262482e-001
 4.1138398881e+000	 1.0803640761e+000	 3.8360539811e-001
 4.1024865026e+000	 1.1227061728e+000	 3.6629911481e-001
 4.0906644331e+000	 1.1650445248e+000	 3.4984221640e-001
 4.0783718876e+000	 1.2073718243e+000	 3.3396851787e-001
 4.0656072171e+000	 1.2496806881e+000	 3.1823821569e-001
 4.1983949284e+000	 8.3181477909e-001	 4.9617816106e-001
 4.1897545619e+000	 8.7429514911e-001	 4.7619437153e-001
 4.1806562393e+000	 9.1681411906e-001	 4.5586919888e-001
 4.1710973595e+000	 9.5936485040e-001	 4.3561176511e-001
 4.1610754464e+000	 1.0019404119e+000	 4.1575721907e-001
 4.1505881524e+000	 1.0445337824e+000	 3.9655364102e-001
 4.1396332611e+000	 1.0871378530e+000	 3.7814934004e-001
 4.1282086910e+000	 1.1297454305e+000	 3.6057563376e-001
 4.1163124983e+000	 1.1723492399e+000	 3.4373196594e-001
 4.1039428797e+000	 1.2149419273e+000	 3.2736778911e-001
 4.0910981760e+000	 1.2575160636e+000	 3.1106350526e-001
 4.2245544357e+000	 8.3699767997e-001	 4.8909128056e-001
 4.2158602326e+000	 8.7974273818e-001	 4.6957628249e-001
 4.2067052198e+000	 9.2252663683e-001	 4.4959004690e-001
 4.1970867802e+000	 9.6534249477e-001	 4.2953073159e-001
 4.1870024222e+000	 1.0081833376e+000	 4.0972749827e-001
 4.1764497835e+000	 1.0510421003e+000	 3.9042743816e-001
 4.1654266342e+000	 1.0939116299e+000	 3.7178253557e-001
 4.1539308795e+000	 1.1367846882e+000	 3.5383289213e-001
 4.1419605635e+000	 1.1796539549e+000	 3.3649144988e-001
 4.1295138719e+000	 1.2225120303e+000	 3.1952593384e-001
 4.1165891349e+000	 1.2653514390e+000	 3.0253974755e-001
 4.2507139430e+000	 8.4218058085e-001	 4.8180653709e-001
 4.2419659032e+000	 8.8519032725e-001	 4.6274192024e-001
 4.2327542003e+000	 9.2823915460e-001	 4.4306342919e-001
 4.2230762008e+000	 9.7132013914e-001	 4.2316032700e-001
 4.2129293980e+000	 1.0144262633e+000	 4.0335766526e-001
 4.2023114147e+000	 1.0575504183e+000	 3.8390439315e-001
 4.1912200072e+000	 1.1006854068e+000	 3.6495772959e-001
 4.1796530679e+000	 1.1438239459e+000	 3.4656908893e-001
 4.1676086287e+000	 1.1869586699e+000	 3.2866732793e-001
 4.1550848640e+000	 1.2300821334e+000	 3.1104098495e-001
 4.1420800939e+000	 1.2731868145e+000	 2.9331915339e-001
 4.2768734503e+000	 8.4736348174e-001	 4.7454321898e-001
 4.2680715738e+000	 8.9063791633e-001	 4.5593530649e-001
 4.2588031807e+000	 9.3395167238e-001	 4.3656144364e-001
 4.2490656215e+000	 9.7729778351e-001	 4.1680406631e-001
 4.2388563737e+000	 1.0206691890e+000	 3.9698650561e-001
 4.2281730459e+000	 1.0640587363e+000	 3.7736078089e-001
 4.2170133802e+000	 1.1074591837e+000	 3.5809244443e-001
 4.2053752563e+000	 1.1508632036e+000	 3.3924614931e-001
 4.1932566939e+000	 1.1942633849e+000	 3.2076899556e-001
 4.1806558562e+000	 1.2376522364e+000	 3.0247277266e-001
 4.1675710528e+000	 1.2810221900e+000	 2.8401483500e-001
 4.3030329576e+000	 8.5254638262e-001	 4.6749395832e-001
 4.2941772444e+000	 8.9608550540e-001	 4.4937234348e-001
 4.2848521612e+000	 9.3966419015e-001	 4.3032671324e-001
 4.2750550421e+000	 9.8327542788e-001	 4.1073473602e-001
 4.2647833495e+000	 1.0269121147e+000	 3.9092007231e-001
 4.2540346771e+000	 1.0705670542e+000	 3.7113991971e-001
 4.2428067533e+000	 1.1142329606e+000	 3.5157025685e-001
 4.2310974448e+000	 1.1579024613e+000	 3.3229113662e-001
 4.2189047591e+000	 1.2015681000e+000	 3.1327013422e-001
 4.2062268484e+000	 1.2452223395e+000	 2.9434461596e-001
 4.1930620117e+000	 1.2888575655e+000	 2.7520264172e-001
 4.3291924649e+000	 8.5772928351e-001	 4.6082527293e-001
 4.3202829150e+000	 9.0153309447e-001	 4.4324146770e-001
 4.3109011417e+000	 9.4537670792e-001	 4.2457315525e-001
 4.3010444628e+000	 9.8925307225e-001	 4.0519528244e-001
 4.2907103253e+000	 1.0331550403e+000	 3.8543385757e-001
 4.2798963082e+000	 1.0770753722e+000	 3.6555330836e-001
 4.2686001263e+000	 1.1210067375e+000	 3.4574206453e-001
 4.2568196332e+000	 1.1649417191e+000	 3.2609765153e-001
 4.2445528243e+000	 1.2088728150e+000	 3.0661024638e-001
 4.2317978405e+000	 1.2527924425e+000	 2.8714499660e-001
 4.2185529706e+000	 1.2966929409e+000	 2.6742297572e-001
 4.3553519723e+000	 8.6291218439e-001	 4.5467811007e-001
 4.3463885857e+000	 9.0698068355e-001	 4.3770430343e-001
 4.3369501221e+000	 9.5108922569e-001	 4.1948674825e-001
 4.3270338835e+000	 9.9523071662e-001	 4.0039969583e-001
 4.3166373011e+000	 1.0393979660e+000	 3.8077348244e-001
 4.3057579394e+000	 1.0835836901e+000	 3.6088175481e-001
 4.2943934994e+000	 1.1277805145e+000	 3.4092734223e-001
 4.2825418216e+000	 1.1719809768e+000	 3.2102721879e-001
 4.2702008896e+000	 1.2161775300e+000	 3.0119617591e-001
 4.2573688327e+000	 1.2603625456e+000	 2.8132921604e-001
 4.2440439296e+000	 1.3045283164e+000	 2.6118258848e-001
 4.3815114796e+000	 8.6809508528e-001	 4.4916839182e-001
 4.3724942563e+000	 9.1242827262e-001	 4.3289631623e-001
 4.3629991026e+000	 9.5680174346e-001	 4.1522629726e-001
 4.3530233041e+000	 1.0012083610e+000	 3.9653389073e-001
 4.3425642768e+000	 1.0456408917e+000	 3.7715569587e-001
 4.3316195706e+000	 1.0900920081e+000	 3.5737649734e-001
 4.3201868724e+000	 1.1345542914e+000	 3.3741538817e-001
 4.3082640100e+000	 1.1790202345e+000	 3.1741066214e-001
 4.2958489548e+000	 1.2234822450e+000	 2.9740361454e-001
 4.2829398248e+000	 1.2679326486e+000	 2.7732103645e-001
 4.2695348885e+000	 1.3123636919e+000	 2.5695635905e-001
 4.0146252992e+000	 1.2340099371e+000	 3.2572499712e-001
 4.0015530051e+000	 1.2757626898e+000	 3.0860761353e-001
 3.9880116778e+000	 1.3174824442e+000	 2.8697466946e-001
 3.9740001227e+000	 1.3591617033e+000	 2.6029771761e-001
 3.9595172970e+000	 1.4007929095e+000	 2.3156596580e-001
 3.9445623121e+000	 1.4423684478e+000	 2.0151675183e-001
 3.9291344362e+000	 1.4838806500e+000	 1.7056332448e-001
 3.9132330963e+000	 1.5253217981e+000	 1.3911618608e-001
 3.8968578809e+000	 1.5666841286e+000	 1.0758373305e-001
 3.8800085414e+000	 1.6079598367e+000	 7.6371903530e-002
 3.8626849945e+000	 1.6491410796e+000	 4.5882814258e-002
 4.0401162582e+000	 1.2418453126e+000	 3.2337071284e-001
 4.0269609611e+000	 1.2838631754e+000	 3.0597704929e-001
 4.0133336529e+000	 1.3258478303e+000	 2.8401873395e-001
 3.9992331311e+000	 1.3677917329e+000	 2.5798649597e-001
 3.9846583464e+000	 1.4096872774e+000	 2.3051111442e-001
 3.9696084045e+000	 1.4515268006e+000	 2.0186640316e-001
 3.9540825688e+000	 1.4933025855e+000	 1.7234278317e-001
 3.9380802631e+000	 1.5350068651e+000	 1.4224004703e-001
 3.9216010728e+000	 1.5766318268e+000	 1.1186833028e-001
 3.9046447480e+000	 1.6181696159e+000	 8.1548008069e-002
 3.8872112048e+000	 1.6596123402e+000	 5.1608497941e-002
 4.0656072171e+000	 1.2496806881e+000	 3.1823821569e-001
 4.0523689172e+000	 1.2919636610e+000	 3.0041070220e-001
 4.0386556280e+000	 1.3342132165e+000	 2.7802442760e-001
 4.0244661395e+000	 1.3764217625e+000	 2.5210355062e-001
 4.0097993957e+000	 1.4185816454e+000	 2.2480218167e-001
 3.9946544968e+000	 1.4606851534e+000	 1.9692580122e-001
 3.9790307015e+000	 1.5027245210e+000	 1.6853216501e-001
 3.9629274298e+000	 1.5446919322e+000	 1.3968654347e-001
 3.9463442647e+000	 1.5865795250e+000	 1.1059629610e-001
 3.9292809546e+000	 1.6283793952e+000	 8.1490413881e-002
 3.9117374151e+000	 1.6700836007e+000	 5.2618459099e-002
 4.0910981760e+000	 1.2575160636e+000	 3.1106350526e-001
 4.0777768733e+000	 1.3000641465e+000	 2.9269129276e-001
 4.0639776031e+000	 1.3425786026e+000	 2.6994020621e-001
 4.0496991479e+000	 1.3850517921e+000	 2.4413187423e-001
 4.0349404451e+000	 1.4274760133e+000	 2.1675731548e-001
 4.0197005891e+000	 1.4698435062e+000	 1.8861228012e-001
 4.0039788341e+000	 1.5121464565e+000	 1.6046188967e-001
 3.9877745965e+000	 1.5543769993e+000	 1.3270619533e-001
 3.9710874566e+000	 1.5965272232e+000	 1.0494404918e-001
 3.9539171612e+000	 1.6385891745e+000	 7.7277372620e-002
 3.9362636255e+000	 1.6805548613e+000	 4.9868835081e-002
 4.1165891349e+000	 1.2653514390e+000	 3.0253974755e-001
 4.1031848294e+000	 1.3081646321e+000	 2.8355784798e-001
 4.0892995782e+000	 1.3509439888e+000	 2.6053281222e-001
 4.0749321563e+000	 1.3936818217e+000	 2.3480639164e-001
 4.0600814944e+000	 1.4363703812e+000	 2.0744708374e-001
 4.0447466814e+000	 1.4790018590e+000	 1.7919582359e-001
 4.0289269668e+000	 1.5215683920e+000	 1.5076853134e-001
 4.0126217632e+000	 1.5640620664e+000	 1.2285296938e-001
 3.9958306485e+000	 1.6064749214e+000	 9.6064960236e-002
 3.9785533678e+000	 1.6487989537e+000	 6.9964977609e-002
 3.9607898358e+000	 1.6910261218e+000	 4.4295007260e-002
 4.1420800939e+000	 1.2731868145e+000	 2.9331915339e-001
 4.1285927855e+000	 1.3162651177e+000	 2.7370772266e-001
 4.1146215533e+000	 1.3593093749e+000	 2.5047913325e-001
 4.1001651647e+000	 1.4023118513e+000	 2.2483173636e-001
 4.0852225438e+000	 1.4452647492e+000	 1.9758195436e-001
 4.0697927737e+000	 1.4881602118e+000	 1.6941866228e-001
 4.0538750995e+000	 1.5309903275e+000	 1.4100982894e-001
 4.0374689299e+000	 1.5737471334e+000	 1.1299945946e-001
 4.0205738404e+000	 1.6164226195e+000	 8.6004414598e-002
 4.0031895744e+000	 1.6590087330e+000	 6.0611106249e-002
 3.9853160462e+000	 1.7014973824e+000	 3.6810981244e-002
 4.1675710528e+000	 1.2810221900e+000	 2.8401483500e-001
 4.1540007416e+000	 1.3243656032e+000	 2.6379859653e-001
 4.1399435284e+000	 1.3676747611e+000	 2.4042809188e-001
 4.1253981731e+000	 1.4109418809e+000	 2.1488380261e-001
 4.1103635931e+000	 1.4541591171e+000	 1.8784342969e-001
 4.0948388660e+000	 1.4973185646e+000	 1.5994647215e-001
 4.0788232321e+000	 1.5404122631e+000	 1.3181414186e-001
 4.0623160966e+000	 1.5834322005e+000	 1.0404636655e-001
 4.0453170323e+000	 1.6263703177e+000	 7.7218673290e-002
 4.0278257810e+000	 1.6692185123e+000	 5.1878951238e-002
 4.0098422565e+000	 1.7119686430e+000	 2.8544090893e-002
 4.1930620117e+000	 1.2888575655e+000	 2.7520264172e-001
 4.1794086976e+000	 1.3324660888e+000	 2.5445044829e-001
 4.1652655035e+000	 1.3760401472e+000	 2.3100158261e-001
 4.1506311815e+000	 1.4195719105e+000	 2.0561072746e-001
 4.1355046425e+000	 1.4630534850e+000	 1.7888505807e-001
 4.1198849584e+000	 1.5064769174e+000	 1.5141731088e-001
 4.1037713648e+000	 1.5498341986e+000	 1.2378307940e-001
 4.0871632634e+000	 1.5931172676e+000	 9.6537853216e-002
 4.0700602242e+000	 1.6363180159e+000	 7.0213944048e-002
 4.0524619877e+000	 1.6794282915e+000	 4.5317296905e-002
 4.0343684668e+000	 1.7224399035e+000	 2.2324183154e-002
 4.2185529706e+000	 1.2966929409e+000	 2.6742297572e-001
 4.2048166537e+000	 1.3405665744e+000	 2.4625489945e-001
 4.1905874786e+000	 1.3844055334e+000	 2.2279538508e-001
 4.1758641899e+000	 1.4282019401e+000	 1.9763384824e-001
 4.1606456919e+000	 1.4719478530e+000	 1.7133342028e-001
 4.1449310507e+000	 1.5156352702e+000	 1.4444261820e-001
 4.1287194974e+000	 1.5592561341e+000	 1.1749249957e-001
 4.1120104301e+000	 1.6028023347e+000	 9.0993713723e-002
 4.0948034161e+000	 1.6462657141e+000	 6.5433449046e-002
 4.0770981943e+000	 1.6896380708e+000	 4.1272274256e-002
 4.0588946772e+000	 1.7329111641e+000	 1.8940869806e-002
 4.2440439296e+000	 1.3045283164e+000	 2.6118258848e-001
 4.2302246098e+000	 1.3486670600e+000	 2.3976022172e-001
 4.2159094537e+000	 1.3927709195e+000	 2.1638005459e-001
 4.2010971983e+000	 1.4368319697e+000	 1.9154863632e-001
 4.1857867412e+000	 1.4808422209e+000	 1.6578909197e-001
 4.1699771430e+000	 1.5247936230e+000	 1.3960819216e-001
 4.1536676301e+000	 1.5686780696e+000	 1.1349348463e-001
 4.1368575968e+000	 1.6124874017e+000	 8.7910333987e-002
 4.1195466080e+000	 1.6562134122e+000	 6.3298869636e-002
 4.1017344009e+000	 1.6998478501e+000	 4.0070839179e-002
 4.0834208875e+000	 1.7433824246e+000	 1.8606363201e-002
 4.2695348885e+000	 1.3123636919e+000	 2.5695635905e-001
 4.2556325659e+000	 1.3567675455e+000	 2.3546920086e-001
 4.2412314288e+000	 1.4011363057e+000	 2.1230179082e-001
 4.2263302067e+000	 1.4454619993e+000	 1.8792560820e-001
 4.2109277906e+000	 1.4897365888e+000	 1.6282758302e-001
 4.1950232353e+000	 1.5339519758e+000	 1.3747514271e-001
 4.1786157627e+000	 1.5781000051e+000	 1.1231329448e-001
 4.1617047635e+000	 1.6221724688e+000	 8.7761630629e-002
 4.1442897998e+000	 1.6661611104e+000	 6.4211256729e-002
 4.1263706075e+000	 1.7100576294e+000	 4.2021639799e-002
 4.1079470979e+000	 1.7538536852e+000	 2.1517371930e-002
 3.8626849945e+000	 1.6491410796e+000	 4.5882814258e-002
 3.8448900295e+000	 1.6902138288e+000	 1.8937009735e-002
 3.8266213383e+000	 1.7311763688e+000	-3.0349849328e-003
 3.8078793464e+000	 1.7720207765e+000	-2.1744189015e-002
 3.7886646509e+000	 1.8127391083e+000	-3.8953568940e-002
 3.7689780217e+000	 1.8533234054e+000	-5.6481284122e-002
 3.7488204029e+000	 1.8937656981e+000	-7.6204681327e-002
 3.7281929136e+000	 1.9340580104e+000	-1.0006496872e-001
 3.7070968488e+000	 1.9741923649e+000	-1.3007248836e-001
 3.6855336804e+000	 2.0141607875e+000	-1.6742132604e-001
 3.6635050572e+000	 2.0539553118e+000	-2.0366817268e-001
 3.8872112048e+000	 1.6596123402e+000	 5.1608497941e-002
 3.8693032502e+000	 1.7009458817e+000	 2.4654959312e-002
 3.8509185616e+000	 1.7421685144e+000	 2.0232062628e-003
 3.8320575670e+000	 1.7832722646e+000	-1.7879258935e-002
 3.8127208673e+000	 1.8242491384e+000	-3.6696484338e-002
 3.7929092374e+000	 1.8650911265e+000	-5.6127981194e-002
 3.7726236273e+000	 1.9057902084e+000	-7.7933447219e-002
 3.7518651633e+000	 1.9463383578e+000	-1.0393822704e-001
 3.7306351485e+000	 1.9867275464e+000	-1.3603942354e-001
 3.7089350642e+000	 2.0269497493e+000	-1.7313845946e-001
 3.6867665698e+000	 2.0669969500e+000	-2.0699138520e-001
 3.9117374151e+000	 1.6700836007e+000	 5.2618459099e-002
 3.8937164710e+000	 1.7116779347e+000	 2.6279937689e-002
 3.8752157849e+000	 1.7531606600e+000	 3.6161347594e-003
 3.8562357876e+000	 1.7945237527e+000	-1.6868760408e-002
 3.8367770837e+000	 1.8357591685e+000	-3.6720437950e-002
 3.8168404531e+000	 1.8768588475e+000	-5.7539025718e-002
 3.7964268517e+000	 1.9178147188e+000	-8.0984524042e-002
 3.7755374129e+000	 1.9586187052e+000	-1.0878303929e-001
 3.7541734482e+000	 1.9992627278e+000	-1.4273372484e-001
 3.7323364481e+000	 2.0397387112e+000	-1.7836322074e-001
 3.7100280824e+000	 2.0800385881e+000	-2.1017937457e-001
 3.9362636255e+000	 1.6805548613e+000	 4.9868835081e-002
 3.9181296918e+000	 1.7224099876e+000	 2.4641486628e-002
 3.8995130082e+000	 1.7641528056e+000	 2.4619402310e-003
 3.8804140082e+000	 1.8057752408e+000	-1.8090241310e-002
 3.8608333001e+000	 1.8472691986e+000	-3.8482428927e-002
 3.8407716688e+000	 1.8886265686e+000	-6.0234110956e-002
 3.8202300761e+000	 1.9298392292e+000	-8.4923023596e-002
 3.7992096626e+000	 1.9708990526e+000	-1.1419214601e-001
 3.7777117479e+000	 2.0117979092e+000	-1.4924156209e-001
 3.7557378319e+000	 2.0525276731e+000	-1.8288732898e-001
 3.7332895950e+000	 2.0930802263e+000	-2.1299663931e-001
 3.9607898358e+000	 1.6910261218e+000	 4.4295007260e-002
 3.9425429126e+000	 1.7331420406e+000	 2.0549833690e-002
 3.9238102315e+000	 1.7751449511e+000	-7.3954886094e-004
 3.9045922287e+000	 1.8170267289e+000	-2.0938999383e-002
 3.8848895166e+000	 1.8587792288e+000	-4.1457088791e-002
 3.8647028845e+000	 1.9003942897e+000	-6.3750890475e-002
 3.8440333006e+000	 1.9418637396e+000	-8.9332792316e-002
 3.8228819123e+000	 1.9831793999e+000	-1.1977824348e-001
 3.8012500476e+000	 2.0243330906e+000	-1.5465953699e-001
 3.7791392158e+000	 2.0653166350e+000	-1.8651910649e-001
 3.7565511076e+000	 2.1061218644e+000	-2.1522491041e-001
 3.9853160462e+000	 1.7014973824e+000	 3.6810981244e-002
 3.9669561334e+000	 1.7438740935e+000	 1.4795123235e-002
 3.9481074548e+000	 1.7861370967e+000	-5.3077219261e-003
 3.9287704493e+000	 1.8282782170e+000	-2.4829114593e-002
 3.9089457330e+000	 1.8702892589e+000	-4.5137827145e-002
 3.8886341002e+000	 1.9121620108e+000	-6.7646224492e-002
 3.8678365250e+000	 1.9538882500e+000	-9.3817745159e-002
 3.8465541619e+000	 1.9954597473e+000	-1.2517539168e-001
 3.8247883473e+000	 2.0368682721e+000	-1.5881777337e-001
 3.8025405996e+000	 2.0781055968e+000	-1.8908320562e-001
 3.7798126202e+000	 2.1191635026e+000	-2.1666285461e-001
 4.0098422565e+000	 1.7119686430e+000	 2.8544090893e-002
 3.9913693542e+000	 1.7546061465e+000	 8.1466343968e-003
 3.9724046781e+000	 1.7971292423e+000	-1.0582102846e-002
 3.9529486699e+000	 1.8395297051e+000	-2.9194488810e-002
 3.9330019494e+000	 1.8817992890e+000	-4.9037982563e-002
 3.9125653159e+000	 1.9239297319e+000	-7.1497429719e-002
 3.8916397494e+000	 1.9659127604e+000	-9.8003201800e-002
 3.8702264116e+000	 2.0077400947e+000	-1.2985991912e-001
 3.8483266470e+000	 2.0494034535e+000	-1.6156443763e-001
 3.8259419835e+000	 2.0908945587e+000	-1.9042033737e-001
 3.8030741328e+000	 2.1322051407e+000	-2.1712578030e-001
 4.0343684668e+000	 1.7224399035e+000	 2.2324183154e-002
 4.0157825750e+000	 1.7653381994e+000	 1.9559365489e-003
 3.9967019014e+000	 1.8081213878e+000	-1.5923276093e-002
 3.9771268904e+000	 1.8507811932e+000	-3.3489892508e-002
 3.9570581658e+000	 1.8933093192e+000	-5.2691978435e-002
 3.9364965315e+000	 1.9356974530e+000	-7.4903532569e-002
 3.9154429738e+000	 1.9779372708e+000	-1.0153722504e-001
 3.8938986613e+000	 2.0200204421e+000	-1.3292149443e-001
 3.8718649467e+000	 2.0619386349e+000	-1.6276335165e-001
 3.8493433673e+000	 2.1036835206e+000	-1.9038700163e-001
 3.8263356453e+000	 2.1452467789e+000	-2.1644534584e-001
 4.0588946772e+000	 1.7329111641e+000	 1.8940869806e-002
 4.0401957957e+000	 1.7760702524e+000	-1.2234902806e-003
 4.0209991247e+000	 1.8191135334e+000	-1.9659226775e-002
 4.0013051110e+000	 1.8620326814e+000	-3.7187751827e-002
 3.9811143822e+000	 1.9048193493e+000	-5.5656483549e-002
 3.9604277472e+000	 1.9474651741e+000	-7.7486525558e-002
 3.9392461982e+000	 1.9899617812e+000	-1.0409196134e-001
 3.9175709110e+000	 2.0323007895e+000	-1.3416356817e-001
 3.8954032465e+000	 2.0744738163e+000	-1.6229373364e-001
 3.8727447512e+000	 2.1164724825e+000	-1.8885521903e-001
 3.8495971579e+000	 2.1582884170e+000	-2.1446927038e-001
 4.0834208875e+000	 1.7433824246e+000	 1.8606363201e-002
 4.0646090165e+000	 1.7868023053e+000	-1.1040348959e-003
 4.0452963480e+000	 1.8301056790e+000	-1.9800371749e-002
 4.0254833316e+000	 1.8732841695e+000	-3.8283248145e-002
 4.0051705986e+000	 1.9163293794e+000	-5.7446642449e-002
 3.9843589629e+000	 1.9592328952e+000	-7.8892626794e-002
 3.9630494226e+000	 2.0019862916e+000	-1.0535557498e-001
 3.9412431606e+000	 2.0445811369e+000	-1.3347107410e-001
 3.9189415462e+000	 2.0870089978e+000	-1.6004994006e-001
 3.8961461350e+000	 2.1292614443e+000	-1.8571226438e-001
 3.8728586705e+000	 2.1713300552e+000	-2.1106104684e-001
 4.1079470979e+000	 1.7538536852e+000	 2.1517371930e-002
 4.0890222373e+000	 1.7975343583e+000	 2.3958055739e-003
 4.0695935713e+000	 1.8410978246e+000	-1.6339371229e-002
 4.0496615522e+000	 1.8845356576e+000	-3.5485834564e-002
 4.0292268150e+000	 1.9278394095e+000	-5.5926584573e-002
 4.0082901786e+000	 1.9710006163e+000	-7.8632597497e-002
 3.9868526470e+000	 2.0140108020e+000	-1.0464479077e-001
 3.9649154103e+000	 2.0568614843e+000	-1.3074410566e-001
 3.9424798459e+000	 2.0995441792e+000	-1.5594120891e-001
 3.9195475189e+000	 2.1420504062e+000	-1.8086040156e-001
 3.8961201831e+000	 2.1843716934e+000	-2.0609965715e-001
 3.6635050572e+000	 2.0539553118e+000	-2.0366817268e-001
 3.6410093978e+000	 2.0935739135e+000	-2.3703412102e-001
 3.6180519798e+000	 2.1330026723e+000	-2.6798788580e-001
 3.5946349899e+000	 2.1722336741e+000	-2.9684761954e-001
 3.5707607927e+000	 2.2112590326e+000	-3.2391256560e-001
 3.5464319309e+000	 2.2500708939e+000	-3.4946556690e-001
 3.5216511245e+000	 2.2886614419e+000	-3.7377607972e-001
 3.4964212704e+000	 2.3270229028e+000	-3.9710368131e-001
 3.4707454417e+000	 2.3651475504e+000	-4.1970205452e-001
 3.4446268869e+000	 2.4030277108e+000	-4.4182342727e-001
 3.4180690289e+000	 2.4406557675e+000	-4.6372343914e-001
 3.6867665698e+000	 2.0669969500e+000	-2.0699138520e-001
 3.6641280737e+000	 2.1068671109e+000	-2.3770993717e-001
 3.6410248870e+000	 2.1465462235e+000	-2.6571791054e-001
 3.6174592103e+000	 2.1860263235e+000	-2.9153534733e-001
 3.5934334234e+000	 2.2252994745e+000	-3.1566001206e-001
 3.5689500849e+000	 2.2643577727e+000	-3.3856957936e-001
 3.5440119321e+000	 2.3031933522e+000	-3.6072435340e-001
 3.5186218805e+000	 2.3417983901e+000	-3.8257050824e-001
 3.4927830225e+000	 2.3801651111e+000	-4.0454383299e-001
 3.4664986274e+000	 2.4182857924e+000	-4.2707395954e-001
 3.4397721396e+000	 2.4561527694e+000	-4.5058904523e-001
 3.7100280824e+000	 2.0800385881e+000	-2.1017937457e-001
 3.6872467495e+000	 2.1201603083e+000	-2.3871144453e-001
 3.6639977942e+000	 2.1600897748e+000	-2.6426428649e-001
 3.6402834308e+000	 2.1998189730e+000	-2.8752035970e-001
 3.6161060541e+000	 2.2393399163e+000	-3.0913701164e-001
 3.5914682389e+000	 2.2786446514e+000	-3.2974841970e-001
 3.5663727398e+000	 2.3177252626e+000	-3.4996809195e-001
 3.5408224906e+000	 2.3565738775e+000	-3.7039191663e-001
 3.5148206033e+000	 2.3951826718e+000	-3.9160174436e-001
 3.4883703678e+000	 2.4335438741e+000	-4.1416948096e-001
 3.4614752502e+000	 2.4716497713e+000	-4.3866166288e-001
 3.7332895950e+000	 2.0930802263e+000	-2.1299663931e-001
 3.7103654254e+000	 2.1334535057e+000	-2.3977077591e-001
 3.6869707013e+000	 2.1736333260e+000	-2.6333649892e-001
 3.6631076512e+000	 2.2136116224e+000	-2.8450000665e-001
 3.6387786847e+000	 2.2533803582e+000	-3.0404007438e-001
 3.6139863929e+000	 2.2929315301e+000	-3.2270982437e-001
 3.5887335475e+000	 2.3322571729e+000	-3.4123908298e-001
 3.5630231007e+000	 2.3713493648e+000	-3.6033731477e-001
 3.5368581841e+000	 2.4102002324e+000	-3.8069711772e-001
 3.5102421082e+000	 2.4488019558e+000	-4.0299825715e-001
 3.4831783609e+000	 2.4871467732e+000	-4.2791221009e-001
 3.7565511076e+000	 2.1061218644e+000	-2.1522491041e-001
 3.7334841012e+000	 2.1467467031e+000	-2.4063804412e-001
 3.7099436085e+000	 2.1871768773e+000	-2.6266251222e-001
 3.6859318717e+000	 2.2274042718e+000	-2.8219034972e-001
 3.6614513154e+000	 2.2674208001e+000	-3.0008436920e-001
 3.6365045468e+000	 2.3072184088e+000	-3.1717983275e-001
 3.6110943551e+000	 2.3467890832e+000	-3.3428673954e-001
 3.5852237108e+000	 2.3861248521e+000	-3.5219271943e-001
 3.5588957649e+000	 2.4252177931e+000	-3.7166651622e-001
 3.5321138487e+000	 2.4640600374e+000	-3.9346203825e-001
 3.5048814716e+000	 2.5026437751e+000	-4.1832294702e-001
 3.7798126202e+000	 2.1191635026e+000	-2.1666285461e-001
 3.7566027771e+000	 2.1600399005e+000	-2.4108101870e-001
 3.7329165157e+000	 2.2007204285e+000	-2.6198842856e-001
 3.7087560921e+000	 2.2411969213e+000	-2.8032581143e-001
 3.6841239461e+000	 2.2814612420e+000	-2.9700337366e-001
 3.6590227008e+000	 2.3215052875e+000	-3.1290244723e-001
 3.6334551628e+000	 2.3613209935e+000	-3.2887778131e-001
 3.6074243209e+000	 2.4009003395e+000	-3.4576046920e-001
 3.5809333458e+000	 2.4402353538e+000	-3.6436149436e-001
 3.5539855891e+000	 2.4793181191e+000	-3.8547587226e-001
 3.5265845823e+000	 2.5181407770e+000	-4.0988735826e-001
 3.8030741328e+000	 2.1322051407e+000	-2.1712578030e-001
 3.7797214530e+000	 2.1733330979e+000	-2.4088480635e-001
 3.7558894229e+000	 2.2142639798e+000	-2.6107815079e-001
 3.7315803126e+000	 2.2549895707e+000	-2.7865882931e-001
 3.7067965767e+000	 2.2955016839e+000	-2.9454852829e-001
 3.6815408548e+000	 2.3357921662e+000	-3.0963929770e-001
 3.6558159705e+000	 2.3758529038e+000	-3.2479591929e-001
 3.6296249310e+000	 2.4156758268e+000	-3.4085894036e-001
 3.6029709266e+000	 2.4552529145e+000	-3.5864835624e-001
 3.5758573295e+000	 2.4945762008e+000	-3.7896791765e-001
 3.5482876930e+000	 2.5336377790e+000	-4.0261003203e-001
 3.8263356453e+000	 2.1452467789e+000	-2.1644534584e-001
 3.8028401288e+000	 2.1866262953e+000	-2.3985153465e-001
 3.7788623301e+000	 2.2278075310e+000	-2.5971304936e-001
 3.7544045330e+000	 2.2687822201e+000	-2.7695951441e-001
 3.7294692074e+000	 2.3095421257e+000	-2.9248889550e-001
 3.7040590088e+000	 2.3500790449e+000	-3.0716931006e-001
 3.6781767781e+000	 2.3903848141e+000	-3.2184154406e-001
 3.6518255411e+000	 2.4304513141e+000	-3.3732226517e-001
 3.6250085074e+000	 2.4702704752e+000	-3.5440791489e-001
 3.5977290700e+000	 2.5098342824e+000	-3.7387925498e-001
 3.5699908036e+000	 2.5491347809e+000	-3.9650653604e-001
 3.8495971579e+000	 2.1582884170e+000	-2.1446927038e-001
 3.8259588047e+000	 2.1999194927e+000	-2.3780003912e-001
 3.8018352373e+000	 2.2413510823e+000	-2.5769163323e-001
 3.7772287535e+000	 2.2825748696e+000	-2.7501531396e-001
 3.7521418381e+000	 2.3235825676e+000	-2.9061082261e-001
 3.7265771628e+000	 2.3643659237e+000	-3.0528837887e-001
 3.7005375858e+000	 2.4049167245e+000	-3.1983141744e-001
 3.6740261512e+000	 2.4452268014e+000	-3.3500005258e-001
 3.6470460882e+000	 2.4852880359e+000	-3.5153525254e-001
 3.6196008104e+000	 2.5250923641e+000	-3.7016369790e-001
 3.5916939143e+000	 2.5646317828e+000	-3.9160329062e-001
 3.8728586705e+000	 2.1713300552e+000	-2.1106104684e-001
 3.8490774805e+000	 2.2132126902e+000	-2.3456555342e-001
 3.8248081445e+000	 2.2548946335e+000	-2.5482922440e-001
 3.8000529739e+000	 2.2963675190e+000	-2.7263067815e-001
 3.7748144687e+000	 2.3376230095e+000	-2.8871760912e-001
 3.7490953168e+000	 2.3786528024e+000	-3.0380904369e-001
 3.7228983934e+000	 2.4194486348e+000	-3.1859836719e-001
 3.6962267613e+000	 2.4600022888e+000	-3.3375711115e-001
 3.6690836690e+000	 2.5003055965e+000	-3.4993948188e-001
 3.6414725508e+000	 2.5403504458e+000	-3.6778760324e-001
 3.6133970250e+000	 2.5801287847e+000	-3.8793743881e-001
 3.8961201831e+000	 2.1843716934e+000	-2.0609965715e-001
 3.8721961564e+000	 2.2265058876e+000	-2.2999940246e-001
 3.8477810517e+000	 2.2684381848e+000	-2.5095763609e-001
 3.8228771944e+000	 2.3101601684e+000	-2.6962673074e-001
 3.7974870994e+000	 2.3516634514e+000	-2.8662917774e-001
 3.7716134707e+000	 2.3929396811e+000	-3.0256016911e-001
 3.7452592011e+000	 2.4339805451e+000	-3.1799098496e-001
 3.7184273714e+000	 2.4747777761e+000	-3.3347317411e-001
 3.6911212498e+000	 2.5153231572e+000	-3.4954350813e-001
 3.6633442912e+000	 2.5556085274e+000	-3.6672968046e-001
 3.6351001357e+000	 2.5956257866e+000	-3.8555671380e-001
 3.4180690289e+000	 2.4406557675e+000	-4.6372343914e-001
 3.3910754624e+000	 2.4780241655e+000	-4.8234683318e-001
 3.3636499503e+000	 2.5151254134e+000	-4.9306599103e-001
 3.3357964246e+000	 2.5519520908e+000	-4.9383400811e-001
 3.3075189860e+000	 2.5884968541e+000	-4.9103415456e-001
 3.2788219018e+000	 2.6247524410e+000	-4.9560392843e-001
 3.2497096041e+000	 2.6607116751e+000	-5.0743362538e-001
 3.2201866875e+000	 2.6963674709e+000	-5.2488402094e-001
 3.1902579069e+000	 2.7317128383e+000	-5.4470387019e-001
 3.1599281749e+000	 2.7667408867e+000	-5.6521949922e-001
 3.1292025590e+000	 2.8014448300e+000	-5.8454633674e-001
 3.4397721396e+000	 2.4561527694e+000	-4.5058904523e-001
 3.4126071768e+000	 2.4937584389e+000	-4.7249289318e-001
 3.3850075257e+000	 2.5310952621e+000	-4.8845655927e-001
 3.3569771434e+000	 2.5681557714e+000	-4.9636289919e-001
 3.3285201565e+000	 2.6049325766e+000	-4.9446182304e-001
 3.2996408595e+000	 2.6414183691e+000	-4.9447119881e-001
 3.2703437126e+000	 2.6776059272e+000	-5.0304238299e-001
 3.2406333396e+000	 2.7134881204e+000	-5.1729489190e-001
 3.2105145255e+000	 2.7490579140e+000	-5.3513699437e-001
 3.1799922140e+000	 2.7843083738e+000	-5.5490629119e-001
 3.1490715051e+000	 2.8192326707e+000	-5.7467560939e-001
 3.4614752502e+000	 2.4716497713e+000	-4.3866166288e-001
 3.4341388912e+000	 2.5094927124e+000	-4.6296475188e-001
 3.4063651012e+000	 2.5470651107e+000	-4.8312641798e-001
 3.3781578623e+000	 2.5843594519e+000	-4.9700680272e-001
 3.3495213271e+000	 2.6213682990e+000	-5.0254558055e-001
 3.3204598173e+000	 2.6580842972e+000	-4.9989760351e-001
 3.2909778211e+000	 2.6945001794e+000	-5.0319179058e-001
 3.2610799916e+000	 2.7306087699e+000	-5.1291225578e-001
 3.2307711440e+000	 2.7664029897e+000	-5.2762589402e-001
 3.2000562532e+000	 2.8018758610e+000	-5.4567757404e-001
 3.1689404513e+000	 2.8370205113e+000	-5.6513636022e-001
 3.4831783609e+000	 2.4871467732e+000	-4.2791221009e-001
 3.4556706056e+000	 2.5252269858e+000	-4.5381767847e-001
 3.4277226766e+000	 2.5630349594e+000	-4.7720183514e-001
 3.3993385811e+000	 2.6005631325e+000	-4.9594877590e-001
 3.3705224976e+000	 2.6378040214e+000	-5.0802276381e-001
 3.3412787750e+000	 2.6747502254e+000	-5.1141093744e-001
 3.3116119296e+000	 2.7113944315e+000	-5.0830473369e-001
 3.2815266437e+000	 2.7477294193e+000	-5.1218581620e-001
 3.2510277626e+000	 2.7837480654e+000	-5.2258636119e-001
 3.2201202924e+000	 2.8194433481e+000	-5.3789818875e-001
 3.1888093974e+000	 2.8548083520e+000	-5.5622456329e-001
 3.5048814716e+000	 2.5026437751e+000	-4.1832294702e-001
 3.4772023200e+000	 2.5409612592e+000	-4.4511609584e-001
 3.4490802521e+000	 2.5790048081e+000	-4.7081637022e-001
 3.4205192999e+000	 2.6167668131e+000	-4.9337765176e-001
 3.3915236682e+000	 2.6542397438e+000	-5.1083372861e-001
 3.3620977327e+000	 2.6914161535e+000	-5.2067911582e-001
 3.3322460381e+000	 2.7282886836e+000	-5.1880445904e-001
 3.3019732957e+000	 2.7648500688e+000	-5.1552164589e-001
 3.2712843811e+000	 2.8010931411e+000	-5.2039158754e-001
 3.2401843316e+000	 2.8370108352e+000	-5.3189186407e-001
 3.2086783436e+000	 2.8725961926e+000	-5.4819703902e-001
 3.5265845823e+000	 2.5181407770e+000	-4.0988735826e-001
 3.4987340343e+000	 2.5566955327e+000	-4.3693353403e-001
 3.4704378275e+000	 2.5949746568e+000	-4.6411088917e-001
 3.4417000187e+000	 2.6329704936e+000	-4.8948810570e-001
 3.4125248387e+000	 2.6706754662e+000	-5.1119810929e-001
 3.3829166905e+000	 2.7080820816e+000	-5.2581057908e-001
 3.3528801466e+000	 2.7451829358e+000	-5.3007039017e-001
 3.3224199478e+000	 2.7819707182e+000	-5.2328357398e-001
 3.2915409996e+000	 2.8184382168e+000	-5.2137356717e-001
 3.2602483708e+000	 2.8545783224e+000	-5.2794261963e-001
 3.2285472897e+000	 2.8903840333e+000	-5.4127284206e-001
 3.5482876930e+000	 2.5336377790e+000	-4.0261003203e-001
 3.5202657487e+000	 2.5724298061e+000	-4.2935257784e-001
 3.4917954030e+000	 2.6109445055e+000	-4.5723357163e-001
 3.4628807375e+000	 2.6491741742e+000	-4.8448071250e-001
 3.4335260093e+000	 2.6871111886e+000	-5.0902988525e-001
 3.4037356482e+000	 2.7247480097e+000	-5.2712627558e-001
 3.3735142551e+000	 2.7620771879e+000	-5.3635467323e-001
 3.3428665998e+000	 2.7990913677e+000	-5.3460137851e-001
 3.3117976182e+000	 2.8357832925e+000	-5.2582448784e-001
 3.2803124100e+000	 2.8721458095e+000	-5.2629615870e-001
 3.2484162359e+000	 2.9081718739e+000	-5.3563464044e-001
 3.5699908036e+000	 2.5491347809e+000	-3.9650653604e-001
 3.5417974631e+000	 2.5881640796e+000	-4.2246480907e-001
 3.5131529784e+000	 2.6269143542e+000	-4.5033991071e-001
 3.4840614564e+000	 2.6653778548e+000	-4.7856199438e-001
 3.4545271798e+000	 2.7035469110e+000	-5.0448077020e-001
 3.4245546059e+000	 2.7414139378e+000	-5.2495356028e-001
 3.3941483636e+000	 2.7789714400e+000	-5.3798329601e-001
 3.3633132518e+000	 2.8162120171e+000	-5.4162182799e-001
 3.3320542367e+000	 2.8531283682e+000	-5.3399811150e-001
 3.3003764491e+000	 2.8897132967e+000	-5.2716125120e-001
 3.2682851820e+000	 2.9259597146e+000	-5.3143008641e-001
 3.5916939143e+000	 2.5646317828e+000	-3.9160329062e-001
 3.5633291775e+000	 2.6038983530e+000	-4.1637074357e-001
 3.5345105539e+000	 2.6428842029e+000	-4.4359270561e-001
 3.5052421752e+000	 2.6815815353e+000	-4.7178060506e-001
 3.4755283504e+000	 2.7199826334e+000	-4.9785695982e-001
 3.4453735637e+000	 2.7580798659e+000	-5.1962567042e-001
 3.4147824721e+000	 2.7958656922e+000	-5.3530212316e-001
 3.3837599039e+000	 2.8333326666e+000	-5.4314237696e-001
 3.3523108553e+000	 2.8704734439e+000	-5.4145237540e-001
 3.3204404883e+000	 2.9072807838e+000	-5.3071110718e-001
 3.2881541282e+000	 2.9437475552e+000	-5.2877317936e-001
 3.6133970250e+000	 2.5801287847e+000	-3.8793743881e-001
 3.5848608919e+000	 2.6196326264e+000	-4.1117976322e-001
 3.5558681293e+000	 2.6588540516e+000	-4.3716204748e-001
 3.5264228940e+000	 2.6977852159e+000	-4.6416522579e-001
 3.4965295210e+000	 2.7364183558e+000	-4.8947085774e-001
 3.4661925214e+000	 2.7747457941e+000	-5.1148119101e-001
 3.4354165807e+000	 2.8127599443e+000	-5.2866188448e-001
 3.4042065559e+000	 2.8504533161e+000	-5.3951119107e-001
 3.3725674738e+000	 2.8878185197e+000	-5.4256886232e-001
 3.3405045275e+000	 2.9248482709e+000	-5.3642564891e-001
 3.3080230744e+000	 2.9615353959e+000	-5.2774562115e-001
 3.6351001357e+000	 2.5956257866e+000	-3.8555671380e-001
 3.6063926063e+000	 2.6353668999e+000	-4.0701004315e-001
 3.5772257048e+000	 2.6748239003e+000	-4.3118564449e-001
 3.5476036128e+000	 2.7139888964e+000	-4.5599420995e-001
 3.5175306915e+000	 2.7528540782e+000	-4.7964051568e-001
 3.4870114791e+000	 2.7914117222e+000	-5.0086351052e-001
 3.4560506892e+000	 2.8296541964e+000	-5.1841763691e-001
 3.4246532080e+000	 2.8675739655e+000	-5.3108067199e-001
 3.3928240923e+000	 2.9051635954e+000	-5.3766225156e-001
 3.3605685667e+000	 2.9424157581e+000	-5.3701303923e-001
 3.3278920205e+000	 2.9793232365e+000	-5.2839816402e-001
 3.1292025590e+000	 2.8014448300e+000	-5.8454633674e-001
 3.0980909760e+000	 2.8358128606e+000	-6.0221518688e-001
 3.0665942160e+000	 2.8698436485e+000	-6.1902671563e-001
 3.0347177951e+000	 2.9035307518e+000	-6.3463180523e-001
 3.0024673720e+000	 2.9368678494e+000	-6.4845527144e-001
 2.9698487452e+000	 2.9698487452e+000	-6.5972360585e-001
 2.9368678494e+000	 3.0024673720e+000	-6.6749343779e-001
 2.9035307518e+000	 3.0347177951e+000	-6.7068046010e-001
 2.8698436485e+000	 3.0665942160e+000	-6.6808856414e-001
 2.8358128606e+000	 3.0980909760e+000	-6.5843893192e-001
 2.8014448300e+000	 3.1292025590e+000	-6.4039883865e-001
 3.1490715051e+000	 2.8192326707e+000	-5.7467560939e-001
 3.1177623784e+000	 2.8538189218e+000	-5.9339165557e-001
 3.0860656290e+000	 2.8880657891e+000	-6.1127698679e-001
 3.0539868080e+000	 2.9219667895e+000	-6.2793569579e-001
 3.0215316100e+000	 2.9555155617e+000	-6.4273819747e-001
 2.9887058705e+000	 2.9887058705e+000	-6.5485027318e-001
 2.9555155617e+000	 3.0215316100e+000	-6.6326284560e-001
 2.9219667895e+000	 3.0539868080e+000	-6.6682221768e-001
 2.8880657891e+000	 3.0860656290e+000	-6.6426051001e-001
 2.8538189218e+000	 3.1177623784e+000	-6.5422603408e-001
 2.8192326707e+000	 3.1490715051e+000	-6.3531334437e-001
 3.1689404513e+000	 2.8370205113e+000	-5.6513636022e-001
 3.1374337808e+000	 2.8718249831e+000	-5.8437538386e-001
 3.1055370420e+000	 2.9062879297e+000	-6.0300256945e-001
 3.0732558209e+000	 2.9404028271e+000	-6.2054276614e-001
 3.0405958481e+000	 2.9741632741e+000	-6.3628003045e-001
 3.0075629958e+000	 3.0075629958e+000	-6.4928807823e-001
 2.9741632741e+000	 3.0405958481e+000	-6.5846147655e-001
 2.9404028271e+000	 3.0732558209e+000	-6.6254729754e-001
 2.9062879297e+000	 3.1055370420e+000	-6.6017695732e-001
 2.8718249831e+000	 3.1374337808e+000	-6.4989796643e-001
 2.8370205113e+000	 3.1689404513e+000	-6.3020532397e-001
 3.1888093974e+000	 2.8548083520e+000	-5.5622456329e-001
 3.1571051832e+000	 2.8898310444e+000	-5.7538878966e-001
 3.1250084550e+000	 2.9245100703e+000	-5.9436171079e-001
 3.0925248338e+000	 2.9588388648e+000	-6.1255691281e-001
 3.0596600862e+000	 2.9928109864e+000	-6.2914056393e-001
 3.0264201211e+000	 3.0264201211e+000	-6.4306338057e-001
 2.9928109864e+000	 3.0596600862e+000	-6.5309334125e-001
 2.9588388648e+000	 3.0925248338e+000	-6.5784885806e-001
 2.9245100703e+000	 3.1250084550e+000	-6.5583211725e-001
 2.8898310444e+000	 3.1571051832e+000	-6.4546230365e-001
 2.8548083520e+000	 3.1888093974e+000	-6.2510843012e-001
 3.2086783436e+000	 2.8725961926e+000	-5.4819703902e-001
 3.1767765856e+000	 2.9078371057e+000	-5.6661723008e-001
 3.1444798680e+000	 2.9427322108e+000	-5.8547746692e-001
 3.1117938467e+000	 2.9772749024e+000	-6.0404846876e-001
 3.0787243242e+000	 3.0114586987e+000	-6.2134739409e-001
 3.0452772465e+000	 3.0452772465e+000	-6.3617142884e-001
 3.0114586987e+000	 3.0787243242e+000	-6.4713212804e-001
 2.9772749024e+000	 3.1117938467e+000	-6.5269020875e-001
 2.9427322108e+000	 3.1444798680e+000	-6.5119049317e-001
 2.9078371057e+000	 3.1767765856e+000	-6.4089670495e-001
 2.8725961926e+000	 3.2086783436e+000	-6.2002582793e-001
 3.2285472897e+000	 2.8903840333e+000	-5.4127284206e-001
 3.1964479881e+000	 2.9258431670e+000	-5.5821036838e-001
 3.1639512810e+000	 2.9609543514e+000	-5.7643905422e-001
 3.1310628596e+000	 2.9957109400e+000	-5.9505554442e-001
 3.0977885623e+000	 3.0301064111e+000	-6.1289725646e-001
 3.0641343718e+000	 3.0641343718e+000	-6.2857769932e-001
 3.0301064111e+000	 3.0977885623e+000	-6.4052254995e-001
 2.9957109400e+000	 3.1310628596e+000	-6.4700617233e-001
 2.9609543514e+000	 3.1639512810e+000	-6.4618826513e-001
 2.9258431670e+000	 3.1964479881e+000	-6.3615032848e-001
 2.8903840333e+000	 3.2285472897e+000	-6.1493164707e-001
 3.2484162359e+000	 2.9081718739e+000	-5.3563464044e-001
 3.2161193905e+000	 2.9438492282e+000	-5.5028353408e-001
 3.1834226940e+000	 2.9791764920e+000	-5.6730319525e-001
 3.1503318725e+000	 3.0141469777e+000	-5.8558536479e-001
 3.1168528004e+000	 3.0487541234e+000	-6.0375735969e-001
 3.0829914971e+000	 3.0829914971e+000	-6.2021923232e-001
 3.0487541234e+000	 3.1168528004e+000	-6.3318168990e-001
 3.0141469777e+000	 3.1503318725e+000	-6.4070444544e-001
 2.9791764920e+000	 3.1834226940e+000	-6.4073467280e-001
 2.9438492282e+000	 3.2161193905e+000	-6.3114524373e-001
 2.9081718739e+000	 3.2484162359e+000	-6.0977243103e-001
 3.2682851820e+000	 2.9259597146e+000	-5.3143008641e-001
 3.2357907929e+000	 2.9618552895e+000	-5.4291907649e-001
 3.2028941070e+000	 2.9973986326e+000	-5.5809545962e-001
 3.1696008853e+000	 3.0325830153e+000	-5.7561560270e-001
 3.1359170384e+000	 3.0674018357e+000	-5.9386671654e-001
 3.1018486224e+000	 3.1018486224e+000	-6.1100596656e-001
 3.0674018357e+000	 3.1359170384e+000	-6.2500034448e-001
 3.0325830153e+000	 3.1696008853e+000	-6.3366695788e-001
 2.9973986326e+000	 3.2028941070e+000	-6.3471339689e-001
 2.9618552895e+000	 3.2357907929e+000	-6.2577784187e-001
 2.9259597146e+000	 3.2682851820e+000	-6.0446858369e-001
 3.2881541282e+000	 2.9437475552e+000	-5.2877317936e-001
 3.2554621953e+000	 2.9798613508e+000	-5.3616771187e-001
 3.2223655200e+000	 3.0156207731e+000	-5.4881160005e-001
 3.1888698982e+000	 3.0510190530e+000	-5.6509570843e-001
 3.1549812765e+000	 3.0860495481e+000	-5.8313747220e-001
 3.1207057477e+000	 3.1207057477e+000	-6.0082207159e-001
 3.0860495481e+000	 3.1549812765e+000	-6.1584436605e-001
 3.0510190530e+000	 3.1888698982e+000	-6.2575123059e-001
 3.0156207731e+000	 3.2223655200e+000	-6.2798393906e-001
 2.9798613508e+000	 3.2554621953e+000	-6.1992024431e-001
 2.9437475552e+000	 3.2881541282e+000	-5.9891581314e-001
 3.3080230744e+000	 2.9615353959e+000	-5.2774562115e-001
 3.2751335977e+000	 2.9978674121e+000	-5.3004986464e-001
 3.2418369329e+000	 3.0338429137e+000	-5.3941888364e-001
 3.2081389111e+000	 3.0694550906e+000	-5.5394823578e-001
 3.1740455146e+000	 3.1046972604e+000	-5.7145623002e-001
 3.1395628730e+000	 3.1395628730e+000	-5.8952727825e-001
 3.1046972604e+000	 3.1740455146e+000	-6.0555600351e-001
 3.0694550906e+000	 3.2081389111e+000	-6.1679173225e-001
 3.0338429137e+000	 3.2418369329e+000	-6.2038300054e-001
 2.9978674121e+000	 3.2751335977e+000	-6.1342170936e-001
 2.9615353959e+000	 3.3080230744e+000	-5.9298657312e-001
 3.3278920205e+000	 2.9793232365e+000	-5.2839816402e-001
 3.2948050001e+000	 3.0158734733e+000	-5.2455700276e-001
 3.2613083459e+000	 3.0520650543e+000	-5.2985741883e-001
 3.2274079240e+000	 3.0878911282e+000	-5.4207016485e-001
 3.1931097526e+000	 3.1233449728e+000	-5.5868537480e-001
 3.1584199984e+000	 3.1584199984e+000	-5.7695820747e-001
 3.1233449728e+000	 3.1931097526e+000	-5.9395524165e-001
 3.0878911282e+000	 3.2274079240e+000	-6.0660123477e-001
 3.0520650543e+000	 3.2613083459e+000	-6.1172585932e-001
 3.0158734733e+000	 3.2948050001e+000	-6.0611003729e-001
 2.9793232365e+000	 3.3278920205e+000	-5.8653150196e-001
 2.8014448300e+000	 3.1292025590e+000	-6.4039883865e-001
 2.7667408867e+000	 3.1599281749e+000	-6.2404197252e-001
 2.7317128383e+000	 3.1902579069e+000	-6.1883050389e-001
 2.6963674709e+000	 3.2201866875e+000	-6.2251641530e-001
 2.6607116751e+000	 3.2497096041e+000	-6.3279372570e-001
 2.6247524410e+000	 3.2788219018e+000	-6.4213089595e-001
 2.5884968541e+000	 3.3075189860e+000	-6.4682790489e-001
 2.5519520908e+000	 3.3357964246e+000	-6.4663822683e-001
 2.5151254134e+000	 3.3636499503e+000	-6.4294755469e-001
 2.4780241655e+000	 3.3910754624e+000	-6.3633646767e-001
 2.4406557675e+000	 3.4180690289e+000	-6.2619727516e-001
 2.8192326707e+000	 3.1490715051e+000	-6.3531334437e-001
 2.7843083738e+000	 3.1799922140e+000	-6.1767010125e-001
 2.7490579140e+000	 3.2105145255e+000	-6.1089962411e-001
 2.7134881204e+000	 3.2406333396e+000	-6.1278298716e-001
 2.6776059272e+000	 3.2703437126e+000	-6.2117231849e-001
 2.6414183691e+000	 3.2996408595e+000	-6.3199136760e-001
 2.6049325766e+000	 3.3285201565e+000	-6.3817894598e-001
 2.5681557714e+000	 3.3569771434e+000	-6.4021080058e-001
 2.5310952621e+000	 3.3850075257e+000	-6.3960692398e-001
 2.4937584389e+000	 3.4126071768e+000	-6.3578781187e-001
 2.4561527694e+000	 3.4397721396e+000	-6.2822051415e-001
 2.8370205113e+000	 3.1689404513e+000	-6.3020532397e-001
 2.8018758610e+000	 3.2000562532e+000	-6.1128150960e-001
 2.7664029897e+000	 3.2307711440e+000	-6.0286217822e-001
 2.7306087699e+000	 3.2610799916e+000	-6.0277701413e-001
 2.6945001794e+000	 3.2909778211e+000	-6.0892833430e-001
 2.6580842972e+000	 3.3204598173e+000	-6.1909412358e-001
 2.6213682990e+000	 3.3495213271e+000	-6.2686876577e-001
 2.5843594519e+000	 3.3781578623e+000	-6.3197065803e-001
 2.5470651107e+000	 3.4063651012e+000	-6.3414165453e-001
 2.5094927124e+000	 3.4341388912e+000	-6.3285126563e-001
 2.4716497713e+000	 3.4614752502e+000	-6.2766050187e-001
 2.8548083520e+000	 3.1888093974e+000	-6.2510843012e-001
 2.8194433481e+000	 3.2201202924e+000	-6.0494078019e-001
 2.7837480654e+000	 3.2510277626e+000	-5.9481011327e-001
 2.7477294193e+000	 3.2815266437e+000	-5.9261384081e-001
 2.7113944315e+000	 3.3116119296e+000	-5.9632352493e-001
 2.6747502254e+000	 3.3412787750e+000	-6.0415324461e-001
 2.6378040214e+000	 3.3705224976e+000	-6.1459572923e-001
 2.6005631325e+000	 3.3993385811e+000	-6.2247487173e-001
 2.5630349594e+000	 3.4277226766e+000	-6.2710709578e-001
 2.5252269858e+000	 3.4556706056e+000	-6.2807580354e-001
 2.4871467732e+000	 3.4831783609e+000	-6.2505495634e-001
 2.8725961926e+000	 3.2086783436e+000	-6.2002582793e-001
 2.8370108352e+000	 3.2401843316e+000	-5.9868126112e-001
 2.8010931411e+000	 3.2712843811e+000	-5.8680342402e-001
 2.7648500688e+000	 3.3019732957e+000	-5.8237617710e-001
 2.7282886836e+000	 3.3322460381e+000	-5.8345900800e-001
 2.6914161535e+000	 3.3620977327e+000	-5.9007611520e-001
 2.6542397438e+000	 3.3915236682e+000	-6.0189834257e-001
 2.6167668131e+000	 3.4205192999e+000	-6.1221850348e-001
 2.5790048081e+000	 3.4490802521e+000	-6.1899609280e-001
 2.5409612592e+000	 3.4772023200e+000	-6.2194750649e-001
 2.5026437751e+000	 3.5048814716e+000	-6.2087842604e-001
 2.8903840333e+000	 3.2285472897e+000	-6.1493164707e-001
 2.8545783224e+000	 3.2602483708e+000	-5.9250655765e-001
 2.8184382168e+000	 3.2915409996e+000	-5.7887167958e-001
 2.7819707182e+000	 3.3224199478e+000	-5.7211565493e-001
 2.7451829358e+000	 3.3528801466e+000	-5.7130494927e-001
 2.7080820816e+000	 3.3829166905e+000	-5.7763730307e-001
 2.6706754662e+000	 3.4125248387e+000	-5.8924753617e-001
 2.6329704936e+000	 3.4417000187e+000	-6.0163634719e-001
 2.5949746568e+000	 3.4704378275e+000	-6.1024072574e-001
 2.5566955327e+000	 3.4987340343e+000	-6.1489129115e-001
 2.5181407770e+000	 3.5265845823e+000	-6.1554400258e-001
 2.9081718739e+000	 3.2484162359e+000	-6.0977243103e-001
 2.8721458095e+000	 3.2803124100e+000	-5.8639202010e-001
 2.8357832925e+000	 3.3117976182e+000	-5.7101554542e-001
 2.7990913677e+000	 3.3428665998e+000	-5.6207722548e-001
 2.7620771879e+000	 3.3735142551e+000	-5.6105205809e-001
 2.7247480097e+000	 3.4037356482e+000	-5.6698039275e-001
 2.6871111886e+000	 3.4335260093e+000	-5.7784135286e-001
 2.6491741742e+000	 3.4628807375e+000	-5.9110466471e-001
 2.6109445055e+000	 3.4917954030e+000	-6.0121404229e-001
 2.5724298061e+000	 3.5202657487e+000	-6.0727263260e-001
 2.5336377790e+000	 3.5482876930e+000	-6.0940502688e-001
 2.9259597146e+000	 3.2682851820e+000	-6.0446858369e-001
 2.8897132967e+000	 3.3003764491e+000	-5.8028622804e-001
 2.8531283682e+000	 3.3320542367e+000	-5.6320830097e-001
 2.8162120171e+000	 3.3633132518e+000	-5.5380147932e-001
 2.7789714400e+000	 3.3941483636e+000	-5.5278393907e-001
 2.7414139378e+000	 3.4245546059e+000	-5.5819847959e-001
 2.7035469110e+000	 3.4545271798e+000	-5.6817168683e-001
 2.6653778548e+000	 3.4840614564e+000	-5.8094291508e-001
 2.6269143542e+000	 3.5131529784e+000	-5.9223178345e-001
 2.5881640796e+000	 3.5417974631e+000	-5.9939928045e-001
 2.5491347809e+000	 3.5699908036e+000	-6.0275678917e-001
 2.9437475552e+000	 3.2881541282e+000	-5.9891581314e-001
 2.9072807838e+000	 3.3204404883e+000	-5.7411247109e-001
 2.8704734439e+000	 3.3523108553e+000	-5.5630616807e-001
 2.8333326666e+000	 3.3837599039e+000	-5.4759167624e-001
 2.7958656922e+000	 3.4147824721e+000	-5.4653433548e-001
 2.7580798659e+000	 3.4453735637e+000	-5.5133660344e-001
 2.7199826334e+000	 3.4755283504e+000	-5.6029049900e-001
 2.6815815353e+000	 3.5052421752e+000	-5.7180657124e-001
 2.6428842029e+000	 3.5345105539e+000	-5.8355410296e-001
 2.6038983530e+000	 3.5633291775e+000	-5.9152296874e-001
 2.5646317828e+000	 3.5916939143e+000	-5.9583822310e-001
 2.9615353959e+000	 3.3080230744e+000	-5.9298657312e-001
 2.9248482709e+000	 3.3405045275e+000	-5.6790262751e-001
 2.8878185197e+000	 3.3725674738e+000	-5.5140031523e-001
 2.8504533161e+000	 3.4042065559e+000	-5.4342202699e-001
 2.8127599443e+000	 3.4354165807e+000	-5.4229211434e-001
 2.7747457941e+000	 3.4661925214e+000	-5.4639417671e-001
 2.7364183558e+000	 3.4965295210e+000	-5.5420337411e-001
 2.6977852159e+000	 3.5264228940e+000	-5.6431593916e-001
 2.6588540516e+000	 3.5558681293e+000	-5.7538728060e-001
 2.6196326264e+000	 3.5848608919e+000	-5.8384111979e-001
 2.5801287847e+000	 3.6133970250e+000	-5.8883359404e-001
 2.9793232365e+000	 3.3278920205e+000	-5.8653150196e-001
 2.9424157581e+000	 3.3605685667e+000	-5.6303531208e-001
 2.9051635954e+000	 3.3928240923e+000	-5.4840933536e-001
 2.8675739655e+000	 3.4246532080e+000	-5.4122500850e-001
 2.8296541964e+000	 3.4560506892e+000	-5.4000367850e-001
 2.7914117222e+000	 3.4870114791e+000	-5.4332740692e-001
 2.7528540782e+000	 3.5175306915e+000	-5.4987194786e-001
 2.7139888964e+000	 3.5476036128e+000	-5.5843679498e-001
 2.6748239003e+000	 3.5772257048e+000	-5.6797210811e-001
 2.6353668999e+000	 3.6063926063e+000	-5.7649854242e-001
 2.5956257866e+000	 3.6351001357e+000	-5.8187418211e-001
 2.4406557675e+000	 3.4180690289e+000	-6.2619727516e-001
 2.4030277108e+000	 3.4446268869e+000	-6.1135058196e-001
 2.3651475504e+000	 3.4707454417e+000	-5.9202051661e-001
 2.3270229028e+000	 3.4964212704e+000	-5.6981403176e-001
 2.2886614419e+000	 3.5216511245e+000	-5.4638555801e-001
 2.2500708939e+000	 3.5464319309e+000	-5.2343764610e-001
 2.2112590326e+000	 3.5707607927e+000	-5.0272038663e-001
 2.1722336741e+000	 3.5946349899e+000	-4.8602963868e-001
 2.1330026723e+000	 3.6180519798e+000	-4.7520411031e-001
 2.0935739135e+000	 3.6410093978e+000	-4.7212134543e-001
 2.0539553118e+000	 3.6635050572e+000	-4.7869268190e-001
 2.4561527694e+000	 3.4397721396e+000	-6.2822051415e-001
 2.4182857924e+000	 3.4664986274e+000	-6.1539936503e-001
 2.3801651111e+000	 3.4927830225e+000	-5.9720111552e-001
 2.3417983901e+000	 3.5186218805e+000	-5.7527617560e-001
 2.3031933522e+000	 3.5440119321e+000	-5.5132301444e-001
 2.2643577727e+000	 3.5689500849e+000	-5.2708868956e-001
 2.2252994745e+000	 3.5934334234e+000	-5.0436809607e-001
 2.1860263235e+000	 3.6174592103e+000	-4.8500196955e-001
 2.1465462235e+000	 3.6410248870e+000	-4.7087368847e-001
 2.1068671109e+000	 3.6641280737e+000	-4.6390493408e-001
 2.0669969500e+000	 3.6867665698e+000	-4.6605027619e-001
 2.4716497713e+000	 3.4614752502e+000	-6.2766050187e-001
 2.4335438741e+000	 3.4883703678e+000	-6.1675782102e-001
 2.3951826718e+000	 3.5148206033e+000	-5.9967255159e-001
 2.3565738775e+000	 3.5408224906e+000	-5.7808721943e-001
 2.3177252626e+000	 3.5663727398e+000	-5.5373352330e-001
 2.2786446514e+000	 3.5914682389e+000	-5.2839276228e-001
 2.2393399163e+000	 3.6161060541e+000	-5.0389492225e-001
 2.1998189730e+000	 3.6402834308e+000	-4.8211645736e-001
 2.1600897748e+000	 3.6639977942e+000	-4.6497681525e-001
 2.1201603083e+000	 3.6872467495e+000	-4.5443376752e-001
 2.0800385881e+000	 3.7100280824e+000	-4.5247761793e-001
 2.4871467732e+000	 3.4831783609e+000	-6.2505495634e-001
 2.4488019558e+000	 3.5102421082e+000	-6.1595263166e-001
 2.4102002324e+000	 3.5368581841e+000	-5.9995618171e-001
 2.3713493648e+000	 3.5630231007e+000	-5.7876927967e-001
 2.3322571729e+000	 3.5887335475e+000	-5.5414642371e-001
 2.2929315301e+000	 3.6139863929e+000	-5.2789327333e-001
 2.2533803582e+000	 3.6387786847e+000	-5.0186558017e-001
 2.2136116224e+000	 3.6631076512e+000	-4.7796675133e-001
 2.1736333260e+000	 3.6869707013e+000	-4.5814409753e-001
 2.1334535057e+000	 3.7103654254e+000	-4.4438383085e-001
 2.0930802263e+000	 3.7332895950e+000	-4.3870488872e-001
 2.5026437751e+000	 3.5048814716e+000	-6.2087842604e-001
 2.4640600374e+000	 3.5321138487e+000	-6.1344702451e-001
 2.4252177931e+000	 3.5588957649e+000	-5.9850948415e-001
 2.3861248521e+000	 3.5852237108e+000	-5.7778002606e-001
 2.3467890832e+000	 3.6110943551e+000	-5.5302589330e-001
 2.3072184088e+000	 3.6365045468e+000	-5.2606760619e-001
 2.2674208001e+000	 3.6614513154e+000	-4.9877774349e-001
 2.2274042718e+000	 3.6859318717e+000	-4.7307829040e-001
 2.1871768773e+000	 3.7099436085e+000	-4.5093660864e-001
 2.1467467031e+000	 3.7334841012e+000	-4.3436009710e-001
 2.1061218644e+000	 3.7565511076e+000	-4.2538962424e-001
 2.5181407770e+000	 3.5265845823e+000	-6.1554400258e-001
 2.4793181191e+000	 3.5539855891e+000	-6.0964246589e-001
 2.4402353538e+000	 3.5809333458e+000	-5.9572773284e-001
 2.4009003395e+000	 3.6074243209e+000	-5.7551433878e-001
 2.3613209935e+000	 3.6334551628e+000	-5.5077258984e-001
 2.3215052875e+000	 3.6590227008e+000	-5.2332874649e-001
 2.2814612420e+000	 3.6841239461e+000	-4.9506366063e-001
 2.2411969213e+000	 3.7087560921e+000	-4.6790990996e-001
 2.2007204285e+000	 3.7329165157e+000	-4.4384748808e-001
 2.1600399005e+000	 3.7566027771e+000	-4.2489812288e-001
 2.1191635026e+000	 3.7798126202e+000	-4.1311830865e-001
 2.5336377790e+000	 3.5482876930e+000	-6.0940502688e-001
 2.4945762008e+000	 3.5758573295e+000	-6.0488034774e-001
 2.4552529145e+000	 3.6029709266e+000	-5.9194566597e-001
 2.4156758268e+000	 3.6296249310e+000	-5.7230595993e-001
 2.3758529038e+000	 3.6558159705e+000	-5.4772528702e-001
 2.3357921662e+000	 3.6815408548e+000	-5.2002690403e-001
 2.2955016839e+000	 3.7067965767e+000	-4.9109176484e-001
 2.2549895707e+000	 3.7315803126e+000	-4.6285544203e-001
 2.2142639798e+000	 3.7558894229e+000	-4.3730353430e-001
 2.1733330979e+000	 3.7797214530e+000	-4.1646563623e-001
 2.1322051407e+000	 3.8030741328e+000	-4.0240796043e-001
 2.5491347809e+000	 3.5699908036e+000	-6.0275678917e-001
 2.5098342824e+000	 3.5977290700e+000	-5.9944366857e-001
 2.4702704752e+000	 3.6250085074e+000	-5.8743914883e-001
 2.4304513141e+000	 3.6518255411e+000	-5.6842913953e-001
 2.3903848141e+000	 3.6781767781e+000	-5.4416250498e-001
 2.3500790449e+000	 3.7040590088e+000	-5.1645112925e-001
 2.3095421257e+000	 3.7294692074e+000	-4.8716827840e-001
 2.2687822201e+000	 3.7544045330e+000	-4.5824530932e-001
 2.2278075310e+000	 3.7788623301e+000	-4.3166679077e-001
 2.1866262953e+000	 3.8028401288e+000	-4.0946411712e-001
 2.1452467789e+000	 3.8263356453e+000	-3.9370770991e-001
 2.5646317828e+000	 3.5916939143e+000	-5.9583822310e-001
 2.5250923641e+000	 3.6196008104e+000	-5.9355870889e-001
 2.4852880359e+000	 3.6470460882e+000	-5.8242683140e-001
 2.4452268014e+000	 3.6740261512e+000	-5.6410027626e-001
 2.4049167245e+000	 3.7005375858e+000	-5.4030413548e-001
 2.3643659237e+000	 3.7265771628e+000	-5.1283092434e-001
 2.3235825676e+000	 3.7521418381e+000	-4.8353881132e-001
 2.2825748696e+000	 3.7772287535e+000	-4.5434811333e-001
 2.2413510823e+000	 3.8018352373e+000	-4.2723612551e-001
 2.1999194927e+000	 3.8259588047e+000	-4.0423037083e-001
 2.1582884170e+000	 3.8495971579e+000	-3.8740036894e-001
 2.5801287847e+000	 3.6133970250e+000	-5.8883359404e-001
 2.5403504458e+000	 3.6414725508e+000	-5.8739670122e-001
 2.5003055965e+000	 3.6690836690e+000	-5.7707180082e-001
 2.4600022888e+000	 3.6962267613e+000	-5.5947955328e-001
 2.4194486348e+000	 3.7228983934e+000	-5.3631306212e-001
 2.3786528024e+000	 3.7490953168e+000	-5.0933784924e-001
 2.3376230095e+000	 3.7748144687e+000	-4.8038995472e-001
 2.2963675190e+000	 3.8000529739e+000	-4.5137221674e-001
 2.2548946335e+000	 3.8248081445e+000	-4.2424880461e-001
 2.2132126902e+000	 3.8490774805e+000	-4.0103809452e-001
 2.1713300552e+000	 3.8728586705e+000	-3.8380399295e-001
 2.5956257866e+000	 3.6351001357e+000	-5.8187418211e-001
 2.5556085274e+000	 3.6633442912e+000	-5.8107549502e-001
 2.5153231572e+000	 3.6911212498e+000	-5.7148322885e-001
 2.4747777761e+000	 3.7184273714e+000	-5.5467256912e-001
 2.4339805451e+000	 3.7452592011e+000	-5.3229677582e-001
 2.3929396811e+000	 3.7716134707e+000	-5.0608712280e-001
 2.3516634514e+000	 3.7974870994e+000	-4.7785086901e-001
 2.3101601684e+000	 3.8228771944e+000	-4.4946732045e-001
 2.2684381848e+000	 3.8477810517e+000	-4.2288205967e-001
 2.2265058876e+000	 3.8721961564e+000	-4.0009943731e-001
 2.1843716934e+000	 3.8961201831e+000	-3.8317343582e-001
 2.0539553118e+000	 3.6635050572e+000	-4.7869268190e-001
 2.0141607875e+000	 3.6855336804e+000	-4.9779521973e-001
 1.9741923649e+000	 3.7070968488e+000	-5.2222104622e-001
 1.9340580104e+000	 3.7281929136e+000	-5.1884484617e-001
 1.8937656981e+000	 3.7488204029e+000	-4.9263896007e-001
 1.8533234054e+000	 3.7689780217e+000	-4.5166161523e-001
 1.8127391083e+000	 3.7886646509e+000	-4.0355350166e-001
 1.7720207765e+000	 3.8078793464e+000	-3.5551273883e-001
 1.7311763688e+000	 3.8266213383e+000	-3.1427437720e-001
 1.6902138288e+000	 3.8448900295e+000	-2.8609420334e-001
 1.6491410796e+000	 3.8626849945e+000	-2.7673660051e-001
 2.0669969500e+000	 3.6867665698e+000	-4.6605027619e-001
 2.0269497493e+000	 3.7089350642e+000	-4.7952661599e-001
 1.9867275464e+000	 3.7306351485e+000	-5.0472595940e-001
 1.9463383578e+000	 3.7518651633e+000	-5.0934321132e-001
 1.9057902084e+000	 3.7726236273e+000	-4.8987741372e-001
 1.8650911265e+000	 3.7929092374e+000	-4.5444791080e-001
 1.8242491384e+000	 3.8127208673e+000	-4.1073451834e-001
 1.7832722646e+000	 3.8320575670e+000	-3.6595322617e-001
 1.7421685144e+000	 3.8509185616e+000	-3.2683658171e-001
 1.7009458817e+000	 3.8693032502e+000	-2.9961850761e-001
 1.6596123402e+000	 3.8872112048e+000	-2.9002328923e-001
 2.0800385881e+000	 3.7100280824e+000	-4.5247761793e-001
 2.0397387112e+000	 3.7323364481e+000	-4.6066654858e-001
 1.9992627278e+000	 3.7541734482e+000	-4.8147624721e-001
 1.9586187052e+000	 3.7755374129e+000	-4.9330847219e-001
 1.9178147188e+000	 3.7964268517e+000	-4.7978214353e-001
 1.8768588475e+000	 3.8168404531e+000	-4.4905753782e-001
 1.8357591685e+000	 3.8367770837e+000	-4.0883553791e-001
 1.7945237527e+000	 3.8562357876e+000	-3.6633414019e-001
 1.7531606600e+000	 3.8752157849e+000	-3.2826978744e-001
 1.7116779347e+000	 3.8937164710e+000	-3.0084326399e-001
 1.6700836007e+000	 3.9117374151e+000	-2.8972987239e-001
 2.0930802263e+000	 3.7332895950e+000	-4.3870488872e-001
 2.0525276731e+000	 3.7557378319e+000	-4.4202438169e-001
 2.0117979092e+000	 3.7777117479e+000	-4.5612111411e-001
 1.9708990526e+000	 3.7992096626e+000	-4.7253833638e-001
 1.9298392292e+000	 3.8202300761e+000	-4.6435314418e-001
 1.8886265686e+000	 3.8407716688e+000	-4.3773630593e-001
 1.8472691986e+000	 3.8608333001e+000	-4.0039150135e-001
 1.8057752408e+000	 3.8804140082e+000	-3.5952259912e-001
 1.7641528056e+000	 3.8995130082e+000	-3.2181600980e-001
 1.7224099876e+000	 3.9181296918e+000	-2.9342772728e-001
 1.6805548613e+000	 3.9362636255e+000	-2.7997476037e-001
 2.1061218644e+000	 3.7565511076e+000	-4.2538962424e-001
 2.0653166350e+000	 3.7791392158e+000	-4.2433465384e-001
 2.0243330906e+000	 3.8012500476e+000	-4.3229344329e-001
 1.9831793999e+000	 3.8228819123e+000	-4.4873456616e-001
 1.9418637396e+000	 3.8440333006e+000	-4.4549413024e-001
 1.9003942897e+000	 3.8647028845e+000	-4.2263258262e-001
 1.8587792288e+000	 3.8848895166e+000	-3.8783789288e-001
 1.8170267289e+000	 3.9045922287e+000	-3.4828337252e-001
 1.7751449511e+000	 3.9238102315e+000	-3.1061112251e-001
 1.7331420406e+000	 3.9425429126e+000	-2.8092029301e-001
 1.6910261218e+000	 3.9607898358e+000	-2.6475983972e-001
 2.1191635026e+000	 3.7798126202e+000	-4.1311830865e-001
 2.0781055968e+000	 3.8025405996e+000	-4.0825868640e-001
 2.0368682721e+000	 3.8247883473e+000	-4.1077712060e-001
 1.9954597473e+000	 3.8465541619e+000	-4.2350001784e-001
 1.9538882500e+000	 3.8678365250e+000	-4.2500980089e-001
 1.9121620108e+000	 3.8886341002e+000	-4.0579481518e-001
 1.8702892589e+000	 3.9089457330e+000	-3.7350855098e-001
 1.8282782170e+000	 3.9287704493e+000	-3.3527701343e-001
 1.7861370967e+000	 3.9481074548e+000	-2.9768334238e-001
 1.7438740935e+000	 3.9669561334e+000	-2.6675736665e-001
 1.7014973824e+000	 3.9853160462e+000	-2.4796975827e-001
 2.1322051407e+000	 3.8030741328e+000	-4.0240796043e-001
 2.0908945587e+000	 3.8259419835e+000	-3.9438618186e-001
 2.0494034535e+000	 3.8483266470e+000	-3.9227312263e-001
 2.0077400947e+000	 3.8702264116e+000	-3.9903775424e-001
 1.9659127604e+000	 3.8916397494e+000	-4.0460308360e-001
 1.9239297319e+000	 3.9125653159e+000	-3.8916902579e-001
 1.8817992890e+000	 3.9330019494e+000	-3.5963344581e-001
 1.8395297051e+000	 3.9529486699e+000	-3.2305794856e-001
 1.7971292423e+000	 3.9724046781e+000	-2.8595166320e-001
 1.7546061465e+000	 3.9913693542e+000	-2.5426217160e-001
 1.7119686430e+000	 4.0098422565e+000	-2.3343809692e-001
 2.1452467789e+000	 3.8263356453e+000	-3.9370770991e-001
 2.1036835206e+000	 3.8493433673e+000	-3.8323681255e-001
 2.0619386349e+000	 3.8718649467e+000	-3.7740939308e-001
 2.0200204421e+000	 3.8938986613e+000	-3.7906542974e-001
 1.9779372708e+000	 3.9154429738e+000	-3.8587235775e-001
 1.9356974530e+000	 3.9364965315e+000	-3.7459628098e-001
 1.8933093192e+000	 3.9570581658e+000	-3.4833642418e-001
 1.8507811932e+000	 3.9771268904e+000	-3.1407252866e-001
 1.8081213878e+000	 3.9967019014e+000	-2.7822424090e-001
 1.7653381994e+000	 4.0157825750e+000	-2.4679188783e-001
 1.7224399035e+000	 4.0343684668e+000	-2.2461001311e-001
 2.1582884170e+000	 3.8495971579e+000	-3.8740036894e-001
 2.1164724825e+000	 3.8727447512e+000	-3.7526179999e-001
 2.0744738163e+000	 3.8954032465e+000	-3.6674245640e-001
 2.0323007895e+000	 3.9175709110e+000	-3.6453815244e-001
 1.9899617812e+000	 3.9392461982e+000	-3.7030865884e-001
 1.9474651741e+000	 3.9604277472e+000	-3.6381013649e-001
 1.9048193493e+000	 3.9811143822e+000	-3.4163292367e-001
 1.8620326814e+000	 4.0013051110e+000	-3.1065884786e-001
 1.8191135334e+000	 4.0209991247e+000	-2.7742221577e-001
 1.7760702524e+000	 4.0401957957e+000	-2.4687836334e-001
 1.7329111641e+000	 4.0588946772e+000	-2.2284103916e-001
 2.1713300552e+000	 3.8728586705e+000	-3.8380399295e-001
 2.1292614443e+000	 3.8961461350e+000	-3.7084548540e-001
 2.0870089978e+000	 3.9189415462e+000	-3.6075902032e-001
 2.0445811369e+000	 3.9412431606e+000	-3.5608166585e-001
 2.0019862916e+000	 3.9630494226e+000	-3.5932933285e-001
 1.9592328952e+000	 3.9843589629e+000	-3.5843405851e-001
 1.9163293794e+000	 4.0051705986e+000	-3.4145373612e-001
 1.8732841695e+000	 4.0254833316e+000	-3.1532246464e-001
 1.8301056790e+000	 4.0452963480e+000	-2.8518852763e-001
 1.7868023053e+000	 4.0646090165e+000	-2.5524527162e-001
 1.7433824246e+000	 4.0834208875e+000	-2.2912870942e-001
 2.1843716934e+000	 3.8961201831e+000	-3.8317343582e-001
 2.1420504062e+000	 3.9195475189e+000	-3.7030689173e-001
 2.0995441792e+000	 3.9424798459e+000	-3.5987756773e-001
 2.0568614843e+000	 3.9649154103e+000	-3.5424979005e-001
 2.0140108020e+000	 3.9868526470e+000	-3.5579064564e-001
 1.9710006163e+000	 4.0082901786e+000	-3.6004117351e-001
 1.9278394095e+000	 4.0292268150e+000	-3.4984520650e-001
 1.8845356576e+000	 4.0496615522e+000	-3.2891011680e-001
 1.8410978246e+000	 4.0695935713e+000	-3.0179167509e-001
 1.7975343583e+000	 4.0890222373e+000	-2.7247549810e-001
 1.7538536852e+000	 4.1079470979e+000	-2.4441552891e-001
 1.6491410796e+000	 3.8626849945e+000	-2.7673660051e-001
 1.6079598367e+000	 3.8800085414e+000	-2.7557959749e-001
 1.5666841286e+000	 3.8968578809e+000	-2.6970114404e-001
 1.5253217981e+000	 3.9132330963e+000	-2.6080277562e-001
 1.4838806500e+000	 3.9291344362e+000	-2.5026896175e-001
 1.4423684478e+000	 3.9445623121e+000	-2.3917209042e-001
 1.4007929095e+000	 3.9595172970e+000	-2.2827950727e-001
 1.3591617033e+000	 3.9740001227e+000	-2.1806233169e-001
 1.3174824442e+000	 3.9880116778e+000	-2.0733854125e-001
 1.2757626898e+000	 4.0015530051e+000	-1.8366776294e-001
 1.2340099371e+000	 4.0146252992e+000	-1.4712796010e-001
 1.6596123402e+000	 3.8872112048e+000	-2.9002328923e-001
 1.6181696159e+000	 3.9046447480e+000	-2.8849546108e-001
 1.5766318268e+000	 3.9216010728e+000	-2.8303122070e-001
 1.5350068651e+000	 3.9380802631e+000	-2.7507189432e-001
 1.4933025855e+000	 3.9540825688e+000	-2.6576352667e-001
 1.4515268006e+000	 3.9696084045e+000	-2.5596305868e-001
 1.4096872774e+000	 3.9846583464e+000	-2.4624652299e-001
 1.3677917329e+000	 3.9992331311e+000	-2.3691896674e-001
 1.3258478303e+000	 4.0133336529e+000	-2.2758951010e-001
 1.2838631754e+000	 4.0269609611e+000	-2.0772747573e-001
 1.2418453126e+000	 4.0401162582e+000	-1.7450549215e-001
 1.6700836007e+000	 3.9117374151e+000	-2.8972987239e-001
 1.6283793952e+000	 3.9292809546e+000	-2.8664760685e-001
 1.5865795250e+000	 3.9463442647e+000	-2.8076415756e-001
 1.5446919322e+000	 3.9629274298e+000	-2.7331775356e-001
 1.5027245210e+000	 3.9790307015e+000	-2.6526697088e-001
 1.4606851534e+000	 3.9946544968e+000	-2.5729819165e-001
 1.4185816454e+000	 4.0097993957e+000	-2.4980797363e-001
 1.3764217625e+000	 4.0244661395e+000	-2.4244317725e-001
 1.3342132165e+000	 4.0386556280e+000	-2.3423301897e-001
 1.2919636610e+000	 4.0523689172e+000	-2.1792999983e-001
 1.2496806881e+000	 4.0656072171e+000	-1.8834174878e-001
 1.6805548613e+000	 3.9362636255e+000	-2.7997476037e-001
 1.6385891745e+000	 3.9539171612e+000	-2.7459720520e-001
 1.5965272232e+000	 3.9710874566e+000	-2.6782830402e-001
 1.5543769993e+000	 3.9877745965e+000	-2.6075880308e-001
 1.5121464565e+000	 4.0039788341e+000	-2.5421479087e-001
 1.4698435062e+000	 4.0197005891e+000	-2.4860606507e-001
 1.4274760133e+000	 4.0349404451e+000	-2.4336936925e-001
 1.3850517921e+000	 4.0496991479e+000	-2.3761227397e-001
 1.3425786026e+000	 4.0639776031e+000	-2.3028694772e-001
 1.3000641465e+000	 4.0777768733e+000	-2.1692599369e-001
 1.2575160636e+000	 4.0910981760e+000	-1.9108967412e-001
 1.6910261218e+000	 3.9607898358e+000	-2.6475983972e-001
 1.6487989537e+000	 3.9785533678e+000	-2.5678370308e-001
 1.6064749214e+000	 3.9958306485e+000	-2.4902698307e-001
 1.5640620664e+000	 4.0126217632e+000	-2.4252793014e-001
 1.5215683920e+000	 4.0289269668e+000	-2.3754888784e-001
 1.4790018590e+000	 4.0447466814e+000	-2.3350595907e-001
 1.4363703812e+000	 4.0600814944e+000	-2.2961469986e-001
 1.3936818217e+000	 4.0749321563e+000	-2.2493106038e-001
 1.3509439888e+000	 4.0892995782e+000	-2.1837503919e-001
 1.3081646321e+000	 4.1031848294e+000	-2.0721230640e-001
 1.2653514390e+000	 4.1165891349e+000	-1.8505204261e-001
 1.7014973824e+000	 3.9853160462e+000	-2.4796975827e-001
 1.6590087330e+000	 4.0031895744e+000	-2.3753258959e-001
 1.6164226195e+000	 4.0205738404e+000	-2.2910916452e-001
 1.5737471334e+000	 4.0374689299e+000	-2.2278435162e-001
 1.5309903275e+000	 4.0538750995e+000	-2.1811555015e-001
 1.4881602118e+000	 4.0697927737e+000	-2.1446176413e-001
 1.4452647492e+000	 4.0852225438e+000	-2.1101080311e-001
 1.4023118513e+000	 4.1001651647e+000	-2.0680475908e-001
 1.3593093749e+000	 4.1146215533e+000	-2.0076377762e-001
 1.3162651177e+000	 4.1285927855e+000	-1.9113928777e-001
 1.2731868145e+000	 4.1420800939e+000	-1.7238825612e-001
 1.7119686430e+000	 4.0098422565e+000	-2.3343809692e-001
 1.6692185123e+000	 4.0278257810e+000	-2.2107613816e-001
 1.6263703177e+000	 4.0453170323e+000	-2.1126552536e-001
 1.5834322005e+000	 4.0623160966e+000	-2.0378178851e-001
 1.5404122631e+000	 4.0788232321e+000	-1.9818087599e-001
 1.4973185646e+000	 4.0948388660e+000	-1.9382840074e-001
 1.4541591171e+000	 4.1103635931e+000	-1.8992708935e-001
 1.4109418809e+000	 4.1253981731e+000	-1.8554244808e-001
 1.3676747611e+000	 4.1399435284e+000	-1.7962666785e-001
 1.3243656032e+000	 4.1540007416e+000	-1.7091800636e-001
 1.2810221900e+000	 4.1675710528e+000	-1.5512105790e-001
 1.7224399035e+000	 4.0343684668e+000	-2.2461001311e-001
 1.6794282915e+000	 4.0524619877e+000	-2.0959789966e-001
 1.6363180159e+000	 4.0700602242e+000	-1.9729879592e-001
 1.5931172676e+000	 4.0871632634e+000	-1.8753712390e-001
 1.5498341986e+000	 4.1037713648e+000	-1.7992015679e-001
 1.5064769174e+000	 4.1198849584e+000	-1.7386756632e-001
 1.4630534850e+000	 4.1355046425e+000	-1.6863911852e-001
 1.4195719105e+000	 4.1506311815e+000	-1.6336053598e-001
 1.3760401472e+000	 4.1652655035e+000	-1.5704755234e-001
 1.3324660888e+000	 4.1794086976e+000	-1.4862737910e-001
 1.2888575655e+000	 4.1930620117e+000	-1.3514316683e-001
 1.7329111641e+000	 4.0588946772e+000	-2.2284103916e-001
 1.6896380708e+000	 4.0770981943e+000	-2.0451458724e-001
 1.6462657141e+000	 4.0948034161e+000	-1.8891870856e-001
 1.6028023347e+000	 4.1120104301e+000	-1.7598407378e-001
 1.5592561341e+000	 4.1287194974e+000	-1.6542139461e-001
 1.5156352702e+000	 4.1449310507e+000	-1.5675126087e-001
 1.4719478530e+000	 4.1606456919e+000	-1.4933208024e-001
 1.4282019401e+000	 4.1758641899e+000	-1.4238614241e-001
 1.3844055334e+000	 4.1905874786e+000	-1.3502383755e-001
 1.3405665744e+000	 4.2048166537e+000	-1.2626606570e-001
 1.2966929409e+000	 4.2185529706e+000	-1.1422383542e-001
 1.7433824246e+000	 4.0834208875e+000	-2.2912870942e-001
 1.6998478501e+000	 4.1017344009e+000	-2.0717614248e-001
 1.6562134122e+000	 4.1195466080e+000	-1.8776090235e-001
 1.6124874017e+000	 4.1368575968e+000	-1.7097655583e-001
 1.5686780696e+000	 4.1536676301e+000	-1.5668872870e-001
 1.5247936230e+000	 4.1699771430e+000	-1.4456521989e-001
 1.4808422209e+000	 4.1857867412e+000	-1.3410418113e-001
 1.4368319697e+000	 4.2010971983e+000	-1.2466038763e-001
 1.3927709195e+000	 4.2159094537e+000	-1.1546963341e-001
 1.3486670600e+000	 4.2302246098e+000	-1.0567129190e-001
 1.3045283164e+000	 4.2440439296e+000	-9.4015334784e-002
 1.7538536852e+000	 4.1079470979e+000	-2.4441552891e-001
 1.7100576294e+000	 4.1263706075e+000	-2.1886876528e-001
 1.6661611104e+000	 4.1442897998e+000	-1.9539010518e-001
 1.6221724688e+000	 4.1617047635e+000	-1.7429197494e-001
 1.5781000051e+000	 4.1786157627e+000	-1.5564577517e-001
 1.5339519758e+000	 4.1950232353e+000	-1.3931225842e-001
 1.4897365888e+000	 4.2109277906e+000	-1.2496994337e-001
 1.4454619993e+000	 4.2263302067e+000	-1.1214159523e-001
 1.4011363057e+000	 4.2412314288e+000	-1.0021880964e-001
 1.3567675455e+000	 4.2556325659e+000	-8.8484744493e-002
 1.3123636919e+000	 4.2695348885e+000	-7.6059369473e-002
 1.2340099371e+000	 4.0146252992e+000	-1.4712796010e-001
 1.1922316182e+000	 4.0272299033e+000	-1.0560668633e-001
 1.1504350948e+000	 4.0393683026e+000	-6.6274464369e-002
 1.1086276574e+000	 4.0510421257e+000	-3.0520047791e-002
 1.0668165223e+000	 4.0622531420e+000	 8.4568336660e-004
 1.0250088285e+000	 4.0730032589e+000	 2.7520139138e-002
 9.8321163488e-001	 4.0832945191e+000	 4.9642623857e-002
 9.4143191729e-001	 4.0931290975e+000	 6.7748775328e-002
 8.9967656574e-001	 4.1025092979e+000	 8.2703725537e-002
 8.5795238189e-001	 4.1114375501e+000	 9.5665503574e-002
 8.1626607643e-001	 4.1199164064e+000	 1.0804201798e-001
 1.2418453126e+000	 4.0401162582e+000	-1.7450549215e-001
 1.1998017212e+000	 4.0528008954e+000	-1.3564737749e-001
 1.1577398098e+000	 4.0650163678e+000	-9.8278858601e-002
 1.1156669151e+000	 4.0767643142e+000	-6.3785332588e-002
 1.0735902992e+000	 4.0880465150e+000	-3.2994264093e-002
 1.0315171465e+000	 4.0988648900e+000	-6.2444153471e-003
 9.8945456057e-001	 4.1092214949e+000	 1.6548726066e-002
 9.4740956166e-001	 4.1191185182e+000	 3.5846045154e-002
 9.0538908352e-001	 4.1285582784e+000	 5.2421077128e-002
 8.6339997096e-001	 4.1375432207e+000	 6.7322488605e-002
 8.2144897732e-001	 4.1460759137e+000	 8.1832060955e-002
 1.2496806881e+000	 4.0656072171e+000	-1.8834174878e-001
 1.2073718243e+000	 4.0783718876e+000	-1.5279729056e-001
 1.1650445248e+000	 4.0906644331e+000	-1.1815291435e-001
 1.1227061728e+000	 4.1024865026e+000	-8.5767166077e-002
 1.0803640761e+000	 4.1138398881e+000	-5.6461709070e-002
 1.0380254644e+000	 4.1247265212e+000	-3.0590110391e-002
 9.9569748625e-001	 4.1351484706e+000	-8.1022872879e-003
 9.5338720603e-001	 4.1451079388e+000	 1.1407602722e-002
 9.1110160129e-001	 4.1546072589e+000	 2.8640264391e-002
 8.6884756003e-001	 4.1636488913e+000	 4.4553126826e-002
 8.2663187820e-001	 4.1722354210e+000	 6.0319343612e-002
 1.2575160636e+000	 4.0910981760e+000	-1.9108967412e-001
 1.2149419273e+000	 4.1039428797e+000	-1.5927484967e-001
 1.1723492399e+000	 4.1163124983e+000	-1.2788809488e-001
 1.1297454305e+000	 4.1282086910e+000	-9.8238458931e-002
 1.0871378530e+000	 4.1396332611e+000	-7.1120234615e-002
 1.0445337824e+000	 4.1505881524e+000	-4.6881205792e-002
 1.0019404119e+000	 4.1610754464e+000	-2.5486085564e-002
 9.5936485040e-001	 4.1710973595e+000	-6.5650705268e-003
 9.1681411906e-001	 4.1806562393e+000	 1.0527845624e-002
 8.7429514911e-001	 4.1897545619e+000	 2.6676391859e-002
 8.3181477909e-001	 4.1983949284e+000	 4.2962062513e-002
 1.2653514390e+000	 4.1165891349e+000	-1.8505204261e-001
 1.2225120303e+000	 4.1295138719e+000	-1.5715309479e-001
 1.1796539549e+000	 4.1419605635e+000	-1.2933536423e-001
 1.1367846882e+000	 4.1539308795e+000	-1.0283663663e-001
 1.0939116299e+000	 4.1654266342e+000	-7.8403110383e-002
 1.0510421003e+000	 4.1764497835e+000	-5.6357004957e-002
 1.0081833376e+000	 4.1870024222e+000	-3.6658950958e-002
 9.6534249477e-001	 4.1970867802e+000	-1.8956910500e-002
 9.2252663683e-001	 4.2067052198e+000	-2.6421019446e-003
 8.7974273818e-001	 4.2158602326e+000	 1.3112431741e-002
 8.3699767997e-001	 4.2245544357e+000	 2.9312943426e-002
 1.2731868145e+000	 4.1420800939e+000	-1.7238825612e-001
 1.2300821334e+000	 4.1550848640e+000	-1.4836594038e-001
 1.1869586699e+000	 4.1676086287e+000	-1.2421091578e-001
 1.1438239459e+000	 4.1796530679e+000	-1.0106884712e-001
 1.1006854068e+000	 4.1912200072e+000	-7.9617989260e-002
 1.0575504183e+000	 4.2023114147e+000	-6.0136050989e-002
 1.0144262633e+000	 4.2129293980e+000	-4.2560190267e-002
 9.7132013914e-001	 4.2230762008e+000	-2.6542499500e-002
 9.2823915460e-001	 4.2327542003e+000	-1.1490745975e-002
 8.8519032725e-001	 4.2419659032e+000	 3.3802574110e-003
 8.4218058085e-001	 4.2507139430e+000	 1.9017368655e-002
 1.2810221900e+000	 4.1675710528e+000	-1.5512105790e-001
 1.2376522364e+000	 4.1806558562e+000	-1.3471436092e-001
 1.1942633849e+000	 4.1932566939e+000	-1.1410183762e-001
 1.1508632036e+000	 4.2053752563e+000	-9.4317114997e-002
 1.1074591837e+000	 4.2170133802e+000	-7.5951559982e-002
 1.0640587363e+000	 4.2281730459e+000	-5.9220288137e-002
 1.0206691890e+000	 4.2388563737e+000	-4.4021226658e-002
 9.7729778351e-001	 4.2490656215e+000	-2.9989278813e-002
 9.3395167238e-001	 4.2588031807e+000	-1.6537255176e-002
 8.9063791633e-001	 4.2680715738e+000	-2.9045697496e-003
 8.4736348174e-001	 4.2768734503e+000	 1.1811495037e-002
 1.2888575655e+000	 4.1930620117e+000	-1.3514316683e-001
 1.2452223395e+000	 4.2062268484e+000	-1.1787250630e-001
 1.2015681000e+000	 4.2189047591e+000	-1.0047171725e-001
 1.1579024613e+000	 4.2310974448e+000	-8.3843444351e-002
 1.1142329606e+000	 4.2428067533e+000	-6.8474157648e-002
 1.0705670542e+000	 4.2540346771e+000	-5.4499190097e-002
 1.0269121147e+000	 4.2647833495e+000	-4.1760756894e-002
 9.8327542788e-001	 4.2750550421e+000	-2.9860745550e-002
 9.3966419015e-001	 4.2848521612e+000	-1.8201548137e-002
 8.9608550540e-001	 4.2941772444e+000	-6.0322512868e-003
 8.5254638262e-001	 4.3030329576e+000	 7.5203629763e-003
 1.2966929409e+000	 4.2185529706e+000	-1.1422383542e-001
 1.2527924425e+000	 4.2317978405e+000	-9.9393750311e-002
 1.2088728150e+000	 4.2445528243e+000	-8.4666188428e-002
 1.1649417191e+000	 4.2568196332e+000	-7.0794872571e-002
 1.1210067375e+000	 4.2686001263e+000	-5.8144333880e-002
 1.0770753722e+000	 4.2798963082e+000	-4.6753856559e-002
 1.0331550403e+000	 4.2907103253e+000	-3.6394337025e-002
 9.8925307225e-001	 4.3010444628e+000	-2.6619634405e-002
 9.4537670792e-001	 4.3109011417e+000	-1.6807035155e-002
 9.0153309447e-001	 4.3202829150e+000	-6.2010659160e-003
 8.5772928351e-001	 4.3291924649e+000	 6.0559969112e-003
 1.3045283164e+000	 4.2440439296e+000	-9.4015334784e-002
 1.2603625456e+000	 4.2573688327e+000	-8.0716674729e-002
 1.2161775300e+000	 4.2702008896e+000	-6.7918422285e-002
 1.1719809768e+000	 4.2825418216e+000	-5.6208477105e-002
 1.1277805145e+000	 4.2943934994e+000	-4.5813388351e-002
 1.0835836901e+000	 4.3057579394e+000	-3.6661079336e-002
 1.0393979660e+000	 4.3166373011e+000	-2.8436424680e-002
 9.9523071662e-001	 4.3270338835e+000	-2.0631084955e-002
 9.5108922569e-001	 4.3369501221e+000	-1.2583353325e-002
 9.0698068355e-001	 4.3463885857e+000	-3.5196845970e-003
 8.6291218439e-001	 4.3553519723e+000	 7.4154975670e-003
 1.3123636919e+000	 4.2695348885e+000	-7.6059369473e-002
 1.2679326486e+000	 4.2829398248e+000	-6.3170991958e-002
 1.2234822450e+000	 4.2958489548e+000	-5.1354565343e-002
 1.1790202345e+000	 4.3082640100e+000	-4.1016337168e-002
 1.1345542914e+000	 4.3201868724e+000	-3.2229863274e-002
 1.0900920081e+000	 4.3316195706e+000	-2.4797379349e-002
 1.0456408917e+000	 4.3425642768e+000	-1.8303968866e-002
 1.0012083610e+000	 4.3530233041e+000	-1.2165795121e-002
 9.5680174346e-001	 4.3629991026e+000	-5.6690952023e-003
 9.1242827262e-001	 4.3724942563e+000	 1.9905135906e-003
 8.6809508528e-001	 4.3815114796e+000	 1.1679126337e-002
 8.1626607643e-001	 4.1199164064e+000	 1.0804201798e-001
 7.7463050750e-001	 4.1279473679e+000	 1.1745498217e-001
 7.3304593048e-001	 4.1355345296e+000	 1.2193684098e-001
 6.9151875737e-001	 4.1426807945e+000	 1.2385561416e-001
 6.5005530071e-001	 4.1493891748e+000	 1.2593979304e-001
 6.0866177170e-001	 4.1556627888e+000	 1.3100398037e-001
 5.6734427842e-001	 4.1615048572e+000	 1.3914565223e-001
 5.2610882415e-001	 4.1669187001e+000	 1.5071189635e-001
 4.8496130586e-001	 4.1719077330e+000	 1.6672150551e-001
 4.4390751276e-001	 4.1764754639e+000	 1.8875360108e-001
 4.0295312499e-001	 4.1806254894e+000	 2.1884870471e-001
 8.2144897732e-001	 4.1460759137e+000	 8.1832060955e-002
 7.7954904235e-001	 4.1541578680e+000	 9.4117885471e-002
 7.3770042307e-001	 4.1617932046e+000	 1.0263726163e-001
 6.9590957218e-001	 4.1689848448e+000	 1.0941489691e-001
 6.5418284232e-001	 4.1757358201e+000	 1.1666149063e-001
 6.1252648411e-001	 4.1820492686e+000	 1.2570264060e-001
 5.7094664442e-001	 4.1879284314e+000	 1.3639349006e-001
 5.2944936465e-001	 4.1933766496e+000	 1.4909314179e-001
 4.8804057921e-001	 4.1983973605e+000	 1.6477354695e-001
 4.4672611408e-001	 4.2029940943e+000	 1.8491215474e-001
 4.0551168545e-001	 4.2071704705e+000	 2.1139700309e-001
 8.2663187820e-001	 4.1722354210e+000	 6.0319343612e-002
 7.8446757720e-001	 4.1803683681e+000	 7.4549477783e-002
 7.4235491566e-001	 4.1880518795e+000	 8.6028273302e-002
 7.0030038700e-001	 4.1952888952e+000	 9.6465217872e-002
 6.5831038393e-001	 4.2020824655e+000	 1.0770088334e-001
 6.1639119652e-001	 4.2084357484e+000	 1.1983660609e-001
 5.7454901042e-001	 4.2143520055e+000	 1.3228378161e-001
 5.3278990516e-001	 4.2198345991e+000	 1.4543257543e-001
 4.9111985257e-001	 4.2248869879e+000	 1.6022764651e-001
 4.4954471540e-001	 4.2295127247e+000	 1.7806504062e-001
 4.0807024591e-001	 4.2337154516e+000	 2.0070149914e-001
 8.3181477909e-001	 4.1983949284e+000	 4.2962062513e-002
 7.8938611205e-001	 4.2065788682e+000	 5.8348063678e-002
 7.4700940824e-001	 4.2143105545e+000	 7.1863171538e-002
 7.0469120181e-001	 4.2215929455e+000	 8.4929113522e-002
 6.6243792553e-001	 4.2284291109e+000	 9.9094580783e-002
 6.2025590893e-001	 4.2348222282e+000	 1.1357357573e-001
 5.7815137642e-001	 4.2407755797e+000	 1.2712520173e-001
 5.3613044566e-001	 4.2462925485e+000	 1.4018762885e-001
 4.9419912593e-001	 4.2513766154e+000	 1.5369575453e-001
 4.5236331672e-001	 4.2560313550e+000	 1.6898256751e-001
 4.1062880637e-001	 4.2602604327e+000	 1.8769288308e-001
 8.3699767997e-001	 4.2245544357e+000	 2.9312943426e-002
 7.9430464689e-001	 4.2327893683e+000	 4.5199153108e-002
 7.5166390083e-001	 4.2405692295e+000	 5.9974081204e-002
 7.0908201662e-001	 4.2478969958e+000	 7.4798513906e-002
 6.6656546714e-001	 4.2547757562e+000	 9.0953496028e-002
 6.2412062134e-001	 4.2612087080e+000	 1.0714709216e-001
 5.8175374243e-001	 4.2671991539e+000	 1.2128241674e-001
 5.3947098617e-001	 4.2727504980e+000	 1.3386042909e-001
 4.9727839929e-001	 4.2778662429e+000	 1.4582172966e-001
 4.5518191804e-001	 4.2825499854e+000	 1.5845263146e-001
 4.1318736684e-001	 4.2868054138e+000	 1.7330353882e-001
 8.4218058085e-001	 4.2507139430e+000	 1.9017368655e-002
 7.9922318174e-001	 4.2589998684e+000	 3.4874024689e-002
 7.5631839342e-001	 4.2668279044e+000	 5.0270963359e-002
 7.1347283143e-001	 4.2742010462e+000	 6.6134200148e-002
 6.7069300875e-001	 4.2811224016e+000	 8.3487057575e-002
 6.2798533375e-001	 4.2875951879e+000	 1.0085566097e-001
 5.8535610843e-001	 4.2936227281e+000	 1.1517581894e-001
 5.4281152667e-001	 4.2992084475e+000	 1.2699814627e-001
 5.0035767265e-001	 4.3043558704e+000	 1.3728229655e-001
 4.5800051936e-001	 4.3090686158e+000	 1.4728227908e-001
 4.1574592730e-001	 4.3133503949e+000	 1.5846970737e-001
 8.4736348174e-001	 4.2768734503e+000	 1.1811495037e-002
 8.0414171659e-001	 4.2852103685e+000	 2.7228271043e-002
 7.6097288600e-001	 4.2930865794e+000	 4.2740595009e-002
 7.1786364625e-001	 4.3005050965e+000	 5.9065225041e-002
 6.7482055036e-001	 4.3074690469e+000	 7.6994636075e-002
 6.3185004616e-001	 4.3139816677e+000	 9.5061811623e-002
 5.8895847443e-001	 4.3200463022e+000	 1.0928119137e-001
 5.4615206717e-001	 4.3256663970e+000	 1.2019325962e-001
 5.0343694600e-001	 4.3308454979e+000	 1.2878790928e-001
 4.6081912068e-001	 4.3355872462e+000	 1.3629916348e-001
 4.1830448776e-001	 4.3398953759e+000	 1.4413352935e-001
 8.5254638262e-001	 4.3030329576e+000	 7.5203629763e-003
 8.0906025144e-001	 4.3114208686e+000	 2.2200326942e-002
 7.6562737859e-001	 4.3193452543e+000	 3.7445522855e-002
 7.2225446106e-001	 4.3268091469e+000	 5.3788298257e-002
 6.7894809196e-001	 4.3338156923e+000	 7.1816566229e-002
 6.3571475857e-001	 4.3403681475e+000	 9.0191102678e-002
 5.9256084044e-001	 4.3464698764e+000	 1.0412930581e-001
 5.4949260768e-001	 4.3521243465e+000	 1.1408374516e-001
 5.0651621936e-001	 4.3573351253e+000	 1.2108352442e-001
 4.6363772201e-001	 4.3621058766e+000	 1.2635289738e-001
 4.2086304822e-001	 4.3664403570e+000	 1.3124497166e-001
 8.5772928351e-001	 4.3291924649e+000	 6.0559969112e-003
 8.1397878628e-001	 4.3376313687e+000	 1.9809981002e-002
 7.7028187117e-001	 4.3456039293e+000	 3.4522992144e-002
 7.2664527587e-001	 4.3531131972e+000	 5.0567137682e-002
 6.8307563357e-001	 4.3601623377e+000	 6.8351435172e-002
 6.3957947098e-001	 4.3667546273e+000	 8.6731073572e-002
 5.9616320644e-001	 4.3728934506e+000	 1.0030545683e-001
 5.5283314818e-001	 4.3785822960e+000	 1.0935318840e-001
 5.0959549272e-001	 4.3838247528e+000	 1.1494928769e-001
 4.6645632333e-001	 4.3886245070e+000	 1.1831630777e-001
 4.2342160868e-001	 4.3929853381e+000	 1.2076364328e-001
 8.6291218439e-001	 4.3553519723e+000	 7.4154975670e-003
 8.1889732113e-001	 4.3638418688e+000	 2.0156871598e-002
 7.7493636376e-001	 4.3718626043e+000	 3.4183851666e-002
 7.3103609068e-001	 4.3794172475e+000	 4.9731788302e-002
 6.8720317518e-001	 4.3865089830e+000	 6.7055842403e-002
 6.4344418339e-001	 4.3931411071e+000	 8.5230145275e-002
 5.9976557244e-001	 4.3993170248e+000	 9.8448934663e-002
 5.5617368869e-001	 4.4050402455e+000	 1.0673082527e-001
 5.1267476608e-001	 4.4103143803e+000	 1.1120113774e-001
 4.6927492465e-001	 4.4151431374e+000	 1.1308659627e-001
 4.2598016914e-001	 4.4195303192e+000	 1.1366050483e-001
 8.6809508528e-001	 4.3815114796e+000	 1.1679126337e-002
 8.2381585598e-001	 4.3900523689e+000	 2.3418967682e-002
 7.7959085635e-001	 4.3981212792e+000	 3.6711435899e-002
 7.3542690550e-001	 4.4057212979e+000	 5.1677909987e-002
 6.9133071679e-001	 4.4128556284e+000	 6.8444096950e-002
 6.4730889580e-001	 4.4195275870e+000	 8.6296471918e-002
 6.0336793844e-001	 4.4257405989e+000	 9.9252439316e-002
 5.5951422919e-001	 4.4314981950e+000	 1.0699151426e-001
 5.1575403944e-001	 4.4368040078e+000	 1.1069133050e-001
 4.7209352597e-001	 4.4416617678e+000	 1.1158640903e-001
 4.2853872961e-001	 4.4460753003e+000	 1.1091947621e-001
 4.0295312499e-001	 4.1806254894e+000	 2.1884870471e-001
 3.6209760679e-001	 4.1843620215e+000	 2.4525797214e-001
 3.2135264073e-001	 4.1876881727e+000	 2.5691224689e-001
 2.8072365755e-001	 4.1906077882e+000	 2.5751976339e-001
 2.4021597217e-001	 4.1931247882e+000	 2.5118945710e-001
 1.9983478304e-001	 4.1952431647e+000	 2.4237106272e-001
 1.5958517145e-001	 4.1969669780e+000	 2.3580169348e-001
 1.1947210102e-001	 4.1983003530e+000	 2.3645817695e-001
 7.9500417302e-002	 4.1992474762e+000	 2.4951448945e-001
 3.9674847448e-002	 4.1998125921e+000	 2.8030369555e-001
 0.0000000000e+000	 4.2000000000e+000	 3.3428386420e-001
 4.0551168545e-001	 4.2071704705e+000	 2.1139700309e-001
 3.6439675416e-001	 4.2109307278e+000	 2.3419170473e-001
 3.2339307698e-001	 4.2142779985e+000	 2.4369854594e-001
 2.8250611909e-001	 4.2172161521e+000	 2.4304170272e-001
 2.4174122921e-001	 4.2197491339e+000	 2.3570629573e-001
 2.0110363876e-001	 4.2218809611e+000	 2.2548245146e-001
 1.6059846130e-001	 4.2236157197e+000	 2.1641562802e-001
 1.2023069197e-001	 4.2249575610e+000	 2.1276246278e-001
 8.0005207095e-002	 4.2259106980e+000	 2.1895146903e-001
 3.9926763837e-002	 4.2264794022e+000	 2.3954797784e-001
 0.0000000000e+000	 4.2266680000e+000	 2.7922278940e-001
 4.0807024591e-001	 4.2337154516e+000	 2.0070149914e-001
 3.6669590154e-001	 4.2374994341e+000	 2.1975806949e-001
 3.2543351322e-001	 4.2408678242e+000	 2.2707966701e-001
 2.8428858064e-001	 4.2438245160e+000	 2.2526706955e-001
 2.4326648624e-001	 4.2463734795e+000	 2.1724157656e-001
 2.0237249447e-001	 4.2485187574e+000	 2.0619314078e-001
 1.6161175114e-001	 4.2502644615e+000	 1.9553453032e-001
 1.2098928292e-001	 4.2516147691e+000	 1.8886076012e-001
 8.0509996888e-002	 4.2525739199e+000	 1.8991310541e-001
 4.0178680226e-002	 4.2531462122e+000	 2.0254708318e-001
 0.0000000000e+000	 4.2533360000e+000	 2.3070385889e-001
 4.1062880637e-001	 4.2602604327e+000	 1.8769288308e-001
 3.6899504892e-001	 4.2640681404e+000	 2.0303542780e-001
 3.2747394947e-001	 4.2674576500e+000	 2.0825386868e-001
 2.8607104219e-001	 4.2704328799e+000	 2.0548420606e-001
 2.4479174328e-001	 4.2729978252e+000	 1.9714203162e-001
 2.0364135018e-001	 4.2751565538e+000	 1.8587484213e-001
 1.6262504099e-001	 4.2769132032e+000	 1.7452013110e-001
 1.2174787387e-001	 4.2782719771e+000	 1.6606847834e-001
 8.1014786682e-002	 4.2792371417e+000	 1.6363093637e-001
 4.0430596615e-002	 4.2798130223e+000	 1.7041008924e-001
 0.0000000000e+000	 4.2800040000e+000	 1.8967423489e-001
 4.1318736684e-001	 4.2868054138e+000	 1.7330353882e-001
 3.7129419629e-001	 4.2906368466e+000	 1.8508665512e-001
 3.2951438571e-001	 4.2940474757e+000	 1.8838576401e-001
 2.8785350374e-001	 4.2970412439e+000	 1.8492865908e-001
 2.4631700032e-001	 4.2996221709e+000	 1.7668145108e-001
 2.0491020590e-001	 4.3017943502e+000	 1.6580517982e-001
 1.6363833084e-001	 4.3035619450e+000	 1.5461793162e-001
 1.2250646482e-001	 4.3049291852e+000	 1.4556166402e-001
 8.1519576475e-002	 4.3059003635e+000	 1.4117302257e-001
 4.0682513004e-002	 4.3064798323e+000	 1.4405751551e-001
 0.0000000000e+000	 4.3066720000e+000	 1.5686649167e-001
 4.1574592730e-001	 4.3133503949e+000	 1.5846970737e-001
 3.7359334367e-001	 4.3172055529e+000	 1.6696188816e-001
 3.3155482196e-001	 4.3206373015e+000	 1.6860962384e-001
 2.8963596529e-001	 4.3236496078e+000	 1.6478701030e-001
 2.4784225735e-001	 4.3262465166e+000	 1.5706501009e-001
 2.0617906161e-001	 4.3284321465e+000	 1.4717248262e-001
 1.6465162068e-001	 4.3302106868e+000	 1.3696242735e-001
 1.2326505578e-001	 4.3315863932e+000	 1.2838262278e-001
 8.2024366269e-002	 4.3325635854e+000	 1.2344993268e-001
 4.0934429394e-002	 4.3331466424e+000	 1.2422763570e-001
 0.0000000000e+000	 4.3333400000e+000	 1.3280521857e-001
 4.1830448776e-001	 4.3398953759e+000	 1.4413352935e-001
 3.7589249104e-001	 4.3437742592e+000	 1.4970113745e-001
 3.3359525820e-001	 4.3472271273e+000	 1.5003253196e-001
 2.9141842684e-001	 4.3502579717e+000	 1.4620054530e-001
 2.4936751439e-001	 4.3528708623e+000	 1.3943342142e-001
 2.0744791733e-001	 4.3550699429e+000	 1.3108038896e-001
 1.6566491053e-001	 4.3568594285e+000	 1.2258213315e-001
 1.2402364673e-001	 4.3582436013e+000	 1.1544533095e-001
 8.2529156063e-002	 4.3592268072e+000	 1.1122050703e-001
 4.1186345783e-002	 4.3598134524e+000	 1.1148255810e-001
 0.0000000000e+000	 4.3600080000e+000	 1.1781338067e-001
 4.2086304822e-001	 4.3664403570e+000	 1.3124497166e-001
 3.7819163842e-001	 4.3703429655e+000	 1.3433677099e-001
 3.3563569445e-001	 4.3738169530e+000	 1.3373739849e-001
 2.9320088839e-001	 4.3768663357e+000	 1.3026876816e-001
 2.5089277143e-001	 4.3794952079e+000	 1.2486692165e-001
 2.0871677304e-001	 4.3817077393e+000	 1.1855227356e-001
 1.6667820038e-001	 4.3835081703e+000	 1.1240441840e-001
 1.2478223768e-001	 4.3849008094e+000	 1.0754064604e-001
 8.3033945857e-002	 4.3858900290e+000	 1.0509740942e-001
 4.1438262172e-002	 4.3864802625e+000	 1.0621408365e-001
 0.0000000000e+000	 4.3866760000e+000	 1.1201844752e-001
 4.2342160868e-001	 4.3929853381e+000	 1.2076364328e-001
 3.8049078580e-001	 4.3969116718e+000	 1.2189587441e-001
 3.3767613069e-001	 4.4004067788e+000	 1.2078583756e-001
 2.9498334994e-001	 4.4034746996e+000	 1.1805276830e-001
 2.5241802846e-001	 4.4061195536e+000	 1.1438909774e-001
 2.0998562876e-001	 4.4083455356e+000	 1.1053550312e-001
 1.6769149023e-001	 4.4101569120e+000	 1.0726016007e-001
 1.2554082863e-001	 4.4115580174e+000	 1.0534132458e-001
 8.3538735650e-002	 4.4125532509e+000	 1.0555247591e-001
 4.1690178561e-002	 4.4131470725e+000	 1.0864935129e-001
 0.0000000000e+000	 4.4133440000e+000	 1.1535829961e-001
 4.2598016914e-001	 4.4195303192e+000	 1.1366050483e-001
 3.8278993317e-001	 4.4234803781e+000	 1.1340249288e-001
 3.3971656693e-001	 4.4269966045e+000	 1.1222091478e-001
 2.9676581148e-001	 4.4300830635e+000	 1.1057844572e-001
 2.5394328550e-001	 4.4327438993e+000	 1.0897056067e-001
 2.1125448447e-001	 4.4349833320e+000	 1.0790552826e-001
 1.6870478007e-001	 4.4368056538e+000	 1.0788822146e-001
 1.2629941958e-001	 4.4382152255e+000	 1.0940685519e-001
 8.4043525443e-002	 4.4392164727e+000	 1.1292186920e-001
 4.1942094950e-002	 4.4398138826e+000	 1.1885627940e-001
 0.0000000000e+000	 4.4400120000e+000	 1.2758692199e-001
 4.2853872961e-001	 4.4460753003e+000	 1.1091947621e-001
 3.8508908055e-001	 4.4500490843e+000	 1.0987975964e-001
 3.4175700318e-001	 4.4535864303e+000	 1.0906977021e-001
 2.9854827303e-001	 4.4566914274e+000	 1.0883960051e-001
 2.5546854253e-001	 4.4593682450e+000	 1.0953247277e-001
 2.1252334018e-001	 4.4616211283e+000	 1.1146981838e-001
 1.6971806992e-001	 4.4634543955e+000	 1.1493976377e-001
 1.2705801053e-001	 4.4648724335e+000	 1.2018811497e-001
 8.4548315236e-002	 4.4658796945e+000	 1.2741104668e-001
 4.2194011339e-002	 4.4664806926e+000	 1.3674881185e-001
 0.0000000000e+000	 4.4666800000e+000	 1.4827989397e-001
 4.4666800000e+000	 0.0000000000e+000	 6.6210222966e-001
 4.4664806926e+000	 4.2194011339e-002	 6.5479360386e-001
 4.4658796945e+000	 8.4548315236e-002	 6.4929638384e-001
 4.4648724335e+000	 1.2705801053e-001	 6.4464368461e-001
 4.4634543955e+000	 1.6971806992e-001	 6.4003811625e-001
 4.4616211283e+000	 2.1252334018e-001	 6.3483508073e-001
 4.4593682450e+000	 2.5546854253e-001	 6.2852704674e-001
 4.4566914274e+000	 2.9854827303e-001	 6.2072809198e-001
 4.4535864303e+000	 3.4175700318e-001	 6.1115790641e-001
 4.4500490843e+000	 3.8508908055e-001	 5.9962435504e-001
 4.4460753003e+000	 4.2853872961e-001	 5.8600360411e-001
 4.4933440011e+000	 0.0000000000e+000	 6.2302086051e-001
 4.4931435039e+000	 4.2445889952e-002	 6.2027318673e-001
 4.4925389182e+000	 8.5053029335e-002	 6.1885074175e-001
 4.4915256443e+000	 1.2781648773e-001	 6.1784154130e-001
 4.4900991413e+000	 1.7073120782e-001	 6.1648145646e-001
 4.4882549303e+000	 2.1379200563e-001	 6.1414136153e-001
 4.4859885983e+000	 2.5699357085e-001	 6.1031566731e-001
 4.4832958014e+000	 3.0033046730e-001	 6.0461150362e-001
 4.4801722689e+000	 3.4379713346e-001	 5.9673771497e-001
 4.4766138066e+000	 3.8738788317e-001	 5.8649273231e-001
 4.4726163009e+000	 4.3109690641e-001	 5.7375028529e-001
 4.5200080089e+000	 0.0000000000e+000	 5.8846656798e-001
 4.5198063219e+000	 4.2697768628e-002	 5.8924377777e-001
 4.5191981485e+000	 8.5557743560e-002	 5.9096021626e-001
 4.5181788617e+000	 1.2857496512e-001	 5.9276898585e-001
 4.5167438937e+000	 1.7174434598e-001	 5.9394678039e-001
 4.5148887390e+000	 2.1506067140e-001	 5.9388504561e-001
 4.5126089583e+000	 2.5851859956e-001	 5.9208295300e-001
 4.5099001820e+000	 3.0211266201e-001	 5.8814142509e-001
 4.5067581141e+000	 3.4583726425e-001	 5.8175734494e-001
 4.5031785355e+000	 3.8968668636e-001	 5.7271697726e-001
 4.4991573082e+000	 4.3365508385e-001	 5.6088752402e-001
 4.5466720300e+000	 0.0000000000e+000	 5.5853206913e-001
 4.5464691533e+000	 4.2949647430e-002	 5.6177473269e-001
 4.5458573921e+000	 8.6062458036e-002	 5.6568305459e-001
 4.5448320925e+000	 1.2933344288e-001	 5.6948347644e-001
 4.5433886594e+000	 1.7275748464e-001	 5.7249904274e-001
 4.5415225610e+000	 2.1632933779e-001	 5.7414474262e-001
 4.5392293316e+000	 2.6004362902e-001	 5.7392511413e-001
 4.5365045760e+000	 3.0389485761e-001	 5.7143332306e-001
 4.5333439727e+000	 3.4787739605e-001	 5.6635081704e-001
 4.5297432778e+000	 3.9198549070e-001	 5.5844654565e-001
 4.5256983287e+000	 4.3621326257e-001	 5.4757462726e-001
 4.5733360711e+000	 0.0000000000e+000	 5.3335472286e-001
 4.5731320046e+000	 4.3201526421e-002	 5.3797128619e-001
 4.5725166558e+000	 8.6567172891e-002	 5.4310541179e-001
 4.5714853432e+000	 1.3009192122e-001	 5.4806317370e-001
 4.5700334451e+000	 1.7377062406e-001	 5.5221743325e-001
 4.5681564029e+000	 2.1759800514e-001	 5.5500753767e-001
 4.5658497249e+000	 2.6156865963e-001	 5.5594175276e-001
 4.5631089899e+000	 3.0567705455e-001	 5.5460161425e-001
 4.5599298511e+000	 3.4991752939e-001	 5.5064726656e-001
 4.5563080399e+000	 3.9428429676e-001	 5.4382274146e-001
 4.5522393692e+000	 4.3877144321e-001	 5.3396001426e-001
 4.6000001389e+000	 0.0000000000e+000	 5.1311524086e-001
 4.5997948826e+000	 4.3453405663e-002	 5.1797339656e-001
 4.5991759461e+000	 8.7071888250e-002	 5.2334032736e-001
 4.5981386206e+000	 1.3085040031e-001	 5.2860604727e-001
 4.5966782575e+000	 1.7478376449e-001	 5.3319461008e-001
 4.5947902715e+000	 2.1886667376e-001	 5.3656834783e-001
 4.5924701447e+000	 2.6309369176e-001	 5.3823533750e-001
 4.5897134304e+000	 3.0745925327e-001	 5.3775925291e-001
 4.5865157562e+000	 3.5195766477e-001	 5.3477063720e-001
 4.5828728286e+000	 3.9658310513e-001	 5.2897850969e-001
 4.5787804362e+000	 4.4132962641e-001	 5.2018110022e-001
 4.6266642400e+000	 0.0000000000e+000	 4.9803644324e-001
 4.6264577939e+000	 4.3705285220e-002	 5.0195463037e-001
 4.6258352697e+000	 8.7576604240e-002	 5.0652673786e-001
 4.6247919314e+000	 1.3160888035e-001	 5.1122901426e-001
 4.6233231032e+000	 1.7579690619e-001	 5.1553596141e-001
 4.6214241734e+000	 2.2013534396e-001	 5.1892930312e-001
 4.6190905979e+000	 2.6461872580e-001	 5.2091069965e-001
 4.6163179041e+000	 3.0924145422e-001	 5.2101733678e-001
 4.6131016945e+000	 3.5399780270e-001	 5.1883939069e-001
 4.6094376505e+000	 3.9888191636e-001	 5.1403824276e-001
 4.6053215364e+000	 4.4388781281e-001	 5.0636419147e-001
 4.6533283810e+000	 0.0000000000e+000	 4.8838205729e-001
 4.6531207452e+000	 4.3957165155e-002	 4.9012108581e-001
 4.6524946333e+000	 8.8081320987e-002	 4.9282852391e-001
 4.6514452821e+000	 1.3236736153e-001	 4.9606710820e-001
 4.6499679888e+000	 1.7681004941e-001	 4.9935889383e-001
 4.6480581152e+000	 2.2140401607e-001	 5.0219915109e-001
 4.6457110910e+000	 2.6614376212e-001	 5.0407454971e-001
 4.6429224177e+000	 3.1102365784e-001	 5.0448473062e-001
 4.6396876726e+000	 3.5603794368e-001	 5.0296623158e-001
 4.6360025122e+000	 4.0118073105e-001	 4.9911759974e-001
 4.6318626763e+000	 4.4644600304e-001	 4.9262439170e-001
 4.6799925688e+000	 0.0000000000e+000	 4.8478461360e-001
 4.6797837432e+000	 4.4209045530e-002	 4.8339023711e-001
 4.6791540436e+000	 8.8586038617e-002	 4.8331542675e-001
 4.6780986794e+000	 1.3312584404e-001	 4.8418612632e-001
 4.6766129211e+000	 1.7782319440e-001	 4.8558158935e-001
 4.6746921036e+000	 2.2267269039e-001	 4.8704993838e-001
 4.6723316306e+000	 2.6766880112e-001	 4.8812462747e-001
 4.6695269779e+000	 3.1280586458e-001	 4.8834192241e-001
 4.6662736973e+000	 3.5807808824e-001	 4.8725784652e-001
 4.6625674204e+000	 4.0347954975e-001	 4.8432333811e-001
 4.6584038627e+000	 4.4900419775e-001	 4.7906551892e-001
 4.7066568099e+000	 0.0000000000e+000	 4.8881941231e-001
 4.7064467945e+000	 4.4460926409e-002	 4.8561094631e-001
 4.7058135072e+000	 8.9090757256e-002	 4.8369585485e-001
 4.7047521301e+000	 1.3388432806e-001	 4.8273409833e-001
 4.7032579066e+000	 1.7883634142e-001	 4.8234014433e-001
 4.7013261453e+000	 2.2394136725e-001	 4.8209808177e-001
 4.6989522236e+000	 2.6919384316e-001	 4.8157760946e-001
 4.6961315913e+000	 3.1458807488e-001	 4.8035101825e-001
 4.6928597752e+000	 3.6011823688e-001	 4.7801129574e-001
 4.6891323818e+000	 4.0577837306e-001	 4.7419149133e-001
 4.6849451022e+000	 4.5156239757e-001	 4.6858548843e-001
 4.7333211109e+000	 0.0000000000e+000	 4.9927169801e-001
 4.7331099057e+000	 4.4712807855e-002	 4.9612592827e-001
 4.7324730307e+000	 8.9595477031e-002	 4.9388030443e-001
 4.7314056407e+000	 1.3464281379e-001	 4.9225655515e-001
 4.7299029521e+000	 1.7984949071e-001	 4.9093214237e-001
 4.7279602469e+000	 2.2521004697e-001	 4.8955485441e-001
 4.7255728763e+000	 2.7071888863e-001	 4.8775824144e-001
 4.7227362646e+000	 3.1637028919e-001	 4.8517801754e-001
 4.7194459128e+000	 3.6215839011e-001	 4.8146956381e-001
 4.7156974029e+000	 4.0807720153e-001	 4.7632667675e-001
 4.7114864015e+000	 4.5412060315e-001	 4.6950171519e-001
 4.4460753003e+000	 4.2853872961e-001	 5.8600360411e-001
 4.4416617678e+000	 4.7209352597e-001	 5.7061651690e-001
 4.4368040078e+000	 5.1575403944e-001	 5.5443008555e-001
 4.4314981950e+000	 5.5951422919e-001	 5.3833963068e-001
 4.4257405989e+000	 6.0336793844e-001	 5.2321350957e-001
 4.4195275870e+000	 6.4730889580e-001	 5.0984237486e-001
 4.4128556284e+000	 6.9133071679e-001	 4.9851231749e-001
 4.4057212979e+000	 7.3542690550e-001	 4.8753167049e-001
 4.3981212792e+000	 7.7959085635e-001	 4.7607488928e-001
 4.3900523689e+000	 8.2381585598e-001	 4.6350368585e-001
 4.3815114796e+000	 8.6809508528e-001	 4.4916839182e-001
 4.4726163009e+000	 4.3109690641e-001	 5.7375028529e-001
 4.4681764217e+000	 4.7491170464e-001	 5.5897521216e-001
 4.4632896631e+000	 5.1883285105e-001	 5.4329743398e-001
 4.4579521772e+000	 5.6285426878e-001	 5.2766159383e-001
 4.4521602109e+000	 6.0696976427e-001	 5.1301008533e-001
 4.4459101101e+000	 6.5117302869e-001	 5.0023835069e-001
 4.4391983230e+000	 6.9545763947e-001	 4.8962476813e-001
 4.4320214039e+000	 7.3981706190e-001	 4.7945048828e-001
 4.4243760167e+000	 7.8424465099e-001	 4.6888523641e-001
 4.4162589387e+000	 8.2873365329e-001	 4.5722071128e-001
 4.4076670643e+000	 8.7327720898e-001	 4.4374122110e-001
 4.4991573082e+000	 4.3365508385e-001	 5.6088752402e-001
 4.4946910823e+000	 4.7772988402e-001	 5.4682627120e-001
 4.4897753251e+000	 5.2191166344e-001	 5.3176797803e-001
 4.4844061659e+000	 5.6619430921e-001	 5.1669193798e-001
 4.4785798294e+000	 6.1057159100e-001	 5.0260040002e-001
 4.4722926399e+000	 6.5503716255e-001	 4.9048025675e-001
 4.4655410243e+000	 6.9958456318e-001	 4.8056695646e-001
 4.4583215165e+000	 7.4420721941e-001	 4.7115187403e-001
 4.4506307607e+000	 7.8889844680e-001	 4.6140555805e-001
 4.4424655151e+000	 8.3365145183e-001	 4.5057007179e-001
 4.4338226555e+000	 8.7845933398e-001	 4.3788368962e-001
 4.5256983287e+000	 4.3621326257e-001	 5.4757462726e-001
 4.5212057561e+000	 4.8054806480e-001	 5.3433674426e-001
 4.5162610003e+000	 5.2499047737e-001	 5.2001798382e-001
 4.5108601678e+000	 5.6953435130e-001	 5.0561526293e-001
 4.5049994612e+000	 6.1417341953e-001	 4.9217414088e-001
 4.4986751828e+000	 6.5890129835e-001	 4.8075726054e-001
 4.4918837387e+000	 7.0371148895e-001	 4.7152336946e-001
 4.4846216423e+000	 7.4859737911e-001	 4.6281406909e-001
 4.4768855178e+000	 7.9355224493e-001	 4.5380539437e-001
 4.4686721045e+000	 8.3856925284e-001	 4.4370985338e-001
 4.4599782598e+000	 8.8364146158e-001	 4.3173935783e-001
 4.5522393692e+000	 4.3877144321e-001	 5.3396001426e-001
 4.5477204498e+000	 4.8336624770e-001	 5.2166040952e-001
 4.5427466954e+000	 5.2806929361e-001	 5.0820822882e-001
 4.5373141896e+000	 5.7287439590e-001	 4.9459858492e-001
 4.5314191127e+000	 6.1777525075e-001	 4.8190139172e-001
 4.5250577455e+000	 6.6276543704e-001	 4.7123693463e-001
 4.5182264729e+000	 7.0783841783e-001	 4.6265610894e-001
 4.5109217877e+000	 7.5298754210e-001	 4.5459177973e-001
 4.5031402947e+000	 7.9820604656e-001	 4.4622990582e-001
 4.4948787136e+000	 8.4348705752e-001	 4.3677322712e-001
 4.4861338837e+000	 8.8882359306e-001	 4.2542664895e-001
 4.5787804362e+000	 4.4132962641e-001	 5.2018110022e-001
 4.5742351699e+000	 4.8618443341e-001	 5.0893774238e-001
 4.5692324169e+000	 5.3114811292e-001	 4.9648405498e-001
 4.5637682378e+000	 5.7621444384e-001	 4.8379147093e-001
 4.5578387907e+000	 6.2137708559e-001	 4.7193284513e-001
 4.5514403346e+000	 6.6662957959e-001	 4.6206554228e-001
 4.5445692334e+000	 7.1196535083e-001	 4.5410519165e-001
 4.5372219595e+000	 7.5737770949e-001	 4.4661655863e-001
 4.5293950978e+000	 8.0285985284e-001	 4.3880033509e-001
 4.5210853490e+000	 8.4840486713e-001	 4.2986899054e-001
 4.5122895337e+000	 8.9400572972e-001	 4.1903946846e-001
 4.6053215364e+000	 4.4388781281e-001	 5.0636419147e-001
 4.6007499233e+000	 4.8900262265e-001	 4.9629589468e-001
 4.5957181716e+000	 5.3422693609e-001	 4.8497543008e-001
 4.5902223192e+000	 5.7955449595e-001	 4.7332617974e-001
 4.5842585017e+000	 6.2497892492e-001	 4.6240001970e-001
 4.5778229567e+000	 6.7049372698e-001	 4.5336183216e-001
 4.5709120268e+000	 7.1609228898e-001	 4.4598885204e-001
 4.5635221642e+000	 7.6176788236e-001	 4.3899718772e-001
 4.5556499337e+000	 8.0751366493e-001	 4.3161446954e-001
 4.5472920170e+000	 8.5332268289e-001	 4.2308210861e-001
 4.5384452165e+000	 8.9918787286e-001	 4.1264782244e-001
 4.6318626763e+000	 4.4644600304e-001	 4.9262439170e-001
 4.6272647164e+000	 4.9182081611e-001	 4.8384868320e-001
 4.6222039660e+000	 5.3730576387e-001	 4.7379701693e-001
 4.6166764401e+000	 5.8289455307e-001	 4.6331780921e-001
 4.6106782524e+000	 6.2858076965e-001	 4.5341548232e-001
 4.6042056184e+000	 6.7435788016e-001	 4.4522449667e-001
 4.5972548598e+000	 7.2021923333e-001	 4.3840384745e-001
 4.5898224083e+000	 7.6615806182e-001	 4.3182006250e-001
 4.5819048089e+000	 8.1216748401e-001	 4.2474710396e-001
 4.5734987244e+000	 8.5824050602e-001	 4.1647425432e-001
 4.5646009385e+000	 9.0437002377e-001	 4.0629843484e-001
 4.6584038627e+000	 4.4900419775e-001	 4.7906551892e-001
 4.6537795559e+000	 4.9463901451e-001	 4.7169658736e-001
 4.6486898067e+000	 5.4038459704e-001	 4.6304825012e-001
 4.6431306074e+000	 5.8623461604e-001	 4.5386444984e-001
 4.6370980492e+000	 6.3218262069e-001	 4.4507307524e-001
 4.6305883262e+000	 6.7822204010e-001	 4.3773963307e-001
 4.6235977388e+000	 7.2434618490e-001	 4.3142576572e-001
 4.6161226984e+000	 7.7054824896e-001	 4.2514957769e-001
 4.6081597302e+000	 8.1682131123e-001	 4.1825050391e-001
 4.5997054777e+000	 8.6315833775e-001	 4.1008434888e-001
 4.5907567062e+000	 9.0955218375e-001	 4.0001536365e-001
 4.6849451022e+000	 4.5156239757e-001	 4.6858548843e-001
 4.6802944484e+000	 4.9745721854e-001	 4.6138918067e-001
 4.6751757004e+000	 5.4346343637e-001	 4.5333869863e-001
 4.6695848276e+000	 5.8957468569e-001	 4.4510277787e-001
 4.6635178989e+000	 6.3578447894e-001	 4.3744814771e-001
 4.6569710867e+000	 6.8208620777e-001	 4.3097353426e-001
 4.6499406706e+000	 7.2847314472e-001	 4.2510933509e-001
 4.6424230411e+000	 7.7493844487e-001	 4.1902851411e-001
 4.6344147039e+000	 8.2147514776e-001	 4.1215486932e-001
 4.6259122833e+000	 8.6807617933e-001	 4.0392910154e-001
 4.6169125263e+000	 9.1473435410e-001	 3.9380061609e-001
 4.7114864015e+000	 4.5412060315e-001	 4.6950171519e-001
 4.7068094006e+000	 5.0027542892e-001	 4.6116703133e-001
 4.7016616537e+000	 5.4654228262e-001	 4.5198348606e-001
 4.6960391073e+000	 5.9291476285e-001	 4.4259546100e-001
 4.6899378081e+000	 6.3938634528e-001	 4.3380077224e-001
 4.6833539067e+000	 6.8595038414e-001	 4.2644523647e-001
 4.6762836616e+000	 7.3260011383e-001	 4.1992345622e-001
 4.6687234430e+000	 7.7932865067e-001	 4.1349564097e-001
 4.6606697367e+000	 8.2612899476e-001	 4.0646879859e-001
 4.6521191480e+000	 8.7299403196e-001	 3.9800354909e-001
 4.6430684052e+000	 9.1991653610e-001	 3.8763476284e-001
 4.3815114796e+000	 8.6809508528e-001	 4.4916839182e-001
 4.3724942563e+000	 9.1242827262e-001	 4.3289631623e-001
 4.3629991026e+000	 9.5680174346e-001	 4.1522629726e-001
 4.3530233041e+000	 1.0012083610e+000	 3.9653389073e-001
 4.3425642768e+000	 1.0456408917e+000	 3.7715569587e-001
 4.3316195706e+000	 1.0900920081e+000	 3.5737649734e-001
 4.3201868724e+000	 1.1345542914e+000	 3.3741538817e-001
 4.3082640100e+000	 1.1790202345e+000	 3.1741066214e-001
 4.2958489548e+000	 1.2234822450e+000	 2.9740361454e-001
 4.2829398248e+000	 1.2679326486e+000	 2.7732103645e-001
 4.2695348885e+000	 1.3123636919e+000	 2.5695635905e-001
 4.4076670643e+000	 8.7327720898e-001	 4.4374122110e-001
 4.3985960123e+000	 9.1787504482e-001	 4.2821224996e-001
 4.3890441770e+000	 9.6251340464e-001	 4.1115155827e-001
 4.3790088277e+000	 1.0071851090e+000	 3.9293658123e-001
 4.3684873648e+000	 1.0518828813e+000	 3.7391038506e-001
 4.3574773238e+000	 1.0965993501e+000	 3.5436876547e-001
 4.3459763777e+000	 1.1413270525e+000	 3.3454658830e-001
 4.3339823414e+000	 1.1860584366e+000	 3.1460266472e-001
 4.3214931740e+000	 1.2307858647e+000	 2.9460369145e-001
 4.3085069826e+000	 1.2755016165e+000	 2.7450686988e-001
 4.2950220250e+000	 1.3201978924e+000	 2.5414118608e-001
 4.4338226555e+000	 8.7845933398e-001	 4.3788368962e-001
 4.4246977749e+000	 9.2332181839e-001	 4.2306470537e-001
 4.4150892579e+000	 9.6822506725e-001	 4.0661110013e-001
 4.4049943577e+000	 1.0131618585e+000	 3.8890142733e-001
 4.3944104593e+000	 1.0581248724e+000	 3.7028343247e-001
 4.3833350834e+000	 1.1031066938e+000	 3.5106202703e-001
 4.3717658895e+000	 1.1480998154e+000	 3.3148493081e-001
 4.3597006792e+000	 1.1930966405e+000	 3.1172801829e-001
 4.3471373997e+000	 1.2380894862e+000	 2.9187932040e-001
 4.3340741467e+000	 1.2830705863e+000	 2.7192179117e-001
 4.3205091679e+000	 1.3280320950e+000	 2.5171474998e-001
 4.4599782598e+000	 8.8364146158e-001	 4.3173935783e-001
 4.4507995505e+000	 9.2876859468e-001	 4.1757948375e-001
 4.4411343519e+000	 9.7393673271e-001	 4.0170978080e-001
 4.4309799007e+000	 1.0191386110e+000	 3.8450896080e-001
 4.4203335667e+000	 1.0643668666e+000	 3.6632809835e-001
 4.4091928560e+000	 1.1096140407e+000	 3.4747876703e-001
 4.3975554141e+000	 1.1548725817e+000	 3.2821870364e-001
 4.3854190299e+000	 1.2001348480e+000	 3.0873729565e-001
 4.3727816382e+000	 1.2453931114e+000	 2.8913973167e-001
 4.3596413237e+000	 1.2906395599e+000	 2.6942993968e-001
 4.3459963236e+000	 1.3358663014e+000	 2.4949136190e-001
 4.4861338837e+000	 8.8882359306e-001	 4.2542664895e-001
 4.4769013457e+000	 9.3421537506e-001	 4.1185733835e-001
 4.4671794653e+000	 9.7964840245e-001	 3.9652780369e-001
 4.4569654632e+000	 1.0251153680e+000	 3.7981598117e-001
 4.4462566936e+000	 1.0706088655e+000	 3.6207466042e-001
 4.4350506480e+000	 1.1161213925e+000	 3.4361975114e-001
 4.4233449581e+000	 1.1616453530e+000	 3.2471601165e-001
 4.4111373998e+000	 1.2071730607e+000	 3.0556268612e-001
 4.3984258959e+000	 1.2526967420e+000	 2.8627782481e-001
 4.3852085198e+000	 1.2982085391e+000	 2.6688141880e-001
 4.3714834983e+000	 1.3437005137e+000	 2.4726274947e-001
 4.5122895337e+000	 8.9400572972e-001	 4.1903946846e-001
 4.5030031670e+000	 9.3966216088e-001	 4.0597467057e-001
 4.4932246048e+000	 9.8536007791e-001	 3.9112148881e-001
 4.4829510517e+000	 1.0310921310e+000	 3.7485610159e-001
 4.4721798464e+000	 1.0768508707e+000	 3.5753133027e-001
 4.4609084658e+000	 1.1226287508e+000	 3.3946501207e-001
 4.4491345279e+000	 1.1684181311e+000	 3.2092583114e-001
 4.4368557955e+000	 1.2142112805e+000	 3.0211911641e-001
 4.4240701793e+000	 1.2600003799e+000	 2.8317135369e-001
 4.4107757415e+000	 1.3057775260e+000	 2.6411354314e-001
 4.3969706986e+000	 1.3515347338e+000	 2.4481946015e-001
 4.5384452165e+000	 8.9918787286e-001	 4.1264782244e-001
 4.5291050209e+000	 9.4510895351e-001	 3.9998422423e-001
 4.5192697769e+000	 9.9107176051e-001	 3.8552404172e-001
 4.5089366726e+000	 1.0370689014e+000	 3.6964065828e-001
 4.4981030316e+000	 1.0830928836e+000	 3.5268516707e-001
 4.4867663160e+000	 1.1291361172e+000	 3.3497483328e-001
 4.4749241299e+000	 1.1751909177e+000	 3.1677906183e-001
 4.4625742233e+000	 1.2212495090e+000	 2.9830536900e-001
 4.4497144947e+000	 1.2673040270e+000	 2.7968410950e-001
 4.4363429951e+000	 1.3133465222e+000	 2.6095208403e-001
 4.4224579307e+000	 1.3593689638e+000	 2.4195041363e-001
 4.5646009385e+000	 9.0437002377e-001	 4.0629843484e-001
 4.5552069140e+000	 9.5055575431e-001	 3.9391577831e-001
 4.5453149880e+000	 9.9678345167e-001	 3.7974632043e-001
 4.5349223326e+000	 1.0430456808e+000	 3.6415955020e-001
 4.5240262557e+000	 1.0893349060e+000	 3.4750298876e-001
 4.5126242049e+000	 1.1356434934e+000	 3.3009073011e-001
 4.5007137706e+000	 1.1819637144e+000	 3.1218957637e-001
 4.4882926896e+000	 1.2282877481e+000	 2.9400519835e-001
 4.4753588486e+000	 1.2746076850e+000	 2.7566710180e-001
 4.4619102871e+000	 1.3209155299e+000	 2.5721251370e-001
 4.4479452010e+000	 1.3672032054e+000	 2.3843986164e-001
 4.5907567062e+000	 9.0955218375e-001	 4.0001536365e-001
 4.5813088528e+000	 9.5600256464e-001	 3.8777683804e-001
 4.5713602447e+000	 1.0024951528e+000	 3.7377760026e-001
 4.5609080380e+000	 1.0490224707e+000	 3.5838207656e-001
 4.5499495252e+000	 1.0955769392e+000	 3.4193228079e-001
 4.5384821391e+000	 1.1421508810e+000	 3.2473642842e-001
 4.5265034564e+000	 1.1887365230e+000	 3.0705526740e-001
 4.5140112010e+000	 1.2353259996e+000	 2.8908844486e-001
 4.5010032474e+000	 1.2819113558e+000	 2.7095973783e-001
 4.4874776238e+000	 1.3284845508e+000	 2.5270124807e-001
 4.4734325159e+000	 1.3750374608e+000	 2.3406765731e-001
 4.6169125263e+000	 9.1473435410e-001	 3.9380061609e-001
 4.6074108437e+000	 9.6144938587e-001	 3.8155332448e-001
 4.5974055535e+000	 1.0082068654e+000	 3.6758633682e-001
 4.5868937954e+000	 1.0549992725e+000	 3.5225777204e-001
 4.5758728465e+000	 1.1018189849e+000	 3.3590210250e-001
 4.5643401250e+000	 1.1486582816e+000	 3.1881884085e-001
 4.5522931938e+000	 1.1955093451e+000	 3.0125909237e-001
 4.5397297639e+000	 1.2423642651e+000	 2.8341214682e-001
 4.5266476974e+000	 1.2892150412e+000	 2.6539100000e-001
 4.5130450117e+000	 1.3360535868e+000	 2.4721587953e-001
 4.4989198818e+000	 1.3828717319e+000	 2.2860952366e-001
 4.6430684052e+000	 9.1991653610e-001	 3.8763476284e-001
 4.6335128934e+000	 9.6689621935e-001	 3.7521026258e-001
 4.6234509209e+000	 1.0139185908e+000	 3.6112110488e-001
 4.6128796112e+000	 1.0609760877e+000	 3.4571723994e-001
 4.6017962261e+000	 1.1080610447e+000	 3.2932399126e-001
 4.5901981691e+000	 1.1551656968e+000	 3.1222904081e-001
 4.5780829893e+000	 1.2022821825e+000	 2.9467011617e-001
 4.5654483845e+000	 1.2494025464e+000	 2.7682165035e-001
 4.5522922052e+000	 1.2965187431e+000	 2.5878062171e-001
 4.5386124571e+000	 1.3436226398e+000	 2.4053987891e-001
 4.5244073051e+000	 1.3907060206e+000	 2.2183732141e-001
 4.2695348885e+000	 1.3123636919e+000	 2.5695635905e-001
 4.2556325659e+000	 1.3567675455e+000	 2.3546920086e-001
 4.2412314288e+000	 1.4011363057e+000	 2.1230179082e-001
 4.2263302067e+000	 1.4454619993e+000	 1.8792560820e-001
 4.2109277906e+000	 1.4897365888e+000	 1.6282758302e-001
 4.1950232353e+000	 1.5339519758e+000	 1.3747514271e-001
 4.1786157627e+000	 1.5781000051e+000	 1.1231329448e-001
 4.1617047635e+000	 1.6221724688e+000	 8.7761630629e-002
 4.1442897998e+000	 1.6661611104e+000	 6.4211256729e-002
 4.1263706075e+000	 1.7100576294e+000	 4.2021639799e-002
 4.1079470979e+000	 1.7538536852e+000	 2.1517371930e-002
 4.2950220250e+000	 1.3201978924e+000	 2.5414118608e-001
 4.2810367120e+000	 1.3648668164e+000	 2.3276501230e-001
 4.2665496069e+000	 1.4095004374e+000	 2.0992789907e-001
 4.2515594314e+000	 1.4540907348e+000	 1.8608554921e-001
 4.2360650700e+000	 1.4986296230e+000	 1.6169085039e-001
 4.2200655720e+000	 1.5431089553e+000	 1.3717369597e-001
 4.2035601544e+000	 1.5875205278e+000	 1.1293801263e-001
 4.1865482044e+000	 1.6318560836e+000	 8.9358727133e-002
 4.1690292815e+000	 1.6761073169e+000	 6.6778671673e-002
 4.1510031199e+000	 1.7202658777e+000	 4.5505425101e-002
 4.1324696305e+000	 1.7643233755e+000	 2.5808084828e-002
 4.3205091679e+000	 1.3280320950e+000	 2.5171474998e-001
 4.3064408645e+000	 1.3729660894e+000	 2.3055745704e-001
 4.2918677912e+000	 1.4178645713e+000	 2.0810934451e-001
 4.2767886624e+000	 1.4627194725e+000	 1.8480932009e-001
 4.2612023557e+000	 1.5075226595e+000	 1.6107678395e-001
 4.2451079149e+000	 1.5522659371e+000	 1.3730535318e-001
 4.2285045523e+000	 1.5969410529e+000	 1.1385984931e-001
 4.2113916514e+000	 1.6415397008e+000	 9.1073240830e-002
 4.1937687693e+000	 1.6860535259e+000	 6.9243539760e-002
 4.1756356384e+000	 1.7304741285e+000	 4.8630649570e-002
 4.1569921692e+000	 1.7747930685e+000	 2.9453158611e-002
 4.3459963236e+000	 1.3358663014e+000	 2.4949136190e-001
 4.3318450297e+000	 1.3810653663e+000	 2.2861981516e-001
 4.3171859883e+000	 1.4262287093e+000	 2.0659802604e-001
 4.3020179060e+000	 1.4713482145e+000	 1.8383736006e-001
 4.2863396540e+000	 1.5164157003e+000	 1.6072430748e-001
 4.2701502703e+000	 1.5614229235e+000	 1.3761747694e-001
 4.2534489626e+000	 1.6063615826e+000	 1.1484455760e-001
 4.2362351109e+000	 1.6512233228e+000	 9.2699251574e-002
 4.2185082695e+000	 1.6959997399e+000	 7.1438176052e-002
 4.2002681693e+000	 1.7406823845e+000	 5.1277731588e-002
 4.1815147202e+000	 1.7852627668e+000	 3.2390930501e-002
 4.3714834983e+000	 1.3437005137e+000	 2.4726274947e-001
 4.3572492139e+000	 1.3891646494e+000	 2.2672066678e-001
 4.3425042043e+000	 1.4345928536e+000	 2.0514171427e-001
 4.3272471685e+000	 1.4799769629e+000	 1.8290634044e-001
 4.3114769711e+000	 1.5253087479e+000	 1.6036872393e-001
 4.2951926445e+000	 1.5705799167e+000	 1.3785374087e-001
 4.2783933917e+000	 1.6157821194e+000	 1.1565391611e-001
 4.2610785891e+000	 1.6609069522e+000	 9.4026360239e-002
 4.2432477882e+000	 1.7059459613e+000	 7.3189691245e-002
 4.2249007186e+000	 1.7508906481e+000	 5.3320937265e-002
 4.2060372896e+000	 1.7957324728e+000	 3.4552413487e-002
 4.3969706986e+000	 1.3515347338e+000	 2.4481946015e-001
 4.3826534236e+000	 1.3972639405e+000	 2.2462416468e-001
 4.3678224456e+000	 1.4429570062e+000	 2.0348433209e-001
 4.3524764563e+000	 1.4886057200e+000	 1.8174946044e-001
 4.3366143134e+000	 1.5342018043e+000	 1.5974203363e-001
 4.3202350437e+000	 1.5797369191e+000	 1.3775447718e-001
 4.3033378457e+000	 1.6252026657e+000	 1.1604611325e-001
 4.2859220920e+000	 1.6705905912e+000	 9.4840116590e-002
 4.2679873317e+000	 1.7158921927e+000	 7.4320470236e-002
 4.2495332926e+000	 1.7610989219e+000	 5.4628916700e-002
 4.2305598835e+000	 1.8062021894e+000	 3.5861897198e-002
 4.4224579307e+000	 1.3593689638e+000	 2.4195041363e-001
 4.4080576650e+000	 1.4053632418e+000	 2.2209030662e-001
 4.3931407186e+000	 1.4513211693e+000	 2.0136623540e-001
 4.3777057756e+000	 1.4972344879e+000	 1.8009674314e-001
 4.3617516871e+000	 1.5430948719e+000	 1.5857325240e-001
 4.3452774742e+000	 1.5888939329e+000	 1.3705702399e-001
 4.3282823309e+000	 1.6346232237e+000	 1.1577613040e-001
 4.3107656260e+000	 1.6802742423e+000	 9.4922445323e-002
 4.2927269061e+000	 1.7258384365e+000	 7.4648647780e-002
 4.2741658974e+000	 1.7713072085e+000	 5.5065236011e-002
 4.2550825081e+000	 1.8166719190e+000	 3.6237543016e-002
 4.4479452010e+000	 1.3672032054e+000	 2.3843986164e-001
 4.4334619445e+000	 1.4134625552e+000	 2.1887520743e-001
 4.4184590296e+000	 1.4596853450e+000	 1.9852449381e-001
 4.4029351327e+000	 1.5058632687e+000	 1.7767533157e-001
 4.3868890985e+000	 1.5519879528e+000	 1.5658872970e-001
 4.3703199423e+000	 1.5980509605e+000	 1.3549607213e-001
 4.3532268535e+000	 1.6440437958e+000	 1.1459612418e-001
 4.3356091973e+000	 1.6899579079e+000	 9.4052070333e-002
 4.3174665176e+000	 1.7357846952e+000	 7.3988581351e-002
 4.2987985391e+000	 1.7815155104e+000	 5.4488905317e-002
 4.2796051695e+000	 1.8271416644e+000	 3.5591973654e-002
 4.4734325159e+000	 1.3750374608e+000	 2.3406765731e-001
 4.4588662684e+000	 1.4215618828e+000	 2.1473137071e-001
 4.4437773848e+000	 1.4680495353e+000	 1.9469317136e-001
 4.4281645340e+000	 1.5144920646e+000	 1.7420978485e-001
 4.4120265538e+000	 1.5608810493e+000	 1.5351246675e-001
 4.3953624543e+000	 1.6072080041e+000	 1.3280401172e-001
 4.3781714198e+000	 1.6534643845e+000	 1.1225580783e-001
 4.3604528121e+000	 1.6996415905e+000	 9.2004937306e-002
 4.3422061724e+000	 1.7457309714e+000	 7.2151321331e-002
 4.3234312239e+000	 1.7917238301e+000	 5.2754902836e-002
 4.3041278737e+000	 1.8376114280e+000	 3.3832857428e-002
 4.4989198818e+000	 1.3828717319e+000	 2.2860952366e-001
 4.4842706432e+000	 1.4296612266e+000	 2.0940796039e-001
 4.4690957907e+000	 1.4764137423e+000	 1.8960360727e-001
 4.4533939857e+000	 1.5231208778e+000	 1.6942237457e-001
 4.4371640595e+000	 1.5697741635e+000	 1.4906643465e-001
 4.4204050163e+000	 1.6163650660e+000	 1.2871127832e-001
 4.4031160359e+000	 1.6628849919e+000	 1.0850283166e-001
 4.3852964765e+000	 1.7093252924e+000	 8.8554634690e-002
 4.3669458767e+000	 1.7556772674e+000	 6.8945078620e-002
 4.3480639580e+000	 1.8019321703e+000	 4.9714695254e-002
 4.3286506270e+000	 1.8480812126e+000	 3.0863487432e-002
 4.5244073051e+000	 1.3907060206e+000	 2.2183732141e-001
 4.5096750751e+000	 1.4377605886e+000	 2.0265107190e-001
 4.4944142536e+000	 1.4847779682e+000	 1.8298469674e-001
 4.4786234942e+000	 1.5317497104e+000	 1.6303338111e-001
 4.4623016217e+000	 1.5786672978e+000	 1.4297089249e-001
 4.4454476346e+000	 1.6255221485e+000	 1.2294669880e-001
 4.4280607082e+000	 1.6723056206e+000	 1.0308316273e-001
 4.4101401969e+000	 1.7190090161e+000	 8.3472813110e-002
 4.3916856366e+000	 1.7656235858e+000	 6.4175689793e-002
 4.3726967475e+000	 1.8121405334e+000	 4.5216754523e-002
 4.3531734355e+000	 1.8585510208e+000	 2.6583355837e-002
 4.1079470979e+000	 1.7538536852e+000	 2.1517371930e-002
 4.0890222373e+000	 1.7975343583e+000	 2.3958055739e-003
 4.0695935713e+000	 1.8410978246e+000	-1.6339371229e-002
 4.0496615522e+000	 1.8845356576e+000	-3.5485834564e-002
 4.0292268150e+000	 1.9278394095e+000	-5.5926584573e-002
 4.0082901786e+000	 1.9710006163e+000	-7.8632597497e-002
 3.9868526470e+000	 2.0140108020e+000	-1.0464479077e-001
 3.9649154103e+000	 2.0568614843e+000	-1.3074410566e-001
 3.9424798459e+000	 2.0995441792e+000	-1.5594120891e-001
 3.9195475189e+000	 2.1420504062e+000	-1.8086040156e-001
 3.8961201831e+000	 2.1843716934e+000	-2.0609965715e-001
 4.1324696305e+000	 1.7643233755e+000	 2.5808084828e-002
 4.1134317973e+000	 1.8082648019e+000	 7.1627320263e-003
 4.0938871512e+000	 1.8520883219e+000	-1.1615633521e-002
 4.0738361472e+000	 1.8957854585e+000	-3.1328395884e-002
 4.0532794241e+000	 1.9393477137e+000	-5.2854241134e-002
 4.0322178058e+000	 1.9827665728e+000	-7.7151679608e-002
 4.0106523021e+000	 2.0260335093e+000	-1.0386306757e-001
 3.9885841103e+000	 2.0691399902e+000	-1.2836319531e-001
 3.9660146160e+000	 2.1120774810e+000	-1.5223735968e-001
 3.9429453937e+000	 2.1548374504e+000	-1.7637890075e-001
 3.9193782076e+000	 2.1974113759e+000	-2.0139015097e-001
 4.1569921692e+000	 1.7747930685e+000	 2.9453158611e-002
 4.1378413634e+000	 1.8189952483e+000	 1.1037333824e-002
 4.1181807371e+000	 1.8630788219e+000	-7.9194611654e-003
 4.0980107483e+000	 1.9070352623e+000	-2.8217952830e-002
 4.0773320393e+000	 1.9508560208e+000	-5.0729137095e-002
 4.0561454389e+000	 1.9945325322e+000	-7.6396681688e-002
 4.0344519631e+000	 2.0380562196e+000	-1.0346637671e-001
 4.0122528162e+000	 2.0814184992e+000	-1.2815263174e-001
 3.9895493920e+000	 2.1246107859e+000	-1.5099338132e-001
 3.9663432743e+000	 2.1676244977e+000	-1.7416941063e-001
 3.9426362379e+000	 2.2104510617e+000	-1.9861696744e-001
 4.1815147202e+000	 1.7852627668e+000	 3.2390930501e-002
 4.1622509417e+000	 1.8297257000e+000	 1.4013843085e-002
 4.1424743353e+000	 1.8740693274e+000	-5.2145980176e-003
 4.1221853614e+000	 1.9182850717e+000	-2.6090189617e-002
 4.1013846665e+000	 1.9623643336e+000	-4.9472944385e-002
 4.0800730841e+000	 2.0062984976e+000	-7.6221831827e-002
 4.0582516360e+000	 2.0500789359e+000	-1.0308729626e-001
 4.0359215339e+000	 2.0936970144e+000	-1.2806090997e-001
 4.0130841797e+000	 2.1371440970e+000	-1.5147285890e-001
 3.9897411667e+000	 2.1804115515e+000	-1.7389705140e-001
 3.9658942799e+000	 2.2234907540e+000	-1.9750668146e-001
 4.2060372896e+000	 1.7957324728e+000	 3.4552413487e-002
 4.1866605383e+000	 1.8404561597e+000	 1.6078044807e-002
 4.1667679516e+000	 1.8850598412e+000	-3.4740356201e-003
 4.1463599927e+000	 1.9295348895e+000	-2.4890517421e-002
 4.1254373117e+000	 1.9738726551e+000	-4.9017221244e-002
 4.1040007471e+000	 2.0180644717e+000	-7.6248360632e-002
 4.0820513268e+000	 2.0621016612e+000	-1.0277034905e-001
 4.0595902694e+000	 2.1059755387e+000	-1.2784503902e-001
 4.0366189852e+000	 2.1496774176e+000	-1.5178143223e-001
 4.0131390766e+000	 2.1931986148e+000	-1.7490749173e-001
 3.9891523392e+000	 2.2365304562e+000	-1.9780482152e-001
 4.2305598835e+000	 1.8062021894e+000	 3.5861897198e-002
 4.2110701594e+000	 1.8511866302e+000	 1.7207941276e-002
 4.1910615923e+000	 1.8960503660e+000	-2.6792943796e-003
 4.1705346482e+000	 1.9407847185e+000	-2.4573310338e-002
 4.1494899810e+000	 1.9853809880e+000	-4.9302612233e-002
 4.1279284341e+000	 2.0298304576e+000	-7.6464292353e-002
 4.1058510414e+000	 2.0741243986e+000	-1.0255669277e-001
 4.0832590286e+000	 2.1182540753e+000	-1.2755783792e-001
 4.0601538141e+000	 2.1622107507e+000	-1.5175716943e-001
 4.0365370098e+000	 2.2059856910e+000	-1.7545978434e-001
 4.0124104219e+000	 2.2495701713e+000	-1.9898674591e-001
 4.2550825081e+000	 1.8166719190e+000	 3.6237543016e-002
 4.2354798109e+000	 1.8619171141e+000	 1.7374409207e-002
 4.2153552633e+000	 1.9070409045e+000	-2.8197131946e-003
 4.1947093338e+000	 1.9520345617e+000	-2.5101150652e-002
 4.1735426804e+000	 1.9968893354e+000	-5.0278058105e-002
 4.1518561510e+000	 2.0415964583e+000	-7.6909320981e-002
 4.1296507858e+000	 2.0861471510e+000	-1.0248390327e-001
 4.1069278174e+000	 2.1305326273e+000	-1.2724802888e-001
 4.0836886725e+000	 2.1747440995e+000	-1.5147320460e-001
 4.0599349724e+000	 2.2187727831e+000	-1.7544430437e-001
 4.0356685336e+000	 2.2626099028e+000	-1.9945987439e-001
 4.2796051695e+000	 1.8271416644e+000	 3.5591973654e-002
 4.2598894991e+000	 1.8726476141e+000	 1.6541849908e-002
 4.2396489707e+000	 1.9180314595e+000	-3.8917471888e-003
 4.2188840558e+000	 1.9632844217e+000	-2.6444083041e-002
 4.1975954158e+000	 2.0083977000e+000	-5.1817930019e-002
 4.1757839038e+000	 2.0533624765e+000	-7.7619564459e-002
 4.1534505658e+000	 2.0981699214e+000	-1.0258576737e-001
 4.1305966416e+000	 2.1428111977e+000	-1.2696004283e-001
 4.1072235661e+000	 2.1872774670e+000	-1.5099758897e-001
 4.0833329700e+000	 2.2315598944e+000	-1.7496568866e-001
 4.0589266802e+000	 2.2756496538e+000	-1.9914401736e-001
 4.3041278737e+000	 1.8376114280e+000	 3.3832857428e-002
 4.2842992299e+000	 1.8833781329e+000	 1.4668832760e-002
 4.2639427207e+000	 1.9290220337e+000	-5.8982732223e-003
 4.2430588200e+000	 1.9745343013e+000	-2.8578877346e-002
 4.2216481933e+000	 2.0199060847e+000	-5.3710543672e-002
 4.1997116985e+000	 2.0651285154e+000	-7.8627362638e-002
 4.1772503875e+000	 2.1101927129e+000	-1.0289208480e-001
 4.1542655073e+000	 2.1550897896e+000	-1.2673383367e-001
 4.1307585010e+000	 2.1998108565e+000	-1.5039312585e-001
 4.1067310086e+000	 2.2443470280e+000	-1.7412227439e-001
 4.0821848675e+000	 2.2886894276e+000	-1.9818570795e-001
 4.3286506270e+000	 1.8480812126e+000	 3.0863487432e-002
 4.3087090096e+000	 1.8941086732e+000	 1.1708732275e-002
 4.2882365192e+000	 1.9400126299e+000	-8.8479028668e-003
 4.2672336326e+000	 1.9857842035e+000	-3.1488299572e-002
 4.2457010189e+000	 2.0314144925e+000	-5.5987118379e-002
 4.2236395410e+000	 2.0768945778e+000	-7.9961084078e-002
 4.2010502567e+000	 2.1222155284e+000	-1.0342847887e-001
 4.1779344203e+000	 2.1673684060e+000	-1.2660470093e-001
 4.1542934829e+000	 2.2123442711e+000	-1.4971721323e-001
 4.1301290939e+000	 2.2571341873e+000	-1.7300596978e-001
 4.1054431013e+000	 2.3017292275e+000	-1.9672375437e-001
 4.3531734355e+000	 1.8585510208e+000	 2.6583355837e-002
 4.3331188442e+000	 1.9048392375e+000	 7.6103589883e-003
 4.3125303724e+000	 1.9510032508e+000	-1.2754302546e-002
 4.2914084996e+000	 1.9970341310e+000	-3.5160390780e-002
 4.2697538987e+000	 2.0429229261e+000	-5.8686957878e-002
 4.2475674374e+000	 2.0886606667e+000	-8.1644941357e-002
 4.2248501796e+000	 2.1342383709e+000	-1.0421621560e-001
 4.2016033865e+000	 2.1796470501e+000	-1.2660312041e-001
 4.1778285178e+000	 2.2248777138e+000	-1.4902169383e-001
 4.1535272320e+000	 2.2699213753e+000	-1.7170213121e-001
 4.1287013875e+000	 2.3147690567e+000	-1.9488915194e-001
 3.8961201831e+000	 2.1843716934e+000	-2.0609965715e-001
 3.8721961564e+000	 2.2265058876e+000	-2.2999940246e-001
 3.8477810517e+000	 2.2684381848e+000	-2.5095763609e-001
 3.8228771944e+000	 2.3101601684e+000	-2.6962673074e-001
 3.7974870994e+000	 2.3516634514e+000	-2.8662917774e-001
 3.7716134707e+000	 2.3929396811e+000	-3.0256016911e-001
 3.7452592011e+000	 2.4339805451e+000	-3.1799098496e-001
 3.7184273714e+000	 2.4747777761e+000	-3.3347317411e-001
 3.6911212498e+000	 2.5153231572e+000	-3.4954350813e-001
 3.6633442912e+000	 2.5556085274e+000	-3.6672968046e-001
 3.6351001357e+000	 2.5956257866e+000	-3.8555671380e-001
 3.9193782076e+000	 2.1974113759e+000	-2.0139015097e-001
 3.8953113656e+000	 2.2397970917e+000	-2.2555872944e-001
 3.8707505140e+000	 2.2819797052e+000	-2.4714250158e-001
 3.8456979923e+000	 2.3239507497e+000	-2.6666061277e-001
 3.8201563303e+000	 2.3657017879e+000	-2.8460323122e-001
 3.7941282481e+000	 2.4072244175e+000	-3.0143447385e-001
 3.7676166557e+000	 2.4485102764e+000	-3.1759617267e-001
 3.7406246525e+000	 2.4895510478e+000	-3.3351246941e-001
 3.7131555261e+000	 2.5303384660e+000	-3.4959521700e-001
 3.6852127520e+000	 2.5708643211e+000	-3.6625015846e-001
 3.6567999920e+000	 2.6111204647e+000	-3.8388384450e-001
 3.9426362379e+000	 2.2104510617e+000	-1.9861696744e-001
 3.9184265806e+000	 2.2530882991e+000	-2.2264153043e-001
 3.8937199822e+000	 2.2955212290e+000	-2.4444032650e-001
 3.8685187960e+000	 2.3377413343e+000	-2.6441825333e-001
 3.8428255668e+000	 2.3797401279e+000	-2.8295142189e-001
 3.8166430311e+000	 2.4215091574e+000	-3.0039039243e-001
 3.7899741160e+000	 2.4630400112e+000	-3.1706428883e-001
 3.7628219391e+000	 2.5043243232e+000	-3.3328577802e-001
 3.7351898079e+000	 2.5453537786e+000	-3.4935689258e-001
 3.7070812182e+000	 2.5861201187e+000	-3.6557566518e-001
 3.6784998537e+000	 2.6266151467e+000	-3.8224353477e-001
 3.9658942799e+000	 2.2234907540e+000	-1.9750668146e-001
 3.9415418071e+000	 2.2663795131e+000	-2.2103793354e-001
 3.9166894618e+000	 2.3090627595e+000	-2.4269562900e-001
 3.8913396110e+000	 2.3515319259e+000	-2.6278914366e-001
 3.8654948147e+000	 2.3937784749e+000	-2.8159854511e-001
 3.8391578253e+000	 2.4357939045e+000	-2.9937810566e-001
 3.8123315874e+000	 2.4775697534e+000	-3.1636073364e-001
 3.7850192369e+000	 2.5190976061e+000	-3.3276330921e-001
 3.7572241007e+000	 2.5603690986e+000	-3.4879290170e-001
 3.7289496954e+000	 2.6013759238e+000	-3.6465383605e-001
 3.7001997262e+000	 2.6421098364e+000	-3.8055556657e-001
 3.9891523392e+000	 2.2365304562e+000	-1.9780482152e-001
 3.9646570510e+000	 2.2796707371e+000	-2.2055545495e-001
 3.9396589586e+000	 2.3226043002e+000	-2.4176896370e-001
 3.9141604432e+000	 2.3653225278e+000	-2.6167768102e-001
 3.8881640796e+000	 2.4078168325e+000	-2.8048340001e-001
 3.8616726365e+000	 2.4500786623e+000	-2.9836113066e-001
 3.8346890756e+000	 2.4920995064e+000	-3.1546381745e-001
 3.8072165513e+000	 2.5338709000e+000	-3.3192800329e-001
 3.7792584100e+000	 2.5753844299e+000	-3.4788041594e-001
 3.7508181889e+000	 2.6166317404e+000	-3.6344544326e-001
 3.7218996151e+000	 2.6576045378e+000	-3.7875345363e-001
 4.0124104219e+000	 2.2495701713e+000	-1.9898674591e-001
 3.9877723179e+000	 2.2929619745e+000	-2.2101863276e-001
 3.9626284784e+000	 2.3361458544e+000	-2.4153659224e-001
 3.9369812982e+000	 2.3791131435e+000	-2.6100287042e-001
 3.9108333672e+000	 2.4218552041e+000	-2.7955851664e-001
 3.8841874701e+000	 2.4643634344e+000	-2.9731606752e-001
 3.8570465861e+000	 2.5066292740e+000	-3.1436452055e-001
 3.8294138879e+000	 2.5486442086e+000	-3.3077529842e-001
 3.8012927413e+000	 2.5903997763e+000	-3.4660917905e-001
 3.7726867043e+000	 2.6318875722e+000	-3.6192415682e-001
 3.7435995256e+000	 2.6730992547e+000	-3.7677124105e-001
 4.0356685336e+000	 2.2626099028e+000	-1.9945987439e-001
 4.0108876138e+000	 2.3062532284e+000	-2.2205760024e-001
 3.9855980269e+000	 2.3496874256e+000	-2.4189015755e-001
 3.9598021817e+000	 2.3929037764e+000	-2.6069802899e-001
 3.9335026831e+000	 2.4358935932e+000	-2.7878988485e-001
 3.9067023319e+000	 2.4786482244e+000	-2.9623234692e-001
 3.8794041246e+000	 2.5211590597e+000	-3.1306625385e-001
 3.8516112522e+000	 2.5634175357e+000	-3.2931289810e-001
 3.8233271002e+000	 2.6054151414e+000	-3.4498127489e-001
 3.7945552471e+000	 2.6471434231e+000	-3.6007630684e-001
 3.7652994632e+000	 2.6885939909e+000	-3.7447072752e-001
 4.0589266802e+000	 2.2756496538e+000	-1.9914401736e-001
 4.0340029444e+000	 2.3195445022e+000	-2.2222561430e-001
 4.0085676099e+000	 2.3632290171e+000	-2.4261248597e-001
 3.9826230995e+000	 2.4066944300e+000	-2.6071049289e-001
 3.9561720330e+000	 2.4499320034e+000	-2.7815668490e-001
 3.9292172275e+000	 2.4929330358e+000	-2.9511197907e-001
 3.9017616966e+000	 2.5356888672e+000	-3.1158462021e-001
 3.8738086499e+000	 2.5781908850e+000	-3.2756053925e-001
 3.8453614922e+000	 2.6204305290e+000	-3.4301089626e-001
 3.8164238226e+000	 2.6623992969e+000	-3.5790064673e-001
 3.7869994334e+000	 2.7040887503e+000	-3.7183825259e-001
 4.0821848675e+000	 2.2886894276e+000	-1.9818570795e-001
 4.0571183154e+000	 2.3328357994e+000	-2.2143770003e-001
 4.0315372331e+000	 2.3767706323e+000	-2.4241425397e-001
 4.0054440571e+000	 2.4204851078e+000	-2.6095401296e-001
 3.9788414226e+000	 2.4639704382e+000	-2.7765101973e-001
 3.9517321625e+000	 2.5072178722e+000	-2.9396930355e-001
 3.9241193077e+000	 2.5502187002e+000	-3.0994717663e-001
 3.8960060863e+000	 2.5929642602e+000	-3.2554976085e-001
 3.8673959227e+000	 2.6354459429e+000	-3.4072411426e-001
 3.8382924365e+000	 2.6776551974e+000	-3.5538641833e-001
 3.8086994416e+000	 2.7195835369e+000	-3.6889875878e-001
 4.1054431013e+000	 2.3017292275e+000	-1.9672375437e-001
 4.0802337326e+000	 2.3461271231e+000	-2.1988229223e-001
 4.0545069021e+000	 2.3903122745e+000	-2.4115553923e-001
 4.0282650605e+000	 2.4342758131e+000	-2.6034027010e-001
 4.0015108575e+000	 2.4780089010e+000	-2.7727420704e-001
 3.9742471425e+000	 2.5215027371e+000	-2.9283074027e-001
 3.9464769636e+000	 2.5647485622e+000	-3.0819319696e-001
 3.9182035672e+000	 2.6077376649e+000	-3.2332367317e-001
 3.8894303972e+000	 2.6504613868e+000	-3.3815864841e-001
 3.8601610940e+000	 2.6929111284e+000	-3.5251482028e-001
 3.8303994932e+000	 2.7350783545e+000	-3.6568628538e-001
 4.1287013875e+000	 2.3147690567e+000	-1.9488915194e-001
 4.1033492018e+000	 2.3594184767e+000	-2.1773870487e-001
 4.0774766229e+000	 2.4038539472e+000	-2.3905704560e-001
 4.0510861151e+000	 2.4480665494e+000	-2.5861427189e-001
 4.0241803434e+000	 2.4920473954e+000	-2.7621905254e-001
 3.9967621731e+000	 2.5357876342e+000	-2.9173454145e-001
 3.9688346697e+000	 2.5792784569e+000	-3.0637343542e-001
 3.9404010980e+000	 2.6225111028e+000	-3.2093672753e-001
 3.9114649214e+000	 2.6654768645e+000	-3.3536363723e-001
 3.8820298008e+000	 2.7081670937e+000	-3.4934981323e-001
 3.8520995936e+000	 2.7505732069e+000	-3.6224315183e-001
 3.6351001357e+000	 2.5956257866e+000	-3.8555671380e-001
 3.6063926063e+000	 2.6353668999e+000	-4.0701004315e-001
 3.5772257048e+000	 2.6748239003e+000	-4.3118564449e-001
 3.5476036128e+000	 2.7139888964e+000	-4.5599420995e-001
 3.5175306915e+000	 2.7528540782e+000	-4.7964051568e-001
 3.4870114791e+000	 2.7914117222e+000	-5.0086351052e-001
 3.4560506892e+000	 2.8296541964e+000	-5.1841763691e-001
 3.4246532080e+000	 2.8675739655e+000	-5.3108067199e-001
 3.3928240923e+000	 2.9051635954e+000	-5.3766225156e-001
 3.3605685667e+000	 2.9424157581e+000	-5.3701303923e-001
 3.3278920205e+000	 2.9793232365e+000	-5.2839816402e-001
 3.6567999920e+000	 2.6111204647e+000	-3.8388384450e-001
 3.6279210920e+000	 2.6510988139e+000	-4.0359933480e-001
 3.5985800776e+000	 2.6907913543e+000	-4.2562131537e-001
 3.5687811556e+000	 2.7301901472e+000	-4.4799728357e-001
 3.5385287129e+000	 2.7692873361e+000	-4.6964437115e-001
 3.5078273150e+000	 2.8080751512e+000	-4.8960174375e-001
 3.4766817036e+000	 2.8465459153e+000	-5.0691498036e-001
 3.4450967940e+000	 2.8846920477e+000	-5.2064347772e-001
 3.4130776734e+000	 2.9225060702e+000	-5.2986858820e-001
 3.3806295973e+000	 2.9599806109e+000	-5.3370245438e-001
 3.3477579873e+000	 2.9971084099e+000	-5.3129749487e-001
 3.6784998537e+000	 2.6266151467e+000	-3.8224353477e-001
 3.6494495830e+000	 2.6668307320e+000	-4.0052066857e-001
 3.6199344558e+000	 2.7067588123e+000	-4.2043135522e-001
 3.5899587036e+000	 2.7463914021e+000	-4.4064520775e-001
 3.5595267396e+000	 2.7857205980e+000	-4.6047646310e-001
 3.5286431562e+000	 2.8247385844e+000	-4.7923106121e-001
 3.4973127231e+000	 2.8634376383e+000	-4.9621286171e-001
 3.4655403852e+000	 2.9018101342e+000	-5.1073067276e-001
 3.4333312595e+000	 2.9398485493e+000	-5.2210606486e-001
 3.4006906328e+000	 2.9775454682e+000	-5.2968193306e-001
 3.3676239591e+000	 3.0148935877e+000	-5.3283176251e-001
 3.7001997262e+000	 2.6421098364e+000	-3.8055556657e-001
 3.6709780849e+000	 2.6825626578e+000	-3.9755445498e-001
 3.6412888447e+000	 2.7227262783e+000	-4.1553604921e-001
 3.6111362623e+000	 2.7625926651e+000	-4.3384838330e-001
 3.5805247767e+000	 2.8021538682e+000	-4.5204722674e-001
 3.5494590077e+000	 2.8414020260e+000	-4.6967249481e-001
 3.5179437530e+000	 2.8803293698e+000	-4.8625409902e-001
 3.4859839866e+000	 2.9189282292e+000	-5.0131866095e-001
 3.4535848557e+000	 2.9571910371e+000	-5.1439706319e-001
 3.4207516785e+000	 2.9951103342e+000	-5.2503280114e-001
 3.3874899407e+000	 3.0326787744e+000	-5.3279109017e-001
 3.7218996151e+000	 2.6576045378e+000	-3.7875345363e-001
 3.6925066029e+000	 2.6982945955e+000	-3.9453131145e-001
 3.6626432496e+000	 2.7386937563e+000	-4.1086921547e-001
 3.6323138368e+000	 2.7787939402e+000	-4.2753064406e-001
 3.6015228296e+000	 2.8185871507e+000	-4.4428023579e-001
 3.5702748748e+000	 2.8580654800e+000	-4.6085971272e-001
 3.5385747984e+000	 2.8972211140e+000	-4.7699342348e-001
 3.5064276033e+000	 2.9360463371e+000	-4.9239480211e-001
 3.4738384671e+000	 2.9745335379e+000	-5.0677371667e-001
 3.4408127391e+000	 3.0126752135e+000	-5.1984467178e-001
 3.4073559373e+000	 3.0504639744e+000	-5.3133581926e-001
 3.7435995256e+000	 2.6730992547e+000	-3.7677124105e-001
 3.7140351424e+000	 2.7140265489e+000	-3.9141672065e-001
 3.6839976758e+000	 2.7546612502e+000	-4.0637733684e-001
 3.6534914325e+000	 2.7949952315e+000	-4.2162837699e-001
 3.6225209035e+000	 2.8350204497e+000	-4.3711131861e-001
 3.5910907628e+000	 2.8747289507e+000	-4.5273813956e-001
 3.5592058643e+000	 2.9141128750e+000	-4.6839661217e-001
 3.5268712405e+000	 2.9531644621e+000	-4.8395656620e-001
 3.4940920988e+000	 2.9918760561e+000	-4.9927709517e-001
 3.4608738198e+000	 3.0302401103e+000	-5.1421467029e-001
 3.4272219538e+000	 3.0682491922e+000	-5.2863211568e-001
 3.7652994632e+000	 2.6885939909e+000	-3.7447072752e-001
 3.7355637088e+000	 2.7297585220e+000	-3.8818791986e-001
 3.7053521288e+000	 2.7706287641e+000	-4.0201869517e-001
 3.6746690547e+000	 2.8111965430e+000	-4.1608964525e-001
 3.6435190037e+000	 2.8514537691e+000	-4.3048767728e-001
 3.6119066767e+000	 2.8913924423e+000	-4.4526407929e-001
 3.5798369561e+000	 2.9310046572e+000	-4.6043962283e-001
 3.5473149032e+000	 2.9702826085e+000	-4.7601068856e-001
 3.5143457558e+000	 3.0092185959e+000	-4.9195638972e-001
 3.4809349256e+000	 3.0478050290e+000	-5.0824665755e-001
 3.4470879951e+000	 3.0860344322e+000	-5.2485124179e-001
 3.7869994334e+000	 2.7040887503e+000	-3.7183825259e-001
 3.7570923075e+000	 2.7454905186e+000	-3.8483305583e-001
 3.7267066137e+000	 2.7865963019e+000	-3.9776250835e-001
 3.6958467086e+000	 2.8273978789e+000	-4.1087331398e-001
 3.6645171353e+000	 2.8678871133e+000	-4.2436700937e-001
 3.6327226219e+000	 2.9080559588e+000	-4.3840384049e-001
 3.6004680788e+000	 2.9478964647e+000	-4.5310773060e-001
 3.5677585966e+000	 2.9874007806e+000	-4.6857232641e-001
 3.5345994432e+000	 3.0265611617e+000	-4.8486809740e-001
 3.5009960615e+000	 3.0653699741e+000	-5.0205045235e-001
 3.4669540662e+000	 3.1038196989e+000	-5.2016882544e-001
 3.8086994416e+000	 2.7195835369e+000	-3.6889875878e-001
 3.7786209439e+000	 2.7612225428e+000	-3.8135034169e-001
 3.7480611361e+000	 2.8025638677e+000	-3.9358806970e-001
 3.7170243996e+000	 2.8435992431e+000	-4.0594817872e-001
 3.6855153037e+000	 2.8843204861e+000	-4.1871663231e-001
 3.6535386035e+000	 2.9247195045e+000	-4.3213286395e-001
 3.6210992376e+000	 2.9647883017e+000	-4.4639466658e-001
 3.5882023257e+000	 3.0045189826e+000	-4.6166421636e-001
 3.5548531660e+000	 3.0439037579e+000	-4.7807520621e-001
 3.5210572325e+000	 3.0829349499e+000	-4.9574105245e-001
 3.4868201720e+000	 3.1216049968e+000	-5.1476412628e-001
 3.8303994932e+000	 2.7350783545e+000	-3.6568628538e-001
 3.8001496233e+000	 2.7769545985e+000	-3.7774721586e-001
 3.7694157011e+000	 2.8185314654e+000	-3.8948388966e-001
 3.7382021329e+000	 2.8598006397e+000	-4.0129209636e-001
 3.7065135141e+000	 2.9007538919e+000	-4.1351261025e-001
 3.6743546268e+000	 2.9413830835e+000	-4.2643485264e-001
 3.6417304377e+000	 2.9816801726e+000	-4.4030175820e-001
 3.6086460957e+000	 3.0216372188e+000	-4.5531583309e-001
 3.5751069293e+000	 3.0612463888e+000	-4.7164638019e-001
 3.5411184436e+000	 3.1004999609e+000	-4.8943785450e-001
 3.5066863176e+000	 3.1393903302e+000	-5.0881929941e-001
 3.8520995936e+000	 2.7505732069e+000	-3.6224315183e-001
 3.8216783512e+000	 2.7926866895e+000	-3.7403950283e-001
 3.7907703142e+000	 2.8344990990e+000	-3.8544683989e-001
 3.7593799139e+000	 2.8760020728e+000	-3.9689111854e-001
 3.7275117717e+000	 2.9171873346e+000	-4.0873888338e-001
 3.6951706969e+000	 2.9580467000e+000	-4.2130090367e-001
 3.6623616842e+000	 2.9985720814e+000	-4.3483707126e-001
 3.6290899118e+000	 3.0387554936e+000	-4.4956254893e-001
 3.5953607382e+000	 3.0785890587e+000	-4.6565514447e-001
 3.5611796998e+000	 3.1180650113e+000	-4.8326387290e-001
 3.5265525078e+000	 3.1571757036e+000	-5.0251865644e-001
 3.3278920205e+000	 2.9793232365e+000	-5.2839816402e-001
 3.2948050001e+000	 3.0158734733e+000	-5.2455700276e-001
 3.2613083459e+000	 3.0520650543e+000	-5.2985741883e-001
 3.2274079240e+000	 3.0878911282e+000	-5.4207016485e-001
 3.1931097526e+000	 3.1233449728e+000	-5.5868537480e-001
 3.1584199984e+000	 3.1584199984e+000	-5.7695820747e-001
 3.1233449728e+000	 3.1931097526e+000	-5.9395524165e-001
 3.0878911282e+000	 3.2274079240e+000	-6.0660123477e-001
 3.0520650543e+000	 3.2613083459e+000	-6.1172585932e-001
 3.0158734733e+000	 3.2948050001e+000	-6.0611003729e-001
 2.9793232365e+000	 3.3278920205e+000	-5.8653150196e-001
 3.3477579873e+000	 2.9971084099e+000	-5.3129749487e-001
 3.3144734528e+000	 3.0338768346e+000	-5.2268633675e-001
 3.2807768392e+000	 3.0702844624e+000	-5.2283145052e-001
 3.2466740475e+000	 3.1063244014e+000	-5.3176041017e-001
 3.2121711320e+000	 3.1419898888e+000	-5.4664080109e-001
 3.1772742960e+000	 3.1772742960e+000	-5.6440395000e-001
 3.1419898888e+000	 3.2121711320e+000	-5.8179366029e-001
 3.1063244014e+000	 3.2466740475e+000	-5.9541528924e-001
 3.0702844624e+000	 3.2807768392e+000	-6.0178476543e-001
 3.0338768346e+000	 3.3144734528e+000	-5.9737715126e-001
 2.9971084099e+000	 3.3477579873e+000	-5.7921009611e-001
 3.3676239591e+000	 3.0148935877e+000	-5.3283176251e-001
 3.3341419104e+000	 3.0518802003e+000	-5.2740674265e-001
 3.3002453373e+000	 3.0885038752e+000	-5.2109974316e-001
 3.2659401758e+000	 3.1247576791e+000	-5.2543514186e-001
 3.2312325161e+000	 3.1606348096e+000	-5.3730586703e-001
 3.1961285984e+000	 3.1961285984e+000	-5.5335785655e-001
 3.1606348096e+000	 3.2312325161e+000	-5.7004961451e-001
 3.1247576791e+000	 3.2659401758e+000	-5.8370360245e-001
 3.0885038752e+000	 3.3002453373e+000	-5.9055753346e-001
 3.0518802003e+000	 3.3341419104e+000	-5.8681696915e-001
 3.0148935877e+000	 3.3676239591e+000	-5.7170523031e-001
 3.3874899407e+000	 3.0326787744e+000	-5.3279109017e-001
 3.3538103778e+000	 3.0698835751e+000	-5.3369060997e-001
 3.3197138451e+000	 3.1067232970e+000	-5.2464961157e-001
 3.2852063138e+000	 3.1431909661e+000	-5.2313456219e-001
 3.2502939098e+000	 3.1792797397e+000	-5.3076272076e-001
 3.2149829103e+000	 3.2149829103e+000	-5.4393220295e-001
 3.1792797397e+000	 3.2502939098e+000	-5.5885283181e-001
 3.1431909661e+000	 3.2852063138e+000	-5.7159984093e-001
 3.1067232970e+000	 3.3197138451e+000	-5.7816744331e-001
 3.0698835751e+000	 3.3538103778e+000	-5.7558977299e-001
 3.0326787744e+000	 3.3874899407e+000	-5.6411846093e-001
 3.4073559373e+000	 3.0504639744e+000	-5.3133581926e-001
 3.3734788600e+000	 3.0878869634e+000	-5.3748027405e-001
 3.3391823675e+000	 3.1249427324e+000	-5.3304904615e-001
 3.3044724662e+000	 3.1616242669e+000	-5.2487363770e-001
 3.2693553177e+000	 3.1979246837e+000	-5.2706795080e-001
 3.2338372362e+000	 3.2338372362e+000	-5.3621361766e-001
 3.1979246837e+000	 3.2693553177e+000	-5.4830755113e-001
 3.1616242669e+000	 3.3044724662e+000	-5.5921259854e-001
 3.1249427324e+000	 3.3391823675e+000	-5.6480013084e-001
 3.0878869634e+000	 3.3734788600e+000	-5.6463860508e-001
 3.0504639744e+000	 3.4073559373e+000	-5.5643971223e-001
 3.4272219538e+000	 3.0682491922e+000	-5.2863211568e-001
 3.3931473618e+000	 3.1058903696e+000	-5.3901312393e-001
 3.3586509095e+000	 3.1431621861e+000	-5.4019755282e-001
 3.3237386378e+000	 3.1800575861e+000	-5.3064354859e-001
 3.2884167448e+000	 3.2165696465e+000	-5.2625408894e-001
 3.2526915810e+000	 3.2526915810e+000	-5.3026462847e-001
 3.2165696465e+000	 3.2884167448e+000	-5.3849410334e-001
 3.1800575861e+000	 3.3237386378e+000	-5.4662699999e-001
 3.1431621861e+000	 3.3586509095e+000	-5.5186574368e-001
 3.1058903696e+000	 3.3931473618e+000	-5.5396107646e-001
 3.0682491922e+000	 3.4272219538e+000	-5.4862487151e-001
 3.4470879951e+000	 3.0860344322e+000	-5.2485124179e-001
 3.4128158883e+000	 3.1238937984e+000	-5.3853000078e-001
 3.3781194757e+000	 3.1613816626e+000	-5.4426179313e-001
 3.3430048336e+000	 3.1984909284e+000	-5.3940103205e-001
 3.3074781956e+000	 3.2352146325e+000	-5.2833110443e-001
 3.2715459494e+000	 3.2715459494e+000	-5.2612519994e-001
 3.2352146325e+000	 3.3074781956e+000	-5.2947048191e-001
 3.1984909284e+000	 3.3430048336e+000	-5.3413488260e-001
 3.1613816626e+000	 3.3781194757e+000	-5.3982188624e-001
 3.1238937984e+000	 3.4128158883e+000	-5.4352212555e-001
 3.0860344322e+000	 3.4470879951e+000	-5.4059825948e-001
 3.4669540662e+000	 3.1038196989e+000	-5.2016882544e-001
 3.4324844442e+000	 3.1418972542e+000	-5.3627451605e-001
 3.3975880711e+000	 3.1796011664e+000	-5.4554446175e-001
 3.3622710582e+000	 3.2169242983e+000	-5.4526710019e-001
 3.3265396750e+000	 3.2538596464e+000	-5.3328788997e-001
 3.2904003461e+000	 3.2904003461e+000	-5.2381426175e-001
 3.2538596464e+000	 3.3265396750e+000	-5.2127390433e-001
 3.2169242983e+000	 3.3622710582e+000	-5.2310098192e-001
 3.1796011664e+000	 3.3975880711e+000	-5.2862801401e-001
 3.1418972542e+000	 3.4324844442e+000	-5.3325649268e-001
 3.1038196989e+000	 3.4669540662e+000	-5.3225509289e-001
 3.4868201720e+000	 3.1216049968e+000	-5.1476412628e-001
 3.4521530345e+000	 3.1599007414e+000	-5.3249236509e-001
 3.4170567006e+000	 3.1978207021e+000	-5.4434904011e-001
 3.3815373165e+000	 3.2353577004e+000	-5.4759470299e-001
 3.3456011878e+000	 3.2725046930e+000	-5.3957920025e-001
 3.3092547757e+000	 3.3092547757e+000	-5.2333122858e-001
 3.2725046930e+000	 3.3456011878e+000	-5.1427312247e-001
 3.2353577004e+000	 3.3815373165e+000	-5.1369094511e-001
 3.1978207021e+000	 3.4170567006e+000	-5.1821497049e-001
 3.1599007414e+000	 3.4521530345e+000	-5.2307118645e-001
 3.1216049968e+000	 3.4868201720e+000	-5.2346393972e-001
 3.5066863176e+000	 3.1393903302e+000	-5.0881929941e-001
 3.4718216642e+000	 3.1779042647e+000	-5.2743063673e-001
 3.4365253691e+000	 3.2160402742e+000	-5.4097914683e-001
 3.4008036134e+000	 3.2537911395e+000	-5.4673492946e-001
 3.3646627387e+000	 3.2911497769e+000	-5.4205532684e-001
 3.3281092431e+000	 3.3281092431e+000	-5.2465751164e-001
 3.2911497769e+000	 3.3646627387e+000	-5.0965374486e-001
 3.2537911395e+000	 3.4008036134e+000	-5.0581869030e-001
 3.2160402742e+000	 3.4365253691e+000	-5.0848744400e-001
 3.1779042647e+000	 3.4718216642e+000	-5.1284794196e-001
 3.1393903302e+000	 3.5066863176e+000	-5.1406916715e-001
 3.5265525078e+000	 3.1571757036e+000	-5.0251865644e-001
 3.4914903382e+000	 3.1959078285e+000	-5.2133711869e-001
 3.4559940813e+000	 3.2342598873e+000	-5.3573788268e-001
 3.4200699536e+000	 3.2722246200e+000	-5.4303738828e-001
 3.3837243325e+000	 3.3097949028e+000	-5.4063635569e-001
 3.3469637528e+000	 3.3469637528e+000	-5.2644638833e-001
 3.3097949028e+000	 3.3837243325e+000	-5.0740877165e-001
 3.2722246200e+000	 3.4200699536e+000	-4.9937371694e-001
 3.2342598873e+000	 3.4559940813e+000	-4.9932641634e-001
 3.1959078285e+000	 3.4914903382e+000	-5.0244567147e-001
 3.1571757036e+000	 3.5265525078e+000	-5.0389338277e-001
 2.9793232365e+000	 3.3278920205e+000	-5.8653150196e-001
 2.9424157581e+000	 3.3605685667e+000	-5.6303531208e-001
 2.9051635954e+000	 3.3928240923e+000	-5.4840933536e-001
 2.8675739655e+000	 3.4246532080e+000	-5.4122500850e-001
 2.8296541964e+000	 3.4560506892e+000	-5.4000367850e-001
 2.7914117222e+000	 3.4870114791e+000	-5.4332740692e-001
 2.7528540782e+000	 3.5175306915e+000	-5.4987194786e-001
 2.7139888964e+000	 3.5476036128e+000	-5.5843679498e-001
 2.6748239003e+000	 3.5772257048e+000	-5.6797210811e-001
 2.6353668999e+000	 3.6063926063e+000	-5.7649854242e-001
 2.5956257866e+000	 3.6351001357e+000	-5.8187418211e-001
 2.9971084099e+000	 3.3477579873e+000	-5.7921009611e-001
 2.9599806109e+000	 3.3806295973e+000	-5.5891337670e-001
 2.9225060702e+000	 3.4130776734e+000	-5.4628090115e-001
 2.8846920477e+000	 3.4450967940e+000	-5.3999761447e-001
 2.8465459153e+000	 3.4766817036e+000	-5.3877486164e-001
 2.8080751512e+000	 3.5078273150e+000	-5.4138690774e-001
 2.7692873361e+000	 3.5385287129e+000	-5.4670461817e-001
 2.7301901472e+000	 3.5687811556e+000	-5.5372607167e-001
 2.6907913543e+000	 3.5985800776e+000	-5.6160391129e-001
 2.6510988139e+000	 3.6279210920e+000	-5.6942410087e-001
 2.6111204647e+000	 3.6567999920e+000	-5.7488412669e-001
 3.0148935877e+000	 3.3676239591e+000	-5.7170523031e-001
 2.9775454682e+000	 3.4006906328e+000	-5.5461204275e-001
 2.9398485493e+000	 3.4333312595e+000	-5.4401520550e-001
 2.9018101342e+000	 3.4655403852e+000	-5.3875646647e-001
 2.8634376383e+000	 3.4973127231e+000	-5.3770659538e-001
 2.8247385844e+000	 3.5286431562e+000	-5.3980282092e-001
 2.7857205980e+000	 3.5595267396e+000	-5.4408329040e-001
 2.7463914021e+000	 3.5899587036e+000	-5.4971831807e-001
 2.7067588123e+000	 3.6199344558e+000	-5.5603822184e-001
 2.6668307320e+000	 3.6494495830e+000	-5.6255758428e-001
 2.6266151467e+000	 3.6784998537e+000	-5.6783710506e-001
 3.0326787744e+000	 3.3874899407e+000	-5.6411846093e-001
 2.9951103342e+000	 3.4207516785e+000	-5.5010943041e-001
 2.9571910371e+000	 3.4535848557e+000	-5.4154991712e-001
 2.9189282292e+000	 3.4859839866e+000	-5.3740713451e-001
 2.8803293698e+000	 3.5179437530e+000	-5.3668120337e-001
 2.8414020260e+000	 3.5494590077e+000	-5.3844359080e-001
 2.8021538682e+000	 3.5805247767e+000	-5.4187242677e-001
 2.7625926651e+000	 3.6111362623e+000	-5.4628445684e-001
 2.7227262783e+000	 3.6412888447e+000	-5.5116342598e-001
 2.6825626578e+000	 3.6709780849e+000	-5.5618472487e-001
 2.6421098364e+000	 3.7001997262e+000	-5.6086472055e-001
 3.0504639744e+000	 3.4073559373e+000	-5.5643971223e-001
 3.0126752135e+000	 3.4408127391e+000	-5.4534825879e-001
 2.9745335379e+000	 3.4738384671e+000	-5.3878811039e-001
 2.9360463371e+000	 3.5064276033e+000	-5.3582107889e-001
 2.8972211140e+000	 3.5385747984e+000	-5.3554704830e-001
 2.8580654800e+000	 3.5702748748e+000	-5.3714350107e-001
 2.8185871507e+000	 3.6015228296e+000	-5.3990176875e-001
 2.7787939402e+000	 3.6323138368e+000	-5.4325975868e-001
 2.7386937563e+000	 3.6626432496e+000	-5.4683094580e-001
 2.6982945955e+000	 3.6925066029e+000	-5.5042945680e-001
 2.6576045378e+000	 3.7218996151e+000	-5.5404884252e-001
 3.0682491922e+000	 3.4272219538e+000	-5.4862487151e-001
 3.0302401103e+000	 3.4608738198e+000	-5.4023830516e-001
 2.9918760561e+000	 3.4940920988e+000	-5.3560070829e-001
 2.9531644621e+000	 3.5268712405e+000	-5.3383807991e-001
 2.9141128750e+000	 3.5592058643e+000	-5.3412095208e-001
 2.8747289507e+000	 3.5910907628e+000	-5.3570508910e-001
 2.8350204497e+000	 3.6225209035e+000	-5.3796874990e-001
 2.7949952315e+000	 3.6534914325e+000	-5.4044625814e-001
 2.7546612502e+000	 3.6839976758e+000	-5.4285766281e-001
 2.7140265489e+000	 3.7140351424e+000	-5.4513431246e-001
 2.6730992547e+000	 3.7435995256e+000	-5.4744020675e-001
 3.0860344322e+000	 3.4470879951e+000	-5.4059825948e-001
 3.0478050290e+000	 3.4809349256e+000	-5.3465885725e-001
 3.0092185959e+000	 3.5143457558e+000	-5.3182891913e-001
 2.9702826085e+000	 3.5473149032e+000	-5.3126866211e-001
 2.9310046572e+000	 3.5798369561e+000	-5.3219061080e-001
 2.8913924423e+000	 3.6119066767e+000	-5.3390155533e-001
 2.8514537691e+000	 3.6435190037e+000	-5.3584090359e-001
 2.8111965430e+000	 3.6746690547e+000	-5.3761516397e-001
 2.7706287641e+000	 3.7053521288e+000	-5.3902833557e-001
 2.7297585220e+000	 3.7355637088e+000	-5.4010802433e-001
 2.6885939909e+000	 3.7652994632e+000	-5.4112714596e-001
 3.1038196989e+000	 3.4669540662e+000	-5.3225509289e-001
 3.0653699741e+000	 3.5009960615e+000	-5.2846115861e-001
 3.0265611617e+000	 3.5345994432e+000	-5.2728666723e-001
 2.9874007806e+000	 3.5677585966e+000	-5.2789651310e-001
 2.9478964647e+000	 3.6004680788e+000	-5.2951700470e-001
 2.9080559588e+000	 3.6327226219e+000	-5.3147916792e-001
 2.8678871133e+000	 3.6645171353e+000	-5.3325826599e-001
 2.8273978789e+000	 3.6958467086e+000	-5.3450926450e-001
 2.7865963019e+000	 3.7267066137e+000	-5.3509801173e-001
 2.7454905186e+000	 3.7570923075e+000	-5.3512794833e-001
 2.7040887503e+000	 3.7869994334e+000	-5.3496220407e-001
 3.1216049968e+000	 3.4868201720e+000	-5.2346393972e-001
 3.0829349499e+000	 3.5210572325e+000	-5.2147084757e-001
 3.0439037579e+000	 3.5548531660e+000	-5.2176301797e-001
 3.0045189826e+000	 3.5882023257e+000	-5.2348089720e-001
 2.9647883017e+000	 3.6210992376e+000	-5.2583680354e-001
 2.9247195045e+000	 3.6535386035e+000	-5.2815966282e-001
 2.8843204861e+000	 3.6855153037e+000	-5.2993577442e-001
 2.8435992431e+000	 3.7170243996e+000	-5.3084532800e-001
 2.8025638677e+000	 3.7480611361e+000	-5.3079443460e-001
 2.7612225428e+000	 3.7786209439e+000	-5.2994248103e-001
 2.7195835369e+000	 3.8086994416e+000	-5.2872466243e-001
 3.1393903302e+000	 3.5066863176e+000	-5.1406916715e-001
 3.1004999609e+000	 3.5411184436e+000	-5.1349038996e-001
 3.0612463888e+000	 3.5751069293e+000	-5.1502459732e-001
 3.0216372188e+000	 3.6086460957e+000	-5.1775906425e-001
 2.9816801726e+000	 3.6417304377e+000	-5.2086476728e-001
 2.9413830835e+000	 3.6743546268e+000	-5.2364263949e-001
 2.9007538919e+000	 3.7065135141e+000	-5.2556566128e-001
 2.8598006397e+000	 3.7382021329e+000	-5.2631649852e-001
 2.8185314654e+000	 3.7694157011e+000	-5.2582044464e-001
 2.7769545985e+000	 3.8001496233e+000	-5.2427347090e-001
 2.7350783545e+000	 3.8303994932e+000	-5.2216523610e-001
 3.1571757036e+000	 3.5265525078e+000	-5.0389338277e-001
 3.1180650113e+000	 3.5611796998e+000	-5.0430150580e-001
 3.0785890587e+000	 3.5953607382e+000	-5.0681800611e-001
 3.0387554936e+000	 3.6290899118e+000	-5.1044865375e-001
 2.9985720814e+000	 3.6623616842e+000	-5.1429614255e-001
 2.9580467000e+000	 3.6951706969e+000	-5.1760795240e-001
 2.9171873346e+000	 3.7275117717e+000	-5.1981984384e-001
 2.8760020728e+000	 3.7593799139e+000	-5.2059468713e-001
 2.8344990990e+000	 3.7907703142e+000	-5.1985637592e-001
 2.7926866895e+000	 3.8216783512e+000	-5.1781862388e-001
 2.7505732069e+000	 3.8520995936e+000	-5.1500849274e-001
 2.5956257866e+000	 3.6351001357e+000	-5.8187418211e-001
 2.5556085274e+000	 3.6633442912e+000	-5.8107549502e-001
 2.5153231572e+000	 3.6911212498e+000	-5.7148322885e-001
 2.4747777761e+000	 3.7184273714e+000	-5.5467256912e-001
 2.4339805451e+000	 3.7452592011e+000	-5.3229677582e-001
 2.3929396811e+000	 3.7716134707e+000	-5.0608712280e-001
 2.3516634514e+000	 3.7974870994e+000	-4.7785086901e-001
 2.3101601684e+000	 3.8228771944e+000	-4.4946732045e-001
 2.2684381848e+000	 3.8477810517e+000	-4.2288205967e-001
 2.2265058876e+000	 3.8721961564e+000	-4.0009943731e-001
 2.1843716934e+000	 3.8961201831e+000	-3.8317343582e-001
 2.6111204647e+000	 3.6567999920e+000	-5.7488412669e-001
 2.5708643211e+000	 3.6852127520e+000	-5.7443223009e-001
 2.5303384660e+000	 3.7131555261e+000	-5.6533421905e-001
 2.4895510478e+000	 3.7406246525e+000	-5.4911753951e-001
 2.4485102764e+000	 3.7676166557e+000	-5.2739426842e-001
 2.4072244175e+000	 3.7941282481e+000	-5.0186101045e-001
 2.3657017879e+000	 3.8201563303e+000	-4.7429672920e-001
 2.3239507497e+000	 3.8456979923e+000	-4.4655857485e-001
 2.2819797052e+000	 3.8707505140e+000	-4.2057578964e-001
 2.2397970917e+000	 3.8953113656e+000	-3.9834179025e-001
 2.1974113759e+000	 3.9193782076e+000	-3.8190454287e-001
 2.6266151467e+000	 3.6784998537e+000	-5.6783710506e-001
 2.5861201187e+000	 3.7070812182e+000	-5.6740113347e-001
 2.5453537786e+000	 3.7351898079e+000	-5.5844808390e-001
 2.5043243232e+000	 3.7628219391e+000	-5.4246145589e-001
 2.4630400112e+000	 3.7899741160e+000	-5.2101718978e-001
 2.4215091574e+000	 3.8166430311e+000	-4.9578350176e-001
 2.3797401279e+000	 3.8428255668e+000	-4.6851855038e-001
 2.3377413343e+000	 3.8685187960e+000	-4.4106600052e-001
 2.2955212290e+000	 3.8937199822e+000	-4.1534857006e-001
 2.2530882991e+000	 3.9184265806e+000	-3.9335966391e-001
 2.2104510617e+000	 3.9426362379e+000	-3.7715321673e-001
 2.6421098364e+000	 3.7001997262e+000	-5.6086472055e-001
 2.6013759238e+000	 3.7289496954e+000	-5.6016955222e-001
 2.5603690986e+000	 3.7572241007e+000	-5.5108060386e-001
 2.5190976061e+000	 3.7850192369e+000	-5.3504140442e-001
 2.4775697534e+000	 3.8123315874e+000	-5.1359699121e-001
 2.4357939045e+000	 3.8391578253e+000	-4.8839366346e-001
 2.3937784749e+000	 3.8654948147e+000	-4.6117645930e-001
 2.3515319259e+000	 3.8913396110e+000	-4.3378442539e-001
 2.3090627595e+000	 3.9166894618e+000	-4.0814376967e-001
 2.2663795131e+000	 3.9415418071e+000	-3.8625900673e-001
 2.2234907540e+000	 3.9658942799e+000	-3.7020222356e-001
 2.6576045378e+000	 3.7218996151e+000	-5.5404884252e-001
 2.6166317404e+000	 3.7508181889e+000	-5.5287298999e-001
 2.5753844299e+000	 3.7792584100e+000	-5.4343327944e-001
 2.5338709000e+000	 3.8072165513e+000	-5.2713742986e-001
 2.4920995064e+000	 3.8346890756e+000	-5.0550499889e-001
 2.4500786623e+000	 3.8616726365e+000	-4.8016703481e-001
 2.4078168325e+000	 3.8881640796e+000	-4.5286333808e-001
 2.3653225278e+000	 3.9141604432e+000	-4.2543740578e-001
 2.3226043002e+000	 3.9396589586e+000	-3.9982915402e-001
 2.2796707371e+000	 3.9646570510e+000	-3.7806553375e-001
 2.2365304562e+000	 3.9891523392e+000	-3.6224917381e-001
 2.6730992547e+000	 3.7435995256e+000	-5.4744020675e-001
 2.6318875722e+000	 3.7726867043e+000	-5.4559689576e-001
 2.5903997763e+000	 3.8012927413e+000	-5.3565515686e-001
 2.5486442086e+000	 3.8294138879e+000	-5.1897440403e-001
 2.5066292740e+000	 3.8570465861e+000	-4.9705433123e-001
 2.4643634344e+000	 3.8841874701e+000	-4.7151759962e-001
 2.4218552041e+000	 3.9108333672e+000	-4.4410685720e-001
 2.3791131435e+000	 3.9369812982e+000	-4.1667932625e-001
 2.3361458544e+000	 3.9626284784e+000	-3.9119905842e-001
 2.2929619745e+000	 3.9877723179e+000	-3.6972697886e-001
 2.2495701713e+000	 4.0124104219e+000	-3.5453446592e-001
 2.6885939909e+000	 3.7652994632e+000	-5.4112714596e-001
 2.6471434231e+000	 3.7945552471e+000	-5.3837844349e-001
 2.6054151414e+000	 3.8233271002e+000	-5.2784464283e-001
 2.5634175357e+000	 3.8516112522e+000	-5.1072388135e-001
 2.5211590597e+000	 3.8794041246e+000	-4.8850180088e-001
 2.4786482244e+000	 3.9067023319e+000	-4.6279974058e-001
 2.4358935932e+000	 3.9335026831e+000	-4.3537148785e-001
 2.3929037764e+000	 3.9598021817e+000	-4.0809747598e-001
 2.3496874256e+000	 3.9855980269e+000	-3.8297653411e-001
 2.3062532284e+000	 4.0108876138e+000	-3.6221339764e-001
 2.2626099028e+000	 4.0356685336e+000	-3.4828911121e-001
 2.7040887503e+000	 3.7869994334e+000	-5.3496220407e-001
 2.6623992969e+000	 3.8164238226e+000	-5.3120830261e-001
 2.6204305290e+000	 3.8453614922e+000	-5.2005130863e-001
 2.5781908850e+000	 3.8738086499e+000	-5.0250594198e-001
 2.5356888672e+000	 3.9017616966e+000	-4.8004980223e-001
 2.4929330358e+000	 3.9292172275e+000	-4.5431017670e-001
 2.4499320034e+000	 3.9561720330e+000	-4.2706049480e-001
 2.4066944300e+000	 3.9826230995e+000	-4.0021410258e-001
 2.3632290171e+000	 4.0085676099e+000	-3.7587733621e-001
 2.3195445022e+000	 4.0340029444e+000	-3.5660165746e-001
 2.2756496538e+000	 4.0589266802e+000	-3.4347499938e-001
 2.7195835369e+000	 3.8086994416e+000	-5.2872466243e-001
 2.6776551974e+000	 3.8382924365e+000	-5.2403274796e-001
 2.6354459429e+000	 3.8673959227e+000	-5.1227768416e-001
 2.5929642602e+000	 3.8960060863e+000	-4.9439102297e-001
 2.5502187002e+000	 3.9241193077e+000	-4.7184818499e-001
 2.5072178722e+000	 3.9517321625e+000	-4.4628988442e-001
 2.4639704382e+000	 3.9788414226e+000	-4.1951791041e-001
 2.4204851078e+000	 4.0054440571e+000	-3.9351391320e-001
 2.3767706323e+000	 4.0315372331e+000	-3.7084174648e-001
 2.3328357994e+000	 4.0571183154e+000	-3.5277424425e-001
 2.2886894276e+000	 4.0821848675e+000	-3.3993107261e-001
 2.7350783545e+000	 3.8303994932e+000	-5.2216523610e-001
 2.6929111284e+000	 3.8601610940e+000	-5.1670219781e-001
 2.6504613868e+000	 3.8894303972e+000	-5.0448104220e-001
 2.6077376649e+000	 3.9182035672e+000	-4.8640173797e-001
 2.5647485622e+000	 3.9464769636e+000	-4.6399611426e-001
 2.5215027371e+000	 3.9742471425e+000	-4.3892600312e-001
 2.4780089010e+000	 4.0015108575e+000	-4.1303248708e-001
 2.4342758131e+000	 4.0282650605e+000	-3.8878876741e-001
 2.3903122745e+000	 4.0545069021e+000	-3.6771813532e-001
 2.3461271231e+000	 4.0802337326e+000	-3.5045963149e-001
 2.3017292275e+000	 4.1054431013e+000	-3.3751442305e-001
 2.7505732069e+000	 3.8520995936e+000	-5.1500849274e-001
 2.7081670937e+000	 3.8820298008e+000	-5.0897913125e-001
 2.6654768645e+000	 3.9114649214e+000	-4.9657517337e-001
 2.6225111028e+000	 3.9404010980e+000	-4.7851468598e-001
 2.5792784569e+000	 3.9688346697e+000	-4.5654391780e-001
 2.5357876342e+000	 3.9967621731e+000	-4.3235372565e-001
 2.4920473954e+000	 4.0241803434e+000	-4.0819920846e-001
 2.4480665494e+000	 4.0510861151e+000	-3.8590819080e-001
 2.4038539472e+000	 4.0774766229e+000	-3.6613959428e-001
 2.3594184767e+000	 4.1033492018e+000	-3.4940815947e-001
 2.3147690567e+000	 4.1287013875e+000	-3.3610074575e-001
 2.1843716934e+000	 3.8961201831e+000	-3.8317343582e-001
 2.1420504062e+000	 3.9195475189e+000	-3.7030689173e-001
 2.0995441792e+000	 3.9424798459e+000	-3.5987756773e-001
 2.0568614843e+000	 3.9649154103e+000	-3.5424979005e-001
 2.0140108020e+000	 3.9868526470e+000	-3.5579064564e-001
 1.9710006163e+000	 4.0082901786e+000	-3.6004117351e-001
 1.9278394095e+000	 4.0292268150e+000	-3.4984520650e-001
 1.8845356576e+000	 4.0496615522e+000	-3.2891011680e-001
 1.8410978246e+000	 4.0695935713e+000	-3.0179167509e-001
 1.7975343583e+000	 4.0890222373e+000	-2.7247549810e-001
 1.7538536852e+000	 4.1079470979e+000	-2.4441552891e-001
 2.1974113759e+000	 3.9193782076e+000	-3.8190454287e-001
 2.1548374504e+000	 3.9429453937e+000	-3.6951077278e-001
 2.1120774810e+000	 3.9660146160e+000	-3.5946939746e-001
 2.0691399902e+000	 3.9885841103e+000	-3.5399081167e-001
 2.0260335093e+000	 4.0106523021e+000	-3.5540909353e-001
 1.9827665728e+000	 4.0322178058e+000	-3.6378632575e-001
 1.9393477137e+000	 4.0532794241e+000	-3.6033198235e-001
 1.8957854585e+000	 4.0738361472e+000	-3.4448587697e-001
 1.8520883219e+000	 4.0938871512e+000	-3.2057736758e-001
 1.8082648019e+000	 4.1134317973e+000	-2.9239049304e-001
 1.7643233755e+000	 4.1324696305e+000	-2.6320311234e-001
 2.2104510617e+000	 3.9426362379e+000	-3.7715321673e-001
 2.1676244977e+000	 3.9663432743e+000	-3.6515256213e-001
 2.1246107859e+000	 3.9895493920e+000	-3.5575759656e-001
 2.0814184992e+000	 4.0122528162e+000	-3.5120005996e-001
 2.0380562196e+000	 4.0344519631e+000	-3.5367534588e-001
 1.9945325322e+000	 4.0561454389e+000	-3.6373227205e-001
 1.9508560208e+000	 4.0773320393e+000	-3.6637378342e-001
 1.9070352623e+000	 4.0980107483e+000	-3.5537725291e-001
 1.8630788219e+000	 4.1181807371e+000	-3.3486810651e-001
 1.8189952483e+000	 4.1378413634e+000	-3.0844801241e-001
 1.7747930685e+000	 4.1569921692e+000	-2.7923467754e-001
 2.2234907540e+000	 3.9658942799e+000	-3.7020222356e-001
 2.1804115515e+000	 3.9897411667e+000	-3.5867980044e-001
 2.1371440970e+000	 4.0130841797e+000	-3.5045500689e-001
 2.0936970144e+000	 4.0359215339e+000	-3.4762637019e-001
 2.0500789359e+000	 4.0582516360e+000	-3.5085639858e-001
 2.0062984976e+000	 4.0800730841e+000	-3.6058204273e-001
 1.9623643336e+000	 4.1013846665e+000	-3.6836536915e-001
 1.9182850717e+000	 4.1221853614e+000	-3.6188597244e-001
 1.8740693274e+000	 4.1424743353e+000	-3.4482576419e-001
 1.8297257000e+000	 4.1622509417e+000	-3.2062291763e-001
 1.7852627668e+000	 4.1815147202e+000	-2.9225064131e-001
 2.2365304562e+000	 3.9891523392e+000	-3.6224917381e-001
 2.1931986148e+000	 4.0131390766e+000	-3.5159009833e-001
 2.1496774176e+000	 4.0366189852e+000	-3.4513255694e-001
 2.1059755387e+000	 4.0595902694e+000	-3.4347510384e-001
 2.0621016612e+000	 4.0820513268e+000	-3.4698693563e-001
 2.0180644717e+000	 4.1040007471e+000	-3.5595435357e-001
 1.9738726551e+000	 4.1254373117e+000	-3.6666813677e-001
 1.9295348895e+000	 4.1463599927e+000	-3.6428230764e-001
 1.8850598412e+000	 4.1667679516e+000	-3.5058366889e-001
 1.8404561597e+000	 4.1866605383e+000	-3.2886545869e-001
 1.7957324728e+000	 4.2060372896e+000	-3.0197177730e-001
 2.2495701713e+000	 4.0124104219e+000	-3.5453446592e-001
 2.2059856910e+000	 4.0365370098e+000	-3.4528334863e-001
 2.1622107507e+000	 4.0601538141e+000	-3.3992761674e-001
 2.1182540753e+000	 4.0832590286e+000	-3.3878863396e-001
 2.0741243986e+000	 4.1058510414e+000	-3.4210934122e-001
 2.0298304576e+000	 4.1279284341e+000	-3.5006031801e-001
 1.9853809880e+000	 4.1494899810e+000	-3.6161263269e-001
 1.9407847185e+000	 4.1705346482e+000	-3.6280746625e-001
 1.8960503660e+000	 4.1910615923e+000	-3.5224884490e-001
 1.8511866302e+000	 4.2110701594e+000	-3.3310333141e-001
 1.8062021894e+000	 4.2305598835e+000	-3.0810105913e-001
 2.2626099028e+000	 4.0356685336e+000	-3.4828911121e-001
 2.2187727831e+000	 4.0599349724e+000	-3.3981586134e-001
 2.1747440995e+000	 4.0836886725e+000	-3.3485041089e-001
 2.1305326273e+000	 4.1069278174e+000	-3.3361851342e-001
 2.0861471510e+000	 4.1296507858e+000	-3.3627453110e-001
 2.0415964583e+000	 4.1518561510e+000	-3.4290769223e-001
 1.9968893354e+000	 4.1735426804e+000	-3.5350102412e-001
 1.9520345617e+000	 4.1947093338e+000	-3.5767594580e-001
 1.9070409045e+000	 4.2153552633e+000	-3.4990421910e-001
 1.8619171141e+000	 4.2354798109e+000	-3.3324370620e-001
 1.8166719190e+000	 4.2550825081e+000	-3.1032548064e-001
 2.2756496538e+000	 4.0589266802e+000	-3.4347499938e-001
 2.2315598944e+000	 4.0833329700e+000	-3.3512904640e-001
 2.1872774670e+000	 4.1072235661e+000	-3.2992263553e-001
 2.1428111977e+000	 4.1305966416e+000	-3.2802624407e-001
 2.0981699214e+000	 4.1534505658e+000	-3.2954274395e-001
 2.0533624765e+000	 4.1757839038e+000	-3.3451383697e-001
 2.0083977000e+000	 4.1975954158e+000	-3.4292643967e-001
 1.9632844217e+000	 4.2188840558e+000	-3.4907785231e-001
 1.9180314595e+000	 4.2396489707e+000	-3.4361079554e-001
 1.8726476141e+000	 4.2598894991e+000	-3.2917522915e-001
 1.8271416644e+000	 4.2796051695e+000	-3.0831785415e-001
 2.2886894276e+000	 4.0821848675e+000	-3.3993107261e-001
 2.2443470280e+000	 4.1067310086e+000	-3.3117880235e-001
 2.1998108565e+000	 4.1307585010e+000	-3.2517814182e-001
 2.1550897896e+000	 4.1542655073e+000	-3.2208400801e-001
 2.1101927129e+000	 4.1772503875e+000	-3.2198429439e-001
 2.0651285154e+000	 4.1997116985e+000	-3.2490646579e-001
 2.0199060847e+000	 4.2216481933e+000	-3.3082409456e-001
 1.9745343013e+000	 4.2430588200e+000	-3.3718118465e-001
 1.9290220337e+000	 4.2639427207e+000	-3.3340979916e-001
 1.8833781329e+000	 4.2842992299e+000	-3.2076999676e-001
 1.8376114280e+000	 4.3041278737e+000	-3.0173858779e-001
 2.3017292275e+000	 4.1054431013e+000	-3.3751442305e-001
 2.2571341873e+000	 4.1301290939e+000	-3.2793609347e-001
 2.2123442711e+000	 4.1542934829e+000	-3.2066358430e-001
 2.1673684060e+000	 4.1779344203e+000	-3.1587536243e-001
 2.1222155284e+000	 4.2010502567e+000	-3.1368028914e-001
 2.0768945778e+000	 4.2236395410e+000	-3.1412435712e-001
 2.0314144925e+000	 4.2457010189e+000	-3.1719736597e-001
 1.9857842035e+000	 4.2672336326e+000	-3.2213408622e-001
 1.9400126299e+000	 4.2882365192e+000	-3.1932478998e-001
 1.8941086732e+000	 4.3087090096e+000	-3.0788550530e-001
 1.8480812126e+000	 4.3286506270e+000	-2.9023744246e-001
 2.3147690567e+000	 4.1287013875e+000	-3.3610074575e-001
 2.2699213753e+000	 4.1535272320e+000	-3.2538749533e-001
 2.2248777138e+000	 4.1778285178e+000	-3.1643903559e-001
 2.1796470501e+000	 4.2016033865e+000	-3.0949589945e-001
 2.1342383709e+000	 4.2248501796e+000	-3.0472330778e-001
 2.0886606667e+000	 4.2475674374e+000	-3.0221803120e-001
 2.0429229261e+000	 4.2697538987e+000	-3.0201519362e-001
 1.9970341310e+000	 4.2914084996e+000	-3.0406706504e-001
 1.9510032508e+000	 4.3125303724e+000	-3.0136374892e-001
 1.9048392375e+000	 4.3331188442e+000	-2.9036657585e-001
 1.8585510208e+000	 4.3531734355e+000	-2.7345526959e-001
 1.7538536852e+000	 4.1079470979e+000	-2.4441552891e-001
 1.7100576294e+000	 4.1263706075e+000	-2.1886876528e-001
 1.6661611104e+000	 4.1442897998e+000	-1.9539010518e-001
 1.6221724688e+000	 4.1617047635e+000	-1.7429197494e-001
 1.5781000051e+000	 4.1786157627e+000	-1.5564577517e-001
 1.5339519758e+000	 4.1950232353e+000	-1.3931225842e-001
 1.4897365888e+000	 4.2109277906e+000	-1.2496994337e-001
 1.4454619993e+000	 4.2263302067e+000	-1.1214159523e-001
 1.4011363057e+000	 4.2412314288e+000	-1.0021880964e-001
 1.3567675455e+000	 4.2556325659e+000	-8.8484744493e-002
 1.3123636919e+000	 4.2695348885e+000	-7.6059369473e-002
 1.7643233755e+000	 4.1324696305e+000	-2.6320311234e-001
 1.7202658777e+000	 4.1510031199e+000	-2.3494349500e-001
 1.6761073169e+000	 4.1690292815e+000	-2.0810124871e-001
 1.6318560836e+000	 4.1865482044e+000	-1.8321563707e-001
 1.5875205278e+000	 4.2035601544e+000	-1.6057091570e-001
 1.5431089553e+000	 4.2200655720e+000	-1.4022695943e-001
 1.4986296230e+000	 4.2360650700e+000	-1.2204789866e-001
 1.4540907348e+000	 4.2515594314e+000	-1.0572879817e-001
 1.4095004374e+000	 4.2665496069e+000	-9.0820420012e-002
 1.3648668164e+000	 4.2810367120e+000	-7.6752118591e-002
 1.3201978924e+000	 4.2950220250e+000	-6.2851985712e-002
 1.7747930685e+000	 4.1569921692e+000	-2.7923467754e-001
 1.7304741285e+000	 4.1756356384e+000	-2.4960348324e-001
 1.6860535259e+000	 4.1937687693e+000	-2.2071750854e-001
 1.6415397008e+000	 4.2113916514e+000	-1.9330374742e-001
 1.5969410529e+000	 4.2285045523e+000	-1.6782343949e-001
 1.5522659371e+000	 4.2451079149e+000	-1.4450293319e-001
 1.5075226595e+000	 4.2612023557e+000	-1.2336252449e-001
 1.4627194725e+000	 4.2767886624e+000	-1.0424330906e-001
 1.4178645713e+000	 4.2918677912e+000	-8.6832093483e-002
 1.3729660894e+000	 4.3064408645e+000	-7.0684418209e-002
 1.3280320950e+000	 4.3205091679e+000	-5.5249239040e-002
 1.7852627668e+000	 4.1815147202e+000	-2.9225064131e-001
 1.7406823845e+000	 4.2002681693e+000	-2.6234768339e-001
 1.6959997399e+000	 4.2185082695e+000	-2.3253040391e-001
 1.6512233228e+000	 4.2362351109e+000	-2.0367499168e-001
 1.6063615826e+000	 4.2534489626e+000	-1.7638433951e-001
 1.5614229235e+000	 4.2701502703e+000	-1.5101912856e-001
 1.5164157003e+000	 4.2863396540e+000	-1.2772684883e-001
 1.4713482145e+000	 4.3020179060e+000	-1.0646879842e-001
 1.4262287093e+000	 4.3171859883e+000	-8.7045111740e-002
 1.3810653663e+000	 4.3318450297e+000	-6.9117873976e-002
 1.3358663014e+000	 4.3459963236e+000	-5.2232384192e-002
 1.7957324728e+000	 4.2060372896e+000	-3.0197177730e-001
 1.7508906481e+000	 4.2249007186e+000	-2.7266047581e-001
 1.7059459613e+000	 4.2432477882e+000	-2.4282110454e-001
 1.6609069522e+000	 4.2610785891e+000	-2.1344107875e-001
 1.6157821194e+000	 4.2783933917e+000	-1.8523015038e-001
 1.5705799167e+000	 4.2951926445e+000	-1.5865169769e-001
 1.5253087479e+000	 4.3114769711e+000	-1.3395190591e-001
 1.4799769629e+000	 4.3272471685e+000	-1.1118688628e-001
 1.4345928536e+000	 4.3425042043e+000	-9.0247789102e-002
 1.3891646494e+000	 4.3572492139e+000	-7.0883972488e-002
 1.3437005137e+000	 4.3714834983e+000	-5.2724294394e-002
 1.8062021894e+000	 4.2305598835e+000	-3.0810105913e-001
 1.7610989219e+000	 4.2495332926e+000	-2.8001329245e-001
 1.7158921927e+000	 4.2679873317e+000	-2.5086186041e-001
 1.6705905912e+000	 4.2859220920e+000	-2.2170799968e-001
 1.6252026657e+000	 4.3033378457e+000	-1.9333406101e-001
 1.5797369191e+000	 4.3202350437e+000	-1.6627498717e-001
 1.5342018043e+000	 4.3366143134e+000	-1.4084763097e-001
 1.4886057200e+000	 4.3524764563e+000	-1.1717796602e-001
 1.4429570062e+000	 4.3678224456e+000	-9.5226251232e-002
 1.3972639405e+000	 4.3826534236e+000	-7.4810215929e-002
 1.3515347338e+000	 4.3969706986e+000	-5.5626338403e-002
 1.8166719190e+000	 4.2550825081e+000	-3.1032548064e-001
 1.7713072085e+000	 4.2741658974e+000	-2.8386622462e-001
 1.7258384365e+000	 4.2927269061e+000	-2.5591741989e-001
 1.6802742423e+000	 4.3107656260e+000	-2.2757727935e-001
 1.6346232237e+000	 4.3282823309e+000	-1.9966702332e-001
 1.5888939329e+000	 4.3452774742e+000	-1.7276252769e-001
 1.5430948719e+000	 4.3617516871e+000	-1.4722375531e-001
 1.4972344879e+000	 4.3777057756e+000	-1.2322202937e-001
 1.4513211693e+000	 4.3931407186e+000	-1.0076521500e-001
 1.4053632418e+000	 4.4080576650e+000	-7.9720881946e-002
 1.3593689638e+000	 4.4224579307e+000	-5.9837526429e-002
 1.8271416644e+000	 4.2796051695e+000	-3.0831785415e-001
 1.7815155104e+000	 4.2987985391e+000	-2.8366961458e-001
 1.7357846952e+000	 4.3174665176e+000	-2.5724643647e-001
 1.6899579079e+000	 4.3356091973e+000	-2.3014722077e-001
 1.6440437958e+000	 4.3532268535e+000	-2.0319885703e-001
 1.5980509605e+000	 4.3703199423e+000	-1.7698802244e-001
 1.5519879528e+000	 4.3868890985e+000	-1.5189070170e-001
 1.5058632687e+000	 4.4029351327e+000	-1.2809949256e-001
 1.4596853450e+000	 4.4184590296e+000	-1.0564876944e-001
 1.4134625552e+000	 4.4334619445e+000	-8.4437783777e-002
 1.3672032054e+000	 4.4479452010e+000	-6.4251785099e-002
 1.8376114280e+000	 4.3041278737e+000	-3.0173858779e-001
 1.7917238301e+000	 4.3234312239e+000	-2.7886563145e-001
 1.7457309714e+000	 4.3422061724e+000	-2.5410286475e-001
 1.6996415905e+000	 4.3604528121e+000	-2.2851414269e-001
 1.6534643845e+000	 4.3781714198e+000	-2.0289935076e-001
 1.6072080041e+000	 4.3953624543e+000	-1.7782633414e-001
 1.5608810493e+000	 4.4120265538e+000	-1.5366047994e-001
 1.5144920646e+000	 4.4281645340e+000	-1.3059202354e-001
 1.4680495353e+000	 4.4437773848e+000	-1.0866115784e-001
 1.4215618828e+000	 4.4588662684e+000	-8.7781030626e-002
 1.3750374608e+000	 4.4734325159e+000	-6.7758719880e-002
 1.8480812126e+000	 4.3286506270e+000	-2.9023744246e-001
 1.8019321703e+000	 4.3480639580e+000	-2.6888983233e-001
 1.7556772674e+000	 4.3669458767e+000	-2.4573734595e-001
 1.7093252924e+000	 4.3852964765e+000	-2.2177361053e-001
 1.6628849919e+000	 4.4031160359e+000	-1.9773935965e-001
 1.6163650660e+000	 4.4204050163e+000	-1.7415447087e-001
 1.5697741635e+000	 4.4371640595e+000	-1.5134758291e-001
 1.5231208778e+000	 4.4533939857e+000	-1.2948337026e-001
 1.4764137423e+000	 4.4690957907e+000	-1.0858756080e-001
 1.4296612266e+000	 4.4842706432e+000	-8.8569788278e-002
 1.3828717319e+000	 4.4989198818e+000	-6.9244376167e-002
 1.8585510208e+000	 4.3531734355e+000	-2.7345526959e-001
 1.8121405334e+000	 4.3726967475e+000	-2.5317270898e-001
 1.7656235858e+000	 4.3916856366e+000	-2.3139858351e-001
 1.7190090161e+000	 4.4101401969e+000	-2.0902166097e-001
 1.6723056206e+000	 4.4280607082e+000	-1.8669189954e-001
 1.6255221485e+000	 4.4454476346e+000	-1.6485257070e-001
 1.5786672978e+000	 4.4623016217e+000	-1.4376988276e-001
 1.5317497104e+000	 4.4786234942e+000	-1.2356019001e-001
 1.4847779682e+000	 4.4944142536e+000	-1.0421488033e-001
 1.4377605886e+000	 4.5096750751e+000	-8.5623039958e-002
 1.3907060206e+000	 4.5244073051e+000	-6.7591999081e-002
 1.3123636919e+000	 4.2695348885e+000	-7.6059369473e-002
 1.2679326486e+000	 4.2829398248e+000	-6.3170991958e-002
 1.2234822450e+000	 4.2958489548e+000	-5.1354565343e-002
 1.1790202345e+000	 4.3082640100e+000	-4.1016337168e-002
 1.1345542914e+000	 4.3201868724e+000	-3.2229863274e-002
 1.0900920081e+000	 4.3316195706e+000	-2.4797379349e-002
 1.0456408917e+000	 4.3425642768e+000	-1.8303968866e-002
 1.0012083610e+000	 4.3530233041e+000	-1.2165795121e-002
 9.5680174346e-001	 4.3629991026e+000	-5.6690952023e-003
 9.1242827262e-001	 4.3724942563e+000	 1.9905135906e-003
 8.6809508528e-001	 4.3815114796e+000	 1.1679126337e-002
 1.3201978924e+000	 4.2950220250e+000	-6.2851985712e-002
 1.2755016165e+000	 4.3085069826e+000	-4.9497166643e-002
 1.2307858647e+000	 4.3214931740e+000	-3.7845211153e-002
 1.1860584366e+000	 4.3339823414e+000	-2.8123634974e-002
 1.1413270525e+000	 4.3459763777e+000	-2.0255620987e-002
 1.0965993501e+000	 4.3574773238e+000	-1.3919897781e-002
 1.0518828813e+000	 4.3684873648e+000	-8.6033665146e-003
 1.0071851090e+000	 4.3790088277e+000	-3.6476362722e-003
 9.6251340464e-001	 4.3890441770e+000	 1.7130518536e-003
 9.1787504482e-001	 4.3985960123e+000	 8.3147025898e-003
 8.7327720898e-001	 4.4076670643e+000	 1.7035737305e-002
 1.3280320950e+000	 4.3205091679e+000	-5.5249239040e-002
 1.2830705863e+000	 4.3340741467e+000	-4.1045555421e-002
 1.2380894862e+000	 4.3471373997e+000	-2.9105061614e-002
 1.1930966405e+000	 4.3597006792e+000	-1.9497942956e-002
 1.1480998154e+000	 4.3717658895e+000	-1.2017017475e-002
 1.1031066938e+000	 4.3833350834e+000	-6.2359741234e-003
 1.0581248724e+000	 4.3944104593e+000	-1.5603214415e-003
 1.0131618585e+000	 4.4049943577e+000	 2.7283178114e-003
 9.6822506725e-001	 4.4150892579e+000	 7.4333422986e-003
 9.2332181839e-001	 4.4246977749e+000	 1.3412641464e-002
 8.7845933398e-001	 4.4338226555e+000	 2.1547581415e-002
 1.3358663014e+000	 4.3459963236e+000	-5.2232384192e-002
 1.2906395599e+000	 4.3596413237e+000	-3.6956354912e-002
 1.2453931114e+000	 4.3727816382e+000	-2.4417076028e-002
 1.2001348480e+000	 4.3854190299e+000	-1.4551093607e-002
 1.1548725817e+000	 4.3975554141e+000	-7.0416639711e-003
 1.1096140407e+000	 4.4091928560e+000	-1.3766730536e-003
 1.0643668666e+000	 4.4203335667e+000	 3.1022361143e-003
 1.0191386110e+000	 4.4309799007e+000	 7.1571876192e-003
 9.7393673271e-001	 4.4411343519e+000	 1.1617124867e-002
 9.2876859468e-001	 4.4507995505e+000	 1.7348550765e-002
 8.8364146158e-001	 4.4599782598e+000	 2.5226809522e-002
 1.3437005137e+000	 4.3714834983e+000	-5.2724294394e-002
 1.2982085391e+000	 4.3852085198e+000	-3.6328348657e-002
 1.2526967420e+000	 4.3984258959e+000	-2.3014770159e-002
 1.2071730607e+000	 4.4111373998e+000	-1.2638218205e-002
 1.1616453530e+000	 4.4233449581e+000	-4.7940288665e-003
 1.1161213925e+000	 4.4350506480e+000	 1.0956679293e-003
 1.0706088655e+000	 4.4462566936e+000	 5.7347910505e-003
 1.0251153680e+000	 4.4569654632e+000	 9.9127882987e-003
 9.7964840245e-001	 4.4671794653e+000	 1.4469704722e-002
 9.3421537506e-001	 4.4769013457e+000	 2.0268394803e-002
 8.8882359306e-001	 4.4861338837e+000	 2.8168074423e-002
 1.3515347338e+000	 4.3969706986e+000	-5.5626338403e-002
 1.3057775260e+000	 4.4107757415e+000	-3.8223268417e-002
 1.2600003799e+000	 4.4240701793e+000	-2.4086362270e-002
 1.2142112805e+000	 4.4368557955e+000	-1.3061669146e-002
 1.1684181311e+000	 4.4491345279e+000	-4.6791283321e-003
 1.1226287508e+000	 4.4609084658e+000	 1.6839871958e-003
 1.0768508707e+000	 4.4721798464e+000	 6.7580385992e-003
 1.0310921310e+000	 4.4829510517e+000	 1.1342599993e-002
 9.8536007791e-001	 4.4932246048e+000	 1.6273651683e-002
 9.3966216088e-001	 4.5030031670e+000	 2.2397455594e-002
 8.9400572972e-001	 4.5122895337e+000	 3.0546376194e-002
 1.3593689638e+000	 4.4224579307e+000	-5.9837526429e-002
 1.3133465222e+000	 4.4363429951e+000	-4.1670151816e-002
 1.2673040270e+000	 4.4497144947e+000	-2.6778913923e-002
 1.2212495090e+000	 4.4625742233e+000	-1.5074935906e-002
 1.1751909177e+000	 4.4749241299e+000	-6.0462098701e-003
 1.1291361172e+000	 4.4867663160e+000	 9.5305497681e-004
 1.0830928836e+000	 4.4981030316e+000	 6.6596865834e-003
 1.0370689014e+000	 4.5089366726e+000	 1.1865376081e-002
 9.9107176051e-001	 4.5192697769e+000	 1.7386113638e-002
 9.4510895351e-001	 4.5291050209e+000	 2.4037910337e-002
 8.9918787286e-001	 4.5384452165e+000	 3.2614908918e-002
 1.3672032054e+000	 4.4479452010e+000	-6.4251785099e-002
 1.3209155299e+000	 4.4619102871e+000	-4.5669696533e-002
 1.2746076850e+000	 4.4753588486e+000	-3.0202465776e-002
 1.2282877481e+000	 4.4882926896e+000	-1.7886554893e-002
 1.1819637144e+000	 4.5007137706e+000	-8.1924290999e-003
 1.1356434934e+000	 4.5126242049e+000	-4.7396365858e-004
 1.0893349060e+000	 4.5240262557e+000	 5.9912644357e-003
 1.0430456808e+000	 4.5349223326e+000	 1.1968204113e-002
 9.9678345167e-001	 4.5453149880e+000	 1.8236134899e-002
 9.5055575431e-001	 4.5552069140e+000	 2.5566412268e-002
 9.0437002377e-001	 4.5646009385e+000	 3.4702908754e-002
 1.3750374608e+000	 4.4734325159e+000	-6.7758719880e-002
 1.3284845508e+000	 4.4874776238e+000	-4.9198611198e-002
 1.2819113558e+000	 4.5010032474e+000	-3.3434168620e-002
 1.2353259996e+000	 4.5140112010e+000	-2.0664013465e-002
 1.1887365230e+000	 4.5265034564e+000	-1.0366520071e-002
 1.1421508810e+000	 4.5384821391e+000	-1.9189391368e-003
 1.0955769392e+000	 4.5499495252e+000	 5.3649386923e-003
 1.0490224707e+000	 4.5609080380e+000	 1.2203572564e-002
 1.0024951528e+000	 4.5713602447e+000	 1.9321979317e-002
 9.5600256464e-001	 4.5813088528e+000	 2.7431674744e-002
 9.0955218375e-001	 4.5907567062e+000	 3.7213503287e-002
 1.3828717319e+000	 4.4989198818e+000	-6.9244376167e-002
 1.3360535868e+000	 4.5130450117e+000	-5.1211540855e-002
 1.2892150412e+000	 4.5266476974e+000	-3.5522409852e-002
 1.2423642651e+000	 4.5397297639e+000	-2.2537648387e-002
 1.1955093451e+000	 4.5522931938e+000	-1.1772459382e-002
 1.1486582816e+000	 4.5643401250e+000	-2.6522013111e-003
 1.1018189849e+000	 4.5758728465e+000	 5.4503346887e-003
 1.0549992725e+000	 4.5868937954e+000	 1.3186443190e-002
 1.0082068654e+000	 4.5974055535e+000	 2.1208457948e-002
 9.6144938587e-001	 4.6074108437e+000	 3.0152058428e-002
 9.1473435410e-001	 4.6169125263e+000	 4.0621562105e-002
 1.3907060206e+000	 4.5244073051e+000	-6.7591999081e-002
 1.3436226398e+000	 4.5386124571e+000	-5.0629124322e-002
 1.2965187431e+000	 4.5522922052e+000	-3.5490935623e-002
 1.2494025464e+000	 4.5654483845e+000	-2.2604538948e-002
 1.2022821825e+000	 4.5780829893e+000	-1.1573124383e-002
 1.1551656968e+000	 4.5901981691e+000	-1.8959572642e-003
 1.1080610447e+000	 4.6017962261e+000	 6.9713641941e-003
 1.0609760877e+000	 4.6128796112e+000	 1.5591328719e-002
 1.0139185908e+000	 4.6234509209e+000	 2.4524358151e-002
 9.6689621935e-001	 4.6335128934e+000	 3.4313161441e-002
 9.1991653610e-001	 4.6430684052e+000	 4.5471548542e-002
 8.6809508528e-001	 4.3815114796e+000	 1.1679126337e-002
 8.2381585598e-001	 4.3900523689e+000	 2.3418967682e-002
 7.7959085635e-001	 4.3981212792e+000	 3.6711435899e-002
 7.3542690550e-001	 4.4057212979e+000	 5.1677909987e-002
 6.9133071679e-001	 4.4128556284e+000	 6.8444096950e-002
 6.4730889580e-001	 4.4195275870e+000	 8.6296471918e-002
 6.0336793844e-001	 4.4257405989e+000	 9.9252439316e-002
 5.5951422919e-001	 4.4314981950e+000	 1.0699151426e-001
 5.1575403944e-001	 4.4368040078e+000	 1.1069133050e-001
 4.7209352597e-001	 4.4416617678e+000	 1.1158640903e-001
 4.2853872961e-001	 4.4460753003e+000	 1.1091947621e-001
 8.7327720898e-001	 4.4076670643e+000	 1.7035737305e-002
 8.2873365329e-001	 4.4162589387e+000	 2.7985497610e-002
 7.8424465099e-001	 4.4243760167e+000	 4.0696824911e-002
 7.3981706190e-001	 4.4320214039e+000	 5.5195794100e-002
 6.9545763947e-001	 4.4391983230e+000	 7.1499114810e-002
 6.5117302869e-001	 4.4459101101e+000	 8.9074351253e-002
 6.0696976427e-001	 4.4521602109e+000	 1.0198717410e-001
 5.6285426878e-001	 4.4579521772e+000	 1.0950834353e-001
 5.1883285105e-001	 4.4632896631e+000	 1.1286449954e-001
 4.7491170464e-001	 4.4681764217e+000	 1.1329651523e-001
 4.3109690641e-001	 4.4726163009e+000	 1.1201724006e-001
 8.7845933398e-001	 4.4338226555e+000	 2.1547581415e-002
 8.3365145183e-001	 4.4424655151e+000	 3.2026560235e-002
 7.8889844680e-001	 4.4506307607e+000	 4.4419504354e-002
 7.4420721941e-001	 4.4583215165e+000	 5.8671729281e-002
 6.9958456318e-001	 4.4655410243e+000	 7.4707449450e-002
 6.5503716255e-001	 4.4722926399e+000	 9.2127951989e-002
 6.1057159100e-001	 4.4785798294e+000	 1.0525611116e-001
 5.6619430921e-001	 4.4844061659e+000	 1.1289770502e-001
 5.2191166344e-001	 4.4897753251e+000	 1.1631974565e-001
 4.7772988402e-001	 4.4946910823e+000	 1.1676292486e-001
 4.3365508385e-001	 4.4991573082e+000	 1.1540607723e-001
 8.8364146158e-001	 4.4599782598e+000	 2.5226809522e-002
 8.3856925284e-001	 4.4686721045e+000	 3.5509895739e-002
 7.9355224493e-001	 4.4768855178e+000	 4.7808910284e-002
 7.4859737911e-001	 4.4846216423e+000	 6.2002275416e-002
 7.0371148895e-001	 4.4918837387e+000	 7.7937601568e-002
 6.5890129835e-001	 4.4986751828e+000	 9.5296797017e-002
 6.1417341953e-001	 4.5049994612e+000	 1.0884559408e-001
 5.6953435130e-001	 4.5108601678e+000	 1.1688768638e-001
 5.2499047737e-001	 4.5162610003e+000	 1.2071932861e-001
 4.8054806480e-001	 4.5212057561e+000	 1.2157214162e-001
 4.3621326257e-001	 4.5256983287e+000	 1.2058460013e-001
 8.8882359306e-001	 4.4861338837e+000	 2.8168074423e-002
 8.4348705752e-001	 4.4948787136e+000	 3.8485469526e-002
 7.9820604656e-001	 4.5031402947e+000	 5.0875393873e-002
 7.5298754210e-001	 4.5109217877e+000	 6.5162549289e-002
 7.0783841783e-001	 4.5182264729e+000	 8.1133210293e-002
 6.6276543704e-001	 4.5250577455e+000	 9.8496993668e-002
 6.1777525075e-001	 4.5314191127e+000	 1.1261723970e-001
 5.7287439590e-001	 4.5373141896e+000	 1.2127881160e-001
 5.2806929361e-001	 4.5427466954e+000	 1.2579352233e-001
 4.8336624770e-001	 4.5477204498e+000	 1.2737262101e-001
 4.3877144321e-001	 4.5522393692e+000	 1.2710562062e-001
 8.9400572972e-001	 4.5122895337e+000	 3.0546376194e-002
 8.4840486713e-001	 4.5210853490e+000	 4.1083593598e-002
 8.0285985284e-001	 4.5293950978e+000	 5.3708622455e-002
 7.5737770949e-001	 4.5372219595e+000	 6.8204908398e-002
 7.1196535083e-001	 4.5445692334e+000	 8.4312022402e-002
 6.6662957959e-001	 4.5514403346e+000	 1.0171923340e-001
 6.2137708559e-001	 4.5578387907e+000	 1.1650637412e-001
 5.7621444384e-001	 4.5637682378e+000	 1.2594290796e-001
 5.3114811292e-001	 4.5692324169e+000	 1.3133990627e-001
 4.8618443341e-001	 4.5742351699e+000	 1.3387447871e-001
 4.4132962641e-001	 4.5787804362e+000	 1.3457626683e-001
 8.9918787286e-001	 4.5384452165e+000	 3.2614908918e-002
 8.5332268289e-001	 4.5472920170e+000	 4.3513046741e-002
 8.0751366493e-001	 4.5556499337e+000	 5.6475976373e-002
 7.6176788236e-001	 4.5635221642e+000	 7.1257627147e-002
 7.1609228898e-001	 4.5709120268e+000	 8.7564850048e-002
 6.7049372698e-001	 4.5778229567e+000	 1.0505212118e-001
 6.2497892492e-001	 4.5842585017e+000	 1.2052044845e-001
 5.7955449595e-001	 4.5902223192e+000	 1.3082194765e-001
 5.3422693609e-001	 4.5957181716e+000	 1.3722262597e-001
 4.8900262265e-001	 4.6007499233e+000	 1.4084916222e-001
 4.4388781281e-001	 4.6053215364e+000	 1.4265805713e-001
 9.0437002377e-001	 4.5646009385e+000	 3.4702908754e-002
 8.5824050602e-001	 4.5734987244e+000	 4.6059193585e-002
 8.1216748401e-001	 4.5819048089e+000	 5.9420941797e-002
 7.6615806182e-001	 4.5898224083e+000	 7.4523565715e-002
 7.2021923333e-001	 4.5972548598e+000	 9.1054517466e-002
 6.7435788016e-001	 4.6042056184e+000	 1.0864912766e-001
 6.2858076965e-001	 4.6106782524e+000	 1.2473743491e-001
 5.8289455307e-001	 4.6166764401e+000	 1.3592686487e-001
 5.3730576387e-001	 4.6222039660e+000	 1.4337162404e-001
 4.9182081611e-001	 4.6272647164e+000	 1.4812908730e-001
 4.4644600304e-001	 4.6318626763e+000	 1.5106693284e-001
 9.0955218375e-001	 4.5907567062e+000	 3.7213503287e-002
 8.6315833775e-001	 4.5997054777e+000	 4.9082102563e-002
 8.1682131123e-001	 4.6081597302e+000	 6.2861499685e-002
 7.7054824896e-001	 4.6161226984e+000	 7.8278831886e-002
 7.2434618490e-001	 4.6235977388e+000	 9.5014797101e-002
 6.7822204010e-001	 4.6305883262e+000	 1.1270064286e-001
 6.3218262069e-001	 4.6370980492e+000	 1.2930420417e-001
 5.8623461604e-001	 4.6431306074e+000	 1.4133634960e-001
 5.4038459704e-001	 4.6486898067e+000	 1.4978184257e-001
 4.9463901451e-001	 4.6537795559e+000	 1.5560724058e-001
 4.4900419775e-001	 4.6584038627e+000	 1.5957325143e-001
 9.1473435410e-001	 4.6169125263e+000	 4.0621562105e-002
 8.6807617933e-001	 4.6259122833e+000	 5.3014662821e-002
 8.2147514776e-001	 4.6344147039e+000	 6.7188511026e-002
 7.7493844487e-001	 4.6424230411e+000	 8.2871436150e-002
 7.2847314472e-001	 4.6499406706e+000	 9.9749335585e-002
 6.8208620777e-001	 4.6569710867e+000	 1.1746383091e-001
 6.3578447894e-001	 4.6635178989e+000	 1.3443488462e-001
 5.8957468569e-001	 4.6695848276e+000	 1.4714807222e-001
 5.4346343637e-001	 4.6751757004e+000	 1.5606723622e-001
 4.9745721854e-001	 4.6802944484e+000	 1.6201346184e-001
 4.5156239757e-001	 4.6849451022e+000	 1.6568750087e-001
 9.1991653610e-001	 4.6430684052e+000	 4.5471548542e-002
 8.7299403196e-001	 4.6521191480e+000	 5.8360700114e-002
 8.2612899476e-001	 4.6606697367e+000	 7.2864098520e-002
 7.7932865067e-001	 4.6687234430e+000	 8.8704487307e-002
 7.3260011383e-001	 4.6762836616e+000	 1.0524407921e-001
 6.8595038414e-001	 4.6833539067e+000	 1.2197076708e-001
 6.3938634528e-001	 4.6899378081e+000	 1.3764718481e-001
 5.9291476285e-001	 4.6960391073e+000	 1.4892285907e-001
 5.4654228262e-001	 4.7016616537e+000	 1.5637530355e-001
 5.0027542892e-001	 4.7068094006e+000	 1.6085516283e-001
 4.5412060315e-001	 4.7114864015e+000	 1.6305142858e-001
 4.2853872961e-001	 4.4460753003e+000	 1.1091947621e-001
 3.8508908055e-001	 4.4500490843e+000	 1.0987975964e-001
 3.4175700318e-001	 4.4535864303e+000	 1.0906977021e-001
 2.9854827303e-001	 4.4566914274e+000	 1.0883960051e-001
 2.5546854253e-001	 4.4593682450e+000	 1.0953247277e-001
 2.1252334018e-001	 4.4616211283e+000	 1.1146981838e-001
 1.6971806992e-001	 4.4634543955e+000	 1.1493976377e-001
 1.2705801053e-001	 4.4648724335e+000	 1.2018811497e-001
 8.4548315236e-002	 4.4658796945e+000	 1.2741104668e-001
 4.2194011339e-002	 4.4664806926e+000	 1.3674881185e-001
 0.0000000000e+000	 4.4666800000e+000	 1.4827989397e-001
 4.3109690641e-001	 4.4726163009e+000	 1.1201724006e-001
 3.8738788317e-001	 4.4766138066e+000	 1.1074737669e-001
 3.4379713346e-001	 4.4801722689e+000	 1.1061950072e-001
 3.0033046730e-001	 4.4832958014e+000	 1.1189731701e-001
 2.5699357085e-001	 4.4859885983e+000	 1.1480126200e-001
 2.1379200563e-001	 4.4882549303e+000	 1.1949877436e-001
 1.7073120782e-001	 4.4900991413e+000	 1.2609753262e-001
 1.2781648773e-001	 4.4915256443e+000	 1.3464073449e-001
 8.5053029335e-002	 4.4925389182e+000	 1.4510361170e-001
 4.2445889952e-002	 4.4931435039e+000	 1.5739048996e-001
 0.0000000000e+000	 4.4933440011e+000	 1.7133181472e-001
 4.3365508385e-001	 4.4991573082e+000	 1.1540607723e-001
 3.8968668636e-001	 4.5031785355e+000	 1.1433229619e-001
 3.4583726425e-001	 4.5067581141e+000	 1.1503929260e-001
 3.0211266201e-001	 4.5099001820e+000	 1.1771296329e-001
 2.5851859956e-001	 4.5126089583e+000	 1.2246531409e-001
 2.1506067140e-001	 4.5148887390e+000	 1.2932999238e-001
 1.7174434598e-001	 4.5167438937e+000	 1.3826031491e-001
 1.2857496512e-001	 4.5181788617e+000	 1.4912884797e-001
 8.5557743560e-002	 4.5191981485e+000	 1.6172772280e-001
 4.2697768628e-002	 4.5198063219e+000	 1.7576899027e-001
 0.0000000000e+000	 4.5200080089e+000	 1.9088443484e-001
 4.3621326257e-001	 4.5256983287e+000	 1.2058460013e-001
 3.9198549070e-001	 4.5297432778e+000	 1.2005219728e-001
 3.4787739605e-001	 4.5333439727e+000	 1.2169203569e-001
 3.0389485761e-001	 4.5365045760e+000	 1.2561889974e-001
 2.6004362902e-001	 4.5392293316e+000	 1.3184898566e-001
 2.1632933779e-001	 4.5415225610e+000	 1.4030077252e-001
 1.7275748464e-001	 4.5433886594e+000	 1.5079788280e-001
 1.2933344288e-001	 4.5448320925e+000	 1.6307297309e-001
 8.6062458036e-002	 4.5458573921e+000	 1.7677182727e-001
 4.2949647430e-002	 4.5464691533e+000	 1.9145695135e-001
 0.0000000000e+000	 4.5466720300e+000	 2.0661009088e-001
 4.3877144321e-001	 4.5522393692e+000	 1.2710562062e-001
 3.9428429676e-001	 4.5563080399e+000	 1.2736897622e-001
 3.4991752939e-001	 4.5599298511e+000	 1.2997209494e-001
 3.0567705455e-001	 4.5631089899e+000	 1.3496342963e-001
 2.6156865963e-001	 4.5658497249e+000	 1.4227422938e-001
 2.1759800514e-001	 4.5681564029e+000	 1.5172483090e-001
 1.7377062406e-001	 4.5700334451e+000	 1.6303239897e-001
 1.3009192122e-001	 4.5714853432e+000	 1.7581914060e-001
 8.6567172891e-002	 4.5725166558e+000	 1.8962015541e-001
 4.3201526421e-002	 4.5731320046e+000	 2.0389021758e-001
 0.0000000000e+000	 4.5733360711e+000	 2.1800891216e-001
 4.4132962641e-001	 4.5787804362e+000	 1.3457626683e-001
 3.9658310513e-001	 4.5828728286e+000	 1.3578927676e-001
 3.5195766477e-001	 4.5865157562e+000	 1.3930627256e-001
 3.0745925327e-001	 4.5897134304e+000	 1.4511221047e-001
 2.6309369176e-001	 4.5924701447e+000	 1.5306247102e-001
 2.1886667376e-001	 4.5947902715e+000	 1.6289465818e-001
 1.7478376449e-001	 4.5966782575e+000	 1.7424127135e-001
 1.3085040031e-001	 4.5981386206e+000	 1.8664225922e-001
 8.7071888250e-002	 4.5991759461e+000	 1.9955660905e-001
 4.3453405663e-002	 4.5997948826e+000	 2.1237226392e-001
 0.0000000000e+000	 4.6000001389e+000	 2.2441379352e-001
 4.4388781281e-001	 4.6053215364e+000	 1.4265805713e-001
 3.9888191636e-001	 4.6094376505e+000	 1.4486497046e-001
 3.5399780270e-001	 4.6131016945e+000	 1.4915471171e-001
 3.0924145422e-001	 4.6163179041e+000	 1.5544959717e-001
 2.6461872580e-001	 4.6190905979e+000	 1.6353640722e-001
 2.2013534396e-001	 4.6214241734e+000	 1.7308378631e-001
 1.7579690619e-001	 4.6233231032e+000	 1.8365990240e-001
 1.3160888035e-001	 4.6247919314e+000	 1.9474936025e-001
 8.7576604240e-002	 4.6258352697e+000	 2.0576851348e-001
 4.3705285220e-002	 4.6264577939e+000	 2.1607846644e-001
 0.0000000000e+000	 4.6266642400e+000	 2.2499519531e-001
 4.4644600304e-001	 4.6318626763e+000	 1.5106693284e-001
 4.0118073105e-001	 4.6360025122e+000	 1.5419358903e-001
 3.5603794368e-001	 4.6396876726e+000	 1.5901174413e-001
 3.1102365784e-001	 4.6429224177e+000	 1.6537991973e-001
 2.6614376212e-001	 4.6457110910e+000	 1.7302172724e-001
 2.2140401607e-001	 4.6480581152e+000	 1.8154896729e-001
 1.7681004941e-001	 4.6499679888e+000	 1.9048433725e-001
 1.3236736153e-001	 4.6514452821e+000	 1.9928272663e-001
 8.8081320987e-002	 4.6524946333e+000	 2.0735023826e-001
 4.3957165155e-002	 4.6531207452e+000	 2.1406022507e-001
 0.0000000000e+000	 4.6533283810e+000	 2.1876577749e-001
 4.4900419775e-001	 4.6584038627e+000	 1.5957325143e-001
 4.0347954975e-001	 4.6625674204e+000	 1.6341871067e-001
 3.5807808824e-001	 4.6662736973e+000	 1.6840668404e-001
 3.1280586458e-001	 4.6695269779e+000	 1.7426588675e-001
 2.6766880112e-001	 4.6723316306e+000	 1.8060441794e-001
 2.2267269039e-001	 4.6746921036e+000	 1.8706281683e-001
 1.7782319440e-001	 4.6766129211e+000	 1.9320794907e-001
 1.3312584404e-001	 4.6780986794e+000	 1.9854779077e-001
 8.8586038617e-002	 4.6791540436e+000	 2.0254644434e-001
 4.4209045530e-002	 4.6797837432e+000	 2.0463807719e-001
 0.0000000000e+000	 4.6799925688e+000	 2.0423988955e-001
 4.5156239757e-001	 4.6849451022e+000	 1.6568750087e-001
 4.0577837306e-001	 4.6891323818e+000	 1.6862297369e-001
 3.6011823688e-001	 4.6928597752e+000	 1.7194781490e-001
 3.1458807488e-001	 4.6961315913e+000	 1.7554880512e-001
 2.6919384316e-001	 4.6989522236e+000	 1.7920604131e-001
 2.2394136725e-001	 4.7013261453e+000	 1.8261137251e-001
 1.7883634142e-001	 4.7032579066e+000	 1.8538539760e-001
 1.3388432806e-001	 4.7047521301e+000	 1.8709316152e-001
 8.9090757256e-002	 4.7058135072e+000	 1.8725867773e-001
 4.4460926409e-002	 4.7064467945e+000	 1.8537839587e-001
 0.0000000000e+000	 4.7066568099e+000	 1.8093372449e-001
 4.5412060315e-001	 4.7114864015e+000	 1.6305142858e-001
 4.0807720153e-001	 4.7156974029e+000	 1.6430071588e-001
 3.6215839011e-001	 4.7194459128e+000	 1.6557655546e-001
 3.1637028919e-001	 4.7227362646e+000	 1.6683152377e-001
 2.7071888863e-001	 4.7255728763e+000	 1.6791922885e-001
 2.2521004697e-001	 4.7279602469e+000	 1.6861207028e-001
 1.7984949071e-001	 4.7299029521e+000	 1.6861757081e-001
 1.3464281379e-001	 4.7314056407e+000	 1.6759342153e-001
 8.9595477031e-002	 4.7324730307e+000	 1.6516137314e-001
 4.4712807855e-002	 4.7331099057e+000	 1.6092009638e-001
 0.0000000000e+000	 4.7333211109e+000	 1.5445712542e-001
 4.7333211109e+000	 0.0000000000e+000	 4.9927169801e-001
 4.7331099057e+000	 4.4712807855e-002	 4.9612592827e-001
 4.7324730307e+000	 8.9595477031e-002	 4.9388030443e-001
 4.7314056407e+000	 1.3464281379e-001	 4.9225655515e-001
 4.7299029521e+000	 1.7984949071e-001	 4.9093214237e-001
 4.7279602469e+000	 2.2521004697e-001	 4.8955485441e-001
 4.7255728763e+000	 2.7071888863e-001	 4.8775824144e-001
 4.7227362646e+000	 3.1637028919e-001	 4.8517801754e-001
 4.7194459128e+000	 3.6215839011e-001	 4.8146956381e-001
 4.7156974029e+000	 4.0807720153e-001	 4.7632667675e-001
 4.7114864015e+000	 4.5412060315e-001	 4.6950171519e-001
 4.7599894698e+000	 0.0000000000e+000	 5.0939722073e-001
 4.7597770747e+000	 4.4964727633e-002	 5.0745926990e-001
 4.7591366114e+000	 9.0100273615e-002	 5.0585097663e-001
 4.7580632075e+000	 1.3540141494e-001	 5.0436926242e-001
 4.7565520525e+000	 1.8086279419e-001	 5.0276817227e-001
 4.7545984018e+000	 2.2647891975e-001	 5.0077289496e-001
 4.7521975803e+000	 2.7224416619e-001	 4.9809459102e-001
 4.7493449866e+000	 3.1815277473e-001	 4.9444615761e-001
 4.7460360964e+000	 3.6419885381e-001	 4.8955907072e-001
 4.7422664668e+000	 4.1037637985e-001	 4.8320145527e-001
 4.7380317398e+000	 4.5667919805e-001	 4.7519754338e-001
 4.7866578487e+000	 0.0000000000e+000	 5.1388755070e-001
 4.7864442636e+000	 4.5216647599e-002	 5.1339939454e-001
 4.7858002120e+000	 9.0605070578e-002	 5.1269080393e-001
 4.7847207943e+000	 1.3616001667e-001	 5.1163329132e-001
 4.7832011729e+000	 1.8187609843e-001	 5.1005718003e-001
 4.7812365766e+000	 2.2774779349e-001	 5.0776502417e-001
 4.7788223043e+000	 2.7376944490e-001	 5.0454579902e-001
 4.7759537286e+000	 3.1993526160e-001	 5.0018999668e-001
 4.7726263000e+000	 3.6623931904e-001	 4.9450577325e-001
 4.7688355505e+000	 4.1267555989e-001	 4.8733630450e-001
 4.7645770980e+000	 4.5923779486e-001	 4.7857851793e-001
 4.8133262010e+000	 0.0000000000e+000	 5.1328840000e-001
 4.8131114259e+000	 4.5468567315e-002	 5.1440016382e-001
 4.8124637861e+000	 9.1109867036e-002	 5.1476329061e-001
 4.8113783544e+000	 1.3691861764e-001	 5.1432351360e-001
 4.8098502666e+000	 1.8288940166e-001	 5.1298736752e-001
 4.8078747248e+000	 2.2901666596e-001	 5.1063497929e-001
 4.8054470016e+000	 2.7529472208e-001	 5.0713358969e-001
 4.8025624440e+000	 3.2171774669e-001	 5.0235194642e-001
 4.7992164769e+000	 3.6827978224e-001	 4.9617572059e-001
 4.7954046077e+000	 4.1497473763e-001	 4.8852411081e-001
 4.7911224297e+000	 4.6179638912e-001	 4.7936780980e-001
 4.8399944799e+000	 0.0000000000e+000	 5.0813324955e-001
 4.8397785148e+000	 4.5720486337e-002	 5.1090534872e-001
 4.8391272868e+000	 9.1614662108e-002	 5.1242389725e-001
 4.8380358413e+000	 1.3767721652e-001	 5.1270871565e-001
 4.8364992871e+000	 1.8390270211e-001	 5.1174272596e-001
 4.8345127998e+000	 2.3028553495e-001	 5.0948408328e-001
 4.8320716258e+000	 2.7681999506e-001	 5.0587899644e-001
 4.8291710862e+000	 3.2350022688e-001	 5.0087538362e-001
 4.8258065808e+000	 3.7032023982e-001	 4.9443752146e-001
 4.8219735919e+000	 4.1727390906e-001	 4.8656185865e-001
 4.8176676884e+000	 4.6435497634e-001	 4.7729417663e-001
 4.8666626388e+000	 0.0000000000e+000	 4.9894368090e-001
 4.8664454838e+000	 4.5972404228e-002	 5.0334890504e-001
 4.8657906675e+000	 9.2119454909e-002	 5.0602026163e-001
 4.8646932082e+000	 1.3843581199e-001	 5.0705176642e-001
 4.8631481876e+000	 1.8491599799e-001	 5.0650315260e-001
 4.8611507549e+000	 2.3155439822e-001	 5.0441131207e-001
 4.8586961301e+000	 2.7834526119e-001	 5.0080238146e-001
 4.8557796087e+000	 3.2528269905e-001	 4.9570462430e-001
 4.8523965650e+000	 3.7236068822e-001	 4.8916227455e-001
 4.8485424565e+000	 4.1957307013e-001	 4.8125051945e-001
 4.8442128277e+000	 4.6691355205e-001	 4.7209181227e-001
 4.8933306310e+000	 0.0000000000e+000	 4.8622969719e-001
 4.8931122861e+000	 4.6224320544e-002	 4.9215524000e-001
 4.8924538816e+000	 9.2624244557e-002	 4.9589241237e-001
 4.8913504085e+000	 1.3919440273e-001	 4.9760977977e-001
 4.8897969216e+000	 1.8592928754e-001	 4.9744456350e-001
 4.8877885435e+000	 2.3282325357e-001	 4.9551335947e-001
 4.8853204680e+000	 2.7987051778e-001	 4.9192345462e-001
 4.8823879649e+000	 3.2706516008e-001	 4.8678489841e-001
 4.8789863830e+000	 3.7440112388e-001	 4.8022350105e-001
 4.8751111550e+000	 4.2187221684e-001	 4.7239494398e-001
 4.8707578010e+000	 4.6947211177e-001	 4.6350020104e-001
 4.9199984100e+000	 0.0000000000e+000	 4.7049003381e-001
 4.9197788751e+000	 4.6476234846e-002	 4.7773947018e-001
 4.9191168823e+000	 9.3129030168e-002	 4.8237297575e-001
 4.9180073955e+000	 1.3995298739e-001	 4.8463427166e-001
 4.9164454424e+000	 1.8694256899e-001	 4.8473900268e-001
 4.9144261190e+000	 2.3409209877e-001	 4.8288469996e-001
 4.9119445930e+000	 2.8139576218e-001	 4.7926129172e-001
 4.9089961082e+000	 3.2884760685e-001	 4.7406232534e-001
 4.9055759883e+000	 3.7644154321e-001	 4.6749707931e-001
 4.9016796411e+000	 4.2417134516e-001	 4.5980375807e-001
 4.8973025621e+000	 4.7203065102e-001	 4.5126397661e-001
 4.9466659289e+000	 0.0000000000e+000	 4.5221245912e-001
 4.9464452040e+000	 4.6728146693e-002	 4.6050767125e-001
 4.9457796232e+000	 9.3633810859e-002	 4.6578737579e-001
 4.9446641227e+000	 1.4071156466e-001	 4.6837131215e-001
 4.9430937035e+000	 1.8795584057e-001	 4.6855474763e-001
 4.9410634348e+000	 2.3536093160e-001	 4.6661764939e-001
 4.9385684584e+000	 2.8292099170e-001	 4.6283435202e-001
 4.9356039921e+000	 3.3063003625e-001	 4.5748389009e-001
 4.9321653344e+000	 3.7848194265e-001	 4.5086118142e-001
 4.9282478681e+000	 4.2647045107e-001	 4.4328926158e-001
 4.9238470643e+000	 4.7458916533e-001	 4.3513278527e-001
 4.9733331411e+000	 0.0000000000e+000	 4.3187406556e-001
 4.9731112264e+000	 4.6980055644e-002	 4.4085711966e-001
 4.9724420574e+000	 9.4138585748e-002	 4.4645402798e-001
 4.9713205433e+000	 1.4147013321e-001	 4.4906167262e-001
 4.9697416580e+000	 1.8896910049e-001	 4.4905641149e-001
 4.9677004443e+000	 2.3662974984e-001	 4.4680242370e-001
 4.9651920176e+000	 2.8444620369e-001	 4.4266049511e-001
 4.9622115701e+000	 3.3241244516e-001	 4.3699742002e-001
 4.9587543747e+000	 3.8052231863e-001	 4.3019621171e-001
 4.9548157895e+000	 4.2876953053e-001	 4.2266733046e-001
 4.9503912612e+000	 4.7714765022e-001	 4.1486115339e-001
 5.0000000000e+000	 0.0000000000e+000	 4.0994155150e-001
 4.9997768954e+000	 4.7231961259e-002	 4.1917652668e-001
 4.9991041383e+000	 9.4643353951e-002	 4.2468452686e-001
 4.9979766107e+000	 1.4222869172e-001	 4.2694096819e-001
 4.9963892595e+000	 1.8998234699e-001	 4.2640504186e-001
 4.9943371009e+000	 2.3789855127e-001	 4.2352719561e-001
 4.9918152240e+000	 2.8597139548e-001	 4.1875699720e-001
 4.9888187954e+000	 3.3419483045e-001	 4.1255156235e-001
 4.9853430627e+000	 3.8256266757e-001	 4.0538474713e-001
 4.9813833590e+000	 4.3106857954e-001	 3.9775732178e-001
 4.9769351065e+000	 4.7970610120e-001	 3.9020835911e-001
 4.7114864015e+000	 4.5412060315e-001	 4.6950171519e-001
 4.7068094006e+000	 5.0027542892e-001	 4.6116703133e-001
 4.7016616537e+000	 5.4654228262e-001	 4.5198348606e-001
 4.6960391073e+000	 5.9291476285e-001	 4.4259546100e-001
 4.6899378081e+000	 6.3938634528e-001	 4.3380077224e-001
 4.6833539067e+000	 6.8595038414e-001	 4.2644523647e-001
 4.6762836616e+000	 7.3260011383e-001	 4.1992345622e-001
 4.6687234430e+000	 7.7932865067e-001	 4.1349564097e-001
 4.6606697367e+000	 8.2612899476e-001	 4.0646879859e-001
 4.6521191480e+000	 8.7299403196e-001	 3.9800354909e-001
 4.6430684052e+000	 9.1991653610e-001	 3.8763476284e-001
 4.7380317398e+000	 4.5667919805e-001	 4.7519754338e-001
 4.7333283879e+000	 5.0309406817e-001	 4.6571100498e-001
 4.7281516376e+000	 5.4962159742e-001	 4.5533517919e-001
 4.7224974129e+000	 5.9625534832e-001	 4.4469258045e-001
 4.7163617379e+000	 6.4298875977e-001	 4.3455375359e-001
 4.7097407416e+000	 6.8981514856e-001	 4.2568529749e-001
 4.7026306615e+000	 7.3672771099e-001	 4.1748017232e-001
 4.6950278473e+000	 7.8371952458e-001	 4.0934266917e-001
 4.6869287650e+000	 8.3078354999e-001	 4.0080919805e-001
 4.6783300008e+000	 8.7791263301e-001	 3.9142350118e-001
 4.6692282646e+000	 9.2509950674e-001	 3.8073100406e-001
 4.7645770980e+000	 4.5923779486e-001	 4.7857851793e-001
 4.7598473950e+000	 5.0591270954e-001	 4.6839143725e-001
 4.7546416415e+000	 5.5270091453e-001	 4.5729637542e-001
 4.7489557383e+000	 5.9959593629e-001	 4.4588184763e-001
 4.7427856875e+000	 6.4659117696e-001	 4.3487898248e-001
 4.7361275963e+000	 6.9367991589e-001	 4.2496162671e-001
 4.7289776812e+000	 7.4085531125e-001	 4.1553696741e-001
 4.7213322714e+000	 7.8811040178e-001	 4.0612986887e-001
 4.7131878131e+000	 8.3543810871e-001	 3.9635727474e-001
 4.7045408733e+000	 8.8283123775e-001	 3.8584206845e-001
 4.6953881436e+000	 9.3028248127e-001	 3.7420744996e-001
 4.7911224297e+000	 4.6179638912e-001	 4.7936780980e-001
 4.7863663757e+000	 5.0873134809e-001	 4.6886686561e-001
 4.7811316189e+000	 5.5578022856e-001	 4.5746782152e-001
 4.7754140372e+000	 6.0293652092e-001	 4.4571352199e-001
 4.7692096106e+000	 6.5019359054e-001	 4.3428398706e-001
 4.7625144247e+000	 6.9754467935e-001	 4.2374924981e-001
 4.7553246745e+000	 7.4498290738e-001	 4.1354304881e-001
 4.7476366691e+000	 7.9250127459e-001	 4.0328826458e-001
 4.7394468349e+000	 8.4009266278e-001	 3.9266890943e-001
 4.7307517196e+000	 8.8774983756e-001	 3.8137393315e-001
 4.7215479964e+000	 9.3546545062e-001	 3.6909166757e-001
 4.8176676884e+000	 4.6435497634e-001	 4.7729417663e-001
 4.8128852834e+000	 5.1154997889e-001	 4.6680282828e-001
 4.8076215234e+000	 5.5885953413e-001	 4.5545857678e-001
 4.8018722634e+000	 6.0627709636e-001	 4.4374738581e-001
 4.7956334612e+000	 6.5379599422e-001	 4.3228692816e-001
 4.7889011804e+000	 7.0140943218e-001	 4.2153472431e-001
 4.7816715954e+000	 7.4911049215e-001	 4.1095980880e-001
 4.7739409946e+000	 7.9689213533e-001	 4.0026154356e-001
 4.7657057845e+000	 8.4474720405e-001	 3.8917768124e-001
 4.7569624938e+000	 8.9266842386e-001	 3.7745029887e-001
 4.7477077773e+000	 9.4064840571e-001	 3.6482035281e-001
 4.8442128277e+000	 4.6691355205e-001	 4.7209181227e-001
 4.8394040719e+000	 5.1436859701e-001	 4.6187167733e-001
 4.8341113087e+000	 5.6193882583e-001	 4.5088579381e-001
 4.8283303706e+000	 6.0961765677e-001	 4.3955249707e-001
 4.8220571928e+000	 6.5739838170e-001	 4.2841632852e-001
 4.8152878175e+000	 7.0527416762e-001	 4.1781582538e-001
 4.8080183978e+000	 7.5323805836e-001	 4.0726048945e-001
 4.8002452017e+000	 8.0128297631e-001	 3.9650570356e-001
 4.7919646159e+000	 8.4940172438e-001	 3.8532976233e-001
 4.7831731501e+000	 8.9758698802e-001	 3.7351506026e-001
 4.7738674405e+000	 9.4583133749e-001	 3.6084279979e-001
 4.8707578010e+000	 4.6947211177e-001	 4.6350020104e-001
 4.8659226945e+000	 5.1718719751e-001	 4.5375239789e-001
 4.8606009285e+000	 5.6501809830e-001	 4.4337450653e-001
 4.8547883124e+000	 6.1295819631e-001	 4.3270695020e-001
 4.8484807593e+000	 6.6100074665e-001	 4.2221081073e-001
 4.8416742897e+000	 7.0913887891e-001	 4.1210124121e-001
 4.8343650355e+000	 7.5736559877e-001	 4.0192985740e-001
 4.8265492444e+000	 8.0567378985e-001	 3.9148871084e-001
 4.8182232832e+000	 8.5405621561e-001	 3.8058356318e-001
 4.8093836426e+000	 9.0250552144e-001	 3.6902443948e-001
 4.8000269402e+000	 9.5101423687e-001	 3.5662053252e-001
 4.8973025621e+000	 4.7203065102e-001	 4.5126397661e-001
 4.8924411051e+000	 5.2000577547e-001	 4.4213043297e-001
 4.8870903364e+000	 5.6809734613e-001	 4.3255742476e-001
 4.8812460426e+000	 6.1629870912e-001	 4.2279764455e-001
 4.8749041144e+000	 6.6460308279e-001	 4.1321884368e-001
 4.8680605507e+000	 7.1300355928e-001	 4.0391027743e-001
 4.8607114624e+000	 7.6149310617e-001	 3.9446388838e-001
 4.8528530766e+000	 8.1006456827e-001	 3.8469016838e-001
 4.8444817405e+000	 8.5871066962e-001	 3.7440938817e-001
 4.8355939254e+000	 9.0742401552e-001	 3.6344663309e-001
 4.8261862307e+000	 9.5619709479e-001	 3.5162694714e-001
 4.9238470643e+000	 4.7458916533e-001	 4.3513278527e-001
 4.9189592571e+000	 5.2282432595e-001	 4.2669751383e-001
 4.9135794860e+000	 5.7117656394e-001	 4.1807473545e-001
 4.9077035148e+000	 6.1963918937e-001	 4.0942006028e-001
 4.9013272119e+000	 6.6820538381e-001	 4.0099821721e-001
 4.8944465545e+000	 7.1686820198e-001	 3.9277257040e-001
 4.8870576325e+000	 7.6562057332e-001	 3.8436946099e-001
 4.8791566525e+000	 8.1445530387e-001	 3.7560099375e-001
 4.8707399418e+000	 8.6336507824e-001	 3.6628910112e-001
 4.8618039526e+000	 9.1234246164e-001	 3.5626146899e-001
 4.8523452661e+000	 9.6137990218e-001	 3.4534696398e-001
 4.9503912612e+000	 4.7714765022e-001	 4.1486115339e-001
 4.9454771042e+000	 5.2564284401e-001	 4.0715149570e-001
 4.9400683310e+000	 5.7425574634e-001	 3.9957391008e-001
 4.9341606827e+000	 6.2297963120e-001	 3.9217804125e-001
 4.9277500055e+000	 6.7180764341e-001	 3.8511431898e-001
 4.9208322549e+000	 7.2073280023e-001	 3.7822780885e-001
 4.9134034996e+000	 7.6974799300e-001	 3.7116405943e-001
 4.9054599258e+000	 8.1884598899e-001	 3.6372310621e-001
 4.8969978411e+000	 8.6801943334e-001	 3.5571580040e-001
 4.8880136785e+000	 9.1726085120e-001	 3.4696007301e-001
 4.8785040006e+000	 9.6656264996e-001	 3.3727668948e-001
 4.9769351065e+000	 4.7970610120e-001	 3.9020835911e-001
 4.9719945999e+000	 5.2846132473e-001	 3.8319619854e-001
 4.9665568250e+000	 5.7733488795e-001	 3.7670951816e-001
 4.9606175001e+000	 6.2632002876e-001	 3.7068358483e-001
 4.9541724491e+000	 6.7540985527e-001	 3.6514408128e-001
 4.9472176057e+000	 7.2459734727e-001	 3.5982546378e-001
 4.9397490176e+000	 7.7387535800e-001	 3.5437548486e-001
 4.9317628506e+000	 8.2323661592e-001	 3.4856912291e-001
 4.9232553924e+000	 8.7267372677e-001	 3.4219350321e-001
 4.9142230571e+000	 9.2217917559e-001	 3.3504454484e-001
 4.9046623886e+000	 9.7174532908e-001	 3.2692308722e-001
 4.6430684052e+000	 9.1991653610e-001	 3.8763476284e-001
 4.6335128934e+000	 9.6689621935e-001	 3.7521026258e-001
 4.6234509209e+000	 1.0139185908e+000	 3.6112110488e-001
 4.6128796112e+000	 1.0609760877e+000	 3.4571723994e-001
 4.6017962261e+000	 1.1080610447e+000	 3.2932399126e-001
 4.5901981691e+000	 1.1551656968e+000	 3.1222904081e-001
 4.5780829893e+000	 1.2022821825e+000	 2.9467011617e-001
 4.5654483845e+000	 1.2494025464e+000	 2.7682165035e-001
 4.5522922052e+000	 1.2965187431e+000	 2.5878062171e-001
 4.5386124571e+000	 1.3436226398e+000	 2.4053987891e-001
 4.5244073051e+000	 1.3907060206e+000	 2.2183732141e-001
 4.6692282646e+000	 9.2509950674e-001	 3.8073100406e-001
 4.6596189153e+000	 9.7234388174e-001	 3.6840286501e-001
 4.6495002519e+000	 1.0196311855e+000	 3.5443412042e-001
 4.6388693816e+000	 1.0669538126e+000	 3.3914972339e-001
 4.6277235508e+000	 1.1143040544e+000	 3.2286606179e-001
 4.6160601483e+000	 1.1616741024e+000	 3.0585971381e-001
 4.6038767094e+000	 1.2090560505e+000	 2.8835533090e-001
 4.5911709191e+000	 1.2564418989e+000	 2.7051258718e-001
 4.5779406155e+000	 1.3038235564e+000	 2.5241237106e-001
 4.5641837933e+000	 1.3511928448e+000	 2.3401532377e-001
 4.5498986071e+000	 1.3985415015e+000	 2.1512174156e-001
 4.6953881436e+000	 9.3028248127e-001	 3.7420744996e-001
 4.6857249569e+000	 9.7779154822e-001	 3.6129082480e-001
 4.6755496025e+000	 1.0253437844e+000	 3.4733406062e-001
 4.6648591716e+000	 1.0729315419e+000	 3.3253732170e-001
 4.6536508949e+000	 1.1205470688e+000	 3.1681197508e-001
 4.6419221469e+000	 1.1681825128e+000	 3.0025125211e-001
 4.6296704489e+000	 1.2158299237e+000	 2.8307100147e-001
 4.6168934730e+000	 1.2634812566e+000	 2.6542076003e-001
 4.6035890452e+000	 1.3111283752e+000	 2.4737033533e-001
 4.5897551488e+000	 1.3587630554e+000	 2.2885749096e-001
 4.5753899282e+000	 1.4063769883e+000	 2.0977921316e-001
 4.7215479964e+000	 9.3546545062e-001	 3.6909166757e-001
 4.7118309723e+000	 9.8323920925e-001	 3.5568905131e-001
 4.7015989270e+000	 1.0310563777e+000	 3.4138173116e-001
 4.6908489355e+000	 1.0789092652e+000	 3.2635597608e-001
 4.6795782131e+000	 1.1267900770e+000	 3.1077178753e-001
 4.6677841197e+000	 1.1746909167e+000	 2.9475260263e-001
 4.6554641627e+000	 1.2226037901e+000	 2.7820671861e-001
 4.6426160012e+000	 1.2705206073e+000	 2.6099064838e-001
 4.6292374491e+000	 1.3184331867e+000	 2.4316598998e-001
 4.6153264787e+000	 1.3663332584e+000	 2.2466408863e-001
 4.6008812238e+000	 1.4142124673e+000	 2.0549314713e-001
 4.7477077773e+000	 9.4064840571e-001	 3.6482035281e-001
 4.7379369159e+000	 9.8868685530e-001	 3.5117522612e-001
 4.7276481799e+000	 1.0367689552e+000	 3.3670422073e-001
 4.7168386280e+000	 1.0848869721e+000	 3.2157503641e-001
 4.7055054601e+000	 1.1330330679e+000	 3.0592833340e-001
 4.6936460213e+000	 1.1811993028e+000	 2.8986762371e-001
 4.6812578055e+000	 1.2293776378e+000	 2.7344919713e-001
 4.6683384586e+000	 1.2775599386e+000	 2.5667094845e-001
 4.6548857826e+000	 1.3257379781e+000	 2.3931258559e-001
 4.6408977383e+000	 1.3739034406e+000	 2.2103337518e-001
 4.6263724493e+000	 1.4220479247e+000	 2.0194587574e-001
 4.7738674405e+000	 9.4583133749e-001	 3.6084279979e-001
 4.7640427421e+000	 9.9413447684e-001	 3.4721229878e-001
 4.7536973156e+000	 1.0424815070e+000	 3.3278682857e-001
 4.7428282035e+000	 1.0908646521e+000	 3.1771742460e-001
 4.7314325903e+000	 1.1392760308e+000	 3.0212810532e-001
 4.7195078066e+000	 1.1877076595e+000	 2.8610596647e-001
 4.7070513322e+000	 1.2361514551e+000	 2.6969118990e-001
 4.6940608004e+000	 1.2845992382e+000	 2.5286594095e-001
 4.6805340007e+000	 1.3330427367e+000	 2.3554228426e-001
 4.6664688829e+000	 1.3814735888e+000	 2.1756431123e-001
 4.6518635601e+000	 1.4298833469e+000	 1.9881887565e-001
 4.8000269402e+000	 9.5101423687e-001	 3.5662053252e-001
 4.7901484051e+000	 9.9958206434e-001	 3.4327514860e-001
 4.7797462885e+000	 1.0481940231e+000	 3.2912626854e-001
 4.7688176166e+000	 1.0968422947e+000	 3.1431008806e-001
 4.7573595586e+000	 1.1455189547e+000	 2.9893660077e-001
 4.7453694302e+000	 1.1942159756e+000	 2.8307991139e-001
 4.7328446978e+000	 1.2429252300e+000	 2.6676835056e-001
 4.7197829813e+000	 1.2916384939e+000	 2.4997346143e-001
 4.7061820584e+000	 1.3403474496e+000	 2.3259762996e-001
 4.6920398676e+000	 1.3890436896e+000	 2.1453314912e-001
 4.6773545116e+000	 1.4377187201e+000	 1.9589750172e-001
 4.8261862307e+000	 9.5619709479e-001	 3.5162694714e-001
 4.8162538593e+000	 1.0050296083e+000	 3.3885022642e-001
 4.8057950530e+000	 1.0539064935e+000	 3.2523031508e-001
 4.7948068218e+000	 1.1028198895e+000	 3.1089031251e-001
 4.7832863194e+000	 1.1517618286e+000	 2.9592872140e-001
 4.7712308470e+000	 1.2007242396e+000	 2.8040999677e-001
 4.7586378570e+000	 1.2496989508e+000	 2.6435479016e-001
 4.7455049565e+000	 1.2986776933e+000	 2.4772904488e-001
 4.7318299110e+000	 1.3476521041e+000	 2.3043373592e-001
 4.7176106477e+000	 1.3966137299e+000	 2.1242616947e-001
 4.7028452592e+000	 1.4455540306e+000	 1.9384427536e-001
 4.8523452661e+000	 9.6137990218e-001	 3.4534696398e-001
 4.8423590590e+000	 1.0104770991e+000	 3.3343533625e-001
 4.8318435636e+000	 1.0596189083e+000	 3.2061745865e-001
 4.8207957736e+000	 1.1087974261e+000	 3.0700538581e-001
 4.8092128274e+000	 1.1580046417e+000	 2.9268844958e-001
 4.7970920116e+000	 1.2072324402e+000	 2.7772471235e-001
 4.7844307647e+000	 1.2564726055e+000	 2.6213123419e-001
 4.7712266809e+000	 1.3057168240e+000	 2.4587329627e-001
 4.7574775135e+000	 1.3549566873e+000	 2.2886206243e-001
 4.7431811786e+000	 1.4041836964e+000	 2.1112338327e-001
 4.7283357583e+000	 1.4533892647e+000	 1.9280261243e-001
 4.8785040006e+000	 9.6656264996e-001	 3.3727668948e-001
 4.8684639585e+000	 1.0159245272e+000	 3.2653876268e-001
 4.8578917746e+000	 1.0653312573e+000	 3.1481657042e-001
 4.8467844266e+000	 1.1147748939e+000	 3.0221227040e-001
 4.8351390374e+000	 1.1642473830e+000	 2.8880853294e-001
 4.8229528789e+000	 1.2137405659e+000	 2.7466020035e-001
 4.8102233759e+000	 1.2632461823e+000	 2.5978474413e-001
 4.7969481095e+000	 1.3127558737e+000	 2.4415163678e-001
 4.7831248211e+000	 1.3622611866e+000	 2.2769542110e-001
 4.7687514154e+000	 1.4117535758e+000	 2.1050466780e-001
 4.7538259642e+000	 1.4612244087e+000	 1.9272729073e-001
 4.9046623886e+000	 9.7174532908e-001	 3.2692308722e-001
 4.8945685121e+000	 1.0213718832e+000	 3.1767976304e-001
 4.8839396404e+000	 1.0710435306e+000	 3.0736657564e-001
 4.8727727352e+000	 1.1207522825e+000	 2.9607728411e-001
 4.8610649037e+000	 1.1704900415e+000	 2.8389017673e-001
 4.8488134034e+000	 1.2202486053e+000	 2.7085996327e-001
 4.8360156452e+000	 1.2700196694e+000	 2.5700844496e-001
 4.8226691973e+000	 1.3197948302e+000	 2.4231405502e-001
 4.8087717889e+000	 1.3695655890e+000	 2.2674796325e-001
 4.7943213134e+000	 1.4193233549e+000	 2.1044985793e-001
 4.7793158324e+000	 1.4690594489e+000	 1.9357151181e-001
 4.5244073051e+000	 1.3907060206e+000	 2.2183732141e-001
 4.5096750751e+000	 1.4377605886e+000	 2.0265107190e-001
 4.4944142536e+000	 1.4847779682e+000	 1.8298469674e-001
 4.4786234942e+000	 1.5317497104e+000	 1.6303338111e-001
 4.4623016217e+000	 1.5786672978e+000	 1.4297089249e-001
 4.4454476346e+000	 1.6255221485e+000	 1.2294669880e-001
 4.4280607082e+000	 1.6723056206e+000	 1.0308316273e-001
 4.4101401969e+000	 1.7190090161e+000	 8.3472813110e-002
 4.3916856366e+000	 1.7656235858e+000	 6.4175689793e-002
 4.3726967475e+000	 1.8121405334e+000	 4.5216754523e-002
 4.3531734355e+000	 1.8585510208e+000	 2.6583355837e-002
 4.5498986071e+000	 1.3985415015e+000	 2.1512174156e-001
 4.5350833731e+000	 1.4458611832e+000	 1.9583580860e-001
 4.5197365695e+000	 1.4931434669e+000	 1.7620413465e-001
 4.5038568422e+000	 1.5403798561e+000	 1.5639559057e-001
 4.4874430094e+000	 1.5875617854e+000	 1.3655965378e-001
 4.4704940640e+000	 1.6346806246e+000	 1.1682358159e-001
 4.4530091766e+000	 1.6817276829e+000	 9.7289677759e-002
 4.4349876980e+000	 1.7286942135e+000	 7.8032652800e-002
 4.4164291615e+000	 1.7755714178e+000	 5.9097073948e-002
 4.3973332856e+000	 1.8223504501e+000	 4.0494896435e-002
 4.3776999759e+000	 1.8690224222e+000	 2.2203063135e-002
 4.5753899282e+000	 1.4063769883e+000	 2.0977921316e-001
 4.5604916902e+000	 1.4539617839e+000	 1.9035582755e-001
 4.5450589044e+000	 1.5015089719e+000	 1.7070537330e-001
 4.5290902091e+000	 1.5490100083e+000	 1.5097903688e-001
 4.5125844159e+000	 1.5964562797e+000	 1.3130946770e-001
 4.4955405122e+000	 1.6438391075e+000	 1.1180797907e-001
 4.4779576637e+000	 1.6911497523e+000	 9.2561861909e-002
 4.4598352177e+000	 1.7383794182e+000	 7.3631811520e-002
 4.4411727050e+000	 1.7855192573e+000	 5.5049462932e-002
 4.4219698423e+000	 1.8325603744e+000	 3.6815025627e-002
 4.4022265347e+000	 1.8794938316e+000	 1.8895003758e-002
 4.6008812238e+000	 1.4142124673e+000	 2.0549314713e-001
 4.5858999819e+000	 1.4620623764e+000	 1.8597737948e-001
 4.5703812139e+000	 1.5098744685e+000	 1.6632285956e-001
 4.5543235508e+000	 1.5576401519e+000	 1.4667157346e-001
 4.5377257974e+000	 1.6053507651e+000	 1.2714666532e-001
 4.5205869353e+000	 1.6529975813e+000	 1.0784963869e-001
 4.5029061259e+000	 1.7005718123e+000	 8.8857692811e-002
 4.4846827126e+000	 1.7480646132e+000	 7.0221193994e-002
 4.4659162237e+000	 1.7954670869e+000	 5.1961277057e-002
 4.4466063743e+000	 1.8427702886e+000	 3.4067567137e-002
 4.4267530690e+000	 1.8899652304e+000	 1.6496006893e-002
 4.6263724493e+000	 1.4220479247e+000	 2.0194587574e-001
 4.6113082037e+000	 1.4701629467e+000	 1.8246410367e-001
 4.5957034539e+000	 1.5182399422e+000	 1.6288725034e-001
 4.5795568231e+000	 1.5662702718e+000	 1.4335644097e-001
 4.5628671097e+000	 1.6142452261e+000	 1.2399249872e-001
 4.5456332896e+000	 1.6621560298e+000	 1.0489311980e-001
 4.5278545195e+000	 1.7099938463e+000	 8.6130208179e-002
 4.5095301392e+000	 1.7577497816e+000	 6.7747370050e-002
 4.4906596744e+000	 1.8054148891e+000	 4.9757562816e-002
 4.4712428386e+000	 1.8529801746e+000	 3.2140888073e-002
 4.4512795359e+000	 1.9004366005e+000	 1.4842512833e-002
 4.6518635601e+000	 1.4298833469e+000	 1.9881887565e-001
 4.6367163112e+000	 1.4782634806e+000	 1.7957732080e-001
 4.6210255799e+000	 1.5266053782e+000	 1.6022576671e-001
 4.6047899819e+000	 1.5749003528e+000	 1.4091267397e-001
 4.5880083088e+000	 1.6231396470e+000	 1.2176359161e-001
 4.5706795311e+000	 1.6713144372e+000	 1.0287827945e-001
 4.5528028008e+000	 1.7194158380e+000	 8.4328017720e-002
 4.5343774540e+000	 1.7674349064e+000	 6.6153103711e-002
 4.5154030137e+000	 1.8153626466e+000	 4.8360530090e-002
 4.4958791920e+000	 1.8631900147e+000	 3.0921833822e-002
 4.4758058924e+000	 1.9109079234e+000	 1.3771098982e-002
 4.6773545116e+000	 1.4377187201e+000	 1.9589750172e-001
 4.6621242599e+000	 1.4863639638e+000	 1.7707632516e-001
 4.6463475476e+000	 1.5349707619e+000	 1.5816254587e-001
 4.6300229829e+000	 1.5835303799e+000	 1.3921550449e-001
 4.6131493509e+000	 1.6320340123e+000	 1.2037238586e-001
 4.5957256162e+000	 1.6804727874e+000	 1.0174075337e-001
 4.5777509262e+000	 1.7288377708e+000	 8.3395810116e-002
 4.5592246135e+000	 1.7771199706e+000	 6.5377877416e-002
 4.5401461984e+000	 1.8253103419e+000	 4.7690084856e-002
 4.5205153914e+000	 1.8733997910e+000	 3.0296260395e-002
 4.5003320956e+000	 1.9213791809e+000	 1.3119002970e-002
 4.7028452592e+000	 1.4455540306e+000	 1.9384427536e-001
 4.6875320053e+000	 1.4944643822e+000	 1.7509716217e-001
 4.6716693128e+000	 1.5433360787e+000	 1.5653788350e-001
 4.6552557821e+000	 1.5921603379e+000	 1.3813676229e-001
 4.6382901918e+000	 1.6409283065e+000	 1.1972758411e-001
 4.6207715009e+000	 1.6896310642e+000	 1.0141243260e-001
 4.6026988520e+000	 1.7382596282e+000	 8.3274855268e-002
 4.5840715742e+000	 1.7868049574e+000	 6.5358411547e-002
 4.5648891852e+000	 1.8352579576e+000	 4.7664357515e-002
 4.5451513938e+000	 1.8836094856e+000	 3.0149563039e-002
 4.5248581026e+000	 1.9318503547e+000	 1.2724642944e-002
 4.7283357583e+000	 1.4533892647e+000	 1.9280261243e-001
 4.7129395030e+000	 1.5025647216e+000	 1.7427626563e-001
 4.6969908311e+000	 1.5517013139e+000	 1.5588065401e-001
 4.6804883353e+000	 1.6007902118e+000	 1.3768586859e-001
 4.6634307876e+000	 1.6498225140e+000	 1.1973458838e-001
 4.6458171413e+000	 1.6987892518e+000	 1.0182193562e-001
 4.6276465346e+000	 1.7476813937e+000	 8.3903501929e-002
 4.6089182927e+000	 1.7964898498e+000	 6.6029179388e-002
 4.5896319307e+000	 1.8452054763e+000	 4.8200226996e-002
 4.5697871560e+000	 1.8938190807e+000	 3.0367201222e-002
 4.5493838705e+000	 1.9423214263e+000	 1.2428135115e-002
 4.7538259642e+000	 1.4612244087e+000	 1.9272729073e-001
 4.7383467086e+000	 1.5106649679e+000	 1.7465761565e-001
 4.7223120582e+000	 1.5600664530e+000	 1.5656529793e-001
 4.7057205984e+000	 1.6094199865e+000	 1.3853924484e-001
 4.6885710943e+000	 1.6587166192e+000	 1.2064188799e-001
 4.6708624938e+000	 1.7079473341e+000	 1.0290628417e-001
 4.6525939303e+000	 1.7571030509e+000	 8.5217670899e-002
 4.6337647254e+000	 1.8061746307e+000	 6.7322917685e-002
 4.6143743917e+000	 1.8551528806e+000	 4.9213840756e-002
 4.5944226349e+000	 1.9040285584e+000	 3.0835220085e-002
 4.5739093563e+000	 1.9527923776e+000	 1.2071808630e-002
 4.7793158324e+000	 1.4690594489e+000	 1.9357151181e-001
 4.7637535775e+000	 1.5187651069e+000	 1.7626537307e-001
 4.7476329498e+000	 1.5684314812e+000	 1.5867440288e-001
 4.7309525271e+000	 1.6180496468e+000	 1.4091292014e-001
 4.7137110679e+000	 1.6676106065e+000	 1.2306171068e-001
 4.6959075144e+000	 1.7171052950e+000	 1.0516502432e-001
 4.6775409954e+000	 1.7665245833e+000	 8.7227274526e-002
 4.6586108290e+000	 1.8158592834e+000	 6.9171132917e-002
 4.6391165248e+000	 1.8651001532e+000	 5.0621130791e-002
 4.6190577873e+000	 1.9142379008e+000	 3.1440768470e-002
 4.5984345172e+000	 1.9632631901e+000	 1.1500717830e-002
 4.3531734355e+000	 1.8585510208e+000	 2.6583355837e-002
 4.3331188442e+000	 1.9048392375e+000	 7.6103589883e-003
 4.3125303724e+000	 1.9510032508e+000	-1.2754302546e-002
 4.2914084996e+000	 1.9970341310e+000	-3.5160390780e-002
 4.2697538987e+000	 2.0429229261e+000	-5.8686957878e-002
 4.2475674374e+000	 2.0886606667e+000	-8.1644941357e-002
 4.2248501796e+000	 2.1342383709e+000	-1.0421621560e-001
 4.2016033865e+000	 2.1796470501e+000	-1.2660312041e-001
 4.1778285178e+000	 2.2248777138e+000	-1.4902169383e-001
 4.1535272320e+000	 2.2699213753e+000	-1.7170213121e-001
 4.1287013875e+000	 2.3147690567e+000	-1.9488915194e-001
 4.3776999759e+000	 1.8690224222e+000	 2.2203063135e-002
 4.3575323935e+000	 1.9155714349e+000	 3.5490138047e-003
 4.3368279227e+000	 1.9619955443e+000	-1.6497473832e-002
 4.3155870456e+000	 2.0082857706e+000	-3.8499729484e-002
 4.2938104388e+000	 2.0544331112e+000	-6.0918997231e-002
 4.2714989751e+000	 2.1004285461e+000	-8.2891502044e-002
 4.2486537243e+000	 2.1462630431e+000	-1.0458971613e-001
 4.2252759548e+000	 2.1919275628e+000	-1.2620094257e-001
 4.2013671343e+000	 2.2374130640e+000	-1.4792790609e-001
 4.1769289308e+000	 2.2827105093e+000	-1.6998924986e-001
 4.1519632131e+000	 2.3278108704e+000	-1.9261993495e-001
 4.4022265347e+000	 1.8794938316e+000	 1.8895003758e-002
 4.3819459612e+000	 1.9263036403e+000	 5.9032599270e-004
 4.3611254912e+000	 1.9729878461e+000	-1.9124841874e-002
 4.3397656097e+000	 2.0195374185e+000	-4.0570747445e-002
 4.3178669970e+000	 2.0659433048e+000	-6.2025897586e-002
 4.2954305308e+000	 2.1121964344e+000	-8.3164295398e-002
 4.2724572869e+000	 2.1582877244e+000	-1.0413788136e-001
 4.2489485408e+000	 2.2042080846e+000	-1.2511433936e-001
 4.2249057684e+000	 2.2499484235e+000	-1.4627772875e-001
 4.2003306471e+000	 2.2954996529e+000	-1.6782901890e-001
 4.1752250562e+000	 2.3408526939e+000	-1.8998652269e-001
 4.4267530690e+000	 1.8899652304e+000	 1.6496006893e-002
 4.4063595044e+000	 1.9370358350e+000	-1.4858469113e-003
 4.3854230354e+000	 1.9839801368e+000	-2.0904689419e-002
 4.3639441496e+000	 2.0307890552e+000	-4.1726155346e-002
 4.3419235312e+000	 2.0774534870e+000	-6.2386115123e-002
 4.3193620626e+000	 2.1239643109e+000	-8.2851727865e-002
 4.2962608257e+000	 2.1703123936e+000	-1.0325064582e-001
 4.2726211032e+000	 2.2164885942e+000	-1.2372641738e-001
 4.2484443790e+000	 2.2624837705e+000	-1.4443915922e-001
 4.2237323400e+000	 2.3082887837e+000	-1.6556612863e-001
 4.1984868760e+000	 2.3538945043e+000	-1.8730219217e-001
 4.4512795359e+000	 1.9004366005e+000	 1.4842512833e-002
 4.4307729805e+000	 1.9477680002e+000	-2.8982874465e-003
 4.4097205128e+000	 1.9949723973e+000	-2.2102383652e-002
 4.3881226230e+000	 2.0420406610e+000	-4.2314084932e-002
 4.3659799992e+000	 2.0889636375e+000	-6.2365511659e-002
 4.3432935286e+000	 2.1357321551e+000	-8.2329113000e-002
 4.3200642991e+000	 2.1823370297e+000	-1.0230455281e-001
 4.2962936004e+000	 2.2287690700e+000	-1.2240679234e-001
 4.2719829249e+000	 2.2750190830e+000	-1.4276680125e-001
 4.2471339687e+000	 2.3210778793e+000	-1.6353216772e-001
 4.2217486319e+000	 2.3669362788e+000	-1.8486760363e-001
 4.4758058924e+000	 1.9109079234e+000	 1.3771098982e-002
 4.4551863468e+000	 1.9585001171e+000	-3.8639042329e-003
 4.4340178809e+000	 2.0059646084e+000	-2.2964031694e-002
 4.4123009877e+000	 2.0532922162e+000	-4.2670819075e-002
 4.3900363589e+000	 2.1004737362e+000	-6.2317417454e-002
 4.3672248869e+000	 2.1474999463e+000	-8.1958746305e-002
 4.3438676654e+000	 2.1943616118e+000	-1.0166283591e-001
 4.3199659911e+000	 2.2410494906e+000	-1.2151167183e-001
 4.2955213649e+000	 2.2875543391e+000	-1.4160194355e-001
 4.2705354920e+000	 2.3338669174e+000	-1.6204569251e-001
 4.2450102831e+000	 2.3799779947e+000	-1.8297085507e-001
 4.5003320956e+000	 1.9213791809e+000	 1.3119002970e-002
 4.4795995605e+000	 1.9692321670e+000	-4.5972198510e-003
 4.4583150972e+000	 2.0169567508e+000	-2.3682603501e-002
 4.4364792012e+000	 2.0645437010e+000	-4.3120837663e-002
 4.4140925684e+000	 2.1119837630e+000	-6.2582694076e-002
 4.3911560956e+000	 2.1592676640e+000	-8.2089979801e-002
 4.3676708828e+000	 2.2063861187e+000	-1.0167550003e-001
 4.3436382339e+000	 2.2533298344e+000	-1.2138393755e-001
 4.3190596578e+000	 2.3000895169e+000	-1.4127263810e-001
 4.2939368690e+000	 2.3466558755e+000	-1.6141229622e-001
 4.2682717890e+000	 2.3930196291e+000	-1.8188753743e-001
 4.5248581026e+000	 1.9318503547e+000	 1.2724642944e-002
 4.5040125789e+000	 1.9799641309e+000	-5.3098605583e-003
 4.4826121190e+000	 2.0279488052e+000	-2.4534615585e-002
 4.4606572214e+000	 2.0757950959e+000	-4.3976864077e-002
 4.4381485853e+000	 2.1234936977e+000	-6.3489797355e-002
 4.4150871129e+000	 2.1710352875e+000	-8.3059296360e-002
 4.3914739099e+000	 2.2184105294e+000	-1.0267940196e-001
 4.3673102874e+000	 2.2656100800e+000	-1.2235322724e-001
 4.3425977623e+000	 2.3126245944e+000	-1.4209377834e-001
 4.3173380589e+000	 2.3594447314e+000	-1.6192467845e-001
 4.2915331087e+000	 2.4060611591e+000	-1.8188079040e-001
 4.5493838705e+000	 1.9423214263e+000	 1.2428135115e-002
 4.5284253593e+000	 1.9906959903e+000	-6.2100478095e-003
 4.5069089040e+000	 2.0389407525e+000	-2.5798414565e-002
 4.4848350058e+000	 2.0870463810e+000	-4.5539912223e-002
 4.4622043678e+000	 2.1350035202e+000	-6.5354840428e-002
 4.4390178969e+000	 2.1828027963e+000	-8.5190383806e-002
 4.4152767049e+000	 2.2304348228e+000	-1.0499833072e-001
 4.3909821100e+000	 2.2778902058e+000	-1.2473601614e-001
 4.3661356374e+000	 2.3251595497e+000	-1.4436717705e-001
 4.3407390206e+000	 2.3722334625e+000	-1.6386271463e-001
 4.3147942016e+000	 2.4191025620e+000	-1.8320135875e-001
 4.5739093563e+000	 1.9527923776e+000	 1.2071808630e-002
 4.5528378589e+000	 2.0014277262e+000	-7.5016235590e-003
 4.5312054096e+000	 2.0499325734e+000	-2.7741480031e-002
 4.5090125121e+000	 2.0982975368e+000	-4.8099334125e-002
 4.4862598736e+000	 2.1465132103e+000	-6.8481656880e-002
 4.4629484056e+000	 2.1945701698e+000	-8.8794208828e-002
 4.4390792262e+000	 2.2424589780e+000	-1.0894308738e-001
 4.4146536604e+000	 2.2901701905e+000	-1.2883569820e-001
 4.3896732418e+000	 2.3376943608e+000	-1.4838164410e-001
 4.3641397131e+000	 2.3850220466e+000	-1.6749352573e-001
 4.3380550271e+000	 2.4321438149e+000	-1.8608764933e-001
 4.5984345172e+000	 1.9632631901e+000	 1.1500717830e-002
 4.5772500350e+000	 2.0121593200e+000	-9.3572676332e-003
 4.5555015932e+000	 2.0609242486e+000	-3.0620452915e-002
 4.5331896981e+000	 2.1095485434e+000	-5.1932868068e-002
 4.5103150606e+000	 2.1580227479e+000	-7.3161863994e-002
 4.4868785973e+000	 2.2063373874e+000	-9.4169090697e-002
 4.4628814320e+000	 2.2544829739e+000	-1.1481156471e-001
 4.4383248971e+000	 2.3024500124e+000	-1.3494266691e-001
 4.4132105343e+000	 2.3502290059e+000	-1.5441306402e-001
 4.3875400957e+000	 2.3978104613e+000	-1.7307154803e-001
 4.3613155443e+000	 2.4451848950e+000	-1.9076578854e-001
 4.1287013875e+000	 2.3147690567e+000	-1.9488915194e-001
 4.1033492018e+000	 2.3594184767e+000	-2.1773870487e-001
 4.0774766229e+000	 2.4038539472e+000	-2.3905704560e-001
 4.0510861151e+000	 2.4480665494e+000	-2.5861427189e-001
 4.0241803434e+000	 2.4920473954e+000	-2.7621905254e-001
 3.9967621731e+000	 2.5357876342e+000	-2.9173454145e-001
 3.9688346697e+000	 2.5792784569e+000	-3.0637343542e-001
 3.9404010980e+000	 2.6225111028e+000	-3.2093672753e-001
 3.9114649214e+000	 2.6654768645e+000	-3.3536363723e-001
 3.8820298008e+000	 2.7081670937e+000	-3.4934981323e-001
 3.8520995936e+000	 2.7505732069e+000	-3.6224315183e-001
 4.1519632131e+000	 2.3278108704e+000	-1.9261993495e-001
 4.1264681888e+000	 2.3727118530e+000	-2.1509488355e-001
 4.1004498393e+000	 2.4173976808e+000	-2.3633718136e-001
 4.0739106427e+000	 2.4618593845e+000	-2.5610323552e-001
 4.0468532792e+000	 2.5060880263e+000	-2.7418555755e-001
 4.0192806301e+000	 2.5500747052e+000	-2.9041375346e-001
 3.9911957783e+000	 2.5938105628e+000	-3.0475938157e-001
 3.9626020069e+000	 2.6372867889e+000	-3.1867044391e-001
 3.9335027988e+000	 2.6804946273e+000	-3.3259158082e-001
 3.9039018356e+000	 2.7234253807e+000	-3.4614443137e-001
 3.8738029964e+000	 2.7660704174e+000	-3.5875466280e-001
 4.1752250562e+000	 2.3408526939e+000	-1.8998652269e-001
 4.1495871931e+000	 2.3860052393e+000	-2.1211737770e-001
 4.1234230729e+000	 2.4309414244e+000	-2.3324671648e-001
 4.0967351875e+000	 2.4756522299e+000	-2.5312807674e-001
 4.0695262320e+000	 2.5201286676e+000	-2.7154901169e-001
 4.0417991041e+000	 2.5643617869e+000	-2.8833205100e-001
 4.0135569037e+000	 2.6083426796e+000	-3.0333553875e-001
 3.9848029324e+000	 2.6520624862e+000	-3.1674674921e-001
 3.9555406927e+000	 2.6955124013e+000	-3.3004700608e-001
 3.9257738867e+000	 2.7386836792e+000	-3.4309571661e-001
 3.8955064154e+000	 2.7815676394e+000	-3.5536526387e-001
 4.1984868760e+000	 2.3538945043e+000	-1.8730219217e-001
 4.1727061744e+000	 2.3992986122e+000	-2.0908638254e-001
 4.1463962835e+000	 2.4444851546e+000	-2.3003735548e-001
 4.1195597094e+000	 2.4894450615e+000	-2.4991641246e-001
 4.0921991621e+000	 2.5341692950e+000	-2.6851715461e-001
 4.0643175555e+000	 2.5786488543e+000	-2.8566639701e-001
 4.0359180067e+000	 2.6228747818e+000	-3.0122495975e-001
 4.0070038358e+000	 2.6668381687e+000	-3.1508833670e-001
 3.9775785646e+000	 2.7105301604e+000	-3.2772963979e-001
 3.9476459161e+000	 2.7539419624e+000	-3.4019757735e-001
 3.9172098127e+000	 2.7970648460e+000	-3.5206559370e-001
 4.2217486319e+000	 2.3669362788e+000	-1.8486760363e-001
 4.1958250920e+000	 2.4125919487e+000	-2.0627001196e-001
 4.1693694310e+000	 2.4580288475e+000	-2.2694916989e-001
 4.1423841686e+000	 2.5032378552e+000	-2.4668459192e-001
 4.1148720299e+000	 2.5482098837e+000	-2.6528674507e-001
 4.0868359450e+000	 2.5929358824e+000	-2.8259789877e-001
 4.0582790482e+000	 2.6374068441e+000	-2.9849285077e-001
 4.0292046781e+000	 2.6816138106e+000	-3.1288353926e-001
 3.9996163759e+000	 2.7255478781e+000	-3.2564701634e-001
 3.9695178853e+000	 2.7692002036e+000	-3.3745107818e-001
 3.9389131504e+000	 2.8125620100e+000	-3.4885291219e-001
 4.2450102831e+000	 2.3799779947e+000	-1.8297085507e-001
 4.2189439057e+000	 2.4258852253e+000	-2.0392433713e-001
 4.1923424751e+000	 2.4715724794e+000	-2.2421062322e-001
 4.1652085251e+000	 2.5170305868e+000	-2.4363771047e-001
 4.1375447957e+000	 2.5622504092e+000	-2.6204356552e-001
 4.1093542332e+000	 2.6072228463e+000	-2.7929689280e-001
 4.0806399892e+000	 2.6519388410e+000	-2.9529777685e-001
 4.0514054205e+000	 2.6963893859e+000	-3.1000483087e-001
 4.0216540881e+000	 2.7405655283e+000	-3.2329499491e-001
 3.9913897560e+000	 2.7844583762e+000	-3.3486358991e-001
 3.9606163904e+000	 2.8280591043e+000	-3.4573024355e-001
 4.2682717890e+000	 2.3930196291e+000	-1.8188753743e-001
 4.2420625748e+000	 2.4391784189e+000	-2.0229342623e-001
 4.2153153756e+000	 2.4851160267e+000	-2.2203859764e-001
 4.1880327389e+000	 2.5308232322e+000	-2.4096962524e-001
 4.1602174198e+000	 2.5762908470e+000	-2.5896242909e-001
 4.1318723806e+000	 2.6215097208e+000	-2.7592294505e-001
 4.1030007903e+000	 2.6664707471e+000	-2.9178766542e-001
 4.0736060241e+000	 2.7111648690e+000	-3.0660452589e-001
 4.0436916625e+000	 2.7555830846e+000	-3.2021552886e-001
 4.0132614901e+000	 2.7997164535e+000	-3.3226218304e-001
 3.9823194948e+000	 2.8435561017e+000	-3.4270552180e-001
 4.2915331087e+000	 2.4060611591e+000	-1.8188079040e-001
 4.2651810590e+000	 2.4524715061e+000	-2.0160938532e-001
 4.2382880923e+000	 2.4986594657e+000	-2.2063842213e-001
 4.2108567701e+000	 2.5446157673e+000	-2.3886297290e-001
 4.1828898625e+000	 2.5903311725e+000	-2.5620718880e-001
 4.1543903479e+000	 2.6357964811e+000	-2.7262485354e-001
 4.1253614126e+000	 2.6810025370e+000	-2.8811536760e-001
 4.0958064502e+000	 2.7259402338e+000	-3.0282028060e-001
 4.0657290606e+000	 2.7706005208e+000	-3.1653721674e-001
 4.0351330492e+000	 2.8149744086e+000	-3.2895963071e-001
 4.0040224255e+000	 2.8590529751e+000	-3.3977441605e-001
 4.3147942016e+000	 2.4191025620e+000	-1.8320135875e-001
 4.2882993178e+000	 2.4657644637e+000	-2.0209240030e-001
 4.2612605851e+000	 2.5122027726e+000	-2.2020390227e-001
 4.2336805788e+000	 2.5584081679e+000	-2.3748918919e-001
 4.2055620842e+000	 2.6043713611e+000	-2.5393074898e-001
 4.1769080956e+000	 2.6500831021e+000	-2.6954065349e-001
 4.1477218169e+000	 2.6955341851e+000	-2.8442903230e-001
 4.1180066598e+000	 2.7407154546e+000	-2.9877553486e-001
 4.0877662438e+000	 2.7856178106e+000	-3.1237487882e-001
 4.0570043951e+000	 2.8302322150e+000	-3.2498392615e-001
 4.0257251447e+000	 2.8745496975e+000	-3.3635225053e-001
 4.3380550271e+000	 2.4321438149e+000	-1.8608764933e-001
 4.3114173107e+000	 2.4790572684e+000	-2.0395077996e-001
 4.2842328136e+000	 2.5257459238e+000	-2.2091735149e-001
 4.2565041250e+000	 2.5722004099e+000	-2.3700853047e-001
 4.2282340451e+000	 2.6184113882e+000	-2.5227507883e-001
 4.1994255844e+000	 2.6643695588e+000	-2.6679762473e-001
 4.1700819640e+000	 2.7100656662e+000	-2.8084968108e-001
 4.1402066141e+000	 2.7554905054e+000	-2.9457995649e-001
 4.1098031737e+000	 2.8006349276e+000	-3.0782984031e-001
 4.0788754894e+000	 2.8454898460e+000	-3.2043082853e-001
 4.0474276143e+000	 2.8900462416e+000	-3.3220667610e-001
 4.3613155443e+000	 2.4451848950e+000	-1.9076578854e-001
 4.3345349974e+000	 2.4923498970e+000	-2.0738100005e-001
 4.3072047378e+000	 2.5392888956e+000	-2.2294962370e-001
 4.2793273689e+000	 2.5859924692e+000	-2.3757009684e-001
 4.2509057056e+000	 2.6324512293e+000	-2.5137122802e-001
 4.2219427749e+000	 2.6786558262e+000	-2.6452807096e-001
 4.1924418148e+000	 2.7245969547e+000	-2.7748465665e-001
 4.1624062742e+000	 2.7702653605e+000	-2.9032988824e-001
 4.1318398115e+000	 2.8156518457e+000	-3.0299038636e-001
 4.1007462939e+000	 2.8607472748e+000	-3.1538327928e-001
 4.0691297963e+000	 2.9055425804e+000	-3.2741777506e-001
 3.8520995936e+000	 2.7505732069e+000	-3.6224315183e-001
 3.8216783512e+000	 2.7926866895e+000	-3.7403950283e-001
 3.7907703142e+000	 2.8344990990e+000	-3.8544683989e-001
 3.7593799139e+000	 2.8760020728e+000	-3.9689111854e-001
 3.7275117717e+000	 2.9171873346e+000	-4.0873888338e-001
 3.6951706969e+000	 2.9580467000e+000	-4.2130090367e-001
 3.6623616842e+000	 2.9985720814e+000	-4.3483707126e-001
 3.6290899118e+000	 3.0387554936e+000	-4.4956254893e-001
 3.5953607382e+000	 3.0785890587e+000	-4.6565514447e-001
 3.5611796998e+000	 3.1180650113e+000	-4.8326387290e-001
 3.5265525078e+000	 3.1571757036e+000	-5.0251865644e-001
 3.8738029964e+000	 2.7660704174e+000	-3.5875466280e-001
 3.8432103554e+000	 2.8084211747e+000	-3.7033017552e-001
 3.8121281771e+000	 2.8504691626e+000	-3.8149612671e-001
 3.7805609178e+000	 2.8922059714e+000	-3.9268665977e-001
 3.7485132249e+000	 2.9336232782e+000	-4.0427222744e-001
 3.7159899348e+000	 2.9747128524e+000	-4.1656324035e-001
 3.6829960704e+000	 3.0154665609e+000	-4.2981503788e-001
 3.6495368390e+000	 3.0558763735e+000	-4.4423416971e-001
 3.6156176293e+000	 3.0959343678e+000	-4.5998596343e-001
 3.5812440090e+000	 3.1356327349e+000	-4.7720333967e-001
 3.5464217214e+000	 3.1749637836e+000	-4.9599682339e-001
 3.8955064154e+000	 2.7815676394e+000	-3.5536526387e-001
 3.8647423757e+000	 2.8241556717e+000	-3.6669858021e-001
 3.8334860560e+000	 2.8664392382e+000	-3.7764096232e-001
 3.8017419376e+000	 2.9084098822e+000	-3.8862001053e-001
 3.7695146939e+000	 2.9500592341e+000	-3.9999524392e-001
 3.7368091883e+000	 2.9913790173e+000	-4.1206178777e-001
 3.7036304721e+000	 3.0323610531e+000	-4.2505544542e-001
 3.6699837815e+000	 3.0729972662e+000	-4.3915914335e-001
 3.6358745357e+000	 3.1132796900e+000	-4.5451072453e-001
 3.6013083333e+000	 3.1532004716e+000	-4.7121205084e-001
 3.5662909498e+000	 3.1927518770e+000	-4.8933936186e-001
 3.9172098127e+000	 2.7970648460e+000	-3.5206559370e-001
 3.8862743745e+000	 2.8398901530e+000	-3.6313428113e-001
 3.8548439135e+000	 2.8824092978e+000	-3.7387186858e-001
 3.8229229361e+000	 2.9246137768e+000	-3.8468502535e-001
 3.7905161418e+000	 2.9664951736e+000	-3.9590782730e-001
 3.7576284210e+000	 3.0080451656e+000	-4.0780550863e-001
 3.7242648531e+000	 3.0492555284e+000	-4.2057966247e-001
 3.6904307036e+000	 3.0901181418e+000	-4.3437487933e-001
 3.6561314218e+000	 3.1306249948e+000	-4.4928679813e-001
 3.6213726375e+000	 3.1707681908e+000	-4.6537153008e-001
 3.5861601584e+000	 3.2105399526e+000	-4.8265640090e-001
 3.9389131504e+000	 2.8125620100e+000	-3.4885291219e-001
 3.9078063141e+000	 2.8556245910e+000	-3.5963292693e-001
 3.8762017123e+000	 2.8983793136e+000	-3.7018492000e-001
 3.8441038765e+000	 2.9408176268e+000	-3.8088057989e-001
 3.8115175320e+000	 2.9829310679e+000	-3.9201435692e-001
 3.7784475965e+000	 3.0247112680e+000	-4.0380730439e-001
 3.7448991774e+000	 3.0661499572e+000	-4.1641243506e-001
 3.7108775695e+000	 3.1072389703e+000	-4.2992158248e-001
 3.6763882522e+000	 3.1479702519e+000	-4.4437374146e-001
 3.6414368865e+000	 3.1883358617e+000	-4.5976484708e-001
 3.6060293124e+000	 3.2283279793e+000	-4.7605893636e-001
 3.9606163904e+000	 2.8280591043e+000	-3.4573024355e-001
 3.9293381567e+000	 2.8713589582e+000	-3.5619538890e-001
 3.8975594150e+000	 2.9143492574e+000	-3.6658087894e-001
 3.8652847215e+000	 2.9570214039e+000	-3.7720970518e-001
 3.8325188277e+000	 2.9993668883e+000	-3.8832283263e-001
 3.7992666783e+000	 3.0413772954e+000	-4.0008315471e-001
 3.7655334089e+000	 3.0830443100e+000	-4.1258103252e-001
 3.7313243434e+000	 3.1243597218e+000	-4.2584140816e-001
 3.6966449914e+000	 3.1653154310e+000	-4.3983246596e-001
 3.6615010452e+000	 3.2059034535e+000	-4.5447580024e-001
 3.6258983769e+000	 3.2461159260e+000	-4.6965803215e-001
 3.9823194948e+000	 2.8435561017e+000	-3.4270552180e-001
 3.9508698649e+000	 2.8870932270e+000	-3.5282690140e-001
 3.9189169843e+000	 2.9303191015e+000	-3.6306433296e-001
 3.8864654342e+000	 2.9732250798e+000	-3.7367872400e-001
 3.8535199921e+000	 3.0158026059e+000	-3.8484401230e-001
 3.8200856300e+000	 3.0580432187e+000	-3.9665125856e-001
 3.7861675114e+000	 3.0999385572e+000	-4.0911439481e-001
 3.7517709895e+000	 3.1414803662e+000	-4.2217761840e-001
 3.7169016041e+000	 3.1826605016e+000	-4.3572440518e-001
 3.6815650786e+000	 3.2234709355e+000	-4.4958809935e-001
 3.6457673173e+000	 3.2639037614e+000	-4.6356402094e-001
 4.0040224255e+000	 2.8590529751e+000	-3.3977441605e-001
 3.9724014008e+000	 2.9028273700e+000	-3.4953620473e-001
 3.9402743827e+000	 2.9462888178e+000	-3.5964283443e-001
 3.9076459774e+000	 2.9894286260e+000	-3.7029638924e-001
 3.8745209886e+000	 3.0322381921e+000	-3.8159055125e-001
 3.8409044151e+000	 3.0747090086e+000	-3.9353117703e-001
 3.8068014488e+000	 3.1168326693e+000	-4.0604228111e-001
 3.7722174720e+000	 3.1586008738e+000	-4.1897373904e-001
 3.7371580547e+000	 3.2000054335e+000	-4.3211068334e-001
 3.7016289514e+000	 3.2410382770e+000	-4.4518454846e-001
 3.6656360987e+000	 3.2816914546e+000	-4.5788570447e-001
 4.0257251447e+000	 2.8745496975e+000	-3.3635225053e-001
 3.9939327267e+000	 2.9185613596e+000	-3.4633469009e-001
 3.9616315728e+000	 2.9622583784e+000	-3.5632604229e-001
 3.9288263141e+000	 3.0056320142e+000	-3.6707302437e-001
 3.8955217803e+000	 3.0486736180e+000	-3.7857614350e-001
 3.8617229972e+000	 3.0913746361e+000	-3.9074297766e-001
 3.8274351851e+000	 3.1337266166e+000	-4.0339441979e-001
 3.7926637552e+000	 3.1757212144e+000	-4.1627271795e-001
 3.7574143078e+000	 3.2173501963e+000	-4.2905128443e-001
 3.7216926286e+000	 3.2586054472e+000	-4.4134622893e-001
 3.6855046864e+000	 3.2994789744e+000	-4.5272955352e-001
 4.0474276143e+000	 2.8900462416e+000	-3.3220667610e-001
 4.0154638050e+000	 2.9342951683e+000	-3.4301122394e-001
 3.9829885173e+000	 2.9782277553e+000	-3.5312486582e-001
 3.9500064073e+000	 3.0218352162e+000	-3.6401966584e-001
 3.9165223304e+000	 3.0651088549e+000	-3.7581466484e-001
 3.8825413400e+000	 3.1080400719e+000	-3.8830638048e-001
 3.8480686841e+000	 3.1506203697e+000	-4.0119965980e-001
 3.8131098033e+000	 3.1928413581e+000	-4.1411608421e-001
 3.7776703279e+000	 3.2346947597e+000	-4.2660422205e-001
 3.7417560751e+000	 3.2761724154e+000	-4.3815168261e-001
 3.7053730457e+000	 3.3172662896e+000	-4.4819890754e-001
 4.0691297963e+000	 2.9055425804e+000	-3.2741777506e-001
 4.0369945981e+000	 2.9500287685e+000	-3.3899857230e-001
 4.0043451789e+000	 2.9941969207e+000	-3.5003373579e-001
 3.9711862198e+000	 3.0380382034e+000	-3.6114720744e-001
 3.9375226023e+000	 3.0815438740e+000	-3.7331931776e-001
 3.9033594069e+000	 3.1247052869e+000	-3.8623990563e-001
 3.8687019096e+000	 3.1675138990e+000	-3.9948512329e-001
 3.8335555804e+000	 3.2099612749e+000	-4.1254310841e-001
 3.7979260797e+000	 3.2520390932e+000	-4.2482470989e-001
 3.7618192558e+000	 3.2937391508e+000	-4.3567609538e-001
 3.7252411416e+000	 3.3350533691e+000	-4.4439703783e-001
 3.5265525078e+000	 3.1571757036e+000	-5.0251865644e-001
 3.4914903382e+000	 3.1959078285e+000	-5.2133711869e-001
 3.4559940813e+000	 3.2342598873e+000	-5.3573788268e-001
 3.4200699536e+000	 3.2722246200e+000	-5.4303738828e-001
 3.3837243325e+000	 3.3097949028e+000	-5.4063635569e-001
 3.3469637528e+000	 3.3469637528e+000	-5.2644638833e-001
 3.3097949028e+000	 3.3837243325e+000	-5.0740877165e-001
 3.2722246200e+000	 3.4200699536e+000	-4.9937371694e-001
 3.2342598873e+000	 3.4559940813e+000	-4.9932641634e-001
 3.1959078285e+000	 3.4914903382e+000	-5.0244567147e-001
 3.1571757036e+000	 3.5265525078e+000	-5.0389338277e-001
 3.5464217214e+000	 3.1749637836e+000	-4.9599682339e-001
 3.5111620053e+000	 3.2139141321e+000	-5.1454133249e-001
 3.4754657564e+000	 3.2524822731e+000	-5.2917703158e-001
 3.4393392258e+000	 3.2906609057e+000	-5.3729236780e-001
 3.4027888272e+000	 3.3284428661e+000	-5.3635646533e-001
 3.3658211319e+000	 3.3658211319e+000	-5.2619387552e-001
 3.3284428661e+000	 3.4027888272e+000	-5.0847095244e-001
 3.2906609057e+000	 3.4393392258e+000	-4.9548516934e-001
 3.2524822731e+000	 3.4754657564e+000	-4.9202155665e-001
 3.2139141321e+000	 3.5111620053e+000	-4.9326936409e-001
 3.1749637836e+000	 3.5464217214e+000	-4.9440276530e-001
 3.5662909498e+000	 3.1927518770e+000	-4.8933936186e-001
 3.5308336872e+000	 3.2319204492e+000	-5.0730264922e-001
 3.4949374460e+000	 3.2707046726e+000	-5.2176121966e-001
 3.4586085125e+000	 3.3090972053e+000	-5.3019028916e-001
 3.4218533361e+000	 3.3470908433e+000	-5.3052667180e-001
 3.3846785252e+000	 3.3846785252e+000	-5.2475647155e-001
 3.3470908433e+000	 3.4218533361e+000	-5.1205798650e-001
 3.3090972053e+000	 3.4586085125e+000	-4.9516636359e-001
 3.2707046726e+000	 3.4949374460e+000	-4.8776135629e-001
 3.2319204492e+000	 3.5308336872e+000	-4.8664267640e-001
 3.1927518770e+000	 3.5662909498e+000	-4.8700739900e-001
 3.5861601584e+000	 3.2105399526e+000	-4.8265640090e-001
 3.5505053495e+000	 3.2499267483e+000	-4.9976142381e-001
 3.5144091162e+000	 3.2889270539e+000	-5.1365948220e-001
 3.4778777799e+000	 3.3275334865e+000	-5.2192705168e-001
 3.4409178260e+000	 3.3657388020e+000	-5.2428383288e-001
 3.4035358996e+000	 3.4035358996e+000	-5.2226014982e-001
 3.3657388020e+000	 3.4409178260e+000	-5.1405269384e-001
 3.3275334865e+000	 3.4778777799e+000	-4.9810347048e-001
 3.2889270539e+000	 3.5144091162e+000	-4.8624480707e-001
 3.2499267483e+000	 3.5505053495e+000	-4.8227243802e-001
 3.2105399526e+000	 3.5861601584e+000	-4.8141659125e-001
 3.6060293124e+000	 3.2283279793e+000	-4.7605893636e-001
 3.5701769576e+000	 3.2679329979e+000	-4.9205822206e-001
 3.5338807328e+000	 3.3071493850e+000	-5.0504050152e-001
 3.4971469943e+000	 3.3459697169e+000	-5.1299417659e-001
 3.4599822634e+000	 3.3843867093e+000	-5.1777725457e-001
 3.4223932221e+000	 3.4223932221e+000	-5.1882451868e-001
 3.3843867093e+000	 3.4599822634e+000	-5.1438846133e-001
 3.3459697169e+000	 3.4971469943e+000	-5.0277112786e-001
 3.3071493850e+000	 3.5338807328e+000	-4.8715959192e-001
 3.2679329979e+000	 3.5701769576e+000	-4.7985445942e-001
 3.2283279793e+000	 3.6060293124e+000	-4.7732887220e-001
 3.6258983769e+000	 3.2461159260e+000	-4.6965803215e-001
 3.5898484772e+000	 3.2859391665e+000	-4.8433304201e-001
 3.5533522618e+000	 3.3253716342e+000	-4.9607184825e-001
 3.5164161221e+000	 3.3644058644e+000	-5.0442482714e-001
 3.4790466151e+000	 3.4030345328e+000	-5.1110149388e-001
 3.4412504598e+000	 3.4412504598e+000	-5.1456316223e-001
 3.4030345328e+000	 3.4790466151e+000	-5.1319492451e-001
 3.3644058644e+000	 3.5164161221e+000	-5.0542841247e-001
 3.3253716342e+000	 3.5533522618e+000	-4.9018443379e-001
 3.2859391665e+000	 3.5898484772e+000	-4.7907590145e-001
 3.2461159260e+000	 3.6258983769e+000	-4.7443437979e-001
 3.6457673173e+000	 3.2639037614e+000	-4.6356402094e-001
 3.6095198739e+000	 3.3039452225e+000	-4.7672453426e-001
 3.5728236691e+000	 3.3435937694e+000	-4.8709474055e-001
 3.5356851293e+000	 3.3828418967e+000	-4.9635013392e-001
 3.4981108476e+000	 3.4216822397e+000	-5.0434571224e-001
 3.4601075796e+000	 3.4601075796e+000	-5.0958397810e-001
 3.4216822397e+000	 3.4981108476e+000	-5.1059579209e-001
 3.3828418967e+000	 3.5356851293e+000	-5.0595532514e-001
 3.3435937694e+000	 3.5728236691e+000	-4.9429465838e-001
 3.3039452225e+000	 3.6095198739e+000	-4.7961764087e-001
 3.2639037614e+000	 3.6457673173e+000	-4.7241724080e-001
 3.6656360987e+000	 3.2816914546e+000	-4.5788570447e-001
 3.6291911133e+000	 3.3219511345e+000	-4.6936922123e-001
 3.5922949207e+000	 3.3618157590e+000	-4.7904199126e-001
 3.5549539825e+000	 3.4012777815e+000	-4.8883309683e-001
 3.5171749276e+000	 3.4403297974e+000	-4.9759399447e-001
 3.4789645486e+000	 3.4789645486e+000	-5.0398951230e-001
 3.4403297974e+000	 3.5171749276e+000	-5.0670919469e-001
 3.4012777815e+000	 3.5549539825e+000	-5.0448245688e-001
 3.3618157590e+000	 3.5922949207e+000	-4.9609337977e-001
 3.3219511345e+000	 3.6291911133e+000	-4.8115663186e-001
 3.2816914546e+000	 3.6656360987e+000	-4.7095794783e-001
 3.6855046864e+000	 3.2994789744e+000	-4.5272955352e-001
 3.6488621608e+000	 3.3399568709e+000	-4.6246532850e-001
 3.6117659824e+000	 3.3800375708e+000	-4.7205705462e-001
 3.5742226478e+000	 3.4197134865e+000	-4.8193225825e-001
 3.5362388218e+000	 3.4589771734e+000	-4.9092566547e-001
 3.4978213337e+000	 3.4978213337e+000	-4.9787729146e-001
 3.4589771734e+000	 3.5362388218e+000	-5.0164803059e-001
 3.4197134865e+000	 3.5742226478e+000	-5.0113500361e-001
 3.3800375708e+000	 3.6117659824e+000	-4.9528653740e-001
 3.3399568709e+000	 3.6488621608e+000	-4.8311665665e-001
 3.2994789744e+000	 3.6855046864e+000	-4.6973573224e-001
 3.7053730457e+000	 3.3172662896e+000	-4.4819890754e-001
 3.6685329821e+000	 3.3579624003e+000	-4.5679744382e-001
 3.6312368202e+000	 3.3982591731e+000	-4.6617152681e-001
 3.5934910915e+000	 3.4381489796e+000	-4.7570200054e-001
 3.5553024967e+000	 3.4776243349e+000	-4.8441560452e-001
 3.5166779020e+000	 3.5166779020e+000	-4.9134015219e-001
 3.4776243349e+000	 3.5553024967e+000	-4.9552030844e-001
 3.4381489796e+000	 3.5934910915e+000	-4.9603312019e-001
 3.3982591731e+000	 3.6312368202e+000	-4.9200317194e-001
 3.3579624003e+000	 3.6685329821e+000	-4.8261724216e-001
 3.3172662896e+000	 3.7053730457e+000	-4.6843093303e-001
 3.7252411416e+000	 3.3350533691e+000	-4.4439703783e-001
 3.6882035428e+000	 3.3759676911e+000	-4.5256507237e-001
 3.6507074000e+000	 3.4164805340e+000	-4.6141344479e-001
 3.6127592798e+000	 3.4565842284e+000	-4.7019284160e-001
 3.5743659190e+000	 3.4962712493e+000	-4.7813455741e-001
 3.5355342204e+000	 3.5355342204e+000	-4.8446656805e-001
 3.4962712493e+000	 3.5743659190e+000	-4.8842948708e-001
 3.4565842284e+000	 3.6127592798e+000	-4.8929227122e-001
 3.4164805340e+000	 3.6507074000e+000	-4.8636754296e-001
 3.3759676911e+000	 3.6882035428e+000	-4.7902640287e-001
 3.3350533691e+000	 3.7252411416e+000	-4.6671260875e-001
 3.1571757036e+000	 3.5265525078e+000	-5.0389338277e-001
 3.1180650113e+000	 3.5611796998e+000	-5.0430150580e-001
 3.0785890587e+000	 3.5953607382e+000	-5.0681800611e-001
 3.0387554936e+000	 3.6290899118e+000	-5.1044865375e-001
 2.9985720814e+000	 3.6623616842e+000	-5.1429614255e-001
 2.9580467000e+000	 3.6951706969e+000	-5.1760795240e-001
 2.9171873346e+000	 3.7275117717e+000	-5.1981984384e-001
 2.8760020728e+000	 3.7593799139e+000	-5.2059468713e-001
 2.8344990990e+000	 3.7907703142e+000	-5.1985637592e-001
 2.7926866895e+000	 3.8216783512e+000	-5.1781862388e-001
 2.7505732069e+000	 3.8520995936e+000	-5.1500849274e-001
 3.1749637836e+000	 3.5464217214e+000	-4.9440276530e-001
 3.1356327349e+000	 3.5812440090e+000	-4.9538010826e-001
 3.0959343678e+000	 3.6156176293e+000	-4.9858883570e-001
 3.0558763735e+000	 3.6495368390e+000	-5.0292938158e-001
 3.0154665609e+000	 3.6829960704e+000	-5.0741372843e-001
 2.9747128524e+000	 3.7159899348e+000	-5.1121495892e-001
 2.9336232782e+000	 3.7485132249e+000	-5.1371222697e-001
 2.8922059714e+000	 3.7805609178e+000	-5.1453084161e-001
 2.8504691626e+000	 3.8121281771e+000	-5.1357720600e-001
 2.8084211747e+000	 3.8432103554e+000	-5.1106840485e-001
 2.7660704174e+000	 3.8738029964e+000	-5.0755628524e-001
 3.1927518770e+000	 3.5662909498e+000	-4.8700739900e-001
 3.1532004716e+000	 3.6013083333e+000	-4.8817382972e-001
 3.1132796900e+000	 3.6358745357e+000	-4.9178179223e-001
 3.0729972662e+000	 3.6699837815e+000	-4.9660699534e-001
 3.0323610531e+000	 3.7036304721e+000	-5.0155273073e-001
 2.9913790173e+000	 3.7368091883e+000	-5.0570118951e-001
 2.9500592341e+000	 3.7695146939e+000	-5.0835997648e-001
 2.9084098822e+000	 3.8017419376e+000	-5.0910350576e-001
 2.8664392382e+000	 3.8334860560e+000	-5.0780901279e-001
 2.8241556717e+000	 3.8647423757e+000	-5.0468697030e-001
 2.7815676394e+000	 3.8955064154e+000	-5.0030574972e-001
 3.2105399526e+000	 3.5861601584e+000	-4.8141659125e-001
 3.1707681908e+000	 3.6213726375e+000	-4.8239395662e-001
 3.1306249948e+000	 3.6561314218e+000	-4.8611488709e-001
 3.0901181418e+000	 3.6904307036e+000	-4.9121121639e-001
 3.0492555284e+000	 3.7242648531e+000	-4.9645982948e-001
 3.0080451656e+000	 3.7576284210e+000	-5.0083582040e-001
 2.9664951736e+000	 3.7905161418e+000	-5.0356061667e-001
 2.9246137768e+000	 3.8229229361e+000	-5.0414474412e-001
 2.8824092978e+000	 3.8548439135e+000	-5.0242495946e-001
 2.8398901530e+000	 3.8862743745e+000	-4.9859553237e-001
 2.7970648460e+000	 3.9172098127e+000	-4.9323351506e-001
 3.2283279793e+000	 3.6060293124e+000	-4.7732887220e-001
 3.1883358617e+000	 3.6414368865e+000	-4.7774107831e-001
 3.1479702519e+000	 3.6763882522e+000	-4.8129523183e-001
 3.1072389703e+000	 3.7108775695e+000	-4.8646037115e-001
 3.0661499572e+000	 3.7448991774e+000	-4.9186951368e-001
 3.0247112680e+000	 3.7784475965e+000	-4.9637473195e-001
 2.9829310679e+000	 3.8115175320e+000	-4.9909695571e-001
 2.9408176268e+000	 3.8441038765e+000	-4.9947016365e-001
 2.8983793136e+000	 3.8762017123e+000	-4.9727968407e-001
 2.8556245910e+000	 3.9078063141e+000	-4.9269438062e-001
 2.8125620100e+000	 3.9389131504e+000	-4.8629255716e-001
 3.2461159260e+000	 3.6258983769e+000	-4.7443437979e-001
 3.2059034535e+000	 3.6615010452e+000	-4.7390748573e-001
 3.1653154310e+000	 3.6966449914e+000	-4.7702145165e-001
 3.1243597218e+000	 3.7313243434e+000	-4.8206382070e-001
 3.0830443100e+000	 3.7655334089e+000	-4.8750652845e-001
 3.0413772954e+000	 3.7992666783e+000	-4.9206297516e-001
 2.9993668883e+000	 3.8325188277e+000	-4.9473957340e-001
 2.9570214039e+000	 3.8652847215e+000	-4.9488142464e-001
 2.9143492574e+000	 3.8975594150e+000	-4.9221183584e-001
 2.8713589582e+000	 3.9293381567e+000	-4.8686544601e-001
 2.8280591043e+000	 3.9606163904e+000	-4.7941479328e-001
 3.2639037614e+000	 3.6457673173e+000	-4.7241724080e-001
 3.2234709355e+000	 3.6815650786e+000	-4.7057956590e-001
 3.1826605016e+000	 3.7169016041e+000	-4.7298609447e-001
 3.1414803662e+000	 3.7517709895e+000	-4.7772438559e-001
 3.0999385572e+000	 3.7861675114e+000	-4.8308831714e-001
 3.0580432187e+000	 3.8200856300e+000	-4.8763723248e-001
 3.0158026059e+000	 3.8535199921e+000	-4.9024930228e-001
 2.9732250798e+000	 3.8864654342e+000	-4.9016874416e-001
 2.9303191015e+000	 3.9189169843e+000	-4.8704660292e-001
 2.8870932270e+000	 3.9508698649e+000	-4.8097485522e-001
 2.8435561017e+000	 3.9823194948e+000	-4.7251366519e-001
 3.2816914546e+000	 3.6656360987e+000	-4.7095794783e-001
 3.2410382770e+000	 3.7016289514e+000	-4.6744019232e-001
 3.2000054335e+000	 3.7371580547e+000	-4.6887803562e-001
 3.1586008738e+000	 3.7722174720e+000	-4.7314076609e-001
 3.1168326693e+000	 3.8068014488e+000	-4.7832745818e-001
 3.0747090086e+000	 3.8409044151e+000	-4.8282827283e-001
 3.0322381921e+000	 3.8745209886e+000	-4.8537970244e-001
 2.9894286260e+000	 3.9076459774e+000	-4.8511339222e-001
 2.9462888178e+000	 3.9402743827e+000	-4.8159823187e-001
 2.9028273700e+000	 3.9724014008e+000	-4.7487547543e-001
 2.8590529751e+000	 4.0040224255e+000	-4.6549711151e-001
 3.2994789744e+000	 3.6855046864e+000	-4.6973573224e-001
 3.2586054472e+000	 3.7216926286e+000	-4.6417111117e-001
 3.2173501963e+000	 3.7574143078e+000	-4.6438487829e-001
 3.1757212144e+000	 3.7926637552e+000	-4.6800995773e-001
 3.1337266166e+000	 3.8274351851e+000	-4.7293409699e-001
 3.0913746361e+000	 3.8617229972e+000	-4.7736340102e-001
 3.0486736180e+000	 3.8955217803e+000	-4.7987952992e-001
 3.0056320142e+000	 3.9288263141e+000	-4.7949018079e-001
 2.9622583784e+000	 3.9616315728e+000	-4.7567253899e-001
 2.9185613596e+000	 3.9939327267e+000	-4.6840944988e-001
 2.8745496975e+000	 4.0257251447e+000	-4.5858769600e-001
 3.3172662896e+000	 3.7053730457e+000	-4.6843093303e-001
 3.2761724154e+000	 3.7417560751e+000	-4.6045532349e-001
 3.2346947597e+000	 3.7776703279e+000	-4.5919534961e-001
 3.1928413581e+000	 3.8131098033e+000	-4.6202966222e-001
 3.1506203697e+000	 3.8480686841e+000	-4.6661837274e-001
 3.1080400719e+000	 3.8825413400e+000	-4.7096890160e-001
 3.0651088549e+000	 3.9165223304e+000	-4.7349519884e-001
 3.0218352162e+000	 3.9500064073e+000	-4.7306994573e-001
 2.9782277553e+000	 3.9829885173e+000	-4.6906941360e-001
 2.9342951683e+000	 4.0154638050e+000	-4.6154677763e-001
 2.8900462416e+000	 4.0474276143e+000	-4.5166791150e-001
 3.3350533691e+000	 3.7252411416e+000	-4.6671260875e-001
 3.2937391508e+000	 3.7618192558e+000	-4.5597946317e-001
 3.2520390932e+000	 3.7979260797e+000	-4.5300169245e-001
 3.2099612749e+000	 3.8335555804e+000	-4.5490069386e-001
 3.1675138990e+000	 3.8687019096e+000	-4.5909284021e-001
 3.1247052869e+000	 3.9033594069e+000	-4.6337247716e-001
 3.0815438740e+000	 3.9375226023e+000	-4.6597323743e-001
 3.0380382034e+000	 3.9711862198e+000	-4.6562202179e-001
 2.9941969207e+000	 4.0043451789e+000	-4.6159596926e-001
 2.9500287685e+000	 4.0369945981e+000	-4.5440207165e-001
 2.9055425804e+000	 4.0691297963e+000	-4.4443060016e-001
 2.7505732069e+000	 3.8520995936e+000	-5.1500849274e-001
 2.7081670937e+000	 3.8820298008e+000	-5.0897913125e-001
 2.6654768645e+000	 3.9114649214e+000	-4.9657517337e-001
 2.6225111028e+000	 3.9404010980e+000	-4.7851468598e-001
 2.5792784569e+000	 3.9688346697e+000	-4.5654391780e-001
 2.5357876342e+000	 3.9967621731e+000	-4.3235372565e-001
 2.4920473954e+000	 4.0241803434e+000	-4.0819920846e-001
 2.4480665494e+000	 4.0510861151e+000	-3.8590819080e-001
 2.4038539472e+000	 4.0774766229e+000	-3.6613959428e-001
 2.3594184767e+000	 4.1033492018e+000	-3.4940815947e-001
 2.3147690567e+000	 4.1287013875e+000	-3.3610074575e-001
 2.7660704174e+000	 3.8738029964e+000	-5.0755628524e-001
 2.7234253807e+000	 3.9039018356e+000	-5.0097689894e-001
 2.6804946273e+000	 3.9335027988e+000	-4.8853328946e-001
 2.6372867889e+000	 3.9626020069e+000	-4.7063199218e-001
 2.5938105628e+000	 3.9911957783e+000	-4.4931436286e-001
 2.5500747052e+000	 4.0192806301e+000	-4.2663444415e-001
 2.5060880263e+000	 4.0468532792e+000	-4.0468399152e-001
 2.4618593845e+000	 4.0739106427e+000	-3.8419433213e-001
 2.4173976808e+000	 4.1004498393e+000	-3.6569468943e-001
 2.3727118530e+000	 4.1264681888e+000	-3.4958849581e-001
 2.3278108704e+000	 4.1519632131e+000	-3.3616067561e-001
 2.7815676394e+000	 3.8955064154e+000	-5.0030574972e-001
 2.7386836792e+000	 3.9257738867e+000	-4.9301470743e-001
 2.6955124013e+000	 3.9555406927e+000	-4.8044109218e-001
 2.6520624862e+000	 3.9848029324e+000	-4.6280567874e-001
 2.6083426796e+000	 4.0135569037e+000	-4.4235573545e-001
 2.5643617869e+000	 4.0417991041e+000	-4.2167068400e-001
 2.5201286676e+000	 4.0695262320e+000	-4.0164959305e-001
 2.4756522299e+000	 4.0967351875e+000	-3.8285204105e-001
 2.4309414244e+000	 4.1234230729e+000	-3.6571144124e-001
 2.3860052393e+000	 4.1495871931e+000	-3.5054239372e-001
 2.3408526939e+000	 4.1752250562e+000	-3.3754822899e-001
 2.7970648460e+000	 3.9172098127e+000	-4.9323351506e-001
 2.7539419624e+000	 3.9476459161e+000	-4.8511734736e-001
 2.7105301604e+000	 3.9775785646e+000	-4.7234875246e-001
 2.6668381687e+000	 4.0070038358e+000	-4.5520078368e-001
 2.6228747818e+000	 4.0359180067e+000	-4.3607920826e-001
 2.5786488543e+000	 4.0643175555e+000	-4.1699756333e-001
 2.5341692950e+000	 4.0921991621e+000	-3.9856801644e-001
 2.4894450615e+000	 4.1195597094e+000	-3.8127381415e-001
 2.4444851546e+000	 4.1463962835e+000	-3.6547666995e-001
 2.3992986122e+000	 4.1727061744e+000	-3.5142437027e-001
 2.3538945043e+000	 4.1984868760e+000	-3.3925856237e-001
 2.8125620100e+000	 3.9389131504e+000	-4.8629255716e-001
 2.7692002036e+000	 3.9695178853e+000	-4.7728322340e-001
 2.7255478781e+000	 3.9996163759e+000	-4.6427804807e-001
 2.6816138106e+000	 4.0292046781e+000	-4.4816359519e-001
 2.6374068441e+000	 4.0582790482e+000	-4.3013798947e-001
 2.5929358824e+000	 4.0868359450e+000	-4.1217097234e-001
 2.5482098837e+000	 4.1148720299e+000	-3.9494239750e-001
 2.5032378552e+000	 4.1423841686e+000	-3.7888486199e-001
 2.4580288475e+000	 4.1693694310e+000	-3.6431201549e-001
 2.4125919487e+000	 4.1958250920e+000	-3.5142640034e-001
 2.3669362788e+000	 4.2217486319e+000	-3.4032746815e-001
 2.8280591043e+000	 3.9606163904e+000	-4.7941479328e-001
 2.7844583762e+000	 3.9913897560e+000	-4.6948697240e-001
 2.7405655283e+000	 4.0216540881e+000	-4.5651085243e-001
 2.6963893859e+000	 4.0514054205e+000	-4.4137232697e-001
 2.6519388410e+000	 4.0806399892e+000	-4.2414559745e-001
 2.6072228463e+000	 4.1093542332e+000	-4.0677689898e-001
 2.5622504092e+000	 4.1375447957e+000	-3.9030701449e-001
 2.5170305868e+000	 4.1652085251e+000	-3.7514308349e-001
 2.4715724794e+000	 4.1923424751e+000	-3.6157386177e-001
 2.4258852253e+000	 4.2189439057e+000	-3.4977777618e-001
 2.3799779947e+000	 4.2450102831e+000	-3.3983115461e-001
 2.8435561017e+000	 3.9823194948e+000	-4.7251366519e-001
 2.7997164535e+000	 4.0132614901e+000	-4.6179346848e-001
 2.7555830846e+000	 4.0436916625e+000	-4.4909668007e-001
 2.7111648690e+000	 4.0736060241e+000	-4.3444078927e-001
 2.6664707471e+000	 4.1030007903e+000	-4.1774511961e-001
 2.6215097208e+000	 4.1318723806e+000	-4.0043144552e-001
 2.5762908470e+000	 4.1602174198e+000	-3.8422728402e-001
 2.5308232322e+000	 4.1880327389e+000	-3.6953902743e-001
 2.4851160267e+000	 4.2153153756e+000	-3.5665324997e-001
 2.4391784189e+000	 4.2420625748e+000	-3.4574495830e-001
 2.3930196291e+000	 4.2682717890e+000	-3.3688601997e-001
 2.8590529751e+000	 4.0040224255e+000	-4.6549711151e-001
 2.8149744086e+000	 4.0351330492e+000	-4.5446043585e-001
 2.7706005208e+000	 4.0657290606e+000	-4.4168328031e-001
 2.7259402338e+000	 4.0958064502e+000	-4.2702496206e-001
 2.6810025370e+000	 4.1253614126e+000	-4.1047319362e-001
 2.6357964811e+000	 4.1543903479e+000	-3.9278083062e-001
 2.5903311725e+000	 4.1828898625e+000	-3.7629974320e-001
 2.5446157673e+000	 4.2108567701e+000	-3.6159584169e-001
 2.4986594657e+000	 4.2382880923e+000	-3.4897578138e-001
 2.4524715061e+000	 4.2651810590e+000	-3.3863141815e-001
 2.4060611591e+000	 4.2915331087e+000	-3.3064842108e-001
 2.8745496975e+000	 4.0257251447e+000	-4.5858769600e-001
 2.8302322150e+000	 4.0570043951e+000	-4.4720293491e-001
 2.7856178106e+000	 4.0877662438e+000	-4.3395953934e-001
 2.7407154546e+000	 4.1180066598e+000	-4.1882192441e-001
 2.6955341851e+000	 4.1477218169e+000	-4.0187716210e-001
 2.6500831021e+000	 4.1769080956e+000	-3.8350137732e-001
 2.6043713611e+000	 4.2055620842e+000	-3.6615201875e-001
 2.5584081679e+000	 4.2336805788e+000	-3.5086921057e-001
 2.5122027726e+000	 4.2612605851e+000	-3.3800150996e-001
 2.4657644637e+000	 4.2882993178e+000	-3.2777747277e-001
 2.4191025620e+000	 4.3147942016e+000	-3.2031443657e-001
 2.8900462416e+000	 4.0474276143e+000	-4.5166791150e-001
 2.8454898460e+000	 4.0788754894e+000	-4.3972153125e-001
 2.8006349276e+000	 4.1098031737e+000	-4.2565447541e-001
 2.7554905054e+000	 4.1402066141e+000	-4.0956876981e-001
 2.7100656662e+000	 4.1700819640e+000	-3.9168124565e-001
 2.6643695588e+000	 4.1994255844e+000	-3.7229948755e-001
 2.6184113882e+000	 4.2282340451e+000	-3.5344278327e-001
 2.5722004099e+000	 4.2565041250e+000	-3.3694728062e-001
 2.5257459238e+000	 4.2842328136e+000	-3.2322482510e-001
 2.4790572684e+000	 4.3114173107e+000	-3.1256011173e-001
 2.4321438149e+000	 4.3380550271e+000	-3.0511962490e-001
 2.9055425804e+000	 4.0691297963e+000	-4.4443060016e-001
 2.8607472748e+000	 4.1007462939e+000	-4.3175634732e-001
 2.8156518457e+000	 4.1318398115e+000	-4.1653611158e-001
 2.7702653605e+000	 4.1624062742e+000	-3.9904150770e-001
 2.7245969547e+000	 4.1924418148e+000	-3.7964899688e-001
 2.6786558262e+000	 4.2219427749e+000	-3.5881122650e-001
 2.6324512293e+000	 4.2509057056e+000	-3.3786169931e-001
 2.5859924692e+000	 4.2793273689e+000	-3.1945057536e-001
 2.5392888956e+000	 4.3072047378e+000	-3.0417432495e-001
 2.4923498970e+000	 4.3345349974e+000	-2.9239281648e-001
 2.4451848950e+000	 4.3613155443e+000	-2.8433877731e-001
 2.3147690567e+000	 4.1287013875e+000	-3.3610074575e-001
 2.2699213753e+000	 4.1535272320e+000	-3.2538749533e-001
 2.2248777138e+000	 4.1778285178e+000	-3.1643903559e-001
 2.1796470501e+000	 4.2016033865e+000	-3.0949589945e-001
 2.1342383709e+000	 4.2248501796e+000	-3.0472330778e-001
 2.0886606667e+000	 4.2475674374e+000	-3.0221803120e-001
 2.0429229261e+000	 4.2697538987e+000	-3.0201519362e-001
 1.9970341310e+000	 4.2914084996e+000	-3.0406706504e-001
 1.9510032508e+000	 4.3125303724e+000	-3.0136374892e-001
 1.9048392375e+000	 4.3331188442e+000	-2.9036657585e-001
 1.8585510208e+000	 4.3531734355e+000	-2.7345526959e-001
 2.3278108704e+000	 4.1519632131e+000	-3.3616067561e-001
 2.2827105093e+000	 4.1769289308e+000	-3.2461253506e-001
 2.2374130640e+000	 4.2013671343e+000	-3.1425194877e-001
 2.1919275628e+000	 4.2252759548e+000	-3.0537978319e-001
 2.1462630431e+000	 4.2486537243e+000	-2.9821598992e-001
 2.1004285461e+000	 4.2714989751e+000	-2.9290659889e-001
 2.0544331112e+000	 4.2938104388e+000	-2.8953065634e-001
 2.0082857706e+000	 4.3155870456e+000	-2.8810706892e-001
 1.9619955443e+000	 4.3368279227e+000	-2.8478581869e-001
 1.9155714349e+000	 4.3575323935e+000	-2.7364779978e-001
 1.8690224222e+000	 4.3776999759e+000	-2.5683072087e-001
 2.3408526939e+000	 4.1752250562e+000	-3.3754822899e-001
 2.2954996529e+000	 4.2003306471e+000	-3.2589591335e-001
 2.2499484235e+000	 4.2249057684e+000	-3.1492364736e-001
 2.2042080846e+000	 4.2489485408e+000	-3.0495137335e-001
 2.1582877244e+000	 4.2724572869e+000	-2.9621580100e-001
 2.1121964344e+000	 4.2954305308e+000	-2.8887756236e-001
 2.0659433048e+000	 4.3178669970e+000	-2.8302830813e-001
 2.0195374185e+000	 4.3397656097e+000	-2.7869770537e-001
 1.9729878461e+000	 4.3611254912e+000	-2.7412729119e-001
 1.9263036403e+000	 4.3819459612e+000	-2.6265344773e-001
 1.8794938316e+000	 4.4022265347e+000	-2.4555588205e-001
 2.3538945043e+000	 4.1984868760e+000	-3.3925856237e-001
 2.3082887837e+000	 4.2237323400e+000	-3.2807594754e-001
 2.2624837705e+000	 4.2484443790e+000	-3.1716829897e-001
 2.2164885942e+000	 4.2726211032e+000	-3.0683390278e-001
 2.1703123936e+000	 4.2962608257e+000	-2.9728874614e-001
 2.1239643109e+000	 4.3193620626e+000	-2.8867386432e-001
 2.0774534870e+000	 4.3419235312e+000	-2.8106261955e-001
 2.0307890552e+000	 4.3639441496e+000	-2.7446787026e-001
 1.9839801368e+000	 4.3854230354e+000	-2.6830337762e-001
 1.9370358350e+000	 4.4063595044e+000	-2.5645303410e-001
 1.8899652304e+000	 4.4267530690e+000	-2.3889070746e-001
 2.3669362788e+000	 4.2217486319e+000	-3.4032746815e-001
 2.3210778793e+000	 4.2471339687e+000	-3.3003465528e-001
 2.2750190830e+000	 4.2719829249e+000	-3.1974605474e-001
 2.2287690700e+000	 4.2962936004e+000	-3.0969807605e-001
 2.1823370297e+000	 4.3200642991e+000	-3.0004898201e-001
 2.1357321551e+000	 4.3432935286e+000	-2.9088645833e-001
 2.0889636375e+000	 4.3659799992e+000	-2.8223509929e-001
 2.0420406610e+000	 4.3881226230e+000	-2.7406376657e-001
 1.9949723973e+000	 4.4097205128e+000	-2.6624491111e-001
 1.9477680002e+000	 4.4307729805e+000	-2.5412717294e-001
 1.9004366005e+000	 4.4512795359e+000	-2.3610085021e-001
 2.3799779947e+000	 4.2450102831e+000	-3.3983115461e-001
 2.3338669174e+000	 4.2705354920e+000	-3.3069745769e-001
 2.2875543391e+000	 4.2955213649e+000	-3.2146269705e-001
 2.2410494906e+000	 4.3199659911e+000	-3.1226168310e-001
 2.1943616118e+000	 4.3438676654e+000	-3.0315841835e-001
 2.1474999463e+000	 4.3672248869e+000	-2.9415392016e-001
 2.1004737362e+000	 4.3900363589e+000	-2.8519393754e-001
 2.0532922162e+000	 4.4123009877e+000	-2.7617651791e-001
 2.0059646084e+000	 4.4340178809e+000	-2.6695938136e-001
 1.9585001171e+000	 4.4551863468e+000	-2.5476896638e-001
 1.9109079234e+000	 4.4758058924e+000	-2.3645911716e-001
 2.3930196291e+000	 4.2682717890e+000	-3.3688601997e-001
 2.3466558755e+000	 4.2939368690e+000	-3.2903287964e-001
 2.3000895169e+000	 4.3190596578e+000	-3.2116928632e-001
 2.2533298344e+000	 4.3436382339e+000	-3.1328921342e-001
 2.2063861187e+000	 4.3676708828e+000	-3.0532632061e-001
 2.1592676640e+000	 4.3911560956e+000	-2.9716206022e-001
 2.1119837630e+000	 4.4140925684e+000	-2.8863364993e-001
 2.0645437010e+000	 4.4364792012e+000	-2.7954186568e-001
 2.0169567508e+000	 4.4583150972e+000	-2.6965861161e-001
 1.9692321670e+000	 4.4795995605e+000	-2.5748538785e-001
 1.9213791809e+000	 4.5003320956e+000	-2.3924691514e-001
 2.4060611591e+000	 4.2915331087e+000	-3.3064842108e-001
 2.3594447314e+000	 4.3173380589e+000	-3.2405224704e-001
 2.3126245944e+000	 4.3425977623e+000	-3.1776180691e-001
 2.2656100800e+000	 4.3673102874e+000	-3.1159147074e-001
 2.2184105294e+000	 4.3914739099e+000	-3.0530891373e-001
 2.1710352875e+000	 4.4150871129e+000	-2.9864353725e-001
 2.1234936977e+000	 4.4381485853e+000	-2.9129472186e-001
 2.0757950959e+000	 4.4606572214e+000	-2.8293986526e-001
 2.0279488052e+000	 4.4826121190e+000	-2.7324216035e-001
 1.9799641309e+000	 4.5040125789e+000	-2.6139866034e-001
 1.9318503547e+000	 4.5248581026e+000	-2.4375568884e-001
 2.4191025620e+000	 4.3147942016e+000	-3.2031443657e-001
 2.3722334625e+000	 4.3407390206e+000	-3.1480938136e-001
 2.3251595497e+000	 4.3661356374e+000	-3.1018081218e-001
 2.2778902058e+000	 4.3909821100e+000	-3.0602518802e-001
 2.2304348228e+000	 4.4152767049e+000	-3.0190898704e-001
 2.1828027963e+000	 4.4390178969e+000	-2.9737747294e-001
 2.1350035202e+000	 4.4622043678e+000	-2.9196325329e-001
 2.0870463810e+000	 4.4848350058e+000	-2.8519458131e-001
 2.0389407525e+000	 4.5069089040e+000	-2.7660335489e-001
 1.9906959903e+000	 4.5284253593e+000	-2.6564762971e-001
 1.9423214263e+000	 4.5493838705e+000	-2.4928835026e-001
 2.4321438149e+000	 4.3380550271e+000	-3.0511962490e-001
 2.3850220466e+000	 4.3641397131e+000	-3.0040029141e-001
 2.3376943608e+000	 4.3896732418e+000	-2.9741106860e-001
 2.2901701905e+000	 4.4146536604e+000	-2.9549264293e-001
 2.2424589780e+000	 4.4390792262e+000	-2.9397550011e-001
 2.1945701698e+000	 4.4629484056e+000	-2.9218906769e-001
 2.1465132103e+000	 4.4862598736e+000	-2.8947060386e-001
 2.0982975368e+000	 4.5090125121e+000	-2.8517378211e-001
 2.0499325734e+000	 4.5312054096e+000	-2.7867692424e-001
 2.0014277262e+000	 4.5528378589e+000	-2.6939083703e-001
 1.9527923776e+000	 4.5739093563e+000	-2.5516070021e-001
 2.4451848950e+000	 4.3613155443e+000	-2.8433877731e-001
 2.3978104613e+000	 4.3875400957e+000	-2.7996286242e-001
 2.3502290059e+000	 4.4132105343e+000	-2.7848119901e-001
 2.3024500124e+000	 4.4383248971e+000	-2.7894127358e-001
 2.2544829739e+000	 4.4628814320e+000	-2.8040318949e-001
 2.2063373874e+000	 4.4868785973e+000	-2.8194921714e-001
 2.1580227479e+000	 4.5103150606e+000	-2.8269303830e-001
 2.1095485434e+000	 4.5331896981e+000	-2.8178863299e-001
 2.0609242486e+000	 4.5555015932e+000	-2.7843875985e-001
 2.0121593200e+000	 4.5772500350e+000	-2.7190298427e-001
 1.9632631901e+000	 4.5984345172e+000	-2.6070284197e-001
 1.8585510208e+000	 4.3531734355e+000	-2.7345526959e-001
 1.8121405334e+000	 4.3726967475e+000	-2.5317270898e-001
 1.7656235858e+000	 4.3916856366e+000	-2.3139858351e-001
 1.7190090161e+000	 4.4101401969e+000	-2.0902166097e-001
 1.6723056206e+000	 4.4280607082e+000	-1.8669189954e-001
 1.6255221485e+000	 4.4454476346e+000	-1.6485257070e-001
 1.5786672978e+000	 4.4623016217e+000	-1.4376988276e-001
 1.5317497104e+000	 4.4786234942e+000	-1.2356019001e-001
 1.4847779682e+000	 4.4944142536e+000	-1.0421488033e-001
 1.4377605886e+000	 4.5096750751e+000	-8.5623039958e-002
 1.3907060206e+000	 4.5244073051e+000	-6.7591999081e-002
 1.8690224222e+000	 4.3776999759e+000	-2.5683072087e-001
 1.8223504501e+000	 4.3973332856e+000	-2.3700081268e-001
 1.7755714178e+000	 4.4164291615e+000	-2.1611554552e-001
 1.7286942135e+000	 4.4349876980e+000	-1.9495986421e-001
 1.6817276829e+000	 4.4530091766e+000	-1.7409339769e-001
 1.6346806246e+000	 4.4704940640e+000	-1.5388265044e-001
 1.5875617854e+000	 4.4874430094e+000	-1.3453061621e-001
 1.5403798561e+000	 4.5038568422e+000	-1.1610390651e-001
 1.4931434669e+000	 4.5197365695e+000	-9.8557493813e-002
 1.4458611832e+000	 4.5350833731e+000	-8.1757175922e-002
 1.3985415015e+000	 4.5498986071e+000	-6.5499871702e-002
 1.8794938316e+000	 4.4022265347e+000	-2.4555588205e-001
 1.8325603744e+000	 4.4219698423e+000	-2.2567664326e-001
 1.7855192573e+000	 4.4411727050e+000	-2.0514124304e-001
 1.7383794182e+000	 4.4598352177e+000	-1.8466698990e-001
 1.6911497523e+000	 4.4779576637e+000	-1.6475523072e-001
 1.6438391075e+000	 4.4955405122e+000	-1.4572360012e-001
 1.5964562797e+000	 4.5125844159e+000	-1.2773562041e-001
 1.5490100083e+000	 4.5290902091e+000	-1.1082775206e-001
 1.5015089719e+000	 4.5450589044e+000	-9.4934002407e-002
 1.4539617839e+000	 4.5604916902e+000	-7.9908205873e-002
 1.4063769883e+000	 4.5753899282e+000	-6.5544093496e-002
 1.8899652304e+000	 4.4267530690e+000	-2.3889070746e-001
 1.8427702886e+000	 4.4466063743e+000	-2.1864267040e-001
 1.7954670869e+000	 4.4659162237e+000	-1.9804811622e-001
 1.7480646132e+000	 4.4846827126e+000	-1.7779263453e-001
 1.7005718123e+000	 4.5029061259e+000	-1.5835112297e-001
 1.6529975813e+000	 4.5205869353e+000	-1.4002008210e-001
 1.6053507651e+000	 4.5377257974e+000	-1.2294719590e-001
 1.5576401519e+000	 4.5543235508e+000	-1.0715830533e-001
 1.5098744685e+000	 4.5703812139e+000	-9.2581890292e-002
 1.4620623764e+000	 4.5858999819e+000	-7.9071180578e-002
 1.4142124673e+000	 4.6008812238e+000	-6.6424020796e-002
 1.9004366005e+000	 4.4512795359e+000	-2.3610085021e-001
 1.8529801746e+000	 4.4712428386e+000	-2.1534176504e-001
 1.8054148891e+000	 4.4906596744e+000	-1.9440480770e-001
 1.7577497816e+000	 4.5095301392e+000	-1.7397951506e-001
 1.7099938463e+000	 4.5278545195e+000	-1.5454597062e-001
 1.6621560298e+000	 4.5456332896e+000	-1.3640713092e-001
 1.6142452261e+000	 4.5628671097e+000	-1.1971837908e-001
 1.5662702718e+000	 4.5795568231e+000	-1.0451442086e-001
 1.5182399422e+000	 4.5957034539e+000	-9.0733645843e-002
 1.4701629467e+000	 4.6113082037e+000	-7.8240082138e-002
 1.4220479247e+000	 4.6263724493e+000	-6.6843076556e-002
 1.9109079234e+000	 4.4758058924e+000	-2.3645911716e-001
 1.8631900147e+000	 4.4958791920e+000	-2.1521871686e-001
 1.8153626466e+000	 4.5154030137e+000	-1.9377771164e-001
 1.7674349064e+000	 4.5343774540e+000	-1.7286501822e-001
 1.7194158380e+000	 4.5528028008e+000	-1.5299735998e-001
 1.6713144372e+000	 4.5706795311e+000	-1.3451160908e-001
 1.6231396470e+000	 4.5880083088e+000	-1.1759430399e-001
 1.5749003528e+000	 4.6047899819e+000	-1.0230846533e-001
 1.5266053782e+000	 4.6210255799e+000	-8.8617840755e-002
 1.4782634806e+000	 4.6367163112e+000	-7.6408714422e-002
 1.4298833469e+000	 4.6518635601e+000	-6.5509420540e-002
 1.9213791809e+000	 4.5003320956e+000	-2.3924691514e-001
 1.8733997910e+000	 4.5205153914e+000	-2.1772173961e-001
 1.8253103419e+000	 4.5401461984e+000	-1.9573250805e-001
 1.7771199706e+000	 4.5592246135e+000	-1.7408273366e-001
 1.7288377708e+000	 4.5777509262e+000	-1.5335706909e-001
 1.6804727874e+000	 4.5957256162e+000	-1.3395364685e-001
 1.6320340123e+000	 4.6131493509e+000	-1.1611354969e-001
 1.5835303799e+000	 4.6300229829e+000	-9.9947542069e-002
 1.5349707619e+000	 4.6463475476e+000	-8.5460201094e-002
 1.4863639638e+000	 4.6621242599e+000	-7.2571590132e-002
 1.4377187201e+000	 4.6773545116e+000	-6.1272136894e-002
 1.9318503547e+000	 4.5248581026e+000	-2.4375568884e-001
 1.8836094856e+000	 4.5451513938e+000	-2.2230396461e-001
 1.8352579576e+000	 4.5648891852e+000	-1.9983568291e-001
 1.7868049574e+000	 4.5840715742e+000	-1.7726397150e-001
 1.7382596282e+000	 4.6026988520e+000	-1.5527255345e-001
 1.6896310642e+000	 4.6207715009e+000	-1.3434806654e-001
 1.6409283065e+000	 4.6382901918e+000	-1.1480947374e-001
 1.5921603379e+000	 4.6552557821e+000	-9.6834704143e-002
 1.5433360787e+000	 4.6716693128e+000	-8.0509086305e-002
 1.4944643822e+000	 4.6875320053e+000	-6.6261885978e-002
 1.4455540306e+000	 4.7028452592e+000	-5.4400123431e-002
 1.9423214263e+000	 4.5493838705e+000	-2.4928835026e-001
 1.8938190807e+000	 4.5697871560e+000	-2.2842492275e-001
 1.8452054763e+000	 4.5896319307e+000	-2.0565603455e-001
 1.7964898498e+000	 4.6089182927e+000	-1.8203926478e-001
 1.7476813937e+000	 4.6276465346e+000	-1.5838841609e-001
 1.6987892518e+000	 4.6458171413e+000	-1.3530579188e-001
 1.6498225140e+000	 4.6634307876e+000	-1.1321153227e-001
 1.6007902118e+000	 4.6804883353e+000	-9.2566466449e-002
 1.5517013139e+000	 4.6969908311e+000	-7.4086504698e-002
 1.5025647216e+000	 4.7129395030e+000	-5.8143851732e-002
 1.4533892647e+000	 4.7283357583e+000	-4.4990578462e-002
 1.9527923776e+000	 4.5739093563e+000	-2.5516070021e-001
 1.9040285584e+000	 4.5944226349e+000	-2.3555201543e-001
 1.8551528806e+000	 4.6143743917e+000	-2.1276616672e-001
 1.8061746307e+000	 4.6337647254e+000	-1.8803985735e-001
 1.7571030509e+000	 4.6525939303e+000	-1.6234786279e-001
 1.7079473341e+000	 4.6708624938e+000	-1.3644979955e-001
 1.6587166192e+000	 4.6885710943e+000	-1.1135888511e-001
 1.6094199865e+000	 4.7057205984e+000	-8.7950429846e-002
 1.5600664530e+000	 4.7223120582e+000	-6.6809352650e-002
 1.5106649679e+000	 4.7383467086e+000	-4.8371040164e-002
 1.4612244087e+000	 4.7538259642e+000	-3.2937216987e-002
 1.9632631901e+000	 4.5984345172e+000	-2.6070284197e-001
 1.9142379008e+000	 4.6190577873e+000	-2.4316197458e-001
 1.8651001532e+000	 4.6391165248e+000	-2.2074396872e-001
 1.8158592834e+000	 4.6586108290e+000	-1.9489917749e-001
 1.7665245833e+000	 4.6775409954e+000	-1.6689701239e-001
 1.7171052950e+000	 4.6959075144e+000	-1.3828467384e-001
 1.6676106065e+000	 4.7137110679e+000	-1.1020405706e-001
 1.6180496468e+000	 4.7309525271e+000	-8.3541267461e-002
 1.5684314812e+000	 4.7476329498e+000	-5.8989127291e-002
 1.5187651069e+000	 4.7637535775e+000	-3.7064878766e-002
 1.4690594489e+000	 4.7793158324e+000	-1.8126242145e-002
 1.3907060206e+000	 4.5244073051e+000	-6.7591999081e-002
 1.3436226398e+000	 4.5386124571e+000	-5.0629124322e-002
 1.2965187431e+000	 4.5522922052e+000	-3.5490935623e-002
 1.2494025464e+000	 4.5654483845e+000	-2.2604538948e-002
 1.2022821825e+000	 4.5780829893e+000	-1.1573124383e-002
 1.1551656968e+000	 4.5901981691e+000	-1.8959572642e-003
 1.1080610447e+000	 4.6017962261e+000	 6.9713641941e-003
 1.0609760877e+000	 4.6128796112e+000	 1.5591328719e-002
 1.0139185908e+000	 4.6234509209e+000	 2.4524358151e-002
 9.6689621935e-001	 4.6335128934e+000	 3.4313161441e-002
 9.1991653610e-001	 4.6430684052e+000	 4.5471548542e-002
 1.3985415015e+000	 4.5498986071e+000	-6.5499871702e-002
 1.3511928448e+000	 4.5641837933e+000	-5.0092513498e-002
 1.3038235564e+000	 4.5779406155e+000	-3.5976219815e-002
 1.2564418989e+000	 4.5911709191e+000	-2.3530723729e-002
 1.2090560505e+000	 4.6038767094e+000	-1.2467313404e-002
 1.1616741024e+000	 4.6160601483e+000	-2.3674837673e-003
 1.1143040544e+000	 4.6277235508e+000	 7.2221442990e-003
 1.0669538126e+000	 4.6388693816e+000	 1.6767339833e-002
 1.0196311855e+000	 4.6495002519e+000	 2.6729063196e-002
 9.7234388174e-001	 4.6596189153e+000	 3.7550621984e-002
 9.2509950674e-001	 4.6692282646e+000	 4.9631512647e-002
 1.4063769883e+000	 4.5753899282e+000	-6.5544093496e-002
 1.3587630554e+000	 4.5897551488e+000	-5.1873411669e-002
 1.3111283752e+000	 4.6035890452e+000	-3.9001021474e-002
 1.2634812566e+000	 4.6168934730e+000	-2.7165696730e-002
 1.2158299237e+000	 4.6296704489e+000	-1.6165197809e-002
 1.1681825128e+000	 4.6419221469e+000	-5.6543687790e-003
 1.1205470688e+000	 4.6536508949e+000	 4.7362819691e-003
 1.0729315419e+000	 4.6648591716e+000	 1.5381408995e-002
 1.0253437844e+000	 4.6755496025e+000	 2.6468322042e-002
 9.7779154822e-001	 4.6857249569e+000	 3.7935940494e-002
 9.3028248127e-001	 4.6953881436e+000	 4.9984334552e-002
 1.4142124673e+000	 4.6008812238e+000	-6.6424020796e-002
 1.3663332584e+000	 4.6153264787e+000	-5.4362892980e-002
 1.3184331867e+000	 4.6292374491e+000	-4.2658067331e-002
 1.2705206073e+000	 4.6426160012e+000	-3.1362617049e-002
 1.2226037901e+000	 4.6554641627e+000	-2.0319166897e-002
 1.1746909167e+000	 4.6677841197e+000	-9.2505251421e-003
 1.1267900770e+000	 4.6795782131e+000	 1.8196707438e-003
 1.0789092652e+000	 4.6908489355e+000	 1.2830958792e-002
 1.0310563777e+000	 4.7015989270e+000	 2.3915364783e-002
 9.8323920925e-001	 4.7118309723e+000	 3.5223606926e-002
 9.3546545062e-001	 4.7215479964e+000	 4.6920906602e-002
 1.4220479247e+000	 4.6263724493e+000	-6.6843076556e-002
 1.3739034406e+000	 4.6408977383e+000	-5.5961555787e-002
 1.3257379781e+000	 4.6548857826e+000	-4.5051223707e-002
 1.2775599386e+000	 4.6683384586e+000	-3.3986234542e-002
 1.2293776378e+000	 4.6812578055e+000	-2.2937260469e-002
 1.1811993028e+000	 4.6936460213e+000	-1.2055632149e-002
 1.1330330679e+000	 4.7055054601e+000	-1.3022938682e-003
 1.0848869721e+000	 4.7168386280e+000	 9.3934750567e-003
 1.0367689552e+000	 4.7276481799e+000	 2.0128942788e-002
 9.8868685530e-001	 4.7379369159e+000	 3.1023064360e-002
 9.4064840571e-001	 4.7477077773e+000	 4.2212249495e-002
 1.4298833469e+000	 4.6518635601e+000	-6.5509420540e-002
 1.3814735888e+000	 4.6664688829e+000	-5.5079965602e-002
 1.3330427367e+000	 4.6805340007e+000	-4.4570133531e-002
 1.2845992382e+000	 4.6940608004e+000	-3.4166252967e-002
 1.2361514551e+000	 4.7070513322e+000	-2.3849500306e-002
 1.1877076595e+000	 4.7195078066e+000	-1.3637300892e-002
 1.1392760308e+000	 4.7314325903e+000	-3.5093126819e-003
 1.0908646521e+000	 4.7428282035e+000	 6.5870864849e-003
 1.0424815070e+000	 4.7536973156e+000	 1.6731667732e-002
 9.9413447684e-001	 4.7640427421e+000	 2.7026506555e-002
 9.4583133749e-001	 4.7738674405e+000	 3.7591745669e-002
 1.4377187201e+000	 4.6773545116e+000	-6.1272136894e-002
 1.3890436896e+000	 4.6920398676e+000	-5.1075214472e-002
 1.3403474496e+000	 4.7061820584e+000	-4.1243314145e-002
 1.2916384939e+000	 4.7197829813e+000	-3.1673702427e-002
 1.2429252300e+000	 4.7328446978e+000	-2.2181185214e-002
 1.1942159756e+000	 4.7453694302e+000	-1.2774532410e-002
 1.1455189547e+000	 4.7573595586e+000	-3.4302151933e-003
 1.0968422947e+000	 4.7688176166e+000	 5.9057829290e-003
 1.0481940231e+000	 4.7797462885e+000	 1.5312844874e-002
 9.9958206434e-001	 4.7901484051e+000	 2.4890918081e-002
 9.5101423687e-001	 4.8000269402e+000	 3.4756309595e-002
 1.4455540306e+000	 4.7028452592e+000	-5.4400123431e-002
 1.3966137299e+000	 4.7176106477e+000	-4.4150743574e-002
 1.3476521041e+000	 4.7318299110e+000	-3.4635524029e-002
 1.2986776933e+000	 4.7455049565e+000	-2.5682834478e-002
 1.2496989508e+000	 4.7586378570e+000	-1.6907186539e-002
 1.2007242396e+000	 4.7712308470e+000	-8.2691978537e-003
 1.1517618286e+000	 4.7832863194e+000	 2.7956164599e-004
 1.1028198895e+000	 4.7948068218e+000	 8.8138286063e-003
 1.0539064935e+000	 4.8057950530e+000	 1.7429558377e-002
 1.0050296083e+000	 4.8162538593e+000	 2.6239192509e-002
 9.5619709479e-001	 4.8261862307e+000	 3.5367522582e-002
 1.4533892647e+000	 4.7283357583e+000	-4.4990578462e-002
 1.4041836964e+000	 4.7431811786e+000	-3.3952117961e-002
 1.3549566873e+000	 4.7574775135e+000	-2.4161940889e-002
 1.3057168240e+000	 4.7712266809e+000	-1.5380794063e-002
 1.2564726055e+000	 4.7844307647e+000	-7.0201222075e-003
 1.2072324402e+000	 4.7970920116e+000	 1.0548264801e-003
 1.1580046417e+000	 4.8092128274e+000	 8.9389166797e-003
 1.1087974261e+000	 4.8207957736e+000	 1.6746768141e-002
 1.0596189083e+000	 4.8318435636e+000	 2.4607724551e-002
 1.0104770991e+000	 4.8423590590e+000	 3.2661257968e-002
 9.6137990218e-001	 4.8523452661e+000	 4.1052733400e-002
 1.4612244087e+000	 4.7538259642e+000	-3.2937216987e-002
 1.4117535758e+000	 4.7687514154e+000	-2.0122335501e-002
 1.3622611866e+000	 4.7831248211e+000	-9.2400995685e-003
 1.3127558737e+000	 4.7969481095e+000	 3.3025875448e-005
 1.2632461823e+000	 4.8102233759e+000	 8.4703938216e-003
 1.2137405659e+000	 4.8229528789e+000	 1.6352500089e-002
 1.1642473830e+000	 4.8351390374e+000	 2.3842000980e-002
 1.1147748939e+000	 4.8467844266e+000	 3.1112403493e-002
 1.0653312573e+000	 4.8578917746e+000	 3.8343114212e-002
 1.0159245272e+000	 4.8684639585e+000	 4.5714962849e-002
 9.6656264996e-001	 4.8785040006e+000	 5.3406125999e-002
 1.4690594489e+000	 4.7793158324e+000	-1.8126242145e-002
 1.4193233549e+000	 4.7943213134e+000	-2.3020720706e-003
 1.3695655890e+000	 4.8087717889e+000	 1.0710088500e-002
 1.3197948302e+000	 4.8226691973e+000	 2.1347613481e-002
 1.2700196694e+000	 4.8360156452e+000	 3.0538482163e-002
 1.2202486053e+000	 4.8488134034e+000	 3.8758436070e-002
 1.1704900415e+000	 4.8610649037e+000	 4.6259108440e-002
 1.1207522825e+000	 4.8727727352e+000	 5.3291742843e-002
 1.0710435306e+000	 4.8839396404e+000	 6.0102345271e-002
 1.0213718832e+000	 4.8945685121e+000	 6.6927354390e-002
 9.7174532908e-001	 4.9046623886e+000	 7.3989755522e-002
 9.1991653610e-001	 4.6430684052e+000	 4.5471548542e-002
 8.7299403196e-001	 4.6521191480e+000	 5.8360700114e-002
 8.2612899476e-001	 4.6606697367e+000	 7.2864098520e-002
 7.7932865067e-001	 4.6687234430e+000	 8.8704487307e-002
 7.3260011383e-001	 4.6762836616e+000	 1.0524407921e-001
 6.8595038414e-001	 4.6833539067e+000	 1.2197076708e-001
 6.3938634528e-001	 4.6899378081e+000	 1.3764718481e-001
 5.9291476285e-001	 4.6960391073e+000	 1.4892285907e-001
 5.4654228262e-001	 4.7016616537e+000	 1.5637530355e-001
 5.0027542892e-001	 4.7068094006e+000	 1.6085516283e-001
 4.5412060315e-001	 4.7114864015e+000	 1.6305142858e-001
 9.2509950674e-001	 4.6692282646e+000	 4.9631512647e-002
 8.7791263301e-001	 4.6783300008e+000	 6.2914046489e-002
 8.3078354999e-001	 4.6869287650e+000	 7.7079928834e-002
 7.8371952458e-001	 4.6950278473e+000	 9.1808547794e-002
 7.3672771099e-001	 4.7026306615e+000	 1.0677671761e-001
 6.8981514856e-001	 4.7097407416e+000	 1.2165604644e-001
 6.4298875977e-001	 4.7163617379e+000	 1.3554329214e-001
 5.9625534832e-001	 4.7224974129e+000	 1.4532767273e-001
 5.4962159742e-001	 4.7281516376e+000	 1.5141527762e-001
 5.0309406817e-001	 4.7333283879e+000	 1.5463733508e-001
 4.5667919805e-001	 4.7380317398e+000	 1.5567446041e-001
 9.3028248127e-001	 4.6953881436e+000	 4.9984334552e-002
 8.8283123775e-001	 4.7045408733e+000	 6.2779243099e-002
 8.3543810871e-001	 4.7131878131e+000	 7.6163297474e-002
 7.8811040178e-001	 4.7213322714e+000	 8.9860491065e-002
 7.4085531125e-001	 4.7289776812e+000	 1.0359736058e-001
 6.9367991589e-001	 4.7361275963e+000	 1.1710024226e-001
 6.4659117696e-001	 4.7427856875e+000	 1.2972547197e-001
 5.9959593629e-001	 4.7489557383e+000	 1.3864795496e-001
 5.5270091453e-001	 4.7546416415e+000	 1.4409530594e-001
 5.0591270954e-001	 4.7598473950e+000	 1.4686746737e-001
 4.5923779486e-001	 4.7645770980e+000	 1.4762343065e-001
 9.3546545062e-001	 4.7215479964e+000	 4.6920906602e-002
 8.8774983756e-001	 4.7307517196e+000	 5.9156314400e-002
 8.4009266278e-001	 4.7394468349e+000	 7.1806500457e-002
 7.9250127459e-001	 4.7476366691e+000	 8.4636786388e-002
 7.4498290738e-001	 4.7553246745e+000	 9.7418286206e-002
 6.9754467935e-001	 4.7625144247e+000	 1.0992510682e-001
 6.5019359054e-001	 4.7692096106e+000	 1.2170990066e-001
 6.0293652092e-001	 4.7754140372e+000	 1.3026186973e-001
 5.5578022856e-001	 4.7811316189e+000	 1.3562947211e-001
 5.0873134809e-001	 4.7863663757e+000	 1.3856993031e-001
 4.6179638912e-001	 4.7911224297e+000	 1.3970781446e-001
 9.4064840571e-001	 4.7477077773e+000	 4.2212249495e-002
 8.9266842386e-001	 4.7569624938e+000	 5.3831129432e-002
 8.4474720405e-001	 4.7657057845e+000	 6.5784203699e-002
 7.9689213533e-001	 4.7739409946e+000	 7.7874934071e-002
 7.4911049215e-001	 4.7816715954e+000	 8.9913971725e-002
 7.0140943218e-001	 4.7889011804e+000	 1.0171635773e-001
 6.5379599422e-001	 4.7956334612e+000	 1.1297792099e-001
 6.0627709636e-001	 4.8018722634e+000	 1.2151561745e-001
 5.5885953413e-001	 4.8076215234e+000	 1.2720334680e-001
 5.1154997889e-001	 4.8128852834e+000	 1.3074461333e-001
 4.6435497634e-001	 4.8176676884e+000	 1.3271721894e-001
 9.4583133749e-001	 4.7738674405e+000	 3.7591745669e-002
 8.9758698802e-001	 4.7831731501e+000	 4.8551271539e-002
 8.4940172438e-001	 4.7919646159e+000	 5.9832733551e-002
 8.0128297631e-001	 4.8002452017e+000	 7.1274631504e-002
 7.5323805836e-001	 4.8080183978e+000	 8.2722215016e-002
 7.0527416762e-001	 4.8152878175e+000	 9.4024739511e-002
 6.5739838170e-001	 4.8220571928e+000	 1.0497708430e-001
 6.0961765677e-001	 4.8283303706e+000	 1.1372438102e-001
 5.6193882583e-001	 4.8341113087e+000	 1.1997482276e-001
 5.1436859701e-001	 4.8394040719e+000	 1.2436763400e-001
 4.6691355205e-001	 4.8442128277e+000	 1.2742195210e-001
 9.5101423687e-001	 4.8000269402e+000	 3.4756309595e-002
 9.0250552144e-001	 4.8093836426e+000	 4.5027210153e-002
 8.5405621561e-001	 4.8182232832e+000	 5.5651235066e-002
 8.0567378985e-001	 4.8265492444e+000	 6.6498902982e-002
 7.5736559877e-001	 4.8343650355e+000	 7.7445221126e-002
 7.0913887891e-001	 4.8416742897e+000	 8.8367052134e-002
 6.6100074665e-001	 4.8484807593e+000	 9.9122161686e-002
 6.1295819631e-001	 4.8547883124e+000	 1.0817324374e-001
 5.6501809830e-001	 4.8606009285e+000	 1.1507492499e-001
 5.1718719751e-001	 4.8659226945e+000	 1.2039202629e-001
 4.6947211177e-001	 4.8707578010e+000	 1.2457357513e-001
 9.5619709479e-001	 4.8261862307e+000	 3.5367522582e-002
 9.0742401552e-001	 4.8355939254e+000	 4.4933436795e-002
 8.5871066962e-001	 4.8444817405e+000	 5.4902794711e-002
 8.1006456827e-001	 4.8528530766e+000	 6.5175194689e-002
 7.6149310617e-001	 4.8607114624e+000	 7.5650655152e-002
 7.1300355928e-001	 4.8680605507e+000	 8.6227147467e-002
 6.6460308279e-001	 4.8749041144e+000	 9.6796125465e-002
 6.1629870912e-001	 4.8812460426e+000	 1.0611808016e-001
 5.6809734613e-001	 4.8870903364e+000	 1.1360859708e-001
 5.2000577547e-001	 4.8924411051e+000	 1.1974840845e-001
 4.7203065102e-001	 4.8973025621e+000	 1.2490543835e-001
 9.6137990218e-001	 4.8523452661e+000	 4.1052733400e-002
 9.1234246164e-001	 4.8618039526e+000	 4.9909566639e-002
 8.6336507824e-001	 4.8707399418e+000	 5.9215528835e-002
 8.1445530387e-001	 4.8791566525e+000	 6.8896436115e-002
 7.6562057332e-001	 4.8870576325e+000	 7.8872662720e-002
 7.1686820198e-001	 4.8944465545e+000	 8.9056895031e-002
 6.6820538381e-001	 4.9013272119e+000	 9.9352094434e-002
 6.1963918937e-001	 4.9077035148e+000	 1.0878642090e-001
 5.7117656394e-001	 4.9135794860e+000	 1.1665546439e-001
 5.2282432595e-001	 4.9189592571e+000	 1.2334563142e-001
 4.7458916533e-001	 4.9238470643e+000	 1.2913320165e-001
 9.6656264996e-001	 4.8785040006e+000	 5.3406125999e-002
 9.1726085120e-001	 4.8880136785e+000	 6.1561406893e-002
 8.6801943334e-001	 4.8969978411e+000	 7.0183639171e-002
 8.1884598899e-001	 4.9054599258e+000	 7.9222069168e-002
 7.6974799300e-001	 4.9134034996e+000	 8.8612859286e-002
 7.2073280023e-001	 4.9208322549e+000	 9.8277118112e-002
 6.7180764341e-001	 4.9277500055e+000	 1.0811915960e-001
 6.2297963120e-001	 4.9341606827e+000	 1.1737829231e-001
 5.7425574634e-001	 4.9400683310e+000	 1.2527057518e-001
 5.2564284401e-001	 4.9454771042e+000	 1.3207140841e-001
 4.7714765022e-001	 4.9503912612e+000	 1.3795533992e-001
 9.7174532908e-001	 4.9046623886e+000	 7.3989755522e-002
 9.2217917559e-001	 4.9142230571e+000	 8.1461993234e-002
 8.7267372677e-001	 4.9232553924e+000	 8.9368436569e-002
 8.2323661592e-001	 4.9317628506e+000	 9.7679046166e-002
 7.7387535800e-001	 4.9397490176e+000	 1.0634128937e-001
 7.2459734727e-001	 4.9472176057e+000	 1.1527850135e-001
 6.7540985527e-001	 4.9541724491e+000	 1.2438849756e-001
 6.2632002876e-001	 4.9606175001e+000	 1.3306703201e-001
 5.7733488795e-001	 4.9665568250e+000	 1.4048512028e-001
 5.2846132473e-001	 4.9719945999e+000	 1.4679292635e-001
 4.7970610120e-001	 4.9769351065e+000	 1.5205363390e-001
 4.5412060315e-001	 4.7114864015e+000	 1.6305142858e-001
 4.0807720153e-001	 4.7156974029e+000	 1.6430071588e-001
 3.6215839011e-001	 4.7194459128e+000	 1.6557655546e-001
 3.1637028919e-001	 4.7227362646e+000	 1.6683152377e-001
 2.7071888863e-001	 4.7255728763e+000	 1.6791922885e-001
 2.2521004697e-001	 4.7279602469e+000	 1.6861207028e-001
 1.7984949071e-001	 4.7299029521e+000	 1.6861757081e-001
 1.3464281379e-001	 4.7314056407e+000	 1.6759342153e-001
 8.9595477031e-002	 4.7324730307e+000	 1.6516137314e-001
 4.4712807855e-002	 4.7331099057e+000	 1.6092009638e-001
 0.0000000000e+000	 4.7333211109e+000	 1.5445712542e-001
 4.5667919805e-001	 4.7380317398e+000	 1.5567446041e-001
 4.1037637985e-001	 4.7422664668e+000	 1.5567428130e-001
 3.6419885381e-001	 4.7460360964e+000	 1.5546682804e-001
 3.1815277473e-001	 4.7493449866e+000	 1.5507894729e-001
 2.7224416619e-001	 4.7521975803e+000	 1.5444726642e-001
 2.2647891975e-001	 4.7545984018e+000	 1.5343520552e-001
 1.8086279419e-001	 4.7565520525e+000	 1.5184857239e-001
 1.3540141494e-001	 4.7580632075e+000	 1.4944988774e-001
 9.0100273615e-002	 4.7591366114e+000	 1.4597157811e-001
 4.4964727633e-002	 4.7597770747e+000	 1.4112816420e-001
 0.0000000000e+000	 4.7599894698e+000	 1.3462756178e-001
 4.5923779486e-001	 4.7645770980e+000	 1.4762343065e-001
 4.1267555989e-001	 4.7688355505e+000	 1.4732050777e-001
 3.6623931904e-001	 4.7726263000e+000	 1.4664823513e-001
 3.1993526160e-001	 4.7759537286e+000	 1.4569983727e-001
 2.7376944490e-001	 4.7788223043e+000	 1.4448635276e-001
 2.2774779349e-001	 4.7812365766e+000	 1.4295289431e-001
 1.8187609843e-001	 4.7832011729e+000	 1.4099350540e-001
 1.3616001667e-001	 4.7847207943e+000	 1.3846476606e-001
 9.0605070578e-002	 4.7858002120e+000	 1.3519829054e-001
 4.5216647599e-002	 4.7864442636e+000	 1.3101224875e-001
 0.0000000000e+000	 4.7866578487e+000	 1.2572203258e-001
 4.6179638912e-001	 4.7911224297e+000	 1.3970781446e-001
 4.1497473763e-001	 4.7954046077e+000	 1.3981459896e-001
 3.6827978224e-001	 4.7992164769e+000	 1.3944809507e-001
 3.2171774669e-001	 4.8025624440e+000	 1.3876030736e-001
 2.7529472208e-001	 4.8054470016e+000	 1.3782837427e-001
 2.2901666596e-001	 4.8078747248e+000	 1.3667007114e-001
 1.8288940166e-001	 4.8098502666e+000	 1.3525792553e-001
 1.3691861764e-001	 4.8113783544e+000	 1.3353210322e-001
 9.1109867036e-002	 4.8124637861e+000	 1.3141221249e-001
 4.5468567315e-002	 4.8131114259e+000	 1.2880816312e-001
 0.0000000000e+000	 4.8133262010e+000	 1.2563020499e-001
 4.6435497634e-001	 4.8176676884e+000	 1.3271721894e-001
 4.1727390906e-001	 4.8219735919e+000	 1.3371696657e-001
 3.7032023982e-001	 4.8258065808e+000	 1.3418435587e-001
 3.2350022688e-001	 4.8291710862e+000	 1.3432287079e-001
 2.7681999506e-001	 4.8320716258e+000	 1.3426773741e-001
 2.3028553495e-001	 4.8345127998e+000	 1.3410066345e-001
 1.8390270211e-001	 4.8364992871e+000	 1.3386320822e-001
 1.3767721652e-001	 4.8380358413e+000	 1.3356894725e-001
 9.1614662108e-002	 4.8391272868e+000	 1.3321458419e-001
 4.5720486337e-002	 4.8397785148e+000	 1.3279015079e-001
 0.0000000000e+000	 4.8399944799e+000	 1.3228842385e-001
 4.6691355205e-001	 4.8442128277e+000	 1.2742195210e-001
 4.1957307013e-001	 4.8485424565e+000	 1.2957364793e-001
 3.7236068822e-001	 4.8523965650e+000	 1.3116585378e-001
 3.2528269905e-001	 4.8557796087e+000	 1.3244653236e-001
 2.7834526119e-001	 4.8586961301e+000	 1.3360128668e-001
 2.3155439822e-001	 4.8611507549e+000	 1.3476732824e-001
 1.8491599799e-001	 4.8631481876e+000	 1.3604609658e-001
 1.3843581199e-001	 4.8646932082e+000	 1.3751469970e-001
 9.2119454909e-002	 4.8657906675e+000	 1.3923633359e-001
 4.5972404228e-002	 4.8664454838e+000	 1.4126982576e-001
 0.0000000000e+000	 4.8666626388e+000	 1.4367843557e-001
 4.6947211177e-001	 4.8707578010e+000	 1.2457357513e-001
 4.2187221684e-001	 4.8751111550e+000	 1.2791671155e-001
 3.7440112388e-001	 4.8789863830e+000	 1.3069256470e-001
 3.2706516008e-001	 4.8823879649e+000	 1.3318687840e-001
 2.7987051778e-001	 4.8853204680e+000	 1.3562822584e-001
 2.3282325357e-001	 4.8877885435e+000	 1.3820119763e-001
 1.8592928754e-001	 4.8897969216e+000	 1.4105826430e-001
 1.3919440273e-001	 4.8913504085e+000	 1.4433048907e-001
 9.2624244557e-002	 4.8924538816e+000	 1.4813725363e-001
 4.6224320544e-002	 4.8931122861e+000	 1.5259514694e-001
 0.0000000000e+000	 4.8933306310e+000	 1.5782615323e-001
 4.7203065102e-001	 4.8973025621e+000	 1.2490543835e-001
 4.2417134516e-001	 4.9016796411e+000	 1.2926465078e-001
 3.7644154321e-001	 4.9055759883e+000	 1.3305584842e-001
 3.2884760685e-001	 4.9089961082e+000	 1.3659616455e-001
 2.8139576218e-001	 4.9119445930e+000	 1.4015004246e-001
 2.3409209877e-001	 4.9144261190e+000	 1.4394163310e-001
 1.8694256899e-001	 4.9164454424e+000	 1.4816589308e-001
 1.3995298739e-001	 4.9180073955e+000	 1.5299856469e-001
 9.3129030168e-002	 4.9191168823e+000	 1.5860520609e-001
 4.6476234846e-002	 4.9197788751e+000	 1.6514942573e-001
 0.0000000000e+000	 4.9199984100e+000	 1.7280046163e-001
 4.7458916533e-001	 4.9238470643e+000	 1.2913320165e-001
 4.2647045107e-001	 4.9282478681e+000	 1.3412276630e-001
 3.7848194265e-001	 4.9321653344e+000	 1.3853868625e-001
 3.3063003625e-001	 4.9356039921e+000	 1.4272340172e-001
 2.8292099170e-001	 4.9385684584e+000	 1.4697043539e-001
 2.3536093160e-001	 4.9410634348e+000	 1.5153598813e-001
 1.8795584057e-001	 4.9430937035e+000	 1.5664926371e-001
 1.4071156466e-001	 4.9446641227e+000	 1.6252171017e-001
 9.3633810859e-002	 4.9457796232e+000	 1.6935535104e-001
 4.6728146693e-002	 4.9464452040e+000	 1.7735036536e-001
 0.0000000000e+000	 4.9466659289e+000	 1.8671206050e-001
 4.7714765022e-001	 4.9503912612e+000	 1.3795533992e-001
 4.2876953053e-001	 4.9548157895e+000	 1.4298353767e-001
 3.8052231863e-001	 4.9587543747e+000	 1.4741591201e-001
 3.3241244516e-001	 4.9622115701e+000	 1.5161444002e-001
 2.8444620369e-001	 4.9651920176e+000	 1.5589524526e-001
 2.3662974984e-001	 4.9677004443e+000	 1.6053937881e-001
 1.8896910049e-001	 4.9697416580e+000	 1.6580236077e-001
 1.4147013321e-001	 4.9713205433e+000	 1.7192267574e-001
 9.4138585748e-002	 4.9724420574e+000	 1.7912940107e-001
 4.6980055644e-002	 4.9731112264e+000	 1.8764913096e-001
 0.0000000000e+000	 4.9733331411e+000	 1.9771234473e-001
 4.7970610120e-001	 4.9769351065e+000	 1.5205363390e-001
 4.3106857954e-001	 4.9813833590e+000	 1.5632698436e-001
 3.8256266757e-001	 4.9853430627e+000	 1.5995443686e-001
 3.3419483045e-001	 4.9888187954e+000	 1.6331205100e-001
 2.8597139548e-001	 4.9918152240e+000	 1.6673238786e-001
 2.3789855127e-001	 4.9943371009e+000	 1.7051446228e-001
 1.8998234699e-001	 4.9963892595e+000	 1.7493248995e-001
 1.4222869172e-001	 4.9979766107e+000	 1.8024362885e-001
 9.4643353951e-002	 4.9991041383e+000	 1.8669489911e-001
 4.7231961259e-002	 4.9997768954e+000	 1.9452944915e-001
 0.0000000000e+000	 5.0000000000e+000	 2.0399232001e-001
