label=Stress xy
num_items=333

0:7.6628053705601049e+00
1:1.8485486038999970e+00
2:7.6777451544378661e-01
3:1.1029421754230086e+01
4:2.2723295089870610e+00
5:8.8635048327785348e-01
6:1.1364856367941998e+01
7:2.1307697910887233e+00
8:7.5278871939896241e-01
9:8.5177762996504764e+00
10:1.4840978888145446e+00
11:1.9322845832169913e-01
12:-7.4807000212155108e+00
13:-2.0777998035467378e+00
14:-1.7642347166296648e+00
15:-2.4379068696887625e+01
16:-6.0989878764356913e+00
17:-3.8946398040197190e+00
18:-4.2946993598910240e+01
19:-9.7344690765884163e+00
20:-5.4347992164157199e+00
21:-3.6402053274696222e+01
22:-8.5303626400490167e+00
23:-4.7377493809829865e+00
24:-2.6763880239396283e+01
25:-6.4251155570846334e+00
26:-3.5844844971925101e+00
27:-2.1347036191064923e+01
28:-5.2083808574404973e+00
29:-3.1544201932608953e+00
30:-1.0606434632889872e+01
31:-2.5307024875702595e+00
32:-1.7489609140818092e+00
33:-9.6490825041446071e-02
34:9.3517146931899123e-02
35:-3.7445314433531296e-01
36:4.7418318293657663e-01
37:4.0354397824488762e-02
38:-7.8607452027172786e-02
39:7.5764223489192828e-01
40:1.1349853940869196e-01
41:-5.6450353771361601e-02
42:1.0066921915267424e+00
43:1.6623057110924616e-01
44:-4.0708379962316563e-02
45:-2.5042970839532851e-02
46:3.5561540257744134e-02
47:3.5460136449874502e-02
48:1.0119110017354318e-02
49:6.1297512879276893e-02
50:4.8270419497251915e-02
51:4.3448736075601783e-02
52:8.6952351351648055e-02
53:6.2750889044957389e-02
54:1.2456200028626810e-02
55:-1.1048665749221483e-02
56:-9.3619951631000731e-03
57:2.0383483070272934e-02
58:-4.0376906683030631e-03
59:-2.2147731158366759e-03
60:3.0023734945189784e-02
61:3.0819537272766435e-03
62:3.4368187274581557e-03
63:6.0136917792014404e-04
64:7.1052991655130189e-03
65:-1.5532701580112836e-03
66:5.9781490746326537e-03
67:8.1589352334062015e-03
68:-8.3107348968275321e-04
69:9.9433303357709477e-03
70:9.6940459694713713e-03
71:2.2656711505622327e-03
72:-6.1279639317357103e-02
73:1.4073701272801445e-01
74:2.6605317086600200e-01
75:-6.6258202807516087e-01
76:-2.7576332072882759e-01
77:3.5979372826103174e-02
78:-8.8616407332629465e-01
79:-4.7580088854934566e-01
80:-1.3888923744781573e-01
81:2.3103811941708555e-01
82:8.6803864167588465e-02
83:2.2974106012483779e-02
84:9.1509521660254112e-02
85:4.2963156921075309e-02
86:3.1451926214321073e-02
87:-4.1844193468846769e-02
88:-1.9373251646993849e-03
89:3.1635314109909336e-02
90:2.4498708275745251e-02
91:3.4640029838589124e-02
92:3.3895417878623699e-02
93:3.5344989381338419e-02
94:3.4489841128521562e-02
95:3.0786064214804974e-02
96:3.7403826072413118e-02
97:3.1092633466124314e-02
98:2.9970117060844802e-02
99:2.5211055133482853e-02
100:8.9153806755922962e-03
101:1.5687980965401640e-03
102:2.5358535282567315e-02
103:1.4884525880825334e-02
104:8.4927799999213963e-03
105:2.8767246644332761e-02
106:2.1900398368818443e-02
107:1.4248985256139730e-02
108:-7.6118573592747008e-01
109:-4.4909284208589845e-01
110:-1.9735108417918268e-01
111:-4.3728290642357043e-01
112:-3.3025158113251707e-01
113:-2.4017646414250404e-01
114:-2.4560186656312266e-01
115:-2.6292436313874223e-01
116:-2.5380814038158589e-01
117:-1.1108568546298921e-01
118:-3.9357603593967963e-02
119:1.3877795623282894e-02
120:-1.8906940274771838e-01
121:-1.0348295439377732e-01
122:-3.4802250260254353e-02
123:-2.1965361667397931e-01
124:-1.3835246967374470e-01
125:-7.2370128462576011e-02
126:2.3981679848997801e-02
127:2.1461572076526037e-02
128:2.5225615437687473e-02
129:-1.5123047498457972e-02
130:-3.9653473947434707e-03
131:9.2037894647548791e-03
132:-4.8949778337028765e-02
133:-2.6019683171679020e-02
134:-5.3508656283955290e-03
135:2.6127524193717989e-02
136:2.0051610187232470e-02
137:1.1876739887991200e-02
138:1.2579440777913247e-02
139:8.5833350660994324e-03
140:2.8382061272048207e-03
141:6.3806893802736573e-04
142:1.1067147757594395e-03
143:1.7627045208720959e-04
144:-2.0105095247125238e-01
145:-2.3279908546500991e-01
146:-2.3081560899814144e-01
147:-1.5837662584783563e-01
148:-1.7151893599547174e-01
149:-1.6926260811905963e-01
150:-1.2204202755064042e-01
151:-1.2289580479088316e-01
152:-1.2668391544365384e-01
153:-2.0248923216027281e-01
154:-1.3699608811090233e-01
155:-8.4040685558268283e-02
156:-1.5475865462501553e-01
157:-1.2006040259666693e-01
158:-8.9929726213462208e-02
159:-1.2444512021184190e-01
160:-1.0887294178008125e-01
161:-8.9898173141868792e-02
162:-6.2486500107454136e-02
163:-3.5715047928749993e-02
164:-1.2718982126499689e-02
165:-7.2952643538090473e-02
166:-4.4831000868760990e-02
167:-2.1415252324650851e-02
168:-7.4692352121243144e-02
169:-4.7247087738383035e-02
170:-2.5438225229510100e-02
171:-5.4671257817517777e-03
172:-1.9327220392116448e-03
173:3.1976166686721884e-04
174:-1.3241445288324580e-02
175:-6.3237769247144861e-03
176:-6.3530750451216045e-04
177:-1.7449696272126152e-02
178:-8.9271769604616323e-03
179:-1.5811354991589182e-03
180:-1.0053403109405154e-01
181:-1.0062773075121245e-01
182:-1.0803940891851591e-01
183:-6.0012593976052866e-02
184:-6.4008698208572620e-02
185:-7.2054169390459014e-02
186:-2.1270083718603838e-02
187:-2.6540641759477197e-02
188:-3.2591955188929558e-02
189:-1.0843359818094203e-01
190:-9.5321158997255115e-02
191:-7.8596536476385925e-02
192:-7.0181338324098716e-02
193:-5.5434180178555816e-02
194:-4.4324739498942535e-02
195:-2.8366430854990975e-02
196:-1.4318090173837603e-02
197:-1.1157367761720806e-02
198:-6.5361550746043162e-02
199:-4.2066946706129614e-02
200:-2.3622924913393493e-02
201:-3.7986344380366979e-02
202:-2.5753062579459529e-02
203:-1.4739392672874446e-02
204:-1.1845587899171256e-02
205:-8.7869205183140134e-03
206:-3.3168946789255832e-03
207:-1.6605224886116005e-02
208:-8.4691872068626880e-03
209:-1.3668419867181032e-03
210:-1.0040007537108854e-02
211:-4.5015672961034713e-03
212:4.4114020081736645e-04
213:-7.5311339997285163e-04
214:9.2890653315937739e-04
215:2.4531534372559441e-03
216:-3.6181660964458349e+00
217:-2.3686603310290293e+00
218:-1.1474772033727476e+00
219:-1.6312024001680567e+00
220:-1.4162747874096291e+00
221:-1.2091029317351714e+00
222:-7.6723390967116045e-01
223:-9.2959995166712661e-01
224:-1.0791548700705105e+00
225:-6.4195357312487944e-01
226:-7.3738478292210985e-01
227:-8.1642647025151049e-01
228:-3.8633559544774965e-01
229:-3.6712505597928485e-01
230:-3.3979473678169286e-01
231:-1.8622312907010408e-01
232:-1.5833191558323720e-01
233:-1.3059066510592202e-01
234:-1.2966233631781210e-01
235:-1.3495204216170370e-01
236:-1.4239298106705522e-01
237:-1.0606226109316397e-01
238:-1.4084061186753524e-01
239:-1.7637780083365334e-01
240:-9.2511501266234836e-02
241:-1.1832689536246042e-01
242:-1.4350873278070400e-01
243:-7.6198460022459238e-02
244:-8.4702804707446969e-02
245:-9.2263996696936509e-02
246:-3.4515985651480972e-02
247:-3.1554671442392233e-02
248:-2.7978675271180257e-02
249:-4.1630741652810112e-03
250:-1.1797016173286424e-02
251:-1.9144746952496933e-02
252:-3.6419237186050015e+00
253:-4.0654762109884208e+00
254:-4.4378342147382925e+00
255:-1.3677645423826363e+00
256:-1.5409357189287773e+00
257:-1.6769239359749817e+00
258:-4.2286170187963745e-01
259:-5.0960179758006641e-01
260:-5.7317046291418094e-01
261:-3.7252412616589081e-01
262:-4.6320101300796113e-01
263:-5.3764226421753636e-01
264:-2.6777650618495175e-01
265:-3.4288972868026740e-01
266:-4.1159058725864106e-01
267:-1.3416040340395829e-01
268:-1.7869196738928408e-01
269:-2.2663443917319887e-01
270:-7.7721105179753808e-02
271:-1.0344208026571253e-01
272:-1.3423025698531602e-01
273:-5.1591140996465168e-02
274:-6.2200274179756210e-02
275:-7.3745177253507405e-02
276:-4.9586123152135106e-02
277:-5.9420979040163038e-02
278:-6.6060173075463136e-02
279:-4.5197242877100079e-02
280:-5.8522197270086937e-02
281:-6.8535376368405468e-02
282:-1.9707476084512014e-02
283:-3.0335705465528707e-02
284:-4.1384568418713123e-02
285:8.8660461832737209e-04
286:2.5753408407320193e-03
287:1.1103462410487467e-04
288:-3.4916215220908664e-01
289:-1.5062164197801848e+00
290:-2.6689577581548201e+00
291:-1.6884191982520788e-01
292:-6.5744866886960451e-01
293:-1.1439495411988998e+00
294:-7.6351132349772574e-02
295:-2.6776762092036172e-01
296:-4.4928528525720302e-01
297:-5.2872063853183139e-02
298:-2.0533156358874818e-01
299:-3.4737979565535881e-01
300:-1.9187064785161027e-02
301:-1.0467078003402380e-01
302:-1.8577516753456028e-01
303:-2.8584528874278782e-03
304:-3.5858858638898976e-02
305:-7.0511876562674242e-02
306:-4.5010908991139622e-03
307:-2.5815591761074463e-02
308:-4.9964580996108746e-02
309:-1.0772700050984123e-02
310:-3.3839445434565602e-02
311:-5.7770246993214661e-02
312:-1.0075394881161518e-02
313:-3.3007935543099352e-02
314:-5.4834100182074706e-02
315:-5.3529184206854499e-03
316:-2.2459085612995099e-02
317:-3.8210627425247418e-02
318:8.5382750567353368e-04
319:-3.2459962683791996e-03
320:-7.1085200118913951e-03
321:-4.1627527155376452e-04
322:-2.8444560062725928e-04
323:-1.0326412486708228e-03
324:3.9992795117056008e-02
325:-7.9623775084911211e-02
326:-1.3014915295935614e-01
327:-5.3329779514981350e-02
328:-5.6882502617788888e-01
329:-1.1576469857867830e+00
330:-1.6137063778759164e-01
331:-9.3127769368578261e-01
332:-1.9169293678034656e+00
