label=Stress xy
num_items=333

0:8.1076292488320068e+00
1:1.8092426858257251e+00
2:7.6397599746878897e-01
3:1.0572873677870891e+01
4:2.2502755920925903e+00
5:9.1389190420666799e-01
6:1.1501665682415098e+01
7:2.0839619901794046e+00
8:7.8620476347575541e-01
9:9.1768095298462562e+00
10:1.4418662653014924e+00
11:2.1848882472855341e-01
12:-4.7555484671513302e+00
13:-2.0818051157844675e+00
14:-1.7531030818329199e+00
15:-1.9825445156486271e+01
16:-6.0726702654624702e+00
17:-3.8989564302211286e+00
18:-3.8699063146708099e+01
19:-9.7737923339030051e+00
20:-5.4536664857792037e+00
21:-3.4425065238489452e+01
22:-8.6186525615771661e+00
23:-4.7448716389525210e+00
24:-2.7076697734049855e+01
25:-6.5495592439306245e+00
26:-3.5739846922456944e+00
27:-2.2016361582341407e+01
28:-5.3311504908974516e+00
29:-3.1145191240290555e+00
30:-1.1172898993907150e+01
31:-2.6264953723198152e+00
32:-1.7065199953158789e+00
33:-3.7899750459468917e-01
34:4.3957200023950385e-02
35:-3.2592964658224194e-01
36:4.6801944546774155e-01
37:4.0982358921251655e-02
38:-7.6355335951583350e-02
39:7.5353226096038817e-01
40:1.1350382071300015e-01
41:-5.4872027700000693e-02
42:1.0070700037287776e+00
43:1.6674174984062554e-01
44:-3.9980712052426134e-02
45:-2.4123006887095018e-02
46:3.4706226246831506e-02
47:3.4519980329914317e-02
48:1.1060380758142228e-02
49:6.0846395663006848e-02
50:4.7556124984953305e-02
51:4.3939829299186987e-02
52:8.6726946060801155e-02
53:6.2376970707395729e-02
54:1.2182642485187706e-02
55:-1.0572894867654472e-02
56:-8.9658730688681309e-03
57:2.0084957570616638e-02
58:-3.7406167147609995e-03
59:-1.8913697716717692e-03
60:2.9867230958138792e-02
61:3.2546503481553912e-03
62:3.6291530434716919e-03
63:6.1425739947145537e-04
64:6.8399745986149688e-03
65:-1.4399248328897658e-03
66:6.0505226576568856e-03
67:7.9886706901255884e-03
68:-8.1192054026500661e-04
69:1.0003819092023815e-02
70:9.6153983220381885e-03
71:2.2551156569959548e-03
72:-6.2738999676983973e-02
73:1.4016886105891940e-01
74:2.6620721264798780e-01
75:-6.6296665849117109e-01
76:-2.7595697640232025e-01
77:3.5926394741504296e-02
78:-8.8611207748249299e-01
79:-4.7589226650996008e-01
80:-1.3905556828064308e-01
81:2.3132593098643009e-01
82:8.6949261841789638e-02
83:2.2994102920655804e-02
84:9.1499801095541178e-02
85:4.2986402828506833e-02
86:3.1496555710776773e-02
87:-4.1980481269163573e-02
88:-1.9655183489993072e-03
89:3.1675036646268910e-02
90:2.4479695232269959e-02
91:3.4617015319857204e-02
92:3.3892626714344981e-02
93:3.5381251636906377e-02
94:3.4495679519100694e-02
95:3.0780436155403063e-02
96:3.7445015647803746e-02
97:3.1105721010897352e-02
98:2.9968792575308646e-02
99:2.5227090124654832e-02
100:8.9406554921289370e-03
101:1.5729552318101633e-03
102:2.5359157834387878e-02
103:1.4894727996393986e-02
104:8.4953190011022826e-03
105:2.8766687488841598e-02
106:2.1905379921291275e-02
107:1.4255379666940229e-02
108:-7.6115273954898910e-01
109:-4.4919525869144966e-01
110:-1.9750098720943249e-01
111:-4.3730770409901676e-01
112:-3.3031355241371702e-01
113:-2.4023936963073161e-01
114:-2.4563452848290762e-01
115:-2.6293823437217190e-01
116:-2.5381866869054265e-01
117:-1.1120008407606044e-01
118:-3.9385570666876923e-02
119:1.3895502101919312e-02
120:-1.8911720103899668e-01
121:-1.0351043024601347e-01
122:-3.4823555699001640e-02
123:-2.1967328352474400e-01
124:-1.3838887350229087e-01
125:-7.2410815331389544e-02
126:2.3999692860514604e-02
127:2.1467477313242212e-02
128:2.5229022872028717e-02
129:-1.5141772620745016e-02
130:-3.9716877940417297e-03
131:9.2106901937346521e-03
132:-4.8981483514291886e-02
133:-2.6029376378593729e-02
134:-5.3464440268073720e-03
135:2.6132103724351461e-02
136:2.0056532916119779e-02
137:1.1882037894669966e-02
138:1.2588315313901912e-02
139:8.5859815053480008e-03
140:2.8358372827173451e-03
141:6.4293502615604919e-04
142:1.1056361533376944e-03
143:1.7164066557907642e-04
144:-2.0106883692467042e-01
145:-2.3279889515124624e-01
146:-2.3082278650759175e-01
147:-1.5837830700183997e-01
148:-1.7152595237803850e-01
149:-1.6928306230494777e-01
150:-1.2204332891486497e-01
151:-1.2291388216317764e-01
152:-1.2670953138314756e-01
153:-2.0251099258662045e-01
154:-1.3703324603010267e-01
155:-8.4076315049458630e-02
156:-1.5478509886226174e-01
157:-1.2008509208461250e-01
158:-8.9946973060757149e-02
159:-1.2446724647289030e-01
160:-1.0888508256424194e-01
161:-8.9905878587306018e-02
162:-6.2512059007167955e-02
163:-3.5724050530961823e-02
164:-1.2720099488319725e-02
165:-7.2965406281596576e-02
166:-4.4841131615624120e-02
167:-2.1425328049480292e-02
168:-7.4701567015456022e-02
169:-4.7260072297313327e-02
170:-2.5451462345267746e-02
171:-5.4683684856754603e-03
172:-1.9353687311596723e-03
173:3.1774793781309628e-04
174:-1.3250216890213830e-02
175:-6.3266968416558775e-03
176:-6.3274495668287471e-04
177:-1.7459651878393812e-02
178:-8.9296649206076807e-03
179:-1.5789312044610956e-03
180:-1.0054185701222751e-01
181:-1.0064742926782237e-01
182:-1.0806011524898639e-01
183:-6.0023109638072877e-02
184:-6.4017117953608524e-02
185:-7.2061376096487856e-02
186:-2.1267955844390365e-02
187:-2.6532669008239616e-02
188:-3.2590768101201144e-02
189:-1.0844915877694128e-01
190:-9.5329499279996691e-02
191:-7.8604562108374895e-02
192:-7.0188610455206260e-02
193:-5.5442530641457918e-02
194:-4.4334494174720317e-02
195:-2.8371837141550567e-02
196:-1.4327179018566671e-02
197:-1.1163885264284513e-02
198:-6.5372044562217360e-02
199:-4.2079245971802445e-02
200:-2.3633104732262166e-02
201:-3.7995382138457628e-02
202:-2.5758517716385199e-02
203:-1.4742033013343847e-02
204:-1.1847857174178598e-02
205:-8.7847237792853094e-03
206:-3.3156924715824257e-03
207:-1.6612222444767975e-02
208:-8.4715400419825698e-03
209:-1.3670878795339022e-03
210:-1.0042167119593241e-02
211:-4.5039518019997799e-03
212:4.3921570632330205e-04
213:-7.5417742828593425e-04
214:9.2709628143874522e-04
215:2.4545046129629579e-03
216:-3.6293270739459786e+00
217:-2.3678650102342194e+00
218:-1.1347505909597133e+00
219:-1.6313914983865780e+00
220:-1.4162737275088664e+00
221:-1.2089282979664595e+00
222:-7.6424787378028902e-01
223:-9.2963123182019480e-01
224:-1.0822116280934628e+00
225:-6.4053892105358490e-01
226:-7.3727093854698211e-01
227:-8.1761818320060564e-01
228:-3.8716760276588685e-01
229:-3.6701875810184392e-01
230:-3.3875157977253145e-01
231:-1.8729443662182677e-01
232:-1.5830564785628326e-01
233:-1.2946496459995954e-01
234:-1.3003450220783430e-01
235:-1.3497675727016342e-01
236:-1.4206800304271530e-01
237:-1.0563041041024970e-01
238:-1.4088437331790762e-01
239:-1.7689691309330657e-01
240:-9.2115503456107015e-02
241:-1.1834425353991281e-01
242:-1.4394116664895684e-01
243:-7.6150899136567751e-02
244:-8.4690716552410727e-02
245:-9.2288879506895460e-02
246:-3.4735773091314981e-02
247:-3.1532816195462783e-02
248:-2.7713933467831468e-02
249:-4.1047916377573703e-03
250:-1.1820675421976512e-02
251:-1.9246362003961969e-02
252:-3.6241447837955181e+00
253:-4.0637436435530034e+00
254:-4.4515100039286652e+00
255:-1.3670644785536097e+00
256:-1.5406685793134762e+00
257:-1.6768098254277564e+00
258:-4.2679638263006836e-01
259:-5.0957696024290466e-01
260:-5.6926432794640136e-01
261:-3.7409343608220014e-01
262:-4.6302474624694889e-01
263:-5.3587394924570997e-01
264:-2.6642384573503397e-01
265:-3.4277673813925541e-01
266:-4.1277147483808208e-01
267:-1.3268780219960502e-01
268:-1.7869870615360553e-01
269:-2.2807540586278613e-01
270:-7.7283807599788479e-02
271:-1.0348950540415748e-01
272:-1.3470123348303314e-01
273:-5.2247143924277664e-02
274:-6.2222947065155236e-02
275:-7.3117481287653566e-02
276:-5.0133639554872086e-02
277:-5.9405884862606159e-02
278:-6.5509562059031537e-02
279:-4.5222366318691663e-02
280:-5.8498191538996436e-02
281:-6.8492348558904084e-02
282:-1.9365194795933627e-02
283:-3.0332530555311373e-02
284:-4.1716829792738518e-02
285:7.5421480563835856e-04
286:2.5494940138039201e-03
287:2.2917806546667054e-04
288:-3.4769598983261069e-01
289:-1.5056670974414670e+00
290:-2.6694961273567777e+00
291:-1.6883634672585363e-01
292:-6.5715674743842201e-01
293:-1.1434496923233115e+00
294:-7.6730465118551361e-02
295:-2.6769177060001331e-01
296:-4.4874024211965174e-01
297:-5.3019967000125748e-02
298:-2.0530603879458023e-01
299:-3.4714642481662578e-01
300:-1.9036365164206426e-02
301:-1.0463631196064170e-01
302:-1.8584481030874928e-01
303:-2.6992499857783430e-03
304:-3.5827076013159730e-02
305:-7.0617690916271902e-02
306:-4.4558214212101375e-03
307:-2.5798755780421529e-02
308:-4.9990034252431724e-02
309:-1.0851052678504286e-02
310:-3.3850844461695548e-02
311:-5.7718893733859494e-02
312:-1.0139252794854978e-02
313:-3.3027527268715502e-02
314:-5.4803972607671322e-02
315:-5.3535822256187381e-03
316:-2.2471427687958501e-02
317:-3.8228352757853190e-02
318:8.9716666541318269e-04
319:-3.2427730265975462e-03
320:-7.1458789174776395e-03
321:-4.3662427878053223e-04
322:-2.7278873925909241e-04
323:-9.9620598997356190e-04
324:3.9870325880136531e-02
325:-8.4985592957513970e-02
326:-1.4530930464812122e-01
327:-5.6987835237947058e-02
328:-5.6905384533171677e-01
329:-1.1550096984976046e+00
330:-1.6206500952847241e-01
331:-9.3029342801968740e-01
332:-1.9108337398021789e+00
