label=Stress xy
num_items=4050

0:-5.1166775926811854e-003
1:-2.4407284766258405e-002
2:-3.9724236333584836e-002
3:-2.2185712812838432e-002
4:9.8629015229461138e-003
5:4.3618116543379659e-003
6:1.1248533238075431e-002
7:5.5605359617614251e-002
8:2.9219049817507333e-002
9:8.0571158573102281e-003
10:9.7983489227357352e-003
11:5.4157401926149859e-002
12:8.4030340554015707e-003
13:-6.8736561253141981e-002
14:-7.9701304832031555e-002
15:-1.7325755303389232e-002
16:7.6910531898140776e-004
17:1.1598395652476752e-002
18:-7.0297120604044319e-002
19:-2.2546528366536456e-001
20:8.9431471173405844e-002
21:-5.7013362251638132e-002
22:-8.0149322907178466e-001
23:-1.8842347380502706e+000
24:8.1509264388373220e-002
25:-1.9747470545626605e-001
26:-1.4114743034437918e+000
27:-3.1177069601799254e+000
28:2.1683120559270214e-002
29:-2.7271171692099355e-001
30:-1.5733313555157373e+000
31:-3.3834103794897032e+000
32:-3.4245647427751652e-001
33:-6.9123784859384474e-001
34:-2.0843634806070086e+000
35:-4.5058736133394568e+000
36:-2.6477193156614018e+000
37:-4.1111057580154524e+000
38:-6.2301458104548075e+000
39:-8.2220878974449150e+000
40:-4.3048498053166266e+000
41:-6.4442169607209170e+000
42:-8.8095674030209263e+000
43:-1.0181280410889553e+001
44:-4.6300218379274929e+000
45:-6.7810947397044004e+000
46:-8.8747126273107835e+000
47:-9.7525853137673586e+000
48:-6.4613287456250061e+000
49:-1.0982153123500842e+001
50:-1.6211678277588906e+001
51:-1.7600874518860461e+001
52:-9.4690432003239415e+000
53:-1.1832038766641777e+001
54:-1.3652818815323602e+001
55:-1.2917512912354743e+001
56:-1.0714265159224905e+001
57:-1.1114259843319934e+001
58:-1.0041285805594930e+001
59:-7.6419140997197541e+000
60:-9.9031330760956351e+000
61:-9.4387719144772735e+000
62:-7.2832175695263643e+000
63:-4.3855381613404827e+000
64:-1.6790071758403716e+001
65:-1.2573835171400656e+001
66:-4.5432576628549990e+000
67:1.0750080970346267e+000
68:-1.1450535937183981e+001
69:-7.2572785672575852e+000
70:-7.1293557818053310e-001
71:3.6304070600186682e+000
72:-5.7428331393381971e+000
73:-1.8667150643987802e+000
74:2.9622007271690376e+000
75:5.8741169678014815e+000
76:-2.4322935570119104e+000
77:1.0741237004461757e+000
78:4.8854011760446108e+000
79:6.9772332517508149e+000
80:3.1325247475599434e+000
81:4.8732520843726030e+000
82:4.2740006423701873e+000
83:2.8011617535385009e+000
84:5.2509573638798797e+000
85:6.6770011650403998e+000
86:6.1023252897766866e+000
87:4.4870032444632324e+000
88:6.9551933371309813e+000
89:7.8984713775249711e+000
90:7.2563355343960669e+000
91:5.5849755918739445e+000
92:7.7200802580365897e+000
93:8.2949899539669918e+000
94:7.5125894249756175e+000
95:5.8220109907731716e+000
96:2.0228174812933504e+000
97:9.7779963215578836e-001
98:2.8363349741822519e-001
99:9.6870568168378315e-002
100:3.4491139086770986e+000
101:1.8780890971676809e+000
102:6.1908734381183561e-001
103:1.9956701626917855e-001
104:4.3993943052651652e+000
105:2.5063602563499683e+000
106:8.8100300729762993e-001
107:3.0361897257944737e-001
108:4.6088570985830399e+000
109:2.6533107629051433e+000
110:9.5649960168838044e-001
111:3.5028242100469154e-001
112:6.5758256696669751e-002
113:3.1632032184345030e-002
114:1.1958799846015916e-002
115:7.8699044118581488e-003
116:1.3818107204191518e-001
117:7.9358001796881947e-002
118:4.7870677028982664e-002
119:4.2576938533163793e-002
120:2.1985615492017196e-001
121:1.3938836842206800e-001
122:9.3122444510123595e-002
123:8.3810613380041449e-002
124:2.6417989319656415e-001
125:1.7953585370741820e-001
126:1.2581729646550280e-001
127:1.1243741390982608e-001
128:7.1616391337774345e-003
129:6.5772938932450479e-003
130:6.6898220979050788e-003
131:6.9551839493666445e-003
132:4.1620312769532604e-002
133:3.8977992442760220e-002
134:3.4689698642507615e-002
135:3.1730723967257589e-002
136:8.2223604821596380e-002
137:7.7584128304480526e-002
138:6.9357773928741664e-002
139:6.3197497169918321e-002
140:1.1005439620799340e-001
141:1.0422361225352943e-001
142:9.4239800411271821e-002
143:8.6397981355167061e-002
144:7.0024521075047188e-003
145:6.6859018238633709e-003
146:5.7642196670909538e-003
147:4.9627547998141045e-003
148:3.0531333961413016e-002
149:2.8605585316875431e-002
150:2.6321966614705518e-002
151:2.4476013170207492e-002
152:6.0485849902596860e-002
153:5.6318245781111075e-002
154:5.1883467016480583e-002
155:4.8597744661093588e-002
156:8.2645698003581611e-002
157:7.6703840167333726e-002
158:7.0380706670936724e-002
159:6.5951751179939080e-002
160:4.5971076255929694e-003
161:4.1763620344498105e-003
162:3.9913326183810367e-003
163:3.9632891777659669e-003
164:2.3400403187904952e-002
165:2.1569949579942294e-002
166:1.9654404441582743e-002
167:1.8565430750483964e-002
168:4.6718954602381318e-002
169:4.3348356287218788e-002
170:3.9512984861779163e-002
171:3.7144569528549394e-002
172:6.3556572727360455e-002
173:5.9243403632365285e-002
174:5.4207944662457860e-002
175:5.0949446085970081e-002
176:3.9348935881302035e-003
177:3.7620045196941664e-003
178:3.3784251551869943e-003
179:3.0473182257199798e-003
180:1.8108780917130207e-002
181:1.7206653471020562e-002
182:1.5887080607392228e-002
183:1.4770335328169735e-002
184:3.6104862802837007e-002
185:3.4194475313905189e-002
186:3.1627542592940518e-002
187:2.9536728292307031e-002
188:4.9449923960272479e-002
189:4.6733476459820324e-002
190:4.3202826853071731e-002
191:4.0413195556515000e-002
192:2.8849818127111675e-003
193:2.6517773136524535e-003
194:2.4399073747153979e-003
195:2.2979615674511571e-003
196:1.4146796112068819e-002
197:1.3055339835097175e-002
198:1.1775716515702740e-002
199:1.0870833812866913e-002
200:2.8369714782836453e-002
201:2.6255042137560174e-002
202:2.3660391167124657e-002
203:2.1776936079327732e-002
204:3.8878659087336676e-002
205:3.6061620707311982e-002
206:3.2528592180691596e-002
207:2.9914980134911961e-002
208:2.2129667241235183e-003
209:2.0041441146212103e-003
210:1.6599334989904277e-003
211:1.3688733627781348e-003
212:1.0398957325937016e-002
213:9.4184091562768933e-003
214:7.9417078380810118e-003
215:6.6692543789335619e-003
216:2.0794247722768042e-002
217:1.8803808217863326e-002
218:1.5870600413702911e-002
219:1.3353824808753009e-002
220:2.8539778603405008e-002
221:2.5781111096554912e-002
222:2.1761143757778791e-002
223:1.8330815864944689e-002
224:1.2125655333357717e-003
225:9.1855264461175102e-004
226:4.9800788466403156e-004
227:1.1461045773187133e-004
228:5.9447945884337087e-003
229:4.4980411135835925e-003
230:2.3982771729761329e-003
231:5.8817882953473568e-004
232:1.1913688491568973e-002
233:9.0061836408174868e-003
234:4.7607695135656342e-003
235:1.1169697613205994e-003
236:1.6369118454266293e-002
237:1.2388931255682916e-002
238:6.5513015587898432e-003
239:1.5365876608940336e-003
240:-2.0793662285367963e-002
241:-1.3373437147060707e-001
242:-1.3817683489811280e-001
243:-4.2807879008741084e-002
244:-7.0356036106683402e-003
245:9.2075458921702574e-002
246:3.3635081542694173e-001
247:5.9784421263664878e-001
248:2.5803926433578134e-001
249:1.3711451937713517e+000
250:2.4878711736392449e+000
251:3.1152827988003566e+000
252:7.3559967093656486e-001
253:3.3127205894381926e+000
254:5.5569867719384485e+000
255:6.5170723717106371e+000
256:1.8608689465982712e-002
257:-2.4548886481143375e-001
258:-1.5111037906378035e+000
259:-3.2767904507485492e+000
260:7.3598576639473678e-001
261:5.6455093823393510e-001
262:-6.3315397775529969e-001
263:-2.3368172455593346e+000
264:3.3553748605856777e+000
265:3.2547458708825738e+000
266:2.0120791505668789e+000
267:2.5345029542166891e-001
268:6.7746991074024594e+000
269:6.5846218364500313e+000
270:5.1028742500153399e+000
271:3.1465518160532229e+000
272:-4.4854097748828208e+000
273:-6.5063640110674923e+000
274:-8.3335462854992635e+000
275:-8.9561733887863682e+000
276:-3.4912634932476205e+000
277:-5.3256228223253474e+000
278:-6.7802033531976580e+000
279:-7.0604209872589685e+000
280:-9.1153538575547377e-001
281:-2.7074957695874713e+000
282:-4.0287016368492266e+000
283:-4.1730100174314844e+000
284:1.8927413386689547e+000
285:-6.0569252381872010e-002
286:-1.5809801672570971e+000
287:-1.8773470211481722e+000
288:-8.9610410520900050e+000
289:-8.2483964847599793e+000
290:-5.8816265557671068e+000
291:-2.9609849595775133e+000
292:-6.8793207019910243e+000
293:-5.9041224816485949e+000
294:-3.4432929471314533e+000
295:-6.9924145892424105e-001
296:-3.9229923146151018e+000
297:-2.9522098178660086e+000
298:-8.1554692645304705e-001
299:1.4066017140633107e+000
300:-1.7141661987336718e+000
301:-1.0011490791888586e+000
302:6.0997891559371187e-001
303:2.2974480751052857e+000
304:-1.0607919009388105e+000
305:2.2270630822294222e+000
306:5.6248376782541527e+000
307:7.3978376891803990e+000
308:1.0042971635637763e+000
309:3.7982993814260930e+000
310:6.4534803575674555e+000
311:7.7049544652250725e+000
312:2.7349793025275542e+000
313:4.8072047379701770e+000
314:6.5987970327897791e+000
315:7.3217888632351906e+000
316:3.3062527278809473e+000
317:4.8601898357174713e+000
318:6.1540346743485017e+000
319:6.6220972729694525e+000
320:8.0000479767987063e+000
321:8.3971051044210068e+000
322:7.5123516293113948e+000
323:5.8036770160935385e+000
324:8.0843925541364765e+000
325:8.2086203480392808e+000
326:7.2042710088761170e+000
327:5.5362300346408650e+000
328:7.4900521673295053e+000
329:7.3797266781559738e+000
330:6.3563193540093614e+000
331:4.8622985394417908e+000
332:6.6968795107663901e+000
333:6.4988738833558264e+000
334:5.5362277323859299e+000
335:4.2238862461611060e+000
336:4.5904240660617690e+000
337:2.6406317350029220e+000
338:9.5731069376403422e-001
339:3.6139329001111731e-001
340:4.3742740814053382e+000
341:2.5172617609744328e+000
342:9.2757769118004285e-001
343:3.7247995572189235e-001
344:3.8439397097884704e+000
345:2.2249884590532920e+000
346:8.4876213242068443e-001
347:3.7266691051144657e-001
348:3.3441832392789461e+000
349:1.9504000131905457e+000
350:7.6985077528615331e-001
351:3.6292512573972552e-001
352:2.7929455049999763e-001
353:1.9758149800656413e-001
354:1.4213705412508670e-001
355:1.2658895156228053e-001
356:2.9907633312692689e-001
357:2.2404777736411419e-001
358:1.6775131145932989e-001
359:1.4971090990085067e-001
360:3.1092085996028435e-001
361:2.4549369673237745e-001
362:1.9217522047386601e-001
363:1.7366253130232462e-001
364:3.1021855401321802e-001
365:2.5329327093539028e-001
366:2.0532778472689583e-001
367:1.8801690665121112e-001
368:1.2369173861599671e-001
369:1.1732489511117178e-001
370:1.0680036822509299e-001
371:9.8311899350861418e-002
372:1.4635685535923895e-001
373:1.3961496245668462e-001
374:1.2846851066976464e-001
375:1.1883334094950564e-001
376:1.7036856138078738e-001
377:1.6379856936955831e-001
378:1.5222589676109552e-001
379:1.4133122855488775e-001
380:1.8481508597286309e-001
381:1.7824468366363660e-001
382:1.6633997418036714e-001
383:1.5483948996408342e-001
384:9.4048140402931898e-002
385:8.7155690314101239e-002
386:7.9770528021776393e-002
387:7.4738160451286298e-002
388:1.1359880024828420e-001
389:1.0497081590525202e-001
390:9.5799099216106492e-002
391:8.9883734422886830e-002
392:1.3502216157343497e-001
393:1.2456921046432086e-001
394:1.1369389249761945e-001
395:1.0707471421014117e-001
396:1.4807506646448487e-001
397:1.3687677450999883e-001
398:1.2532817168852595e-001
399:1.1842890203582868e-001
400:7.2109828214799179e-002
401:6.7386175888068986e-002
402:6.1810960927944560e-002
403:5.8111617201317550e-002
404:8.6972010602013178e-002
405:8.1708139056290555e-002
406:7.5293611622329684e-002
407:7.0811542573609651e-002
408:1.0399792655858990e-001
409:9.8330942306723804e-002
410:9.1083864390507835e-002
411:8.5710499771546392e-002
412:1.1527576520144815e-001
413:1.0937888201468152e-001
414:1.0162448444805959e-001
415:9.5711825389838370e-002
416:5.6363726860830889e-002
417:5.3209420598635572e-002
418:4.9168230643569094e-002
419:4.6027573567825428e-002
420:6.8595870344423132e-002
421:6.4630709607361558e-002
422:5.9685645824111185e-002
423:5.5958722455602301e-002
424:8.2938936986914027e-002
425:7.8025872483471759e-002
426:7.2063659156760801e-002
427:6.7707536060940848e-002
428:9.2609881704314792e-002
429:8.7133872301706244e-002
430:8.0560235481225345e-002
431:7.5813916819608820e-002
432:4.4316688747057090e-002
433:4.1157890981905372e-002
434:3.7153292315161887e-002
435:3.4160189449563234e-002
436:5.3964852886238118e-002
437:5.0242141359968087e-002
438:4.5423108431837673e-002
439:4.1748807198793966e-002
440:6.5418924728152125e-002
441:6.1085047296449320e-002
442:5.5333665771363158e-002
443:5.0846916402617702e-002
444:7.3335981978199447e-002
445:6.8600567052942013e-002
446:6.2223982836251371e-002
447:5.7185621997775764e-002
448:3.2576771215697450e-002
449:2.9413567708892818e-002
450:2.4829387729518915e-002
451:2.0930501743409852e-002
452:3.9784025124478567e-002
453:3.5883607846115384e-002
454:3.0282566996986459e-002
455:2.5547825572782849e-002
456:4.8418198312338005e-002
457:4.3623117739127144e-002
458:3.6796925258782927e-002
459:3.1062384178635008e-002
460:5.4440218565217080e-002
461:4.9031665876070246e-002
462:4.1360485645847322e-002
463:3.4933275638809394e-002
464:1.8702791869698938e-002
465:1.4172067547353851e-002
466:7.5102536955068740e-003
467:1.7815533229467721e-003
468:2.2847924441415042e-002
469:1.7333842241561110e-002
470:9.1870472434487666e-003
471:2.1634665005115551e-003
472:2.7799661878103506e-002
473:2.1105761579942910e-002
474:1.1161497675013166e-002
475:2.5602057969440813e-003
476:3.1279716352079656e-002
477:2.3764562187796059e-002
478:1.2565677734671170e-002
479:2.8609867243743021e-003
480:1.1067653393817725e+000
481:4.7159492964721021e+000
482:7.7114925992858829e+000
483:8.8387684544823966e+000
484:2.1319052741174400e+000
485:7.5310833631805245e+000
486:1.1694009537739630e+001
487:1.2905965242368955e+001
488:5.1353900665104062e+000
489:1.1718637884832484e+001
490:1.6281836131629507e+001
491:1.7021070502016649e+001
492:9.6611464596236694e+000
493:1.5579311928502525e+001
494:1.9081028121066556e+001
495:1.8922881920740721e+001
496:9.0628526458031082e+000
497:8.7410836419662576e+000
498:7.0329580156162468e+000
499:4.9076694291652396e+000
500:1.2933402324362941e+001
501:1.2176881489444513e+001
502:9.9297600165136171e+000
503:7.4893723148837008e+000
504:1.6573958314458594e+001
505:1.4980624719184579e+001
506:1.1919487354650144e+001
507:9.1431694349985619e+000
508:1.7994662603171644e+001
509:1.5647887413306702e+001
510:1.1966778141624035e+001
511:9.0322327982844062e+000
512:3.5770611408134121e+000
513:1.4750534953299952e+000
514:-2.5248016224201653e-001
515:-7.1389577304860219e-001
516:6.0420528699867848e+000
517:3.7197395241272111e+000
518:1.6820528102921677e+000
519:9.6857612620854883e-001
520:7.6294068276161937e+000
521:5.1945992117182636e+000
522:2.9823937829022462e+000
523:2.1069868095717181e+000
524:7.5467611137393131e+000
525:5.1798747725720657e+000
526:3.0287081921342285e+000
527:2.1652950915962963e+000
528:-6.4200578826650823e-001
529:-1.4166239499048747e-001
530:1.1225185870271972e+000
531:2.5088590949689191e+000
532:8.9864666409804950e-001
533:1.0654840504571808e+000
534:1.7783168968588177e+000
535:2.6786045214922272e+000
536:1.9362984267405117e+000
537:1.8448014753164379e+000
538:2.0882629813007156e+000
539:2.5386652227454305e+000
540:1.9844598530325228e+000
541:1.8361082547988459e+000
542:1.9216068501939747e+000
543:2.1784101294650347e+000
544:3.3543598415291882e+000
545:4.6706342739567051e+000
546:5.7758595696236474e+000
547:6.1660404665813404e+000
548:3.2575087813100434e+000
549:4.1853498984860851e+000
550:4.9837464632079973e+000
551:5.2501652253829754e+000
552:2.8571539798049383e+000
553:3.3946320526017879e+000
554:3.8728065532221585e+000
555:4.0089177579803339e+000
556:2.3702629131765294e+000
557:2.7079014881243006e+000
558:3.0126730952648781e+000
559:3.0789884932098759e+000
560:6.2153255167188766e+000
561:6.0006510218500910e+000
562:5.0876485518790062e+000
563:3.8764362915010171e+000
564:5.2610352781656564e+000
565:5.0305552345386761e+000
566:4.2252584163331770e+000
567:3.2092713803106698e+000
568:3.9830081678135065e+000
569:3.7550846744371458e+000
570:3.1103273376862610e+000
571:2.3505184087663937e+000
572:3.0376058794173932e+000
573:2.8305674713452480e+000
574:2.3184024763704745e+000
575:1.7460230537439538e+000
576:3.0720558126127315e+000
577:1.7999010646133802e+000
578:7.2425912820604288e-001
579:3.5426694956508981e-001
580:2.5469162490279085e+000
581:1.5036666264765126e+000
582:6.2638149143173183e-001
583:3.2829519907496674e-001
584:1.8682112904624493e+000
585:1.1138533075423092e+000
586:4.8736327481171687e-001
587:2.8241040562681768e-001
588:1.3906079345533950e+000
589:8.3825886953137352e-001
590:3.8589846956062474e-001
591:2.4540249521709595e-001
592:3.0650706755484369e-001
593:2.5479588908166578e-001
594:2.1078134786160366e-001
595:1.9446805698666081e-001
596:2.9188403655606721e-001
597:2.5307470782229807e-001
598:2.1855508184786265e-001
599:2.0415428757199694e-001
600:2.6263186688819901e-001
601:2.4348075775065289e-001
602:2.2299539805915564e-001
603:2.1096826930883092e-001
604:2.3730601805266566e-001
605:2.3193990755131896e-001
606:2.2116487991831307e-001
607:2.1077334324741168e-001
608:1.9118233922811950e-001
609:1.8436612341282163e-001
610:1.7220209387005156e-001
611:1.6057013647465507e-001
612:2.0024220396865205e-001
613:1.9239082350910686e-001
614:1.7977315391699086e-001
615:1.6844985950959029e-001
616:2.0580328227848851e-001
617:1.9625676081713195e-001
618:1.8357088532271007e-001
619:1.7361993683946644e-001
620:2.0479557893896477e-001
621:1.9441956789630918e-001
622:1.8246746797696087e-001
623:1.7416738611419783e-001
624:1.5376309921047654e-001
625:1.4249434191340857e-001
626:1.3085027774975452e-001
627:1.2386322859122761e-001
628:1.6200009619183195e-001
629:1.5121884929530868e-001
630:1.3977442018719971e-001
631:1.3263745883091765e-001
632:1.6827142383220869e-001
633:1.5899619112131066e-001
634:1.4834152839745091e-001
635:1.4107329294303692e-001
636:1.6993643345440082e-001
637:1.6216733097390126e-001
638:1.5235049314779431e-001
639:1.4508041158960042e-001
640:1.2065368693152606e-001
641:1.1461683296584027e-001
642:1.0662088292659748e-001
643:1.0048813448598078e-001
644:1.2925995375040186e-001
645:1.2292268299788493e-001
646:1.1458867118301164e-001
647:1.0822787818914764e-001
648:1.3744060738875849e-001
649:1.3077149127059276e-001
650:1.2230380664263620e-001
651:1.1599060228286799e-001
652:1.4130757717261677e-001
653:1.3455168709243856e-001
654:1.2627923971254126e-001
655:1.2024069990262479e-001
656:9.7261288852441508e-002
657:9.1567641185800103e-002
658:8.4740151727653826e-002
659:7.9814129846102699e-002
660:1.0488572353612968e-001
661:9.8955147411318028e-002
662:9.1775510537655744e-002
663:8.6549913962212940e-002
664:1.1269483366393959e-001
665:1.0673363562495412e-001
666:9.9301651601324703e-002
667:9.3764630804010859e-002
668:1.1709435675617717e-001
669:1.1126844341490837e-001
670:1.0377118326579234e-001
671:9.8064150679307793e-002
672:7.7241929223231184e-002
673:7.2307903521964589e-002
674:6.5627675203837901e-002
675:6.0325118123494940e-002
676:8.3808262479779072e-002
677:7.8532849225755819e-002
678:7.1356215599497896e-002
679:6.5630440010611982e-002
680:9.0831089432164905e-002
681:8.5195926706380640e-002
682:7.7533901522594359e-002
683:7.1400361722023714e-002
684:9.5019841106015676e-002
685:8.9195867782184149e-002
686:8.1299576172653237e-002
687:7.4963449198655135e-002
688:5.7428964546072554e-002
689:5.1725556794805096e-002
690:4.3642238060740995e-002
691:3.6873187203717746e-002
692:6.2492519245929752e-002
693:5.6303868158261709e-002
694:4.7521973873579121e-002
695:4.0164040557202879e-002
696:6.8024559778408961e-002
697:6.1331831613908226e-002
698:5.1784982574149624e-002
699:4.3766858259803518e-002
700:7.1460955556735345e-002
701:6.4475872768420150e-002
702:5.4454815533221984e-002
703:4.6018182090095602e-002
704:3.3025685697603335e-002
705:2.5103739299814343e-002
706:1.3285037363576545e-002
707:3.0361540958712247e-003
708:3.5981255386110349e-002
709:2.7360797103380758e-002
710:1.4483540965362184e-002
711:3.3055201245917975e-003
712:3.9207380876217640e-002
713:2.9811305413759686e-002
714:1.5767708687730940e-002
715:3.5636480764191778e-003
716:4.1220515387561406e-002
717:3.1340914853185492e-002
718:1.6575288988550135e-002
719:3.7318333952622929e-003
720:1.3135047334301666e+001
721:1.7929080438923290e+001
722:2.0227855779429216e+001
723:1.9379066387783794e+001
724:2.0931863310859313e+001
725:2.2254352748543784e+001
726:2.1272225458080509e+001
727:1.8881667622653602e+001
728:2.9685186289254116e+001
729:2.5507126721403203e+001
730:1.9724699338414872e+001
731:1.5415001818255798e+001
732:3.1775376301081888e+001
733:2.4199448763592819e+001
734:1.5691074633415782e+001
735:1.0490671357107974e+001
736:1.8170515305611055e+001
737:1.5417101617080201e+001
738:1.1442392272540621e+001
739:8.4770081888158071e+000
740:1.7183181381830998e+001
741:1.3813126863780306e+001
742:9.5445099722387567e+000
743:6.7296187836618264e+000
744:1.3267410623369008e+001
745:9.5282761200057919e+000
746:5.4772597958161215e+000
747:3.2626973721497401e+000
748:8.2435192350802655e+000
749:4.6687749559886056e+000
750:1.3037245734077823e+000
751:-1.6492634270776890e-001
752:7.0411076824512531e+000
753:4.7740695653496221e+000
754:2.7312594170204560e+000
755:1.9240698946594970e+000
756:5.4898475382740557e+000
757:3.5764532227899650e+000
758:1.8982123421795087e+000
759:1.2759900076259134e+000
760:2.4522624043490793e+000
761:1.2793004343280774e+000
762:3.5772591693014766e-001
763:1.2654851039520518e-001
764:-5.4751959872243239e-001
765:-9.9197146723121599e-001
766:-1.1544977592255228e+000
767:-9.7396248102515981e-001
768:1.7613103061359492e+000
769:1.6315771252484987e+000
770:1.7031057064210293e+000
771:1.9103076421327623e+000
772:1.1745838756322340e+000
773:1.1247417824823494e+000
774:1.2266493300856065e+000
775:1.3884833210406311e+000
776:1.6226207809235230e-001
777:3.0455201956952438e-001
778:5.4371129841500720e-001
779:7.2289434204543346e-001
780:-7.8299423532009838e-001
781:-4.1698558413534836e-001
782:4.5965617676043836e-003
783:2.5034353080378097e-001
784:2.0610907544700341e+000
785:2.3289910243423919e+000
786:2.5692232938086010e+000
787:2.6105742303008741e+000
788:1.4900291800997720e+000
789:1.6697040948795185e+000
790:1.8260401136883073e+000
791:1.8382998565249771e+000
792:8.0456126868582822e-001
793:9.3697873137625420e-001
794:1.0421042545751313e+000
795:1.0426866964729185e+000
796:3.4559324010977582e-001
797:4.8442867624631575e-001
798:5.8439732570921588e-001
799:5.8936120303065886e-001
800:2.5660349300709888e+000
801:2.3767555747653311e+000
802:1.9362334380974449e+000
803:1.4570887017688239e+000
804:1.7943235121970678e+000
805:1.6425922684109817e+000
806:1.3249102537460478e+000
807:9.9788623407122901e-001
808:1.0081180265275678e+000
809:9.0761104632838041e-001
810:7.2324428172473210e-001
811:5.4992421429618810e-001
812:5.6552309178929594e-001
813:5.0192347655034342e-001
814:3.9748411343379625e-001
815:3.0928282713022948e-001
816:1.1630286632825058e+000
817:7.0759388617175933e-001
818:3.3783564201972294e-001
819:2.2725705018051667e-001
820:8.0230928287425729e-001
821:5.0161586255071289e-001
822:2.6233471818847953e-001
823:1.9755274598107103e-001
824:4.5135219634064672e-001
825:3.0175452920346169e-001
826:1.8752959300881897e-001
827:1.6415602730542458e-001
828:2.6269678921493034e-001
829:1.9310579288449217e-001
830:1.4343222236026049e-001
831:1.3970787195011264e-001
832:2.2425801452743452e-001
833:2.2475116373208337e-001
834:2.1811148284636347e-001
835:2.0851602931505409e-001
836:2.0144520595749138e-001
837:2.0967277002396206e-001
838:2.0896297685602747e-001
839:2.0105164944039844e-001
840:1.7268343595278346e-001
841:1.8598511249352204e-001
842:1.9058869158444289e-001
843:1.8559070158425189e-001
844:1.4929552672856600e-001
845:1.6389353726031247e-001
846:1.7169585084321587e-001
847:1.6973494005601866e-001
848:2.0230470079633911e-001
849:1.9186438694696523e-001
850:1.8067106422653120e-001
851:1.7340088689819452e-001
852:1.9492898654260218e-001
853:1.8506605454178421e-001
854:1.7558722869725843e-001
855:1.7015167829102373e-001
856:1.8060152371589991e-001
857:1.7275403034169309e-001
858:1.6590286016928257e-001
859:1.6254666623828282e-001
860:1.6636964839310547e-001
861:1.6096518532467383e-001
862:1.5635158238379232e-001
863:1.5430096082466432e-001
864:1.6979255553647157e-001
865:1.6285495896971786e-001
866:1.5352403290535405e-001
867:1.4631021621834886e-001
868:1.6760550798158338e-001
869:1.6218159419091513e-001
870:1.5395226473411000e-001
871:1.4709237155062158e-001
872:1.6113235170375251e-001
873:1.5755044423363773e-001
874:1.5113302732250908e-001
875:1.4523874994478542e-001
876:1.5353820821038380e-001
877:1.5123380006894491e-001
878:1.4646479548540411e-001
879:1.4168710491203956e-001
880:1.4250905858211133e-001
881:1.3580096652316054e-001
882:1.2774881754150463e-001
883:1.2192716542814716e-001
884:1.4337524448542099e-001
885:1.3692740915970952e-001
886:1.2937850369143100e-001
887:1.2398165572317127e-001
888:1.4190547844950538e-001
889:1.3612176942581120e-001
890:1.2936942439345925e-001
891:1.2453189719196954e-001
892:1.3885668000401241e-001
893:1.3382742157095462e-001
894:1.2778615117555403e-001
895:1.2337421912989895e-001
896:1.1888781726031211e-001
897:1.1317333969561066e-001
898:1.0568029223931025e-001
899:9.9911748195571984e-002
900:1.2115144159957721e-001
901:1.1569699548654656e-001
902:1.0832584882363976e-001
903:1.0254011828508340e-001
904:1.2197915255179526e-001
905:1.1695371806307041e-001
906:1.0996653152039991e-001
907:1.0435459327198693e-001
908:1.2103339929940456e-001
909:1.1639819541228484e-001
910:1.0986968913569681e-001
911:1.0453646338795690e-001
912:9.6826135309423064e-002
913:9.0938531526186750e-002
914:8.2968380257545771e-002
915:7.6561567508042438e-002
916:9.9425010664866378e-002
917:9.3487925399070790e-002
918:8.5444100690578409e-002
919:7.8948072731545776e-002
920:1.0129533791696016e-001
921:9.5426662788915137e-002
922:8.7404544916772464e-002
923:8.0871247472664207e-002
924:1.0159016097510400e-001
925:9.5872647024949242e-002
926:8.7955018872877197e-002
927:8.1453224405774932e-002
928:7.3009690979865441e-002
929:6.5900614254302131e-002
930:5.5667309112616685e-002
931:4.7040645948366454e-002
932:7.5328827263523260e-002
933:6.8044837929633686e-002
934:5.7502777007794846e-002
935:4.8592658823683008e-002
936:7.7212177649230787e-002
937:6.9812648419242812e-002
938:5.9044113099181436e-002
939:4.9907025741383330e-002
940:7.7800555173318547e-002
941:7.0398399831501382e-002
942:5.9589503276993215e-002
943:5.0385381578411409e-002
944:4.2135267632288378e-002
945:3.2039222257420862e-002
946:1.6951510061158949e-002
947:3.8207287268450258e-003
948:4.3523995632217337e-002
949:3.3097262353968045e-002
950:1.7516499719829146e-002
951:3.9482981680786511e-003
952:4.4700137348511818e-002
953:3.3986929255912936e-002
954:1.7978733362498635e-002
955:4.0404671868884048e-003
956:4.5128225640936034e-002
957:3.4304326111717534e-002
958:1.8133079380077417e-002
959:4.0658409759622045e-003
960:3.0208475821992614e+001
961:2.1614115343613616e+001
962:1.2422446017822075e+001
963:7.1138087331725917e+000
964:2.2635362011282446e+001
965:1.4211569176895260e+001
966:5.6283975145678475e+000
967:9.2458430469160247e-001
968:8.4362238858976859e+000
969:2.6039602987998349e+000
970:-3.0387806918030891e+000
971:-6.0428701390910184e+000
972:-1.4732010867948906e+000
973:-5.1749411793616389e+000
974:-8.4263831471294051e+000
975:-1.0069301512996189e+001
976:4.9304976824599018e+000
977:1.6310721851968331e+000
978:-1.1808032218009106e+000
979:-2.1708997392254998e+000
980:-9.2461065231318862e-001
981:-3.4642114883208950e+000
982:-5.1540575968629554e+000
983:-5.3348242151688803e+000
984:-7.2215319937406681e+000
985:-8.5579734593428771e+000
986:-8.8384368854562698e+000
987:-8.1955503007389829e+000
988:-1.0724709250626145e+001
989:-1.1201313134414329e+001
990:-1.0595899890990642e+001
991:-9.5089266237012247e+000
992:-2.3075263249714317e+000
993:-2.3341148005627299e+000
994:-2.0521243569183993e+000
995:-1.6208535978713390e+000
996:-5.0988151256385450e+000
997:-4.4934164553594202e+000
998:-3.5262880207908065e+000
999:-2.6983646325867188e+000
1000:-7.6404813690231972e+000
1001:-6.4967568496054646e+000
1002:-4.9301159788844631e+000
1003:-3.7443443298873897e+000
1004:-8.8080028766213019e+000
1005:-7.4212244658874962e+000
1006:-5.5805418430429734e+000
1007:-4.2311158017234485e+000
1008:-1.3306661057741678e+000
1009:-8.2023765708894059e-001
1010:-2.7710333878526788e-001
1011:1.9803291548532744e-002
1012:-2.2471042373576222e+000
1013:-1.4996867452180054e+000
1014:-7.5129804001567935e-001
1015:-3.6057071756378128e-001
1016:-3.1440462603902537e+000
1017:-2.1749904543970064e+000
1018:-1.2279602272066066e+000
1019:-7.3722702830645581e-001
1020:-3.5634439037547780e+000
1021:-2.4950955292265582e+000
1022:-1.4583792377067111e+000
1023:-9.1935013754309947e-001
1024:1.3044273936059558e-001
1025:2.8450469168410941e-001
1026:3.9060904332214008e-001
1027:4.0077786057062631e-001
1028:-2.1748122067985681e-001
1029:-2.6177643061738358e-002
1030:1.0250354421634787e-001
1031:1.2814800749169172e-001
1032:-5.5453753119886695e-001
1033:-3.1283626243304152e-001
1034:-1.4702904841090364e-001
1035:-9.7249909083443581e-002
1036:-7.1553972406953326e-001
1037:-4.4593834052739928e-001
1038:-2.5839385696836970e-001
1039:-1.9429045556979582e-001
1040:3.8306652193339313e-001
1041:3.3721396602391623e-001
1042:2.6711702233967827e-001
1043:2.1325900874029541e-001
1044:1.2315938552338253e-001
1045:1.0789757430496258e-001
1046:8.8842418871281720e-002
1047:8.1773758392933188e-002
1048:-8.6081730053857816e-002
1049:-6.9273925424844424e-002
1050:-4.5399146025319505e-002
1051:-1.9360584265775482e-002
1052:-1.7398616741649220e-001
1053:-1.4133477037628051e-001
1054:-1.0068698237805718e-001
1055:-6.4885246164214511e-002
1056:1.8703352264808532e-001
1057:1.4843659580636118e-001
1058:1.2319603889844805e-001
1059:1.2631279723826092e-001
1060:8.2226239566974696e-002
1061:8.4058736848030127e-002
1062:9.0345880576369830e-002
1063:1.0164339200310281e-001
1064:-1.6654501501633899e-003
1065:2.6452152293217328e-002
1066:5.3442759872487366e-002
1067:6.9612921347366713e-002
1068:-4.3032066192628809e-002
1069:-7.8676286413348444e-003
1070:2.5851125432409187e-002
1071:4.4119721188264759e-002
1072:1.3585027100969049e-001
1073:1.5058828205580524e-001
1074:1.6003339178435649e-001
1075:1.6001419010168427e-001
1076:1.1053382110884453e-001
1077:1.2484233707867441e-001
1078:1.3672289044412350e-001
1079:1.4026955228164353e-001
1080:7.7477967889011873e-002
1081:9.0891037220226054e-002
1082:1.0500121368744116e-001
1083:1.1261551643564592e-001
1084:5.1830910864264619e-002
1085:6.5251913926907018e-002
1086:8.0792315489709332e-002
1087:9.0811526120926939e-002
1088:1.5776124499350844e-001
1089:1.5395007606414859e-001
1090:1.5059807199261449e-001
1091:1.4913831453016368e-001
1092:1.4025711596269833e-001
1093:1.3975319496783800e-001
1094:1.3905200163486703e-001
1095:1.3871345648452746e-001
1096:1.1541557582370139e-001
1097:1.1929397428627092e-001
1098:1.2236161292024959e-001
1099:1.2363640175624922e-001
1100:9.5353296189961273e-002
1101:1.0215928351927338e-001
1102:1.0808816618351207e-001
1103:1.1079113699323954e-001
1104:1.4864220573827264e-001
1105:1.4695644652674048e-001
1106:1.4313367553530282e-001
1107:1.3906955002365776e-001
1108:1.3863060176749936e-001
1109:1.3793558054515370e-001
1110:1.3574429215084077e-001
1111:1.3301712773566152e-001
1112:1.2407117443447445e-001
1113:1.2452367234136454e-001
1114:1.2422665448390080e-001
1115:1.2315376201184092e-001
1116:1.1173380380970352e-001
1117:1.1314192876493072e-001
1118:1.1421459592587416e-001
1119:1.1430260912730947e-001
1120:1.3657661186706657e-001
1121:1.3203356382503270e-001
1122:1.2640882339281070e-001
1123:1.2222412243964766e-001
1124:1.3120500239198485e-001
1125:1.2768081546487378e-001
1126:1.2296555335503175e-001
1127:1.1927060962422306e-001
1128:1.2224742477399070e-001
1129:1.2016073286803899e-001
1130:1.1683462017769421e-001
1131:1.1391383698845294e-001
1132:1.1404853053540098e-001
1133:1.1306124483262013e-001
1134:1.1089801437401083e-001
1135:1.0867197595513203e-001
1136:1.1999553055183042e-001
1137:1.1558674874900836e-001
1138:1.0935426004721382e-001
1139:1.0421636326751411e-001
1140:1.1726776650286526e-001
1141:1.1330125202914391e-001
1142:1.0764488161011865e-001
1143:1.0290059048389291e-001
1144:1.1225148150103169e-001
1145:1.0891227955775874e-001
1146:1.0404333979651707e-001
1147:9.9850260444989472e-002
1148:1.0731774100372489e-001
1149:1.0451621551439597e-001
1150:1.0028825173128347e-001
1151:9.6543576025332312e-002
1152:1.0135335061562291e-001
1153:9.5749823220945871e-002
1154:8.7919193643979862e-002
1155:8.1456187488787399e-002
1156:1.0021572310814382e-001
1157:9.4875333915510604e-002
1158:8.7280179433080154e-002
1159:8.0945332253197763e-002
1160:9.7431076957298232e-002
1161:9.2518059460292817e-002
1162:8.5363155212609093e-002
1163:7.9299288606416093e-002
1164:9.4348533009703653e-002
1165:8.9818140434904353e-002
1166:8.3091719197538869e-002
1167:7.7307723744769033e-002
1168:7.7820238572585507e-002
1169:7.0446731692478434e-002
1170:5.9661935705057165e-002
1171:5.0458503579438353e-002
1172:7.7368547023590015e-002
1173:7.0098952873041187e-002
1174:5.9425366816517097e-002
1175:5.0277937945744852e-002
1176:7.5851041627759644e-002
1177:6.8808473999476566e-002
1178:5.8400845976395381e-002
1179:4.9429693164423173e-002
1180:7.3993814618665263e-002
1181:6.7189988242493434e-002
1182:5.7074472083552701e-002
1183:4.8316193075457960e-002
1184:4.5193606684127273e-002
1185:3.4348666430166645e-002
1186:1.8148835002394934e-002
1187:4.0678145514512305e-003
1188:4.5030509307213820e-002
1189:3.4216464681058718e-002
1190:1.8073807231350665e-002
1191:4.0643605135707661e-003
1192:4.4266849413421946e-002
1193:3.3626750348617722e-002
1194:1.7762187950265119e-002
1195:4.0186239279599309e-003
1196:4.3265288992521848e-002
1197:3.2856826782779736e-002
1198:1.7347962067488149e-002
1199:3.9239326727672462e-003
1200:-5.1172883218526577e+000
1201:-8.1261899521720231e+000
1202:-1.0505977591647657e+001
1203:-1.1597381039716982e+001
1204:-8.2505323761015656e+000
1205:-1.0840165536188652e+001
1206:-1.2500570322074058e+001
1207:-1.3011121816806421e+001
1208:-7.3143367126242360e+000
1209:-1.0110844823305685e+001
1210:-1.1798142344825287e+001
1211:-1.2126276389599104e+001
1212:-4.8130105808843453e+000
1213:-7.4845832534744874e+000
1214:-9.1771694781657445e+000
1215:-9.5100270879129027e+000
1216:-1.2023271834445996e+001
1217:-1.2133233221778383e+001
1218:-1.1172138792891266e+001
1219:-9.9186364053621361e+000
1220:-1.3149458560820865e+001
1221:-1.2812941640229388e+001
1222:-1.1456560108541511e+001
1223:-1.0042032605428595e+001
1224:-1.2104031147533844e+001
1225:-1.1576438467535622e+001
1226:-1.0184257478973615e+001
1227:-8.8579374203444026e+000
1228:-9.4638003460480782e+000
1229:-9.0076443265944448e+000
1230:-7.9007303179889385e+000
1231:-6.8682617778439399e+000
1232:-9.1667018494010879e+000
1233:-7.6967318949895676e+000
1234:-5.7653476488628819e+000
1235:-4.3655655732102119e+000
1236:-9.2503616344952508e+000
1237:-7.7256451175042669e+000
1238:-5.7523486355578370e+000
1239:-4.3471499165935423e+000
1240:-8.1388388342270730e+000
1241:-6.7677462473822505e+000
1242:-5.0169326463305159e+000
1243:-3.7916398970239000e+000
1244:-6.3115840669255361e+000
1245:-5.2506364114946562e+000
1246:-3.9004593984389757e+000
1247:-2.9635550563643811e+000
1248:-3.6791413058318034e+000
1249:-2.5847437530205926e+000
1250:-1.5259677618838938e+000
1251:-9.7490352779167233e-001
1252:-3.6677273671374979e+000
1253:-2.5905211492289539e+000
1254:-1.5535053849784630e+000
1255:-1.0134582386217628e+000
1256:-3.2080297976632774e+000
1257:-2.2884254624528562e+000
1258:-1.4082809821222793e+000
1259:-9.5015740042838237e-001
1260:-2.5215615182918532e+000
1261:-1.8286957097894854e+000
1262:-1.1690910106053511e+000
1263:-8.2599733216629523e-001
1264:-7.6533757483334519e-001
1265:-4.8835649957923466e-001
1266:-2.9528386435934423e-001
1267:-2.2701946628351036e-001
1268:-8.0656324130086676e-001
1269:-5.3333023890040232e-001
1270:-3.4199191603991347e-001
1271:-2.7086342820224307e-001
1272:-7.7344477403149248e-001
1273:-5.3943303828412625e-001
1274:-3.7276389844939262e-001
1275:-3.0589289114505419e-001
1276:-6.9281549833707801e-001
1277:-5.1480834307433343e-001
1278:-3.8332163123286045e-001
1279:-3.2483306740090456e-001
1280:-2.0376516569683867e-001
1281:-1.6637706323927162e-001
1282:-1.2165510054381681e-001
1283:-8.4303926177736910e-002
1284:-2.4431454660459256e-001
1285:-2.0158610323305684e-001
1286:-1.5292126760140673e-001
1287:-1.1527981773196069e-001
1288:-2.7834472119522524e-001
1289:-2.3323146460587099e-001
1290:-1.8310483580699713e-001
1291:-1.4724664671302767e-001
1292:-2.9839567689747870e-001
1293:-2.5349743228134825e-001
1294:-2.0266615046289502e-001
1295:-1.6761215318643857e-001
1296:-6.2080096623742968e-002
1297:-2.5630018219383825e-002
1298:1.0336361463004491e-002
1299:2.9929989498825079e-002
1300:-9.3798595808411531e-002
1301:-5.7284879072199098e-002
1302:-1.8944113521300522e-002
1303:3.0606336443464886e-003
1304:-1.2798347036482832e-001
1305:-9.3976752091727553e-002
1306:-5.5357176708001603e-002
1307:-3.0985597220282206e-002
1308:-1.4973523468939481e-001
1309:-1.1787976161809781e-001
1310:-8.0316931887987289e-002
1311:-5.5119058681869545e-002
1312:3.7992940246049510e-002
1313:5.1935341468440428e-002
1314:6.8286671518982586e-002
1315:7.9271107116870021e-002
1316:1.2270239287934576e-002
1317:2.7951741317503522e-002
1318:4.6161291648218139e-002
1319:5.8613616820582054e-002
1320:-1.9999212988787558e-002
1321:-1.4799815341040264e-003
1322:1.9398340917091587e-002
1323:3.3309310224182993e-002
1324:-4.3096746072257407e-002
1325:-2.2759169497788213e-002
1326:-7.0299782069832139e-005
1327:1.4754066104852689e-002
1328:8.4500243473178568e-002
1329:9.2567540245622956e-002
1330:9.9919357074833237e-002
1331:1.0346354421082987e-001
1332:6.4737254848140718e-002
1333:7.4553082109877489e-002
1334:8.4139373324836023e-002
1335:8.9228388878517098e-002
1336:4.0086919701069784e-002
1337:5.1330717530822655e-002
1338:6.3134056023087498e-002
1339:7.0080038660101387e-002
1340:2.1863011621245321e-002
1341:3.3878260984940227e-002
1342:4.7030059376921951e-002
1343:5.5229413421774322e-002
1344:1.0475074780177193e-001
1345:1.0674863884434159e-001
1346:1.0855298512745216e-001
1347:1.0921216747514699e-001
1348:9.1242866131393305e-002
1349:9.4465368857593102e-002
1350:9.7681132213640318e-002
1351:9.9349653679098593e-002
1352:7.3094336910091026e-002
1353:7.7995353600288211e-002
1354:8.3050484180565098e-002
1355:8.5932699805543536e-002
1356:5.8964057325287894e-002
1357:6.5085360991950850e-002
1358:7.1472568257899410e-002
1359:7.5217400787935096e-002
1360:1.0927433931742517e-001
1361:1.0884486917557977e-001
1362:1.0731482407230225e-001
1363:1.0549112899947043e-001
1364:9.9942902138440037e-002
1365:1.0046806881265395e-001
1366:1.0006910001256041e-001
1367:9.9002734680449539e-002
1368:8.7127815956508273e-002
1369:8.8758240884752815e-002
1370:8.9734677665851276e-002
1371:8.9644449632444223e-002
1372:7.6832029462153534e-002
1373:7.9244413874206929e-002
1374:8.1222867316730396e-002
1375:8.1867198860566245e-002
1376:1.0432020625692279e-001
1377:1.0182979206266184e-001
1378:9.7959618684139438e-002
1379:9.4462348673108862e-002
1380:9.8191156103648411e-002
1381:9.6311907764317764e-002
1382:9.3141063339048535e-002
1383:9.0124218996229660e-002
1384:8.9316738671403328e-002
1385:8.8266111326733607e-002
1386:8.6044921800293508e-002
1387:8.3679119268338889e-002
1388:8.1912080352777084e-002
1389:8.1503667044466585e-002
1390:8.0023164945152825e-002
1391:7.8167650660399879e-002
1392:9.2392425881434537e-002
1393:8.8082027868579924e-002
1394:8.1611720094365556e-002
1395:7.5999368896711952e-002
1396:8.8296346948748855e-002
1397:8.4415083314458877e-002
1398:7.8452418414009559e-002
1399:7.3186775445085395e-002
1400:8.2178389454145545e-002
1401:7.8882936597959419e-002
1402:7.3627579155112505e-002
1403:6.8857726504975500e-002
1404:7.6924048177725357e-002
1405:7.4094013001034437e-002
1406:6.9412047579744660e-002
1407:6.5054020761603187e-002
1408:7.2768357574451117e-002
1409:6.6112780256157341e-002
1410:5.6182822838957390e-002
1411:4.7565100366883349e-002
1412:7.0125790968327995e-002
1413:6.3780326042753646e-002
1414:5.4250268766948967e-002
1415:4.5943819045599056e-002
1416:6.6045120211118441e-002
1417:6.0162179558143992e-002
1418:5.1245184724807956e-002
1419:4.3426423671935527e-002
1420:6.2451555467233376e-002
1421:5.6964303625640776e-002
1422:4.8578293992252532e-002
1423:4.1185431190408295e-002
1424:4.2590382304051690e-002
1425:3.2338675149669142e-002
1426:1.7065403017752820e-002
1427:3.8475106692021990e-003
1428:4.1140040450352772e-002
1429:3.1236499984220338e-002
1430:1.6478549332256471e-002
1431:3.7061875649367360e-003
1432:3.8892944692462600e-002
1433:2.9536936618776287e-002
1434:1.5583141889160082e-002
1435:3.5024143240886120e-003
1436:3.6888749832444750e-002
1437:2.8013386894753679e-002
1438:1.4767777440019395e-002
1439:3.2981480189987217e-003
1440:-3.4846750270536289e+000
1441:-5.7680286568605998e+000
1442:-7.2555868591287220e+000
1443:-7.5586090545161442e+000
1444:-1.6983533303978919e+000
1445:-3.1624737181178078e+000
1446:-4.1691140269958513e+000
1447:-4.3918960074356841e+000
1448:-5.0554870426302756e-001
1449:-1.0643301602690032e+000
1450:-1.4987236173538840e+000
1451:-1.6219650923242444e+000
1452:-1.7833192079346505e-001
1453:-3.5586511087412670e-001
1454:-5.3609265699666964e-001
1455:-6.1752171746845252e-001
1456:-7.5149764221160043e+000
1457:-7.1453776095208479e+000
1458:-6.2741108262891485e+000
1459:-5.4674335892226100e+000
1460:-4.3631744321131398e+000
1461:-4.1517448905578789e+000
1462:-3.6731430669825937e+000
1463:-3.2340034623866631e+000
1464:-1.6218706199172130e+000
1465:-1.5725739375539731e+000
1466:-1.4491115869985554e+000
1467:-1.3304841517802743e+000
1468:-6.3743434698213886e-001
1469:-6.5979479122920703e-001
1470:-6.6933781437066409e-001
1471:-6.6449287666993839e-001
1472:-5.0329671404015803e+000
1473:-4.2011831572773426e+000
1474:-3.1390067113709272e+000
1475:-2.4030503117188866e+000
1476:-2.9970806885462520e+000
1477:-2.5350296176154408e+000
1478:-1.9354986782837942e+000
1479:-1.5197841790611000e+000
1480:-1.2640190902389894e+000
1481:-1.1222133520579554e+000
1482:-9.2371625890582698e-001
1483:-7.8318912168434551e-001
1484:-6.5793691234825602e-001
1485:-6.3178869798066795e-001
1486:-5.8129884037377244e-001
1487:-5.4160557053546199e-001
1488:-2.0573980073770777e+000
1489:-1.5175971551058627e+000
1490:-1.0058294205521991e+000
1491:-7.3966250908525299e-001
1492:-1.3264384284400692e+000
1493:-1.0276217707481548e+000
1494:-7.4732429936316180e-001
1495:-6.0092458423617490e-001
1496:-7.1904137704139282e-001
1497:-6.2249760941472232e-001
1498:-5.3332992485755382e-001
1499:-4.8397386747613358e-001
1500:-5.2355607282247452e-001
1501:-4.9674565683947614e-001
1502:-4.6961170196840057e-001
1503:-4.4939206394472020e-001
1504:-6.3572245744919653e-001
1505:-4.9517525040027055e-001
1506:-3.8708420731293902e-001
1507:-3.3442968133477607e-001
1508:-5.4237055646352950e-001
1509:-4.6001242333496745e-001
1510:-3.8885904672853433e-001
1511:-3.4656135209713290e-001
1512:-4.6170785136548220e-001
1513:-4.2564625976575449e-001
1514:-3.8440974033698755e-001
1515:-3.5213433803299954e-001
1516:-4.3734262061723628e-001
1517:-4.1363574846401524e-001
1518:-3.7998181716631063e-001
1519:-3.5108387920524359e-001
1520:-3.0906327818734941e-001
1521:-2.6465070029020388e-001
1522:-2.1304940864899377e-001
1523:-1.7768423446529960e-001
1524:-3.2390948674723657e-001
1525:-2.8203728545398682e-001
1526:-2.3075825800942962e-001
1527:-1.9521317482376072e-001
1528:-3.3329725793292581e-001
1529:-2.9663487027371011e-001
1530:-2.4899498554246902e-001
1531:-2.1469702399965016e-001
1532:-3.3434283376619445e-001
1533:-3.0165572595233681e-001
1534:-2.5845019769991068e-001
1535:-2.2645455481487689e-001
1536:-1.6009711364030516e-001
1537:-1.2897336430227818e-001
1538:-9.2132270198045499e-002
1539:-6.6926370350998285e-002
1540:-1.7790236624783559e-001
1541:-1.4764378251464746e-001
1542:-1.1187752891834864e-001
1543:-8.6905888542514728e-002
1544:-1.9779190463140561e-001
1545:-1.6837907143126804e-001
1546:-1.3368659994734097e-001
1547:-1.0925550457090515e-001
1548:-2.1026910850089733e-001
1549:-1.8183664404458957e-001
1550:-1.4799881099925080e-001
1551:-1.2404751806488848e-001
1552:-5.4615413692679561e-002
1553:-3.3659419415872097e-002
1554:-1.0215683926976988e-002
1555:5.0607622423915651e-003
1556:-7.4375849227302948e-002
1557:-5.2797703780151806e-002
1558:-2.8390567432670374e-002
1559:-1.2400117341025278e-002
1560:-9.6839150482505396e-002
1561:-7.5178109356708253e-002
1562:-5.0217344729736761e-002
1563:-3.3572547811462149e-002
1564:-1.1185988872251461e-001
1565:-9.0440738363031695e-002
1566:-6.5425312441807645e-002
1567:-4.8484979617771262e-002
1568:1.2350327096784987e-002
1569:2.4758281429209741e-002
1570:3.8558074518043453e-002
1571:4.7350408848418575e-002
1572:-4.7709020199507820e-003
1573:8.3438695491269387e-003
1574:2.3233814619162785e-002
1575:3.2986100690989582e-002
1576:-2.5547413681503480e-002
1577:-1.1639575437223685e-002
1578:4.3911794908615452e-003
1579:1.5109388934766099e-002
1580:-4.0228031907170017e-002
1581:-2.5864821062787140e-002
1582:-9.2020270684017649e-003
1583:2.0496884402015571e-003
1584:5.1427076137913690e-002
1585:5.8136687589011263e-002
1586:6.5183140115912003e-002
1587:6.9366654185299789e-002
1588:3.7609714338976127e-002
1589:4.5282449214725268e-002
1590:5.3453407638734921e-002
1591:5.8415000906884687e-002
1592:2.0279042889178873e-002
1593:2.8961047556573010e-002
1594:3.8398518411215436e-002
1595:4.4288108577577256e-002
1596:7.5265968554700195e-003
1597:1.6819433771086086e-002
1598:2.7093178732101215e-002
1599:3.3630021096772197e-002
1600:7.1198005122752248e-002
1601:7.4015571948346348e-002
1602:7.6515137454797988e-002
1603:7.7543477562736260e-002
1604:6.0638334250315666e-002
1605:6.4182714235700850e-002
1606:6.7608295492018272e-002
1607:6.9318597230419110e-002
1608:4.6989935716534460e-002
1609:5.1407739510410166e-002
1610:5.5927981637122821e-002
1611:5.8444506981662980e-002
1612:3.6670982037976071e-002
1613:4.1696271551838894e-002
1614:4.6963749278874485e-002
1615:5.0031457786845070e-002
1616:7.7784037955717852e-002
1617:7.7714609165388290e-002
1618:7.6628096930404108e-002
1619:7.5046020553824533e-002
1620:6.9908585937571113e-002
1621:7.0451917964327440e-002
1622:7.0089509472017322e-002
1623:6.9015826893156232e-002
1624:5.9452237081819889e-002
1625:6.0744587682430802e-002
1626:6.1293222962502343e-002
1627:6.0871639310118464e-002
1628:5.1328985055850047e-002
1629:5.3154998038832203e-002
1630:5.4374476099840523e-002
1631:5.4443407346751939e-002
1632:7.3940824619067355e-002
1633:7.1363161267901806e-002
1634:6.6996237562978761e-002
1635:6.2868042090987314e-002
1636:6.8168911837456145e-002
1637:6.6063931269919551e-002
1638:6.2292564573921565e-002
1639:5.8604992549881538e-002
1640:6.0357874751978430e-002
1641:5.8864271873406537e-002
1642:5.5870502185102748e-002
1643:5.2767714101688380e-002
1644:5.4181782971749352e-002
1645:5.3150907180263815e-002
1646:5.0748447801032007e-002
1647:4.8095387706500507e-002
1648:6.0384176710365459e-002
1649:5.5121080348240370e-002
1650:4.7036677668459308e-002
1651:3.9885900573626829e-002
1652:5.6351167386951680e-002
1653:5.1525237748222201e-002
1654:4.4031788105562367e-002
1655:3.7356160990090169e-002
1656:5.0823594851944529e-002
1657:4.6591521698154580e-002
1658:3.9907907388556992e-002
1659:3.3886366396875173e-002
1660:4.6392074499556464e-002
1661:4.2626188763240883e-002
1662:3.6584952100621987e-002
1663:3.1085514006135767e-002
1664:3.5723815043351655e-002
1665:2.7122839348306848e-002
1666:1.4284100331752446e-002
1667:3.1674603345176601e-003
1668:3.3458315371844238e-002
1669:2.5398596386512946e-002
1670:1.3367548113106385e-002
1671:2.9549384333827275e-003
1672:3.0352705007961181e-002
1673:2.3041610396667429e-002
1674:1.2132760472689935e-002
1675:2.7015252400541803e-003
1676:2.7843119875140994e-002
1677:2.1130657654080533e-002
1678:1.1118816841159970e-002
1679:2.4717898766911184e-003
1680:-1.2045666560886287e-001
1681:-2.4665956781900858e-001
1682:-3.8928890318622206e-001
1683:-4.6734315444059737e-001
1684:-5.6404186269500070e-002
1685:-1.3944965089403863e-001
1686:-2.4451776483970836e-001
1687:-3.1557209571280465e-001
1688:-2.0238491049125656e-002
1689:-8.1740489246027365e-002
1690:-1.6039530508302527e-001
1691:-2.1831899063467983e-001
1692:-1.3306654178503477e-002
1693:-7.2134747074674488e-002
1694:-1.4326418891168749e-001
1695:-1.9381944700359038e-001
1696:-4.9448165620716650e-001
1697:-5.3231970653014382e-001
1698:-5.6206177974144411e-001
1699:-5.7219978256028359e-001
1700:-3.4799890350847246e-001
1701:-3.9779893617658857e-001
1702:-4.4408311489828273e-001
1703:-4.6792853813256396e-001
1704:-2.4775097285477690e-001
1705:-2.9593302962586560e-001
1706:-3.4646779512356796e-001
1707:-3.7796347942794278e-001
1708:-2.1933980879076606e-001
1709:-2.6271693443310329e-001
1710:-3.1129344698037070e-001
1711:-3.4353914580644279e-001
1712:-5.7353593211840481e-001
1713:-5.6525842724113640e-001
1714:-5.4052123848945544e-001
1715:-5.1841113875869083e-001
1716:-4.7727972385453638e-001
1717:-4.8875964742495936e-001
1718:-4.9380874157361737e-001
1719:-4.9199857024992799e-001
1720:-3.9287434105557439e-001
1721:-4.1795380697777085e-001
1722:-4.4316728977382625e-001
1723:-4.5499109334403481e-001
1724:-3.5929671122076984e-001
1725:-3.8594127385027738e-001
1726:-4.1298238699160816e-001
1727:-4.2600905208092843e-001
1728:-5.0775849652908633e-001
1729:-4.9052664675295915e-001
1730:-4.6923252811118571e-001
1731:-4.5001998097944418e-001
1732:-4.8960115930204767e-001
1733:-4.8256970978216940e-001
1734:-4.6687444622892393e-001
1735:-4.4842855641317375e-001
1736:-4.5814675904404112e-001
1737:-4.5852057341280311e-001
1738:-4.4865908323221448e-001
1739:-4.3353191066153424e-001
1740:-4.2974703738846942e-001
1741:-4.3155311508543087e-001
1742:-4.2468704235310861e-001
1743:-4.1306539482346621e-001
1744:-4.3778287337334204e-001
1745:-4.1318498226229561e-001
1746:-3.7836629091416968e-001
1747:-3.4947753562662154e-001
1748:-4.3605173685461995e-001
1749:-4.1065579279036746e-001
1750:-3.7485344315810315e-001
1751:-3.4630413535660759e-001
1752:-4.2298545562758733e-001
1753:-4.0048946262321927e-001
1754:-3.6770293307881607e-001
1755:-3.4134216807628315e-001
1756:-4.0486938699209263e-001
1757:-3.8679822962338756e-001
1758:-3.5925865340137636e-001
1759:-3.3618049391515625e-001
1760:-3.3330459901709675e-001
1761:-3.0231319434965304e-001
1762:-2.6174361801168833e-001
1763:-2.3144658295677209e-001
1764:-3.3099568577647515e-001
1765:-3.0260784333646068e-001
1766:-2.6624676699086491e-001
1767:-2.3884730986808078e-001
1768:-3.2731160293019179e-001
1769:-3.0179980100560377e-001
1770:-2.6960653502783527e-001
1771:-2.4519303106031198e-001
1772:-3.2355544102672895e-001
1773:-3.0032631510882285e-001
1774:-2.7064071707124054e-001
1775:-2.4793101435062168e-001
1776:-2.1587413479307654e-001
1777:-1.8822060425968856e-001
1778:-1.5493483921575510e-001
1779:-1.3123947115490603e-001
1780:-2.2443333730186119e-001
1781:-1.9835848572338255e-001
1782:-1.6633705191872283e-001
1783:-1.4328861593812622e-001
1784:-2.3214007135711598e-001
1785:-2.0814071187432445e-001
1786:-1.7810223920736812e-001
1787:-1.5620715877196881e-001
1788:-2.3574625971607222e-001
1789:-2.1324134194578384e-001
1790:-1.8487238518419910e-001
1791:-1.6404451922650676e-001
1792:-1.1917998470469665e-001
1793:-9.7928174905560286e-002
1794:-7.2965695608213241e-002
1795:-5.5937428126314505e-002
1796:-1.3153807628663516e-001
1797:-1.1072060351817357e-001
1798:-8.6005332095842310e-002
1799:-6.8916360923387696e-002
1800:-1.4499245774070316e-001
1801:-1.2497287552333156e-001
1802:-1.0086616327438544e-001
1803:-8.3907760609030727e-002
1804:-1.5332292564259228e-001
1805:-1.3406773833218363e-001
1806:-1.1063713042810008e-001
1807:-9.3949298135426865e-002
1808:-4.7591647781547251e-002
1809:-3.3052897282028537e-002
1810:-1.6143380565162638e-002
1811:-4.6749810351828479e-003
1812:-6.0455460586605669e-002
1813:-4.5674666867835834e-002
1814:-2.8408934603047033e-002
1815:-1.6621152178152791e-002
1816:-7.5404327011371675e-002
1817:-6.0480551069672504e-002
1818:-4.2940131703237482e-002
1819:-3.0879185879004126e-002
1820:-8.5506016944633320e-002
1821:-7.0616204632416718e-002
1822:-5.3005891181619531e-002
1823:-4.0826769682716445e-002
1824:9.3170433127660857e-004
1825:1.0499749402815907e-002
1826:2.1175076183368835e-002
1827:2.8033375598850736e-002
1828:-1.0822091664625760e-002
1829:-8.3375440418606854e-004
1830:1.0480132434610946e-002
1831:1.7869483785901502e-002
1832:-2.4912213680862039e-002
1833:-1.4542489698384715e-002
1834:-2.6127790027889140e-003
1835:5.3230423737562630e-003
1836:-3.4780226642830633e-002
1837:-2.4224317828850258e-002
1838:-1.1974255011283368e-002
1839:-3.7307865623164129e-003
1840:3.1244066223571790e-002
1841:3.6569638649015815e-002
1842:4.2202086911522246e-002
1843:4.5539594060994296e-002
1844:2.1367968630004983e-002
1845:2.7209010748095456e-002
1846:3.3475464060625043e-002
1847:3.7283915235315677e-002
1848:9.1319236094491215e-003
1849:1.5546684698769537e-002
1850:2.2542299874887449e-002
1851:2.6900704399368279e-002
1852:2.6337470728679774e-004
1853:7.0383229426677326e-003
1854:1.4516862959068731e-002
1855:1.9249914002952232e-002
1856:4.6980531462138660e-002
1857:4.9075766370458428e-002
1858:5.0641599678283349e-002
1859:5.0967672734561743e-002
1860:3.8974968046003533e-002
1861:4.1541481922690367e-002
1862:4.3719338272319358e-002
1863:4.4505910272217598e-002
1864:2.8883690250199493e-002
1865:3.2000799853614738e-002
1866:3.4900372068382507e-002
1867:3.6239946089795326e-002
1868:2.1432613215814203e-002
1869:2.4925554981991130e-002
1870:2.8320370522958986e-002
1871:3.0045492837190341e-002
1872:5.0838895689951202e-002
1873:5.0051666352637039e-002
1874:4.7960980305772768e-002
1875:4.5546246479707862e-002
1876:4.4617708192717806e-002
1877:4.4275102958948598e-002
1878:4.2758531990069626e-002
1879:4.0785497063362326e-002
1880:3.6645597130794336e-002
1881:3.6853692954075291e-002
1882:3.6059745383606942e-002
1883:3.4648641798420816e-002
1884:3.0659370881926676e-002
1885:3.1263838962614046e-002
1886:3.0999456751275165e-002
1887:3.0005036096574626e-002
1888:4.3971247143049522e-002
1889:4.0455422371917016e-002
1890:3.4761435389193941e-002
1891:2.9545701296888799e-002
1892:3.9448979636411363e-002
1893:3.6399660058685210e-002
1894:3.1357180645635849e-002
1895:2.6676601461795471e-002
1896:3.3616760804449176e-002
1897:3.1165797143525440e-002
1898:2.6964454854041253e-002
1899:2.2979401852578008e-002
1900:2.9200036973440160e-002
1901:2.7195960418035639e-002
1902:2.3625766713521242e-002
1903:2.0165252787520932e-002
1904:2.6461869579119644e-002
1905:2.0074704904475427e-002
1906:1.0549035933958123e-002
1907:2.3262084737047132e-003
1908:2.3892768023204919e-002
1909:1.8120487846115349e-002
1910:9.5117664457302978e-003
1911:2.0871561986213491e-003
1912:2.0587007720995001e-002
1913:1.5616396274273145e-002
1914:8.2002412352504203e-003
1915:1.8108397390067452e-003
1916:1.8069000089977187e-002
1917:1.3704667527279083e-002
1918:7.1888880228389886e-003
1919:1.5793585610201506e-003
1920:-1.2292839424008391e-002
1921:-7.0642542963605059e-002
1922:-1.4056272257164881e-001
1923:-1.8958480396469510e-001
1924:-1.1411625234354550e-002
1925:-6.6246880484362863e-002
1926:-1.3258369869792583e-001
1927:-1.7926617119720903e-001
1928:-1.1429717507010002e-002
1929:-5.8787657434957112e-002
1930:-1.1820330787825428e-001
1931:-1.6151117653905930e-001
1932:-1.1692644413977708e-002
1933:-5.3550884341831709e-002
1934:-1.0734626274655755e-001
1935:-1.4752796457631842e-001
1936:-2.1409861251152551e-001
1937:-2.5633416644763873e-001
1938:-3.0431600033129597e-001
1939:-3.3603077866756881e-001
1940:-2.0262632936257968e-001
1941:-2.4359267209210028e-001
1942:-2.9072948328803550e-001
1943:-3.2136920401526270e-001
1944:-1.8365995791917125e-001
1945:-2.2286677549303874e-001
1946:-2.6810740620132462e-001
1947:-2.9713024987954106e-001
1948:-1.6838472862499251e-001
1949:-2.0519262700446955e-001
1950:-2.4756250109493741e-001
1951:-2.7491254559809586e-001
1952:-3.5123276325439878e-001
1953:-3.7601887274883206e-001
1954:-3.9991447853427103e-001
1955:-4.1083703937207472e-001
1956:-3.3552066639248063e-001
1957:-3.5727639902470659e-001
1958:-3.7652937972214445e-001
1959:-3.8466620034459065e-001
1960:-3.1023246685492972e-001
1961:-3.2990817262074135e-001
1962:-3.4702079935566960e-001
1963:-3.5463814492588969e-001
1964:-2.8742248358756728e-001
1965:-3.0680881977580038e-001
1966:-3.2492498821766591e-001
1967:-3.3411405753781009e-001
1968:-4.1382384026209001e-001
1969:-4.1514003647720249e-001
1970:-4.0929788337510797e-001
1971:-3.9959377634927090e-001
1972:-3.8682158281870799e-001
1973:-3.8784347809052905e-001
1974:-3.8378128686644020e-001
1975:-3.7684396172344575e-001
1976:-3.5708624637523240e-001
1977:-3.5926360889655529e-001
1978:-3.5757676591789228e-001
1979:-3.5293973828410036e-001
1980:-3.3758446617378907e-001
1981:-3.4155479403837175e-001
1982:-3.4184518172629358e-001
1983:-3.3841789887669738e-001
1984:-3.9276160935745374e-001
1985:-3.7747466882906544e-001
1986:-3.5351329515747604e-001
1987:-3.3274303528087179e-001
1988:-3.7189936360809817e-001
1989:-3.6062273432307973e-001
1990:-3.4214675162892200e-001
1991:-3.2519529939186553e-001
1992:-3.4935370006819350e-001
1993:-3.4109111292217437e-001
1994:-3.2716152882997507e-001
1995:-3.1383433261112026e-001
1996:-3.3537563070035042e-001
1997:-3.2823656983918265e-001
1998:-3.1611326367295067e-001
1999:-3.0450362137096665e-001
2000:-3.2108127901693073e-001
2001:-2.9921904004981242e-001
2002:-2.7074235436215860e-001
2003:-2.4876519479526965e-001
2004:-3.1525577258031445e-001
2005:-2.9594439732023409e-001
2006:-2.6985446353046988e-001
2007:-2.4935204454798660e-001
2008:-3.0575962274860868e-001
2009:-2.8949260741085220e-001
2010:-2.6664699472852565e-001
2011:-2.4827982630585349e-001
2012:-2.9747024285485674e-001
2013:-2.8315445512092824e-001
2014:-2.6274304403614374e-001
2015:-2.4610545930222821e-001
2016:-2.3697321280812084e-001
2017:-2.1520666774640493e-001
2018:-1.8774612882666564e-001
2019:-1.6752874011380867e-001
2020:-2.3832663311288632e-001
2021:-2.1796272976489725e-001
2022:-1.9217479676627258e-001
2023:-1.7305132747070207e-001
2024:-2.3832675964533667e-001
2025:-2.1983735333936794e-001
2026:-1.9617167008745962e-001
2027:-1.7838797037046361e-001
2028:-2.3700930275247412e-001
2029:-2.1997197611783342e-001
2030:-1.9789828360071018e-001
2031:-1.8111056760891683e-001
2032:-1.5708945991088322e-001
2033:-1.3828232675281749e-001
2034:-1.1527772797558437e-001
2035:-9.8794878462613603e-002
2036:-1.6311069640352885e-001
2037:-1.4511232679781982e-001
2038:-1.2292644587206984e-001
2039:-1.0689282978986440e-001
2040:-1.6905254856917762e-001
2041:-1.5206086558257725e-001
2042:-1.3096321837698915e-001
2043:-1.1560110334069375e-001
2044:-1.7223141183084720e-001
2045:-1.5600771841156225e-001
2046:-1.3576252131760913e-001
2047:-1.2095153445534000e-001
2048:-9.0418918557787317e-002
2049:-7.5601233499761639e-002
2050:-5.8002856899035005e-002
2051:-4.5787957268506499e-002
2052:-9.8694261824414070e-002
2053:-8.4104646098278280e-002
2054:-6.6629860850883377e-002
2055:-5.4404083645895197e-002
2056:-1.0770412992294293e-001
2057:-9.3552181116794156e-002
2058:-7.6413518806766625e-002
2059:-6.4285951002226102e-002
2060:-1.1331448800637990e-001
2061:-9.9568034777933814e-002
2062:-8.2796756541853200e-002
2063:-7.0830746698329061e-002
2064:-3.9712003567802107e-002
2065:-2.9087134110412402e-002
2066:-1.6713938011728057e-002
2067:-8.3445173975154937e-003
2068:-4.8294408942116875e-002
2069:-3.7579393710794808e-002
2070:-2.5031140340264553e-002
2071:-1.6475208568070252e-002
2072:-5.8180682644645675e-002
2073:-4.7430638899591163e-002
2074:-3.4758381181911858e-002
2075:-2.6045411051377906e-002
2076:-6.4771866392941482e-002
2077:-5.4066058280090534e-002
2078:-4.1379491530669235e-002
2079:-3.2605627024769025e-002
2080:-4.2707656687764840e-003
2081:2.6668398899187466e-003
2082:1.0374983895752234e-002
2083:1.5291319721293500e-002
2084:-1.2281632736290729e-002
2085:-5.0919643882715998e-003
2086:2.9856497639805198e-003
2087:8.2067157091416012e-003
2088:-2.1745853563791457e-002
2089:-1.4321502625178086e-002
2090:-5.8767572797426082e-003
2091:-3.3513566244996557e-004
2092:-2.8257646718567821e-002
2093:-2.0716580610029740e-002
2094:-1.2071568789773824e-002
2095:-6.3416596688320266e-003
2096:1.7572446472022260e-002
2097:2.1250152549524899e-002
2098:2.4888806706907136e-002
2099:2.6805458525255489e-002
2100:1.0654787063726388e-002
2101:1.4649094122344193e-002
2102:1.8710609637833140e-002
2103:2.0962559969806272e-002
2104:2.2949227532980186e-003
2105:6.6422016125678969e-003
2106:1.1187343412150384e-002
2107:1.3829764704776391e-002
2108:-3.5998944990064726e-003
2109:9.7118894951789107e-004
2110:5.8342597099131956e-003
2111:8.7397412643071722e-003
2112:2.7523803217301173e-002
2113:2.8329342713465620e-002
2114:2.8337079290919515e-002
2115:2.7558611683049766e-002
2116:2.1864693687880833e-002
2117:2.3026001031352203e-002
2118:2.3519324483511551e-002
2119:2.3129388175468939e-002
2120:1.4947687540333774e-002
2121:1.6530014104256439e-002
2122:1.7605037280743165e-002
2123:1.7686310665004465e-002
2124:1.0004609566486404e-002
2125:1.1876050114818900e-002
2126:1.3355619333566698e-002
2127:1.3768794259926572e-002
2128:2.6871587604361369e-002
2129:2.5100204764523532e-002
2130:2.1859391066010044e-002
2131:1.8673324561468550e-002
2132:2.2655714887565376e-002
2133:2.1306555337015667e-002
2134:1.8665615675269889e-002
2135:1.5980659873606307e-002
2136:1.7473474555645518e-002
2137:1.6643187464303089e-002
2138:1.4743452997845385e-002
2139:1.2679826534163519e-002
2140:1.3741192793708541e-002
2141:1.3281212696084640e-002
2142:1.1913091592753430e-002
2143:1.0296425586761433e-002
2144:1.6732275162175819e-002
2145:1.2685670411723343e-002
2146:6.6413867528640185e-003
2147:1.4397965228246936e-003
2148:1.4323288741807893e-002
2149:1.0857172474237297e-002
2150:5.6734586025204954e-003
2151:1.2156207719964691e-003
2152:1.1374618567519323e-002
2153:8.6284509256163242e-003
2154:4.5101325770124049e-003
2155:9.7137044763826060e-004
2156:9.2447732827515422e-003
2157:7.0162995583730788e-003
2158:3.6623804177224580e-003
2159:7.8161120296462523e-004
2160:-1.1709792623341335e-002
2161:-5.1418572546870628e-002
2162:-1.0254069750065407e-001
2163:-1.4082434654205803e-001
2164:-1.1146918325520488e-002
2165:-4.8015202114403251e-002
2166:-9.5118048665201543e-002
2167:-1.3017010289216285e-001
2168:-9.6503764225747465e-003
2169:-4.4022122157056982e-002
2170:-8.7196226733377791e-002
2171:-1.1880537182687362e-001
2172:-8.3464248970155502e-003
2173:-4.0817396580269491e-002
2174:-8.1364318461374124e-002
2175:-1.1088508119281314e-001
2176:-1.6072372488007264e-001
2177:-1.9567136514641822e-001
2178:-2.3586284468761964e-001
2179:-2.6212122442136349e-001
2180:-1.4831580790963161e-001
2181:-1.7996545549424364e-001
2182:-2.1643128623389302e-001
2183:-2.4082891778142901e-001
2184:-1.3500878602486405e-001
2185:-1.6325281280456377e-001
2186:-1.9610694422314012e-001
2187:-2.1863391226420481e-001
2188:-1.2598117287191860e-001
2189:-1.5250289247720308e-001
2190:-1.8371435751235443e-001
2191:-2.0529197245500092e-001
2192:-2.7437485751824936e-001
2193:-2.9397561415271067e-001
2194:-3.1333600050519844e-001
2195:-3.2383978899901261e-001
2196:-2.5261016803128128e-001
2197:-2.7232143734897807e-001
2198:-2.9317577534100309e-001
2199:-3.0530503263602082e-001
2200:-2.2980747921784048e-001
2201:-2.4898116137379669e-001
2202:-2.6996935098936919e-001
2203:-2.8254904476293746e-001
2204:-2.1601730393022059e-001
2205:-2.3433952941852415e-001
2206:-2.5429090540775257e-001
2207:-2.6623870595093257e-001
2208:-3.2801848113997650e-001
2209:-3.3312994407165275e-001
2210:-3.3453736180083266e-001
2211:-3.3170220245725512e-001
2212:-3.1035344796782693e-001
2213:-3.1697669431684067e-001
2214:-3.2014875783349334e-001
2215:-3.1853533551740593e-001
2216:-2.8788586356576923e-001
2217:-2.9530398775103101e-001
2218:-3.0005684848907727e-001
2219:-3.0007148931598554e-001
2220:-2.7133841304795009e-001
2221:-2.7869688002820098e-001
2222:-2.8413342651728762e-001
2223:-2.8522684811981108e-001
2224:-3.2889146890058812e-001
2225:-3.2212187631337980e-001
2226:-3.1051968823072196e-001
2227:-2.9947956549800925e-001
2228:-3.1633133224266607e-001
2229:-3.1055033515115410e-001
2230:-3.0014829293887629e-001
2231:-2.9016656077436737e-001
2232:-2.9886079869431675e-001
2233:-2.9481337230042343e-001
2234:-2.8645852714087344e-001
2235:-2.7799160731355721e-001
2236:-2.8476283537552421e-001
2237:-2.8213582650896096e-001
2238:-2.7557021828686856e-001
2239:-2.6838729869386369e-001
2240:-2.9284733914620720e-001
2241:-2.7939545261315746e-001
2242:-2.6021052911686321e-001
2243:-2.4449681808271465e-001
2244:-2.8420693746573605e-001
2245:-2.7218864548262472e-001
2246:-2.5504479416427611e-001
2247:-2.4088450836246894e-001
2248:-2.7285631712742303e-001
2249:-2.6247985866676676e-001
2250:-2.4757591455813394e-001
2251:-2.3511596535567850e-001
2252:-2.6389675545008684e-001
2253:-2.5470043341495913e-001
2254:-2.4129050593394527e-001
2255:-2.2994225612201927e-001
2256:-2.3585896804408285e-001
2257:-2.1958975880779005e-001
2258:-1.9835303847400376e-001
2259:-1.8209609584181424e-001
2260:-2.3302717727555233e-001
2261:-2.1809139683293388e-001
2262:-1.9836087219855747e-001
2263:-1.8310431510338424e-001
2264:-2.2813056758863381e-001
2265:-2.1473327540579423e-001
2266:-1.9683395685006175e-001
2267:-1.8286343484032672e-001
2268:-2.2353717365914735e-001
2269:-2.1119288374412057e-001
2270:-1.9459602127915024e-001
2271:-1.8157084090935999e-001
2272:-1.7346588135152866e-001
2273:-1.5766093789787003e-001
2274:-1.3787805938747916e-001
2275:-1.2336497378703146e-001
2276:-1.7495940734669851e-001
2277:-1.5997097109846758e-001
2278:-1.4107930695418588e-001
2279:-1.2712778899925947e-001
2280:-1.7536464514665268e-001
2281:-1.6147043623396926e-001
2282:-1.4377359672899873e-001
2283:-1.3056791481684507e-001
2284:-1.7455541432812433e-001
2285:-1.6149127366526797e-001
2286:-1.4471960731246325e-001
2287:-1.3210317799112181e-001
2288:-1.1586885790822442e-001
2289:-1.0235112686616862e-001
2290:-8.5805556735340599e-002
2291:-7.3955116094035600e-002
2292:-1.1989210286396838e-001
2293:-1.0680400829055620e-001
2294:-9.0703235235402066e-002
2295:-7.9102873375214211e-002
2296:-1.2367390610428194e-001
2297:-1.1115813898391946e-001
2298:-9.5677183544250310e-002
2299:-8.4455632503638411e-002
2300:-1.2548238311522183e-001
2301:-1.1342760588280656e-001
2302:-9.8455683873046693e-002
2303:-8.7557117781267915e-002
2304:-6.7937552539369297e-002
2305:-5.7282451301326462e-002
2306:-4.4617036996642788e-002
2307:-3.5829826351090069e-002
2308:-7.3186219557257931e-002
2309:-6.2669405470674039e-002
2310:-5.0094998621716381e-002
2311:-4.1317204305034473e-002
2312:-7.8706911588139486e-002
2313:-6.8441026894425008e-002
2314:-5.6075941786307322e-002
2315:-4.7375653027093040e-002
2316:-8.1957610176707565e-002
2317:-7.1926590245943403e-002
2318:-5.9782397771188843e-002
2319:-5.1189249812856087e-002
2320:-3.1465890601938176e-002
2321:-2.3882077839826998e-002
2322:-1.5156583365238296e-002
2323:-9.3459020278511863e-003
2324:-3.6939829892097722e-002
2325:-2.9306344471086852e-002
2326:-2.0469740663404585e-002
2327:-1.4538344441929736e-002
2328:-4.3013239346517990e-002
2329:-3.5374180671973801e-002
2330:-2.6468106932098594e-002
2331:-2.0436621988678363e-002
2332:-4.6863473638561672e-002
2333:-3.9265697053885038e-002
2334:-3.0363124737408258e-002
2335:-2.4297063066259662e-002
2336:-6.5544499166339297e-003
2337:-1.8807957462963806e-003
2338:3.1327766430311369e-003
2339:6.1654647190959684e-003
2340:-1.1670178075502486e-002
2341:-6.8339184524540564e-003
2342:-1.5743001969178757e-003
2343:1.6712954871778713e-003
2344:-1.7498986692148867e-002
2345:-1.2506639273771280e-002
2346:-6.9956017304656001e-003
2347:-3.5223973482031083e-003
2348:-2.1328353850676388e-002
2349:-1.6257273281919199e-002
2350:-1.0605090614107637e-002
2351:-6.9952196387521592e-003
2352:7.5020521015799202e-003
2353:9.5154735471746615e-003
2354:1.1195501794361948e-002
2355:1.1774594146535771e-002
2356:3.1294538377378278e-003
2357:5.3857671269907943e-003
2358:7.4126690639736417e-003
2359:8.2815620992743241e-003
2360:-1.9311477759208445e-003
2361:5.9567286881099320e-004
2362:3.0168907151272503e-003
2363:4.2205355956682284e-003
2364:-5.3214063637076117e-003
2365:-2.6228913433624618e-003
2366:5.5248957805473752e-005
2367:1.4813112863179879e-003
2368:1.1840106135859419e-002
2369:1.1566848892655473e-002
2370:1.0467583572524728e-002
2371:9.0773361263128804e-003
2372:8.5105299863632439e-003
2373:8.5657954186697007e-003
2374:7.9405922651708174e-003
2375:6.9501240375982563e-003
2376:4.6398800696574186e-003
2377:5.0791487783900437e-003
2378:5.0099746846353384e-003
2379:4.4894139529226386e-003
2380:2.0283906698796688e-003
2381:2.7263909017008489e-003
2382:3.0333336020568038e-003
2383:2.8313913036475415e-003
2384:8.1541779678459460e-003
2385:6.1877728442703336e-003
2386:3.2201274452756837e-003
2387:6.7130242144491893e-004
2388:6.2539324363702379e-003
2389:4.7498855885185652e-003
2390:2.4623354193449888e-003
2391:4.9675753432442543e-004
2392:4.0601452723938508e-003
2393:3.0983965933540250e-003
2394:1.6050096999166918e-003
2395:3.1760358993553441e-004
2396:2.5831860945744536e-003
2397:1.9877513040580936e-003
2398:1.0272199919685013e-003
2399:1.9197436480323206e-004
2400:-7.7352883781827003e-003
2401:-3.8951309523284273e-002
2402:-7.8054903092633562e-002
2403:-1.0663003000388240e-001
2404:-6.9901434026979781e-003
2405:-3.5750690984536079e-002
2406:-7.2109018541513345e-002
2407:-9.8949607714372778e-002
2408:-6.5858578771795353e-003
2409:-3.2362450481737699e-002
2410:-6.5317790291138447e-002
2411:-8.9943990521245756e-002
2412:-6.4733435989170777e-003
2413:-3.0418799260204576e-002
2414:-6.1105945453978502e-002
2415:-8.4095899932649279e-002
2416:-1.2129076608822602e-001
2417:-1.4723105580588428e-001
2418:-1.7796563809494723e-001
2419:-1.9920303478735310e-001
2420:-1.1283007686310724e-001
2421:-1.3765978519751229e-001
2422:-1.6736907031141696e-001
2423:-1.8787491852469418e-001
2424:-1.0278975311889359e-001
2425:-1.2593516160550697e-001
2426:-1.5381905530248033e-001
2427:-1.7308952643191022e-001
2428:-9.6106344088233320e-002
2429:-1.1772946612737459e-001
2430:-1.4379963562256717e-001
2431:-1.6189628786711588e-001
2432:-2.0969707669368004e-001
2433:-2.2745137363467791e-001
2434:-2.4656733766058636e-001
2435:-2.5796141981847304e-001
2436:-1.9791730074758510e-001
2437:-2.1469842700872407e-001
2438:-2.3255345112018327e-001
2439:-2.4321969155561751e-001
2440:-1.8249910560069893e-001
2441:-1.9820983483644056e-001
2442:-2.1504332991435979e-001
2443:-2.2533297321969939e-001
2444:-1.7078575747805308e-001
2445:-1.8578924529523655e-001
2446:-2.0218562733655226e-001
2447:-2.1246285277265683e-001
2448:-2.6284692571196283e-001
2449:-2.7003005734428598e-001
2450:-2.7566537479410180e-001
2451:-2.7721470312015584e-001
2452:-2.4786921981206789e-001
2453:-2.5489846173360564e-001
2454:-2.6085255715617278e-001
2455:-2.6300859881566663e-001
2456:-2.2995117920938887e-001
2457:-2.3707671140300141e-001
2458:-2.4339762324787773e-001
2459:-2.4599675946038524e-001
2460:-2.1716605472168538e-001
2461:-2.2447213048166931e-001
2462:-2.3104167373875373e-001
2463:-2.3384210891758714e-001
2464:-2.7708882103972798e-001
2465:-2.7516470423906131e-001
2466:-2.6956631207243786e-001
2467:-2.6310426424596350e-001
2468:-2.6332190947108669e-001
2469:-2.6237936189478528e-001
2470:-2.5826168305707642e-001
2471:-2.5299531858124297e-001
2472:-2.4660317983486765e-001
2473:-2.4641349256121292e-001
2474:-2.4362596337234849e-001
2475:-2.3957882544707662e-001
2476:-2.3456540409280077e-001
2477:-2.3471064921955184e-001
2478:-2.3259642104003769e-001
2479:-2.2923643617126849e-001
2480:-2.5897328329275959e-001
2481:-2.5040305494937576e-001
2482:-2.3774155041954592e-001
2483:-2.2693796551762369e-001
2484:-2.4949301907867086e-001
2485:-2.4203278572936540e-001
2486:-2.3071449736719901e-001
2487:-2.2089661097904550e-001
2488:-2.3677101302330542e-001
2489:-2.3058139492590182e-001
2490:-2.2086018803151569e-001
2491:-2.1224285681425092e-001
2492:-2.2684804449491663e-001
2493:-2.2146416938781222e-001
2494:-2.1281310478124726e-001
2495:-2.0502903750111340e-001
2496:-2.2081941267122174e-001
2497:-2.0900128827670103e-001
2498:-1.9306344255116537e-001
2499:-1.8051950743479492e-001
2500:-2.1529760320526595e-001
2501:-2.0442872107753729e-001
2502:-1.8966779911762399e-001
2503:-1.7797256434786807e-001
2504:-2.0728033822099601e-001
2505:-1.9756974499269739e-001
2506:-1.8423304597910556e-001
2507:-1.7355413915234438e-001
2508:-2.0051337095324170e-001
2509:-1.9161970115812313e-001
2510:-1.7929363638865711e-001
2511:-1.6934002733972978e-001
2512:-1.7375048465327109e-001
2513:-1.6111541283242350e-001
2514:-1.4483418547504298e-001
2515:-1.3253936428121138e-001
2516:-1.7163460017596308e-001
2517:-1.5975860354152274e-001
2518:-1.4436642232498009e-001
2519:-1.3267360220139479e-001
2520:-1.6772902203594348e-001
2521:-1.5676800414667968e-001
2522:-1.4247752089668705e-001
2523:-1.3155767167945714e-001
2524:-1.6388232690664625e-001
2525:-1.5358180717824765e-001
2526:-1.4009848606461500e-001
2527:-1.2975588758345002e-001
2528:-1.2607077861836943e-001
2529:-1.1427309170078849e-001
2530:-9.9585236609259484e-002
2531:-8.8867872757842525e-002
2532:-1.2649721469938643e-001
2533:-1.1519567584687990e-001
2534:-1.0105800256070703e-001
2535:-9.0692375655219148e-002
2536:-1.2576689983405584e-001
2537:-1.1512702112256031e-001
2538:-1.0173251699275730e-001
2539:-9.1848177440905912e-002
2540:-1.2425751542289670e-001
2541:-1.1412590731491513e-001
2542:-1.0131410619761762e-001
2543:-9.1815948584504939e-002
2544:-8.3352831151165555e-002
2545:-7.3458314319174711e-002
2546:-6.1450169492169485e-002
2547:-5.2930083976900494e-002
2548:-8.5341575570451536e-002
2549:-7.5717253423984707e-002
2550:-6.3989557320875051e-002
2551:-5.5630616745870838e-002
2552:-8.6724245159133698e-002
2553:-7.7481211387088203e-002
2554:-6.6167208319355922e-002
2555:-5.8062294689504218e-002
2556:-8.6877174487404091e-002
2557:-7.7950498327457624e-002
2558:-6.6990154877432637e-002
2559:-5.9111354916760936e-002
2560:-4.8632713889311716e-002
2561:-4.1072964097542082e-002
2562:-3.2191907653831064e-002
2563:-2.6121735519564579e-002
2564:-5.1400763283558117e-002
2565:-4.3938919692570438e-002
2566:-3.5132012181311130e-002
2567:-2.9079274327154885e-002
2568:-5.3945994727936819e-002
2569:-4.6660119233984353e-002
2570:-3.8012785894451985e-002
2571:-3.2030628783939884e-002
2572:-5.5099809992979899e-002
2573:-4.7982823995571619e-002
2574:-3.9503276919913365e-002
2575:-3.3610722434126439e-002
2576:-2.3143908969592217e-002
2577:-1.8044701833730633e-002
2578:-1.2334993925642929e-002
2579:-8.6654634941179202e-003
2580:-2.6097481380820353e-002
2581:-2.0970079378569532e-002
2582:-1.5184281042976427e-002
2583:-1.1426897729321709e-002
2584:-2.9068981448064576e-002
2585:-2.3952215727237346e-002
2586:-1.8128599659560249e-002
2587:-1.4303103692052101e-002
2588:-3.0683595314700791e-002
2589:-2.5610751483164905e-002
2590:-1.9804470171030628e-002
2591:-1.5961791404945247e-002
2592:-6.9545036027515291e-003
2593:-4.1771490971850549e-003
2594:-1.3783683640173103e-003
2595:1.5381254151423072e-004
2596:-9.6589276721286439e-003
2597:-6.7573644076101896e-003
2598:-3.7631841960055765e-003
2599:-2.0557701341929798e-003
2600:-1.2485268065620203e-002
2601:-9.4675769958715780e-003
2602:-6.2786038293856043e-003
2603:-4.3890873768088192e-003
2604:-1.4124188324600332e-002
2605:-1.1052108880312255e-002
2606:-7.7592860338966188e-003
2607:-5.7654448291392683e-003
2608:7.6231184766822142e-004
2609:1.5851307335617911e-003
2610:2.0740770418498432e-003
2611:2.0265932803820328e-003
2612:-1.3448937919541095e-003
2613:-3.1319021457277353e-004
2614:4.8148176627748989e-004
2615:6.9404396534001060e-004
2616:-3.5697509041301236e-003
2617:-2.3149985276303760e-003
2618:-1.1915072646427186e-003
2619:-6.9806088101961590e-004
2620:-4.8820367244103470e-003
2621:-3.4939502631287510e-003
2622:-2.1718324063147196e-003
2623:-1.5077040658606907e-003
2624:1.8661828509846851e-003
2625:1.4476553282915950e-003
2626:7.4283428708971587e-004
2627:1.2328883442565912e-004
2628:6.8149436005203890e-004
2629:5.5942480753325380e-004
2630:2.7967526834617342e-004
2631:1.5920039636654991e-005
2632:-5.5081396160629181e-004
2633:-3.5562581464213227e-004
2634:-1.8782142478140402e-004
2635:-8.2961208657765200e-005
2636:-1.2632986490010057e-003
2637:-8.7801552916993877e-004
2638:-4.4869971045925278e-004
2639:-1.3399909540816533e-004
2640:-6.4046179156374821e-003
2641:-2.9601693453188447e-002
2642:-5.9249987668625714e-002
2643:-8.1399661656672687e-002
2644:-6.1007971908964486e-003
2645:-2.7996447750207643e-002
2646:-5.5831241166651085e-002
2647:-7.6511674148169867e-002
2648:-5.4656528702878198e-003
2649:-2.5665952024551752e-002
2650:-5.1242382088274002e-002
2651:-7.0173498150031460e-002
2652:-4.9154719083286062e-003
2653:-2.3705136682807371e-002
2654:-4.7527158652135089e-002
2655:-6.5196658379824773e-002
2656:-9.2946971134580891e-002
2657:-1.1367860708160631e-001
2658:-1.3864823992641837e-001
2659:-1.5604895926532980e-001
2660:-8.7250499943509072e-002
2661:-1.0644648855474598e-001
2662:-1.2953554374504947e-001
2663:-1.4573438187377866e-001
2664:-7.9980368534720278e-002
2665:-9.7477509940860713e-002
2666:-1.1853997173670044e-001
2667:-1.3340899011156687e-001
2668:-7.4367634979135788e-002
2669:-9.0771656972491829e-002
2670:-1.1058283006798171e-001
2671:-1.2460106813653700e-001
2672:-1.6465102738802398e-001
2673:-1.7930204307192316e-001
2674:-1.9553274595788819e-001
2675:-2.0583836584456808e-001
2676:-1.5382534003513659e-001
2677:-1.6778733510861416e-001
2678:-1.8353951785520714e-001
2679:-1.9369799131081164e-001
2680:-1.4089332672182808e-001
2681:-1.5390501997356223e-001
2682:-1.6872454659785743e-001
2683:-1.7834932892336408e-001
2684:-1.3166196210055972e-001
2685:-1.4392132823482645e-001
2686:-1.5786092931175216e-001
2687:-1.6690857047473528e-001
2688:-2.1058831769468336e-001
2689:-2.1798397482012027e-001
2690:-2.2467161531472959e-001
2691:-2.2756953951731049e-001
2692:-1.9841615217841446e-001
2693:-2.0581089348774137e-001
2694:-2.1261886418613751e-001
2695:-2.1570949851509633e-001
2696:-1.8283504985611007e-001
2697:-1.8995128574032641e-001
2698:-1.9671860238442024e-001
2699:-2.0002415409412666e-001
2700:-1.7113046268342094e-001
2701:-1.7789748791554152e-001
2702:-1.8449780756473719e-001
2703:-1.8788729408981919e-001
2704:-2.2835042138730033e-001
2705:-2.2864137417304806e-001
2706:-2.2680470566936067e-001
2707:-2.2373230382662695e-001
2708:-2.1662953598624712e-001
2709:-2.1723019903110771e-001
2710:-2.1590251316691772e-001
2711:-2.1331384559982264e-001
2712:-2.0113960654812546e-001
2713:-2.0215412366796112e-001
2714:-2.0144692669860817e-001
2715:-1.9940457293178201e-001
2716:-1.8911521290108019e-001
2717:-1.9038399667003691e-001
2718:-1.9007706913985437e-001
2719:-1.8839462430762352e-001
2720:-2.2152448822575160e-001
2721:-2.1650327808170575e-001
2722:-2.0835879464299079e-001
2723:-2.0098169751304618e-001
2724:-2.1139981036361682e-001
2725:-2.0697678939862563e-001
2726:-1.9968539134465382e-001
2727:-1.9300402844970813e-001
2728:-1.9780994192468110e-001
2729:-1.9404639233087390e-001
2730:-1.8771602854720812e-001
2731:-1.8183100517991088e-001
2732:-1.8701138840144807e-001
2733:-1.8368918606729390e-001
2734:-1.7801028869671850e-001
2735:-1.7266971314059509e-001
2736:-1.9668679569054850e-001
2737:-1.8820038674802014e-001
2738:-1.7638530000076513e-001
2739:-1.6680393329413382e-001
2740:-1.8908955492667737e-001
2741:-1.8131218726827497e-001
2742:-1.7040266346396038e-001
2743:-1.6149479905726663e-001
2744:-1.7835584574911542e-001
2745:-1.7140771603727450e-001
2746:-1.6158135524917458e-001
2747:-1.5350058669881220e-001
2748:-1.6949623079575665e-001
2749:-1.6312199632347768e-001
2750:-1.5405676446721089e-001
2751:-1.4656822574065365e-001
2752:-1.6153665678055326e-001
2753:-1.5157889879011888e-001
2754:-1.3851501798776736e-001
2755:-1.2847315956114319e-001
2756:-1.5657712461157983e-001
2757:-1.4725051049966853e-001
2758:-1.3496003938135934e-001
2759:-1.2547263391115485e-001
2760:-1.4902038685675786e-001
2761:-1.4048963811356455e-001
2762:-1.2918236346550827e-001
2763:-1.2040404260251565e-001
2764:-1.4240576845635750e-001
2765:-1.3445978002867362e-001
2766:-1.2388616403152268e-001
2767:-1.1564431112657333e-001
2768:-1.2312761062815232e-001
2769:-1.1326439000585620e-001
2770:-1.0076586697903897e-001
2771:-9.1479646253214114e-002
2772:-1.2040878493963061e-001
2773:-1.1104469810400631e-001
2774:-9.9138473186881723e-002
2775:-9.0260710230346416e-002
2776:-1.1570171137523838e-001
2777:-1.0698569466798832e-001
2778:-9.5864261625751346e-002
2779:-8.7540053510041543e-002
2780:-1.1121778488900902e-001
2781:-1.0300097036132512e-001
2782:-9.2493257061443471e-002
2783:-8.4608840739736554e-002
2784:-8.6644003068417338e-002
2785:-7.7895031069316500e-002
2786:-6.7136043545937621e-002
2787:-5.9388203021782431e-002
2788:-8.5626608958180861e-002
2789:-7.7227323559484778e-002
2790:-6.6868961253840647e-002
2791:-5.9385479065398677e-002
2792:-8.3183460812822269e-002
2793:-7.5270395009924648e-002
2794:-6.5478178150026198e-002
2795:-5.8376114399857001e-002
2796:-8.0475124493556080e-002
2797:-7.2956203704911307e-002
2798:-6.3630297536579311e-002
2799:-5.6848653629346872e-002
2800:-5.5438220680809017e-002
2801:-4.8422423765087659e-002
2802:-4.0047652537435960e-002
2803:-3.4215125005417062e-002
2804:-5.5561353461929176e-002
2805:-4.8756070025028291e-002
2806:-4.0606901841878110e-002
2807:-3.4910390736491055e-002
2808:-5.4736776504601688e-002
2809:-4.8247060835171295e-002
2810:-4.0449185119086482e-002
2811:-3.4975614333923030e-002
2812:-5.3367019894111113e-002
2813:-4.7150881642535558e-002
2814:-3.9665824271862875e-002
2815:-3.4397510500099857e-002
2816:-3.1313076510070745e-002
2817:-2.6276171103375556e-002
2818:-2.0495341116002617e-002
2819:-1.6655760662113713e-002
2820:-3.2068110851072917e-002
2821:-2.7122366534761726e-002
2822:-2.1419933130453341e-002
2823:-1.7609440944966585e-002
2824:-3.2235889606314384e-002
2825:-2.7454954575734807e-002
2826:-2.1914138259805323e-002
2827:-1.8186775482859199e-002
2828:-3.1754840914535259e-002
2829:-2.7134687232480650e-002
2830:-2.1762417403023798e-002
2831:-1.8132863186047326e-002
2832:-1.4814082321355048e-002
2833:-1.1725159757955950e-002
2834:-8.3929734191533004e-003
2835:-6.3559491795277707e-003
2836:-1.5772469329086769e-002
2837:-1.2675281600491532e-002
2838:-9.2999722176876076e-003
2839:-7.2056305563701784e-003
2840:-1.6379960227148264e-002
2841:-1.3317211729368858e-002
2842:-9.9448219856275964e-003
2843:-7.8210239430195234e-003
2844:-1.6367301722118109e-002
2845:-1.3364944732738863e-002
2846:-1.0038918336034231e-002
2847:-7.9260561296075963e-003
2848:-5.4451121705777501e-003
2849:-3.9992341836418439e-003
2850:-2.5901073901752323e-003
2851:-1.8507735661077184e-003
2852:-6.2560384467626315e-003
2853:-4.7265429939816282e-003
2854:-3.1889340631675958e-003
2855:-2.3372844197939420e-003
2856:-6.8450365303943522e-003
2857:-5.2533032958357552e-003
2858:-3.6131138337746247e-003
2859:-2.6683940573197628e-003
2860:-6.9476018972639605e-003
2861:-5.3423386330579510e-003
2862:-3.6704672313546648e-003
2863:-2.6926656861863732e-003
2864:-1.5635369440150468e-003
2865:-1.0956705102088359e-003
2866:-5.5569081118863153e-004
2867:-1.5471860907805175e-004
2868:-1.9859640722936119e-003
2869:-1.3971782096613822e-003
2870:-7.0171814603535226e-004
2871:-1.8534869627087001e-004
2872:-2.2636017566024756e-003
2873:-1.5802894759389475e-003
2874:-7.7945833663056491e-004
2875:-1.9981396024800469e-004
2876:-2.2683708095197737e-003
2877:-1.5579256947984019e-003
2878:-7.4675370582695251e-004
2879:-1.8207692243152291e-004
2880:-4.6392409764581602e-003
2881:-2.2613693814863795e-002
2882:-4.5466214541887096e-002
2883:-6.2474994270116331e-002
2884:-4.2277030886729173e-003
2885:-2.0708713051276969e-002
2886:-4.1757520206038984e-002
2887:-5.7511193567867304e-002
2888:-3.8362680874255302e-003
2889:-1.8493835264244654e-002
2890:-3.7262714260341528e-002
2891:-5.1359758929026701e-002
2892:-3.5775985515894794e-003
2893:-1.6949407444195142e-002
2894:-3.4047605981777890e-002
2895:-4.6875792906461607e-002
2896:-7.1327098248508233e-002
2897:-8.7206338435645875e-002
2898:-1.0643647921900580e-001
2899:-1.2004863778727309e-001
2900:-6.5746197536307935e-002
2901:-8.0586885531432909e-002
2902:-9.8640653660213379e-002
2903:-1.1143186583363861e-001
2904:-5.8750445259742989e-002
2905:-7.2111260328063850e-002
2906:-8.8422389921951658e-002
2907:-1.0000066175176602e-001
2908:-5.3597361507446740e-002
2909:-6.5740593010709586e-002
2910:-8.0567119802296402e-002
2911:-9.1110472475452356e-002
2912:-1.2689482781785300e-001
2913:-1.3874901338071077e-001
2914:-1.5218714204458378e-001
2915:-1.6090058936850793e-001
2916:-1.1785257261236179e-001
2917:-1.2893269337852803e-001
2918:-1.4145816537702244e-001
2919:-1.4959077374433075e-001
2920:-1.0581302783323789e-001
2921:-1.1584185266650246e-001
2922:-1.2720557855500916e-001
2923:-1.3463512196211486e-001
2924:-9.6415622228835499e-002
2925:-1.0559513635070093e-001
2926:-1.1605103521409371e-001
2927:-1.2293476446274092e-001
2928:-1.6497195172266585e-001
2929:-1.7153077193591695e-001
2930:-1.7800062320394922e-001
2931:-1.8139088070867859e-001
2932:-1.5340769011129460e-001
2933:-1.5959634397774228e-001
2934:-1.6578150170614706e-001
2935:-1.6909502360644921e-001
2936:-1.3814921237881830e-001
2937:-1.4386449236368351e-001
2938:-1.4960323015957686e-001
2939:-1.5270059018846061e-001
2940:-1.2620810692218659e-001
2941:-1.3152999816619798e-001
2942:-1.3686541442132474e-001
2943:-1.3974040721856565e-001
2944:-1.8265119221972531e-001
2945:-1.8401193416556472e-001
2946:-1.8387859657037744e-001
2947:-1.8236848205209197e-001
2948:-1.7036079410948052e-001
2949:-1.7180384319065559e-001
2950:-1.7191086083999915e-001
2951:-1.7068142475128628e-001
2952:-1.5389587966715124e-001
2953:-1.5531606496827413e-001
2954:-1.5560193454597721e-001
2955:-1.5465875824686032e-001
2956:-1.4085015567916490e-001
2957:-1.4219596350333502e-001
2958:-1.4254697655229240e-001
2959:-1.4176698767313969e-001
2960:-1.8109045472706373e-001
2961:-1.7798883098236978e-001
2962:-1.7263590583356453e-001
2963:-1.6756789481508050e-001
2964:-1.6958474967753637e-001
2965:-1.6686605005162772e-001
2966:-1.6208324488344952e-001
2967:-1.5749697262416620e-001
2968:-1.5376251160692433e-001
2969:-1.5147463764321581e-001
2970:-1.4734845508397490e-001
2971:-1.4333217613208060e-001
2972:-1.4099327172650114e-001
2973:-1.3897720656392670e-001
2974:-1.3528370331708706e-001
2975:-1.3165937891089685e-001
2976:-1.6454547473111755e-001
2977:-1.5845920547290809e-001
2978:-1.4977786330256274e-001
2979:-1.4259019230639616e-001
2980:-1.5474388155641394e-001
2981:-1.4917574042416160e-001
2982:-1.4119205878501412e-001
2983:-1.3455430490450096e-001
2984:-1.4090420505110943e-001
2985:-1.3597341634896792e-001
2986:-1.2886537895715577e-001
2987:-1.2292592340772709e-001
2988:-1.2946139310816063e-001
2989:-1.2499244339264153e-001
2990:-1.1853514421747610e-001
2991:-1.1312261048487024e-001
2992:-1.3859017276706817e-001
2993:-1.3094610599186948e-001
2994:-1.2075681531518576e-001
2995:-1.1279981299801571e-001
2996:-1.3085183132147224e-001
2997:-1.2376479584367815e-001
2998:-1.1429308517499190e-001
2999:-1.0687462042009745e-001
3000:-1.1960286548951390e-001
3001:-1.1323253394086595e-001
3002:-1.0469782735507822e-001
3003:-9.7993493235388890e-002
3004:-1.1008753113860573e-001
3005:-1.0426508145314940e-001
3006:-9.6454795739133903e-002
3007:-9.0309024635910354e-002
3008:-1.0852094064834979e-001
3009:-1.0057274864423749e-001
3010:-9.0397639353908460e-002
3011:-8.2753255853119434e-002
3012:-1.0287725338028406e-001
3013:-9.5443623769080166e-002
3014:-8.5909820545637477e-002
3015:-7.8731372603500466e-002
3016:-9.4373328529787623e-002
3017:-8.7634079334398179e-002
3018:-7.8974486081207301e-002
3019:-7.2437793808275544e-002
3020:-8.6986239366795670e-002
3021:-8.0798248314814261e-002
3022:-7.2839810300033545e-002
3023:-6.6823180668620988e-002
3024:-7.8741768481152344e-002
3025:-7.1440329514508738e-002
3026:-6.2374480222674958e-002
3027:-5.5773812324945701e-002
3028:-7.4958290849707510e-002
3029:-6.8083889790366697e-002
3030:-5.9534151653885634e-002
3031:-5.3296720009653506e-002
3032:-6.8995471464146460e-002
3033:-6.2718733389185308e-002
3034:-5.4901029566707241e-002
3035:-4.9185806757091111e-002
3036:-6.3650791994937089e-002
3037:-5.7865311261855901e-002
3038:-5.0655646521280982e-002
3039:-4.5378632265660183e-002
3040:-5.2382116572814968e-002
3041:-4.6323287009055476e-002
3042:-3.9020532680262614e-002
3043:-3.3873773285974261e-002
3044:-5.0086929477924980e-002
3045:-4.4348125991195114e-002
3046:-3.7420046151204658e-002
3047:-3.2526458217514903e-002
3048:-4.6239869675211070e-002
3049:-4.0968560591455004e-002
3050:-3.4594662388840007e-002
3051:-3.0081606908570861e-002
3052:-4.2655565110937335e-002
3053:-3.7781397553196608e-002
3054:-3.1883020372365373e-002
3055:-2.7700624635230191e-002
3056:-3.1289319584740523e-002
3057:-2.6766991315777342e-002
3058:-2.1500312937012621e-002
3059:-1.7934927716256637e-002
3060:-3.0064634750970914e-002
3061:-2.5750997553061355e-002
3062:-2.0715005448257381e-002
3063:-1.7294588356309183e-002
3064:-2.7806582250795967e-002
3065:-2.3815304781148988e-002
3066:-1.9144659651141000e-002
3067:-1.5961515476579341e-002
3068:-2.5589570893388390e-002
3069:-2.1884014820653493e-002
3070:-1.7542611508117412e-002
3071:-1.4577775498274964e-002
3072:-1.6197756281283636e-002
3073:-1.3239518932866767e-002
3074:-9.9535594075647708e-003
3075:-7.8580969176513232e-003
3076:-1.5623568476339226e-002
3077:-1.2771744438062407e-002
3078:-9.5908354023099811e-003
3079:-7.5503029974789060e-003
3080:-1.4401879198857683e-002
3081:-1.1734644414326640e-002
3082:-8.7482021193512460e-003
3083:-6.8218639777479165e-003
3084:-1.3122372172083504e-002
3085:-1.0630856822253804e-002
3086:-7.8360930440990982e-003
3087:-6.0285986961436874e-003
3088:-6.8844298037152229e-003
3089:-5.2836050987853699e-003
3090:-3.6106588140081557e-003
3091:-2.6279556276603052e-003
3092:-6.5973341923925956e-003
3093:-5.0269189480819879e-003
3094:-3.3808931100840268e-003
3095:-2.4111401865293080e-003
3096:-5.9181369777078678e-003
3097:-4.4285296075868069e-003
3098:-2.8698016101492826e-003
3099:-1.9554545027877426e-003
3100:-5.1788692352302710e-003
3101:-3.7805463127752251e-003
3102:-2.3244014809029969e-003
3103:-1.4775973350777828e-003
3104:-2.2003664863493723e-003
3105:-1.4904764729396470e-003
3106:-6.9725652045046641e-004
3107:-1.6181964533317595e-004
3108:-1.9892175599645514e-003
3109:-1.3045388332889483e-003
3110:-5.8165736144714204e-004
3111:-1.3398137523941287e-004
3112:-1.5609506188413434e-003
3113:-9.4841175717265739e-004
3114:-3.7422064242115569e-004
3115:-9.0836453205371122e-005
3116:-1.1166391401158827e-003
3117:-5.8240887940176893e-004
3118:-1.5291737682820251e-004
3119:-2.0920434134015995e-005
3120:-3.4309134387604996e-003
3121:-1.6154252541232865e-002
3122:-3.2388943107333021e-002
3123:-4.4543899750065272e-002
3124:-3.0879457484393048e-003
3125:-1.4526170693702834e-002
3126:-2.9072698144856812e-002
3127:-3.9932214770898519e-002
3128:-2.5400325109894155e-003
3129:-1.2121440648262554e-002
3130:-2.4277820478234444e-002
3131:-3.3347939680121369e-002
3132:-2.0807933776320286e-003
3133:-1.0084762181961702e-002
3134:-2.0237758797107677e-002
3135:-2.7834145227579946e-002
3136:-5.0903615743514437e-002
3137:-6.2374209227030970e-002
3138:-7.6364201321217892e-002
3139:-8.6322559807735316e-002
3140:-4.5603522511419380e-002
3141:-5.5801269089446381e-002
3142:-6.8210412859979072e-002
3143:-7.7055980842874433e-002
3144:-3.8086095519124279e-002
3145:-4.6581622136508877e-002
3146:-5.6894046527677850e-002
3147:-6.4253286746958058e-002
3148:-3.1814884379781277e-002
3149:-3.8948323840484862e-002
3150:-4.7601820499252392e-002
3151:-5.3781642078908336e-002
3152:-9.1343613106905613e-002
3153:-1.0005144529248186e-001
3154:-1.1000352689756600e-001
3155:-1.1657738779685539e-001
3156:-8.1530704311183227e-002
3157:-8.9313098668187887e-002
3158:-9.8241377776481606e-002
3159:-1.0415909979512819e-001
3160:-6.7986514823437261e-002
3161:-7.4480301678084254e-002
3162:-8.1927536070746293e-002
3163:-8.6861722271666220e-002
3164:-5.6919492006428055e-002
3165:-6.2361864224301976e-002
3166:-6.8576975395708367e-002
3167:-7.2683208673698887e-002
3168:-1.1970927766726898e-001
3169:-1.2479840155690870e-001
3170:-1.2989568262502491e-001
3171:-1.3264171589506321e-001
3172:-1.0698324040188270e-001
3173:-1.1157180078890051e-001
3174:-1.1617150012817214e-001
3175:-1.1865954486383772e-001
3176:-8.9216084241992968e-002
3177:-9.3045722114678070e-002
3178:-9.6900439725375376e-002
3179:-9.9005743520239581e-002
3180:-7.4641298311043505e-002
3181:-7.7828778156006320e-002
3182:-8.1043861373797196e-002
3183:-8.2807125666564091e-002
3184:-1.3370307316013397e-001
3185:-1.3500191455196758e-001
3186:-1.3537166349112881e-001
3187:-1.3466073593532499e-001
3188:-1.1962807879062355e-001
3189:-1.2082966366407288e-001
3190:-1.2121198795446894e-001
3191:-1.2060830497429950e-001
3192:-9.9835699155053109e-002
3193:-1.0087342280586339e-001
3194:-1.0121982871369643e-001
3195:-1.0071992986779278e-001
3196:-8.3505228320374519e-002
3197:-8.4371872559354272e-002
3198:-8.4642904580474396e-002
3199:-8.4200141491664202e-002
3200:-1.3394078529739423e-001
3201:-1.3204848878973818e-001
3202:-1.2856153692427838e-001
3203:-1.2513171717647470e-001
3204:-1.1997699025391427e-001
3205:-1.1830211048894912e-001
3206:-1.1519713203051865e-001
3207:-1.1213478491521328e-001
3208:-1.0018906782761433e-001
3209:-9.8786211310296329e-002
3210:-9.6189947699508477e-002
3211:-9.3625922253829652e-002
3212:-8.3741017043811580e-002
3213:-8.2549164896222313e-002
3214:-8.0363076124634641e-002
3215:-7.8202933489494558e-002
3216:-1.2305047457468921e-001
3217:-1.1882013132664790e-001
3218:-1.1270524017096041e-001
3219:-1.0757319010531874e-001
3220:-1.1027521062168047e-001
3221:-1.0649909838116327e-001
3222:-1.0103957680936070e-001
3223:-9.6448209215890160e-002
3224:-9.2066944291303424e-002
3225:-8.8906645251842886e-002
3226:-8.4339332276048437e-002
3227:-8.0490101306811779e-002
3228:-7.6886407268045021e-002
3229:-7.4221831607187053e-002
3230:-7.0374242820737773e-002
3231:-6.7127361471631189e-002
3232:-1.0469214672299124e-001
3233:-9.9163858884542613e-002
3234:-9.1744686646787726e-002
3235:-8.5902158862079081e-002
3236:-9.3865784906829591e-002
3237:-8.8910629360345036e-002
3238:-8.2257952365136569e-002
3239:-7.7012207295711274e-002
3240:-7.8320603700751834e-002
3241:-7.4163379529823006e-002
3242:-6.8586114099492251e-002
3243:-6.4182086814137965e-002
3244:-6.5295008748512337e-002
3245:-6.1792944645752378e-002
3246:-5.7104235798823948e-002
3247:-5.3398597411463064e-002
3248:-8.2741436003579041e-002
3249:-7.6855191617933319e-002
3250:-6.9283097557638687e-002
3251:-6.3554923312801617e-002
3252:-7.4171081263226940e-002
3253:-6.8881596493663919e-002
3254:-6.2076806716124484e-002
3255:-5.6923830641446044e-002
3256:-6.1792812993198123e-002
3257:-5.7349733752604430e-002
3258:-5.1638331141803655e-002
3259:-4.7308570525335297e-002
3260:-5.1384929191441026e-002
3261:-4.7647035323487907e-002
3262:-4.2849587769912538e-002
3263:-3.9210026522346550e-002
3264:-6.0532912022131076e-002
3265:-5.5022154061982881e-002
3266:-4.8154367943169712e-002
3267:-4.3125026518283364e-002
3268:-5.4202438367009997e-002
3269:-4.9241924976123994e-002
3270:-4.3060950526466975e-002
3271:-3.8530856555352176e-002
3272:-4.5018575315907923e-002
3273:-4.0849277380382847e-002
3274:-3.5659152339464491e-002
3275:-3.1852086321093397e-002
3276:-3.7282388913520946e-002
3277:-3.3778634654237284e-002
3278:-2.9423959448837845e-002
3279:-2.6228235606485878e-002
3280:-4.0528343727738315e-002
3281:-3.5880109027621537e-002
3282:-3.0253770402109848e-002
3283:-2.6261842142288362e-002
3284:-3.6189578364760035e-002
3285:-3.1999135927885981e-002
3286:-2.6926372662068883e-002
3287:-2.3323877280948670e-002
3288:-2.9881778793679422e-002
3289:-2.6358272823483984e-002
3290:-2.2095803623234329e-002
3291:-1.9066256404343344e-002
3292:-2.4572266779657535e-002
3293:-2.1615071024637930e-002
3294:-1.8042866749671149e-002
3295:-1.5503071354277221e-002
3296:-2.4245746959827598e-002
3297:-2.0706435277805805e-002
3298:-1.6558106036067572e-002
3299:-1.3722524104878769e-002
3300:-2.1502596286928383e-002
3301:-1.8305244039686912e-002
3302:-1.4556012774264908e-002
3303:-1.1989432641124278e-002
3304:-1.7532616411082159e-002
3305:-1.4841597162469931e-002
3306:-1.1686518282746800e-002
3307:-9.5234809268267846e-003
3308:-1.4215886695884783e-002
3309:-1.1959585707324992e-002
3310:-9.3166430981364689e-003
3311:-7.5033769805346274e-003
3312:-1.2329308750222999e-002
3313:-9.9434303491602316e-003
3314:-7.2656155981335032e-003
3315:-5.5322140023274635e-003
3316:-1.0726406461235578e-002
3317:-8.5628653061856977e-003
3318:-6.1334850591738014e-003
3319:-4.5593531603696736e-003
3320:-8.4570343558933812e-003
3321:-6.6307891877575298e-003
3322:-4.5810745451328834e-003
3323:-3.2524602113296304e-003
3324:-6.6080975305624805e-003
3325:-5.0761268911046434e-003
3326:-3.3584276277195354e-003
3327:-2.2449667866625118e-003
3328:-4.7167913908290051e-003
3329:-3.3768468993864357e-003
3330:-1.9866723540285739e-003
3331:-1.1833919709158820e-003
3332:-3.8183361348011020e-003
3333:-2.6048622818291133e-003
3334:-1.3571289785024086e-003
3335:-6.4754317401574310e-004
3336:-2.6268036929998121e-003
3337:-1.6086308396252831e-003
3338:-5.7912922527145866e-004
3339:-1.1946449036827582e-005
3340:-1.7204622799164601e-003
3341:-8.7262139382064002e-004
3342:-3.1564091571677580e-005
3343:4.1403188054155930e-004
3344:-8.4390241620661648e-004
3345:-3.5743102845373412e-004
3346:-1.1960454197237132e-005
3347:3.4396624943191889e-005
3348:-3.5399234918512864e-004
3349:3.4765883333484839e-005
3350:2.1797859566636117e-004
3351:1.0543572708431628e-004
3352:2.1263231503200431e-004
3353:4.6562888140966503e-004
3354:4.4642402439307117e-004
3355:1.5084546534131259e-004
3356:5.8066650794747843e-004
3357:7.3011350116061432e-004
3358:5.7905911022278797e-004
3359:1.7975873839009022e-004
3360:-1.8338582387438403e-003
3361:-8.9387862530425823e-003
3362:-1.7955075132929040e-002
3363:-2.4720452176006647e-002
3364:-1.3733169839447315e-003
3365:-6.6952271496772305e-003
3366:-1.3440660570614514e-002
3367:-1.8528040500159083e-002
3368:-7.3337513961156046e-004
3369:-3.5279008230859792e-003
3370:-7.0300394695678803e-003
3371:-9.6913403549239129e-003
3372:-1.7099013751034639e-004
3373:-8.5891109113960136e-004
3374:-1.6511891227662377e-003
3375:-2.2730427575088949e-003
3376:-2.8276502835002583e-002
3377:-3.4652210067258882e-002
3378:-4.2389651948105699e-002
3379:-4.7918427440716442e-002
3380:-2.1218625646815231e-002
3381:-2.6039663291599322e-002
3382:-3.1887704923113561e-002
3383:-3.6075467575774685e-002
3384:-1.1116579347259389e-002
3385:-1.3639791365466614e-002
3386:-1.6668354184127595e-002
3387:-1.8854584911258705e-002
3388:-2.6275165248059486e-003
3389:-3.1878060004825988e-003
3390:-3.7853445363614352e-003
3391:-4.2420778774466756e-003
3392:-5.0726148553406326e-002
3393:-5.5582907023700397e-002
3394:-6.1109860665470007e-002
3395:-6.4755131381316625e-002
3396:-3.8206981919387019e-002
3397:-4.1874982351006756e-002
3398:-4.6023361490646821e-002
3399:-4.8757005854548910e-002
3400:-1.9983263156646398e-002
3401:-2.1905008466373568e-002
3402:-2.4053293003434190e-002
3403:-2.5476759314149680e-002
3404:-4.5070743674345461e-003
3405:-4.9310017535616479e-003
3406:-5.3693660962614680e-003
3407:-5.6712619665636541e-003
3408:-6.6493815209826446e-002
3409:-6.9323471715798182e-002
3410:-7.2174719355449571e-002
3411:-7.3734977471462390e-002
3412:-5.0064905236437439e-002
3413:-5.2187928091759893e-002
3414:-5.4312500115594520e-002
3415:-5.5462255172887338e-002
3416:-2.6167694191689874e-002
3417:-2.7277615206783141e-002
3418:-2.8364076766968914e-002
3419:-2.8937521683782923e-002
3420:-5.8320724329434430e-003
3421:-6.0767313129533665e-003
3422:-6.2953129378069145e-003
3423:-6.4097865831489256e-003
3424:-7.4350614217884192e-002
3425:-7.5106344683843571e-002
3426:-7.5320293198676475e-002
3427:-7.4903227510170325e-002
3428:-5.5910206683117573e-002
3429:-5.6448341829322769e-002
3430:-5.6567269902257203e-002
3431:-5.6220328878922150e-002
3432:-2.9157150845104524e-002
3433:-2.9420287328679226e-002
3434:-2.9465393532465984e-002
3435:-2.9264130800276202e-002
3436:-6.4596264241775954e-003
3437:-6.5386834387179222e-003
3438:-6.5817468043155788e-003
3439:-6.5384760261432522e-003
3440:-7.4483021696195528e-002
3441:-7.3408697878927509e-002
3442:-7.1452702956912431e-002
3443:-6.9518435269334003e-002
3444:-5.5887227323464586e-002
3445:-5.5059492017716316e-002
3446:-5.3572093039107448e-002
3447:-5.2096135251433383e-002
3448:-2.9074879195978110e-002
3449:-2.8624926649236049e-002
3450:-2.7830872347464924e-002
3451:-2.7031990242219816e-002
3452:-6.4828504366094605e-003
3453:-6.3673468968823222e-003
3454:-6.1742417993925257e-003
3455:-5.9633014179364769e-003
3456:-6.8336899544269400e-002
3457:-6.5948035470444380e-002
3458:-6.2501117358134892e-002
3459:-5.9590474898925605e-002
3460:-5.1189759745869652e-002
3461:-4.9367057453729796e-002
3462:-4.6746962201463016e-002
3463:-4.4529573829472792e-002
3464:-2.6535396149690974e-002
3465:-2.5562831951317668e-002
3466:-2.4189261648621011e-002
3467:-2.3013577018888849e-002
3468:-5.8251664070625309e-003
3469:-5.5994444955361428e-003
3470:-5.3213520466547605e-003
3471:-5.0570460124218135e-003
3472:-5.7946811861599230e-002
3473:-5.4812341274351160e-002
3474:-5.0623577162749858e-002
3475:-4.7311621741216753e-002
3476:-4.3273745658502810e-002
3477:-4.0892407273994305e-002
3478:-3.7724547359449474e-002
3479:-3.5215018637630525e-002
3480:-2.2337402921195078e-002
3481:-2.1076300710120923e-002
3482:-1.9419504601120349e-002
3483:-1.8094372409914978e-002
3484:-4.8854250357017971e-003
3485:-4.5956223631746689e-003
3486:-4.2438290567780928e-003
3487:-3.9393215959201214e-003
3488:-4.5509859808785913e-002
3489:-4.2170211273944748e-002
3490:-3.7889629972479084e-002
3491:-3.4640871015120041e-002
3492:-3.3844968579262391e-002
3493:-3.1316589511638661e-002
3494:-2.8088470257385565e-002
3495:-2.5634802190741744e-002
3496:-1.7361032714097471e-002
3497:-1.6028245983873663e-002
3498:-1.4348710428911050e-002
3499:-1.3062459124034864e-002
3500:-3.7542876143192992e-003
3501:-3.4498728054226510e-003
3502:-3.0994277769561362e-003
3503:-2.8125480593235571e-003
3504:-3.2918551024858772e-002
3505:-2.9792110419517657e-002
3506:-2.5911524098554364e-002
3507:-2.3063123803490491e-002
3508:-2.4329861960786146e-002
3509:-2.1969777366048496e-002
3510:-1.9050936032161465e-002
3511:-1.6906331027446257e-002
3512:-1.2369302731716570e-002
3513:-1.1130836667487633e-002
3514:-9.6166043256072850e-003
3515:-8.4977905536559283e-003
3516:-2.6421053852784897e-003
3517:-2.3605550342813888e-003
3518:-2.0422086795014375e-003
3519:-1.7949993434238825e-003
3520:-2.1585905080660547e-002
3521:-1.8951016153673769e-002
3522:-1.5772168760931928e-002
3523:-1.3511840872379362e-002
3524:-1.5791062618745345e-002
3525:-1.3808281171764195e-002
3526:-1.1424360157969578e-002
3527:-9.7281869359160163e-003
3528:-7.9093644183385499e-003
3529:-6.8743135773862351e-003
3530:-5.6430356188813041e-003
3531:-4.7630341689243010e-003
3532:-1.6536229274629255e-003
3533:-1.4214932540925331e-003
3534:-1.1643558238401159e-003
3535:-9.7239930484959542e-004
3536:-1.2365421803497893e-002
3537:-1.0357636350982097e-002
3538:-8.0080102894966032e-003
3539:-6.3956135617674187e-003
3540:-8.8657364854212821e-003
3541:-7.3590194902999825e-003
3542:-5.6007132907022351e-003
3543:-4.3936314526890072e-003
3544:-4.3107956035585175e-003
3545:-3.5270196058522457e-003
3546:-2.6209732893773927e-003
3547:-1.9981559103646076e-003
3548:-8.6538520021352077e-004
3549:-6.8915060968846912e-004
3550:-4.9818498214224084e-004
3551:-3.6521421148578265e-004
3552:-5.5988519633986969e-003
3553:-4.2362898538929276e-003
3554:-2.7096248451222711e-003
3555:-1.7197882342430179e-003
3556:-3.7958966008877627e-003
3557:-2.7754136857265645e-003
3558:-1.6337134230902431e-003
3559:-8.9203778875356088e-004
3560:-1.6875685720185803e-003
3561:-1.1604634383384914e-003
3562:-5.7293118488534764e-004
3563:-1.8702996901804908e-004
3564:-2.9539571785566152e-004
3565:-1.8202061358149339e-004
3566:-5.8874331444957809e-005
3567:2.9536200486216438e-005
3568:-1.2532960930488266e-003
3569:-5.0267385583025988e-004
3570:2.3189290421644402e-004
3571:6.0972286759400373e-004
3572:-5.4148076427277386e-004
3573:1.6976613269204653e-005
3574:5.4774210181822804e-004
3575:8.0362223725217064e-004
3576:-1.7947331505490420e-006
3577:2.8748659182012534e-004
3578:5.4792146576528695e-004
3579:6.5980369027359939e-004
3580:7.7044277065718380e-005
3581:1.4612135490381110e-004
3582:1.9785162535427395e-004
3583:2.1358626801227100e-004
3584:7.4464205158178334e-004
3585:8.4212138898492005e-004
3586:6.3540672411509691e-004
3587:2.0030547074488826e-004
3588:8.8554015335954781e-004
3589:9.1054274423602944e-004
3590:6.5551257730348444e-004
3591:2.1157121320993210e-004
3592:6.8865462334032925e-004
3593:6.7170183646413247e-004
3594:4.6139080535733139e-004
3595:1.1260110196230817e-004
3596:2.1571851809171495e-004
3597:2.0679790336571794e-004
3598:1.0619452143195058e-004
3599:-9.8738020333200946e-005
3600:-2.5277504795354772e-001
3601:-2.2591331509389009e-001
3602:-2.1921076983013166e-001
3603:-2.3498031880558756e-001
3604:-8.7237801988810859e-001
3605:-5.6263463919669021e-001
3606:-2.4313962287269489e-001
3607:-5.0019415366862420e-002
3608:-1.6784565801807194e+000
3609:-1.0091198000658745e+000
3610:-2.9616491099160208e-001
3611:1.5763895594305866e-001
3612:-2.2902736772706827e+000
3613:-1.3533688471301484e+000
3614:-3.5178909746171749e-001
3615:2.9100484442095303e-001
3616:-2.5035248027564672e-001
3617:-2.8014125147456054e-001
3618:-2.8467497167216643e-001
3619:-2.3536676595984377e-001
3620:3.8420087348413935e-002
3621:2.0028242173972413e-001
3622:4.4246066466285816e-001
3623:6.7905137689280426e-001
3624:3.7509547470834048e-001
3625:7.7204524335166402e-001
3626:1.3092667917663789e+000
3627:1.7632004268496548e+000
3628:6.0144388334523524e-001
3629:1.1660688837407891e+000
3630:1.9089885058631337e+000
3631:2.5098654935079372e+000
3632:-1.8370319626733078e-001
3633:-1.4781638096579945e-002
3634:4.3453956901685692e-001
3635:1.0220033131551314e+000
3636:8.2950594872373273e-001
3637:1.1686306582438668e+000
3638:1.7919495944299362e+000
3639:2.4633618393416823e+000
3640:2.0259683992549831e+000
3641:2.5573618949810171e+000
3642:3.3738518017154200e+000
3643:4.1337635417243339e+000
3644:2.8467904691383672e+000
3645:3.5032811322359576e+000
3646:4.4407912627079469e+000
3647:5.2503162225226268e+000
3648:1.4387780021074563e+000
3649:2.4305028095005148e+000
3650:4.1355665719578996e+000
3651:5.7567535614786385e+000
3652:2.9043696764666094e+000
3653:3.9024711471014895e+000
3654:5.5273026297389833e+000
3655:7.0090759114966490e+000
3656:4.5969361489615128e+000
3657:5.5857281730052639e+000
3658:7.0880712967097956e+000
3659:8.3829709502727141e+000
3660:5.7217674992322278e+000
3661:6.6876353022172275e+000
3662:8.0805152629642745e+000
3663:9.2275910768212928e+000
3664:6.7312177761984513e+000
3665:8.7164929842217251e+000
3666:1.1426339806094783e+001
3667:1.3445948647746585e+001
3668:7.8783213032474206e+000
3669:9.5999748277729324e+000
3670:1.1860823767395994e+001
3671:1.3477726172405996e+001
3672:9.1168386271728643e+000
3673:1.0511383536063867e+001
3674:1.2232313520867740e+001
3675:1.3374850882792472e+001
3676:9.8589488463341350e+000
3677:1.1015366261941020e+001
3678:1.2357352365748032e+001
3679:1.3175353746695524e+001
3680:1.4461457242236223e+001
3681:1.6168921385825335e+001
3682:1.7790015739115294e+001
3683:1.8392192898148416e+001
3684:1.4263831265968530e+001
3685:1.5528214415135798e+001
3686:1.6591250649336871e+001
3687:1.6817174886948472e+001
3688:1.3893563406414794e+001
3689:1.4642184639055941e+001
3690:1.5056303260782217e+001
3691:1.4845523316263741e+001
3692:1.3513702201013443e+001
3693:1.3917117058081626e+001
3694:1.3901857609868294e+001
3695:1.3406558264507515e+001
3696:1.8438844505134167e+001
3697:1.8001112054724913e+001
3698:1.6506831509245870e+001
3699:1.4742575985077583e+001
3700:1.6691667643254473e+001
3701:1.5997567669832602e+001
3702:1.4302531592056564e+001
3703:1.2488154481289618e+001
3704:1.4521114231793771e+001
3705:1.3540318407271052e+001
3706:1.1638614695582945e+001
3707:9.7893246010613577e+000
3708:1.2954893876647894e+001
3709:1.1800048686133389e+001
3710:9.7912939459071833e+000
3711:7.9434805065990979e+000
3712:1.3608078432081324e+001
3713:1.1198652699988445e+001
3714:7.7597245483089861e+000
3715:5.1065995786562217e+000
3716:1.1364650557556551e+001
3717:9.0479702054014322e+000
3718:5.8270980272289359e+000
3719:3.3767630836771203e+000
3720:8.6905331498708431e+000
3721:6.5050518717645405e+000
3722:3.5710411101699009e+000
3723:1.3844668049223785e+000
3724:6.8734538150065028e+000
3725:4.7977999103193563e+000
3726:2.0833565767609104e+000
3727:9.3791176077167554e-002
3728:3.7448655327522316e+000
3729:1.3678673822048957e+000
3730:-1.2538749675306953e+000
3731:-2.7899708104575853e+000
3732:2.1255295404678187e+000
3733:-4.6016615769949032e-002
3734:-2.4359670976402104e+000
3735:-3.8507252515686798e+000
3736:2.7727674629195842e-001
3737:-1.6289917141270276e+000
3738:-3.7173442852594163e+000
3739:-4.9647306424735564e+000
3740:-9.0646187648810606e-001
3741:-2.6191413121824949e+000
3742:-4.4892051069790977e+000
3743:-5.6124322849611481e+000
3744:-3.4113999623958708e+000
3745:-4.2086721084539409e+000
3746:-4.6429597827985472e+000
3747:-4.6109661996202362e+000
3748:-4.4346865905806574e+000
3749:-5.2029865005114981e+000
3750:-5.6614165518056305e+000
3751:-5.6812985899343182e+000
3752:-5.4898268672760606e+000
3753:-6.1971514275222237e+000
3754:-6.6496305831457621e+000
3755:-6.7030907939544857e+000
3756:-6.0911908763896099e+000
3757:-6.7463041274589299e+000
3758:-7.1817825946339324e+000
3759:-7.2474456431593222e+000
3760:-4.4923739622620840e+000
3761:-4.1195387045644845e+000
3762:-3.4385944097473438e+000
3763:-2.8522623714031314e+000
3764:-5.5972287273537935e+000
3765:-5.2764185272862294e+000
3766:-4.6111644924770019e+000
3767:-3.9770677271672565e+000
3768:-6.6447746156815883e+000
3769:-6.3681324683971257e+000
3770:-5.7241944723990485e+000
3771:-5.0565684399609792e+000
3772:-7.2006336827119135e+000
3773:-6.9480010905372636e+000
3774:-6.3238127262250208e+000
3775:-5.6488281688705966e+000
3776:-2.5416349673921239e+000
3777:-1.9988809899575568e+000
3778:-1.3869891873581226e+000
3779:-1.0035122434394979e+000
3780:-3.6165954908440368e+000
3781:-2.9713332358311368e+000
3782:-2.2111685812242294e+000
3783:-1.6982251732791185e+000
3784:-4.6562344264306628e+000
3785:-3.9228089640415846e+000
3786:-3.0243259093055581e+000
3787:-2.3842425683038142e+000
3788:-5.2334544129299578e+000
3789:-4.4601181960791791e+000
3790:-3.4886764708137745e+000
3791:-2.7763288382320543e+000
3792:-8.3294010192026913e-001
3793:-5.7713642758560513e-001
3794:-3.4684169159949474e-001
3795:-2.2972854315002000e-001
3796:-1.4525252708283727e+000
3797:-1.0588990437410564e+000
3798:-6.6521226167434278e-001
3799:-4.4171819926885730e-001
3800:-2.0633736781300640e+000
3801:-1.5332755896745347e+000
3802:-9.8130284513605004e-001
3803:-6.5773243470482623e-001
3804:-2.4117829175010845e+000
3805:-1.8035452242430294e+000
3806:-1.1633667755873496e+000
3807:-7.8579623953807243e-001
3808:-1.8270834893972901e-001
3809:-1.1689894269162093e-001
3810:-6.6242233523675531e-002
3811:-4.7043770953028516e-002
3812:-3.4639733991792088e-001
3813:-2.0650208273273532e-001
3814:-9.4453795611676564e-002
3815:-5.7811437511770335e-002
3816:-5.1805605504533780e-001
3817:-3.0878010977125825e-001
3818:-1.3564080233438466e-001
3819:-7.7516144905128120e-002
3820:-6.2276541828009158e-001
3821:-3.7605833976590614e-001
3822:-1.6745774994794779e-001
3823:-9.3956561322541793e-002
3824:-4.1295139077996562e-002
3825:-3.0486417467562796e-002
3826:-1.4908455337496289e-002
3827:-1.8512930929167166e-003
3828:-5.2870998791663008e-002
3829:-4.2957414419157583e-002
3830:-2.2682399974412109e-002
3831:-1.0792885941073539e-003
3832:-7.0031345165301434e-002
3833:-5.6959584420757527e-002
3834:-3.1592414952873335e-002
3835:-4.5192599078213002e-003
3836:-8.2594662758771184e-002
3837:-6.5029735045218529e-002
3838:-3.7231972274883889e-002
3839:-1.0149197704961192e-002
3840:-2.6128918611570553e+000
3841:-1.5366497967250163e+000
3842:-3.8647434359091926e-001
3843:3.5262057272763048e-001
3844:-3.2098751009992887e+000
3845:-1.8815151354181407e+000
3846:-4.6466257055466281e-001
3847:4.4535621357070643e-001
3848:-3.9645877249621311e+000
3849:-2.3290506182553252e+000
3850:-5.9115763271406885e-001
3851:5.2109520900743789e-001
3852:-4.5174817110342147e+000
3853:-2.6658393063909616e+000
3854:-7.0501022091739229e-001
3855:5.4501960365253954e-001
3856:7.1018376384386150e-001
3857:1.3593264254938786e+000
3858:2.2045584958972988e+000
3859:2.8770690577357620e+000
3860:8.8585640366853902e-001
3861:1.6827537919453006e+000
3862:2.7047456956482878e+000
3863:3.4991438441062561e+000
3864:1.0583776645307204e+000
3865:2.0259247495466677e+000
3866:3.2483272776212702e+000
3867:4.1775483611941260e+000
3868:1.1472258177375028e+000
3869:2.2280671787624025e+000
3870:3.5808834214613356e+000
3871:4.5952867328345786e+000
3872:3.2495296480844305e+000
3873:3.9650372579058950e+000
3874:4.9573565143688656e+000
3875:5.7865273265983310e+000
3876:3.9313298409691253e+000
3877:4.7449145593927078e+000
3878:5.8258865034454344e+000
3879:6.6839490784811932e+000
3880:4.6744111923763443e+000
3881:5.5916138067875680e+000
3882:6.7606237345720190e+000
3883:7.6407079910915758e+000
3884:5.1318807498767152e+000
3885:6.1100887174170229e+000
3886:7.3250121315819081e+000
3887:8.2091763686833712e+000
3888:6.2590700341559842e+000
3889:7.2069547975483497e+000
3890:8.5362110042365344e+000
3891:9.6032902278748615e+000
3892:7.1555831211667051e+000
3893:8.0664879184609397e+000
3894:9.2772893721391316e+000
3895:1.0199484235850838e+001
3896:8.1053355589771030e+000
3897:8.9621136510491848e+000
3898:1.0021465812532490e+001
3899:1.0765996834040932e+001
3900:8.6634244216506886e+000
3901:9.4734643124928635e+000
3902:1.0418735471162886e+001
3903:1.1035925406099663e+001
3904:1.0180721789552994e+001
3905:1.1215088571403236e+001
3906:1.2367810773431424e+001
3907:1.3026825050183865e+001
3908:1.0680344190128901e+001
3909:1.1499210110824706e+001
3910:1.2323056472855404e+001
3911:1.2709502869373608e+001
3912:1.1130459070432808e+001
3913:1.1695356505024453e+001
3914:1.2141921497762379e+001
3915:1.2223121099109981e+001
3916:1.1318710713051905e+001
3917:1.1710095814998304e+001
3918:1.1907528024362962e+001
3919:1.1793643233993553e+001
3920:1.3277827835767672e+001
3921:1.3515651982799618e+001
3922:1.3297455941196581e+001
3923:1.2670354499108122e+001
3924:1.2812096920938773e+001
3925:1.2771008886909030e+001
3926:1.2214704535561285e+001
3927:1.1370417803118441e+001
3928:1.2162335549490535e+001
3929:1.1820424797964886e+001
3930:1.0909359426624297e+001
3931:9.8439196365628892e+000
3932:1.1631019855510345e+001
3933:1.1108085845783657e+001
3934:9.9945461078773494e+000
3935:8.8109646663239634e+000
3936:1.2161043135957588e+001
3937:1.0931351013902566e+001
3938:8.8848237758008857e+000
3939:7.0479402021849573e+000
3940:1.0767088295225049e+001
3941:9.4184378599431575e+000
3942:7.3187533487289178e+000
3943:5.5078940548697641e+000
3944:9.1475440019185204e+000
3945:7.6878432920876678e+000
3946:5.5536530967594704e+000
3947:3.7863414650937912e+000
3948:8.0682533293435714e+000
3949:6.5605693497815896e+000
3950:4.4287960899271903e+000
3951:2.7023298755974845e+000
3952:5.9966010364921454e+000
3953:3.9821229670454779e+000
3954:1.3829994954912959e+000
3955:-5.0514207639425190e-001
3956:4.4916515828840229e+000
3957:2.5872582960716195e+000
3958:1.9304449016142755e-001
3959:-1.5143244692429298e+000
3960:2.8149557163913617e+000
3961:1.0415630482495219e+000
3962:-1.1151909671279101e+000
3963:-2.6130958199766869e+000
3964:1.7641167629465673e+000
3965:7.8890575457638959e-002
3966:-1.9252712396373313e+000
3967:-3.2901110914970495e+000
3968:-1.4507222985794059e+000
3969:-3.0658283891604703e+000
3970:-4.8271481005992047e+000
3971:-5.8882169102647568e+000
3972:-2.3618503355619254e+000
3973:-3.8020215691030672e+000
3974:-5.3666487502770002e+000
3975:-6.3117182801687566e+000
3976:-3.3462469052315229e+000
3977:-4.5825200349649675e+000
3978:-5.9150813690012054e+000
3979:-6.7175151359046152e+000
3980:-3.9505384697910180e+000
3981:-5.0575959939584685e+000
3982:-6.2415797552143228e+000
3983:-6.9490299337753418e+000
3984:-6.3432949280882065e+000
3985:-6.9714102077055458e+000
3986:-7.3971801511144974e+000
3987:-7.4676076580314916e+000
3988:-6.7203621052397402e+000
3989:-7.2917546089894021e+000
3990:-7.6890722098811866e+000
3991:-7.7602949672586652e+000
3992:-7.0655023121380482e+000
3993:-7.5563671803592705e+000
3994:-7.9000318021330056e+000
3995:-7.9568234536121683e+000
3996:-7.2543658117885412e+000
3997:-7.6842505513515178e+000
3998:-7.9784441225874065e+000
3999:-8.0133539147462098e+000
4000:-7.4256556658486366e+000
4001:-7.1843963006806986e+000
4002:-6.5724943557736974e+000
4003:-5.8989458058983670e+000
4004:-7.7235086675745439e+000
4005:-7.4990728888811162e+000
4006:-6.9125638341293767e+000
4007:-6.2517088088126309e+000
4008:-7.9186050108281698e+000
4009:-7.7047926658897499e+000
4010:-7.1494760642790922e+000
4011:-6.5173417565840595e+000
4012:-7.9675403511851721e+000
4013:-7.7509887351133910e+000
4014:-7.2118864914368412e+000
4015:-6.6039306266273083e+000
4016:-5.4799674753025975e+000
4017:-4.6931979736511069e+000
4018:-3.6922704754980402e+000
4019:-2.9486663700092071e+000
4020:-5.8344166728401410e+000
4021:-5.0388188262325704e+000
4022:-4.0036562364512287e+000
4023:-3.2172452364220909e+000
4024:-6.1141536998605472e+000
4025:-5.3316545066913683e+000
4026:-4.2859503922200135e+000
4027:-3.4707739804999718e+000
4028:-6.2161836267700963e+000
4029:-5.4550995386161896e+000
4030:-4.4198808683609414e+000
4031:-3.5991779110655782e+000
4032:-2.5649002491846926e+000
4033:-1.9226014447305515e+000
4034:-1.2445481757754149e+000
4035:-8.4408883683364944e-001
4036:-2.8056542940307958e+000
4037:-2.1134021622607717e+000
4038:-1.3789046495784607e+000
4039:-9.4358806880205737e-001
4040:-3.0373397663860491e+000
4041:-2.3044655984364444e+000
4042:-1.5220542605230374e+000
4043:-1.0555050100704477e+000
4044:-3.1583394773290125e+000
4045:-2.4104643034033213e+000
4046:-1.6085809894736329e+000
4047:-1.1278664731211954e+000
4048:-6.7121710466779450e-001
4049:-4.0845860842205889e-001
4050:-1.8385600996043833e-001
4051:-1.0246746378151493e-001
4052:-7.5539947396970608e-001
4053:-4.6692072926898387e-001
4054:-2.1493243212758922e-001
4055:-1.1813361889371768e-001
4056:-8.5288956309209862e-001
4057:-5.3877447334524209e-001
4058:-2.5620822350987693e-001
4059:-1.3877980248532407e-001
4060:-9.1809122263895204e-001
4061:-5.9012189069592402e-001
4062:-2.8844899066619994e-001
4063:-1.5563536410707421e-001
4064:-8.8555137828072547e-002
4065:-6.8143787898263905e-002
4066:-3.9678327317914742e-002
4067:-1.3974626752895304e-002
4068:-9.8245941331458447e-002
4069:-7.1172773977858025e-002
4070:-4.2245380015185297e-002
4071:-2.1835145403348129e-002
4072:-1.0930901362247085e-001
4073:-7.1273750749120610e-002
4074:-4.2226573872405894e-002
4075:-3.2175618048166127e-002
4076:-1.1801979947546777e-001
4077:-7.0230959549151734e-002
4078:-4.0504743056835130e-002
4079:-3.9238440319851284e-002
4080:-4.8010127332145052e+000
4081:-2.8418840120880238e+000
4082:-7.7123753396849526e-001
4083:5.4568867423727463e-001
4084:-5.3098361542292727e+000
4085:-3.1650119588041914e+000
4086:-9.0671740031013004e-001
4087:5.2258190349694722e-001
4088:-5.9215638854344519e+000
4089:-3.5678579037832949e+000
4090:-1.1029041388533436e+000
4091:4.4603035743805375e-001
4092:-6.3447207833880075e+000
4093:-3.8581089399624244e+000
4094:-1.2656619924820218e+000
4095:3.5331732239346930e-001
4096:1.1790472378856329e+000
4097:2.3138737227530619e+000
4098:3.7279490699125017e+000
4099:4.7814537547190223e+000
4100:1.2075203701140393e+000
4101:2.4310839773786110e+000
4102:3.9444877787130150e+000
4103:5.0600281693965199e+000
4104:1.1842731486509877e+000
4105:2.4982566831764150e+000
4106:4.1101313802910866e+000
4107:5.2843349340926506e+000
4108:1.1212690719233265e+000
4109:2.4845340936143296e+000
4110:4.1476105710938800e+000
4111:5.3496058940939637e+000
4112:5.3358515354801881e+000
4113:6.3401991805702425e+000
4114:7.5719767336616837e+000
4115:8.4536581186339532e+000
4116:5.6420017385454884e+000
4117:6.6845662891771385e+000
4118:7.9349672106778266e+000
4119:8.8036783660526705e+000
4120:5.8909349191581279e+000
4121:6.9623614284972923e+000
4122:8.2118986124968085e+000
4123:9.0475622161779263e+000
4124:5.9663936217280371e+000
4125:7.0439558258315005e+000
4126:8.2738267783170798e+000
4127:9.0721054477186822e+000
4128:8.9004904199116535e+000
4129:9.6836318810259741e+000
4130:1.0568835545243175e+001
4131:1.1121459720797445e+001
4132:9.2329913539441826e+000
4133:9.9614347309031963e+000
4134:1.0734491768875777e+001
4135:1.1171817276578132e+001
4136:9.4469924750592060e+000
4137:1.0095874466663764e+001
4138:1.0723989701432544e+001
4139:1.1022775528425630e+001
4140:9.4434424474194678e+000
4141:1.0025597812080550e+001
4142:1.0544726755387119e+001
4143:1.0747511581921497e+001
4144:1.1363527370571257e+001
4145:1.1670173742508185e+001
4146:1.1749230635008928e+001
4147:1.1545205548079819e+001
4148:1.1342772981453972e+001
4149:1.1505006169671857e+001
4150:1.1388103530760180e+001
4151:1.1038669276254685e+001
4152:1.1111626804361300e+001
4153:1.1114450228700044e+001
4154:1.0793148994243015e+001
4155:1.0299974930157131e+001
4156:1.0782252138362365e+001
4157:1.0685992375182646e+001
4158:1.0247798213949082e+001
4159:9.6796224695761364e+000
4160:1.1336585505383821e+001
4161:1.0734790767870255e+001
4162:9.5382578547315102e+000
4163:8.3103756655112253e+000
4164:1.0757315441190356e+001
4165:1.0035561104423939e+001
4166:8.7221281199278469e+000
4167:7.4401232158507886e+000
4168:9.9497848875476720e+000
4169:9.1242681544202853e+000
4170:7.7296431189853498e+000
4171:6.4290474920685252e+000
4172:9.2964305171362120e+000
4173:8.4303423739477541e+000
4174:7.0241449256566435e+000
4175:5.7446291708835169e+000
4176:7.5521362859956849e+000
4177:6.0323791265246038e+000
4178:3.9121185857157754e+000
4179:2.2098223917597384e+000
4180:6.6670538148258425e+000
4181:5.1456121220723388e+000
4182:3.0640838949763523e+000
4183:1.4141277266942927e+000
4184:5.6618396553467907e+000
4185:4.1746797429138027e+000
4186:2.1730418738592543e+000
4187:6.0341518750519751e-001
4188:4.9984043504252851e+000
4189:3.5607337420134688e+000
4190:1.6379257021907341e+000
4191:1.3624443064749264e-001
4192:1.2886664528707235e+000
4193:-3.5448412119920136e-001
4194:-2.2889868805791047e+000
4195:-3.5940255836160455e+000
4196:5.2691131681191505e-001
4197:-1.0375902494035691e+000
4198:-2.8474359553680215e+000
4199:-4.0473022173981166e+000
4200:-2.3600843704352481e-001
4201:-1.6980733486131019e+000
4202:-3.3552209830666819e+000
4203:-4.4294936600671635e+000
4204:-6.6508235887852696e-001
4205:-2.0506115560781013e+000
4206:-3.5999217607434399e+000
4207:-4.5874713046872886e+000
4208:-4.2218635841252565e+000
4209:-5.2711699597401811e+000
4210:-6.3881655805627151e+000
4211:-7.0514579668023218e+000
4212:-4.6180114128524234e+000
4213:-5.5657487285828005e+000
4214:-6.5640581706962511e+000
4215:-7.1482749352181933e+000
4216:-4.9322319779885939e+000
4217:-5.7579764562459221e+000
4218:-6.6113904328353605e+000
4219:-7.0972840231456154e+000
4220:-5.0432858573505692e+000
4221:-5.7834810237327599e+000
4222:-6.5326260845846926e+000
4223:-6.9457422515256964e+000
4224:-7.3361749182619143e+000
4225:-7.7350202573437583e+000
4226:-8.0009740374470262e+000
4227:-8.0208462504138165e+000
4228:-7.3957012500970833e+000
4229:-7.7378642799860495e+000
4230:-7.9519203826633005e+000
4231:-7.9446722279802469e+000
4232:-7.2976920464315347e+000
4233:-7.5677558067399904e+000
4234:-7.7162391430362547e+000
4235:-7.6767761975624502e+000
4236:-7.1106268832049988e+000
4237:-7.3256391114552635e+000
4238:-7.4243318394164399e+000
4239:-7.3620064090568782e+000
4240:-7.9687884226787045e+000
4241:-7.7467537265170563e+000
4242:-7.2125470862469223e+000
4243:-6.6167939658804205e+000
4244:-7.8818695402753960e+000
4245:-7.6527324070844758e+000
4246:-7.1348829836480041e+000
4247:-6.5700533618167780e+000
4248:-7.6026569472341912e+000
4249:-7.3713309432926266e+000
4250:-6.8881257869198746e+000
4251:-6.3771130978916348e+000
4252:-7.2810081781365978e+000
4253:-7.0519905278615083e+000
4254:-6.6017418163004189e+000
4255:-6.1380102089876800e+000
4256:-6.2379261643866677e+000
4257:-5.4906124730850498e+000
4258:-4.4658462052326140e+000
4259:-3.6470796515737143e+000
4260:-6.2130325354578417e+000
4261:-5.5020936035101755e+000
4262:-4.5117724405466735e+000
4263:-3.7085755266472953e+000
4264:-6.0569829873810015e+000
4265:-5.4114651421063424e+000
4266:-4.4932173397960282e+000
4267:-3.7333835940488687e+000
4268:-5.8499182146998230e+000
4269:-5.2641951204969111e+000
4270:-4.4185779951860980e+000
4271:-3.7084509207141099e+000
4272:-3.2051955107280135e+000
4273:-2.4543717444467070e+000
4274:-1.6475310898994311e+000
4275:-1.1623541558303281e+000
4276:-3.2711085149458592e+000
4277:-2.5248063786398580e+000
4278:-1.7178219477984531e+000
4279:-1.2284264308322097e+000
4280:-3.3143296335785561e+000
4281:-2.5935451421787361e+000
4282:-1.8034309489677869e+000
4283:-1.3155167945070780e+000
4284:-3.3129971904744240e+000
4285:-2.6263586069810430e+000
4286:-1.8613904604464719e+000
4287:-1.3791126241996012e+000
4288:-9.5000233230401410e-001
4289:-6.1653883095466533e-001
4290:-3.0620730213015240e-001
4291:-1.6549845829105206e-001
4292:-1.0125395389674610e+000
4293:-6.7045551941208081e-001
4294:-3.4476021491523690e-001
4295:-1.8886494755624669e-001
4296:-1.0968598216282164e+000
4297:-7.4618672443628675e-001
4298:-4.0280484441986170e-001
4299:-2.2797422202368647e-001
4300:-1.1592642144979186e+000
4301:-8.0379413536336008e-001
4302:-4.4969557447012487e-001
4303:-2.6280468465915519e-001
4304:-1.2338361953484843e-001
4305:-6.9965945660842924e-002
4306:-3.9321762392709042e-002
4307:-4.2463189257146559e-002
4308:-1.3774337101627335e-001
4309:-7.2336064874038514e-002
4310:-3.7636794561254461e-002
4311:-4.7067962964312544e-002
4312:-1.6515866992689010e-001
4313:-8.2460825377303981e-002
4314:-3.7108647739326726e-002
4315:-4.8559105173969268e-002
4316:-1.9227258938248176e-001
4317:-9.6349731829624891e-002
4318:-3.8301689218415411e-002
4319:-4.4700270710874984e-002
4320:-6.5523841491923056e+000
4321:-4.0050750870640144e+000
4322:-1.3560905810940120e+000
4323:2.9231691041756530e-001
4324:-6.9056445326387754e+000
4325:-4.2650687451890423e+000
4326:-1.5317105426230548e+000
4327:1.5792922827845315e-001
4328:-7.2889030714690568e+000
4329:-4.5694980367123899e+000
4330:-1.7699834412955384e+000
4331:-5.3883016598853840e-002
4332:-7.5182641053155432e+000
4333:-4.7730489714836617e+000
4334:-1.9575333860828938e+000
4335:-2.4210255643980957e-001
4336:1.0720678893708895e+000
4337:2.4544263348698276e+000
4338:4.1362304545053572e+000
4339:5.3470732221859594e+000
4340:9.5299752402175486e-001
4341:2.3594485071714209e+000
4342:4.0630812902361280e+000
4343:5.2817645365391037e+000
4344:7.4813224684915602e-001
4345:2.1633573563152106e+000
4346:3.8691750021340474e+000
4347:5.0803307822163442e+000
4348:5.5544621938359162e-001
4349:1.9600655302836281e+000
4350:3.6467333594031071e+000
4351:4.8375203482005311e+000
4352:5.9663039910723725e+000
4353:7.0417015709887627e+000
4354:8.2547688272856092e+000
4355:9.0292498658709786e+000
4356:5.9013797926167983e+000
4357:6.9655617437635078e+000
4358:8.1401244207743719e+000
4359:8.8671942388835685e+000
4360:5.6918158815268534e+000
4361:6.7272547408427021e+000
4362:7.8391550169221613e+000
4363:8.5008683292609657e+000
4364:5.4355275645225696e+000
4365:6.4375574478852426e+000
4366:7.4924177620085173e+000
4367:8.1025967739464377e+000
4368:9.3840190697138546e+000
4369:9.9291118292299316e+000
4370:1.0391675831279679e+001
4371:1.0547485516642862e+001
4372:9.1905628654835070e+000
4373:9.6684005546716936e+000
4374:1.0032970719759485e+001
4375:1.0110333004737397e+001
4376:8.7839502664698301e+000
4377:9.1807890686492843e+000
4378:9.4357246151583958e+000
4379:9.4307471678022381e+000
4380:8.3562210023449186e+000
4381:8.6976278195579919e+000
4382:8.8839551980259532e+000
4383:8.8320204763075090e+000
4384:1.0556787414101514e+001
4385:1.0416149275925878e+001
4386:9.9295461967272765e+000
4387:9.3333501752898709e+000
4388:1.0078152093818494e+001
4389:9.8673777509745157e+000
4390:9.3081281316896920e+000
4391:8.6727567851364995e+000
4392:9.3569142272640615e+000
4393:9.0800202841462312e+000
4394:8.4597576296532608e+000
4395:7.7971291836316556e+000
4396:8.7361501566890425e+000
4397:8.4282452284113276e+000
4398:7.7865881337187925e+000
4399:7.1204086949690604e+000
4400:8.9391705842543150e+000
4401:8.0640572919183988e+000
4402:6.6673401524657727e+000
4403:5.4094359735696287e+000
4404:8.2645609524657662e+000
4405:7.3839107236098318e+000
4406:6.0186108391305764e+000
4407:4.8112994714874873e+000
4408:7.3819605742772492e+000
4409:6.5125090979167588e+000
4410:5.2087240188624184e+000
4411:4.0821158033598266e+000
4412:6.7078711009636987e+000
4413:5.8592567956620796e+000
4414:4.6148610140814963e+000
4415:3.5579590449268719e+000
4416:4.6790404312695983e+000
4417:3.2741491979835038e+000
4418:1.3980328745288497e+000
4419:-6.5839588937242677e-002
4420:4.1159359853398021e+000
4421:2.7822370204188487e+000
4422:1.0060043023772272e+000
4423:-3.7751135996436369e-001
4424:3.4403961406623216e+000
4425:2.2155180607732889e+000
4426:5.9277254539907898e-001
4427:-6.6613279981539608e-001
4428:2.9614455647712199e+000
4429:1.8292979181192237e+000
4430:3.3995598382234909e-001
4431:-8.0857107408536100e-001
4432:-8.4653558586943356e-001
4433:-2.1920928581561689e+000
4434:-3.6869988643344755e+000
4435:-4.6314069761816938e+000
4436:-1.1145086962014108e+000
4437:-2.3776760912013435e+000
4438:-3.7652162245285998e+000
4439:-4.6280345579989079e+000
4440:-1.3351199972501213e+000
4441:-2.4747483829890236e+000
4442:-3.7118379920006550e+000
4443:-4.4687248515509488e+000
4444:-1.4168231912717451e+000
4445:-2.4499553920308617e+000
4446:-3.5662312958675964e+000
4447:-4.2454973173926946e+000
4448:-5.0638623002236871e+000
4449:-5.7609457988098987e+000
4450:-6.4564868316962318e+000
4451:-6.8313726695930495e+000
4452:-5.0174945863962614e+000
4453:-5.6364178071179136e+000
4454:-6.2363327944841229e+000
4455:-6.5437525825522629e+000
4456:-4.8053426569794073e+000
4457:-5.3314951572286251e+000
4458:-5.8226906042813464e+000
4459:-6.0561495547526354e+000
4460:-4.5462044453842569e+000
4461:-5.0124619147580649e+000
4462:-5.4383466897871235e+000
4463:-5.6304920364493594e+000
4464:-6.9773106236278499e+000
4465:-7.1628170491558611e+000
4466:-7.2350466757169212e+000
4467:-7.1612282916058705e+000
4468:-6.6564360983761510e+000
4469:-6.7911586488488549e+000
4470:-6.8202754454834817e+000
4471:-6.7303097384573309e+000
4472:-6.1331427430938152e+000
4473:-6.2151640993152730e+000
4474:-6.2036807196854120e+000
4475:-6.1030016470032349e+000
4476:-5.6884652235589837e+000
4477:-5.7435808794298078e+000
4478:-5.7139854605356577e+000
4479:-5.6116262004915756e+000
4480:-7.0772298034583407e+000
4481:-6.8505806890095995e+000
4482:-6.4191174125389399e+000
4483:-5.9814138211257637e+000
4484:-6.6436119254173986e+000
4485:-6.4253888632156979e+000
4486:-6.0312669092235653e+000
4487:-5.6418060984772040e+000
4488:-6.0175532560646303e+000
4489:-5.8153945550432677e+000
4490:-5.4689284373451450e+000
4491:-5.1361022601773563e+000
4492:-5.5293464655720479e+000
4493:-5.3400489509581330e+000
4494:-5.0238985438232415e+000
4495:-4.7247573236614686e+000
4496:-5.7108872275887439e+000
4497:-5.1590859705705219e+000
4498:-4.3571051526024993e+000
4499:-3.6788027830974177e+000
4500:-5.4033262335614376e+000
4501:-4.9149123524944418e+000
4502:-4.1984663569802434e+000
4503:-3.5863086627415295e+000
4504:-4.9344964720573499e+000
4505:-4.5216062204013694e+000
4506:-3.9140174906269145e+000
4507:-3.3924719459104935e+000
4508:-4.5447703109460171e+000
4509:-4.1784453423781986e+000
4510:-3.6437600881795653e+000
4511:-3.1879073749938387e+000
4512:-3.2991712269317905e+000
4513:-2.6357273010885560e+000
4514:-1.8882717027122307e+000
4515:-1.4103986015446188e+000
4516:-3.2410681362725340e+000
4517:-2.6293773177289035e+000
4518:-1.9231451472871945e+000
4519:-1.4576152061060133e+000
4520:-3.0968764792277543e+000
4521:-2.5631961780638663e+000
4522:-1.9252212491642684e+000
4523:-1.4861463727347275e+000
4524:-2.9301895985422854e+000
4525:-2.4593492133002943e+000
4526:-1.8828606766886160e+000
4527:-1.4738515807076100e+000
4528:-1.1901341426594318e+000
4529:-8.3270924672219560e-001
4530:-4.7425607275141690e-001
4531:-2.8237767805727787e-001
4532:-1.2378644271789403e+000
4533:-8.7914432138612497e-001
4534:-5.1614251053932469e-001
4535:-3.1834237941300608e-001
4536:-1.2719441830520064e+000
4537:-9.1947419817840359e-001
4538:-5.5931242339730713e-001
4539:-3.5996500851711555e-001
4540:-1.2696048335036909e+000
4541:-9.3079039445823031e-001
4542:-5.8092217308268856e-001
4543:-3.8456535036416822e-001
4544:-2.0856250128150255e-001
4545:-1.0605547690699524e-001
4546:-3.9594480237005875e-002
4547:-4.0436512524391281e-002
4548:-2.4039018020058930e-001
4549:-1.2760729136946289e-001
4550:-4.3886971607710268e-002
4551:-2.9628783272758065e-002
4552:-2.7982961100623094e-001
4553:-1.5812839810995319e-001
4554:-5.3381503769203656e-002
4555:-1.6303226558786583e-002
4556:-3.0450384052003282e-001
4557:-1.7964011390539245e-001
4558:-6.3662145119726593e-002
4559:-1.2080320179880736e-002
4560:-7.6164303538061251e+000
4561:-4.8700709541498544e+000
4562:-2.0584337089370899e+000
4563:-3.5067406258134259e-001
4564:-7.7548842104632270e+000
4565:-5.0279729122536194e+000
4566:-2.2443519218870964e+000
4567:-5.6329419269301262e-001
4568:-7.8463355120472658e+000
4569:-5.1840957446437193e+000
4570:-2.4757598895583488e+000
4571:-8.5357725003987817e-001
4572:-7.8492815909828675e+000
4573:-5.2639435328401083e+000
4574:-2.6414394176061622e+000
4575:-1.0829369480167499e+000
4576:4.4112282110232875e-001
4577:1.8340073235231564e+000
4578:3.5029540019401537e+000
4579:4.6775011495334633e+000
4580:2.1185378158557364e-001
4581:1.5717689940042507e+000
4582:3.1939557328029040e+000
4583:4.3289838052678009e+000
4584:-1.1199104083597043e-001
4585:1.1827651700439883e+000
4586:2.7168507894273390e+000
4587:3.7824192898913340e+000
4588:-3.7658283033305473e-001
4589:8.5055571336164693e-001
4590:2.2957612303960504e+000
4591:3.2941420980102110e+000
4592:5.2656364107599520e+000
4593:6.2458413771249237e+000
4594:7.2675433499117057e+000
4595:7.8503166899059051e+000
4596:4.8944904806200027e+000
4597:5.8287565150806655e+000
4598:6.7868428457847996e+000
4599:7.3206488896146658e+000
4600:4.3104039278728727e+000
4601:5.1753302776183014e+000
4602:6.0484784348407636e+000
4603:6.5238730377697252e+000
4604:3.7871832550398414e+000
4605:4.5917655729429248e+000
4606:5.3985387657267987e+000
4607:5.8336676505761771e+000
4608:8.0890987074966993e+000
4609:8.4038402254227318e+000
4610:8.5594290389383012e+000
4611:8.4882334900051077e+000
4612:7.5339988483825246e+000
4613:7.8043171020376150e+000
4614:7.9106027482079648e+000
4615:7.8097812492278909e+000
4616:6.7090862979553627e+000
4617:6.9326445835773542e+000
4618:6.9904795469022067e+000
4619:6.8627331426119156e+000
4620:6.0013797749831799e+000
4621:6.1978754544798145e+000
4622:6.2306323163726782e+000
4623:6.0909063537552059e+000
4624:8.3840573751797098e+000
4625:8.0662483713135629e+000
4626:7.4214048743551757e+000
4627:6.7587471757720703e+000
4628:7.6933099335678881e+000
4629:7.3622375452089592e+000
4630:6.7172971380311344e+000
4631:6.0655262970419077e+000
4632:6.7359134259941449e+000
4633:6.3967149363828444e+000
4634:5.7623108850953795e+000
4635:5.1333259620027691e+000
4636:5.9602918737472779e+000
4637:5.6219003674966936e+000
4638:5.0046090157938092e+000
4639:4.4009262791166845e+000
4640:6.3500282542147257e+000
4641:5.5160475455396609e+000
4642:4.3064544544976355e+000
4643:3.2884531961711061e+000
4644:5.6663012417715013e+000
4645:4.8639053051896823e+000
4646:3.7244991942247112e+000
4647:2.7829068607017562e+000
4648:4.7514792154781045e+000
4649:3.9988595191859981e+000
4650:2.9603071849621680e+000
4651:2.1241054339822494e+000
4652:4.0370394758637289e+000
4653:3.3300209479967178e+000
4654:2.3756899231395163e+000
4655:1.6235475167699600e+000
4656:2.7169013416051722e+000
4657:1.6366581068298129e+000
4658:2.2346730105570822e-001
4659:-8.6100902842657756e-001
4660:2.2600028071839100e+000
4661:1.2820719745033291e+000
4662:2.1121105088029654e-002
4663:-9.3407631628275845e-001
4664:1.6673149662237177e+000
4665:8.2868946222594175e-001
4666:-2.2453208508616809e-001
4667:-1.0033582847304114e+000
4668:1.2184916319628147e+000
4669:4.8727143152991936e-001
4670:-4.0870617993971570e-001
4671:-1.0561076502014242e+000
4672:-1.4337753026507460e+000
4673:-2.4061049953141369e+000
4674:-3.4567628831888202e+000
4675:-4.0968285217009743e+000
4676:-1.4350303876966286e+000
4677:-2.2865413939769419e+000
4678:-3.2115299186308537e+000
4679:-3.7803712676152781e+000
4680:-1.4065360949426644e+000
4681:-2.0955576803543710e+000
4682:-2.8554913540017024e+000
4683:-3.3338824767858322e+000
4684:-1.3870460353552116e+000
4685:-1.9556941742811513e+000
4686:-2.5921229046724292e+000
4687:-3.0014457010421043e+000
4688:-4.3806022466290280e+000
4689:-4.8199913312862872e+000
4690:-5.2188555006274466e+000
4691:-5.3955330524574432e+000
4692:-4.0349053118534748e+000
4693:-4.4293970120801589e+000
4694:-4.7860024615881027e+000
4695:-4.9411405031655109e+000
4696:-3.5524998675542410e+000
4697:-3.8930372514143721e+000
4698:-4.2015225564341785e+000
4699:-4.3350090980529501e+000
4700:-3.1919462511299597e+000
4701:-3.4895451185264572e+000
4702:-3.7586715180970769e+000
4703:-3.8736532840376872e+000
4704:-5.4469058420371850e+000
4705:-5.4931368694905469e+000
4706:-5.4585315622370523e+000
4707:-5.3570196675818815e+000
4708:-4.9843686913755221e+000
4709:-5.0202307385685296e+000
4710:-4.9811108404538089e+000
4711:-4.8826850531423602e+000
4712:-4.3713770532598790e+000
4713:-4.3990458317881798e+000
4714:-4.3576659077412589e+000
4715:-4.2639908757279601e+000
4716:-3.9038109956960105e+000
4717:-3.9234035454203942e+000
4718:-3.8781694963971876e+000
4719:-3.7869253738425734e+000
4720:-5.2767218455222418e+000
4721:-5.0934244977236611e+000
4722:-4.7896579207673584e+000
4723:-4.5036662340740392e+000
4724:-4.8061806058237133e+000
4725:-4.6327918956261929e+000
4726:-4.3476075447822220e+000
4727:-4.0805651572764807e+000
4728:-4.1922296777332368e+000
4729:-4.0303485825857797e+000
4730:-3.7654579595014699e+000
4731:-3.5184443244795385e+000
4732:-3.7183888932333495e+000
4733:-3.5653286791020951e+000
4734:-3.3173637624235570e+000
4735:-3.0876241633638029e+000
4736:-4.3320714132414446e+000
4737:-3.9850063473847674e+000
4738:-3.4831961675557777e+000
4739:-3.0590763083498191e+000
4740:-3.9210202323931274e+000
4741:-3.6036634342790506e+000
4742:-3.1560564449031117e+000
4743:-2.7860495641620799e+000
4744:-3.3715607801396148e+000
4745:-3.0868337141040851e+000
4746:-2.7003682314601938e+000
4747:-2.3915647979263115e+000
4748:-2.9516263544704811e+000
4749:-2.6924360357885591e+000
4750:-2.3492151011752433e+000
4751:-2.0807251602033672e+000
4752:-2.8203911357098570e+000
4753:-2.3826266193169179e+000
4754:-1.8414537243448168e+000
4755:-1.4523703589417547e+000
4756:-2.5802840408508936e+000
4757:-2.2013883075322283e+000
4758:-1.7272536700990853e+000
4759:-1.3804065177740972e+000
4760:-2.2229852853139964e+000
4761:-1.9125580455676163e+000
4762:-1.5221430411863905e+000
4763:-1.2342737187298258e+000
4764:-1.9358090502220040e+000
4765:-1.6696425969867101e+000
4766:-1.3362599402093971e+000
4767:-1.0919307684321042e+000
4768:-1.2559865396536112e+000
4769:-9.2839137478012368e-001
4770:-5.8734651994095854e-001
4771:-3.9395564309021253e-001
4772:-1.2028152113450858e+000
4773:-9.0327900862702126e-001
4774:-5.8571948707881527e-001
4775:-4.0115743407802290e-001
4776:-1.0857756558282350e+000
4777:-8.3191576669873368e-001
4778:-5.5578713225712084e-001
4779:-3.8926233314770808e-001
4780:-9.6641465212890265e-001
4781:-7.5043706878448502e-001
4782:-5.1168058890992596e-001
4783:-3.6388479773975102e-001
4784:-3.1436565253907578e-001
4785:-1.8920288371904925e-001
4786:-7.0081593210459522e-002
4787:-1.3451760091775920e-002
4788:-3.2348919124214431e-001
4789:-2.0055944650838603e-001
4790:-8.1518851432750408e-002
4791:-2.1974518599447022e-002
4792:-3.1679261706635847e-001
4793:-2.0224182052917700e-001
4794:-9.2363708514267756e-002
4795:-3.8048768524472532e-002
4796:-2.9795702256092294e-001
4797:-1.9390634654648675e-001
4798:-9.5482152671804321e-002
4799:-4.8444995160145547e-002
4800:-7.8274804540908836e+000
4801:-5.2919230008649496e+000
4802:-2.7247638040924227e+000
4803:-1.2069125538196492e+000
4804:-7.7400417540559543e+000
4805:-5.3152234674452368e+000
4806:-2.8727052542229372e+000
4807:-1.4453606599672741e+000
4808:-7.5326441647765829e+000
4809:-5.2900992954893047e+000
4810:-3.0523007401673614e+000
4811:-1.7693883934857322e+000
4812:-7.3015453669076651e+000
4813:-5.2309193771658338e+000
4814:-3.1828011959445925e+000
4815:-2.0288595350939729e+000
4816:-5.2286675147129880e-001
4817:6.6177556151744055e-001
4818:2.0519852488192174e+000
4819:3.0096655011678379e+000
4820:-8.1007704818911486e-001
4821:2.8317891647934884e-001
4822:1.5574695745883749e+000
4823:2.4308489747923514e+000
4824:-1.2096787662513393e+000
4825:-2.5601655004272583e-001
4826:8.4400676142979547e-001
4827:1.5923611790287655e+000
4828:-1.5346197706830311e+000
4829:-7.0117949221557652e-001
4830:2.4931445290817500e-001
4831:8.9070282300179204e-001
4832:3.4819382186091561e+000
4833:4.2518925273988586e+000
4834:5.0229099403123056e+000
4835:5.4381796156328699e+000
4836:2.8606252437389839e+000
4837:3.5613263767826302e+000
4838:4.2634411241905719e+000
4839:4.6421109949006372e+000
4840:1.9597156221575776e+000
4841:2.5608878625031175e+000
4842:3.1672332856153003e+000
4843:3.4967084647978859e+000
4844:1.2047872719447867e+000
4845:1.7219065202785591e+000
4846:2.2483324454281797e+000
4847:2.5367370604844290e+000
4848:5.5979798194746442e+000
4849:5.7829959906508055e+000
4850:5.8062750465237629e+000
4851:5.6628757546474837e+000
4852:4.7878718513023530e+000
4853:4.9526141136661161e+000
4854:4.9595795472975732e+000
4855:4.8106903314122551e+000
4856:3.6239809499860178e+000
4857:3.7617657551798160e+000
4858:3.7473396146168501e+000
4859:3.5925643084952705e+000
4860:2.6483205196652424e+000
4861:2.7629145686506877e+000
4862:2.7301877190914650e+000
4863:2.5711447071976328e+000
4864:5.5315214359722980e+000
4865:5.1959192281068578e+000
4866:4.5911847290883951e+000
4867:4.0042217848675392e+000
4868:4.6789365955513373e+000
4869:4.3516605987590573e+000
4870:3.7775045302008836e+000
4871:3.2299214784671455e+000
4872:3.4617653823923225e+000
4873:3.1511599102656356e+000
4874:2.6314100486399572e+000
4875:2.1522203942932738e+000
4876:2.4420306765545847e+000
4877:2.1486942172932508e+000
4878:1.6825003499893736e+000
4879:1.2698131830845378e+000
4880:3.6518673024205546e+000
4881:2.9722113922196596e+000
4882:2.0653401161869906e+000
4883:1.3589077763712381e+000
4884:2.9043536475493816e+000
4885:2.2846787379552107e+000
4886:1.4746765143229768e+000
4887:8.5660235756730674e-001
4888:1.8725958189783920e+000
4889:1.3495052141376898e+000
4890:6.8214776978762104e-001
4891:1.8434423342742179e-001
4892:1.0345049379929792e+000
4893:6.0033229157750545e-001
4894:5.4959917877717972e-002
4895:-3.4733742867600420e-001
4896:9.8151434090765644e-001
4897:3.0654388920754599e-001
4898:-5.0920445014750826e-001
4899:-1.0909748197739977e+000
4900:5.3103626536175608e-001
4901:-4.2051178980616555e-002
4902:-7.1806532287690228e-001
4903:-1.1887249403804907e+000
4904:-7.4032601765774975e-002
4905:-5.2080052627705309e-001
4906:-1.0325037845438871e+000
4907:-1.3775134580043777e+000
4908:-5.5493976776835408e-001
4909:-9.0937145099101224e-001
4910:-1.3054565843317294e+000
4911:-1.5643831184635797e+000
4912:-1.3862174825998406e+000
4913:-1.8946964194813565e+000
4914:-2.4676098432189431e+000
4915:-2.8397208221697463e+000
4916:-1.4242378768875483e+000
4917:-1.8301757514361370e+000
4918:-2.2902225216616214e+000
4919:-2.5919299213768920e+000
4920:-1.5465012128912159e+000
4921:-1.8348549254127029e+000
4922:-2.1571877541913702e+000
4923:-2.3655053458364761e+000
4924:-1.6881645750025258e+000
4925:-1.8944015134083421e+000
4926:-2.1152416202925330e+000
4927:-2.2500807461695063e+000
4928:-3.0143140061437594e+000
4929:-3.2868659122152177e+000
4930:-3.5316807487619060e+000
4931:-3.6339820038917443e+000
4932:-2.7345935018814393e+000
4933:-2.9551628026186090e+000
4934:-3.1466242467197345e+000
4935:-3.2186311328760517e+000
4936:-2.4628152641932424e+000
4937:-2.6078165286666448e+000
4938:-2.7196262292281945e+000
4939:-2.7450850974063759e+000
4940:-2.3100131263228234e+000
4941:-2.3928713329196469e+000
4942:-2.4406335068722571e+000
4943:-2.4303937134112013e+000
4944:-3.6592954268142681e+000
4945:-3.6721051106936238e+000
4946:-3.6225048513609419e+000
4947:-3.5315301342052443e+000
4948:-3.2313380327591004e+000
4949:-3.2256250874406005e+000
4950:-3.1619552324893232e+000
4951:-3.0682160917625558e+000
4952:-2.7380064437394536e+000
4953:-2.7026167719857730e+000
4954:-2.6148012190784744e+000
4955:-2.5140457360941526e+000
4956:-2.4089443097571168e+000
4957:-2.3521369626144710e+000
4958:-2.2469257381047782e+000
4959:-2.1412146176920661e+000
4960:-3.4644523272467755e+000
4961:-3.3163347036334869e+000
4962:-3.0790698250904707e+000
4963:-2.8607774994759043e+000
4964:-3.0025705613644624e+000
4965:-2.8623836187100751e+000
4966:-2.6457096401651232e+000
4967:-2.4510614433151483e+000
4968:-2.4487924743962326e+000
4969:-2.3166783238639468e+000
4970:-2.1251328696912384e+000
4971:-1.9611978667275811e+000
4972:-2.0763021580728815e+000
4973:-1.9493728302078477e+000
4974:-1.7738771879915449e+000
4975:-1.6298869488157666e+000
4976:-2.7320084165554452e+000
4977:-2.4880799013057380e+000
4978:-2.1676181462963369e+000
4979:-1.9184025497555246e+000
4980:-2.3374959243017823e+000
4981:-2.1235736283175184e+000
4982:-1.8440433676584618e+000
4983:-1.6272004759681364e+000
4984:-1.8677433511172570e+000
4985:-1.6916859688479844e+000
4986:-1.4604490909229972e+000
4987:-1.2798371748270083e+000
4988:-1.5496439328186400e+000
4989:-1.3985212442284707e+000
4990:-1.1994869133540125e+000
4991:-1.0436401441599559e+000
4992:-1.7842528135750704e+000
4993:-1.5382885906985249e+000
4994:-1.2316805541574756e+000
4995:-1.0087226370931188e+000
4996:-1.5105665534354307e+000
4997:-1.2982169029647292e+000
4998:-1.0375214914632540e+000
4999:-8.5179600790935062e-001
5000:-1.1823794667342704e+000
5001:-1.0079104489263631e+000
5002:-8.0012442570222309e-001
5003:-6.5702259721977108e-001
5004:-9.5957469017801578e-001
5005:-8.1161765297350807e-001
5006:-6.3984711728597266e-001
5007:-5.2412204589623679e-001
5008:-8.9490676598446040e-001
5009:-6.9893416003373510e-001
5010:-4.8119375634850875e-001
5011:-3.4496993422791916e-001
5012:-7.5844725666651713e-001
5013:-5.9782845264039031e-001
5014:-4.1832161132967449e-001
5015:-3.0444583668940972e-001
5016:-5.8674292240403259e-001
5017:-4.6611345809084298e-001
5018:-3.3104039565956522e-001
5019:-2.4486447983477910e-001
5020:-4.6792082665997226e-001
5021:-3.7151843901145987e-001
5022:-2.6385362884952607e-001
5023:-1.9573202372618229e-001
5024:-2.8351848829597975e-001
5025:-1.8639019792715764e-001
5026:-9.4826547174507947e-002
5027:-5.1698937634633305e-002
5028:-2.5227161403102016e-001
5029:-1.6916386554811425e-001
5030:-9.0217810116439909e-002
5031:-5.2962343745881213e-002
5032:-2.0507340898103379e-001
5033:-1.4066788257877511e-001
5034:-7.7765067191246179e-002
5035:-4.6880091232931083e-002
5036:-1.6454528312602532e-001
5037:-1.1363530390779608e-001
5038:-6.3109670331732093e-002
5039:-3.7820636134806483e-002
5040:-7.1529570053592595e+000
5041:-5.1863516798009339e+000
5042:-3.2510033536686560e+000
5043:-2.1715459238310135e+000
5044:-6.8303843664606454e+000
5045:-5.0824282081860037e+000
5046:-3.3791570718362283e+000
5047:-2.4476553314898659e+000
5048:-6.3354763577944668e+000
5049:-4.9129680225302508e+000
5050:-3.5479460151969349e+000
5051:-2.8237182492152684e+000
5052:-5.9105663565199045e+000
5053:-4.7626501466103051e+000
5054:-3.6796426008977807e+000
5055:-3.1236793400036742e+000
5056:-1.7142772245424558e+000
5057:-9.4864415608741381e-001
5058:-8.2709327513903586e-002
5059:4.9796050552140908e-001
5060:-2.0617162370652906e+000
5061:-1.4261547043982998e+000
5062:-7.2327258195289446e-001
5063:-2.6165104886090024e-001
5064:-2.5341444485411704e+000
5065:-2.0723786669875222e+000
5066:-1.5881978961301702e+000
5067:-1.2897273367452586e+000
5068:-2.9101965335486737e+000
5069:-2.5839896373680293e+000
5070:-2.2704102235023562e+000
5071:-2.1013970298132323e+000
5072:7.8171974949452150e-001
5073:1.2509832727761094e+000
5074:1.7316860581106204e+000
5075:1.9961728425691012e+000
5076:-3.8411642892141974e-002
5077:3.3333613793935801e-001
5078:7.1780778001772028e-001
5079:9.3016319843643702e-001
5080:-1.1514858785717790e+000
5081:-9.2191510814370936e-001
5082:-6.8632186085356206e-001
5083:-5.6019161198045997e-001
5084:-2.0320468312284281e+000
5085:-1.9224893848263678e+000
5086:-1.8207496722667191e+000
5087:-1.7777039041157023e+000
5088:2.0983821551563726e+000
5089:2.1990633697156685e+000
5090:2.1555133873600578e+000
5091:1.9942924750624704e+000
5092:1.0115229959454135e+000
5093:1.0826530204282023e+000
5094:1.0197914124136556e+000
5095:8.5943055047836503e-001
5096:-5.1487056699341105e-001
5097:-4.9124613843208903e-001
5098:-5.7542824868654541e-001
5099:-7.2024618229260207e-001
5100:-1.7687608075176404e+000
5101:-1.7902451709638523e+000
5102:-1.8863745238821852e+000
5103:-2.0045321317272520e+000
5104:1.8665186639708882e+000
5105:1.5843136568248573e+000
5106:1.1514563303808600e+000
5107:7.7967898854221140e-001
5108:7.3825829023497891e-001
5109:4.8655538451329061e-001
5110:1.3093333015790304e-001
5111:-1.5246727117865375e-001
5112:-8.2147512735891670e-001
5113:-1.0111420927626829e+000
5114:-1.2390528251899908e+000
5115:-1.3904419940498784e+000
5116:-2.0792082114811676e+000
5117:-2.2022098714860738e+000
5118:-2.3146216671077635e+000
5119:-2.3583274326178820e+000
5120:5.7143998373169225e-001
5121:1.9009824175239820e-001
5122:-2.8596361472307247e-001
5123:-6.3651301789523818e-001
5124:-3.0408617478985267e-001
5125:-5.7862639678334626e-001
5126:-9.2012539535956905e-001
5127:-1.1731454507387451e+000
5128:-1.4612959618836647e+000
5129:-1.5869423973295185e+000
5130:-1.7442904529042416e+000
5131:-1.8642370579478174e+000
5132:-2.3663618201164272e+000
5133:-2.3755473067008044e+000
5134:-2.3848664456039641e+000
5135:-2.3933687804149346e+000
5136:-8.1749214689740823e-001
5137:-1.1241319256836457e+000
5138:-1.4610533321471231e+000
5139:-1.6761552161569919e+000
5140:-1.3046085966012972e+000
5141:-1.5220322875630403e+000
5142:-1.7479519972227802e+000
5143:-1.8807403581904050e+000
5144:-1.9277403450939581e+000
5145:-2.0231485305538337e+000
5146:-2.0993279032113694e+000
5147:-2.1234465891605421e+000
5148:-2.3982239063112463e+000
5149:-2.3899113226715025e+000
5150:-2.3435261368921760e+000
5151:-2.2828712577478898e+000
5152:-1.7768928310647778e+000
5153:-1.9406982271877062e+000
5154:-2.1077643201906406e+000
5155:-2.2025327604628111e+000
5156:-1.9382476311551555e+000
5157:-2.0224231824232293e+000
5158:-2.0886981709965675e+000
5159:-2.1086497443700782e+000
5160:-2.1249163285395274e+000
5161:-2.1077623304321871e+000
5162:-2.0498265549906209e+000
5163:-1.9810406569936190e+000
5164:-2.2422612836603175e+000
5165:-2.1521905495082843e+000
5166:-2.0113768720072609e+000
5167:-1.8887481146615988e+000
5168:-2.2417099032307579e+000
5169:-2.2905856853522537e+000
5170:-2.3048087967769764e+000
5171:-2.2773701180968247e+000
5172:-2.1093211435837529e+000
5173:-2.0971870304009301e+000
5174:-2.0556306112921314e+000
5175:-2.0036717282594840e+000
5176:-1.9373486020450332e+000
5177:-1.8570329036833273e+000
5178:-1.7572714772613904e+000
5179:-1.6836033716069823e+000
5180:-1.8199747225519021e+000
5181:-1.7011161764789442e+000
5182:-1.5673997057112812e+000
5183:-1.4795836276721781e+000
5184:-2.2496720335223492e+000
5185:-2.1838073641384375e+000
5186:-2.0716509125130491e+000
5187:-1.9645487990180008e+000
5188:-1.9689564504764250e+000
5189:-1.8941533471602805e+000
5190:-1.7776900187431304e+000
5191:-1.6733880160493284e+000
5192:-1.6447189518200032e+000
5193:-1.5665204280838017e+000
5194:-1.4532000005142740e+000
5195:-1.3578254473131486e+000
5196:-1.4369591682547052e+000
5197:-1.3547330528227310e+000
5198:-1.2418363597574156e+000
5199:-1.1517027963799438e+000
5200:-1.9002801074950304e+000
5201:-1.7761572451937888e+000
5202:-1.6077228234938157e+000
5203:-1.4721724189167045e+000
5204:-1.6127366402317447e+000
5205:-1.4967099360633209e+000
5206:-1.3417975539604698e+000
5207:-1.2197294513538299e+000
5208:-1.3041907901181065e+000
5209:-1.2014883646429813e+000
5210:-1.0645604192482043e+000
5211:-9.5776155317651734e-001
5212:-1.1025964975121310e+000
5213:-1.0089658645322739e+000
5214:-8.8508061560329598e-001
5215:-7.8978153213357050e-001
5216:-1.3975235485671564e+000
5217:-1.2574002616118252e+000
5218:-1.0736236946869295e+000
5219:-9.3039606911593542e-001
5220:-1.1535366084452177e+000
5221:-1.0306218247330381e+000
5222:-8.7204545943215039e-001
5223:-7.5056359865777922e-001
5224:-9.0052294839418578e-001
5225:-7.9626823926560719e-001
5226:-6.6597746524537382e-001
5227:-5.6943271664647821e-001
5228:-7.3934306401922256e-001
5229:-6.4883668191358479e-001
5230:-5.3845236824486575e-001
5231:-4.5877106468980211e-001
5232:-8.5343962970663600e-001
5233:-7.1922497161500443e-001
5234:-5.6505594695605565e-001
5235:-4.6164114335966883e-001
5236:-6.8603636630340914e-001
5237:-5.7451295318322582e-001
5238:-4.4693777865957818e-001
5239:-3.6043701771625247e-001
5240:-5.1916776521028907e-001
5241:-4.3178647457679958e-001
5242:-3.2935130801471652e-001
5243:-2.5698706516222647e-001
5244:-4.1790796165527222e-001
5245:-3.4588696906510763e-001
5246:-2.5913462074509108e-001
5247:-1.9612197699646450e-001
5248:-4.1133809047683634e-001
5249:-3.2497895962706191e-001
5250:-2.2884297840511988e-001
5251:-1.6866659568819861e-001
5252:-3.1770719614038417e-001
5253:-2.4476593731506782e-001
5254:-1.6530837156403788e-001
5255:-1.1753789902177353e-001
5256:-2.2010493823192059e-001
5257:-1.5851310560781487e-001
5258:-9.4921093672609813e-002
5259:-5.9745353329055069e-002
5260:-1.6356036241236696e-001
5261:-1.1045326152385888e-001
5262:-5.8137982894482770e-002
5263:-3.1011497576987655e-002
5264:-1.4146254161334429e-001
5265:-9.7160984361427213e-002
5266:-5.3422100736297690e-002
5267:-3.1887953267843473e-002
5268:-9.6848684669981852e-002
5269:-6.3964160431916023e-002
5270:-3.3185112669607941e-002
5271:-1.9910505283099560e-002
5272:-4.5802440831765719e-002
5273:-2.5242051092033528e-002
5274:-9.3693851478205328e-003
5275:-6.2192358273015650e-003
5276:-2.0962268585086912e-002
5277:-7.2224657145694270e-003
5278:1.0418052123015522e-003
5279:-2.7374470323947466e-004
5280:-5.6715717691158378e+000
5281:-4.6769641447538453e+000
5282:-3.7506497626129125e+000
5283:-3.2870418191801885e+000
5284:-5.2047305075476551e+000
5285:-4.5051086590380258e+000
5286:-3.8782345677540619e+000
5287:-3.5899001417081839e+000
5288:-4.5694815661530575e+000
5289:-4.2629841613664174e+000
5290:-4.0321010861992681e+000
5291:-3.9742181078959757e+000
5292:-4.0715750659892134e+000
5293:-4.0677357665730831e+000
5294:-4.1404465091217135e+000
5295:-4.2591069166798166e+000
5296:-3.1147520992532529e+000
5297:-2.8613721033154027e+000
5298:-2.6393499833924063e+000
5299:-2.5404420766470306e+000
5300:-3.4954740269282301e+000
5301:-3.3799536396068426e+000
5302:-3.3316815008527101e+000
5303:-3.3660377314585830e+000
5304:-3.9820475400163868e+000
5305:-4.0488182091142475e+000
5306:-4.2323278863594114e+000
5307:-4.4454040027459225e+000
5308:-4.3455324408891531e+000
5309:-4.5539151842111405e+000
5310:-4.9199782643913528e+000
5311:-5.2751583670956066e+000
5312:-2.5088522020370618e+000
5313:-2.4669036925417318e+000
5314:-2.4437289691561452e+000
5315:-2.4515922301912907e+000
5316:-3.4063575594337450e+000
5317:-3.4947646695939611e+000
5318:-3.6261987250638774e+000
5319:-3.7366320412351057e+000
5320:-4.5823233566181765e+000
5321:-4.8460370757380966e+000
5322:-5.1856826445678950e+000
5323:-5.4344096704003260e+000
5324:-5.4890505519799984e+000
5325:-5.8902150268146150e+000
5326:-6.3884807855525043e+000
5327:-6.7388944779487634e+000
5328:-2.4655699850981869e+000
5329:-2.5144750712280777e+000
5330:-2.6147946077956457e+000
5331:-2.7123837800559989e+000
5332:-3.7975093862630054e+000
5333:-3.9005229256692235e+000
5334:-4.0031254888990304e+000
5335:-4.0517894517400883e+000
5336:-5.5584406589391309e+000
5337:-5.7320265184956458e+000
5338:-5.8307935589828164e+000
5339:-5.8060986779188646e+000
5340:-6.9080456671052666e+000
5341:-7.1314983668568717e+000
5342:-7.2262417262278520e+000
5343:-7.1477576552700475e+000
5344:-2.7681756896862511e+000
5345:-2.8484069984562788e+000
5346:-2.8942337973121801e+000
5347:-2.8803783036545658e+000
5348:-4.0651040917010528e+000
5349:-4.0557534139950304e+000
5350:-3.9728920718761929e+000
5351:-3.8541293173645101e+000
5352:-5.7579253567639102e+000
5353:-5.6238282274930764e+000
5354:-5.3702402207101425e+000
5355:-5.1176868034406384e+000
5356:-7.0547078656692497e+000
5357:-6.8279811122711820e+000
5358:-6.4447358664349865e+000
5359:-6.0887938162423314e+000
5360:-2.8560312715135932e+000
5361:-2.8039476383726112e+000
5362:-2.7319120182449459e+000
5363:-2.6761933099729434e+000
5364:-3.7723110969004798e+000
5365:-3.6082111840705355e+000
5366:-3.3801002117386001e+000
5367:-3.1959692851903165e+000
5368:-4.9639759228027742e+000
5369:-4.6569854444987682e+000
5370:-4.2235975846804719e+000
5371:-3.8662832639302693e+000
5372:-5.8791256334807080e+000
5373:-5.4626702945941776e+000
5374:-4.8752576481402548e+000
5375:-4.3897998404052130e+000
5376:-2.6462812139117982e+000
5377:-2.5773577883576033e+000
5378:-2.4617952847824793e+000
5379:-2.3553883984990160e+000
5380:-3.0951066627405188e+000
5381:-2.9042121189559307e+000
5382:-2.6537497497967517e+000
5383:-2.4616741257759127e+000
5384:-3.6685375854604492e+000
5385:-3.3117294402292665e+000
5386:-2.8796956600674690e+000
5387:-2.5740219957864614e+000
5388:-4.1206835058009110e+000
5389:-3.6398249016069650e+000
5390:-3.0679957397819027e+000
5391:-2.6715605524214823e+000
5392:-2.2928951253734904e+000
5393:-2.1665762590080653e+000
5394:-1.9880473111124819e+000
5395:-1.8439338394629916e+000
5396:-2.3596024056883942e+000
5397:-2.1705889427663219e+000
5398:-1.9325171101892986e+000
5399:-1.7593774119726284e+000
5400:-2.4202200344817015e+000
5401:-2.1512522344949674e+000
5402:-1.8407976339793031e+000
5403:-1.6350883712941640e+000
5404:-2.4751497592236906e+000
5405:-2.1381854604654409e+000
5406:-1.7607847882438872e+000
5407:-1.5187630794777605e+000
5408:-1.7662359293532635e+000
5409:-1.6330431323136878e+000
5410:-1.4846056056250263e+000
5411:-1.3883233371270043e+000
5412:-1.6714217826365838e+000
5413:-1.5189200403114524e+000
5414:-1.3437568643279707e+000
5415:-1.2263388136368227e+000
5416:-1.5365294020524165e+000
5417:-1.3603353251387007e+000
5418:-1.1459279542450842e+000
5419:-9.9418590045039279e-001
5420:-1.4051974050037987e+000
5421:-1.2001485811357135e+000
5422:-9.4750115631344567e-001
5423:-7.6820707596979931e-001
5424:-1.3421126973036281e+000
5425:-1.2547741879721421e+000
5426:-1.1386834681896454e+000
5427:-1.0490471756820487e+000
5428:-1.1689692681137183e+000
5429:-1.0644868510126639e+000
5430:-9.3464931800997508e-001
5431:-8.4148193714322406e-001
5432:-9.1800398989145071e-001
5433:-7.8470580213592012e-001
5434:-6.3179228137429255e-001
5435:-5.3236605909116741e-001
5436:-6.7874402549997637e-001
5437:-5.2657923585744959e-001
5438:-3.6167552713829526e-001
5439:-2.6284544804949844e-001
5440:-1.0012658465088764e+000
5441:-9.1109880680168243e-001
5442:-7.9364012772269998e-001
5443:-7.0491420387938852e-001
5444:-7.9433862729105542e-001
5445:-7.0885686695428296e-001
5446:-6.0408057943684856e-001
5447:-5.3010872988620905e-001
5448:-4.8593379837451423e-001
5449:-4.0775475887436663e-001
5450:-3.2325421692654338e-001
5451:-2.7251855419440740e-001
5452:-2.2010059016994835e-001
5453:-1.5272067189004318e-001
5454:-8.8652111091968827e-002
5455:-5.7766304152419880e-002
5456:-6.5856285935632253e-001
5457:-5.7594837871248883e-001
5458:-4.7616226614175128e-001
5459:-4.0488175169233054e-001
5460:-4.9323063348962704e-001
5461:-4.2838014328914098e-001
5462:-3.5137315571925593e-001
5463:-2.9747101790863267e-001
5464:-2.5032772473771553e-001
5465:-2.1254009243609792e-001
5466:-1.6951289465258512e-001
5467:-1.4118603138182978e-001
5468:-4.7304765078707997e-002
5469:-3.1087017515744993e-002
5470:-1.5485820522458104e-002
5471:-8.2131558021743614e-003
5472:-3.6854175370037995e-001
5473:-3.0407766446391526e-001
5474:-2.2581928834390100e-001
5475:-1.6886831764795646e-001
5476:-2.7037029257987683e-001
5477:-2.2244785328761230e-001
5478:-1.6503593020935153e-001
5479:-1.2438020032239600e-001
5480:-1.2768860862381545e-001
5481:-1.0523409213227274e-001
5482:-8.1608961610164107e-002
5483:-6.7897507820495570e-002
5484:-6.0766643691170510e-003
5485:-4.7343853025327877e-003
5486:-8.2977112472998726e-003
5487:-1.5300740040701208e-002
5488:-1.3953913460557194e-001
5489:-9.2363740025829519e-002
5490:-4.6900982477178652e-002
5491:-2.3835998637103291e-002
5492:-1.0397008853625372e-001
5493:-7.1744981816668732e-002
5494:-4.1051155593363579e-002
5495:-2.5015350696820347e-002
5496:-6.2129183020255982e-002
5497:-5.3261557490697060e-002
5498:-4.3661364287695591e-002
5499:-3.6316601718024900e-002
5500:-2.0405290676860810e-002
5501:-2.8753990482206702e-002
5502:-3.4892179437570753e-002
5503:-3.4569039604247537e-002
5504:-1.5416833012553505e-002
5505:-4.1617564923158278e-003
5506:2.1084198315566446e-003
5507:4.2727587337617733e-004
5508:-1.8725545663341860e-002
5509:-9.8502101600070457e-003
5510:-3.4678305102642274e-003
5511:-2.2694699819029731e-003
5512:-3.2069345524721363e-002
5513:-2.4564246797977987e-002
5514:-1.5266559959060429e-002
5515:-7.8903234286713930e-003
5516:-3.2400078230595139e-002
5517:-2.7270935528364813e-002
5518:-1.8152280844891309e-002
5519:-8.4444662713435027e-003
5520:-3.8050646919548345e+000
5521:-3.9612313354132374e+000
5522:-4.1943596805766372e+000
5523:-4.4065744879666005e+000
5524:-3.3070558227099323e+000
5525:-3.7542086686656480e+000
5526:-4.2804376500804304e+000
5527:-4.6654559494137526e+000
5528:-2.6739920566521960e+000
5529:-3.4744653789093758e+000
5530:-4.3619656844963437e+000
5531:-4.9659732409869219e+000
5532:-2.2124485266132727e+000
5533:-3.2571631449779166e+000
5534:-4.4011736881300605e+000
5535:-5.1674914953858480e+000
5536:-4.5348715149868264e+000
5537:-4.8194079341710045e+000
5538:-5.2847626395892577e+000
5539:-5.7178092700395204e+000
5540:-4.8720519953218844e+000
5541:-5.3006076051398940e+000
5542:-5.9551640488495448e+000
5543:-6.5363375104147110e+000
5544:-5.2744646240685800e+000
5545:-5.8926119637136818e+000
5546:-6.7966346289178716e+000
5547:-7.5709560757531884e+000
5548:-5.5542456670679154e+000
5549:-6.3186166515308955e+000
5550:-7.4131112513588802e+000
5551:-8.3318341089123518e+000
5552:-5.9739110239866120e+000
5553:-6.4489182103154139e+000
5554:-7.0292675218698539e+000
5555:-7.4298047879170763e+000
5556:-6.8721410079917096e+000
5557:-7.4824663957556519e+000
5558:-8.2056579172713136e+000
5559:-8.6878408326073284e+000
5560:-8.0091319839563901e+000
5561:-8.7868561252841157e+000
5562:-9.6751831308845180e+000
5563:-1.0243165702284042e+001
5564:-8.8450495160264673e+000
5565:-9.7421210777690668e+000
5566:-1.0742481411978151e+001
5567:-1.1364525693888316e+001
5568:-7.6203077789957767e+000
5569:-7.8674597830240698e+000
5570:-7.9608852030344961e+000
5571:-7.8575972447160076e+000
5572:-8.9112014348134974e+000
5573:-9.1951226932687540e+000
5574:-9.2882084522390649e+000
5575:-9.1488310163997788e+000
5576:-1.0498023593072928e+001
5577:-1.0818317105033021e+001
5578:-1.0916198499307754e+001
5579:-1.0748723810557626e+001
5580:-1.1637766131020831e+001
5581:-1.1980849424267921e+001
5582:-1.2087715433787638e+001
5583:-1.1911757242230232e+001
5584:-7.7435781252793179e+000
5585:-7.4714441116751544e+000
5586:-7.0207969929598901e+000
5587:-6.6086288173758518e+000
5588:-9.0036220366090536e+000
5589:-8.6589705385242350e+000
5590:-8.0908132549937815e+000
5591:-7.5734238644147318e+000
5592:-1.0577473536840552e+001
5593:-1.0162750311612303e+001
5594:-9.4626769046743426e+000
5595:-8.8141771146087535e+000
5596:-1.1730341045875891e+001
5597:-1.1279752398610288e+001
5598:-1.0497370111226831e+001
5599:-9.7574865604795420e+000
5600:-6.3678967972129161e+000
5601:-5.8923541991484640e+000
5602:-5.2252627814271255e+000
5603:-4.6757091588610864e+000
5604:-7.2723399565819120e+000
5605:-6.6837758854764404e+000
5606:-5.8698342620982382e+000
5607:-5.2069569174242947e+000
5608:-8.4338483014260053e+000
5609:-7.6968604648823966e+000
5610:-6.6940289822097672e+000
5611:-5.8905061854154104e+000
5612:-9.3189763118750477e+000
5613:-8.4703083029616764e+000
5614:-7.3228187085110594e+000
5615:-6.4115870839747773e+000
5616:-4.3713987378502566e+000
5617:-3.8280070587909325e+000
5618:-3.1825807982264287e+000
5619:-2.7358144762736623e+000
5620:-4.8419162590489302e+000
5621:-4.1884100057452960e+000
5622:-3.4074799872885979e+000
5623:-2.8628149447626314e+000
5624:-5.4520806394812107e+000
5625:-4.6631067090671818e+000
5626:-3.7081764864531981e+000
5627:-3.0309798195963067e+000
5628:-5.9174431909190499e+000
5629:-5.0256532899068578e+000
5630:-3.9373449689940316e+000
5631:-3.1565608834506160e+000
5632:-2.5147908253711200e+000
5633:-2.1367568760080102e+000
5634:-1.7149141292932433e+000
5635:-1.4448863097524596e+000
5636:-2.5918045042985693e+000
5637:-2.1264836010428056e+000
5638:-1.6027109923569240e+000
5639:-1.2625682293299134e+000
5640:-2.6895013947054611e+000
5641:-2.0957266976374491e+000
5642:-1.4122221120471823e+000
5643:-9.5540750186134338e-001
5644:-2.7590071960810367e+000
5645:-2.0606531210967054e+000
5646:-1.2432002422590684e+000
5647:-6.8623291293559574e-001
5648:-1.3181979813668081e+000
5649:-1.0905191867217408e+000
5650:-8.1334831621797699e-001
5651:-6.2026238113964249e-001
5652:-1.1012649443814606e+000
5653:-8.1796637377221171e-001
5654:-4.8898378930962549e-001
5655:-2.7343985834466200e-001
5656:-7.3467245200548914e-001
5657:-3.5893309340565888e-001
5658:4.9906965255048306e-002
5659:2.9504573651571941e-001
5660:-4.1388933136706080e-001
5661:4.2699270229381740e-002
5662:5.2344813386551914e-001
5663:7.9830953946718364e-001
5664:-5.2551510337604401e-001
5665:-3.6697346754721405e-001
5666:-2.0061819617659504e-001
5667:-1.0597534408682779e-001
5668:-1.7290941217665620e-001
5669:-1.0010477899347921e-002
5670:1.5027556484217086e-001
5671:2.3115238662513732e-001
5672:4.0069742413199444e-001
5673:5.6486555378861780e-001
5674:7.1267379749825555e-001
5675:7.7298796407025205e-001
5676:9.1140806628212967e-001
5677:1.0829858504363263e+000
5678:1.2293624608218321e+000
5679:1.2799806767337105e+000
5680:-6.7238245333538865e-002
5681:-8.6346553500392977e-003
5682:4.2365713418611887e-002
5683:6.2362798949456011e-002
5684:2.5957709695349329e-001
5685:2.9830866731937788e-001
5686:3.2354651546951269e-001
5687:3.2404577009096097e-001
5688:7.8691656920681341e-001
5689:7.9883213940995446e-001
5690:7.9034345018203833e-001
5691:7.6511853047982648e-001
5692:1.2859088851014877e+000
5693:1.2814765122919332e+000
5694:1.2485151260370282e+000
5695:1.2009327171794815e+000
5696:6.6841198322212927e-002
5697:7.1950758653983080e-002
5698:7.2990723621949805e-002
5699:6.8711806129838182e-002
5700:3.1821316564484647e-001
5701:3.0330355081352445e-001
5702:2.7630371781498747e-001
5703:2.4867960505339703e-001
5704:7.4529412916346560e-001
5705:7.0178808906104762e-001
5706:6.3255203075270117e-001
5707:5.6878657730404625e-001
5708:1.1676187400776037e+000
5709:1.0963053322477081e+000
5710:9.8641783423774021e-001
5711:8.8848291074613417e-001
5712:6.4506756426689266e-002
5713:5.4396701702504782e-002
5714:3.6950499435016312e-002
5715:2.0122153883919067e-002
5716:2.3141794681332653e-001
5717:1.9823658334389463e-001
5718:1.5406145650765093e-001
5719:1.1934986590799178e-001
5720:5.3116672013165145e-001
5721:4.6195733712522269e-001
5722:3.7601388219607390e-001
5723:3.1339255615584910e-001
5724:8.3182731033889512e-001
5725:7.2806276969062911e-001
5726:6.0007178278246875e-001
5727:5.0773265768347986e-001
5728:1.0110234411296810e-002
5729:-6.1690896940509443e-003
5730:-2.0157171493457610e-002
5731:-2.4066987640680333e-002
5732:1.0071099294108224e-001
5733:6.9473302941659501e-002
5734:3.8142243456989307e-002
5735:2.2478131527843292e-002
5736:2.8124370196193488e-001
5737:2.2516025993944935e-001
5738:1.6198916512153430e-001
5739:1.2237386556871767e-001
5740:4.6063119893498794e-001
5741:3.7718870162160423e-001
5742:2.7954403973705805e-001
5743:2.1449292917811605e-001
5744:-2.3589905273003871e-002
5745:-2.1132588994944780e-002
5746:-1.4479607684218885e-002
5747:-5.7513977907264419e-003
5748:1.7181762265652729e-002
5749:9.4446759794524719e-003
5750:4.3629476773702439e-003
5751:5.6242713857759591e-003
5752:1.0452088409683567e-001
5753:7.4518847180254741e-002
5754:4.3730332095963803e-002
5755:2.8397809304011777e-002
5756:1.8352390229191895e-001
5757:1.3118933171929431e-001
5758:7.6538348058526856e-002
5759:4.7412047702666237e-002
5760:-1.9779998670260295e+000
5761:-3.1416214872864865e+000
5762:-4.4138567757152725e+000
5763:-5.2644748950091458e+000
5764:-1.5631689374935518e+000
5765:-2.9281029118270627e+000
5766:-4.4228414858390659e+000
5767:-5.4248429884324789e+000
5768:-1.0725158106469204e+000
5769:-2.6608222068596565e+000
5770:-4.4097626167398678e+000
5771:-5.5922498394141700e+000
5772:-7.3556110467597324e-001
5773:-2.4682998803228768e+000
5774:-4.3843104800792361e+000
5775:-5.6892565051840904e+000
5776:-5.6930466875380068e+000
5777:-6.5354012346839765e+000
5778:-7.7301103244478702e+000
5779:-8.7233060398720461e+000
5780:-5.9303130180722592e+000
5781:-6.9153532360586247e+000
5782:-8.2910375265945504e+000
5783:-9.4167613953120579e+000
5784:-6.1921675863235155e+000
5785:-7.3518834129395945e+000
5786:-8.9463450510473681e+000
5787:-1.0229747365018717e+001
5788:-6.3548516216459126e+000
5789:-7.6364017637470525e+000
5790:-9.3829200159054356e+000
5791:-1.0774934322096543e+001
5792:-9.2746005141941605e+000
5793:-1.0231521371375090e+001
5794:-1.1287062435621559e+001
5795:-1.1935135178793198e+001
5796:-1.0035158426840969e+001
5797:-1.1097647159005675e+001
5798:-1.2250961546639994e+001
5799:-1.2945544285429762e+001
5800:-1.0927130503802934e+001
5801:-1.2115138523263836e+001
5802:-1.3387689971643757e+001
5803:-1.4141659375365441e+001
5804:-1.1526370905457997e+001
5805:-1.2802073317610065e+001
5806:-1.4161993402073112e+001
5807:-1.4963139488233674e+001
5808:-1.2217072100120983e+001
5809:-1.2571692387537281e+001
5810:-1.2685569494618335e+001
5811:-1.2509124020049486e+001
5812:-1.3243249670795818e+001
5813:-1.3619845589649527e+001
5814:-1.3749811716903562e+001
5815:-1.3576472172437715e+001
5816:-1.4460810377749826e+001
5817:-1.4869569521753982e+001
5818:-1.5028241978661692e+001
5819:-1.4867057106993833e+001
5820:-1.5301022706950627e+001
5821:-1.5739580488857873e+001
5822:-1.5928180068022852e+001
5823:-1.5783239046741798e+001
5824:-1.2325211905209256e+001
5825:-1.1861238125647159e+001
5826:-1.1041937918935826e+001
5827:-1.0257634235677502e+001
5828:-1.3390554286403640e+001
5829:-1.2906631019048598e+001
5830:-1.2025491738900874e+001
5831:-1.1164560496866525e+001
5832:-1.4683506393232966e+001
5833:-1.4183563702234737e+001
5834:-1.3237447024676092e+001
5835:-1.2291841876064883e+001
5836:-1.5605492847518038e+001
5837:-1.5101792370685272e+001
5838:-1.4120137381862307e+001
5839:-1.3123836339323857e+001
5840:-9.7898250244141050e+000
5841:-8.8832268733270734e+000
5842:-7.6582741687150095e+000
5843:-6.6881825129607559e+000
5844:-1.0645724253106678e+001
5845:-9.6361613012964042e+000
5846:-8.2687104991767377e+000
5847:-7.1861014686822982e+000
5848:-1.1715764578979643e+001
5849:-1.0585890120684766e+001
5850:-9.0407327953661767e+000
5851:-7.8081572377395192e+000
5852:-1.2512550475889356e+001
5853:-1.1303411751462859e+001
5854:-9.6298878793918430e+000
5855:-8.2802189547737512e+000
5856:-6.1633852836189504e+000
5857:-5.2155315594306009e+000
5858:-4.0552700657617864e+000
5859:-3.2188627670329137e+000
5860:-6.6010955449691808e+000
5861:-5.5421241603316584e+000
5862:-4.2387307081111292e+000
5863:-3.2921574285219388e+000
5864:-7.1392125355713683e+000
5865:-5.9205408863225095e+000
5866:-4.4050187562873182e+000
5867:-3.2925471246562670e+000
5868:-7.5425791597229237e+000
5869:-6.1876178042758969e+000
5870:-4.4824125993704307e+000
5871:-3.2169469339376522e+000
5872:-2.7911803217443474e+000
5873:-2.0363263281631507e+000
5874:-1.1461028571401497e+000
5875:-5.3462886007879173e-001
5876:-2.8052370282086567e+000
5877:-1.9407303883138363e+000
5878:-9.1216858741848550e-001
5879:-1.9931656903794587e-001
5880:-2.7164492248302143e+000
5881:-1.6926102085540329e+000
5882:-4.7491781799209332e-001
5883:3.6758600111071443e-001
5884:-2.5579075753307197e+000
5885:-1.3918621128552477e+000
5886:-1.8338685519397966e-002
5887:9.2074916760440706e-001
5888:-2.3417581611225982e-001
5889:2.6732215461840469e-001
5890:7.9037759961951315e-001
5891:1.0854621326720122e+000
5892:1.5274986612210589e-001
5893:7.3796373156334272e-001
5894:1.3434996557435663e+000
5895:1.6819678005388277e+000
5896:7.8280150541191229e-001
5897:1.4708311434427725e+000
5898:2.1803217521665403e+000
5899:2.5766128652918616e+000
5900:1.3794456221956253e+000
5901:2.1367780972153563e+000
5902:2.9147859316534377e+000
5903:3.3482382556992571e+000
5904:1.2053068102301792e+000
5905:1.3858910231232295e+000
5906:1.5376264522124270e+000
5907:1.5874324329414071e+000
5908:1.8183626603083385e+000
5909:2.0227298112394441e+000
5910:2.1922265824886358e+000
5911:2.2454598440215250e+000
5912:2.7366497094569406e+000
5913:2.9760206848535495e+000
5914:3.1735202328614687e+000
5915:3.2345850246671333e+000
5916:3.5231891244905293e+000
5917:3.7843701451127481e+000
5918:3.9985262135284660e+000
5919:4.0630955410580647e+000
5920:1.5912500895141328e+000
5921:1.5808116211587484e+000
5922:1.5354062390130625e+000
5923:1.4740276818396745e+000
5924:2.2475103482246084e+000
5925:2.2271754498163849e+000
5926:2.1549632971631496e+000
5927:2.0614879839788194e+000
5928:3.2358347536787431e+000
5929:3.2024609154321131e+000
5930:3.0897480336466394e+000
5931:2.9468684395675218e+000
5932:4.0627402268162056e+000
5933:4.0175274823553533e+000
5934:3.8717497507393195e+000
5935:3.6901702945047088e+000
5936:1.4317455673011406e+000
5937:1.3422146767832148e+000
5938:1.2064885155094776e+000
5939:1.0874175756593787e+000
5940:1.9980760188810540e+000
5941:1.8669299093650673e+000
5942:1.6744181066076771e+000
5943:1.5100730633208899e+000
5944:2.8510224236006128e+000
5945:2.6563724246680094e+000
5946:2.3772380068527905e+000
5947:2.1432412424475835e+000
5948:3.5692822369879109e+000
5949:3.3241441895449566e+000
5950:2.9725960437693231e+000
5951:2.6774944314844471e+000
5952:1.0191432061545658e+000
5953:8.9380333347136176e-001
5954:7.3845041741163586e-001
5955:6.2589281209630765e-001
5956:1.4171263221657771e+000
5957:1.2451094872226007e+000
5958:1.0285354311508030e+000
5959:8.6907316290557401e-001
5960:2.0119609699729986e+000
5961:1.7665051455120633e+000
5962:1.4515947798755451e+000
5963:1.2150647199899687e+000
5964:2.5116367162224926e+000
5965:2.1998693310436797e+000
5966:1.7961974894351984e+000
5967:1.4899590488968262e+000
5968:5.6833625480726768e-001
5969:4.6609759918436094e-001
5970:3.4561697141322795e-001
5971:2.6438678068824717e-001
5972:7.8671761103345428e-001
5973:6.4051214284889801e-001
5974:4.6853288333690180e-001
5975:3.5267053054222147e-001
5976:1.0914259771962689e+000
5977:8.7340500069906402e-001
5978:6.2123225787574110e-001
5979:4.5530968384777515e-001
5980:1.3289564361814581e+000
5981:1.0472586572272180e+000
5982:7.2743905268714348e-001
5983:5.2274628622097075e-001
5984:2.2532488895807687e-001
5985:1.5977069154113888e-001
5986:9.2167255168118259e-002
5987:5.6619019920037532e-002
5988:2.9705856281871434e-001
5989:2.0575123044260232e-001
5990:1.1525830330046530e-001
5991:7.0345190951980899e-002
5992:3.7737679552532272e-001
5993:2.5266736772087212e-001
5994:1.3431694632295249e-001
5995:7.9261065179634368e-002
5996:4.2897828514504627e-001
5997:2.8068537008587741e-001
5998:1.4166133777536397e-001
5999:7.7353278817908946e-002
6000:-5.6962836320082610e-001
6001:-2.3709342116699723e+000
6002:-4.3662708659222780e+000
6003:-5.7300868823526727e+000
6004:-2.8195281149672297e-001
6005:-2.1972570281544614e+000
6006:-4.3246998185038725e+000
6007:-5.7869084271469324e+000
6008:4.3877017025516787e-002
6009:-1.9881628495065737e+000
6010:-4.2529477454702267e+000
6011:-5.8192450557716242e+000
6012:2.5306429033481337e-001
6013:-1.8410720566798853e+000
6014:-4.1821667507402136e+000
6015:-5.8090390976366697e+000
6016:-6.4276547056657476e+000
6017:-7.7688534815571373e+000
6018:-9.5900814123036042e+000
6019:-1.1035435648704688e+001
6020:-6.5380457879603195e+000
6021:-7.9790897830529204e+000
6022:-9.9257152916260267e+000
6023:-1.1461351616334975e+001
6024:-6.6275759072816962e+000
6025:-8.1748737902159849e+000
6026:-1.0255578678770094e+001
6027:-1.1889503717777728e+001
6028:-6.6514541735706096e+000
6029:-8.2618642470735839e+000
6030:-1.0422921543769425e+001
6031:-1.2117466849702286e+001
6032:-1.1813411766087894e+001
6033:-1.3133149883011534e+001
6034:-1.4539058053268272e+001
6035:-1.5366869145420589e+001
6036:-1.2284782518981316e+001
6037:-1.3683091094564931e+001
6038:-1.5177338132447048e+001
6039:-1.6061435234093651e+001
6040:-1.2763666879346948e+001
6041:-1.4256518556995482e+001
6042:-1.5870108060812415e+001
6043:-1.6839965842007150e+001
6044:-1.3024075764437145e+001
6045:-1.4583349286799271e+001
6046:-1.6291261500325454e+001
6047:-1.7335827455706998e+001
6048:-1.5716116883258641e+001
6049:-1.6173278968687345e+001
6050:-1.6381432697442818e+001
6051:-1.6247932455765131e+001
6052:-1.6436654117265761e+001
6053:-1.6937802987405902e+001
6054:-1.7194249088024957e+001
6055:-1.7090473860316976e+001
6056:-1.7258227040535619e+001
6057:-1.7835027403235806e+001
6058:-1.8178463518216137e+001
6059:-1.8130945809577987e+001
6060:-1.7793784739177504e+001
6061:-1.8442227060639876e+001
6062:-1.8870780937190357e+001
6063:-1.8880160677756429e+001
6064:-1.6074787478108473e+001
6065:-1.5572415076886834e+001
6066:-1.4577577199800743e+001
6067:-1.3560031987449147e+001
6068:-1.6930062196080989e+001
6069:-1.6438119870876619e+001
6070:-1.5430285131459440e+001
6071:-1.4383538767992452e+001
6072:-1.7995896447871822e+001
6073:-1.7533553886207134e+001
6074:-1.6530527207843008e+001
6075:-1.5464373661305796e+001
6076:-1.8771524636182662e+001
6077:-1.8343995527343843e+001
6078:-1.7359887238756734e+001
6079:-1.6291194550144237e+001
6080:-1.2933493902975243e+001
6081:-1.1687302574776515e+001
6082:-9.9485074332093326e+000
6083:-8.5357013152203560e+000
6084:-1.3734598102422609e+001
6085:-1.2427823821505665e+001
6086:-1.0572117039762972e+001
6087:-9.0404498999291736e+000
6088:-1.4796926081515808e+001
6089:-1.3427483420307857e+001
6090:-1.1432107920086022e+001
6091:-9.7486796473194595e+000
6092:-1.5616537235214142e+001
6093:-1.4210753206961831e+001
6094:-1.2120093022816251e+001
6095:-1.0326465749815798e+001
6096:-7.7598308515232555e+000
6097:-6.3266277796768398e+000
6098:-4.5087148898013512e+000
6099:-3.1501767409376211e+000
6100:-8.1909613347015302e+000
6101:-6.6038172303443385e+000
6102:-4.5583919532274502e+000
6103:-3.0081356247225854e+000
6104:-8.8026282298532550e+000
6105:-7.0102630237269494e+000
6106:-4.6559525188955329e+000
6107:-2.8416091106661465e+000
6108:-9.3087085941557177e+000
6109:-7.3638424160712708e+000
6110:-4.7801471818453418e+000
6111:-2.7696470105198263e+000
6112:-2.4402727312174157e+000
6113:-1.1892507014359075e+000
6114:2.7230496200078519e-001
6115:1.2616192655111567e+000
6116:-2.1924769686711603e+000
6117:-7.6731629416654135e-001
6118:8.6826539028623628e-001
6119:1.9508995891829697e+000
6120:-1.8791926949143922e+000
6121:-2.1309385283450144e-001
6122:1.6605850451464894e+000
6123:2.8677887219279827e+000
6124:-1.6980341815497455e+000
6125:1.4999404300659108e-001
6126:2.2089148485116508e+000
6127:3.5176128616016640e+000
6128:1.7412445149860754e+000
6129:2.5308186108673425e+000
6130:3.3389940353803951e+000
6131:3.7874042711347324e+000
6132:2.4668384737562383e+000
6133:3.3105656995979773e+000
6134:4.1666366735316496e+000
6135:4.6364089988078785e+000
6136:3.4306755464557819e+000
6137:4.3438180817710181e+000
6138:5.2611918434142213e+000
6139:5.7587792621045315e+000
6140:4.1207491297860557e+000
6141:5.0957756740289986e+000
6142:6.0729508673737866e+000
6143:6.6031722608849357e+000
6144:3.9678047411845787e+000
6145:4.2365369222364819e+000
6146:4.4554677793832287e+000
6147:4.5196137777367849e+000
6148:4.8235690417907913e+000
6149:5.1008176710689526e+000
6150:5.3231188710265611e+000
6151:5.3835493618650156e+000
6152:5.9550832239427507e+000
6153:6.2432195836192808e+000
6154:6.4679580314105216e+000
6155:6.5210192389593313e+000
6156:6.8129278866577554e+000
6157:7.1186523696295545e+000
6158:7.3514502561789268e+000
6159:7.3995314106756398e+000
6160:4.5174723556271497e+000
6161:4.4649049309114632e+000
6162:4.3016237488778035e+000
6163:4.1007086991194859e+000
6164:5.3770173686144176e+000
6165:5.3102368575199304e+000
6166:5.1163121865063266e+000
6167:4.8825531979233512e+000
6168:6.5072026059637205e+000
6169:6.4198376373915869e+000
6170:6.1845767528254827e+000
6171:5.9073349151525587e+000
6172:7.3792191397825997e+000
6173:7.2730630549680750e+000
6174:6.9995119105667074e+000
6175:6.6815382329882551e+000
6176:3.9675118783585099e+000
6177:3.6964238206957045e+000
6178:3.3051860548786891e+000
6179:2.9748233068935219e+000
6180:4.7284389902568433e+000
6181:4.4102000286160594e+000
6182:3.9409380742193671e+000
6183:3.5374980919386099e+000
6184:5.7254077522334077e+000
6185:5.3412869272562213e+000
6186:4.7573027942925723e+000
6187:4.2430829217035653e+000
6188:6.4734769339577127e+000
6189:6.0287964186558627e+000
6190:5.3417196955454171e+000
6191:4.7292730993983270e+000
6192:2.7884949983839165e+000
6193:2.4375975281742113e+000
6194:1.9819843644259958e+000
6195:1.6352572595445021e+000
6196:3.3077653790868720e+000
6197:2.8745807150842255e+000
6198:2.3123021564582156e+000
6199:1.8850348830013901e+000
6200:3.9468629452094977e+000
6201:3.3908758172776570e+000
6202:2.6780233793296886e+000
6203:2.1449535706746321e+000
6204:4.3746257588582012e+000
6205:3.7148093423169821e+000
6206:2.8843404908967312e+000
6207:2.2773635530790886e+000
6208:1.4526726546220308e+000
6209:1.1348274954306192e+000
6210:7.7813058567544346e-001
6211:5.5381518454481748e-001
6212:1.6606161047367012e+000
6213:1.2748744910046652e+000
6214:8.5285240163122678e-001
6215:5.9693629842858931e-001
6216:1.8686223719827701e+000
6217:1.4020261268005769e+000
6218:9.0779168870013183e-001
6219:6.2132021395123060e-001
6220:1.9681401051141052e+000
6221:1.4524301285084253e+000
6222:9.1709444133011875e-001
6223:6.1517659852605522e-001
6224:4.5268940737037905e-001
6225:2.9320570294172271e-001
6226:1.4323864228096747e-001
6227:7.2644562527796303e-002
6228:4.8521151894897158e-001
6229:3.0887566922103327e-001
6230:1.4038812756547162e-001
6231:5.7651333999024293e-002
6232:5.0118499147855489e-001
6233:3.1114716542067000e-001
6234:1.2697683889516259e-001
6235:3.4533577807528838e-002
6236:4.9166080333065831e-001
6237:2.9727926283468531e-001
6238:1.1154695863471970e-001
6239:2.2474719373556721e-002
6240:3.4955351344484692e-001
6241:-1.7670816042556352e+000
6242:-4.1378852624951659e+000
6243:-5.7899782711224033e+000
6244:5.0216941207353982e-001
6245:-1.6342425458904859e+000
6246:-4.0375916219137133e+000
6247:-5.7218077835883756e+000
6248:6.4800292399394321e-001
6249:-1.4708915643454137e+000
6250:-3.8710271222274142e+000
6251:-5.5664735997331212e+000
6252:7.2196368458094951e-001
6253:-1.3516573861856782e+000
6254:-3.7148425431362031e+000
6255:-5.3950069686020692e+000
6256:-6.6470400592145857e+000
6257:-8.2845055740235356e+000
6258:-1.0480345538479558e+001
6259:-1.2201896339207135e+001
6260:-6.5986323129027138e+000
6261:-8.2722307287991281e+000
6262:-1.0514538878355209e+001
6263:-1.2273129648946631e+001
6264:-6.4532903497899028e+000
6265:-8.1446353602225656e+000
6266:-1.0410777102350199e+001
6267:-1.2191584974733637e+001
6268:-6.2769988205188856e+000
6269:-7.9592566493858099e+000
6270:-1.0216372343604215e+001
6271:-1.1995627910580094e+001
6272:-1.3123453586654742e+001
6273:-1.4715769602883320e+001
6274:-1.6474576589789002e+001
6275:-1.7561851032361929e+001
6276:-1.3215984249546233e+001
6277:-1.4860678014788327e+001
6278:-1.6709569041825162e+001
6279:-1.7878913402726813e+001
6280:-1.3149391046992783e+001
6281:-1.4843002930510700e+001
6282:-1.6795837415265044e+001
6283:-1.8072528031219733e+001
6284:-1.2955975275305040e+001
6285:-1.4672919015100938e+001
6286:-1.6693934164394499e+001
6287:-1.8050917797793950e+001
6288:-1.8043218214170132e+001
6289:-1.8734633129660448e+001
6290:-1.9215364534499603e+001
6291:-1.9260397000029833e+001
6292:-1.8407508993630323e+001
6293:-1.9189177069470620e+001
6294:-1.9785760851491926e+001
6295:-1.9914652784323668e+001
6296:-1.8667106972338615e+001
6297:-1.9582437358137078e+001
6298:-2.0363548018638777e+001
6299:-2.0635095328865990e+001
6300:-1.8697870924409841e+001
6301:-1.9725356084334667e+001
6302:-2.0671150095059009e+001
6303:-2.1076332306346117e+001
6304:-1.9168611061852328e+001
6305:-1.8764386797173973e+001
6306:-1.7795978326728125e+001
6307:-1.6730097000404832e+001
6308:-1.9864371695555107e+001
6309:-1.9522693017734724e+001
6310:-1.8606773959164219e+001
6311:-1.7561147229429753e+001
6312:-2.0658815919861713e+001
6313:-2.0437733876378584e+001
6314:-1.9640021354352786e+001
6315:-1.8654537857933882e+001
6316:-2.1171563130203278e+001
6317:-2.1072734399728443e+001
6318:-2.0405036844390363e+001
6319:-1.9493461940416733e+001
6320:-1.6053832064006098e+001
6321:-1.4632659769244951e+001
6322:-1.2495860030083081e+001
6323:-1.0646579205687203e+001
6324:-1.6888491645803018e+001
6325:-1.5448224158929515e+001
6326:-1.3233885046700784e+001
6327:-1.1285485345574148e+001
6328:-1.8002047780997156e+001
6329:-1.6560832746632716e+001
6330:-1.4269853910857453e+001
6331:-1.2208385832310453e+001
6332:-1.8869651419455820e+001
6333:-1.7449406997734094e+001
6334:-1.5124205662404824e+001
6335:-1.2993877969189578e+001
6336:-9.5921348356344378e+000
6337:-7.5699380834750105e+000
6338:-4.8713100308393811e+000
6339:-2.7633609010511782e+000
6340:-1.0164934685251520e+001
6341:-8.0053211940675730e+000
6342:-5.1063302541588786e+000
6343:-2.8310612439753617e+000
6344:-1.1010229184423462e+001
6345:-8.6911008917713346e+000
6346:-5.5638551823151419e+000
6347:-3.1011194988169697e+000
6348:-1.1745928501768237e+001
6349:-9.3240979404205984e+000
6350:-6.0502743966003711e+000
6351:-3.4677922780252985e+000
6352:-1.6376161694427094e+000
6353:3.0256253176747766e-001
6354:2.4595967288695317e+000
6355:3.8257810387686826e+000
6356:-1.6128800061852182e+000
6357:4.8910425934962126e-001
6358:2.8289643130324200e+000
6359:4.3119936933272633e+000
6360:-1.7799378507637631e+000
6361:5.1032633766483626e-001
6362:3.0815052709232722e+000
6363:4.7287594674820976e+000
6364:-2.0808077794425603e+000
6365:3.3546902857015104e-001
6366:3.0742165062089408e+000
6367:4.8508933276297954e+000
6368:4.4533327601593395e+000
6369:5.4675103878631752e+000
6370:6.4855388914777592e+000
6371:7.0407907258786722e+000
6372:4.9934347173006515e+000
6373:6.0987351465331132e+000
6374:7.2192987834056543e+000
6375:7.8423688139415137e+000
6376:5.4926181175549944e+000
6377:6.7444499283315427e+000
6378:8.0404100681256576e+000
6379:8.7856179301696482e+000
6380:5.6835790791633194e+000
6381:7.0617325382964813e+000
6382:8.5141505600169953e+000
6383:9.3708395225202832e+000
6384:7.2619473290506669e+000
6385:7.5832675031048744e+000
6386:7.8249315489747726e+000
6387:7.8713573370485488e+000
6388:8.0958518048290369e+000
6389:8.4625979212660543e+000
6390:8.7331075704521037e+000
6391:8.7793755733153240e+000
6392:9.0988807175193482e+000
6393:9.5522506323725977e+000
6394:9.8845470304120706e+000
6395:9.9407511276802900e+000
6396:9.7392263944468489e+000
6397:1.0274891053392750e+001
6398:1.0672172817104505e+001
6399:1.0747209448422245e+001
6400:7.8473075626274600e+000
6401:7.7294996099590687e+000
6402:7.4312541950608919e+000
6403:7.0866125158980298e+000
6404:8.7477328545880653e+000
6405:8.6033162014759252e+000
6406:8.2459773312483602e+000
6407:7.8369664423935754e+000
6408:9.9016772998507943e+000
6409:9.7203211959553641e+000
6410:9.2703598613675400e+000
6411:8.7568108698018765e+000
6412:1.0707458108091954e+001
6413:1.0502516629925442e+001
6414:9.9787809954186066e+000
6415:9.3768633746139969e+000
6416:6.8614427542531429e+000
6417:6.3786244625294595e+000
6418:5.6293501701614339e+000
6419:4.9592580847341994e+000
6420:7.5707503108795633e+000
6421:7.0004775055773294e+000
6422:6.1171514391474231e+000
6423:5.3290618594576298e+000
6424:8.4236782294126265e+000
6425:7.7170171049297558e+000
6426:6.6386884029818436e+000
6427:5.6899156255790446e+000
6428:8.9864164289094290e+000
6429:8.1670877961893389e+000
6430:6.9376278923872787e+000
6431:5.8725581640922080e+000
6432:4.5708361669476210e+000
6433:3.8529613953430459e+000
6434:2.9612006777119069e+000
6435:2.3198639906909220e+000
6436:4.8736373706482672e+000
6437:4.0454569797200373e+000
6438:3.0467047695892391e+000
6439:2.3533511782743899e+000
6440:5.1470859174079964e+000
6441:4.1819134259590376e+000
6442:3.0634921245087430e+000
6443:2.3235697403136579e+000
6444:5.2694080859575649e+000
6445:4.2132135903638650e+000
6446:3.0216157598934537e+000
6447:2.2589992827015730e+000
6448:1.9970675204435897e+000
6449:1.4618355822464184e+000
6450:9.1082966559493628e-001
6451:6.0334137475932847e-001
6452:2.0133028894082692e+000
6453:1.4540147940523642e+000
6454:8.8396828661247917e-001
6455:5.6995064348690561e-001
6456:1.9735037040416743e+000
6457:1.4021526433024849e+000
6458:8.2460378827681746e-001
6459:5.1057711397525662e-001
6460:1.9073493750245072e+000
6461:1.3366554037580025e+000
6462:7.6423381145975877e-001
6463:4.5777658978034852e-001
6464:4.7873948463974991e-001
6465:2.8413726872110362e-001
6466:1.0245054777790859e-001
6467:2.0768268480116307e-002
6468:4.4436936550828343e-001
6469:2.5321803410495969e-001
6470:8.7558539000873306e-002
6471:2.7864198910878994e-002
6472:3.8710713195437263e-001
6473:2.0793276386597742e-001
6474:7.3613104541544738e-002
6475:4.9205657708419587e-002
6476:3.3984506429543104e-001
6477:1.7550651916891563e-001
6478:6.7506660679927125e-002
6479:6.6752031463500644e-002
6480:7.4907324367456252e-001
6481:-1.2896653179960156e+000
6482:-3.6210987710705616e+000
6483:-5.2844665575927312e+000
6484:7.7838741568411784e-001
6485:-1.1760462717774356e+000
6486:-3.4246464073054255e+000
6487:-5.0386804856496141e+000
6488:7.7786954444485401e-001
6489:-1.0308520131172838e+000
6490:-3.1270157321349283e+000
6491:-4.6425165445403058e+000
6492:7.5131598081725948e-001
6493:-9.1945622190397480e-001
6494:-2.8661860162745478e+000
6495:-4.2810137915290598e+000
6496:-6.1592928815170858e+000
6497:-7.8285016617285255e+000
6498:-1.0071212946375605e+001
6499:-1.1843291597973982e+001
6500:-5.8903863322724046e+000
6501:-7.5175451222707856e+000
6502:-9.7117129812865350e+000
6503:-1.1454926112437352e+001
6504:-5.4454453447876316e+000
6505:-6.9836378845914879e+000
6506:-9.0720415126403093e+000
6507:-1.0746714334793547e+001
6508:-5.0328160522465337e+000
6509:-6.4774107793122884e+000
6510:-8.4527305943425990e+000
6511:-1.0051307415951335e+001
6512:-1.2801986575265483e+001
6513:-1.4526321176814204e+001
6514:-1.6578952575892714e+001
6515:-1.7977113597869462e+001
6516:-1.2402655720645670e+001
6517:-1.4126213077118013e+001
6518:-1.6220785619649380e+001
6519:-1.7685515066281965e+001
6520:-1.1664172142361219e+001
6521:-1.3356534071538523e+001
6522:-1.5469043713419243e+001
6523:-1.6997066351512842e+001
6524:-1.0933299606147939e+001
6525:-1.2578414819550812e+001
6526:-1.4675948566004795e+001
6527:-1.6233847325612594e+001
6528:-1.8652016669181684e+001
6529:-1.9741698180989516e+001
6530:-2.0782550062538572e+001
6531:-2.1267201402805771e+001
6532:-1.8408517456462725e+001
6533:-1.9611333709747854e+001
6534:-2.0836357128618385e+001
6535:-2.1483496417490489e+001
6536:-1.7772751042700357e+001
6537:-1.9112823126986417e+001
6538:-2.0584760636510204e+001
6539:-2.1466590620541258e+001
6540:-1.7041817368198966e+001
6541:-1.8478137613547641e+001
6542:-2.0142424387824544e+001
6543:-2.1219530502290691e+001
6544:-2.1405747670065765e+001
6545:-2.1382942285566859e+001
6546:-2.0799554226260888e+001
6547:-1.9938464162751181e+001
6548:-2.1713861880997399e+001
6549:-2.1859619846578820e+001
6550:-2.1476759181562997e+001
6551:-2.0746499326055389e+001
6552:-2.1835765341595351e+001
6553:-2.2250815008477137e+001
6554:-2.2213818206211851e+001
6555:-2.1728044813102407e+001
6556:-2.1708482654557507e+001
6557:-2.2366079962855569e+001
6558:-2.2657603873829359e+001
6559:-2.2415619831618624e+001
6560:-1.9335426833357776e+001
6561:-1.7935858856543568e+001
6562:-1.5603794247553152e+001
6563:-1.3445139612056911e+001
6564:-2.0202238394432545e+001
6565:-1.8878878592634262e+001
6566:-1.6579595864980895e+001
6567:-1.4397303591488503e+001
6568:-2.1301628735452557e+001
6569:-2.0158227133976066e+001
6570:-1.8005084130338435e+001
6571:-1.5862774270918994e+001
6572:-2.2111289196601685e+001
6573:-2.1169817342308747e+001
6574:-1.9214552504451227e+001
6575:-1.7164834257808703e+001
6576:-1.2175089989339392e+001
6577:-9.7065989387829568e+000
6578:-6.3648608283016364e+000
6579:-3.7263160872472523e+000
6580:-1.3098634921372266e+001
6581:-1.0559477101108646e+001
6582:-7.1011638163820532e+000
6583:-4.3599903723570659e+000
6584:-1.4559212043914634e+001
6585:-1.1971858199035141e+001
6586:-8.3917706070473734e+000
6587:-5.5253638645997807e+000
6588:-1.5887191602550333e+001
6589:-1.3304633866846066e+001
6590:-9.6626290740097875e+000
6591:-6.7115472194706678e+000
6592:-2.3083243414263581e+000
6593:1.6935503593789394e-001
6594:2.9938922769009846e+000
6595:4.8398819730467340e+000
6596:-2.8837675793748008e+000
6597:-2.8671352680526496e-001
6598:2.7097624570497367e+000
6599:4.6959974079631346e+000
6600:-3.9740389792018571e+000
6601:-1.2135489643847703e+000
6602:2.0300033296981059e+000
6603:4.2209552533709740e+000
6604:-5.1052981311639716e+000
6605:-2.2166004134595170e+000
6606:1.2312343310281315e+000
6607:3.5947504771068330e+000
6608:5.7104429639523087e+000
6609:7.1589833403096970e+000
6610:8.6995105419265375e+000
6611:9.6192105316831551e+000
6612:5.6429177568992008e+000
6613:7.2310851704642598e+000
6614:8.9419936918860561e+000
6615:9.9802948619113554e+000
6616:5.2789220053286936e+000
6617:7.0660093970902960e+000
6618:9.0117721357355478e+000
6619:1.0207825365355172e+001
6620:4.7463621385083892e+000
6621:6.6990240635600085e+000
6622:8.8360501346914742e+000
6623:1.0157467197263394e+001
6624:1.0018755228550567e+001
6625:1.0601828325550896e+001
6626:1.1038939773137875e+001
6627:1.1128457460631752e+001
6628:1.0437395737586732e+001
6629:1.1107613686773883e+001
6630:1.1618815554725854e+001
6631:1.1737672963971495e+001
6632:1.0739537338078657e+001
6633:1.1521462549799766e+001
6634:1.2128557423385413e+001
6635:1.2289477149381556e+001
6636:1.0747382526017466e+001
6637:1.1615585364803312e+001
6638:1.2297486032691490e+001
6639:1.2494314222714301e+001
6640:1.1090796143288063e+001
6641:1.0876511971411670e+001
6642:1.0314934722965473e+001
6643:9.6651993216740504e+000
6644:1.1706250168565177e+001
6645:1.1478474045965013e+001
6646:1.0850200242866984e+001
6647:1.0113493390341642e+001
6648:1.2270412085170307e+001
6649:1.2034535443737898e+001
6650:1.1334286323908955e+001
6651:1.0497818718736855e+001
6652:1.2488239150162414e+001
6653:1.2255606589770428e+001
6654:1.1517975800595773e+001
6655:1.0622824182950213e+001
6656:9.2433595064888046e+000
6657:8.3639149860219373e+000
6658:7.0576905861691044e+000
6659:5.9368665308666220e+000
6660:9.6342765368235170e+000
6661:8.6485635129998339e+000
6662:7.2141821506082344e+000
6663:6.0060649350104418e+000
6664:9.9520833513434717e+000
6665:8.8490094334556701e+000
6666:7.2858435978697678e+000
6667:6.0004126747785644e+000
6668:1.0037046758954354e+001
6669:8.8672551955033470e+000
6670:7.2402779806301822e+000
6671:5.9252173535655706e+000
6672:5.3060094714680570e+000
6673:4.2089070807587108e+000
6674:2.9857846160420780e+000
6675:2.2145633623784771e+000
6676:5.3337968198921812e+000
6677:4.1761922189253040e+000
6678:2.9071478591886017e+000
6679:2.1240817364860218e+000
6680:5.2952697043327062e+000
6681:4.0912383492450894e+000
6682:2.7892989449081096e+000
6683:2.0003831182718987e+000
6684:5.2111607470035723e+000
6685:3.9967853671386671e+000
6686:2.6914379793702952e+000
6687:1.9067260446581249e+000
6688:1.8631179150173596e+000
6689:1.2947224404465918e+000
6690:7.2810062199674874e-001
6691:4.2864414979263460e-001
6692:1.7735356143539946e+000
6693:1.2109672542947851e+000
6694:6.5899409898659023e-001
6695:3.7686851115886094e-001
6696:1.6527415349037329e+000
6697:1.1010598011142552e+000
6698:5.7370310940066060e-001
6699:3.1921656540032700e-001
6700:1.5634408974721872e+000
6701:1.0231260878040334e+000
6702:5.1739942252264470e-001
6703:2.8529426246758111e-001
6704:3.1542754040916943e-001
6705:1.6089384016388622e-001
6706:6.5892515160343737e-002
6707:7.3939010241876074e-002
6708:2.7497135884603868e-001
6709:1.4027292003972858e-001
6710:6.4926890624738734e-002
6711:8.1168762923732804e-002
6712:2.3474116646902091e-001
6713:1.2607684500682417e-001
6714:6.7042725736540507e-002
6715:8.0330569040212366e-002
6716:2.1438948429922366e-001
6717:1.2380468047519530e-001
6718:7.0608266490153310e-002
6719:7.3798264970986280e-002
6720:7.2900255652765245e-001
6721:-8.5934011232932428e-001
6722:-2.7153497073610677e+000
6723:-4.0679371916957505e+000
6724:6.7263900219387152e-001
6725:-7.4563212916469268e-001
6726:-2.4120016497843020e+000
6727:-3.6325047641454371e+000
6728:5.7553579733695914e-001
6729:-5.9329023456804242e-001
6730:-1.9770003862558356e+000
6731:-2.9969317231584260e+000
6732:4.8779873155605880e-001
6733:-4.7103676086777629e-001
6734:-1.6135373763993279e+000
6735:-2.4595825454259725e+000
6736:-4.7877804851440651e+000
6737:-6.1737017939643630e+000
6738:-8.0775245381155365e+000
6739:-9.6271739088217867e+000
6740:-4.2838868432234367e+000
6741:-5.5435305266170083e+000
6742:-7.2916900936340223e+000
6743:-8.7327313926364063e+000
6744:-3.5431184700618807e+000
6745:-4.6071085469870816e+000
6746:-6.1099200138778089e+000
6747:-7.3754650386332559e+000
6748:-2.9136294682630801e+000
6749:-3.8046802471715782e+000
6750:-5.0870482823446093e+000
6751:-6.1915883263230880e+000
6752:-1.0485871273649982e+001
6753:-1.2097416273331861e+001
6754:-1.4176622699128082e+001
6755:-1.5743739453307947e+001
6756:-9.5386089801249820e+000
6757:-1.1069602532926142e+001
6758:-1.3092975352377181e+001
6759:-1.4664033636491416e+001
6760:-8.0939031887921900e+000
6761:-9.4845129814435296e+000
6762:-1.1392846564859743e+001
6763:-1.2943533934896376e+001
6764:-6.8283604043655339e+000
6765:-8.0840063322168181e+000
6766:-9.8724954928529804e+000
6767:-1.1389277304392193e+001
6768:-1.6566009856920552e+001
6769:-1.8050353402314954e+001
6770:-1.9818018563236532e+001
6771:-2.1004367280216279e+001
6772:-1.5507665798257658e+001
6773:-1.7076346664827732e+001
6774:-1.9040169641091591e+001
6775:-2.0441170626909795e+001
6776:-1.3804896847325255e+001
6777:-1.5472789101490479e+001
6778:-1.7696064585813982e+001
6779:-1.9394449560168361e+001
6780:-1.2257324282231028e+001
6781:-1.3994018079597886e+001
6782:-1.6419048119243012e+001
6783:-1.8357986211107661e+001
6784:-2.1561708795621907e+001
6785:-2.2361106776081829e+001
6786:-2.2850091275232270e+001
6787:-2.2758192608254237e+001
6788:-2.1135087951387103e+001
6789:-2.2223593843192305e+001
6790:-2.3126325842143203e+001
6791:-2.3357626602347192e+001
6792:-2.0281535119859779e+001
6793:-2.1790380135368117e+001
6794:-2.3315870984049564e+001
6795:-2.4049763763479117e+001
6796:-1.9404025228976561e+001
6797:-2.1267109899176482e+001
6798:-2.3332362200239412e+001
6799:-2.4512656674667493e+001
6800:-2.2530396754939083e+001
6801:-2.1720175276989110e+001
6802:-1.9902994369450386e+001
6803:-1.7926823752156590e+001
6804:-2.3298319685878944e+001
6805:-2.2787401097905722e+001
6806:-2.1304226390062823e+001
6807:-1.9521877838909035e+001
6808:-2.4259009243213296e+001
6809:-2.4241977671137224e+001
6810:-2.3339204219312755e+001
6811:-2.1916018754147284e+001
6812:-2.4964554385307625e+001
6813:-2.5402913186617901e+001
6814:-2.5049863285900418e+001
6815:-2.3976788377697311e+001
6816:-1.6674834919343130e+001
6817:-1.4111779120225394e+001
6818:-1.0449847255699982e+001
6819:-7.4583655964614719e+000
6820:-1.8345250303056616e+001
6821:-1.5858108549904999e+001
6822:-1.2186646907343960e+001
6823:-9.1234975011426638e+000
6824:-2.0888970725339384e+001
6825:-1.8575593422398835e+001
6826:-1.4946103604328133e+001
6827:-1.1798920155811114e+001
6828:-2.3099600369029446e+001
6829:-2.0970788146324480e+001
6830:-1.7411277446370416e+001
6831:-1.4206686604854454e+001
6832:-5.8238697774251342e+000
6833:-2.8655229197826477e+000
6834:6.9747914352935769e-001
6835:3.1596057263069661e+000
6836:-7.4321960321972043e+000
6837:-4.3243619875999570e+000
6838:-5.0468386221000239e-001
6839:2.1798669838830631e+000
6840:-1.0027160843008526e+001
6841:-6.6908356031266534e+000
6842:-2.4642675706799713e+000
6843:5.7527033794031279e-001
6844:-1.2369239149692060e+001
6845:-8.8365854602560212e+000
6846:-4.2542812790719102e+000
6847:-9.0563239249558469e-001
6848:4.3648020353872106e+000
6849:6.4117347737024417e+000
6850:8.6565649299969465e+000
6851:1.0047663899852429e+001
6852:3.5060606328762112e+000
6853:5.7662951018663282e+000
6854:8.2526341832478245e+000
6855:9.7946667473171125e+000
6856:2.0939712714324457e+000
6857:4.6943716306948549e+000
6858:7.5613232682337843e+000
6859:9.3311290380135130e+000
6860:7.7924686056544257e-001
6861:3.6731600251670922e+000
6862:6.8638612667523038e+000
6863:8.8185905484783209e+000
6864:1.0669524113105144e+001
6865:1.1584548244542168e+001
6866:1.2306740764885117e+001
6867:1.2523426522637498e+001
6868:1.0482752916622871e+001
6869:1.1489260599661245e+001
6870:1.2279439782448140e+001
6871:1.2521143696950402e+001
6872:1.0113177360427409e+001
6873:1.1238539346976864e+001
6874:1.2095524665027638e+001
6875:1.2342841228181612e+001
6876:9.6716962253137186e+000
6877:1.0877826987305449e+001
6878:1.1761761419327318e+001
6879:1.1990892915288248e+001
6880:1.2525070419533002e+001
6881:1.2296977092176494e+001
6882:1.1545897911916143e+001
6883:1.0626714895007119e+001
6884:1.2529401988494353e+001
6885:1.2295232148740155e+001
6886:1.1504567935277620e+001
6887:1.0536343126876700e+001
6888:1.2343538901292304e+001
6889:1.2073524605455869e+001
6890:1.1208730984086147e+001
6891:1.0177159200777863e+001
6892:1.1973800939391756e+001
6893:1.1658618851268345e+001
6894:1.0730124938595164e+001
6895:9.6623809606883651e+000
6896:1.0024256230433114e+001
6897:8.8282947271867833e+000
6898:7.1804141291484784e+000
6899:5.8600636991388697e+000
6900:9.9037784740236976e+000
6901:8.6646788126646808e+000
6902:6.9911839462020495e+000
6903:5.6750554796340991e+000
6904:9.5134698642398039e+000
6905:8.2396768836427050e+000
6906:6.5696953729837482e+000
6907:5.2927158445308864e+000
6908:8.9885482087341035e+000
6909:7.7171879453863115e+000
6910:6.0909272095414808e+000
6911:4.8769173558708072e+000
6912:5.1468632765198352e+000
6913:3.9358040278253084e+000
6914:2.6366357997274918e+000
6915:1.8577167051497783e+000
6916:4.9719598959686682e+000
6917:3.7819415926647606e+000
6918:2.5103159601258249e+000
6919:1.7513627034023953e+000
6920:4.6219771122292137e+000
6921:3.4926307535740402e+000
6922:2.2926100095233850e+000
6923:1.5800393224525680e+000
6924:4.2486646902058389e+000
6925:3.1959370010623798e+000
6926:2.0825361215301603e+000
6927:1.4232613882972698e+000
6928:1.5178200462075082e+000
6929:9.8495088029944911e-001
6930:4.9153408364711820e-001
6931:2.7115757870567070e-001
6932:1.4214889890800140e+000
6933:9.0837746896540617e-001
6934:4.4314178019928757e-001
6935:2.4625764700421238e-001
6936:1.2714243004668717e+000
6937:7.9661735139008716e-001
6938:3.7824667227215225e-001
6939:2.1389955378002368e-001
6940:1.1379534994041036e+000
6941:7.0273357366281919e-001
6942:3.2740461889262601e-001
6943:1.8793057281080797e-001
6944:2.0709781108730205e-001
6945:1.2501965012119040e-001
6946:7.2877319904437965e-002
6947:6.8820208311755407e-002
6948:1.9489374551871042e-001
6949:1.2786412584234413e-001
6950:7.6071244822651721e-002
6951:5.7331403318645495e-002
6952:1.7795504898837414e-001
6953:1.2840077913572998e-001
6954:7.6129050710516719e-002
6955:3.9879964433628907e-002
6956:1.6186778925906678e-001
6957:1.2330065304388971e-001
6958:7.1626288021115370e-002
6959:2.6450271474154390e-002
6960:4.3776645736654057e-001
6961:-4.0338790403738489e-001
6962:-1.4094536105857167e+000
6963:-2.1561726186476142e+000
6964:3.3869596643059569e-001
6965:-2.7464682731180995e-001
6966:-1.0123853621967056e+000
6967:-1.5620214097824487e+000
6968:1.9998826418347068e-001
6969:-1.0244051827941091e-001
6970:-4.6767031000590481e-001
6971:-7.4182530690709392e-001
6972:8.6986033340923696e-002
6973:3.4100296890910917e-002
6974:-2.9549079401428938e-002
6975:-8.0618750025533537e-002
6976:-2.5572697824212933e+000
6977:-3.3483281988243614e+000
6978:-4.5018535377072002e+000
6979:-5.5110408834965430e+000
6980:-1.8578613505465489e+000
6981:-2.4492201099713791e+000
6982:-3.3419332905614092e+000
6983:-4.1541480264480821e+000
6984:-8.9053805531931329e-001
6985:-1.1998239103301938e+000
6986:-1.7151301948518543e+000
6987:-2.2332623021388285e+000
6988:-1.1045678322433883e-001
6989:-1.8851342710885022e-001
6990:-3.8576420154072838e-001
6991:-6.4838093096372740e-001
6992:-6.0989350932098576e+000
6993:-7.2727421960423184e+000
6994:-8.9860310073743186e+000
6995:-1.0478258348752451e+001
6996:-4.6393332829198153e+000
6997:-5.6379827136525202e+000
6998:-7.1820904733507005e+000
6999:-8.6081211931228658e+000
7000:-2.5614752182976384e+000
7001:-3.2879185248569680e+000
7002:-4.5570962690792509e+000
7003:-5.8595794863096691e+000
7004:-8.3746601346178284e-001
7005:-1.3210351306100676e+000
7006:-2.3400340318054256e+000
7007:-3.5230360766352313e+000
7008:-1.1347417674078937e+001
7009:-1.3117955520726083e+001
7010:-1.5650849379384031e+001
7011:-1.7721829419755458e+001
7012:-9.4693918012163998e+000
7013:-1.1285717514800993e+001
7014:-1.4003838441942843e+001
7015:-1.6317377596072845e+001
7016:-6.6925495792895413e+000
7017:-8.5350091336129346e+000
7018:-1.1459524722315226e+001
7019:-1.4076465219748316e+001
7020:-4.3230620490239406e+000
7021:-6.1636473689957727e+000
7022:-9.2223343854121644e+000
7023:-1.2062751124634476e+001
7024:-1.8856118350491371e+001
7025:-2.0918902674138344e+001
7026:-2.3293640385926953e+001
7027:-2.4733475239689710e+001
7028:-1.7618388404439116e+001
7029:-2.0068893026570208e+001
7030:-2.3060969936690793e+001
7031:-2.5028995327297547e+001
7032:-1.5595362663254489e+001
7033:-1.8574274272863857e+001
7034:-2.2440818655694290e+001
7035:-2.5177284065271312e+001
7036:-1.3749030013178096e+001
7037:-1.7150252328219569e+001
7038:-2.1739688127949950e+001
7039:-2.5125426050388551e+001
7040:-2.5327741892767424e+001
7041:-2.6035607340321008e+001
7042:-2.6011344328485499e+001
7043:-2.5149849346169677e+001
7044:-2.5916466743677475e+001
7045:-2.7184812328887627e+001
7046:-2.7854762494519377e+001
7047:-2.7449365245456267e+001
7048:-2.6497657302395542e+001
7049:-2.8600282246970146e+001
7050:-3.0315955324510139e+001
7051:-3.0608742802557455e+001
7052:-2.6815645010371554e+001
7053:-2.9632202915373842e+001
7054:-3.2243890391840608e+001
7055:-3.3136038747133369e+001
7056:-2.4364103103180550e+001
7057:-2.2350876319833638e+001
7058:-1.8841993317820659e+001
7059:-1.5609871443219683e+001
7060:-2.6865449033244886e+001
7061:-2.5122359618484900e+001
7062:-2.1765406413689551e+001
7063:-1.8510836715501792e+001
7064:-3.0339759876100754e+001
7065:-2.9042865126570817e+001
7066:-2.5988952588138392e+001
7067:-2.2761362994107163e+001
7068:-3.3138680473684403e+001
7069:-3.2240183073132279e+001
7070:-2.9483389294374238e+001
7071:-2.6311072470898086e+001
7072:-1.3736471828322969e+001
7073:-1.0093307203338096e+001
7074:-5.3093967479871829e+000
7075:-1.7865451742230649e+000
7076:-1.6579143256442173e+001
7077:-1.2734584026849250e+001
7078:-7.5645507156527607e+000
7079:-3.7021298173143871e+000
7080:-2.0772245478914073e+001
7081:-1.6680490486690797e+001
7082:-1.1001226478156116e+001
7083:-6.6818157147040660e+000
7084:-2.4288874262055980e+001
7085:-2.0016880119731571e+001
7086:-1.3946571418506929e+001
7087:-9.2738872352957813e+000
7088:-8.7155246193671813e-003
7089:3.0492923903700095e+000
7090:6.4191103834802572e+000
7091:8.4725524118504563e+000
7092:-1.7419622317490902e+000
7093:1.6426235266009637e+000
7094:5.3732561597758988e+000
7095:7.6244884530366974e+000
7096:-4.4750548830387418e+000
7097:-6.4121708161409863e-001
7098:3.5897349114013246e+000
7099:6.1077364471218134e+000
7100:-6.8772159825277903e+000
7101:-2.6943158518484842e+000
7102:1.9217776550894667e+000
7103:4.6319313261667014e+000
7104:9.3613788732880678e+000
7105:1.0604365786458761e+001
7106:1.1492391950035975e+001
7107:1.1703620859978646e+001
7108:8.5831981241655324e+000
7109:9.8970173944148367e+000
7110:1.0789035989271561e+001
7111:1.0959679266117435e+001
7112:7.1541613686785306e+000
7113:8.5461626097533223e+000
7114:9.4120314622166834e+000
7115:9.4961809960255721e+000
7116:5.7318928213906171e+000
7117:7.1516901388878855e+000
7118:7.9451502593351426e+000
7119:7.9151651066078266e+000
7120:1.1672992566787299e+001
7121:1.1328599786823544e+001
7122:1.0366688567250913e+001
7123:9.2874341237390610e+000
7124:1.0898762871089653e+001
7125:1.0493204581007042e+001
7126:9.4714033013462817e+000
7127:8.3852428063262341e+000
7128:9.3754265993908437e+000
7129:8.8641384690664857e+000
7130:7.7661082529688077e+000
7131:6.7071564277813192e+000
7132:7.7214231017431363e+000
7133:7.0945185877591008e+000
7134:5.9346110862109223e+000
7135:4.9308039717331020e+000
7136:8.6151683850974550e+000
7137:7.3587859641129585e+000
7138:5.7736531788725554e+000
7139:4.6067163818124843e+000
7140:7.7286515726973617e+000
7141:6.5229433919872335e+000
7142:5.0421055687632110e+000
7143:3.9848134135077879e+000
7144:6.1030342140498517e+000
7145:5.0203530254439999e+000
7146:3.7434955282292086e+000
7147:2.8815259148897523e+000
7148:4.3980762252578174e+000
7149:3.4660188629840514e+000
7150:2.4134905657513741e+000
7151:1.7530260922188969e+000
7152:4.0081688293371158e+000
7153:3.0082929431217780e+000
7154:1.9537546514590041e+000
7155:1.3300069448501768e+000
7156:3.4541360368907879e+000
7157:2.5765102360717154e+000
7158:1.6607884205191288e+000
7159:1.1222942481696634e+000
7160:2.4686885549627671e+000
7161:1.8070119734405834e+000
7162:1.1442364329328867e+000
7163:7.6681657827537719e-001
7164:1.4590624856424788e+000
7165:1.0176591879301733e+000
7166:6.1894780660811810e-001
7167:4.1490479162097310e-001
7168:1.0599378802369781e+000
7169:6.4982035497420498e-001
7170:2.9997153329311432e-001
7171:1.7338000644018026e-001
7172:8.8912088375990195e-001
7173:5.3855773281979591e-001
7174:2.4586791816806564e-001
7175:1.4459808249131614e-001
7176:6.0527868422374109e-001
7177:3.6722633545588779e-001
7178:1.7436132935260928e-001
7179:1.0879071885950430e-001
7180:3.3241703874534989e-001
7181:2.1591500712294931e-001
7182:1.2424557850022967e-001
7183:8.7846821048576162e-002
7184:1.5161312216160636e-001
7185:1.1786704592072275e-001
7186:6.7359514924819813e-002
7187:1.9925408101638741e-002
7188:1.2946976033407429e-001
7189:1.0353879664247322e-001
7190:5.7432527036965657e-002
7191:1.0279283277633338e-002
7192:9.8259914788686703e-002
7193:7.8245844967200162e-002
7194:4.1342511437201523e-002
7195:3.7972635746865335e-003
7196:7.6300723962936634e-002
7197:5.5363632273519058e-002
7198:2.6833473616997661e-002
7199:3.8178690550947779e-003
