label=Stress xy
num_items=4050

0:-5.1166776250759910e-003
1:-2.4407284659111225e-002
2:-3.9724236078462934e-002
3:-2.2185712711704098e-002
4:9.8629013531330925e-003
5:4.3618116644927605e-003
6:1.1248533255483664e-002
7:5.5605359247448090e-002
8:2.9219049575001717e-002
9:8.0571158821733952e-003
10:9.7983489286693533e-003
11:5.4157401482885878e-002
12:8.4030339736001561e-003
13:-6.8736560916352094e-002
14:-7.9701304470081058e-002
15:-1.7325755395784154e-002
16:7.6910519980261181e-004
17:1.1598395443574999e-002
18:-7.0297119556447421e-002
19:-2.2546528002781827e-001
20:8.9431470499070603e-002
21:-5.7013361678840878e-002
22:-8.0149322220489438e-001
23:-1.8842347221414653e+000
24:8.1509263664322013e-002
25:-1.9747470385780963e-001
26:-1.4114742919440120e+000
27:-3.1177069351911748e+000
28:2.1683120205152302e-002
29:-2.7271171465966149e-001
30:-1.5733313425072994e+000
31:-3.3834103520663104e+000
32:-3.4245646855427675e-001
33:-6.9123783762419078e-001
34:-2.0843634569053604e+000
35:-4.5058735722538330e+000
36:-2.6477192934451312e+000
37:-4.1111057243326004e+000
38:-6.2301457620529703e+000
39:-8.2220878368478481e+000
40:-4.3048497711666451e+000
41:-6.4442169111416350e+000
42:-8.8095673384273674e+000
43:-1.0181280339187664e+001
44:-4.6300218008077190e+000
45:-6.7810946867722111e+000
46:-8.8747125606500852e+000
47:-9.7525852427551065e+000
48:-6.4613286916605395e+000
49:-1.0982153040938933e+001
50:-1.6211678162959675e+001
51:-1.7600874396250372e+001
52:-9.4690431325842273e+000
53:-1.1832038685686131e+001
54:-1.3652818725173336e+001
55:-1.2917512828265092e+001
56:-1.0714265085451069e+001
57:-1.1114259769650252e+001
58:-1.0041285742167434e+001
59:-7.6419140539066692e+000
60:-9.9031330052371054e+000
61:-9.4387718491485497e+000
62:-7.2832175219005197e+000
63:-4.3855381354353602e+000
64:-1.6790071641142678e+001
65:-1.2573835080808948e+001
66:-4.5432576227051440e+000
67:1.0750081017857616e+000
68:-1.1450535862874204e+001
69:-7.2572785200552872e+000
70:-7.1293557291160770e-001
71:3.6304070371641401e+000
72:-5.7428331066838458e+000
73:-1.8667150579854273e+000
74:2.9622007011699423e+000
75:5.8741169217913214e+000
76:-2.4322935452551797e+000
77:1.0741236872679829e+000
78:4.8854011359253047e+000
79:6.9772331962985348e+000
80:3.1325247392143720e+000
81:4.8732520646861683e+000
82:4.2740006256730370e+000
83:2.8011617451962110e+000
84:5.2509573302737031e+000
85:6.6770011220185026e+000
86:6.1023252510778736e+000
87:4.4870032173803418e+000
88:6.9551932833219086e+000
89:7.8984713170715235e+000
90:7.2563354796373067e+000
91:5.5849755508825023e+000
92:7.7200801967175554e+000
93:8.2949898880833519e+000
94:7.5125893657208396e+000
95:5.8220109458192324e+000
96:2.0228174772034730e+000
97:9.7779963291985672e-001
98:2.8363349981039460e-001
99:9.6870569775430182e-002
100:3.4491138891254063e+000
101:1.8780890885538104e+000
102:6.1908734299380164e-001
103:1.9956701719805459e-001
104:4.3993942740508025e+000
105:2.5063602403921892e+000
106:8.8100300370839613e-001
107:3.0361897272870891e-001
108:4.6088570639471671e+000
109:2.6533107446453998e+000
110:9.5649959708670662e-001
111:3.5028242076552812e-001
112:6.5758257667794584e-002
113:3.1632032402637657e-002
114:1.1958799775534743e-002
115:7.8699043894846239e-003
116:1.3818107273736013e-001
117:7.9358002048242421e-002
118:4.7870677025569623e-002
119:4.2576938506610186e-002
120:2.1985615520996826e-001
121:1.3938836860353959e-001
122:9.3122444536115512e-002
123:8.3810613348715882e-002
124:2.6417989324645802e-001
125:1.7953585380852150e-001
126:1.2581729648851045e-001
127:1.1243741387821440e-001
128:7.1616391524745894e-003
129:6.5772939415404442e-003
130:6.6898221230291613e-003
131:6.9551839432589980e-003
132:4.1620312764805004e-002
133:3.8977992460701036e-002
134:3.4689698656116673e-002
135:3.1730723966329352e-002
136:8.2223604798686817e-002
137:7.7584128301056626e-002
138:6.9357773938015399e-002
139:6.3197497176818149e-002
140:1.1005439617988402e-001
141:1.0422361224300268e-001
142:9.4239800419805217e-002
143:8.6397981365841189e-002
144:7.0024520901866777e-003
145:6.6859018019275358e-003
146:5.7642196579589227e-003
147:4.9627548025258450e-003
148:3.0531333953486436e-002
149:2.8605585304443626e-002
150:2.6321966607760452e-002
151:2.4476013170073373e-002
152:6.0485849903875039e-002
153:5.6318245774602434e-002
154:5.1883467007391090e-002
155:4.8597744655678683e-002
156:8.2645698008909321e-002
157:7.6703840162884340e-002
158:7.0380706659981210e-002
159:6.5951751171399300e-002
160:4.5971076316353235e-003
161:4.1763620396833220e-003
162:3.9913326154702783e-003
163:3.9632891692869092e-003
164:2.3400403190438578e-002
165:2.1569949583769919e-002
166:1.9654404442583782e-002
167:1.8565430748572455e-002
168:4.6718954600608646e-002
169:4.3348356290571918e-002
170:3.9512984867294224e-002
171:3.7144569532124368e-002
172:6.3556572723120555e-002
173:5.9243403634960098e-002
174:5.4207944668850941e-002
175:5.0949446090217308e-002
176:3.9348935787177396e-003
177:3.7620045127428467e-003
178:3.3784251549484681e-003
179:3.0473182292550041e-003
180:1.8108780914240844e-002
181:1.7206653467935294e-002
182:1.5887080605946506e-002
183:1.4770335328131533e-002
184:3.6104862804208736e-002
185:3.4194475311732302e-002
186:3.1627542588602287e-002
187:2.9536728288833549e-002
188:4.9449923961501205e-002
189:4.6733476456275298e-002
190:4.3202826846897545e-002
191:4.0413195551877695e-002
192:2.8849818165471402e-003
193:2.6517773149461327e-003
194:2.4399073703718363e-003
195:2.2979615604096430e-003
196:1.4146796112454811e-002
197:1.3055339835549790e-002
198:1.1775716515504136e-002
199:1.0870833812188938e-002
200:2.8369714780825752e-002
201:2.6255042138446281e-002
202:2.3660391170549720e-002
203:2.1776936082669410e-002
204:3.8878659084868823e-002
205:3.6061620708466968e-002
206:3.2528592184224638e-002
207:2.9914980137673582e-002
208:2.2129667172461516e-003
209:2.0041441109149363e-003
210:1.6599335015025358e-003
211:1.3688733684899068e-003
212:1.0398957325181606e-002
213:9.4184091557164736e-003
214:7.9417078384120821e-003
215:6.6692543803853876e-003
216:2.0794247725098008e-002
217:1.8803808217679026e-002
218:1.5870600411014447e-002
219:1.3353824806339155e-002
220:2.8539778604698158e-002
221:2.5781111095135173e-002
222:2.1761143754357858e-002
223:1.8330815862072466e-002
224:1.2125655392309985e-003
225:9.1855264850934659e-004
226:4.9800788726153352e-004
227:1.1461046583450339e-004
228:5.9447945905805478e-003
229:4.4980411163862526e-003
230:2.3982771745131777e-003
231:5.8817882786155044e-004
232:1.1913688490469213e-002
233:9.0061836427810255e-003
234:4.7607695166213427e-003
235:1.1169697595114166e-003
236:1.6369118452620852e-002
237:1.2388931256782372e-002
238:6.5513015621143809e-003
239:1.5365876631048554e-003
240:-2.0793662187265517e-002
241:-1.3373437088821766e-001
242:-1.3817683430285641e-001
243:-4.2807878906829112e-002
244:-7.0356034967376316e-003
245:9.2075458522120887e-002
246:3.3635081421987717e-001
247:5.9784421065836990e-001
248:2.5803926312355291e-001
249:1.3711451883211963e+000
250:2.4878711647204059e+000
251:3.1152827885056009e+000
252:7.3559966710234892e-001
253:3.3127205766591277e+000
254:5.5569867525463152e+000
255:6.5170723504647752e+000
256:1.8608689288983852e-002
257:-2.4548886239543255e-001
258:-1.5111037775587677e+000
259:-3.2767904234296230e+000
260:7.3598576410023397e-001
261:5.6455093847631532e-001
262:-6.3315396715840155e-001
263:-2.3368172213503349e+000
264:3.3553748500560916e+000
265:3.2547458631156090e+000
266:2.0120791529929738e+000
267:2.5345031054377865e-001
268:6.7746990862029683e+000
269:6.5846218186602901e+000
270:5.1028742428350569e+000
271:3.1465518210922703e+000
272:-4.4854097380262754e+000
273:-6.5063639589254008e+000
274:-8.3335462207324529e+000
275:-8.9561733207843393e+000
276:-3.4912634600322732e+000
277:-5.3256227751032048e+000
278:-6.7802032953445712e+000
279:-7.0604209277589209e+000
280:-9.1153536249530531e-001
281:-2.7074957340869545e+000
282:-4.0287015927756764e+000
283:-4.1730099727424230e+000
284:1.8927413512120770e+000
285:-6.0569228771603111e-002
286:-1.5809801360228890e+000
287:-1.8773469892225645e+000
288:-8.9610409849208690e+000
289:-8.2483964245134036e+000
290:-5.8816265148450162e+000
291:-2.9609849410709304e+000
292:-6.8793206441351922e+000
293:-5.9041224320541428e+000
294:-3.4432929178158393e+000
295:-6.9924145175513508e-001
296:-3.9229922718111778e+000
297:-2.9522097829730249e+000
298:-8.1554690979379985e-001
299:1.4066017113445037e+000
300:-1.7141661682496356e+000
301:-1.0011490548369395e+000
302:6.0997892547093469e-001
303:2.2974480691701649e+000
304:-1.0607918966191705e+000
305:2.2270630624367325e+000
306:5.6248376337009942e+000
307:7.3978376311653191e+000
308:1.0042971571743873e+000
309:3.7982993531583662e+000
310:6.4534803086988823e+000
311:7.7049544062462809e+000
312:2.7349792881266048e+000
313:4.8072047055334020e+000
314:6.5987969849380503e+000
315:7.3217888090307222e+000
316:3.3062527122431971e+000
317:4.8601898051898864e+000
318:6.1540346315351924e+000
319:6.6220972257090729e+000
320:8.0000479137762621e+000
321:8.3971050378628291e+000
322:7.5123515698634202e+000
323:5.8036769709606890e+000
324:8.0843924917226602e+000
325:8.2086202839257130e+000
326:7.2042709523680539e+000
327:5.5362299917480513e+000
328:7.4900521114602245e+000
329:7.3797266225383806e+000
330:6.3563193058812679e+000
331:4.8622985029921981e+000
332:6.6968794627268151e+000
333:6.4988738364587011e+000
334:5.5362276924214608e+000
335:4.2238862160489692e+000
336:4.5904240312225184e+000
337:2.6406317165329427e+000
338:9.5731068900030047e-001
339:3.6139328966545997e-001
340:4.3742740481955495e+000
341:2.5172617431939726e+000
342:9.2757768639323757e-001
343:3.7247995519319665e-001
344:3.8439396814695970e+000
345:2.2249884436993033e+000
346:8.4876212805002760e-001
347:3.7266690981930162e-001
348:3.3441832158723197e+000
349:1.9504000004432887e+000
350:7.6985077156158754e-001
351:3.6292512505892893e-001
352:2.7929455047187035e-001
353:1.9758149807166797e-001
354:1.4213705414377287e-001
355:1.2658895153295985e-001
356:2.9907633295296299e-001
357:2.2404777736256579e-001
358:1.6775131147817654e-001
359:1.4971090988571029e-001
360:3.1092085963521610e-001
361:2.4549369666047699e-001
362:1.9217522050198657e-001
363:1.7366253131456239e-001
364:3.1021855366078382e-001
365:2.5329327084105274e-001
366:2.0532778476047087e-001
367:1.8801690668036464e-001
368:1.2369173858813808e-001
369:1.1732489509865457e-001
370:1.0680036823236227e-001
371:9.8311899361801347e-002
372:1.4635685533886308e-001
373:1.3961496244160349e-001
374:1.2846851067082002e-001
375:1.1883334095689380e-001
376:1.7036856137771061e-001
377:1.6379856935441997e-001
378:1.5222589675186901e-001
379:1.4133122855400734e-001
380:1.8481508598266255e-001
381:1.7824468365217264e-001
382:1.6633997416682472e-001
383:1.5483948995820190e-001
384:9.4048140409123876e-002
385:8.7155690310618261e-002
386:7.9770528010824723e-002
387:7.4738160442052781e-002
388:1.1359880025350144e-001
389:1.0497081590369052e-001
390:9.5799099207329111e-002
391:8.9883734414381924e-002
392:1.3502216157462438e-001
393:1.2456921046474188e-001
394:1.1369389249354693e-001
395:1.0707471420476070e-001
396:1.4807506646265436e-001
397:1.3687677451088931e-001
398:1.2532817168730687e-001
399:1.1842890203285844e-001
400:7.2109828209736590e-002
401:6.7386175889764130e-002
402:6.1810960933392965e-002
403:5.8111617204485676e-002
404:8.6972010596678126e-002
405:8.1708139056376625e-002
406:7.5293611625495332e-002
407:7.0811542574649403e-002
408:1.0399792655449423e-001
409:9.8330942305414906e-002
410:9.1083864391077782e-002
411:8.5710499770702581e-002
412:1.1527576519865006e-001
413:1.0937888201309579e-001
414:1.0162448444774029e-001
415:9.5711825388736863e-002
416:5.6363726860862447e-002
417:5.3209420594033122e-002
418:4.9168230636936289e-002
419:4.6027573563173427e-002
420:6.8595870342599188e-002
421:6.4630709601658454e-002
422:5.9685645817289711e-002
423:5.5958722450961132e-002
424:8.2938936984062961e-002
425:7.8025872477939309e-002
426:7.2063659150510329e-002
427:6.7707536056151998e-002
428:9.2609881701859603e-002
429:8.7133872297173329e-002
430:8.0560235475608172e-002
431:7.5813916814596885e-002
432:4.4316688744680331e-002
433:4.1157890982822964e-002
434:3.7153292317571425e-002
435:3.4160189450766508e-002
436:5.3964852883649918e-002
437:5.0242141359771578e-002
438:4.5423108431941493e-002
439:4.1748807197609497e-002
440:6.5418924724699234e-002
441:6.1085047294365910e-002
442:5.5333665769300398e-002
443:5.0846916400063447e-002
444:7.3335981973996031e-002
445:6.8600567049842270e-002
446:6.2223982833816409e-002
447:5.7185621995572145e-002
448:3.2576771215491039e-002
449:2.9413567706752783e-002
450:2.4829387726680960e-002
451:2.0930501741393708e-002
452:3.9784025122355439e-002
453:3.5883607843591597e-002
454:3.0282566995560874e-002
455:2.5547825572208614e-002
456:4.8418198309633315e-002
457:4.3623117737182478e-002
458:3.6796925258430063e-002
459:3.1062384178506833e-002
460:5.4440218563146306e-002
461:4.9031665874469735e-002
462:4.1360485644729370e-002
463:3.4933275637411741e-002
464:1.8702791868555495e-002
465:1.4172067547744605e-002
466:7.5102536978347342e-003
467:1.7815533270258655e-003
468:2.2847924440911990e-002
469:1.7333842240430618e-002
470:9.1870472432518755e-003
471:2.1634665053773257e-003
472:2.7799661877324310e-002
473:2.1105761577211581e-002
474:1.1161497672082720e-002
475:2.5602057990930546e-003
476:3.1279716350164993e-002
477:2.3764562184746475e-002
478:1.2565677731409555e-002
479:2.8609867232674926e-003
480:1.1067653334439544e+000
481:4.7159492785443149e+000
482:7.7114925727978711e+000
483:8.8387684259556067e+000
484:2.1319052630682549e+000
485:7.5310833357301750e+000
486:1.1694009499258563e+001
487:1.2905965202102280e+001
488:5.1353900449019649e+000
489:1.1718637845086597e+001
490:1.6281836080993582e+001
491:1.7021070451276664e+001
492:9.6611464253671642e+000
493:1.5579311878790206e+001
494:1.9081028063810002e+001
495:1.8922881865783847e+001
496:9.0628526175864081e+000
497:8.7410836177308600e+000
498:7.0329580024725331e+000
499:4.9076694281250397e+000
500:1.2933402285132374e+001
501:1.2176881455458542e+001
502:9.9297599944239501e+000
503:7.4893723044745348e+000
504:1.6573958266056824e+001
505:1.4980624677869827e+001
506:1.1919487325976789e+001
507:9.1431694171067424e+000
508:1.7994662551731395e+001
509:1.5647887370400062e+001
510:1.1966778111723661e+001
511:9.0322327783668417e+000
512:3.5770611469858875e+000
513:1.4750535120623471e+000
514:-2.5248013813899844e-001
515:-7.1389574792580690e-001
516:6.0420528661362463e+000
517:3.7197395297981060e+000
518:1.6820528228168969e+000
519:9.6857614023112615e-001
520:7.6294068153043311e+000
521:5.1945992075441376e+000
522:2.9823937849034410e+000
523:2.1069868133606375e+000
524:7.5467610986806548e+000
525:5.1798747647721859e+000
526:3.0287081901686239e+000
527:2.1652950914603397e+000
528:-6.4200576415519717e-001
529:-1.4166237562487274e-001
530:1.1225185945121934e+000
531:2.5088590888886930e+000
532:8.9864667775841856e-001
533:1.0654840615557708e+000
534:1.7783169003776280e+000
535:2.6786045154021485e+000
536:1.9362984306135063e+000
537:1.8448014783453508e+000
538:2.0882629806513053e+000
539:2.5386652166201329e+000
540:1.9844598530308859e+000
541:1.8361082543450893e+000
542:1.9216068474899124e+000
543:2.1784101233356803e+000
544:3.3543598269058617e+000
545:4.6706342460555517e+000
546:5.7758595306623626e+000
547:6.1660404237373960e+000
548:3.2575087688239601e+000
549:4.1853498757571908e+000
550:4.9837464317001157e+000
551:5.2501651908996694e+000
552:2.8571539697673436e+000
553:3.3946320360238067e+000
554:3.8728065308042323e+000
555:4.0089177336630115e+000
556:2.3702629045811539e+000
557:2.7079014753205533e+000
558:3.0126730786595775e+000
559:3.0789884754710659e+000
560:6.2153254733416530e+000
561:6.0006509798140630e+000
562:5.0876485163514111e+000
563:3.8764362648611903e+000
564:5.2610352434583127e+000
565:5.0305552013120218e+000
566:4.2252583886933053e+000
567:3.2092713598211104e+000
568:3.9830081435137181e+000
569:3.7550846515362739e+000
570:3.1103273190683467e+000
571:2.3505183952366875e+000
572:3.0376058618227524e+000
573:2.8305674550018858e+000
574:2.3184024633527227e+000
575:1.7460230444571214e+000
576:3.0720557919376170e+000
577:1.7999010533819226e+000
578:7.2425912493032618e-001
579:3.5426694895895910e-001
580:2.5469162332131656e+000
581:1.5036666179929052e+000
582:6.2638148903873792e-001
583:3.2829519867538498e-001
584:1.8682112801483042e+000
585:1.1138533021929342e+000
586:4.8736327347524971e-001
587:2.8241040551959823e-001
588:1.3906079275621819e+000
589:8.3825886603928534e-001
590:3.8589846882579265e-001
591:2.4540249526538535e-001
592:3.0650706723461485e-001
593:2.5479588899158839e-001
594:2.1078134789489447e-001
595:1.9446805701999700e-001
596:2.9188403634704924e-001
597:2.5307470775970542e-001
598:2.1855508187314091e-001
599:2.0415428760119905e-001
600:2.6263186684965506e-001
601:2.4348075773505065e-001
602:2.2299539806423396e-001
603:2.1096826931811793e-001
604:2.3730601810373628e-001
605:2.3193990755757105e-001
606:2.2116487990503170e-001
607:2.1077334323892091e-001
608:1.9118233924259956e-001
609:1.8436612340477090e-001
610:1.7220209385693902e-001
611:1.6057013646780868e-001
612:2.0024220398413009e-001
613:1.9239082350673295e-001
614:1.7977315390848272e-001
615:1.6844985950442590e-001
616:2.0580328228516373e-001
617:1.9625676082001409e-001
618:1.8357088532369931e-001
619:1.7361993684001620e-001
620:2.0479557893654854e-001
621:1.9441956790162157e-001
622:1.8246746798462612e-001
623:1.7416738611881524e-001
624:1.5376309920775430e-001
625:1.4249434191405039e-001
626:1.3085027774918578e-001
627:1.2386322858904175e-001
628:1.6200009618952046e-001
629:1.5121884929543275e-001
630:1.3977442018653441e-001
631:1.3263745882902292e-001
632:1.6827142383247193e-001
633:1.5899619112049126e-001
634:1.4834152839505857e-001
635:1.4107329294017001e-001
636:1.6993643345619486e-001
637:1.6216733097177072e-001
638:1.5235049314361096e-001
639:1.4508041158585980e-001
640:1.2065368692925856e-001
641:1.1461683296440338e-001
642:1.0662088292636067e-001
643:1.0048813448524317e-001
644:1.2925995374833485e-001
645:1.2292268299646197e-001
646:1.1458867118281767e-001
647:1.0822787818887766e-001
648:1.3744060738613764e-001
649:1.3077149126891305e-001
650:1.2230380664219391e-001
651:1.1599060228258497e-001
652:1.4130757716965828e-001
653:1.3455168709078458e-001
654:1.2627923971184007e-001
655:1.2024069990192621e-001
656:9.7261288850589087e-002
657:9.1567641181967141e-002
658:8.4740151722349194e-002
659:7.9814129840968570e-002
660:1.0488572353512512e-001
661:9.8955147408590363e-002
662:9.1775510533104204e-002
663:8.6549913957366525e-002
664:1.1269483366326193e-001
665:1.0673363562308556e-001
666:9.9301651597940757e-002
667:9.3764630800269366e-002
668:1.1709435675519411e-001
669:1.1126844341320327e-001
670:1.0377118326325213e-001
671:9.8064150676590120e-002
672:7.7241929218732366e-002
673:7.2307903518688696e-002
674:6.5627675201781310e-002
675:6.0325118121918896e-002
676:8.3808262475370585e-002
677:7.8532849222673673e-002
678:7.1356215598081182e-002
679:6.5630440009615626e-002
680:9.0831089428715012e-002
681:8.5195926703963212e-002
682:7.7533901521322598e-002
683:7.1400361720481767e-002
684:9.5019841103483951e-002
685:8.9195867780091809e-002
686:8.1299576170687352e-002
687:7.4963449195854570e-002
688:5.7428964544540002e-002
689:5.1725556793072107e-002
690:4.3642238058456448e-002
691:3.6873187201044107e-002
692:6.2492519244623262e-002
693:5.6303868155633957e-002
694:4.7521973869269228e-002
695:4.0164040552924316e-002
696:6.8024559776081503e-002
697:6.1331831609693015e-002
698:5.1784982568536531e-002
699:4.3766858255468985e-002
700:7.1460955553055858e-002
701:6.4475872763383055e-002
702:5.4454815528194089e-002
703:4.6018182087319441e-002
704:3.3025685694819139e-002
705:2.5103739297105767e-002
706:1.3285037361075936e-002
707:3.0361540931609036e-003
708:3.5981255382658554e-002
709:2.7360797102042027e-002
710:1.4483540964628760e-002
711:3.3055201199015459e-003
712:3.9207380873749767e-002
713:2.9811305414705357e-002
714:1.5767708688907450e-002
715:3.5636480712303237e-003
716:4.1220515386903932e-002
717:3.1340914855471844e-002
718:1.6575288990201345e-002
719:3.7318333912315232e-003
720:1.3135047291237420e+001
721:1.7929080383535272e+001
722:2.0227855719631055e+001
723:1.9379066331992099e+001
724:2.0931863249096025e+001
725:2.2254352683132847e+001
726:2.1272225396339625e+001
727:1.8881667568797567e+001
728:2.9685186207900152e+001
729:2.5507126649944979e+001
730:1.9724699282468460e+001
731:1.5415001775224175e+001
732:3.1775376216562929e+001
733:2.4199448698083753e+001
734:1.5691074590735202e+001
735:1.0490671329921176e+001
736:1.8170515254004943e+001
737:1.5417101574764486e+001
738:1.1442392243363050e+001
739:8.4770081691925441e+000
740:1.7183181333471893e+001
741:1.3813126826107553e+001
742:9.5445099477885176e+000
743:6.7296187677698205e+000
744:1.3267410587248952e+001
745:9.5282760957746238e+000
746:5.4772597841193686e+000
747:3.2626973671496717e+000
748:8.2435192152785746e+000
749:4.6687749479784202e+000
750:1.3037245763510912e+000
751:-1.6492633505757345e-001
752:7.0411076673382889e+000
753:4.7740695571196854e+000
754:2.7312594145166011e+000
755:1.9240698939471348e+000
756:5.4898475261149953e+000
757:3.5764532164442406e+000
758:1.8982123407442106e+000
759:1.2759900074735673e+000
760:2.4522624017775589e+000
761:1.2793004353481126e+000
762:3.5772592045118784e-001
763:1.2654851362911182e-001
764:-5.4751958986945060e-001
765:-9.9197145711424872e-001
766:-1.1544977494670416e+000
767:-9.7396247343253806e-001
768:1.7613103054857011e+000
769:1.6315771240286145e+000
770:1.7031057031252852e+000
771:1.9103076360402675e+000
772:1.1745838752236653e+000
773:1.1247417809956168e+000
774:1.2266493264704097e+000
775:1.3884833154210210e+000
776:1.6226208030951331e-001
777:3.0455201958820810e-001
778:5.4371129572952659e-001
779:7.2289433782577261e-001
780:-7.8299422957891629e-001
781:-4.1698558176480183e-001
782:4.5965606782994743e-003
783:2.5034352818588523e-001
784:2.0610907464663000e+000
785:2.3289910131078724e+000
786:2.5692232797198407e+000
787:2.6105742154635285e+000
788:1.4900291733514666e+000
789:1.6697040863038077e+000
790:1.8260401036225604e+000
791:1.8382998462373825e+000
792:8.0456126394093896e-001
793:9.3697872590344200e-001
794:1.0421042486534289e+000
795:1.0426866906603118e+000
796:3.4559323715644408e-001
797:4.8442867292915504e-001
798:5.8439732226530738e-001
799:5.8936119973284484e-001
800:2.5660349154402895e+000
801:2.3767555613083018e+000
802:1.9362334275056199e+000
803:1.4570886942837060e+000
804:1.7943235021736368e+000
805:1.6425922593782041e+000
806:1.3249102468140166e+000
807:9.9788622926810533e-001
808:1.0081180209500973e+000
809:9.0761104144278626e-001
810:7.2324427812095637e-001
811:5.4992421187784846e-001
812:5.6552308864947176e-001
813:5.0192347385250258e-001
814:3.9748411151490248e-001
815:3.0928282588482464e-001
816:1.1630286576809177e+000
817:7.0759388342480967e-001
818:3.3783564149643724e-001
819:2.2725705026449958e-001
820:8.0230927932132079e-001
821:5.0161586087028520e-001
822:2.6233471793308377e-001
823:1.9755274608370510e-001
824:4.5135219458232362e-001
825:3.0175452841450773e-001
826:1.8752959293065022e-001
827:1.6415602738209339e-001
828:2.6269678832438859e-001
829:1.9310579250491036e-001
830:1.4343222234202374e-001
831:1.3970787199903367e-001
832:2.2425801459557262e-001
833:2.2475116373897497e-001
834:2.1811148282381171e-001
835:2.0851602929883403e-001
836:2.0144520602712693e-001
837:2.0967277002327869e-001
838:2.0896297682123169e-001
839:2.0105164941531151e-001
840:1.7268343599625266e-001
841:1.8598511247999414e-001
842:1.9058869154532185e-001
843:1.8559070155720908e-001
844:1.4929552675268326e-001
845:1.6389353724490566e-001
846:1.7169585081056957e-001
847:1.6973494003337419e-001
848:2.0230470078989068e-001
849:1.9186438695304714e-001
850:1.8067106423660534e-001
851:1.7340088690401795e-001
852:1.9492898653155050e-001
853:1.8506605454865496e-001
854:1.7558722870979673e-001
855:1.7015167829775779e-001
856:1.8060152370349269e-001
857:1.7275403034792222e-001
858:1.6590286018141401e-001
859:1.6254666624429320e-001
860:1.6636964838206073e-001
861:1.6096518532870505e-001
862:1.5635158239306701e-001
863:1.5430096082915890e-001
864:1.6979255553837774e-001
865:1.6285495896659868e-001
866:1.5352403290026498e-001
867:1.4631021621432264e-001
868:1.6760550798305482e-001
869:1.6218159418604142e-001
870:1.5395226472752199e-001
871:1.4709237154605709e-001
872:1.6113235170419823e-001
873:1.5755044422743902e-001
874:1.5113302731476050e-001
875:1.4523874993952290e-001
876:1.5353820821025502e-001
877:1.5123380006305853e-001
878:1.4646479547780294e-001
879:1.4168710490638911e-001
880:1.4250905857919940e-001
881:1.3580096652171056e-001
882:1.2774881754069331e-001
883:1.2192716542711732e-001
884:1.4337524448249525e-001
885:1.3692740915861246e-001
886:1.2937850369066253e-001
887:1.2398165572185657e-001
888:1.4190547844620119e-001
889:1.3612176942470483e-001
890:1.2936942439279706e-001
891:1.2453189719066202e-001
892:1.3885668000009213e-001
893:1.3382742156919192e-001
894:1.2778615117460701e-001
895:1.2337421912859146e-001
896:1.1888781725900939e-001
897:1.1317333969382115e-001
898:1.0568029223712168e-001
899:9.9911748193345223e-002
900:1.2115144159792410e-001
901:1.1569699548461779e-001
902:1.0832584882177804e-001
903:1.0254011828329299e-001
904:1.2197915255007237e-001
905:1.1695371806102597e-001
906:1.0996653151843024e-001
907:1.0435459327004189e-001
908:1.2103339929774436e-001
909:1.1639819541020467e-001
910:1.0986968913342030e-001
911:1.0453646338559709e-001
912:9.6826135307284414e-002
913:9.0938531524067015e-002
914:8.2968380254896751e-002
915:7.6561567504373193e-002
916:9.9425010663023256e-002
917:9.3487925396709956e-002
918:8.5444100687026653e-002
919:7.8948072726989768e-002
920:1.0129533791488471e-001
921:9.5426662786239208e-002
922:8.7404544913088689e-002
923:8.0871247468523103e-002
924:1.0159016097266731e-001
925:9.5872647022284652e-002
926:8.7955018870009755e-002
927:8.1453224403026644e-002
928:7.3009690975438232e-002
929:6.5900614249181436e-002
930:5.5667309108550139e-002
931:4.7040645946902833e-002
932:7.5328827258555275e-002
933:6.8044837925011648e-002
934:5.7502777005438051e-002
935:4.8592658823911006e-002
936:7.7212177645113150e-002
937:6.9812648416109513e-002
938:5.9044113098308225e-002
939:4.9907025742116466e-002
940:7.7800555170808097e-002
941:7.0398399829789154e-002
942:5.9589503276463292e-002
943:5.0385381578371878e-002
944:4.2135267632772269e-002
945:3.2039222260027499e-002
946:1.6951510062561900e-002
947:3.8207287239176413e-003
948:4.3523995633833024e-002
949:3.3097262356250372e-002
950:1.7516499720477804e-002
951:3.9482981670998785e-003
952:4.4700137349735422e-002
953:3.3986929256681959e-002
954:1.7978733362254692e-002
955:4.0404671878225525e-003
956:4.5128225640853975e-002
957:3.4304326111133751e-002
958:1.8133079379630792e-002
959:4.0658409776384548e-003
960:3.0208475742389677e+001
961:2.1614115286428824e+001
962:1.2422445985819763e+001
963:7.1138087171672231e+000
964:2.2635361951989356e+001
965:1.4211569141856025e+001
966:5.6283975046691399e+000
967:9.2458430943931247e-001
968:8.4362238628258339e+000
969:2.6039602969966023e+000
970:-3.0387806737265235e+000
971:-6.0428701107900800e+000
972:-1.4732010854203024e+000
973:-5.1749411595262336e+000
974:-8.4263831118999413e+000
975:-1.0069301471153519e+001
976:4.9304976737463866e+000
977:1.6310721876861578e+000
978:-1.1808032096955405e+000
979:-2.1708997236852681e+000
980:-9.2461064129417303e-001
981:-3.4642114683538483e+000
982:-5.1540575704929878e+000
983:-5.3348241876825524e+000
984:-7.2215319614785933e+000
985:-8.5579734223629540e+000
986:-8.8384368469375900e+000
987:-8.1955502638821187e+000
988:-1.0724709206678064e+001
989:-1.1201313089058111e+001
990:-1.0595899847732140e+001
991:-9.5089265840346791e+000
992:-2.3075263089416720e+000
993:-2.3341147846791266e+000
994:-2.0521243432004073e+000
995:-1.6208535875065244e+000
996:-5.0988150987666154e+000
997:-4.4934164307715694e+000
998:-3.5262880010802067e+000
999:-2.6983646179760283e+000
1000:-7.6404813338370730e+000
1001:-6.4967568185820594e+000
1002:-4.9301159549244202e+000
1003:-3.7443443122879083e+000
1004:-8.8080028392803058e+000
1005:-7.4212244336932836e+000
1006:-5.5805418187689124e+000
1007:-4.2311157840865912e+000
1008:-1.3306660977713813e+000
1009:-8.2023765315663355e-001
1010:-2.7710333878882826e-001
1011:1.9803289922207250e-002
1012:-2.2471042258423259e+000
1013:-1.4996867387742323e+000
1014:-7.5129803822146790e-001
1015:-3.6057071761059173e-001
1016:-3.1440462463541481e+000
1017:-2.1749904460333935e+000
1018:-1.2279602239227061e+000
1019:-7.3722702707200782e-001
1020:-3.5634438896873499e+000
1021:-2.4950955207511738e+000
1022:-1.4583792341748743e+000
1023:-9.1935013603717441e-001
1024:1.3044273741983781e-001
1025:2.8450468943312718e-001
1026:3.9060904098043192e-001
1027:4.0077785833893087e-001
1028:-2.1748122108185441e-001
1029:-2.6177643808832602e-002
1030:1.0250354333983534e-001
1031:1.2814800664445938e-001
1032:-5.5453753042756737e-001
1033:-3.1283626215471128e-001
1034:-1.4702904838033096e-001
1035:-9.7249909103742288e-002
1036:-7.1553972306644265e-001
1037:-4.4593834007635813e-001
1038:-2.5839385680010313e-001
1039:-1.9429045546217141e-001
1040:3.8306651980844719e-001
1041:3.3721396421079786e-001
1042:2.6711702108080759e-001
1043:2.1325900794516356e-001
1044:1.2315938470666056e-001
1045:1.0789757361584069e-001
1046:8.8842418432224513e-002
1047:8.1773758145092648e-002
1048:-8.6081730096633322e-002
1049:-6.9273925466350153e-002
1050:-4.5399146018280614e-002
1051:-1.9360584235327039e-002
1052:-1.7398616733586783e-001
1053:-1.4133477031687813e-001
1054:-1.0068698231552814e-001
1055:-6.4885246112276279e-002
1056:1.8703352208767240e-001
1057:1.4843659557918934e-001
1058:1.2319603890097945e-001
1059:1.2631279727790701e-001
1060:8.2226239401787540e-002
1061:8.4058736794253242e-002
1062:9.0345880593386663e-002
1063:1.0164339202655229e-001
1064:-1.6654501247726520e-003
1065:2.6452152306392075e-002
1066:5.3442759875813241e-002
1067:6.9612921350671764e-002
1068:-4.3032066159751518e-002
1069:-7.8676286383520637e-003
1070:2.5851125417879227e-002
1071:4.4119721178632602e-002
1072:1.3585027102962222e-001
1073:1.5058828204474306e-001
1074:1.6003339175867823e-001
1075:1.6001419008300741e-001
1076:1.1053382112293518e-001
1077:1.2484233707758750e-001
1078:1.3672289043350730e-001
1079:1.4026955227208127e-001
1080:7.7477967895309557e-002
1081:9.0891037229282198e-002
1082:1.0500121369421499e-001
1083:1.1261551643765808e-001
1084:5.1830910863346388e-002
1085:6.5251913937455996e-002
1086:8.0792315503188161e-002
1087:9.0811526128391995e-002
1088:1.5776124498373598e-001
1089:1.5395007606634845e-001
1090:1.5059807199954325e-001
1091:1.4913831453362097e-001
1092:1.4025711595644719e-001
1093:1.3975319496669258e-001
1094:1.3905200163659626e-001
1095:1.3871345648530267e-001
1096:1.1541557582272946e-001
1097:1.1929397428205035e-001
1098:1.2236161291574209e-001
1099:1.2363640175339012e-001
1100:9.5353296191998060e-002
1101:1.0215928351443192e-001
1102:1.0808816617653280e-001
1103:1.1079113698881494e-001
1104:1.4864220573802789e-001
1105:1.4695644652162373e-001
1106:1.4313367552827547e-001
1107:1.3906955001795329e-001
1108:1.3863060176670819e-001
1109:1.3793558054189076e-001
1110:1.3574429214595740e-001
1111:1.3301712773089655e-001
1112:1.2407117443272557e-001
1113:1.2452367234061650e-001
1114:1.2422665448272015e-001
1115:1.2315376200964083e-001
1116:1.1173380380761294e-001
1117:1.1314192876564656e-001
1118:1.1421459592715814e-001
1119:1.1430260912726334e-001
1120:1.3657661186274681e-001
1121:1.3203356382263742e-001
1122:1.2640882339147735e-001
1123:1.2222412243824238e-001
1124:1.3120500238776112e-001
1125:1.2768081546169793e-001
1126:1.2296555335287879e-001
1127:1.1927060962240066e-001
1128:1.2224742477123104e-001
1129:1.2016073286482579e-001
1130:1.1683462017475844e-001
1131:1.1391383698601200e-001
1132:1.1404853053427448e-001
1133:1.1306124483013869e-001
1134:1.1089801437105223e-001
1135:1.0867197595253418e-001
1136:1.1999553055017100e-001
1137:1.1558674874691288e-001
1138:1.0935426004475247e-001
1139:1.0421636326492377e-001
1140:1.1726776650101008e-001
1141:1.1330125202701904e-001
1142:1.0764488160756971e-001
1143:1.0290059048125562e-001
1144:1.1225148149882211e-001
1145:1.0891227955571836e-001
1146:1.0404333979444529e-001
1147:9.9850260443033634e-002
1148:1.0731774100148211e-001
1149:1.0451621551267797e-001
1150:1.0028825173003689e-001
1151:9.6543576024419514e-002
1152:1.0135335061302206e-001
1153:9.5749823218460817e-002
1154:8.7919193641860557e-002
1155:8.1456187487081111e-002
1156:1.0021572310562071e-001
1157:9.4875333913564897e-002
1158:8.7280179432231736e-002
1159:8.0945332253084881e-002
1160:9.7431076955558138e-002
1161:9.2518059459332558e-002
1162:8.5363155212935804e-002
1163:7.9299288607484419e-002
1164:9.4348533009000368e-002
1165:8.9818140434775331e-002
1166:8.3091719198284814e-002
1167:7.7307723746044429e-002
1168:7.7820238571142578e-002
1169:7.0446731691491127e-002
1170:5.9661935704401828e-002
1171:5.0458503578679412e-002
1172:7.7368547023718356e-002
1173:7.0098952873063863e-002
1174:5.9425366815646717e-002
1175:5.0277937943932878e-002
1176:7.5851041629000110e-002
1177:6.8808474000228159e-002
1178:5.8400845975481362e-002
1179:4.9429693161980988e-002
1180:7.3993814620076037e-002
1181:6.7189988243468002e-002
1182:5.7074472082878733e-002
1183:4.8316193073069579e-002
1184:4.5193606683152719e-002
1185:3.4348666429000897e-002
1186:1.8148835002108180e-002
1187:4.0678145532744838e-003
1188:4.5030509304966680e-002
1189:3.4216464679127395e-002
1190:1.8073807231492305e-002
1191:4.0643605159286274e-003
1192:4.4266849410339149e-002
1193:3.3626750346040978e-002
1194:1.7762187950705301e-002
1195:4.0186239312726933e-003
1196:4.3265288989279879e-002
1197:3.2856826779718032e-002
1198:1.7347962067569937e-002
1199:3.9239326765919324e-003
1200:-5.1172883118779628e+000
1201:-8.1261899243774334e+000
1202:-1.0505977549963887e+001
1203:-1.1597380992867016e+001
1204:-8.2505323598235467e+000
1205:-1.0840165502078468e+001
1206:-1.2500570275139465e+001
1207:-1.3011121766136176e+001
1208:-7.3143367009464280e+000
1209:-1.0110844793870074e+001
1210:-1.1798142302782882e+001
1211:-1.2126276344218082e+001
1212:-4.8130105765954916e+000
1213:-7.4845832336671014e+000
1214:-9.1771694470472553e+000
1215:-9.5100270536280682e+000
1216:-1.2023271786299123e+001
1217:-1.2133233173708234e+001
1218:-1.1172138748603434e+001
1219:-9.9186363655956118e+000
1220:-1.3149458509758189e+001
1221:-1.2812941590919690e+001
1222:-1.1456560064930363e+001
1223:-1.0042032567430198e+001
1224:-1.2104031102072023e+001
1225:-1.1576438424239111e+001
1226:-1.0184257441590411e+001
1227:-8.8579373885811314e+000
1228:-9.4638003115967688e+000
1229:-9.0076442937213343e+000
1230:-7.9007302897151552e+000
1231:-6.8682617540710531e+000
1232:-9.1667018122860906e+000
1233:-7.6967318634457591e+000
1234:-5.7653476254681690e+000
1235:-4.3655655563869766e+000
1236:-9.2503615995484161e+000
1237:-7.7256450885617189e+000
1238:-5.7523486147478922e+000
1239:-4.3471499019243014e+000
1240:-8.1388388054773095e+000
1241:-6.7677462242826429e+000
1242:-5.0169326303542281e+000
1243:-3.7916398860459020e+000
1244:-6.3115840456093766e+000
1245:-5.2506363947017123e+000
1246:-3.9004593871449624e+000
1247:-2.9635550487553659e+000
1248:-3.6791412924661961e+000
1249:-2.5847437450194919e+000
1250:-1.5259677585745532e+000
1251:-9.7490352640086664e-001
1252:-3.6677273555704288e+000
1253:-2.5905211423936292e+000
1254:-1.5535053822026805e+000
1255:-1.0134582374957921e+000
1256:-3.2080297890820391e+000
1257:-2.2884254574543275e+000
1258:-1.4082809801284661e+000
1259:-9.5015739964529367e-001
1260:-2.5215615123826134e+000
1261:-1.8286957063827500e+000
1262:-1.1690910092595082e+000
1263:-8.2599733164115774e-001
1264:-7.6533757392931623e-001
1265:-4.8835649920544610e-001
1266:-2.9528386424077530e-001
1267:-2.2701946620613278e-001
1268:-8.0656324060713225e-001
1269:-5.3333023866936369e-001
1270:-3.4199191600555107e-001
1271:-2.7086342817868697e-001
1272:-7.7344477357683028e-001
1273:-5.3943303817450461e-001
1274:-3.7276389846720936e-001
1275:-3.0589289115564600e-001
1276:-6.9281549803784725e-001
1277:-5.1480834300897771e-001
1278:-3.8332163124683816e-001
1279:-3.2483306740792894e-001
1280:-2.0376516563741021e-001
1281:-1.6637706319280043e-001
1282:-1.2165510049387773e-001
1283:-8.4303926138659807e-002
1284:-2.4431454658607052e-001
1285:-2.0158610321541695e-001
1286:-1.5292126757706623e-001
1287:-1.1527981771337417e-001
1288:-2.7834472120530135e-001
1289:-2.3323146461410887e-001
1290:-1.8310483580884743e-001
1291:-1.4724664671199492e-001
1292:-2.9839567690651192e-001
1293:-2.5349743229484967e-001
1294:-2.0266615047601977e-001
1295:-1.6761215319366454e-001
1296:-6.2080096602123352e-002
1297:-2.5630018225089802e-002
1298:1.0336361441918584e-002
1299:2.9929989484038660e-002
1300:-9.3798595800696938e-002
1301:-5.7284879082443223e-002
1302:-1.8944113542349622e-002
1303:3.0606336280627083e-003
1304:-1.2798347036435995e-001
1305:-9.3976752094345944e-002
1306:-5.5357176714988986e-002
1307:-3.0985597228022927e-002
1308:-1.4973523469164093e-001
1309:-1.1787976161448886e-001
1310:-8.0316931883707907e-002
1311:-5.5119058681140379e-002
1312:3.7992940240849371e-002
1313:5.1935341476623986e-002
1314:6.8286671532365187e-002
1315:7.9271107125115051e-002
1316:1.2270239279126651e-002
1317:2.7951741320077935e-002
1318:4.6161291657067997e-002
1319:5.8613616826935028e-002
1320:-1.9999212995294877e-002
1321:-1.4799815375950590e-003
1322:1.9398340917051903e-002
1323:3.3309310225189792e-002
1324:-4.3096746074271608e-002
1325:-2.2759169502698181e-002
1326:-7.0299786618460336e-005
1327:1.4754066102782499e-002
1328:8.4500243475983478e-002
1329:9.2567540241253785e-002
1330:9.9919357067898701e-002
1331:1.0346354420637492e-001
1332:6.4737254850724207e-002
1333:7.4553082107200019e-002
1334:8.4139373319961866e-002
1335:8.9228388875311801e-002
1336:4.0086919701792484e-002
1337:5.1330717530840474e-002
1338:6.3134056022474475e-002
1339:7.0080038659490043e-002
1340:2.1863011620883912e-002
1341:3.3878260986529636e-002
1342:4.7030059378758038e-002
1343:5.5229413422511760e-002
1344:1.0475074779979393e-001
1345:1.0674863884551064e-001
1346:1.0855298512956034e-001
1347:1.0921216747601668e-001
1348:9.1242866130038666e-002
1349:9.4465368858744417e-002
1350:9.7681132215790681e-002
1351:9.9349653680469704e-002
1352:7.3094336909711330e-002
1353:7.7995353600340975e-002
1354:8.3050484180985026e-002
1355:8.5932699806008858e-002
1356:5.8964057325199735e-002
1357:6.5085360990934787e-002
1358:7.1472568256813321e-002
1359:7.5217400787407976e-002
1360:1.0927433931715966e-001
1361:1.0884486917372901e-001
1362:1.0731482406963043e-001
1363:1.0549112899702105e-001
1364:9.9942902138969919e-002
1365:1.0046806881184635e-001
1366:1.0006910001082650e-001
1367:9.9002734678770160e-002
1368:8.7127815956893312e-002
1369:8.8758240884845699e-002
1370:8.9734677665629647e-002
1371:8.9644449632299783e-002
1372:7.6832029462038487e-002
1373:7.9244413874592967e-002
1374:8.1222867317468445e-002
1375:8.1867198861611326e-002
1376:1.0432020625483700e-001
1377:1.0182979206126022e-001
1378:9.7959618683486516e-002
1379:9.4462348672881793e-002
1380:9.8191156102287430e-002
1381:9.6311907763734328e-002
1382:9.3141063339427385e-002
1383:9.0124218997018890e-002
1384:8.9316738671502471e-002
1385:8.8266111327480037e-002
1386:8.6044921801776197e-002
1387:8.3679119269880559e-002
1388:8.1912080354075628e-002
1389:8.1503667046288433e-002
1390:8.0023164947302772e-002
1391:7.8167650662149743e-002
1392:9.2392425881372239e-002
1393:8.8082027868859811e-002
1394:8.1611720095146487e-002
1395:7.5999368897866251e-002
1396:8.8296346949564258e-002
1397:8.4415083315170766e-002
1398:7.8452418414610051e-002
1399:7.3186775445871238e-002
1400:8.2178389455422565e-002
1401:7.8882936598560924e-002
1402:7.3627579155041561e-002
1403:6.8857726505032926e-002
1404:7.6924048178936930e-002
1405:7.4094013001139880e-002
1406:6.9412047578884903e-002
1407:6.5054020760887205e-002
1408:7.2768357575748455e-002
1409:6.6112780257163065e-002
1410:5.6182822838517409e-002
1411:4.7565100364686912e-002
1412:7.0125790969339144e-002
1413:6.3780326043805249e-002
1414:5.4250268766975029e-002
1415:4.5943819043852800e-002
1416:6.6045120211567235e-002
1417:6.0162179559098194e-002
1418:5.1245184725357322e-002
1419:4.3426423670962298e-002
1420:6.2451555467016182e-002
1421:5.6964303626265908e-002
1422:4.8578293993087385e-002
1423:4.1185431190247868e-002
1424:4.2590382300853775e-002
1425:3.2338675146277640e-002
1426:1.7065403017334925e-002
1427:3.8475106730684735e-003
1428:4.1140040447368922e-002
1429:3.1236499980408679e-002
1430:1.6478549330860633e-002
1431:3.7061875682643389e-003
1432:3.8892944690229220e-002
1433:2.9536936615266546e-002
1434:1.5583141887185119e-002
1435:3.5024143262816186e-003
1436:3.6888749831287954e-002
1437:2.8013386892515847e-002
1438:1.4767777438758820e-002
1439:3.2981480208071423e-003
1440:-3.4846750262233539e+000
1441:-5.7680286429668319e+000
1442:-7.2555868355229052e+000
1443:-7.5586090280643665e+000
1444:-1.6983533331293694e+000
1445:-3.1624737124820954e+000
1446:-4.1691140148951762e+000
1447:-4.3918959932800306e+000
1448:-5.0554870743356706e-001
1449:-1.0643301600660349e+000
1450:-1.4987236143601852e+000
1451:-1.6219650883277967e+000
1452:-1.7833192267711784e-001
1453:-3.5586511163704504e-001
1454:-5.3609265673356932e-001
1455:-6.1752171677931567e-001
1456:-7.5149763954413711e+000
1457:-7.1453775839519498e+000
1458:-6.2741108042329241e+000
1459:-5.4674335707110240e+000
1460:-4.3631744177084144e+000
1461:-4.1517448765792571e+000
1462:-3.6731430548067809e+000
1463:-3.2340034521846714e+000
1464:-1.6218706157414891e+000
1465:-1.5725739333487350e+000
1466:-1.4491115832137338e+000
1467:-1.3304841486002765e+000
1468:-6.3743434619243788e-001
1469:-6.5979479033496002e-001
1470:-6.6933781348468746e-001
1471:-6.6449287591285244e-001
1472:-5.0329671238593976e+000
1473:-4.2011831443533056e+000
1474:-3.1390067027980000e+000
1475:-2.4030503060064530e+000
1476:-2.9970806794908604e+000
1477:-2.5350296106718049e+000
1478:-1.9354986738405227e+000
1479:-1.5197841761994200e+000
1480:-1.2640190874552035e+000
1481:-1.1222133500247966e+000
1482:-9.2371625775435162e-001
1483:-7.8318912105107075e-001
1484:-6.5793691170367141e-001
1485:-6.3178869756663858e-001
1486:-5.8129884023499523e-001
1487:-5.4160557054064418e-001
1488:-2.0573980029582764e+000
1489:-1.5175971525748777e+000
1490:-1.0058294195571096e+000
1491:-7.3966250869392847e-001
1492:-1.3264384262608164e+000
1493:-1.0276217695385506e+000
1494:-7.4732429890951535e-001
1495:-6.0092458406310112e-001
1496:-7.1904137660572665e-001
1497:-6.2249760923181752e-001
1498:-5.3332992483248409e-001
1499:-4.8397386748748578e-001
1500:-5.2355607286805961e-001
1501:-4.9674565691730943e-001
1502:-4.6961170203676195e-001
1503:-4.4939206399162374e-001
1504:-6.3572245722339427e-001
1505:-4.9517525034385096e-001
1506:-3.8708420731187426e-001
1507:-3.3442968133039314e-001
1508:-5.4237055636401932e-001
1509:-4.6001242330568359e-001
1510:-3.8885904671517951e-001
1511:-3.4656135208133698e-001
1512:-4.6170785138070414e-001
1513:-4.2564625977643100e-001
1514:-3.8440974033227893e-001
1515:-3.5213433802073069e-001
1516:-4.3734262065485319e-001
1517:-4.1363574848658657e-001
1518:-3.7998181717301233e-001
1519:-3.5108387920317224e-001
1520:-3.0906327818773999e-001
1521:-2.6465070030026888e-001
1522:-2.1304940866409466e-001
1523:-1.7768423447550480e-001
1524:-3.2390948673688924e-001
1525:-2.8203728545602985e-001
1526:-2.3075825802227334e-001
1527:-1.9521317483548145e-001
1528:-3.3329725792127890e-001
1529:-2.9663487026791979e-001
1530:-2.4899498554648403e-001
1531:-2.1469702400744445e-001
1532:-3.3434283376094137e-001
1533:-3.0165572594577045e-001
1534:-2.5845019769772370e-001
1535:-2.2645455481745383e-001
1536:-1.6009711364447690e-001
1537:-1.2897336429806719e-001
1538:-9.2132270190629584e-002
1539:-6.6926370346997152e-002
1540:-1.7790236625459815e-001
1541:-1.4764378251299123e-001
1542:-1.1187752891115572e-001
1543:-8.6905888536796677e-002
1544:-1.9779190463848603e-001
1545:-1.6837907143518632e-001
1546:-1.3368659994664656e-001
1547:-1.0925550456838000e-001
1548:-2.1026910850548344e-001
1549:-1.8183664405046415e-001
1550:-1.4799881100312548e-001
1551:-1.2404751806572537e-001
1552:-5.4615413692239302e-002
1553:-3.3659419419855223e-002
1554:-1.0215683931847018e-002
1555:5.0607622399455963e-003
1556:-7.4375849224535634e-002
1557:-5.2797703781534103e-002
1558:-2.8390567435732393e-002
1559:-1.2400117342632088e-002
1560:-9.6839150480113670e-002
1561:-7.5178109354911052e-002
1562:-5.0217344728736173e-002
1563:-3.3572547810913622e-002
1564:-1.1185988872165042e-001
1565:-9.0440738360187664e-002
1566:-6.5425312438798275e-002
1567:-4.8484979616300383e-002
1568:1.2350327096381713e-002
1569:2.4758281431190562e-002
1570:3.8558074520295714e-002
1571:4.7350408849263052e-002
1572:-4.7709020200132147e-003
1573:8.3438695507605885e-003
1574:2.3233814620720487e-002
1575:3.2986100691294956e-002
1576:-2.5547413681105732e-002
1577:-1.1639575437319314e-002
1578:4.3911794900828114e-003
1579:1.5109388933845684e-002
1580:-4.0228031906975707e-002
1581:-2.5864821064394847e-002
1582:-9.2020270707418670e-003
1583:2.0496884386856061e-003
1584:5.1427076137682590e-002
1585:5.8136687587556586e-002
1586:6.5183140114335486e-002
1587:6.9366654184421048e-002
1588:3.7609714338429523e-002
1589:4.5282449213285440e-002
1590:5.3453407637296814e-002
1591:5.8415000905935092e-002
1592:2.0279042888426944e-002
1593:2.8961047556195236e-002
1594:3.8398518411054815e-002
1595:4.4288108577081216e-002
1596:7.5265968548541432e-003
1597:1.6819433771638467e-002
1598:2.7093178732799088e-002
1599:3.3630021096456783e-002
1600:7.1198005122400390e-002
1601:7.4015571948726780e-002
1602:7.6515137455826401e-002
1603:7.7543477564257710e-002
1604:6.0638334249680063e-002
1605:6.4182714235623758e-002
1606:6.7608295492754850e-002
1607:6.9318597231998111e-002
1608:4.6989935715650744e-002
1609:5.1407739509166356e-002
1610:5.5927981636359377e-002
1611:5.8444506982024857e-002
1612:3.6670982036773277e-002
1613:4.1696271549597076e-002
1614:4.6963749276686749e-002
1615:5.0031457785681722e-002
1616:7.7784037957563820e-002
1617:7.7714609167733734e-002
1618:7.6628096932834899e-002
1619:7.5046020555570900e-002
1620:6.9908585939689225e-002
1621:7.0451917967108701e-002
1622:7.0089509474647385e-002
1623:6.9015826894765320e-002
1624:5.9452237082981980e-002
1625:6.0744587684511187e-002
1626:6.1293222964462303e-002
1627:6.0871639311049316e-002
1628:5.1328985055487157e-002
1629:5.3154998039358407e-002
1630:5.4374476100358067e-002
1631:5.4443407346576933e-002
1632:7.3940824620120887e-002
1633:7.1363161267645331e-002
1634:6.6996237561627855e-002
1635:6.2868042089792228e-002
1636:6.8168911838188656e-002
1637:6.6063931269122092e-002
1638:6.2292564571958815e-002
1639:5.8604992548043515e-002
1640:6.0357874752074950e-002
1641:5.8864271872240408e-002
1642:5.5870502183118273e-002
1643:5.2767714099814234e-002
1644:5.4181782971073102e-002
1645:5.3150907179031377e-002
1646:5.0748447799719910e-002
1647:4.8095387705378231e-002
1648:6.0384176709693857e-002
1649:5.5121080348564951e-002
1650:4.7036677669366721e-002
1651:3.9885900573979199e-002
1652:5.6351167385627642e-002
1653:5.1525237747964719e-002
1654:4.4031788106393632e-002
1655:3.7356160991133411e-002
1656:5.0823594850408160e-002
1657:4.6591521697370200e-002
1658:3.9907907388853962e-002
1659:3.3886366397956807e-002
1660:4.6392074498548874e-002
1661:4.2626188762419491e-002
1662:3.6584952100197521e-002
1663:3.1085514006328523e-002
1664:3.5723815042981687e-002
1665:2.7122839347164425e-002
1666:1.4284100331391920e-002
1667:3.1674603364563567e-003
1668:3.3458315372718074e-002
1669:2.5398596387238483e-002
1670:1.3367548114278314e-002
1671:2.9549384354651703e-003
1672:3.0352705009405744e-002
1673:2.3041610398594804e-002
1674:1.2132760474682116e-002
1675:2.7015252415339168e-003
1676:2.7843119875808252e-002
1677:2.1130657655360662e-002
1678:1.1118816842316644e-002
1679:2.4717898768120633e-003
1680:-1.2045666673426725e-001
1681:-2.4665956831217861e-001
1682:-3.8928890307586678e-001
1683:-4.6734315406715610e-001
1684:-5.6404186523484980e-002
1685:-1.3944965100578391e-001
1686:-2.4451776478891304e-001
1687:-3.1557209557985527e-001
1688:-2.0238490979701637e-002
1689:-8.1740489228461152e-002
1690:-1.6039530509154235e-001
1691:-2.1831899064703100e-001
1692:-1.3306654163103313e-002
1693:-7.2134747082666401e-002
1694:-1.4326418893415821e-001
1695:-1.9381944703173981e-001
1696:-4.9448165576781067e-001
1697:-5.3231970601898571e-001
1698:-5.6206177922750811e-001
1699:-5.7219978212190259e-001
1700:-3.4799890335296313e-001
1701:-3.9779893600112465e-001
1702:-4.4408311473267847e-001
1703:-4.6792853799888734e-001
1704:-2.4775097286848352e-001
1705:-2.9593302964865931e-001
1706:-3.4646779516245524e-001
1707:-3.7796347947347592e-001
1708:-2.1933980882221593e-001
1709:-2.6271693447379330e-001
1710:-3.1129344703222528e-001
1711:-3.4353914585947010e-001
1712:-5.7353593174826045e-001
1713:-5.6525842701165563e-001
1714:-5.4052123842618860e-001
1715:-5.1841113877793255e-001
1716:-4.7727972374497235e-001
1717:-4.8875964736061606e-001
1718:-4.9380874155604693e-001
1719:-4.9199857024979271e-001
1720:-3.9287434110000857e-001
1721:-4.1795380701178680e-001
1722:-4.4316728978499342e-001
1723:-4.5499109333687027e-001
1724:-3.5929671126988688e-001
1725:-3.8594127388518457e-001
1726:-4.1298238700272533e-001
1727:-4.2600905207696588e-001
1728:-5.0775849656815208e-001
1729:-4.9052664680317049e-001
1730:-4.6923252814880917e-001
1731:-4.5001998100427892e-001
1732:-4.8960115930259707e-001
1733:-4.8256970977855079e-001
1734:-4.6687444621898949e-001
1735:-4.4842855640457735e-001
1736:-4.5814675902877100e-001
1737:-4.5852057338792118e-001
1738:-4.4865908320495157e-001
1739:-4.3353191063923441e-001
1740:-4.2974703737958719e-001
1741:-4.3155311507155186e-001
1742:-4.2468704233802551e-001
1743:-4.1306539480933246e-001
1744:-4.3778287339501065e-001
1745:-4.1318498227925154e-001
1746:-3.7836629092440244e-001
1747:-3.4947753563030698e-001
1748:-4.3605173685050364e-001
1749:-4.1065579279438225e-001
1750:-3.7485344316791269e-001
1751:-3.4630413536489202e-001
1752:-4.2298545560991135e-001
1753:-4.0048946261484181e-001
1754:-3.6770293308042806e-001
1755:-3.4134216808132800e-001
1756:-4.0486938697859837e-001
1757:-3.8679822961281052e-001
1758:-3.5925865339654789e-001
1759:-3.3618049391447080e-001
1760:-3.3330459901679110e-001
1761:-3.0231319434520226e-001
1762:-2.6174361800785867e-001
1763:-2.3144658295661288e-001
1764:-3.3099568578146277e-001
1765:-3.0260784333590257e-001
1766:-2.6624676698677113e-001
1767:-2.3884730986526315e-001
1768:-3.2731160293491562e-001
1769:-3.0179980100786363e-001
1770:-2.6960653502634979e-001
1771:-2.4519303105797705e-001
1772:-3.2355544102758982e-001
1773:-3.0032631511054353e-001
1774:-2.7064071707185400e-001
1775:-2.4793101435042877e-001
1776:-2.1587413479542000e-001
1777:-1.8822060426475484e-001
1778:-1.5493483922047341e-001
1779:-1.3123947115689433e-001
1780:-2.2443333730126996e-001
1781:-1.9835848572618722e-001
1782:-1.6633705192302967e-001
1783:-1.4328861594076844e-001
1784:-2.3214007135562573e-001
1785:-2.0814071187480190e-001
1786:-1.7810223920954998e-001
1787:-1.5620715877375166e-001
1788:-2.3574625971595461e-001
1789:-2.1324134194622921e-001
1790:-1.8487238518531815e-001
1791:-1.6404451922740837e-001
1792:-1.1917998470464790e-001
1793:-9.7928174902967569e-002
1794:-7.2965695605158781e-002
1795:-5.5937428125012637e-002
1796:-1.3153807628740324e-001
1797:-1.1072060351645290e-001
1798:-8.6005332093545925e-002
1799:-6.8916360922704339e-002
1800:-1.4499245774147759e-001
1801:-1.2497287552273668e-001
1802:-1.0086616327349784e-001
1803:-8.3907760609094370e-002
1804:-1.5332292564298541e-001
1805:-1.3406773833192942e-001
1806:-1.1063713042780303e-001
1807:-9.3949298135647522e-002
1808:-4.7591647781778948e-002
1809:-3.3052897284245250e-002
1810:-1.6143380567876401e-002
1811:-4.6749810367032844e-003
1812:-6.0455460587387121e-002
1813:-4.5674666870345083e-002
1814:-2.8408934605682518e-002
1815:-1.6621152179542926e-002
1816:-7.5404327012278796e-002
1817:-6.0480551071499772e-002
1818:-4.2940131705090784e-002
1819:-3.0879185880381906e-002
1820:-8.5506016945272739e-002
1821:-7.0616204633559221e-002
1822:-5.3005891183082812e-002
1823:-4.0826769684476148e-002
1824:9.3170433084867441e-004
1825:1.0499749403681324e-002
1826:2.1175076184188242e-002
1827:2.8033375598403968e-002
1828:-1.0822091665047107e-002
1829:-8.3375440361009969e-004
1830:1.0480132434890434e-002
1831:1.7869483785022299e-002
1832:-2.4912213681949812e-002
1833:-1.4542489699330283e-002
1834:-2.6127790040360076e-003
1835:5.3230423722757970e-003
1836:-3.4780226644841754e-002
1837:-2.4224317831240794e-002
1838:-1.1974255013671626e-002
1839:-3.7307865640538035e-003
1840:3.1244066222115452e-002
1841:3.6569638646337256e-002
1842:4.2202086908694779e-002
1843:4.5539594058988497e-002
1844:2.1367968628321684e-002
1845:2.7209010745438699e-002
1846:3.3475464057677880e-002
1847:3.7283915232664382e-002
1848:9.1319236079417648e-003
1849:1.5546684697312086e-002
1850:2.2542299873397009e-002
1851:2.6900704397541331e-002
1852:2.6337470616323902e-004
1853:7.0383229424764472e-003
1854:1.4516862959289299e-002
1855:1.9249914002673386e-002
1856:4.6980531460812311e-002
1857:4.9075766369841227e-002
1858:5.0641599677678124e-002
1859:5.0967672733578578e-002
1860:3.8974968043597555e-002
1861:4.1541481920447855e-002
1862:4.3719338270023236e-002
1863:4.4505910270082327e-002
1864:2.8883690248019431e-002
1865:3.2000799850832297e-002
1866:3.4900372065364650e-002
1867:3.6239946087346708e-002
1868:2.1432613214967935e-002
1869:2.4925554980321118e-002
1870:2.8320370520983611e-002
1871:3.0045492835696404e-002
1872:5.0838895688747866e-002
1873:5.0051666351446270e-002
1874:4.7960980305068013e-002
1875:4.5546246479269699e-002
1876:4.4617708190856940e-002
1877:4.4275102957994382e-002
1878:4.2758531990323062e-002
1879:4.0785497063908806e-002
1880:3.6645597128982660e-002
1881:3.6853692953593878e-002
1882:3.6059745384391752e-002
1883:3.4648641799279380e-002
1884:3.0659370880957142e-002
1885:3.1263838962487960e-002
1886:3.0999456751662501e-002
1887:3.0005036096748261e-002
1888:4.3971247142595378e-002
1889:4.0455422371238468e-002
1890:3.4761435388289991e-002
1891:2.9545701296260187e-002
1892:3.9448979636710686e-002
1893:3.6399660058140992e-002
1894:3.1357180643980562e-002
1895:2.6676601459870067e-002
1896:3.3616760804891732e-002
1897:3.1165797142901967e-002
1898:2.6964454852075222e-002
1899:2.2979401850074441e-002
1900:2.9200036973262039e-002
1901:2.7195960417226168e-002
1902:2.3625766712078930e-002
1903:2.0165252785816684e-002
1904:2.6461869578881851e-002
1905:2.0074704904759565e-002
1906:1.0549035934078473e-002
1907:2.3262084727701561e-003
1908:2.3892768021484202e-002
1909:1.8120487844720753e-002
1910:9.5117664442219366e-003
1911:2.0871561963991493e-003
1912:2.0587007718482531e-002
1913:1.5616396271858743e-002
1914:8.2002412329184940e-003
1915:1.8108397366428473e-003
1916:1.8069000088213053e-002
1917:1.3704667525434764e-002
1918:7.1888880210693989e-003
1919:1.5793585595831280e-003
1920:-1.2292839447702342e-002
1921:-7.0642542982895601e-002
1922:-1.4056272258684269e-001
1923:-1.8958480397968350e-001
1924:-1.1411625282427099e-002
1925:-6.6246880503511157e-002
1926:-1.3258369869854120e-001
1927:-1.7926617119329008e-001
1928:-1.1429717528130661e-002
1929:-5.8787657434806594e-002
1930:-1.1820330786796757e-001
1931:-1.6151117652724378e-001
1932:-1.1692644404667269e-002
1933:-5.3550884330545979e-002
1934:-1.0734626273751377e-001
1935:-1.4752796456875611e-001
1936:-2.1409861252791554e-001
1937:-2.5633416646837109e-001
1938:-3.0431600035716205e-001
1939:-3.3603077869350051e-001
1940:-2.0262632935797523e-001
1941:-2.4359267208558644e-001
1942:-2.9072948327858206e-001
1943:-3.2136920400452285e-001
1944:-1.8365995790648729e-001
1945:-2.2286677547633457e-001
1946:-2.6810740617846096e-001
1947:-2.9713024985498154e-001
1948:-1.6838472861699236e-001
1949:-2.0519262699375709e-001
1950:-2.4756250108008832e-001
1951:-2.7491254558226613e-001
1952:-3.5123276327801706e-001
1953:-3.7601887276487855e-001
1954:-3.9991447853891982e-001
1955:-4.1083703937105609e-001
1956:-3.3552066638180850e-001
1957:-3.5727639901584074e-001
1958:-3.7652937971858103e-001
1959:-3.8466620034696802e-001
1960:-3.1023246683162370e-001
1961:-3.2990817260339134e-001
1962:-3.4702079934974533e-001
1963:-3.5463814492854590e-001
1964:-2.8742248357275996e-001
1965:-3.0680881976511459e-001
1966:-3.2492498821391752e-001
1967:-3.3411405753817991e-001
1968:-4.1382384026020386e-001
1969:-4.1514003647476405e-001
1970:-4.0929788337187245e-001
1971:-3.9959377634403342e-001
1972:-3.8682158282462631e-001
1973:-3.8784347810054953e-001
1974:-3.8378128687627783e-001
1975:-3.7684396172899126e-001
1976:-3.5708624638146902e-001
1977:-3.5926360890669118e-001
1978:-3.5757676592842413e-001
1979:-3.5293973829221875e-001
1980:-3.3758446617529381e-001
1981:-3.4155479404107458e-001
1982:-3.4184518172973444e-001
1983:-3.3841789888073126e-001
1984:-3.9276160935046922e-001
1985:-3.7747466882072761e-001
1986:-3.5351329515086488e-001
1987:-3.3274303527728044e-001
1988:-3.7189936361012232e-001
1989:-3.6062273431987835e-001
1990:-3.4214675162258240e-001
1991:-3.2519529938611952e-001
1992:-3.4935370007437067e-001
1993:-3.4109111292451916e-001
1994:-3.2716152882801658e-001
1995:-3.1383433260724392e-001
1996:-3.3537563070480780e-001
1997:-3.2823656984324490e-001
1998:-3.1611326367459508e-001
1999:-3.0450362137001863e-001
2000:-3.2108127901517480e-001
2001:-2.9921904005016081e-001
2002:-2.7074235436329058e-001
2003:-2.4876519479640080e-001
2004:-3.1525577257589993e-001
2005:-2.9594439731838773e-001
2006:-2.6985446353143233e-001
2007:-2.4935204455033874e-001
2008:-3.0575962274446455e-001
2009:-2.8949260740757327e-001
2010:-2.6664699472801418e-001
2011:-2.4827982630773215e-001
2012:-2.9747024285256429e-001
2013:-2.8315445511771475e-001
2014:-2.6274304403434534e-001
2015:-2.4610545930275268e-001
2016:-2.3697321280930222e-001
2017:-2.1520666774771957e-001
2018:-1.8774612882789032e-001
2019:-1.6752874011448629e-001
2020:-2.3832663311561936e-001
2021:-2.1796272976766179e-001
2022:-1.9217479676810242e-001
2023:-1.7305132747139343e-001
2024:-2.3832675964824271e-001
2025:-2.1983735334301793e-001
2026:-1.9617167009023831e-001
2027:-1.7838797037172366e-001
2028:-2.3700930275439078e-001
2029:-2.1997197612120450e-001
2030:-1.9789828360391742e-001
2031:-1.8111056761079258e-001
2032:-1.5708945991106660e-001
2033:-1.3828232675244501e-001
2034:-1.1527772797521701e-001
2035:-9.8794878462686683e-002
2036:-1.6311069640358475e-001
2037:-1.4511232679719657e-001
2038:-1.2292644587143517e-001
2039:-1.0689282978966755e-001
2040:-1.6905254856954507e-001
2041:-1.5206086558188628e-001
2042:-1.3096321837606067e-001
2043:-1.1560110334022980e-001
2044:-1.7223141183175628e-001
2045:-1.5600771841119310e-001
2046:-1.3576252131667871e-001
2047:-1.2095153445470908e-001
2048:-9.0418918558187608e-002
2049:-7.5601233500669454e-002
2050:-5.8002856900553672e-002
2051:-4.5787957270655981e-002
2052:-9.8694261824538512e-002
2053:-8.4104646099039254e-002
2054:-6.6629860852578202e-002
2055:-5.4404083648427186e-002
2056:-1.0770412992287882e-001
2057:-9.3552181117488808e-002
2058:-7.6413518808357325e-002
2059:-6.4285951004382558e-002
2060:-1.1331448800611016e-001
2061:-9.9568034778280967e-002
2062:-8.2796756542771119e-002
2063:-7.0830746699445862e-002
2064:-3.9712003570373008e-002
2065:-2.9087134113461748e-002
2066:-1.6713938014513631e-002
2067:-8.3445173992472282e-003
2068:-4.8294408945126703e-002
2069:-3.7579393714204927e-002
2070:-2.5031140343116480e-002
2071:-1.6475208569660720e-002
2072:-5.8180682647024903e-002
2073:-4.7430638902065198e-002
2074:-3.4758381183894141e-002
2075:-2.6045411052634408e-002
2076:-6.4771866394073507e-002
2077:-5.4066058281158923e-002
2078:-4.1379491531626934e-002
2079:-3.2605627025744620e-002
2080:-4.2707656696493396e-003
2081:2.6668398903231488e-003
2082:1.0374983896832354e-002
2083:1.5291319722009832e-002
2084:-1.2281632736955317e-002
2085:-5.0919643875326753e-003
2086:2.9856497656860132e-003
2087:8.2067157108875986e-003
2088:-2.1745853564582550e-002
2089:-1.4321502625190949e-002
2090:-5.8767572788955471e-003
2091:-3.3513566100132304e-004
2092:-2.8257646719607860e-002
2093:-2.0716580611071421e-002
2094:-1.2071568790419649e-002
2095:-6.3416596687128528e-003
2096:1.7572446472221528e-002
2097:2.1250152549013655e-002
2098:2.4888806706097916e-002
2099:2.6805458524700898e-002
2100:1.0654787065271981e-002
2101:1.4649094123619465e-002
2102:1.8710609638891169e-002
2103:2.0962559970582526e-002
2104:2.2949227550610103e-003
2105:6.6422016147850167e-003
2106:1.1187343414313457e-002
2107:1.3829764706064014e-002
2108:-3.5998944983083006e-003
2109:9.7118895103295226e-004
2110:5.8342597115160809e-003
2111:8.7397412649361326e-003
2112:2.7523803217028298e-002
2113:2.8329342713457138e-002
2114:2.8337079290759789e-002
2115:2.7558611682529082e-002
2116:2.1864693688411947e-002
2117:2.3026001031103874e-002
2118:2.3519324482226291e-002
2119:2.3129388173867914e-002
2120:1.4947687540801488e-002
2121:1.6530014103162304e-002
2122:1.7605037278356800e-002
2123:1.7686310662825708e-002
2124:1.0004609566194277e-002
2125:1.1876050113059469e-002
2126:1.3355619331044288e-002
2127:1.3768794258129206e-002
2128:2.6871587603617100e-002
2129:2.5100204763602967e-002
2130:2.1859391065169709e-002
2131:1.8673324560692241e-002
2132:2.2655714886113679e-002
2133:2.1306555336306189e-002
2134:1.8665615675714332e-002
2135:1.5980659874485419e-002
2136:1.7473474554150239e-002
2137:1.6643187464360332e-002
2138:1.4743452999624360e-002
2139:1.2679826536391407e-002
2140:1.3741192792805026e-002
2141:1.3281212696790144e-002
2142:1.1913091594820730e-002
2143:1.0296425588992403e-002
2144:1.6732275161348339e-002
2145:1.2685670410733332e-002
2146:6.6413867518265966e-003
2147:1.4397965221903560e-003
2148:1.4323288742600439e-002
2149:1.0857172474677228e-002
2150:5.6734586027470694e-003
2151:1.2156207727058771e-003
2152:1.1374618569532039e-002
2153:8.6284509271727337e-003
2154:4.5101325784808145e-003
2155:9.7137044980810184e-004
2156:9.2447732847347457e-003
2157:7.0162995600648401e-003
2158:3.6623804198053452e-003
2159:7.8161120611529799e-004
2160:-1.1709792604773187e-002
2161:-5.1418572535924710e-002
2162:-1.0254069749619799e-001
2163:-1.4082434653925929e-001
2164:-1.1146918305326752e-002
2165:-4.8015202109567341e-002
2166:-9.5118048668180591e-002
2167:-1.3017010289551367e-001
2168:-9.6503764173372069e-003
2169:-4.4022122161837714e-002
2170:-8.7196226740325483e-002
2171:-1.1880537183208927e-001
2172:-8.3464249040469118e-003
2173:-4.0817396587143687e-002
2174:-8.1364318465539223e-002
2175:-1.1088508119543386e-001
2176:-1.6072372487687284e-001
2177:-1.9567136514164388e-001
2178:-2.3586284468085644e-001
2179:-2.6212122441430730e-001
2180:-1.4831580791239626e-001
2181:-1.7996545549675488e-001
2182:-2.1643128623707270e-001
2183:-2.4082891778498436e-001
2184:-1.3500878602946143e-001
2185:-1.6325281280952283e-001
2186:-1.9610694422962816e-001
2187:-2.1863391227084028e-001
2188:-1.2598117287458385e-001
2189:-1.5250289248066379e-001
2190:-1.8371435751670306e-001
2191:-2.0529197245872935e-001
2192:-2.7437485751178914e-001
2193:-2.9397561414815937e-001
2194:-3.1333600050314575e-001
2195:-3.2383978899760851e-001
2196:-2.5261016803472230e-001
2197:-2.7232143735129916e-001
2198:-2.9317577534046080e-001
2199:-3.0530503263260989e-001
2200:-2.2980747922368028e-001
2201:-2.4898116137702633e-001
2202:-2.6996935098850916e-001
2203:-2.8254904475964271e-001
2204:-2.1601730393287477e-001
2205:-2.3433952941899899e-001
2206:-2.5429090540627897e-001
2207:-2.6623870594953458e-001
2208:-3.2801848113819265e-001
2209:-3.3312994406951102e-001
2210:-3.3453736179959032e-001
2211:-3.3170220245803811e-001
2212:-3.1035344796284353e-001
2213:-3.1697669431040015e-001
2214:-3.2014875782816016e-001
2215:-3.1853533551497137e-001
2216:-2.8788586356177448e-001
2217:-2.9530398774670541e-001
2218:-3.0005684848575931e-001
2219:-3.0007148931415673e-001
2220:-2.7133841304731304e-001
2221:-2.7869688002874249e-001
2222:-2.8413342651840506e-001
2223:-2.8522684812051374e-001
2224:-3.2889146890287685e-001
2225:-3.2212187631708239e-001
2226:-3.1051968823352405e-001
2227:-2.9947956549845411e-001
2228:-3.1633133224232224e-001
2229:-3.1055033515349423e-001
2230:-3.0014829294188899e-001
2231:-2.9016656077573044e-001
2232:-2.9886079869339388e-001
2233:-2.9481337230084570e-001
2234:-2.8645852714193276e-001
2235:-2.7799160731392170e-001
2236:-2.8476283537571662e-001
2237:-2.8213582650857405e-001
2238:-2.7557021828622436e-001
2239:-2.6838729869299449e-001
2240:-2.9284733914505456e-001
2241:-2.7939545261036691e-001
2242:-2.6021052911457576e-001
2243:-2.4449681808241769e-001
2244:-2.8420693746557901e-001
2245:-2.7218864548045113e-001
2246:-2.5504479416168324e-001
2247:-2.4088450836135269e-001
2248:-2.7285631712696878e-001
2249:-2.6247985866507811e-001
2250:-2.4757591455611466e-001
2251:-2.3511596535478624e-001
2252:-2.6389675544898988e-001
2253:-2.5470043341356258e-001
2254:-2.4129050593284618e-001
2255:-2.2994225612198682e-001
2256:-2.3585896804521383e-001
2257:-2.1958975881067813e-001
2258:-1.9835303847723970e-001
2259:-1.8209609584400324e-001
2260:-2.3302717727580463e-001
2261:-2.1809139683516321e-001
2262:-1.9836087220172724e-001
2263:-1.8310431510590158e-001
2264:-2.2813056758886846e-001
2265:-2.1473327540775150e-001
2266:-1.9683395685293251e-001
2267:-1.8286343484265336e-001
2268:-2.2353717366001999e-001
2269:-2.1119288374620931e-001
2270:-1.9459602128156844e-001
2271:-1.8157084091097395e-001
2272:-1.7346588135280078e-001
2273:-1.5766093789782407e-001
2274:-1.3787805938666248e-001
2275:-1.2336497378630926e-001
2276:-1.7495940734839813e-001
2277:-1.5997097109882277e-001
2278:-1.4107930695344240e-001
2279:-1.2712778899822810e-001
2280:-1.7536464514822500e-001
2281:-1.6147043623418933e-001
2282:-1.4377359672786974e-001
2283:-1.3056791481511762e-001
2284:-1.7455541432894503e-001
2285:-1.6149127366471874e-001
2286:-1.4471960731060080e-001
2287:-1.3210317798867113e-001
2288:-1.1586885790775861e-001
2289:-1.0235112686612662e-001
2290:-8.5805556735621721e-002
2291:-7.3955116094367279e-002
2292:-1.1989210286298242e-001
2293:-1.0680400828966261e-001
2294:-9.0703235234586913e-002
2295:-7.9102873374399224e-002
2296:-1.2367390610241763e-001
2297:-1.1115813898197163e-001
2298:-9.5677183542496561e-002
2299:-8.4455632502243722e-002
2300:-1.2548238311262627e-001
2301:-1.1342760588027270e-001
2302:-9.8455683871135957e-002
2303:-8.7557117780173388e-002
2304:-6.7937552539654347e-002
2305:-5.7282451301564577e-002
2306:-4.4617036997075671e-002
2307:-3.5829826351934095e-002
2308:-7.3186219556444956e-002
2309:-6.2669405470018036e-002
2310:-5.0094998621637153e-002
2311:-4.1317204305766506e-002
2312:-7.8706911587002326e-002
2313:-6.8441026893798843e-002
2314:-5.6075941786438301e-002
2315:-4.7375653027925353e-002
2316:-8.1957610176132914e-002
2317:-7.1926590246139885e-002
2318:-5.9782397771999285e-002
2319:-5.1189249813884258e-002
2320:-3.1465890603103903e-002
2321:-2.3882077841415918e-002
2322:-1.5156583366785136e-002
2323:-9.3459020287151463e-003
2324:-3.6939829893392916e-002
2325:-2.9306344473207860e-002
2326:-2.0469740665895471e-002
2327:-1.4538344443956300e-002
2328:-4.3013239347755826e-002
2329:-3.5374180673822003e-002
2330:-2.6468106934267731e-002
2331:-2.0436621990642286e-002
2332:-4.6863473639628256e-002
2333:-3.9265697054911425e-002
2334:-3.0363124738262359e-002
2335:-2.4297063066940832e-002
2336:-6.5544499168900972e-003
2337:-1.8807957456809642e-003
2338:3.1327766438119533e-003
2339:6.1654647190353060e-003
2340:-1.1670178077007867e-002
2341:-6.8339184531958355e-003
2342:-1.5743001974254604e-003
2343:1.6712954861572123e-003
2344:-1.7498986693839171e-002
2345:-1.2506639275125839e-002
2346:-6.9956017317910815e-003
2347:-3.5223973497714232e-003
2348:-2.1328353851295175e-002
2349:-1.6257273282661331e-002
2350:-1.0605090615307599e-002
2351:-6.9952196403407670e-003
2352:7.5020521007157451e-003
2353:9.5154735451756668e-003
2354:1.1195501792119769e-002
2355:1.1774594145224533e-002
2356:3.1294538362022120e-003
2357:5.3857671249946410e-003
2358:7.4126690623995501e-003
2359:8.2815620986743527e-003
2360:-1.9311477776646885e-003
2361:5.9567286715490539e-004
2362:3.0168907141332811e-003
2363:4.2205355952711996e-003
2364:-5.3214063654298139e-003
2365:-2.6228913450040215e-003
2366:5.5248956609854708e-005
2367:1.4813112853809907e-003
2368:1.1840106135446928e-002
2369:1.1566848893599225e-002
2370:1.0467583574358116e-002
2371:9.0773361280987105e-003
2372:8.5105299864357328e-003
2373:8.5657954194877806e-003
2374:7.9405922661077866e-003
2375:6.9501240383312160e-003
2376:4.6398800694984121e-003
2377:5.0791487782285462e-003
2378:5.0099746840839470e-003
2379:4.4894139522459282e-003
2380:2.0283906689480885e-003
2381:2.7263909005621643e-003
2382:3.0333336005573929e-003
2383:2.8313913021131096e-003
2384:8.1541779693933628e-003
2385:6.1877728457488488e-003
2386:3.2201274475565406e-003
2387:6.7130242502986778e-004
2388:6.2539324370042291e-003
2389:4.7498855894791596e-003
2390:2.4623354215302720e-003
2391:4.9675753776918727e-004
2392:4.0601452718407221e-003
2393:3.0983965933919339e-003
2394:1.6050097010222438e-003
2395:3.1760359173981130e-004
2396:2.5831860931926640e-003
2397:1.9877513031141430e-003
2398:1.0272199916031793e-003
2399:1.9197436463167769e-004
2400:-7.7352883884623169e-003
2401:-3.8951309527806913e-002
2402:-7.8054903093146361e-002
2403:-1.0663003000409250e-001
2404:-6.9901434132384043e-003
2405:-3.5750690983681055e-002
2406:-7.2109018536480593e-002
2407:-9.8949607711401516e-002
2408:-6.5858578821517931e-003
2409:-3.2362450476316904e-002
2410:-6.5317790283571403e-002
2411:-8.9943990517260819e-002
2412:-6.4733435997635152e-003
2413:-3.0418799255913793e-002
2414:-6.1105945448907809e-002
2415:-8.4095899930149640e-002
2416:-1.2129076608919875e-001
2417:-1.4723105580806409e-001
2418:-1.7796563809747531e-001
2419:-1.9920303478874946e-001
2420:-1.1283007686207661e-001
2421:-1.3765978519855857e-001
2422:-1.6736907031227535e-001
2423:-1.8787491852379487e-001
2424:-1.0278975311747127e-001
2425:-1.2593516160674265e-001
2426:-1.5381905530352505e-001
2427:-1.7308952643101541e-001
2428:-9.6106344087682080e-002
2429:-1.1772946612895893e-001
2430:-1.4379963562408582e-001
2431:-1.6189628786695162e-001
2432:-2.0969707669394497e-001
2433:-2.2745137363337117e-001
2434:-2.4656733765905425e-001
2435:-2.5796141981853066e-001
2436:-1.9791730074546607e-001
2437:-2.1469842700572483e-001
2438:-2.3255345111879450e-001
2439:-2.4321969155723958e-001
2440:-1.8249910559854027e-001
2441:-1.9820983483344481e-001
2442:-2.1504332991295197e-001
2443:-2.2533297322090251e-001
2444:-1.7078575747666391e-001
2445:-1.8578924529263871e-001
2446:-2.0218562733437906e-001
2447:-2.1246285277190849e-001
2448:-2.6284692571348778e-001
2449:-2.7003005734761931e-001
2450:-2.7566537479764791e-001
2451:-2.7721470312237206e-001
2452:-2.4786921981568899e-001
2453:-2.5489846173941744e-001
2454:-2.6085255716184419e-001
2455:-2.6300859881938049e-001
2456:-2.2995117921219724e-001
2457:-2.3707671140759753e-001
2458:-2.4339762325261335e-001
2459:-2.4599675946403543e-001
2460:-2.1716605472192171e-001
2461:-2.2447213048329834e-001
2462:-2.3104167374136758e-001
2463:-2.3384210892047208e-001
2464:-2.7708882104081373e-001
2465:-2.7516470423869049e-001
2466:-2.6956631207126819e-001
2467:-2.6310426424466021e-001
2468:-2.6332190947332373e-001
2469:-2.6237936189498690e-001
2470:-2.5826168305602509e-001
2471:-2.5299531857999358e-001
2472:-2.4660317983769237e-001
2473:-2.4641349256277423e-001
2474:-2.4362596337283646e-001
2475:-2.3957882544702311e-001
2476:-2.3456540409571214e-001
2477:-2.3471064922226112e-001
2478:-2.3259642104200087e-001
2479:-2.2923643617234848e-001
2480:-2.5897328329142844e-001
2481:-2.5040305494816056e-001
2482:-2.3774155041899536e-001
2483:-2.2693796551816775e-001
2484:-2.4949301907749000e-001
2485:-2.4203278572853415e-001
2486:-2.3071449736729122e-001
2487:-2.2089661098018373e-001
2488:-2.3677101302302844e-001
2489:-2.3058139492555366e-001
2490:-2.2086018803169280e-001
2491:-2.1224285681520452e-001
2492:-2.2684804449545257e-001
2493:-2.2146416938769309e-001
2494:-2.1281310478101378e-001
2495:-2.0502903750132495e-001
2496:-2.2081941267255664e-001
2497:-2.0900128827893244e-001
2498:-1.9306344255326888e-001
2499:-1.8051950743584705e-001
2500:-2.1529760320702623e-001
2501:-2.0442872107978396e-001
2502:-1.8966779911921822e-001
2503:-1.7797256434817224e-001
2504:-2.0728033822242073e-001
2505:-1.9756974499445890e-001
2506:-1.8423304598029011e-001
2507:-1.7355413915253470e-001
2508:-2.0051337095384003e-001
2509:-1.9161970115920113e-001
2510:-1.7929363638981932e-001
2511:-1.6934002734060380e-001
2512:-1.7375048465348084e-001
2513:-1.6111541283125821e-001
2514:-1.4483418547264859e-001
2515:-1.3253936427833737e-001
2516:-1.7163460017541241e-001
2517:-1.5975860353967181e-001
2518:-1.4436642232210475e-001
2519:-1.3267360219820987e-001
2520:-1.6772902203549414e-001
2521:-1.5676800414527517e-001
2522:-1.4247752089451513e-001
2523:-1.3155767167698593e-001
2524:-1.6388232690726418e-001
2525:-1.5358180717839012e-001
2526:-1.4009848606413838e-001
2527:-1.2975588758243944e-001
2528:-1.2607077861541852e-001
2529:-1.1427309169807229e-001
2530:-9.9585236607495742e-002
2531:-8.8867872757157060e-002
2532:-1.2649721469620451e-001
2533:-1.1519567584413476e-001
2534:-1.0105800255924795e-001
2535:-9.0692375655102159e-002
2536:-1.2576689983152689e-001
2537:-1.1512702112029784e-001
2538:-1.0173251699151439e-001
2539:-9.1848177440888093e-002
2540:-1.2425751542159205e-001
2541:-1.1412590731332009e-001
2542:-1.0131410619630303e-001
2543:-9.1815948583948939e-002
2544:-8.3352831151121909e-002
2545:-7.3458314320001522e-002
2546:-6.1450169493449808e-002
2547:-5.2930083978047250e-002
2548:-8.5341575571109343e-002
2549:-7.5717253425583650e-002
2550:-6.3989557322678831e-002
2551:-5.5630616747076200e-002
2552:-8.6724245159852095e-002
2553:-7.7481211388677543e-002
2554:-6.6167208321010015e-002
2555:-5.8062294690450614e-002
2556:-8.6877174487421993e-002
2557:-7.7950498328187443e-002
2558:-6.6990154878328420e-002
2559:-5.9111354917276142e-002
2560:-4.8632713890240167e-002
2561:-4.1072964097984048e-002
2562:-3.2191907653704076e-002
2563:-2.6121735519213870e-002
2564:-5.1400763284219726e-002
2565:-4.3938919692221252e-002
2566:-3.5132012180011156e-002
2567:-2.9079274325661625e-002
2568:-5.3945994728294672e-002
2569:-4.6660119233429581e-002
2570:-3.8012785893342137e-002
2571:-3.2030628782995334e-002
2572:-5.5099809993167465e-002
2573:-4.7982823995555278e-002
2574:-3.9503276920371720e-002
2575:-3.3610722435292228e-002
2576:-2.3143908969263615e-002
2577:-1.8044701833773071e-002
2578:-1.2334993926536933e-002
2579:-8.6654634956456859e-003
2580:-2.6097481379486153e-002
2581:-2.0970079377930384e-002
2582:-1.5184281043614578e-002
2583:-1.1426897730896236e-002
2584:-2.9068981447422582e-002
2585:-2.3952215727324044e-002
2586:-1.8128599660682691e-002
2587:-1.4303103693893296e-002
2588:-3.0683595316285305e-002
2589:-2.5610751485192085e-002
2590:-1.9804470173122358e-002
2591:-1.5961791406898563e-002
2592:-6.9545036045013048e-003
2593:-4.1771490990311390e-003
2594:-1.3783683656402959e-003
2595:1.5381254004106276e-004
2596:-9.6589276740746740e-003
2597:-6.7573644099237166e-003
2598:-3.7631841983173020e-003
2599:-2.0557701363478568e-003
2600:-1.2485268067761577e-002
2601:-9.4675769983386115e-003
2602:-6.2786038318796344e-003
2603:-4.3890873789984809e-003
2604:-1.4124188326480380e-002
2605:-1.1052108882104389e-002
2606:-7.7592860355870435e-003
2607:-5.7654448306261189e-003
2608:7.6231184618386343e-004
2609:1.5851307319432609e-003
2610:2.0740770400349382e-003
2611:2.0265932785426990e-003
2612:-1.3448937940195270e-003
2613:-3.1319021649871807e-004
2614:4.8148176441000206e-004
2615:6.9404396332709451e-004
2616:-3.5697509060759053e-003
2617:-2.3149985291543288e-003
2618:-1.1915072659133114e-003
2619:-6.9806088255973343e-004
2620:-4.8820367257303441e-003
2621:-3.4939502641001363e-003
2622:-2.1718324069572741e-003
2623:-1.5077040664986552e-003
2624:1.8661828492220153e-003
2625:1.4476553267405961e-003
2626:7.4283428581942222e-004
2627:1.2328883328477982e-004
2628:6.8149435787982478e-004
2629:5.5942480528490201e-004
2630:2.7967526660845700e-004
2631:1.5920038886707575e-005
2632:-5.5081396345118497e-004
2633:-3.5562581647256787e-004
2634:-1.8782142494115284e-004
2635:-8.2961206031965178e-005
2636:-1.2632986497222764e-003
2637:-8.7801552937940544e-004
2638:-4.4869970823941351e-004
2639:-1.3399908967482013e-004
2640:-6.4046179156539264e-003
2641:-2.9601693451685326e-002
2642:-5.9249987666481790e-002
2643:-8.1399661655609759e-002
2644:-6.1007971908181016e-003
2645:-2.7996447753294598e-002
2646:-5.5831241169003620e-002
2647:-7.6511674149249531e-002
2648:-5.4656528709628579e-003
2649:-2.5665952030199203e-002
2650:-5.1242382093355000e-002
2651:-7.0173498152547795e-002
2652:-4.9154719085712740e-003
2653:-2.3705136686823922e-002
2654:-4.7527158656548260e-002
2655:-6.5196658382481440e-002
2656:-9.2946971134704848e-002
2657:-1.1367860708314526e-001
2658:-1.3864823992787956e-001
2659:-1.5604895926533796e-001
2660:-8.7250499944476270e-002
2661:-1.0644648855575874e-001
2662:-1.2953554374582271e-001
2663:-1.4573438187359702e-001
2664:-7.9980368536086741e-002
2665:-9.7477509941014798e-002
2666:-1.1853997173632549e-001
2667:-1.3340899011090063e-001
2668:-7.4367634980584241e-002
2669:-9.0771656972417014e-002
2670:-1.1058283006726130e-001
2671:-1.2460106813603522e-001
2672:-1.6465102738687279e-001
2673:-1.7930204306933722e-001
2674:-1.9553274595495790e-001
2675:-2.0583836584239062e-001
2676:-1.5382534003406073e-001
2677:-1.6778733510606739e-001
2678:-1.8353951785153647e-001
2679:-1.9369799130708623e-001
2680:-1.4089332672085486e-001
2681:-1.5390501997180087e-001
2682:-1.6872454659504307e-001
2683:-1.7834932892005198e-001
2684:-1.3166196210032002e-001
2685:-1.4392132823471812e-001
2686:-1.5786092931116225e-001
2687:-1.6690857047342217e-001
2688:-2.1058831769319636e-001
2689:-2.1798397481995793e-001
2690:-2.2467161531616875e-001
2691:-2.2756953951978434e-001
2692:-1.9841615217500294e-001
2693:-2.0581089348549719e-001
2694:-2.1261886418607506e-001
2695:-2.1570949851682633e-001
2696:-1.8283504985274754e-001
2697:-1.8995128573756276e-001
2698:-1.9671860238336267e-001
2699:-2.0002415409463398e-001
2700:-1.7113046268168530e-001
2701:-1.7789748791346696e-001
2702:-1.8449780756308726e-001
2703:-1.8788729408897684e-001
2704:-2.2835042139022205e-001
2705:-2.2864137417624916e-001
2706:-2.2680470567196809e-001
2707:-2.2373230382818937e-001
2708:-2.1662953598880125e-001
2709:-2.1723019903441990e-001
2710:-2.1590251316984085e-001
2711:-2.1331384560169225e-001
2712:-2.0113960654939919e-001
2713:-2.0215412367000521e-001
2714:-2.0144692670051034e-001
2715:-1.9940457293299979e-001
2716:-1.8911521290076344e-001
2717:-1.9038399667033712e-001
2718:-1.9007706914025441e-001
2719:-1.8839462430770162e-001
2720:-2.2152448822662674e-001
2721:-2.1650327808162606e-001
2722:-2.0835879464242923e-001
2723:-2.0098169751273384e-001
2724:-2.1139981036477129e-001
2725:-2.0697678939863146e-001
2726:-1.9968539134377850e-001
2727:-1.9300402844871084e-001
2728:-1.9780994192542170e-001
2729:-1.9404639233076942e-001
2730:-1.8771602854626770e-001
2731:-1.8183100517863282e-001
2732:-1.8701138840126369e-001
2733:-1.8368918606668033e-001
2734:-1.7801028869571295e-001
2735:-1.7266971313943891e-001
2736:-1.9668679569056874e-001
2737:-1.8820038674864664e-001
2738:-1.7638530000201497e-001
2739:-1.6680393329562068e-001
2740:-1.8908955492584867e-001
2741:-1.8131218726812487e-001
2742:-1.7040266346508426e-001
2743:-1.6149479905940614e-001
2744:-1.7835584574779878e-001
2745:-1.7140771603644689e-001
2746:-1.6158135524976119e-001
2747:-1.5350058670073274e-001
2748:-1.6949623079459403e-001
2749:-1.6312199632266158e-001
2750:-1.5405676446737188e-001
2751:-1.4656822574173742e-001
2752:-1.6153665678205656e-001
2753:-1.5157889879146835e-001
2754:-1.3851501798856922e-001
2755:-1.2847315956118691e-001
2756:-1.5657712461416320e-001
2757:-1.4725051050263163e-001
2758:-1.3496003938384654e-001
2759:-1.2547263391256616e-001
2760:-1.4902038685935765e-001
2761:-1.4048963811678725e-001
2762:-1.2918236346826359e-001
2763:-1.2040404260405883e-001
2764:-1.4240576845790340e-001
2765:-1.3445978003050363e-001
2766:-1.2388616403272826e-001
2767:-1.1564431112676872e-001
2768:-1.2312761062770798e-001
2769:-1.1326439000467743e-001
2770:-1.0076586697757119e-001
2771:-9.1479646252163163e-002
2772:-1.2040878494026327e-001
2773:-1.1104469810332877e-001
2774:-9.9138473185246295e-002
2775:-9.0260710228758367e-002
2776:-1.1570171137591731e-001
2777:-1.0698569466734668e-001
2778:-9.5864261624310096e-002
2779:-8.7540053508846485e-002
2780:-1.1121778488857532e-001
2781:-1.0300097036023173e-001
2782:-9.2493257060555167e-002
2783:-8.4608840739774149e-002
2784:-8.6644003067818873e-002
2785:-7.7895031069334847e-002
2786:-6.7136043546260696e-002
2787:-5.9388203022018256e-002
2788:-8.5626608956939271e-002
2789:-7.7227323558805960e-002
2790:-6.6868961253662665e-002
2791:-5.9385479065510526e-002
2792:-8.3183460812070578e-002
2793:-7.5270395009919638e-002
2794:-6.5478178150675040e-002
2795:-5.8376114400739094e-002
2796:-8.0475124494304620e-002
2797:-7.2956203706721193e-002
2798:-6.3630297539011615e-002
2799:-5.6848653631557319e-002
2800:-5.5438220680950681e-002
2801:-4.8422423765597557e-002
2802:-4.0047652539179031e-002
2803:-3.4215125008242663e-002
2804:-5.5561353462211041e-002
2805:-4.8756070026287922e-002
2806:-4.0606901845187726e-002
2807:-3.4910390741326416e-002
2808:-5.4736776505555092e-002
2809:-4.8247060836790395e-002
2810:-4.0449185122298947e-002
2811:-3.4975614338547262e-002
2812:-5.3367019895973554e-002
2813:-4.7150881643905795e-002
2814:-3.9665824273259431e-002
2815:-3.4397510502185744e-002
2816:-3.1313076513370654e-002
2817:-2.6276171106871585e-002
2818:-2.0495341118781010e-002
2819:-1.6655760664040654e-002
2820:-3.2068110856476692e-002
2821:-2.7122366540120006e-002
2822:-2.1419933134151158e-002
2823:-1.7609440946824553e-002
2824:-3.2235889611584190e-002
2825:-2.7454954581176950e-002
2826:-2.1914138263756319e-002
2827:-1.8186775484826046e-002
2828:-3.1754840917222547e-002
2829:-2.7134687235900727e-002
2830:-2.1762417406361107e-002
2831:-1.8132863188450806e-002
2832:-1.4814082322867754e-002
2833:-1.1725159759012668e-002
2834:-8.3929734200378723e-003
2835:-6.3559491804206112e-003
2836:-1.5772469330005919e-002
2837:-1.2675281600358886e-002
2838:-9.2999722174055676e-003
2839:-7.2056305566363310e-003
2840:-1.6379960227961000e-002
2841:-1.3317211728905064e-002
2842:-9.9448219852026950e-003
2843:-7.8210239437012177e-003
2844:-1.6367301723750741e-002
2845:-1.3364944733521525e-002
2846:-1.0038918337001615e-002
2847:-7.9260561316050731e-003
2848:-5.4451121714553068e-003
2849:-3.9992341843755408e-003
2850:-2.5901073905401431e-003
2851:-1.8507735661132004e-003
2852:-6.2560384474336286e-003
2853:-4.7265429949436824e-003
2854:-3.1889340634321172e-003
2855:-2.3372844186806047e-003
2856:-6.8450365318905877e-003
2857:-5.2533032979221904e-003
2858:-3.6131138344625037e-003
2859:-2.6683940552702148e-003
2860:-6.9476019000070917e-003
2861:-5.3423386361028911e-003
2862:-3.6704672324191314e-003
2863:-2.6926656840266260e-003
2864:-1.5635369437966152e-003
2865:-1.0956705090647059e-003
2866:-5.5569080752793283e-004
2867:-1.5471860222529270e-004
2868:-1.9859640701835480e-003
2869:-1.3971782060487627e-003
2870:-7.0171814109930449e-004
2871:-1.8534869061763315e-004
2872:-2.2636017526446554e-003
2873:-1.5802894701949985e-003
2874:-7.7945833239085813e-004
2875:-1.9981395992325511e-004
2876:-2.2683708052534625e-003
2877:-1.5579256889679297e-003
2878:-7.4675370317823109e-004
2879:-1.8207692605815983e-004
2880:-4.6392409757566354e-003
2881:-2.2613693816611390e-002
2882:-4.5466214545029797e-002
2883:-6.2474994272589408e-002
2884:-4.2277030859788041e-003
2885:-2.0708713050074941e-002
2886:-4.1757520207832868e-002
2887:-5.7511193570217473e-002
2888:-3.8362680829166101e-003
2889:-1.8493835262227934e-002
2890:-3.7262714262198272e-002
2891:-5.1359758931257098e-002
2892:-3.5775985471055830e-003
2893:-1.6949407443726725e-002
2894:-3.4047605984397412e-002
2895:-4.6875792908122882e-002
2896:-7.1327098250006993e-002
2897:-8.7206338435711683e-002
2898:-1.0643647921843094e-001
2899:-1.2004863778720613e-001
2900:-6.5746197537749185e-002
2901:-8.0586885531282418e-002
2902:-9.8640653659387581e-002
2903:-1.1143186583385938e-001
2904:-5.8750445260582235e-002
2905:-7.2111260326639906e-002
2906:-8.8422389919728867e-002
2907:-1.0000066175114823e-001
2908:-5.3597361507167603e-002
2909:-6.5740593007657028e-002
2910:-8.0567119798437739e-002
2911:-9.1110472473293444e-002
2912:-1.2689482781836667e-001
2913:-1.3874901338192527e-001
2914:-1.5218714204568520e-001
2915:-1.6090058936871951e-001
2916:-1.1785257261375498e-001
2917:-1.2893269338155333e-001
2918:-1.4145816538046330e-001
2919:-1.4959077374652341e-001
2920:-1.0581302783429038e-001
2921:-1.1584185266989254e-001
2922:-1.2720557855911360e-001
2923:-1.3463512196475638e-001
2924:-9.6415622228341158e-002
2925:-1.0559513635244816e-001
2926:-1.1605103521654984e-001
2927:-1.2293476446400232e-001
2928:-1.6497195172215862e-001
2929:-1.7153077193437211e-001
2930:-1.7800062320189550e-001
2931:-1.8139088070695722e-001
2932:-1.5340769011228267e-001
2933:-1.5959634397669675e-001
2934:-1.6578150170353742e-001
2935:-1.6909502360383688e-001
2936:-1.3814921237999536e-001
2937:-1.4386449236256588e-001
2938:-1.4960323015704868e-001
2939:-1.5270059018642027e-001
2940:-1.2620810692230192e-001
2941:-1.3152999816484753e-001
2942:-1.3686541441980904e-001
2943:-1.3974040721831826e-001
2944:-1.8265119221841383e-001
2945:-1.8401193416483305e-001
2946:-1.8387859656989930e-001
2947:-1.8236848205143513e-001
2948:-1.7036079410732727e-001
2949:-1.7180384318924488e-001
2950:-1.7191086083891535e-001
2951:-1.7068142474983913e-001
2952:-1.5389587966593704e-001
2953:-1.5531606496816247e-001
2954:-1.5560193454591953e-001
2955:-1.5465875824566425e-001
2956:-1.4085015568001982e-001
2957:-1.4219596350540914e-001
2958:-1.4254697655398962e-001
2959:-1.4176698767307186e-001
2960:-1.8109045472620722e-001
2961:-1.7798883098126353e-001
2962:-1.7263590583241240e-001
2963:-1.6756789481406595e-001
2964:-1.6958474967569026e-001
2965:-1.6686605004945451e-001
2966:-1.6208324488169465e-001
2967:-1.5749697262323492e-001
2968:-1.5376251160475107e-001
2969:-1.5147463764006489e-001
2970:-1.4734845508134695e-001
2971:-1.4333217613102259e-001
2972:-1.4099327172507423e-001
2973:-1.3897720656097112e-001
2974:-1.3528370331432762e-001
2975:-1.3165937890976631e-001
2976:-1.6454547473021461e-001
2977:-1.5845920547235320e-001
2978:-1.4977786330259196e-001
2979:-1.4259019230686742e-001
2980:-1.5474388155601307e-001
2981:-1.4917574042440623e-001
2982:-1.4119205878532506e-001
2983:-1.3455430490433962e-001
2984:-1.4090420505116955e-001
2985:-1.3597341635021815e-001
2986:-1.2886537895818914e-001
2987:-1.2292592340747360e-001
2988:-1.2946139310827637e-001
2989:-1.2499244339408346e-001
2990:-1.1853514421868314e-001
2991:-1.1312261048474223e-001
2992:-1.3859017276772309e-001
2993:-1.3094610599241011e-001
2994:-1.2075681531495981e-001
2995:-1.1279981299700309e-001
2996:-1.3085183132089909e-001
2997:-1.2376479584225356e-001
2998:-1.1429308517262625e-001
2999:-1.0687462041742840e-001
3000:-1.1960286548830527e-001
3001:-1.1323253393829873e-001
3002:-1.0469782735182889e-001
3003:-9.7993493232481105e-002
3004:-1.1008753113753206e-001
3005:-1.0426508145107337e-001
3006:-9.6454795737103360e-002
3007:-9.0309024634643464e-002
3008:-1.0852094064695701e-001
3009:-1.0057274864276887e-001
3010:-9.0397639353467757e-002
3011:-8.2753255854108310e-002
3012:-1.0287725337769765e-001
3013:-9.5443623767309721e-002
3014:-8.5909820545902446e-002
3015:-7.8731372605690228e-002
3016:-9.4373328527369627e-002
3017:-8.7634079333227852e-002
3018:-7.8974486082028089e-002
3019:-7.2437793810629744e-002
3020:-8.6986239366065296e-002
3021:-8.0798248314940396e-002
3022:-7.2839810300968671e-002
3023:-6.6823180670040574e-002
3024:-7.8741768483035920e-002
3025:-7.1440329517670612e-002
3026:-6.2374480226389820e-002
3027:-5.5773812328075018e-002
3028:-7.4958290852922146e-002
3029:-6.8083889794960079e-002
3030:-5.9534151658878799e-002
3031:-5.3296720013664173e-002
3032:-6.8995471467245675e-002
3033:-6.2718733393235637e-002
3034:-5.4901029570907922e-002
3035:-4.9185806760404203e-002
3036:-6.3650791996583606e-002
3037:-5.7865311263742017e-002
3038:-5.0655646523066193e-002
3039:-4.5378632267023947e-002
3040:-5.2382116575252984e-002
3041:-4.6323287010133968e-002
3042:-3.9020532680142959e-002
3043:-3.3873773285951314e-002
3044:-5.0086929480911244e-002
3045:-4.4348125991855981e-002
3046:-3.7420046149216374e-002
3047:-3.2526458214772264e-002
3048:-4.6239869677659980e-002
3049:-4.0968560591832619e-002
3050:-3.4594662386648774e-002
3051:-3.0081606905355118e-002
3052:-4.2655565111951371e-002
3053:-3.7781397553438498e-002
3054:-3.1883020371661658e-002
3055:-2.7700624634064350e-002
3056:-3.1289319585241199e-002
3057:-2.6766991317430672e-002
3058:-2.1500312939743981e-002
3059:-1.7934927719043606e-002
3060:-3.0064634748558257e-002
3061:-2.5750997552160017e-002
3062:-2.0715005449966604e-002
3063:-1.7294588359563486e-002
3064:-2.7806582247627346e-002
3065:-2.3815304779180421e-002
3066:-1.9144659651947612e-002
3067:-1.5961515479580579e-002
3068:-2.5589570892148375e-002
3069:-2.1884014819858060e-002
3070:-1.7542611508682918e-002
3071:-1.4577775500180542e-002
3072:-1.6197756283737406e-002
3073:-1.3239518934940384e-002
3074:-9.9535594098339730e-003
3075:-7.8580969206345757e-003
3076:-1.5623568480006091e-002
3077:-1.2771744442104863e-002
3078:-9.5908354063429617e-003
3079:-7.5503030013218718e-003
3080:-1.4401879202758186e-002
3081:-1.1734644419001882e-002
3082:-8.7482021234864746e-003
3083:-6.8218639805492131e-003
3084:-1.3122372174686345e-002
3085:-1.0630856825279106e-002
3086:-7.8360930461489012e-003
3087:-6.0285986965374532e-003
3088:-6.8844298071917111e-003
3089:-5.2836051021583749e-003
3090:-3.6106588151745183e-003
3091:-2.6279556257309909e-003
3092:-6.5973341960794104e-003
3093:-5.0269189509566017e-003
3094:-3.3808931109947414e-003
3095:-2.4111401854889601e-003
3096:-5.9181369795997946e-003
3097:-4.4285296082659667e-003
3098:-2.8698016103226370e-003
3099:-1.9554545034175586e-003
3100:-5.1788692345930004e-003
3101:-3.7805463113904070e-003
3102:-2.3244014807110910e-003
3103:-1.4775973370764405e-003
3104:-2.2003664824993409e-003
3105:-1.4904764678258895e-003
3106:-6.9725651875175189e-004
3107:-1.6181965000040951e-004
3108:-1.9892175578694734e-003
3109:-1.3045388305448350e-003
3110:-5.8165736074284929e-004
3111:-1.3398137828862992e-004
3112:-1.5609506199448005e-003
3113:-9.4841175827966814e-004
3114:-3.7422064196887794e-004
3115:-9.0836450749543751e-005
3116:-1.1166391434748956e-003
3117:-5.8240888295682319e-004
3118:-1.5291737649118765e-004
3119:-2.0920428522101216e-005
3120:-3.4309134349247003e-003
3121:-1.6154252542157389e-002
3122:-3.2388943110300709e-002
3123:-4.4543899751112608e-002
3124:-3.0879457460577650e-003
3125:-1.4526170695617246e-002
3126:-2.9072698147025747e-002
3127:-3.9932214770516762e-002
3128:-2.5400325099461350e-003
3129:-1.2121440648781548e-002
3130:-2.4277820477722013e-002
3131:-3.3347939678339635e-002
3132:-2.0807933765529837e-003
3133:-1.0084762180121672e-002
3134:-2.0237758794691973e-002
3135:-2.7834145225904897e-002
3136:-5.0903615742377610e-002
3137:-6.2374209223028054e-002
3138:-7.6364201316449706e-002
3139:-8.6322559804546381e-002
3140:-4.5603522509221318e-002
3141:-5.5801269085063700e-002
3142:-6.8210412855046434e-002
3143:-7.7055980838800400e-002
3144:-3.8086095517001178e-002
3145:-4.6581622134058198e-002
3146:-5.6894046524782069e-002
3147:-6.4253286743366930e-002
3148:-3.1814884379062665e-002
3149:-3.8948323840686548e-002
3150:-4.7601820498665182e-002
3151:-5.3781642076319421e-002
3152:-9.1343613105181826e-002
3153:-1.0005144529266874e-001
3154:-1.1000352689836680e-001
3155:-1.1657738779684705e-001
3156:-8.1530704307824942e-002
3157:-8.9313098665746576e-002
3158:-9.8241377774554967e-002
3159:-1.0415909979340413e-001
3160:-6.7986514819284763e-002
3161:-7.4480301673422303e-002
3162:-8.1927536066861789e-002
3163:-8.6861722269657146e-002
3164:-5.6919492002424833e-002
3165:-6.2361864219120981e-002
3166:-6.8576975392037443e-002
3167:-7.2683208673258781e-002
3168:-1.1970927766651035e-001
3169:-1.2479840155552520e-001
3170:-1.2989568262444523e-001
3171:-1.3264171589617102e-001
3172:-1.0698324040032128e-001
3173:-1.1157180078823803e-001
3174:-1.1617150012945243e-001
3175:-1.1865954486674786e-001
3176:-8.9216084241401372e-002
3177:-9.3045722116460602e-002
3178:-9.6900439728930851e-002
3179:-9.9005743523773379e-002
3180:-7.4641298312852988e-002
3181:-7.7828778160633508e-002
3182:-8.1043861378818749e-002
3183:-8.2807125669313530e-002
3184:-1.3370307316238259e-001
3185:-1.3500191455535360e-001
3186:-1.3537166349387406e-001
3187:-1.3466073593609487e-001
3188:-1.1962807879427280e-001
3189:-1.2082966366818364e-001
3190:-1.2121198795754595e-001
3191:-1.2060830497563972e-001
3192:-9.9835699158003804e-002
3193:-1.0087342280754755e-001
3194:-1.0121982871398731e-001
3195:-1.0071992986756133e-001
3196:-8.3505228321109362e-002
3197:-8.4371872557075372e-002
3198:-8.4642904576530439e-002
3199:-8.4200141488443445e-002
3200:-1.3394078529673123e-001
3201:-1.3204848878735567e-001
3202:-1.2856153692178196e-001
3203:-1.2513171717536478e-001
3204:-1.1997699025413579e-001
3205:-1.1830211048779291e-001
3206:-1.1519713202901163e-001
3207:-1.1213478491441982e-001
3208:-1.0018906782736706e-001
3209:-9.8786211310197727e-002
3210:-9.6189947699612088e-002
3211:-9.3625922253948057e-002
3212:-8.3741017041683991e-002
3213:-8.2549164895909286e-002
3214:-8.0363076125703758e-002
3215:-7.8202933490598037e-002
3216:-1.2305047457469995e-001
3217:-1.1882013132782625e-001
3218:-1.1270524017193968e-001
3219:-1.0757319010520329e-001
3220:-1.1027521062152552e-001
3221:-1.0649909838158611e-001
3222:-1.0103957680956048e-001
3223:-9.6448209215585154e-002
3224:-9.2066944291329528e-002
3225:-8.8906645251567912e-002
3226:-8.4339332275406576e-002
3227:-8.0490101306181366e-002
3228:-7.6886407268780224e-002
3229:-7.4221831607281449e-002
3230:-7.0374242820321620e-002
3231:-6.7127361471088068e-002
3232:-1.0469214672215932e-001
3233:-9.9163858883206515e-002
3234:-9.1744686646095988e-002
3235:-8.5902158862306538e-002
3236:-9.3865784906292646e-002
3237:-8.8910629360170620e-002
3238:-8.2257952366284595e-002
3239:-7.7012207297747395e-002
3240:-7.8320603700309355e-002
3241:-7.4163379530093110e-002
3242:-6.8586114100787632e-002
3243:-6.4182086815785466e-002
3244:-6.5295008747990824e-002
3245:-6.1792944645203275e-002
3246:-5.7104235798039298e-002
3247:-5.3398597410400608e-002
3248:-8.2741436004256430e-002
3249:-7.6855191618973473e-002
3250:-6.9283097558510642e-002
3251:-6.3554923313396988e-002
3252:-7.4171081265442571e-002
3253:-6.8881596495485059e-002
3254:-6.2076806716614252e-002
3255:-5.6923830640884930e-002
3256:-6.1792812994719760e-002
3257:-5.7349733753421887e-002
3258:-5.1638331141318328e-002
3259:-4.7308570524065591e-002
3260:-5.1384929190227149e-002
3261:-4.7647035322059245e-002
3262:-4.2849587768447925e-002
3263:-3.9210026521037618e-002
3264:-6.0532912022623120e-002
3265:-5.5022154062266043e-002
3266:-4.8154367943181987e-002
3267:-4.3125026518200119e-002
3268:-5.4202438366037407e-002
3269:-4.9241924974524579e-002
3270:-4.3060950524439465e-002
3271:-3.8530856553519843e-002
3272:-4.5018575314396146e-002
3273:-4.0849277378447867e-002
3274:-3.5659152337176703e-002
3275:-3.1852086318933298e-002
3276:-3.7282388912353331e-002
3277:-3.3778634653175522e-002
3278:-2.9423959447714094e-002
3279:-2.6228235605308355e-002
3280:-4.0528343727672410e-002
3281:-3.5880109027779279e-002
3282:-3.0253770402661081e-002
3283:-2.6261842142945691e-002
3284:-3.6189578363313879e-002
3285:-3.1999135927759208e-002
3286:-2.6926372663976517e-002
3287:-2.3323877283777245e-002
3288:-2.9881778791823892e-002
3289:-2.6358272822962433e-002
3290:-2.2095803624989169e-002
3291:-1.9066256407287915e-002
3292:-2.4572266778501370e-002
3293:-2.1615071023998057e-002
3294:-1.8042866750142168e-002
3295:-1.5503071355482978e-002
3296:-2.4245746960419264e-002
3297:-2.0706435278285650e-002
3298:-1.6558106036657923e-002
3299:-1.3722524105883585e-002
3300:-2.1502596289757123e-002
3301:-1.8305244041804856e-002
3302:-1.4556012774872866e-002
3303:-1.1989432640842930e-002
3304:-1.7532616414179372e-002
3305:-1.4841597164910614e-002
3306:-1.1686518283403811e-002
3307:-9.5234809262406631e-003
3308:-1.4215886697323800e-002
3309:-1.1959585708714585e-002
3310:-9.3166430989961250e-003
3311:-7.5033769810738289e-003
3312:-1.2329308751544523e-002
3313:-9.9434303504730443e-003
3314:-7.2656155983262354e-003
3315:-5.5322140010197196e-003
3316:-1.0726406460737496e-002
3317:-8.5628653051330883e-003
3318:-6.1334850570348163e-003
3319:-4.5593531572870414e-003
3320:-8.4570343549127593e-003
3321:-6.6307891862117533e-003
3322:-4.5810745429990477e-003
3323:-3.2524602087599984e-003
3324:-6.6080975310789675e-003
3325:-5.0761268916618800e-003
3326:-3.3584276280616545e-003
3327:-2.2449667862468456e-003
3328:-4.7167913886729052e-003
3329:-3.3768468970550021e-003
3330:-1.9866723538362551e-003
3331:-1.1833919735217994e-003
3332:-3.8183361312924889e-003
3333:-2.6048622788394280e-003
3334:-1.3571289781837599e-003
3335:-6.4754317643604686e-004
3336:-2.6268036901980277e-003
3337:-1.6086308369830057e-003
3338:-5.7912922379296057e-004
3339:-1.1946448896318270e-005
3340:-1.7204622788236053e-003
3341:-8.7262139130111040e-004
3342:-3.1564087868392302e-005
3343:4.1403188399940713e-004
3344:-8.4390242034888829e-004
3345:-3.5743103276771293e-004
3346:-1.1960454086386377e-005
3347:3.4396630817842712e-005
3348:-3.5399235295506299e-004
3349:3.4765879360383830e-005
3350:2.1797859506904202e-004
3351:1.0543573068772209e-004
3352:2.1263231442470522e-004
3353:4.6562887992453660e-004
3354:4.4642402291401450e-004
3355:1.5084546478410173e-004
3356:5.8066651066763836e-004
3357:7.3011350173955594e-004
3358:5.7905910862005136e-004
3359:1.7975873751252948e-004
3360:-1.8338582371034099e-003
3361:-8.9387862498400764e-003
3362:-1.7955075129996896e-002
3363:-2.4720452174981023e-002
3364:-1.3733169810522764e-003
3365:-6.6952271455294875e-003
3366:-1.3440660567959121e-002
3367:-1.8528040500204686e-002
3368:-7.3337513587464474e-004
3369:-3.5279008208643141e-003
3370:-7.0300394687439205e-003
3371:-9.6913403550335162e-003
3372:-1.7099013471423024e-004
3373:-8.5891109243336550e-004
3374:-1.6511891234448186e-003
3375:-2.2730427559560771e-003
3376:-2.8276502835460127e-002
3377:-3.4652210069000523e-002
3378:-4.2389651948653302e-002
3379:-4.7918427438656166e-002
3380:-2.1218625648480340e-002
3381:-2.6039663294534655e-002
3382:-3.1887704924531669e-002
3383:-3.6075467574242133e-002
3384:-1.1116579347876911e-002
3385:-1.3639791366679763e-002
3386:-1.6668354184897691e-002
3387:-1.8854584910399860e-002
3388:-2.6275165223360970e-003
3389:-3.1878059982344367e-003
3390:-3.7853445361446868e-003
3391:-4.2420778779959810e-003
3392:-5.0726148549642809e-002
3393:-5.5582907018689023e-002
3394:-6.1109860662532788e-002
3395:-6.4755131382291484e-002
3396:-3.8206981916003871e-002
3397:-4.1874982346317015e-002
3398:-4.6023361488412268e-002
3399:-4.8757005856762493e-002
3400:-1.9983263154438088e-002
3401:-2.1905008462670031e-002
3402:-2.4053293000575727e-002
3403:-2.5476759314452480e-002
3404:-4.5070743674953378e-003
3405:-4.9310017516653341e-003
3406:-5.3693660919760886e-003
3407:-5.6712619624837701e-003
3408:-6.6493815213384586e-002
3409:-6.9323471722148464e-002
3410:-7.2174719361082038e-002
3411:-7.3734977473424099e-002
3412:-5.0064905241563575e-002
3413:-5.2187928099635142e-002
3414:-5.4312500121573841e-002
3415:-5.5462255173734570e-002
3416:-2.6167694194471614e-002
3417:-2.7277615212065391e-002
3418:-2.8364076770937219e-002
3419:-2.8937521683570087e-002
3420:-5.8320724300982138e-003
3421:-6.0767313119820341e-003
3422:-6.2953129375632839e-003
3423:-6.4097865819183258e-003
3424:-7.4350614217021063e-002
3425:-7.5106344678999459e-002
3426:-7.5320293192034177e-002
3427:-7.4903227504914405e-002
3428:-5.5910206680292736e-002
3429:-5.6448341821781309e-002
3430:-5.6567269893379603e-002
3431:-5.6220328872486409e-002
3432:-2.9157150841877085e-002
3433:-2.9420287322493466e-002
3434:-2.9465393527359843e-002
3435:-2.9264130798589544e-002
3436:-6.4596264220550519e-003
3437:-6.5386834374768447e-003
3438:-6.5817468075853522e-003
3439:-6.5384760332476517e-003
3440:-7.4483021692597767e-002
3441:-7.3408697878093288e-002
3442:-7.1452702958267889e-002
3443:-6.9518435271004625e-002
3444:-5.5887227319356608e-002
3445:-5.5059492017127898e-002
3446:-5.3572093040948711e-002
3447:-5.2096135253536020e-002
3448:-2.9074879196524302e-002
3449:-2.8624926651956234e-002
3450:-2.7830872349857830e-002
3451:-2.7031990243223260e-002
3452:-6.4828504450993212e-003
3453:-6.3673469045611086e-003
3454:-6.1742418020556316e-003
3455:-5.9633014166146940e-003
3456:-6.8336899545595908e-002
3457:-6.5948035471181082e-002
3458:-6.2501117358264288e-002
3459:-5.9590474898612536e-002
3460:-5.1189759747610308e-002
3461:-4.9367057454974723e-002
3462:-4.6746962202146185e-002
3463:-4.4529573829297724e-002
3464:-2.6535396150001854e-002
3465:-2.5562831951143512e-002
3466:-2.4189261648403904e-002
3467:-2.3013577018010774e-002
3468:-5.8251664044175469e-003
3469:-5.5994444922402020e-003
3470:-5.3213520441641659e-003
3471:-5.0570460101823879e-003
3472:-5.7946811861008536e-002
3473:-5.4812341272927625e-002
3474:-5.0623577160084587e-002
3475:-4.7311621737957436e-002
3476:-4.3273745657581845e-002
3477:-4.0892407271256558e-002
3478:-3.7724547354556860e-002
3479:-3.5215018632227341e-002
3480:-2.2337402919468820e-002
3481:-2.1076300706746386e-002
3482:-1.9419504596640248e-002
3483:-1.8094372406199377e-002
3484:-4.8854250330788119e-003
3485:-4.5956223603466741e-003
3486:-4.2438290552700543e-003
3487:-3.9393215968133478e-003
3488:-4.5509859805481091e-002
3489:-4.2170211270986212e-002
3490:-3.7889629970482432e-002
3491:-3.4640871013915539e-002
3492:-3.3844968574238500e-002
3493:-3.1316589507813276e-002
3494:-2.8088470255330046e-002
3495:-2.5634802189572051e-002
3496:-1.7361032711503278e-002
3497:-1.6028245982926331e-002
3498:-1.4348710428601532e-002
3499:-1.3062459122880279e-002
3500:-3.7542876168981608e-003
3501:-3.4498728092979430e-003
3502:-3.0994277791996008e-003
3503:-2.8125480585184633e-003
3504:-3.2918551023996968e-002
3505:-2.9792110419071999e-002
3506:-2.5911524098266723e-002
3507:-2.3063123803098540e-002
3508:-2.4329861959778244e-002
3509:-2.1969777365411180e-002
3510:-1.9050936032067808e-002
3511:-1.6906331027616628e-002
3512:-1.2369302729691693e-002
3513:-1.1130836664913199e-002
3514:-9.6166043239677198e-003
3515:-8.4977905533156362e-003
3516:-2.6421053825838206e-003
3517:-2.3605550301070313e-003
3518:-2.0422086765272420e-003
3519:-1.7949993425227730e-003
3520:-2.1585905080152498e-002
3521:-1.8951016153075362e-002
3522:-1.5772168760466498e-002
3523:-1.3511840872222496e-002
3524:-1.5791062618916638e-002
3525:-1.3808281171408025e-002
3526:-1.1424360156534200e-002
3527:-9.7281869340501616e-003
3528:-7.9093644186150596e-003
3529:-6.8743135774549744e-003
3530:-5.6430356171353726e-003
3531:-4.7630341658474323e-003
3532:-1.6536229275910298e-003
3533:-1.4214932543545832e-003
3534:-1.1643558218527796e-003
3535:-9.7239930064199967e-004
3536:-1.2365421803564793e-002
3537:-1.0357636351457441e-002
3538:-8.0080102905634772e-003
3539:-6.3956135633906393e-003
3540:-8.8657364836741224e-003
3541:-7.3590194894867659e-003
3542:-5.6007132919648466e-003
3543:-4.3936314556905351e-003
3544:-4.3107956001766975e-003
3545:-3.5270196033186530e-003
3546:-2.6209732896686194e-003
3547:-1.9981559131577809e-003
3548:-8.6538519511152046e-004
3549:-6.8915060476393882e-004
3550:-4.9818497999731543e-004
3551:-3.6521421222481323e-004
3552:-5.5988519653820115e-003
3553:-4.2362898564096176e-003
3554:-2.7096248474900004e-003
3555:-1.7197882353222310e-003
3556:-3.7958966047149660e-003
3557:-2.7754136904482004e-003
3558:-1.6337134271512436e-003
3559:-8.9203779043258357e-004
3560:-1.6875685759133929e-003
3561:-1.1604634428092481e-003
3562:-5.7293118727786828e-004
3563:-1.8702996791664651e-004
3564:-2.9539571993436028e-004
3565:-1.8202061585175628e-004
3566:-5.8874330499176352e-005
3567:2.9536205147241032e-005
3568:-1.2532960929017376e-003
3569:-5.0267385301970557e-004
3570:2.3189290961952465e-004
3571:6.0972287295681029e-004
3572:-5.4148076393977938e-004
3573:1.6976617338216748e-005
3574:5.4774210860441229e-004
3575:8.0362224274335573e-004
3576:-1.7947297663614640e-006
3577:2.8748659757956324e-004
3578:5.4792147005423072e-004
3579:6.5980368969022934e-004
3580:7.7044283559925326e-005
3581:1.4612136074335067e-004
3582:1.9785162416491241e-004
3583:2.1358625917256398e-004
3584:7.4464205583275086e-004
3585:8.4212139014359368e-004
3586:6.3540672275388228e-004
3587:2.0030547163578898e-004
3588:8.8554015660722489e-004
3589:9.1054274349219302e-004
3590:6.5551257612866118e-004
3591:2.1157121869391107e-004
3592:6.8865461911539472e-004
3593:6.7170182944941011e-004
3594:4.6139080332198386e-004
3595:1.1260110996136635e-004
3596:2.1571850548401136e-004
3597:2.0679789089090553e-004
3598:1.0619451752135592e-004
3599:-9.8738017917715436e-005
3600:-2.5277504734834955e-001
3601:-2.2591331447562998e-001
3602:-2.1921076942013659e-001
3603:-2.3498031875445050e-001
3604:-8.7237801983203833e-001
3605:-5.6263463952412318e-001
3606:-2.4313962415927601e-001
3607:-5.0019417752787503e-002
3608:-1.6784565808359291e+000
3609:-1.0091198015518759e+000
3610:-2.9616491430810854e-001
3611:1.5763895064375519e-001
3612:-2.2902736784478130e+000
3613:-1.3533688494383138e+000
3614:-3.5178910218607284e-001
3615:2.9100483710785502e-001
3616:-2.5035248049247982e-001
3617:-2.8014125237387189e-001
3618:-2.8467497397914443e-001
3619:-2.3536676986648916e-001
3620:3.8420084248185632e-002
3621:2.0028241708728148e-001
3622:4.4246065742718721e-001
3623:6.7905136713268088e-001
3624:3.7509546815415806e-001
3625:7.7204523420266591e-001
3626:1.3092667786596521e+000
3627:1.7632004101698184e+000
3628:6.0144387440117608e-001
3629:1.1660688714798051e+000
3630:1.9089884887105517e+000
3631:2.5098654720907891e+000
3632:-1.8370320124143866e-001
3633:-1.4781645581959322e-002
3634:4.3453955681300521e-001
3635:1.0220032958833745e+000
3636:8.2950593740305090e-001
3637:1.1686306436180371e+000
3638:1.7919495744180132e+000
3639:2.4633618141001592e+000
3640:2.0259683804673445e+000
3641:2.5573618720138116e+000
3642:3.3738517726465864e+000
3643:4.1337635072841508e+000
3644:2.8467904452613486e+000
3645:3.5032811036272462e+000
3646:4.4407912275732047e+000
3647:5.2503161819728676e+000
3648:1.4387779815308683e+000
3649:2.4305027815271703e+000
3650:4.1355665320484212e+000
3651:5.7567535107189149e+000
3652:2.9043696479744745e+000
3653:3.9024711115824453e+000
3654:5.5273025833436007e+000
3655:7.0090758555492796e+000
3656:4.5969361113601348e+000
3657:5.5857281288795626e+000
3658:7.0880712430666613e+000
3659:8.3829708886942456e+000
3660:5.7217674556127074e+000
3661:6.6876352524876772e+000
3662:8.0805152047527393e+000
3663:9.2275910118598414e+000
3664:6.7312177190703331e+000
3665:8.7164929143455634e+000
3666:1.1426339719130272e+001
3667:1.3445948548216233e+001
3668:7.8783212418099016e+000
3669:9.5999747556093915e+000
3670:1.1860823681362771e+001
3671:1.3477726076587492e+001
3672:9.1168385611816074e+000
3673:1.0511383461784730e+001
3674:1.2232313436531070e+001
3675:1.3374850791918908e+001
3676:9.8589487777348985e+000
3677:1.1015366186771807e+001
3678:1.2357352283147755e+001
3679:1.3175353659756869e+001
3680:1.4461457136436866e+001
3681:1.6168921269566013e+001
3682:1.7790015613068690e+001
3683:1.8392192768606414e+001
3684:1.4263831165438566e+001
3685:1.5528214307124815e+001
3686:1.6591250535266532e+001
3687:1.6817174771900113e+001
3688:1.3893563312635987e+001
3689:1.4642184541254659e+001
3690:1.5056303161256814e+001
3691:1.4845523218688776e+001
3692:1.3513702112379329e+001
3693:1.3917116967731900e+001
3694:1.3901857520665104e+001
3695:1.3406558179171306e+001
3696:1.8438844375431870e+001
3697:1.8001111927974357e+001
3698:1.6506831392059564e+001
3699:1.4742575879049483e+001
3700:1.6691667529206029e+001
3701:1.5997567560493504e+001
3702:1.4302531493735822e+001
3703:1.2488154394591781e+001
3704:1.4521114136564167e+001
3705:1.3540318318731746e+001
3706:1.1638614619597291e+001
3707:9.7893245371028534e+000
3708:1.2954893794524585e+001
3709:1.1800048611921039e+001
3710:9.7912938850875832e+000
3711:7.9434804579267198e+000
3712:1.3608078333200334e+001
3713:1.1198652616255258e+001
3714:7.7597244861661148e+000
3715:5.1065995331666123e+000
3716:1.1364650478018573e+001
3717:9.0479701405969735e+000
3718:5.8270979829000735e+000
3719:3.3767630549531487e+000
3720:8.6905330930171463e+000
3721:6.5050518290175718e+000
3722:3.5710410863774760e+000
3723:1.3844667953151819e+000
3724:6.8734537733278902e+000
3725:4.7977998821876291e+000
3726:2.0833565663761853e+000
3727:9.3791178776337539e-002
3728:3.7448654958133907e+000
3729:1.3678673602043177e+000
3730:-1.2538749730031269e+000
3731:-2.7899708061748716e+000
3732:2.1255295197312241e+000
3733:-4.6016622608475347e-002
3734:-2.4359670890800258e+000
3735:-3.8507252337718136e+000
3736:2.7727674390180246e-001
3737:-1.6289917040295618e+000
3738:-3.7173442613257301e+000
3739:-4.9647306101061650e+000
3740:-9.0646186716882948e-001
3741:-2.6191412914525758e+000
3742:-4.4892050736072697e+000
3743:-5.6124322438044860e+000
3744:-3.4113999541265074e+000
3745:-4.2086720949826129e+000
3746:-4.6429597662743536e+000
3747:-4.6109661829917723e+000
3748:-4.4346865689100277e+000
3749:-5.2029864736652840e+000
3750:-5.6614165217068377e+000
3751:-5.6812985594853815e+000
3752:-5.4898268312794274e+000
3753:-6.1971513865745242e+000
3754:-6.6496305389367949e+000
3755:-6.7030907492700686e+000
3756:-6.0911908318287686e+000
3757:-6.7463040781939316e+000
3758:-7.1817825421984018e+000
3759:-7.2474455902268762e+000
3760:-4.4923739461959578e+000
3761:-4.1195386904618294e+000
3762:-3.4385943993434989e+000
3763:-2.8522623641609739e+000
3764:-5.5972286973349057e+000
3765:-5.2764184991604157e+000
3766:-4.6111644684801085e+000
3767:-3.9770677071846676e+000
3768:-6.6447745713545450e+000
3769:-6.3681324259564072e+000
3770:-5.7241944345162796e+000
3771:-5.0565684068972203e+000
3772:-7.2006336301182081e+000
3773:-6.9480010398378509e+000
3774:-6.3238126802884871e+000
3775:-5.6488281281493613e+000
3776:-2.5416349617909293e+000
3777:-1.9988809871044093e+000
3778:-1.3869891873486695e+000
3779:-1.0035122449863350e+000
3780:-3.6165954731577252e+000
3781:-2.9713332221951014e+000
3782:-2.2111685722403589e+000
3783:-1.6982251673522537e+000
3784:-4.6562343962838577e+000
3785:-3.9228089392145544e+000
3786:-3.0243258909543309e+000
3787:-2.3842425545532175e+000
3788:-5.2334543754402256e+000
3789:-4.4601181645920756e+000
3790:-3.4886764468460729e+000
3791:-2.7763288197778335e+000
3792:-8.3294010405834307e-001
3793:-5.7713643038414353e-001
3794:-3.4684169457684416e-001
3795:-2.2972854591572536e-001
3796:-1.4525252663340704e+000
3797:-1.0588990414196324e+000
3798:-6.6521226128105815e-001
3799:-4.4171819977705040e-001
3800:-2.0633736666823523e+000
3801:-1.5332755819539732e+000
3802:-9.8130284112308896e-001
3803:-6.5773243271499160e-001
3804:-2.4117829018688526e+000
3805:-1.8035452132548986e+000
3806:-1.1633667693409060e+000
3807:-7.8579623595981896e-001
3808:-1.8270835151910209e-001
3809:-1.1689894484448622e-001
3810:-6.6242235040316982e-002
3811:-4.7043771979231416e-002
3812:-3.4639734073772616e-001
3813:-2.0650208389005237e-001
3814:-9.4453796785779170e-002
3815:-5.7811438420305235e-002
3816:-5.1805605386678777e-001
3817:-3.0878010971253544e-001
3818:-1.3564080299586076e-001
3819:-7.7516145578628265e-002
3820:-6.2276541580020894e-001
3821:-3.7605833886815948e-001
3822:-1.6745775021357462e-001
3823:-9.3956561801843558e-002
3824:-4.1295139861498381e-002
3825:-3.0486417894340399e-002
3826:-1.4908455484692001e-002
3827:-1.8512931515814195e-003
3828:-5.2870999485707323e-002
3829:-4.2957414803698440e-002
3830:-2.2682400160902685e-002
3831:-1.0792887665620910e-003
3832:-7.0031345682298393e-002
3833:-5.6959584708058446e-002
3834:-3.1592415126103862e-002
3835:-4.5192601223801275e-003
3836:-8.2594663138835914e-002
3837:-6.5029735263818347e-002
3838:-3.7231972418148199e-002
3839:-1.0149197893887942e-002
3840:-2.6128918625978836e+000
3841:-1.5366497994445503e+000
3842:-3.8647434901012151e-001
3843:3.5262056442418976e-001
3844:-3.2098751028951766e+000
3845:-1.8815151388408740e+000
3846:-4.6466257715957543e-001
3847:4.4535620357668787e-001
3848:-3.9645877273675412e+000
3849:-2.3290506224534560e+000
3850:-5.9115764062724541e-001
3851:5.2109519714498442e-001
3852:-4.5174817137608061e+000
3853:-2.6658393110709553e+000
3854:-7.0501022964629279e-001
3855:5.4501959062219141e-001
3856:7.1018375372446640e-001
3857:1.3593264117021813e+000
3858:2.2045584767582955e+000
3859:2.8770690340007943e+000
3860:8.8585639154254903e-001
3861:1.6827537755420561e+000
3862:2.7047456731271695e+000
3863:3.4991438164333846e+000
3864:1.0583776501863680e+000
3865:2.0259247302589549e+000
3866:3.2483272513751671e+000
3867:4.1775483291965738e+000
3868:1.1472258020060500e+000
3869:2.2280671576720046e+000
3870:3.5808833928920079e+000
3871:4.5952866981461815e+000
3872:3.2495296217237732e+000
3873:3.9650372265585423e+000
3874:4.9573564763127331e+000
3875:5.7865272831284962e+000
3876:3.9313298103942764e+000
3877:4.7449145234097436e+000
3878:5.8258864604613052e+000
3879:6.6839490301013926e+000
3880:4.6744111571814120e+000
3881:5.5916137657421476e+000
3882:6.7606236862410016e+000
3883:7.6407079374200659e+000
3884:5.1318807118118031e+000
3885:6.1100886732426734e+000
3886:7.3250120799809366e+000
3887:8.2091763118141277e+000
3888:6.2590699876745415e+000
3889:7.2069547451891438e+000
3890:8.5362109439442868e+000
3891:9.6032901614435602e+000
3892:7.1555830698834528e+000
3893:8.0664878617167233e+000
3894:9.2772893084295553e+000
3895:1.0199484167068707e+001
3896:8.1053355025424043e+000
3897:8.9621135896593760e+000
3898:1.0021465745312669e+001
3899:1.0765996762978022e+001
3900:8.6634243621291613e+000
3901:9.4734642483805249e+000
3902:1.0418735401996521e+001
3903:1.1035925333908057e+001
3904:1.0180721719877679e+001
3905:1.1215088496017861e+001
3906:1.2367810691907708e+001
3907:1.3026824965388673e+001
3908:1.0680344118786513e+001
3909:1.1499210035253018e+001
3910:1.2323056393346349e+001
3911:1.2709502788389791e+001
3912:1.1130458997590630e+001
3913:1.1695356429620340e+001
3914:1.2141921420849771e+001
3915:1.2223121022664454e+001
3916:1.1318710639593476e+001
3917:1.1710095740051925e+001
3918:1.1907527949429992e+001
3919:1.1793643160707902e+001
3920:1.3277827749858917e+001
3921:1.3515651896277737e+001
3922:1.3297455857178083e+001
3923:1.2670354419847918e+001
3924:1.2812096839813751e+001
3925:1.2771008807001174e+001
3926:1.2214704460391767e+001
3927:1.1370417734164205e+001
3928:1.2162335473938240e+001
3929:1.1820424725543045e+001
3930:1.0909359361223888e+001
3931:9.8439195788303859e+000
3932:1.1631019783731142e+001
3933:1.1108085778231141e+001
3934:9.9945460485901467e+000
3935:8.8109646154494534e+000
3936:1.2161043060306278e+001
3937:1.0931350946695492e+001
3938:8.8848237223059119e+000
3939:7.0479401608317804e+000
3940:1.0767088230522360e+001
3941:9.4184378045319956e+000
3942:7.3187533074985982e+000
3943:5.5078940257247808e+000
3944:9.1475439490641417e+000
3945:7.6878432493124631e+000
3946:5.5536530685184662e+000
3947:3.7863414487824278e+000
3948:8.0682532836493053e+000
3949:6.5605693145044039e+000
3950:4.4287960692436137e+000
3951:2.7023298666621658e+000
3952:5.9966010020491032e+000
3953:3.9821229458257998e+000
3954:1.3829994913695258e+000
3955:-5.0514206801288108e-001
3956:4.4916515604865985e+000
3957:2.5872582863071818e+000
3958:1.9304449632653334e-001
3959:-1.5143244516263816e+000
3960:2.8149557066117148e+000
3961:1.0415630503890345e+000
3962:-1.1151909504371660e+000
3963:-2.6130957930822207e+000
3964:1.7641167603789594e+000
3965:7.8890584323199398e-002
3966:-1.9252712171229998e+000
3967:-3.2901110595943281e+000
3968:-1.4507222838915041e+000
3969:-3.0658283636210055e+000
3970:-4.8271480630346870e+000
3971:-5.8882168652576663e+000
3972:-2.3618503122120691e+000
3973:-3.8020215359260625e+000
3974:-5.3666487062221995e+000
3975:-6.3117182293363259e+000
3976:-3.3462468732918529e+000
3977:-4.5825199944335324e+000
3978:-5.9150813190050942e+000
3979:-6.7175150799967067e+000
3980:-3.9505384332963178e+000
3981:-5.0575959496894622e+000
3982:-6.2415797024361526e+000
3983:-6.9490298757018154e+000
3984:-6.3432948798015980e+000
3985:-6.9714101548561160e+000
3986:-7.3971800951541553e+000
3987:-7.4676076015700952e+000
3988:-6.7203620513871609e+000
3989:-7.2917545508895927e+000
3990:-7.6890721488402827e+000
3991:-7.7602949057398289e+000
3992:-7.0655022535746337e+000
3993:-7.5563671180279606e+000
3994:-7.9000317371787743e+000
3995:-7.9568233882738353e+000
3996:-7.2543657513361675e+000
3997:-7.6842504875184403e+000
3998:-7.9784440564304271e+000
3999:-8.0133538483275650e+000
4000:-7.4256556097187625e+000
4001:-7.1843962464402651e+000
4002:-6.5724943063554129e+000
4003:-5.8989457618324055e+000
4004:-7.7235086063826603e+000
4005:-7.4990728295539242e+000
4006:-6.9125637796347386e+000
4007:-6.2517087597762986e+000
4008:-7.9186049458349386e+000
4009:-7.7047926027228391e+000
4010:-7.1494760058150373e+000
4011:-6.5173417034783752e+000
4012:-7.9675402851506014e+000
4013:-7.7509886708952251e+000
4014:-7.2118864317665752e+000
4015:-6.6039305721140114e+000
4016:-5.4799674345834699e+000
4017:-4.6931979392050529e+000
4018:-3.6922704490149556e+000
4019:-2.9486663494414009e+000
4020:-5.8344166272596745e+000
4021:-5.0388187872299168e+000
4022:-4.0036562059908007e+000
4023:-3.2172452124489475e+000
4024:-6.1141536501778360e+000
4025:-5.3316544636388183e+000
4026:-4.2859503580103127e+000
4027:-3.4707739531819981e+000
4028:-6.2161835755554860e+000
4029:-5.4550994938625443e+000
4030:-4.4198808323803744e+000
4031:-3.5991778820448808e+000
4032:-2.5649002316695735e+000
4033:-1.9226014322637561e+000
4034:-1.2445481685016406e+000
4035:-8.4408883250878586e-001
4036:-2.8056542734519163e+000
4037:-2.1134021473364744e+000
4038:-1.3789046405354410e+000
4039:-9.4358806314449939e-001
4040:-3.0373397427324806e+000
4041:-2.3044655809372250e+000
4042:-1.5220542495023384e+000
4043:-1.0555050028346953e+000
4044:-3.1583394520507215e+000
4045:-2.4104642844468498e+000
4046:-1.6085809772294224e+000
4047:-1.1278664648401797e+000
4048:-6.7121710156695025e-001
4049:-4.0845860711067999e-001
4050:-1.8385601002154725e-001
4051:-1.0246746416122782e-001
4052:-7.5539946973497585e-001
4053:-4.6692072716097566e-001
4054:-2.1493243175415916e-001
4055:-1.1813361904428010e-001
4056:-8.5288955746857165e-001
4057:-5.3877447018589197e-001
4058:-2.5620822248621461e-001
4059:-1.3877980225411130e-001
4060:-9.1809121606198008e-001
4061:-5.9012188675946131e-001
4062:-2.8844898910490380e-001
4063:-1.5563536352805646e-001
4064:-8.8555138143212545e-002
4065:-6.8143788090317847e-002
4066:-3.9678327446031364e-002
4067:-1.3974626915252669e-002
4068:-9.8245941497696540e-002
4069:-7.1172774115286747e-002
4070:-4.2245380116848120e-002
4071:-2.1835145501997083e-002
4072:-1.0930901353138270e-001
4073:-7.1273750787386070e-002
4074:-4.2226573934090315e-002
4075:-3.2175618047156587e-002
4076:-1.1801979913697422e-001
4077:-7.0230959477633748e-002
4078:-4.0504743075588052e-002
4079:-3.9238440238124707e-002
4080:-4.8010127360862720e+000
4081:-2.8418840169841597e+000
4082:-7.7123754306479864e-001
4083:5.4568866067990007e-001
4084:-5.3098361573262709e+000
4085:-3.1650119640341186e+000
4086:-9.0671740997063166e-001
4087:5.2258188913209680e-001
4088:-5.9215638887312467e+000
4089:-3.5678579093097786e+000
4090:-1.1029041490082907e+000
4091:4.4603034237086614e-001
4092:-6.3447207867638111e+000
4093:-3.8581089456104523e+000
4094:-1.2656620028343308e+000
4095:3.5331730705193859e-001
4096:1.1790472215281338e+000
4097:2.3138737008489012e+000
4098:3.7279490402947890e+000
4099:4.7814537188173780e+000
4100:1.2075203527978347e+000
4101:2.4310839542264762e+000
4102:3.9444877474832256e+000
4103:5.0600281316272353e+000
4104:1.1842731305025593e+000
4105:2.4982566589369184e+000
4106:4.1101313476461359e+000
4107:5.2843348946784223e+000
4108:1.1212690534519671e+000
4109:2.4845340689486988e+000
4110:4.1476105378825769e+000
4111:5.3496058540153077e+000
4112:5.3358514961223129e+000
4113:6.3401991349922140e+000
4114:7.5719766806092759e+000
4115:8.4536580603635372e+000
4116:5.6420016971974629e+000
4117:6.6845662414487057e+000
4118:7.9349671554342844e+000
4119:8.8036783057076899e+000
4120:5.8909348760574565e+000
4121:6.9623613788980663e+000
4122:8.2118985554218966e+000
4123:9.0475621541945639e+000
4124:5.9663935779195691e+000
4125:7.0439557755014297e+000
4126:8.2738267206081169e+000
4127:9.0721053852761600e+000
4128:8.9004903590501758e+000
4129:9.6836318157606325e+000
4130:1.0568835475304065e+001
4131:1.1121459648223967e+001
4132:9.2329912911278456e+000
4133:9.9614346640227822e+000
4134:1.0734491697977255e+001
4135:1.1171817203698696e+001
4136:9.4469924107687433e+000
4137:1.0095874398730290e+001
4138:1.0723989630225795e+001
4139:1.1022775455938120e+001
4140:9.4434423827994056e+000
4141:1.0025597744119711e+001
4142:1.0544726684637261e+001
4143:1.0747511510310936e+001
4144:1.1363527296972800e+001
4145:1.1670173667920974e+001
4146:1.1749230561126035e+001
4147:1.1545205476365458e+001
4148:1.1342772907947332e+001
4149:1.1505006095983637e+001
4150:1.1388103458870694e+001
4151:1.1038669207344102e+001
4152:1.1111626731658799e+001
4153:1.1114450156621695e+001
4154:1.0793148925006950e+001
4155:1.0299974864640742e+001
4156:1.0782252066771541e+001
4157:1.0685992304646541e+001
4158:1.0247798146766360e+001
4159:9.6796224064444729e+000
4160:1.1336585435440243e+001
4161:1.0734790702608102e+001
4162:9.5382577982188135e+000
4163:8.3103756176762822e+000
4164:1.0757315374455192e+001
4165:1.0035561043041538e+001
4166:8.7221280679612061e+000
4167:7.4401231728850306e+000
4168:9.9497848245637748e+000
4169:9.1242680973298960e+000
4170:7.7296430717431424e+000
4171:6.4290474539414424e+000
4172:9.2964304566837441e+000
4173:8.4303423195587488e+000
4174:7.0241448811380920e+000
4175:5.7446291353584602e+000
4176:7.5521362434377686e+000
4177:6.0323790944693307e+000
4178:3.9121185682138360e+000
4179:2.2098223858914769e+000
4180:6.6670537772352487e+000
4181:5.1456120950307325e+000
4182:3.0640838823360714e+000
4183:1.4141277254570852e+000
4184:5.6618396225785634e+000
4185:4.1746797205613211e+000
4186:2.1730418655850823e+000
4187:6.0341519030942381e-001
4188:4.9984043201517352e+000
4189:3.5607337219295339e+000
4190:1.6379256958629040e+000
4191:1.3624443513918638e-001
4192:1.2886664532859833e+000
4193:-3.5448410958204690e-001
4194:-2.2889868557290813e+000
4195:-3.5940255497518949e+000
4196:5.2691132170374788e-001
4197:-1.0375902337165677e+000
4198:-2.8474359271667891e+000
4199:-4.0473021808298908e+000
4200:-2.3600842830546198e-001
4201:-1.6980733295599113e+000
4202:-3.3552209523191374e+000
4203:-4.4294936216897129e+000
4204:-6.6508234859565696e-001
4205:-2.0506115358039994e+000
4206:-3.5999217293028374e+000
4207:-4.5874712660890946e+000
4208:-4.2218635458781710e+000
4209:-5.2711699140978494e+000
4210:-6.3881655268629736e+000
4211:-7.0514579081105797e+000
4212:-4.6180113722650447e+000
4213:-5.5657486812680590e+000
4214:-6.5640581161404947e+000
4215:-7.1482748762387871e+000
4216:-4.9322319360103517e+000
4217:-5.7579764083260079e+000
4218:-6.6113903786764920e+000
4219:-7.0972839652993436e+000
4220:-5.0432858154228262e+000
4221:-5.7834809763887458e+000
4222:-6.5326260317083724e+000
4223:-6.9457421955135015e+000
4224:-7.3361748573334848e+000
4225:-7.7350201932424660e+000
4226:-8.0009739711982206e+000
4227:-8.0208461839880698e+000
4228:-7.3957011891562425e+000
4229:-7.7378642162879032e+000
4230:-7.9519203171887050e+000
4231:-7.9446721625141246e+000
4232:-7.2976919869965808e+000
4233:-7.5677557451329607e+000
4234:-7.7162390802037271e+000
4235:-7.6767761350211359e+000
4236:-7.1106268258958734e+000
4237:-7.3256390524478761e+000
4238:-7.4243317796472690e+000
4239:-7.3620063498197732e+000
4240:-7.9687883566686599e+000
4241:-7.7467536623314750e+000
4242:-7.2125470265210838e+000
4243:-6.6167939111755372e+000
4244:-7.8818694752938621e+000
4245:-7.6527323439424597e+000
4246:-7.1348829247621461e+000
4247:-6.5700533076370320e+000
4248:-7.6026568852800702e+000
4249:-7.3713308831965092e+000
4250:-6.8881257307613675e+000
4251:-6.3771130459476471e+000
4252:-7.2810081195719096e+000
4253:-7.0519904711729327e+000
4254:-6.6017417632935285e+000
4255:-6.1380101597947592e+000
4256:-6.2379261128888990e+000
4257:-5.4906124278998290e+000
4258:-4.4658461686918027e+000
4259:-3.6470796219502097e+000
4260:-6.2130324842710376e+000
4261:-5.5020935582669077e+000
4262:-4.5117724035677842e+000
4263:-3.7085754963833506e+000
4264:-6.0569829380931210e+000
4265:-5.4114650981494288e+000
4266:-4.4932173033887857e+000
4267:-3.7333835638858770e+000
4268:-5.8499181678859546e+000
4269:-5.2641950784868179e+000
4270:-4.4185779600555612e+000
4271:-3.7084508913360441e+000
4272:-3.2051954848448374e+000
4273:-2.4543717249012649e+000
4274:-1.6475310771142899e+000
4275:-1.1623541470594625e+000
4276:-3.2711084883483128e+000
4277:-2.5248063582920373e+000
4278:-1.7178219341804277e+000
4279:-1.2284264212589129e+000
4280:-3.3143296068635064e+000
4281:-2.5935451213922933e+000
4282:-1.8034309346602577e+000
4283:-1.3155167841706950e+000
4284:-3.3129971642954383e+000
4285:-2.6263585863459600e+000
4286:-1.8613904459561927e+000
4287:-1.3791126135484375e+000
4288:-9.5000232526772144e-001
4289:-6.1653882662351411e-001
4290:-3.0620730027505744e-001
4291:-1.6549845750974088e-001
4292:-1.0125395311606831e+000
4293:-6.7045551439246531e-001
4294:-3.4476021252392330e-001
4295:-1.8886494639277232e-001
4296:-1.0968598130566547e+000
4297:-7.4618671868773334e-001
4298:-4.0280484142023393e-001
4299:-2.2797422040397847e-001
4300:-1.1592642055814739e+000
4301:-8.0379412924542348e-001
4302:-4.4969557112575509e-001
4303:-2.6280468275934354e-001
4304:-1.2338361904664313e-001
4305:-6.9965945515749584e-002
4306:-3.9321762382018878e-002
4307:-4.2463189133174019e-002
4308:-1.3774337023890695e-001
4309:-7.2336064578115741e-002
4310:-3.7636794488754989e-002
4311:-4.7067962768875433e-002
4312:-1.6515866879276642e-001
4313:-8.2460824880903671e-002
4314:-3.7108647587339123e-002
4315:-4.8559104919462429e-002
4316:-1.9227258801778385e-001
4317:-9.6349731190817717e-002
4318:-3.8301689015960205e-002
4319:-4.4700270452569191e-002
4320:-6.5523841525829640e+000
4321:-4.0050750927394594e+000
4322:-1.3560905914885564e+000
4323:2.9231689502106456e-001
4324:-6.9056445360017067e+000
4325:-4.2650687508459022e+000
4326:-1.5317105529880868e+000
4327:1.5792921293367077e-001
4328:-7.2889030746967576e+000
4329:-4.5694980422176910e+000
4330:-1.7699834514225377e+000
4331:-5.3883031591116591e-002
4332:-7.5182641083741277e+000
4333:-4.7730489767851791e+000
4334:-1.9575333958865262e+000
4335:-2.4210257095876783e-001
4336:1.0720678708363209e+000
4337:2.4544263101180430e+000
4338:4.1362304211715388e+000
4339:5.3470731819592823e+000
4340:9.5299750555348028e-001
4341:2.3594484824984669e+000
4342:4.0630812569789851e+000
4343:5.2817644963847039e+000
4344:7.4813222880840302e-001
4345:2.1633573321918864e+000
4346:3.8691749695524931e+000
4347:5.0803307428182043e+000
4348:5.5544620191436178e-001
4349:1.9600655069039938e+000
4350:3.6467333277603711e+000
4351:4.8375203098712447e+000
4352:5.9663039471060939e+000
4353:7.0417015205109719e+000
4354:8.2547687695014123e+000
4355:9.0292498034536504e+000
4356:5.9013797487243727e+000
4357:6.9655616934082678e+000
4358:8.1401243632707878e+000
4359:8.8671941769382645e+000
4360:5.6918158384329169e+000
4361:6.7272546914076843e+000
4362:7.8391549605848150e+000
4363:8.5008682687333259e+000
4364:5.4355275225621584e+000
4365:6.4375573997230129e+000
4366:7.4924177071616906e+000
4367:8.1025967151002050e+000
4368:9.3840190051880459e+000
4369:9.9291117615154540e+000
4370:1.0391675761002826e+001
4371:1.0547485445688537e+001
4372:9.1905628015556804e+000
4373:9.6684004878230549e+000
4374:1.0032970650730311e+001
4375:1.0110332935326070e+001
4376:8.7839502041144506e+000
4377:9.1807890036858382e+000
4378:9.4357245484296737e+000
4379:9.4307471009876700e+000
4380:8.3562209417800180e+000
4381:8.6976277565933007e+000
4382:8.8839551335483282e+000
4383:8.8320204119023291e+000
4384:1.0556787343264119e+001
4385:1.0416149206309385e+001
4386:9.9295461306405510e+000
4387:9.3333501133533492e+000
4388:1.0078152024675328e+001
4389:9.8673776832972369e+000
4390:9.3081280677789842e+000
4391:8.6727567254925120e+000
4392:9.3569141608588264e+000
4393:9.0800202194071922e+000
4394:8.4597575688246014e+000
4395:7.7971291271024166e+000
4396:8.7361500927583915e+000
4397:8.4282451662100240e+000
4398:7.7865880754147652e+000
4399:7.1204086409020668e+000
4400:8.9391705250340845e+000
4401:8.0640572387746872e+000
4402:6.6673401091092170e+000
4403:5.4094359390793967e+000
4404:8.2645608955733465e+000
4405:7.3839106727543671e+000
4406:6.0186107978148407e+000
4407:4.8112994387178984e+000
4408:7.3819605204882706e+000
4409:6.5125090500117668e+000
4410:5.2087239800338843e+000
4411:4.0821157725298907e+000
4412:6.7078710495871698e+000
4413:5.8592567499845538e+000
4414:4.6148609770398039e+000
4415:3.5579590153879144e+000
4416:4.6790404019460956e+000
4417:3.2741491786927854e+000
4418:1.3980328687993322e+000
4419:-6.5839583990196238e-002
4420:4.1159359575289010e+000
4421:2.7822370022481251e+000
4422:1.0060042972683831e+000
4423:-3.7751135476618686e-001
4424:3.4403961144380411e+000
4425:2.2155180434964779e+000
4426:5.9277254026033588e-001
4427:-6.6613279535140213e-001
4428:2.9614455395187456e+000
4429:1.8292979011642971e+000
4430:3.3995597809984934e-001
4431:-8.0857107091643921e-001
4432:-8.4653557520657785e-001
4433:-2.1920928376623148e+000
4434:-3.6869988329229813e+000
4435:-4.6314069378327947e+000
4436:-1.1145086854798376e+000
4437:-2.3776760710205180e+000
4438:-3.7652161939425204e+000
4439:-4.6280345208911893e+000
4440:-1.3351199876300233e+000
4441:-2.4747483645562749e+000
4442:-3.7118379639297205e+000
4443:-4.4687248174979093e+000
4444:-1.4168231833205416e+000
4445:-2.4499553758859234e+000
4446:-3.5662312707327830e+000
4447:-4.2454972866652456e+000
4448:-5.0638622586724811e+000
4449:-5.7609457520949965e+000
4450:-6.4564867798025327e+000
4451:-6.8313726148508653e+000
4452:-5.0174945463166161e+000
4453:-5.6364177623247471e+000
4454:-6.2363327451331410e+000
4455:-6.5437525308530722e+000
4456:-4.8053426202287870e+000
4457:-5.3314951162780195e+000
4458:-5.8226905594478531e+000
4459:-6.0561495080948413e+000
4460:-4.5462044121344931e+000
4461:-5.0124618776126626e+000
4462:-5.4383466491217218e+000
4463:-5.6304919942176523e+000
4464:-6.9773105677449276e+000
4465:-7.1628169918323472e+000
4466:-7.2350466178871802e+000
4467:-7.1612282344398821e+000
4468:-6.6564360458066494e+000
4469:-6.7911585952744220e+000
4470:-6.8202753918130616e+000
4471:-6.7303096856428644e+000
4472:-6.1331426958427580e+000
4473:-6.2151640514838364e+000
4474:-6.2036806721136077e+000
4475:-6.1030016004146619e+000
4476:-5.6884651808631936e+000
4477:-5.7435808363331029e+000
4478:-5.7139854178109246e+000
4479:-5.6116261587530776e+000
4480:-7.0772297470099339e+000
4481:-6.8505806344474509e+000
4482:-6.4191173615244468e+000
4483:-5.9814137737138751e+000
4484:-6.6436118733771075e+000
4485:-6.4253888130432344e+000
4486:-6.0312668623267198e+000
4487:-5.6418060547882689e+000
4488:-6.0175532102670033e+000
4489:-5.8153945110233156e+000
4490:-5.4689283962342108e+000
4491:-5.1361022217983621e+000
4492:-5.5293464245992654e+000
4493:-5.3400489116611132e+000
4494:-5.0238985071815510e+000
4495:-4.7247572894538896e+000
4496:-5.7108871824087899e+000
4497:-5.1590859299055092e+000
4498:-4.3571051184301677e+000
4499:-3.6788027543773341e+000
4500:-5.4033261918334157e+000
4501:-4.9149123147371307e+000
4502:-4.1984663249578160e+000
4503:-3.5863086355596674e+000
4504:-4.9344964353188221e+000
4505:-4.5216061869688478e+000
4506:-3.9140174619541828e+000
4507:-3.3924719212513565e+000
4508:-4.5447702781815034e+000
4509:-4.1784453124921779e+000
4510:-3.6437600623857551e+000
4511:-3.1879073526165640e+000
4512:-3.2991712012530332e+000
4513:-2.6357272807058019e+000
4514:-1.8882716882526636e+000
4515:-1.4103985908311001e+000
4516:-3.2410681118023774e+000
4517:-2.6293772980319035e+000
4518:-1.9231451330394165e+000
4519:-1.4576151954001013e+000
4520:-3.0968764568207860e+000
4521:-2.5631961596854151e+000
4522:-1.9252212355308873e+000
4523:-1.4861463623129714e+000
4524:-2.9301895780746587e+000
4525:-2.4593491962866412e+000
4526:-1.8828606638375749e+000
4527:-1.4738515707586706e+000
4528:-1.1901341336561526e+000
4529:-8.3270924048755512e-001
4530:-4.7425606927804159e-001
4531:-2.8237767604083996e-001
4532:-1.2378644181268126e+000
4533:-8.7914431502563439e-001
4534:-5.1614250688407859e-001
4535:-3.1834237720755665e-001
4536:-1.2719441741784454e+000
4537:-9.1947419184028700e-001
4538:-5.5931241962395739e-001
4539:-3.5996500613430260e-001
4540:-1.2696048249861782e+000
4541:-9.3079038829813321e-001
4542:-5.8092216932238583e-001
4543:-3.8456534791704777e-001
4544:-2.0856249981442693e-001
4545:-1.0605547619824263e-001
4546:-3.9594480012762313e-002
4547:-4.0436512282565500e-002
4548:-2.4039017855386638e-001
4549:-1.2760729052235051e-001
4550:-4.3886971340041943e-002
4551:-2.9628783087093387e-002
4552:-2.7982960916830690e-001
4553:-1.5812839708942833e-001
4554:-5.3381503436470377e-002
4555:-1.6303226453801979e-002
4556:-3.0450383859331520e-001
4557:-1.7964011278219832e-001
4558:-6.3662144731174888e-002
4559:-1.2080320106382074e-002
4560:-7.6164303567554112e+000
4561:-4.8700709593155951e+000
4562:-2.0584337185232320e+000
4563:-3.5067407678219470e-001
4564:-7.7548842131856057e+000
4565:-5.0279729171314891e+000
4566:-2.2443519310051534e+000
4567:-5.6329420620601001e-001
4568:-7.8463355144286240e+000
4569:-5.1840957490898436e+000
4570:-2.4757598979683886e+000
4571:-8.5357726250454924e-001
4572:-7.8492815930637052e+000
4573:-5.2639435369177043e+000
4574:-2.6414394254142022e+000
4575:-1.0829369595828704e+000
4576:4.4112280401711274e-001
4577:1.8340073006458188e+000
4578:3.5029539709376927e+000
4579:4.6775011119378194e+000
4580:2.1185376533201733e-001
4581:1.5717689722195691e+000
4582:3.1939557032024162e+000
4583:4.3289837692859967e+000
4584:-1.1199105581732867e-001
4585:1.1827651499446945e+000
4586:2.7168507620136233e+000
4587:3.7824192564470271e+000
4588:-3.7658284421861732e-001
4589:8.5055569472866233e-001
4590:2.2957612049093954e+000
4591:3.2941420668222694e+000
4592:5.2656363695792248e+000
4593:6.2458413298327056e+000
4594:7.2675432960602171e+000
4595:7.8503166321547910e+000
4596:4.8944904411576156e+000
4597:5.8287564697005623e+000
4598:6.7868427940921539e+000
4599:7.3206488342032356e+000
4600:4.3104038911219407e+000
4601:5.1753302352525097e+000
4602:6.0484783865069405e+000
4603:6.5238729859385440e+000
4604:3.7871832207099589e+000
4605:4.5917655332717331e+000
4606:5.3985387203694959e+000
4607:5.8336676018781306e+000
4608:8.0890986480808174e+000
4609:8.4038401637058904e+000
4610:8.5594289758196158e+000
4611:8.4882334270200221e+000
4612:7.5339987913990099e+000
4613:7.8043170429185267e+000
4614:7.9106026878687565e+000
4615:7.8097811891212832e+000
4616:6.7090862446547570e+000
4617:6.9326445283157119e+000
4618:6.9904794906060355e+000
4619:6.8627330866509642e+000
4620:6.0013797248786993e+000
4621:6.1978754025140583e+000
4622:6.2306322634738711e+000
4623:6.0909063012501088e+000
4624:8.3840573126897500e+000
4625:8.0662483105576310e+000
4626:7.4214048174508225e+000
4627:6.7587471230442455e+000
4628:7.6933098739897900e+000
4629:7.3622374873679011e+000
4630:6.7172970839467183e+000
4631:6.0655262470041365e+000
4632:6.7359133705984409e+000
4633:6.3967148827247930e+000
4634:5.7623108350607994e+000
4635:5.1333259158159841e+000
4636:5.9602918218307916e+000
4637:5.6219003173150455e+000
4638:5.0046089691223630e+000
4639:4.4009262361127108e+000
4640:6.3500282041380469e+000
4641:5.5160475010431327e+000
4642:4.3064544183782907e+000
4643:3.2884531672699717e+000
4644:5.6663011942971497e+000
4645:4.8639052630399631e+000
4646:3.7244991599200734e+000
4647:2.7829068330482594e+000
4648:4.7514791717125195e+000
4649:3.9988594803499056e+000
4650:2.9603071531969132e+000
4651:2.1241054080810513e+000
4652:4.0370394351474514e+000
4653:3.3300209118597430e+000
4654:2.3756898934308586e+000
4655:1.6235474923039810e+000
4656:2.7169013168074465e+000
4657:1.6366580899477980e+000
4658:2.2346729485866473e-001
4659:-8.6100902617118458e-001
4660:2.2600027832743788e+000
4661:1.2820719577533288e+000
4662:2.1121097916764611e-002
4663:-9.3407631591111373e-001
4664:1.6673149435802543e+000
4665:8.2868944572224978e-001
4666:-2.2453209351810294e-001
4667:-1.0033582868833391e+000
4668:1.2184916103816552e+000
4669:4.8727141532042872e-001
4670:-4.0870618920210566e-001
4671:-1.0561076541321135e+000
4672:-1.4337752958455592e+000
4673:-2.4061049806885904e+000
4674:-3.4567628599370153e+000
4675:-4.0968284930504737e+000
4676:-1.4350303832654272e+000
4677:-2.2865413825095962e+000
4678:-3.2115298992817225e+000
4679:-3.7803712432387302e+000
4680:-1.4065360937290368e+000
4681:-2.0955576732239654e+000
4682:-2.8554913400569530e+000
4683:-3.3338824583360553e+000
4684:-1.3870460364436910e+000
4685:-1.9556941703201671e+000
4686:-2.5921228947580577e+000
4687:-3.0014456870659130e+000
4688:-4.3806022155335249e+000
4689:-4.8199912964173910e+000
4690:-5.2188554623637797e+000
4691:-5.3955330127020469e+000
4692:-4.0349052851659684e+000
4693:-4.4293969818075070e+000
4694:-4.7860024280682660e+000
4695:-4.9411404682049511e+000
4696:-3.5524998469721467e+000
4697:-3.8930372274675298e+000
4698:-4.2015225293448246e+000
4699:-4.3350090694872083e+000
4700:-3.1919462351803904e+000
4701:-3.4895450994054222e+000
4702:-3.7586714959157246e+000
4703:-3.8736532603362295e+000
4704:-5.4469058018503489e+000
4705:-5.4931368289375957e+000
4706:-5.4585315220542752e+000
4707:-5.3570196283544789e+000
4708:-4.9843686559918892e+000
4709:-5.0202307027968089e+000
4710:-4.9811108049594726e+000
4711:-4.8826850184925750e+000
4712:-4.3713770242188073e+000
4713:-4.3990458022247667e+000
4714:-4.3576658782206561e+000
4715:-4.2639908468329892e+000
4716:-3.9038109714660445e+000
4717:-3.9234035205406217e+000
4718:-3.8781694713464288e+000
4719:-3.7869253492184676e+000
4720:-5.2767218070356332e+000
4721:-5.0934244608520123e+000
4722:-4.7896578864349753e+000
4723:-4.5036662020503568e+000
4724:-4.8061805718448074e+000
4725:-4.6327918631200449e+000
4726:-4.3476075145952260e+000
4727:-4.0805651291901226e+000
4728:-4.1922296493814688e+000
4729:-4.0303485554644043e+000
4730:-3.7654579343713670e+000
4731:-3.5184443011813062e+000
4732:-3.7183888690351226e+000
4733:-3.5653286559066095e+000
4734:-3.3173637409116759e+000
4735:-3.0876241434407583e+000
4736:-4.3320713825786941e+000
4737:-3.9850063194144068e+000
4738:-3.4831961433696144e+000
4739:-3.0590762872922759e+000
4740:-3.9210202055383157e+000
4741:-3.6036634098184335e+000
4742:-3.1560564237214415e+000
4743:-2.7860495456294201e+000
4744:-3.3715607579193518e+000
4745:-3.0868336939363492e+000
4746:-2.7003682140094369e+000
4747:-2.3915647826006867e+000
4748:-2.9516263354929526e+000
4749:-2.6924360185966227e+000
4750:-2.3492150863090631e+000
4751:-2.0807251471257868e+000
4752:-2.8203911163925723e+000
4753:-2.3826266031598724e+000
4754:-1.8414537120331016e+000
4755:-1.4523703493461380e+000
4756:-2.5802840237738534e+000
4757:-2.2013882931104716e+000
4758:-1.7272536589493470e+000
4759:-1.3804065089763153e+000
4760:-2.2229852711348022e+000
4761:-1.9125580334821597e+000
4762:-1.5221430316982918e+000
4763:-1.2342737111262623e+000
4764:-1.9358090380993080e+000
4765:-1.6696425866065838e+000
4766:-1.3362599319887400e+000
4767:-1.0919307617735130e+000
4768:-1.2559865314116279e+000
4769:-9.2839136877611628e-001
4770:-5.8734651622745082e-001
4771:-3.9395564063957916e-001
4772:-1.2028152037361712e+000
4773:-9.0327900300081754e-001
4774:-5.8571948351148106e-001
4775:-4.0115743167044554e-001
4776:-1.0857756491851971e+000
4777:-8.3191576167899539e-001
4778:-5.5578712896717031e-001
4779:-3.8926233087095935e-001
4780:-9.6641464626485085e-001
4781:-7.5043706427665002e-001
4782:-5.1168058587929544e-001
4783:-3.6388479560386977e-001
4784:-3.1436565059286992e-001
4785:-1.8920288255962389e-001
4786:-7.0081592790881650e-002
4787:-1.3451760014177165e-002
4788:-3.2348918930789045e-001
4789:-2.0055944531915787e-001
4790:-8.1518850959618375e-002
4791:-2.1974518477058332e-002
4792:-3.1679261521900320e-001
4793:-2.0224181935779048e-001
4794:-9.2363707986638413e-002
4795:-3.8048768307498516e-002
4796:-2.9795702081638314e-001
4797:-1.9390634541741458e-001
4798:-9.5482152119952313e-002
4799:-4.8444994876137661e-002
4800:-7.8274804559964757e+000
4801:-5.2919230047347918e+000
4802:-2.7247638115634802e+000
4803:-1.2069125648797299e+000
4804:-7.7400417556138317e+000
4805:-5.3152234709115875e+000
4806:-2.8727052610389832e+000
4807:-1.4453606700380597e+000
4808:-7.5326441658773362e+000
4809:-5.2900992984084692e+000
4810:-3.0523007460807605e+000
4811:-1.7693884021940072e+000
4812:-7.3015453676853159e+000
4813:-5.2309193796539049e+000
4814:-3.1828012011244762e+000
4815:-2.0288595427066110e+000
4816:-5.2286676473733107e-001
4817:6.6177554371973724e-001
4818:2.0519852244404437e+000
4819:3.0096654712854356e+000
4820:-8.1007706024075576e-001
4821:2.8317890032829374e-001
4822:1.5574695524109581e+000
4823:2.4308489475196264e+000
4824:-1.2096787766326971e+000
4825:-2.5601656392000272e-001
4826:8.4400674232491379e-001
4827:1.5923611554334396e+000
4828:-1.5346197797306602e+000
4829:-7.0117950427865905e-001
4830:2.4931443627943212e-001
4831:8.9070280240087785e-001
4832:3.4819381856842644e+000
4833:4.2518924892937306e+000
4834:5.0229098966776506e+000
4835:5.4381795687359338e+000
4836:2.8606252136308443e+000
4837:3.5613263418237828e+000
4838:4.2634410840106227e+000
4839:4.6421109516033816e+000
4840:1.9597155960383574e+000
4841:2.5608878320216779e+000
4842:3.1672332503556992e+000
4843:3.4967084266188877e+000
4844:1.2047872490917351e+000
4845:1.7219064934875816e+000
4846:2.2483324142405920e+000
4847:2.5367370265472946e+000
4848:5.5979797711990287e+000
4849:5.7829959405550992e+000
4850:5.8062749955354986e+000
4851:5.6628757040778881e+000
4852:4.7878718066736434e+000
4853:4.9526140672860794e+000
4854:4.9595795000921568e+000
4855:4.8106902846670865e+000
4856:3.6239809105357885e+000
4857:3.7617657140641692e+000
4858:3.7473395727567391e+000
4859:3.5925642671420381e+000
4860:2.6483204845088308e+000
4861:2.7629145319018442e+000
4862:2.7301876816625170e+000
4863:2.5711446703074863e+000
4864:5.5315213860024928e+000
4865:5.1959191798690219e+000
4866:4.5911846842947055e+000
4867:4.0042217436334120e+000
4868:4.6789365494244217e+000
4869:4.3516605543509739e+000
4870:3.7775044890956719e+000
4871:3.2299214406999059e+000
4872:3.4617653416762360e+000
4873:3.1511598712385007e+000
4874:2.6314100127091429e+000
4875:2.1522203613900341e+000
4876:2.4420306403122076e+000
4877:2.1486941827112651e+000
4878:1.6825003183413365e+000
4879:1.2698131542251601e+000
4880:3.6518672633933371e+000
4881:2.9722113575690439e+000
4882:2.0653400876105814e+000
4883:1.3589077527073414e+000
4884:2.9043536118260076e+000
4885:2.2846787062204603e+000
4886:1.4746764880174699e+000
4887:8.5660233559152954e-001
4888:1.8725957878949635e+000
4889:1.3495051865405698e+000
4890:6.8214774683507007e-001
4891:1.8434421412510002e-001
4892:1.0345049107824487e+000
4893:6.0033226748522595e-001
4894:5.4959897882481727e-002
4895:-3.4733744547728312e-001
4896:9.8151431993475802e-001
4897:3.0654387321522741e-001
4898:-5.0920445975547046e-001
4899:-1.0909748245215487e+000
4900:5.3103624574047126e-001
4901:-4.2051194287592041e-002
4902:-7.1806533273763073e-001
4903:-1.1887249461548905e+000
4904:-7.4032619096904950e-002
4905:-5.2080054003598297e-001
4906:-1.0325037938743422e+000
4907:-1.3775134640728026e+000
4908:-5.5493978285021572e-001
4909:-9.0937146298239779e-001
4910:-1.3054565925476873e+000
4911:-1.5643831239431609e+000
4912:-1.3862174847668078e+000
4913:-1.8946964170425853e+000
4914:-2.4676098352879974e+000
4915:-2.8397208104304359e+000
4916:-1.4242378805091329e+000
4917:-1.8301757511918555e+000
4918:-2.2902225167300228e+000
4919:-2.5919299131149205e+000
4920:-1.5465012172596846e+000
4921:-1.8348549267206027e+000
4922:-2.1571877517469837e+000
4923:-2.3655053406777942e+000
4924:-1.6881645790710298e+000
4925:-1.8944015149424207e+000
4926:-2.1152416187215066e+000
4927:-2.2500807423490481e+000
4928:-3.0143139925285700e+000
4929:-3.2868658955531895e+000
4930:-3.5316807291063941e+000
4931:-3.6339819827078377e+000
4932:-2.7345934919448038e+000
4933:-2.9551627899163351e+000
4934:-3.1466242312278463e+000
4935:-3.2186311159087153e+000
4936:-2.4628152576476219e+000
4937:-2.6078165197914429e+000
4938:-2.7196262179447914e+000
4939:-2.7450850848149289e+000
4940:-2.3100131213492685e+000
4941:-2.3928713259850443e+000
4942:-2.4406334978726201e+000
4943:-2.4303937032689746e+000
4944:-3.6592954050807611e+000
4945:-3.6721050882532889e+000
4946:-3.6225048286429899e+000
4947:-3.5315301118073807e+000
4948:-3.2313380152406412e+000
4949:-3.2256250691769495e+000
4950:-3.1619552138297582e+000
4951:-3.0682160732784634e+000
4952:-2.7380064306483796e+000
4953:-2.7026167582020442e+000
4954:-2.6148012048794542e+000
4955:-2.5140457219830257e+000
4956:-2.4089442991728691e+000
4957:-2.3521369514195576e+000
4958:-2.2469257265483500e+000
4959:-2.1412146062166304e+000
4960:-3.4644523052094209e+000
4961:-3.3163346824664064e+000
4962:-3.0790698054197372e+000
4963:-2.8607774812426880e+000
4964:-3.0025705431446608e+000
4965:-2.8623836011522354e+000
4966:-2.6457096237843944e+000
4967:-2.4510614280954206e+000
4968:-2.4487924604759526e+000
4969:-2.3166783104262527e+000
4970:-2.1251328571177495e+000
4971:-1.9611978550155080e+000
4972:-2.0763021467662282e+000
4973:-1.9493728193171447e+000
4974:-1.7738771778257942e+000
4975:-1.6298869393600826e+000
4976:-2.7320083991854056e+000
4977:-2.4880798855669037e+000
4978:-2.1676181326798916e+000
4979:-1.9184025377679024e+000
4980:-2.3374959097892178e+000
4981:-2.1235736151512761e+000
4982:-1.8440433562576650e+000
4983:-1.6272004659291501e+000
4984:-1.8677433399344092e+000
4985:-1.6916859586900821e+000
4986:-1.4604490821393548e+000
4987:-1.2798371671212814e+000
4988:-1.5496439237962796e+000
4989:-1.3985212360530375e+000
4990:-1.1994869063276450e+000
4991:-1.0436401380414750e+000
4992:-1.7842528024555890e+000
4993:-1.5382885811632829e+000
4994:-1.2316805465816625e+000
4995:-1.0087226309276944e+000
4996:-1.5105665441234262e+000
4997:-1.2982168949753954e+000
4998:-1.0375214850945502e+000
4999:-8.5179600268933819e-001
5000:-1.1823794596078083e+000
5001:-1.0079104428417240e+000
5002:-8.0012442086336655e-001
5003:-6.5702259323641765e-001
5004:-9.5957468454800565e-001
5005:-8.1161764820970372e-001
5006:-6.3984711353266333e-001
5007:-5.2412204281783381e-001
5008:-8.9490676053337381e-001
5009:-6.9893415580699703e-001
5010:-4.8119375346936893e-001
5011:-3.4496993217861599e-001
5012:-7.5844725202118723e-001
5013:-5.9782844898605791e-001
5014:-4.1832160878422853e-001
5015:-3.0444583484415799e-001
5016:-5.8674291883870533e-001
5017:-4.6611345524932440e-001
5018:-3.3104039363868032e-001
5019:-2.4486447834136363e-001
5020:-4.6792082390501327e-001
5021:-3.7151843681562102e-001
5022:-2.6385362728644352e-001
5023:-1.9573202256730726e-001
5024:-2.8351848661536705e-001
5025:-1.8639019682759367e-001
5026:-9.4826546618198504e-002
5027:-5.1698937326837828e-002
5028:-2.5227161250421665e-001
5029:-1.6916386452768628e-001
5030:-9.0217809573824734e-002
5031:-5.2962343423344375e-002
5032:-2.0507340773140875e-001
5033:-1.4066788172347705e-001
5034:-7.7765066719339943e-002
5035:-4.6880090946418290e-002
5036:-1.6454528215281494e-001
5037:-1.1363530323765753e-001
5038:-6.3109669961759582e-002
5039:-3.7820635914036269e-002
5040:-7.1529570059838905e+000
5041:-5.1863516820561886e+000
5042:-3.2510033584408657e+000
5043:-2.1715459308422829e+000
5044:-6.8303843668469657e+000
5045:-5.0824282099996783e+000
5046:-3.3791570758063068e+000
5047:-2.4476553373382033e+000
5048:-6.3354763579522331e+000
5049:-4.9129680237626232e+000
5050:-3.5479460180576026e+000
5051:-2.8237182534831580e+000
5052:-5.9105663565501771e+000
5053:-4.7626501473958189e+000
5054:-3.6796426028695319e+000
5055:-3.1236793430164105e+000
5056:-1.7142772328639000e+000
5057:-9.4864416716641298e-001
5058:-8.2709342791784851e-002
5059:4.9796048656593461e-001
5060:-2.0617162439993151e+000
5061:-1.4261547136192074e+000
5062:-7.2327259468328109e-001
5063:-2.6165106469776017e-001
5064:-2.5341444536160829e+000
5065:-2.0723786737602348e+000
5066:-1.5881979055245201e+000
5067:-1.2897273484844010e+000
5068:-2.9101965371604561e+000
5069:-2.5839896422417508e+000
5070:-2.2704102303342917e+000
5071:-2.1013970384081082e+000
5072:7.8171972844354287e-001
5073:1.2509832480323551e+000
5074:1.7316860291919818e+000
5075:1.9961728110014940e+000
5076:-3.8411660514353393e-002
5077:3.3333611711706707e-001
5078:7.1780775547728992e-001
5079:9.3016317146203753e-001
5080:-1.1514858916716677e+000
5081:-9.2191512374767981e-001
5082:-6.8632187949250856e-001
5083:-5.6019163270185901e-001
5084:-2.0320468408529768e+000
5085:-1.9224893963897656e+000
5086:-1.8207496862681891e+000
5087:-1.7777039198587004e+000
5088:2.0983821224013197e+000
5089:2.1990633354124411e+000
5090:2.1555133524130738e+000
5091:1.9942924406690179e+000
5092:1.0115229678543936e+000
5093:1.0826529908813567e+000
5094:1.0197913822768971e+000
5095:8.5943052088917871e-001
5096:-5.1487058870345015e-001
5097:-4.9124616144093824e-001
5098:-5.7542827223609216e-001
5099:-7.2024620537485662e-001
5100:-1.7687608241116697e+000
5101:-1.7902451886913933e+000
5102:-1.8863745421197644e+000
5103:-2.0045321496165522e+000
5104:1.8665186302284653e+000
5105:1.5843136247243781e+000
5106:1.1514563011269492e+000
5107:7.7967896195161812e-001
5108:7.3825826127700345e-001
5109:4.8655535711068643e-001
5110:1.3093330537623907e-001
5111:-1.5246729356630140e-001
5112:-8.2147514989385695e-001
5113:-1.0111421139689831e+000
5114:-1.2390528441999471e+000
5115:-1.3904420110852478e+000
5116:-2.0792082289353733e+000
5117:-2.2022098878754344e+000
5118:-2.3146216817216017e+000
5119:-2.3583274456217560e+000
5120:5.7143995870104081e-001
5121:1.9009821965276441e-001
5122:-2.8596363299648564e-001
5123:-6.3651303319511310e-001
5124:-3.0408619579562274e-001
5125:-5.7862641521580160e-001
5126:-9.2012541045984653e-001
5127:-1.1731454632565594e+000
5128:-1.4612959777901156e+000
5129:-1.5869424111455450e+000
5130:-1.7442904640240331e+000
5131:-1.8642370669766317e+000
5132:-2.3663618321950759e+000
5133:-2.3755473170678449e+000
5134:-2.3848664537666617e+000
5135:-2.3933687868686357e+000
5136:-8.1749216059787788e-001
5137:-1.1241319365237130e+000
5138:-1.4610533395258543e+000
5139:-1.6761552210542512e+000
5140:-1.3046086077305807e+000
5141:-1.5220322962382926e+000
5142:-1.7479520029971225e+000
5143:-1.8807403619426186e+000
5144:-1.9277403529976371e+000
5145:-2.0231485365058894e+000
5146:-2.0993279069464559e+000
5147:-2.1234465914292984e+000
5148:-2.3982239118460815e+000
5149:-2.3899113266351275e+000
5150:-2.3435261391306401e+000
5151:-2.2828712589030564e+000
5152:-1.7768928346918493e+000
5153:-1.9406982285397518e+000
5154:-2.1077643187657684e+000
5155:-2.2025327570346640e+000
5156:-1.9382476338926240e+000
5157:-2.0224231833572714e+000
5158:-2.0886981697551885e+000
5159:-2.1086497415822594e+000
5160:-2.1249163301012941e+000
5161:-2.1077623307531845e+000
5162:-2.0498265538469691e+000
5163:-1.9810406548421895e+000
5164:-2.2422612843155805e+000
5165:-2.1521905492894304e+000
5166:-2.0113768707674717e+000
5167:-1.8887481127399939e+000
5168:-2.2417098987776285e+000
5169:-2.2905856791415262e+000
5170:-2.3048087886902495e+000
5171:-2.2773701089561236e+000
5172:-2.1093211400108092e+000
5173:-2.0971870254464302e+000
5174:-2.0556306047943744e+000
5175:-2.0036717208431631e+000
5176:-1.9373485993921751e+000
5177:-1.8570329000970061e+000
5178:-1.7572714725273630e+000
5179:-1.6836033661061860e+000
5180:-1.8199747202994461e+000
5181:-1.7011161735787157e+000
5182:-1.5673997019467634e+000
5183:-1.4795836232763218e+000
5184:-2.2496720239689054e+000
5185:-2.1838073540195331e+000
5186:-2.0716509020716161e+000
5187:-1.9645487886671509e+000
5188:-1.9689564426807302e+000
5189:-1.8941533388457281e+000
5190:-1.7776900101374553e+000
5191:-1.6733880075273548e+000
5192:-1.6447189459696032e+000
5193:-1.5665204217479309e+000
5194:-1.4531999938933238e+000
5195:-1.3578254407438874e+000
5196:-1.4369591635508820e+000
5197:-1.3547330476890054e+000
5198:-1.2418363543710531e+000
5199:-1.1517027910363693e+000
5200:-1.9002800973099965e+000
5201:-1.7761572354112449e+000
5202:-1.6077228143999551e+000
5203:-1.4721724104865130e+000
5204:-1.6127366318599174e+000
5205:-1.4967099280612761e+000
5206:-1.3417975465920471e+000
5207:-1.2197294445882585e+000
5208:-1.3041907836687885e+000
5209:-1.2014883585142708e+000
5210:-1.0645604136963973e+000
5211:-9.5776154817737691e-001
5212:-1.1025964922725158e+000
5213:-1.0089658595877025e+000
5214:-8.8508061120604720e-001
5215:-7.8978152826002856e-001
5216:-1.3975235405383302e+000
5217:-1.2574002543657810e+000
5218:-1.0736236884992238e+000
5219:-9.3039606376041406e-001
5220:-1.1535366020397746e+000
5221:-1.0306218190200398e+000
5222:-8.7204545463504979e-001
5223:-7.5056359456463140e-001
5224:-9.0052294372210495e-001
5225:-7.9626823520235612e-001
5226:-6.6597746194691321e-001
5227:-5.6943271390557260e-001
5228:-7.3934306045222131e-001
5229:-6.4883667890059094e-001
5230:-5.3845236589475431e-001
5231:-4.5877106279818741e-001
5232:-8.5343962479691438e-001
5233:-7.1922496748929932e-001
5234:-5.6505594373381918e-001
5235:-4.6164114073396190e-001
5236:-6.8603636258159018e-001
5237:-5.7451295010736925e-001
5238:-4.4693777631895215e-001
5239:-3.6043701585745752e-001
5240:-5.1916776275365828e-001
5241:-4.3178647261092212e-001
5242:-3.2935130660695694e-001
5243:-2.5698706412385669e-001
5244:-4.1790795998921954e-001
5245:-3.4588696778444089e-001
5246:-2.5913461989909148e-001
5247:-1.9612197643722964e-001
5248:-4.1133808813503919e-001
5249:-3.2497895777430885e-001
5250:-2.2884297710114387e-001
5251:-1.6866659472939199e-001
5252:-3.1770719451033480e-001
5253:-2.4476593607284999e-001
5254:-1.6530837074129845e-001
5255:-1.1753789844743680e-001
5256:-2.2010493737070627e-001
5257:-1.5851310503649790e-001
5258:-9.4921093389363581e-002
5259:-5.9745353192674940e-002
5260:-1.6356036199049268e-001
5261:-1.1045326131945309e-001
5262:-5.8137982889356975e-002
5263:-3.1011497657316284e-002
5264:-1.4146254081068335e-001
5265:-9.7160983813089505e-002
5266:-5.3422100439004062e-002
5267:-3.1887953093925281e-002
5268:-9.6848684201425200e-002
5269:-6.3964160131414760e-002
5270:-3.3185112526860502e-002
5271:-1.9910505208666034e-002
5272:-4.5802440747581753e-002
5273:-2.5242051081940591e-002
5274:-9.3693851895302917e-003
5275:-6.2192358712513992e-003
5276:-2.0962268687826482e-002
5277:-7.2224658408741845e-003
5278:1.0418050877506432e-003
5279:-2.7374480021658204e-004
5280:-5.6715717690893372e+000
5281:-4.6769641453015938e+000
5282:-3.7506497641012460e+000
5283:-3.2870418215113757e+000
5284:-5.2047305074223980e+000
5285:-4.5051086591492959e+000
5286:-3.8782345683433150e+000
5287:-3.5899001427675761e+000
5288:-4.5694815659124579e+000
5289:-4.2629841609351438e+000
5290:-4.0321010856448725e+000
5291:-3.9742181073232388e+000
5292:-4.0715750656711265e+000
5293:-4.0677357657522784e+000
5294:-4.1404465077210961e+000
5295:-4.2591069148835876e+000
5296:-3.1147521020732047e+000
5297:-2.8613721071695433e+000
5298:-2.6393499888596388e+000
5299:-2.5404420835722861e+000
5300:-3.4954740282700500e+000
5301:-3.3799536415618991e+000
5302:-3.3316815037899690e+000
5303:-3.3660377352987356e+000
5304:-3.9820475394564916e+000
5305:-4.0488182086260025e+000
5306:-4.2323278860542377e+000
5307:-4.4454040026453745e+000
5308:-4.3455324388972940e+000
5309:-4.5539151818774695e+000
5310:-4.9199782616383239e+000
5311:-5.2751583640238788e+000
5312:-2.5088522098166375e+000
5313:-2.4669037019511291e+000
5314:-2.4437289806591331e+000
5315:-2.4515922432250439e+000
5316:-3.4063575638084411e+000
5317:-3.4947646750228043e+000
5318:-3.6261987319206419e+000
5319:-3.7366320491965643e+000
5320:-4.5823233566498658e+000
5321:-4.8460370760861675e+000
5322:-5.1856826454652314e+000
5323:-5.4344096718211832e+000
5324:-5.4890505487392209e+000
5325:-5.8902150233362942e+000
5326:-6.3884807819624019e+000
5327:-6.7388944744452051e+000
5328:-2.4655699988926925e+000
5329:-2.5144750860482925e+000
5330:-2.6147946231104684e+000
5331:-2.7123837951071921e+000
5332:-3.7975093947960739e+000
5333:-3.9005229350058657e+000
5334:-4.0031254987105811e+000
5335:-4.0517894614778989e+000
5336:-5.5584406606674328e+000
5337:-5.7320265207212628e+000
5338:-5.8307935616685072e+000
5339:-5.8060986808081125e+000
5340:-6.9080456637109000e+000
5341:-7.1314983637299738e+000
5342:-7.2262417235494230e+000
5343:-7.1477576530024098e+000
5344:-2.7681757043799986e+000
5345:-2.8484070122575993e+000
5346:-2.8942338095928482e+000
5347:-2.8803783145307036e+000
5348:-4.0651041012502667e+000
5349:-4.0557534230094117e+000
5350:-3.9728920798717793e+000
5351:-3.8541293243444970e+000
5352:-5.7579253597060971e+000
5353:-5.6238282303981890e+000
5354:-5.3702402232738651e+000
5355:-5.1176868055022737e+000
5356:-7.0547078636353824e+000
5357:-6.8279811105768653e+000
5358:-6.4447358649199176e+000
5359:-6.0887938146260119e+000
5360:-2.8560312815740909e+000
5361:-2.8039476469249465e+000
5362:-2.7319120248606255e+000
5363:-2.6761933150921493e+000
5364:-3.7723111032682679e+000
5365:-3.6082111893166009e+000
5366:-3.3801002155782829e+000
5367:-3.1959692879715398e+000
5368:-4.9639759245182402e+000
5369:-4.6569854456060646e+000
5370:-4.2235975851080481e+000
5371:-3.8662832639180249e+000
5372:-5.8791256317277618e+000
5373:-5.4626702926338861e+000
5374:-4.8752576460629555e+000
5375:-4.3897998383678321e+000
5376:-2.6462812182284838e+000
5377:-2.5773577913110914e+000
5378:-2.4617952862653065e+000
5379:-2.3553883990866971e+000
5380:-3.0951066649639909e+000
5381:-2.9042121202477684e+000
5382:-2.6537497501274179e+000
5383:-2.4616741255705170e+000
5384:-3.6685375852421815e+000
5385:-3.3117294397011627e+000
5386:-2.8796956593058041e+000
5387:-2.5740219949894754e+000
5388:-4.1206835038319234e+000
5389:-3.6398248998241760e+000
5390:-3.0679957383635150e+000
5391:-2.6715605513881759e+000
5392:-2.2928951255597543e+000
5393:-2.1665762584873942e+000
5394:-1.9880473097602540e+000
5395:-1.8439338375599763e+000
5396:-2.3596024052626605e+000
5397:-2.1705889419274826e+000
5398:-1.9325171088210715e+000
5399:-1.7593774102359254e+000
5400:-2.4202200337110473e+000
5401:-2.1512522337052218e+000
5402:-1.8407976330449796e+000
5403:-1.6350883701978447e+000
5404:-2.4751497584262885e+000
5405:-2.1381854599978656e+000
5406:-1.7607847879986374e+000
5407:-1.5187630792859563e+000
5408:-1.7662359271866135e+000
5409:-1.6330431296230532e+000
5410:-1.4846056022155445e+000
5411:-1.3883233331749063e+000
5412:-1.6714217807216116e+000
5413:-1.5189200380465511e+000
5414:-1.3437568615842617e+000
5415:-1.2263388105259228e+000
5416:-1.5365294008633599e+000
5417:-1.3603353237818128e+000
5418:-1.1459279526827741e+000
5419:-9.9418589874033247e-001
5420:-1.4051974048131077e+000
5421:-1.2001485809457244e+000
5422:-9.4750115612331809e-001
5423:-7.6820707577260727e-001
5424:-1.3421126930803111e+000
5425:-1.2547741833729087e+000
5426:-1.1386834633796159e+000
5427:-1.0490471709243363e+000
5428:-1.1689692648163073e+000
5429:-1.0644868474671589e+000
5430:-9.3464931435443122e-001
5431:-8.4148193356449330e-001
5432:-9.1800398810856043e-001
5433:-7.8470580027302339e-001
5434:-6.3179227951787009e-001
5435:-5.3236605731620079e-001
5436:-6.7874402529644762e-001
5437:-5.2657923566122378e-001
5438:-3.6167552697660454e-001
5439:-2.6284544791785969e-001
5440:-1.0012658418528251e+000
5441:-9.1109880243507035e-001
5442:-7.9364012389131167e-001
5443:-7.0491420055448806e-001
5444:-7.9433862380899478e-001
5445:-7.0885686373960555e-001
5446:-6.0408057670407955e-001
5447:-5.3010872759673178e-001
5448:-4.8593379666850567e-001
5449:-4.0775475735269973e-001
5450:-3.2325421572809732e-001
5451:-2.7251855328335217e-001
5452:-2.2010059005321192e-001
5453:-1.5272067182783788e-001
5454:-8.8652111143575463e-002
5455:-5.7766304309862716e-002
5456:-6.5856285632481304e-001
5457:-5.7594837620313100e-001
5458:-4.7616226424144326e-001
5459:-4.0488175020126155e-001
5460:-4.9323063145154639e-001
5461:-4.2838014168864474e-001
5462:-3.5137315460961016e-001
5463:-2.9747101711272478e-001
5464:-2.5032772398543246e-001
5465:-2.1254009195497833e-001
5466:-1.6951289446273138e-001
5467:-1.4118603136446473e-001
5468:-4.7304765294614984e-002
5469:-3.1087017830479742e-002
5470:-1.5485820934921724e-002
5471:-8.2131562591146318e-003
5472:-3.6854175240641412e-001
5473:-3.0407766350216703e-001
5474:-2.2581928774902388e-001
5475:-1.6886831728932256e-001
5476:-2.7037029192874601e-001
5477:-2.2244785286776214e-001
5478:-1.6503593001904918e-001
5479:-1.2438020025861217e-001
5480:-1.2768860867928988e-001
5481:-1.0523409228386225e-001
5482:-8.1608961810924363e-002
5483:-6.7897508004275575e-002
5484:-6.0766648368994298e-003
5485:-4.7343857609790799e-003
5486:-8.2977116343634135e-003
5487:-1.5300740327601521e-002
5488:-1.3953913435810050e-001
5489:-9.2363739950917623e-002
5490:-4.6900982553324207e-002
5491:-2.3835998770970770e-002
5492:-1.0397008852438845e-001
5493:-7.1744981880531133e-002
5494:-4.1051155715282235e-002
5495:-2.5015350832482668e-002
5496:-6.2129183178430247e-002
5497:-5.3261557602256093e-002
5498:-4.3661364350065082e-002
5499:-3.6316601753617804e-002
5500:-2.0405290896513929e-002
5501:-2.8753990590722971e-002
5502:-3.4892179442738321e-002
5503:-3.4569039565380426e-002
5504:-1.5416833157518630e-002
5505:-4.1617566436044362e-003
5506:2.1084196963190856e-003
5507:4.2727576953855307e-004
5508:-1.8725545796290880e-002
5509:-9.8502102823032830e-003
5510:-3.4678306114712112e-003
5511:-2.2694700623264149e-003
5512:-3.2069345550299014e-002
5513:-2.4564246810331335e-002
5514:-1.5266559967186615e-002
5515:-7.8903234459412868e-003
5516:-3.2400078180845823e-002
5517:-2.7270935468910185e-002
5518:-1.8152280794929424e-002
5519:-8.4444662491580027e-003
5520:-3.8050646915995276e+000
5521:-3.9612313343962220e+000
5522:-4.1943596787392590e+000
5523:-4.4065744855316851e+000
5524:-3.3070558222860940e+000
5525:-3.7542086673076942e+000
5526:-4.2804376474743036e+000
5527:-4.6654559458381550e+000
5528:-2.6739920561191433e+000
5529:-3.4744653771540639e+000
5530:-4.3619656809942420e+000
5531:-4.9659732360474722e+000
5532:-2.2124485259626225e+000
5533:-3.2571631429488326e+000
5534:-4.4011736840261699e+000
5535:-5.1674914895007173e+000
5536:-4.5348715122442389e+000
5537:-4.8194079308654443e+000
5538:-5.2847626355442365e+000
5539:-5.7178092653987971e+000
5540:-4.8720519912275577e+000
5541:-5.3006076000628441e+000
5542:-5.9551640424282839e+000
5543:-6.5363375028824784e+000
5544:-5.2744646183333979e+000
5545:-5.8926119564378272e+000
5546:-6.7966346195005487e+000
5547:-7.5709560645629450e+000
5548:-5.5542456601727572e+000
5549:-6.3186166426589523e+000
5550:-7.4131112397289725e+000
5551:-8.3318340950119261e+000
5552:-5.9739110190177289e+000
5553:-6.4489182048191633e+000
5554:-7.0292675159214575e+000
5555:-7.4298047818347488e+000
5556:-6.8721409998396865e+000
5557:-7.4824663865584800e+000
5558:-8.2056579070354143e+000
5559:-8.6878408218708660e+000
5560:-8.0091319717809153e+000
5561:-8.7868561114412547e+000
5562:-9.6751831153400438e+000
5563:-1.0243165685850292e+001
5564:-8.8450495008734418e+000
5565:-9.7421210605124315e+000
5566:-1.0742481392585441e+001
5567:-1.1364525673370261e+001
5568:-7.6203077729242530e+000
5569:-7.8674597771050561e+000
5570:-7.9608851975550881e+000
5571:-7.8575972397469176e+000
5572:-8.9112014239279951e+000
5573:-9.1951226823465095e+000
5574:-9.2882084417316566e+000
5575:-9.1488310065511840e+000
5576:-1.0498023576327830e+001
5577:-1.0818317088052599e+001
5578:-1.0916198482691357e+001
5579:-1.0748723794717460e+001
5580:-1.1637766110098067e+001
5581:-1.1980849402988477e+001
5582:-1.2087715412815214e+001
5583:-1.1911757222065553e+001
5584:-7.7435781206320700e+000
5585:-7.4714441075564277e+000
5586:-7.0207969892918003e+000
5587:-6.6086288138225386e+000
5588:-9.0036220272170855e+000
5589:-8.6589705299618362e+000
5590:-8.0908132473425241e+000
5591:-7.5734238572703108e+000
5592:-1.0577473521572399e+001
5593:-1.0162750297457094e+001
5594:-9.4626768919253657e+000
5595:-8.8141771028428089e+000
5596:-1.1730341026326082e+001
5597:-1.1279752380307269e+001
5598:-1.0497370094626946e+001
5599:-9.7574865451978621e+000
5600:-6.3678967936380344e+000
5601:-5.8923541955825396e+000
5602:-5.2252627780405412e+000
5603:-4.6757091557631627e+000
5604:-7.2723399496343397e+000
5605:-6.6837758789493806e+000
5606:-5.8698342563034203e+000
5607:-5.2069569123674633e+000
5608:-8.4338482901425031e+000
5609:-7.6968604545679327e+000
5610:-6.6940289733591349e+000
5611:-5.8905061778762811e+000
5612:-9.3189762972935348e+000
5613:-8.4703082897811512e+000
5614:-7.3228186973777447e+000
5615:-6.4115870746022088e+000
5616:-4.3713987349626251e+000
5617:-3.8280070563522846e+000
5618:-3.1825807964809618e+000
5619:-2.7358144751522637e+000
5620:-4.8419162544530794e+000
5621:-4.1884100020672452e+000
5622:-3.4074799849053674e+000
5623:-2.8628149434554171e+000
5624:-5.4520806327129190e+000
5625:-4.6631067037984844e+000
5626:-3.7081764832438631e+000
5627:-3.0309798180585221e+000
5628:-5.9174431825540657e+000
5629:-5.0256532834835168e+000
5630:-3.9373449652154462e+000
5631:-3.1565608818092183e+000
5632:-2.5147908246075019e+000
5633:-2.1367568757869617e+000
5634:-1.7149141295378527e+000
5635:-1.4448863102092351e+000
5636:-2.5918045035862756e+000
5637:-2.1264836013084403e+000
5638:-1.6027109936308350e+000
5639:-1.2625682312070685e+000
5640:-2.6895013940852288e+000
5641:-2.0957266986166929e+000
5642:-1.4122221148669705e+000
5643:-9.5540750592882784e-001
5644:-2.7590071956144833e+000
5645:-2.0606531227352689e+000
5646:-1.2432002464337755e+000
5647:-6.8623291891007610e-001
5648:-1.3181979818989895e+000
5649:-1.0905191873741127e+000
5650:-8.1334831698733856e-001
5651:-6.2026238196232331e-001
5652:-1.1012649465301163e+000
5653:-8.1796637634830327e-001
5654:-4.8898379227671107e-001
5655:-2.7343986147785027e-001
5656:-7.3467245668252501e-001
5657:-3.5893309904159149e-001
5658:4.9906958761170531e-002
5659:2.9504572967674186e-001
5660:-4.1388933824548496e-001
5661:4.2699261918401940e-002
5662:5.2344812426050391e-001
5663:7.9830952933224020e-001
5664:-5.2551510421425851e-001
5665:-3.6697346841264972e-001
5666:-2.0061819705577538e-001
5667:-1.0597534493973657e-001
5668:-1.7290941535192347e-001
5669:-1.0010481105303309e-002
5670:1.5027556171043771e-001
5671:2.3115238366209018e-001
5672:4.0069741721807817e-001
5673:5.6486554685848878e-001
5674:7.1267379079684812e-001
5675:7.7298795775562090e-001
5676:9.1140805602775454e-001
5677:1.0829858401527463e+000
5678:1.2293624508690222e+000
5679:1.2799806673261986e+000
5680:-6.7238246156496498e-002
5681:-8.6346561289649508e-003
5682:4.2365712672029966e-002
5683:6.2362798215741831e-002
5684:2.5957709412252583e-001
5685:2.9830866474460344e-001
5686:3.2354651322840910e-001
5687:3.2404576810386210e-001
5688:7.8691656317245817e-001
5689:7.9883213393035801e-001
5690:7.9034344545508373e-001
5691:7.6511852634827626e-001
5692:1.2859088760826713e+000
5693:1.2814765040492284e+000
5694:1.2485151188707952e+000
5695:1.2009327108880512e+000
5696:6.6841197593180621e-002
5697:7.1950757933460077e-002
5698:7.2990722922702131e-002
5699:6.8711805463773992e-002
5700:3.1821316379121933e-001
5701:3.0330354919320524e-001
5702:2.7630371647600249e-001
5703:2.4867960392421656e-001
5704:7.4529412535256445e-001
5705:7.0178808582103724e-001
5706:6.3255202820194922e-001
5707:5.6878657524997056e-001
5708:1.1676187342665547e+000
5709:1.0963053273015007e+000
5710:9.8641783034302255e-001
5711:8.8848290760557991e-001
5712:6.4506755786801886e-002
5713:5.4396701129393210e-002
5714:3.6950498986994776e-002
5715:2.0122153563845016e-002
5716:2.3141794579617325e-001
5717:1.9823658252299697e-001
5718:1.5406145592046433e-001
5719:1.1934986549038652e-001
5720:5.3116671833157658e-001
5721:4.6195733574043835e-001
5722:3.7601388123568730e-001
5723:3.1339255544127737e-001
5724:8.3182730758057555e-001
5725:7.2806276755705601e-001
5726:6.0007178128165917e-001
5727:5.0773265653759569e-001
5728:1.0110234169520093e-002
5729:-6.1690898076521075e-003
5730:-2.0157171489082561e-002
5731:-2.4066987587723722e-002
5732:1.0071099261161096e-001
5733:6.9473302756057786e-002
5734:3.8142243407007691e-002
5735:2.2478131536511913e-002
5736:2.8124370135426169e-001
5737:2.2516025950747559e-001
5738:1.6198916486732309e-001
5739:1.2237386540558597e-001
5740:4.6063119793724955e-001
5741:3.7718870086795137e-001
5742:2.7954403923893972e-001
5743:2.1449292882322463e-001
5744:-2.3589905209115039e-002
5745:-2.1132588921990176e-002
5746:-1.4479607622935327e-002
5747:-5.7513977605516530e-003
5748:1.7181762289243473e-002
5749:9.4446760202784204e-003
5750:4.3629477178850733e-003
5751:5.6242714032041039e-003
5752:1.0452088396588884e-001
5753:7.4518847099094010e-002
5754:4.3730332055785179e-002
5755:2.8397809270117255e-002
5756:1.8352390199471452e-001
5757:1.3118933151530046e-001
5758:7.6538347942657431e-002
5759:4.7412047621275481e-002
5760:-1.9779998662948148e+000
5761:-3.1416214851200190e+000
5762:-4.4138567713208898e+000
5763:-5.2644748886561405e+000
5764:-1.5631689365675900e+000
5765:-2.9281029093994784e+000
5766:-4.4228414809368219e+000
5767:-5.4248429812586618e+000
5768:-1.0725158094067679e+000
5769:-2.6608222040802199e+000
5770:-4.4097626112293193e+000
5771:-5.5922498312683668e+000
5772:-7.3556110317466117e-001
5773:-2.4682998772653924e+000
5774:-4.3843104741317989e+000
5775:-5.6892564963601924e+000
5776:-5.6930466800601609e+000
5777:-6.5354012249945548e+000
5778:-7.7301103116715559e+000
5779:-8.7233060245647387e+000
5780:-5.9303130095649124e+000
5781:-6.9153532249127059e+000
5782:-8.2910375117656141e+000
5783:-9.4167613774820627e+000
5784:-6.1921675765925244e+000
5785:-7.3518834000542039e+000
5786:-8.9463450337603430e+000
5787:-1.0229747344165656e+001
5788:-6.3548516110650999e+000
5789:-7.6364017496580967e+000
5790:-9.3829199969215171e+000
5791:-1.0774934299159316e+001
5792:-9.2746004974968166e+000
5793:-1.0231521352355850e+001
5794:-1.1287062414258463e+001
5795:-1.1935135156198072e+001
5796:-1.0035158407373807e+001
5797:-1.1097647136827012e+001
5798:-1.2250961521753666e+001
5799:-1.2945544259131589e+001
5800:-1.0927130481016198e+001
5801:-1.2115138497297146e+001
5802:-1.3387689942531999e+001
5803:-1.4141659344628103e+001
5804:-1.1526370880383872e+001
5805:-1.2802073289029192e+001
5806:-1.4161993370030999e+001
5807:-1.4963139454402949e+001
5808:-1.2217072077080717e+001
5809:-1.2571692364084349e+001
5810:-1.2685569471434754e+001
5811:-1.2509123997670482e+001
5812:-1.3243249643987369e+001
5813:-1.3619845562334826e+001
5814:-1.3749811689784369e+001
5815:-1.3576472146101388e+001
5816:-1.4460810346426118e+001
5817:-1.4869569489809638e+001
5818:-1.5028241946807546e+001
5819:-1.4867057075872721e+001
5820:-1.5301022672472026e+001
5821:-1.5739580453663978e+001
5822:-1.5928180032827116e+001
5823:-1.5783239012229513e+001
5824:-1.2325211883452729e+001
5825:-1.1861238105181068e+001
5826:-1.1041937900303834e+001
5827:-1.0257634218532361e+001
5828:-1.3390554260691721e+001
5829:-1.2906630994690680e+001
5830:-1.2025491716606549e+001
5831:-1.1164560476365583e+001
5832:-1.4683506362722934e+001
5833:-1.4183563673135565e+001
5834:-1.3237446997906206e+001
5835:-1.2291841851454919e+001
5836:-1.5605492813599291e+001
5837:-1.5101792338203797e+001
5838:-1.4120137351878782e+001
5839:-1.3123836311739765e+001
5840:-9.7898250080845806e+000
5841:-8.8832268586331864e+000
5842:-7.6582741563898669e+000
5843:-6.6881825026434054e+000
5844:-1.0645724233632674e+001
5845:-9.6361612838865476e+000
5846:-8.2687104847257000e+000
5847:-7.1861014566988208e+000
5848:-1.1715764555650221e+001
5849:-1.0585890099938007e+001
5850:-9.0407327783120710e+000
5851:-7.8081572237490819e+000
5852:-1.2512550449752592e+001
5853:-1.1303411728262088e+001
5854:-9.6298878604162734e+000
5855:-8.2802189393244738e+000
5856:-6.1633852744381707e+000
5857:-5.2155315524307388e+000
5858:-4.0552700617229691e+000
5859:-3.2188627653843138e+000
5860:-6.6010955343658448e+000
5861:-5.5421241523679887e+000
5862:-4.2387307037232258e+000
5863:-3.2921574270176772e+000
5864:-7.1392125232882506e+000
5865:-5.9205408773148926e+000
5866:-4.4050187517325119e+000
5867:-3.2925471236963242e+000
5868:-7.5425791462466654e+000
5869:-6.1876177946090039e+000
5870:-4.4824125949148268e+000
5871:-3.2169469336998335e+000
5872:-2.7911803214112458e+000
5873:-2.0363263302112240e+000
5874:-1.1461028621029330e+000
5875:-5.3462886714108948e-001
5876:-2.8052370282930297e+000
5877:-1.9407303913030065e+000
5878:-9.1216859401505290e-001
5879:-1.9931657826317337e-001
5880:-2.7164492258502753e+000
5881:-1.6926102131944643e+000
5882:-4.7491782711419245e-001
5883:3.6758598874689691e-001
5884:-2.5579075774144178e+000
5885:-1.3918621191516345e+000
5886:-1.8338696952621851e-002
5887:9.2074915252542999e-001
5888:-2.3417582423839833e-001
5889:2.6732214479656807e-001
5890:7.9037758824900406e-001
5891:1.0854621206517712e+000
5892:1.5274985555676371e-001
5893:7.3796371884677203e-001
5894:1.3434996410271252e+000
5895:1.6819677849450949e+000
5896:7.8280149140634381e-001
5897:1.4708311267967804e+000
5898:2.1803217330360916e+000
5899:2.5766128450278636e+000
5900:1.3794456052961410e+000
5901:2.1367780774003253e+000
5902:2.9147859090965706e+000
5903:3.3482382318766000e+000
5904:1.2053067980548324e+000
5905:1.3858910108927205e+000
5906:1.5376264403473952e+000
5907:1.5874324216927187e+000
5908:1.8183626444817671e+000
5909:2.0227297952814713e+000
5910:2.1922265669186527e+000
5911:2.2454598291685790e+000
5912:2.7366496888633391e+000
5913:2.9760206640145799e+000
5914:3.1735202123919644e+000
5915:3.2345850049993734e+000
5916:3.5231891002869551e+000
5917:3.7843701205971088e+000
5918:3.9985261893630137e+000
5919:4.0630955177405772e+000
5920:1.5912500787049302e+000
5921:1.5808116112339015e+000
5922:1.5354062303336595e+000
5923:1.4740276741898155e+000
5924:2.2475103338907942e+000
5925:2.2271754365508381e+000
5926:2.1549632854524519e+000
5927:2.0614879735919653e+000
5928:3.2358347346095497e+000
5929:3.2024608976351829e+000
5930:3.0897480177742103e+000
5931:2.9468684253794284e+000
5932:4.0627402041457685e+000
5933:4.0175274610876066e+000
5934:3.8717497316351230e+000
5935:3.6901702773145986e+000
5936:1.4317455602230975e+000
5937:1.3422146707391323e+000
5938:1.2064885107253560e+000
5939:1.0874175717769081e+000
5940:1.9980760092416787e+000
5941:1.8669299010799412e+000
5942:1.6744180999688305e+000
5943:1.5100730578521835e+000
5944:2.8510224103757200e+000
5945:2.6563724131896040e+000
5946:2.3772379974954694e+000
5947:2.1432412345953731e+000
5948:3.5692822208967980e+000
5949:3.3241441754550358e+000
5950:2.9725960321293448e+000
5951:2.6774944216005325e+000
5952:1.0191432027276950e+000
5953:8.9380333079493890e-001
5954:7.3845041550633839e-001
5955:6.2589281063065250e-001
5956:1.4171263172854685e+000
5957:1.2451094833297176e+000
5958:1.0285354283122723e+000
5959:8.6907316070075868e-001
5960:2.0119609628782253e+000
5961:1.7665051397201601e+000
5962:1.4515947755459542e+000
5963:1.2150647166008677e+000
5964:2.5116367072300099e+000
5965:2.1998693236098195e+000
5966:1.7961974838051882e+000
5967:1.4899590444739399e+000
5968:5.6833625352720274e-001
5969:4.6609759820992708e-001
5970:3.4561697076020415e-001
5971:2.6438678021919421e-001
5972:7.8671760910844701e-001
5973:6.4051214138601853e-001
5974:4.6853288236082502e-001
5975:3.5267052984852726e-001
5976:1.0914259742461994e+000
5977:8.7340499847808006e-001
5978:6.2123225642163360e-001
5979:4.5530968283753431e-001
5980:1.3289564323396035e+000
5981:1.0472586543534854e+000
5982:7.2743905082960181e-001
5983:5.2274628494756947e-001
5984:2.2532488856536181e-001
5985:1.5977069127148835e-001
5986:9.2167255015432770e-002
5987:5.6619019816088724e-002
5988:2.9705856224429222e-001
5989:2.0575123005706444e-001
5990:1.1525830309047166e-001
5991:7.0345190815621975e-002
5992:3.7737679470182112e-001
5993:2.5266736718770200e-001
5994:1.3431694605396799e-001
5995:7.9261065021936986e-002
5996:4.2897828411507882e-001
5997:2.8068536943261801e-001
5998:1.4166133746688658e-001
5999:7.7353278661634967e-002
6000:-5.6962836156187979e-001
6001:-2.3709342084624740e+000
6002:-4.3662708597488837e+000
6003:-5.7300868731878216e+000
6004:-2.8195280962783048e-001
6005:-2.1972570246788008e+000
6006:-4.3246998119153206e+000
6007:-5.7869084173641134e+000
6008:4.3877019139729863e-002
6009:-1.9881628457190865e+000
6010:-4.2529477383746359e+000
6011:-5.8192450452410522e+000
6012:2.5306429260030683e-001
6013:-1.8410720526901703e+000
6014:-4.1821667432986676e+000
6015:-5.8090390865954742e+000
6016:-6.4276546946613005e+000
6017:-7.7688534668736624e+000
6018:-9.5900813924864572e+000
6019:-1.1035435624746789e+001
6020:-6.5380457761964133e+000
6021:-7.9790897673235124e+000
6022:-9.9257152703683698e+000
6023:-1.1461351590627212e+001
6024:-6.6275758946104588e+000
6025:-8.1748737732698675e+000
6026:-1.0255578655883776e+001
6027:-1.1889503690119442e+001
6028:-6.6514541602848416e+000
6029:-8.2618642293234590e+000
6030:-1.0422921519839035e+001
6031:-1.2117466820813116e+001
6032:-1.1813411739894599e+001
6033:-1.3133149853149277e+001
6034:-1.4539058019779910e+001
6035:-1.5366869110052134e+001
6036:-1.2284782490874340e+001
6037:-1.3683091062508234e+001
6038:-1.5177338096455815e+001
6039:-1.6061435196030835e+001
6040:-1.2763666849116291e+001
6041:-1.4256518522495925e+001
6042:-1.5870108021982002e+001
6043:-1.6839965800822448e+001
6044:-1.3024075732872429e+001
6045:-1.4583349250756823e+001
6046:-1.6291261459657463e+001
6047:-1.7335827412449323e+001
6048:-1.5716116847205084e+001
6049:-1.6173278931861034e+001
6050:-1.6381432660559259e+001
6051:-1.6247932419535289e+001
6052:-1.6436654078431612e+001
6053:-1.6937802947660611e+001
6054:-1.7194249048083911e+001
6055:-1.7090473820953608e+001
6056:-1.7258226998438303e+001
6057:-1.7835027359989756e+001
6058:-1.8178463474523202e+001
6059:-1.8130945766317780e+001
6060:-1.7793784694881140e+001
6061:-1.8442227014974566e+001
6062:-1.8870780890833892e+001
6063:-1.8880160631684650e+001
6064:-1.6074787442461332e+001
6065:-1.5572415042685384e+001
6066:-1.4577577168171624e+001
6067:-1.3560031958327674e+001
6068:-1.6930062157271525e+001
6069:-1.6438119833509941e+001
6070:-1.5430285096770957e+001
6071:-1.4383538735979529e+001
6072:-1.7995896405107342e+001
6073:-1.7533553844841034e+001
6074:-1.6530527169229298e+001
6075:-1.5464373625524942e+001
6076:-1.8771524590544391e+001
6077:-1.8343995483037624e+001
6078:-1.7359887197213911e+001
6079:-1.6291194511513215e+001
6080:-1.2933493875377069e+001
6081:-1.1687302550283585e+001
6082:-9.9485074132149887e+000
6083:-8.5357012990039181e+000
6084:-1.3734598072054084e+001
6085:-1.2427823794532051e+001
6086:-1.0572117017791220e+001
6087:-9.0404498822190167e+000
6088:-1.4796926047500108e+001
6089:-1.3427483390011284e+001
6090:-1.1432107895411615e+001
6091:-9.7486796275332335e+000
6092:-1.5616537198416022e+001
6093:-1.4210753174088923e+001
6094:-1.2120092995994815e+001
6095:-1.0326465728333799e+001
6096:-7.7598308374292264e+000
6097:-6.3266277696981499e+000
6098:-4.5087148854760528e+000
6099:-3.1501767411959145e+000
6100:-8.1909613194062327e+000
6101:-6.6038172197665581e+000
6102:-4.5583919491759817e+000
6103:-3.0081356259777747e+000
6104:-8.8026282128680258e+000
6105:-7.0102630122526906e+000
6106:-4.6559525150905072e+000
6107:-2.8416091131079191e+000
6108:-9.3087085757566594e+000
6109:-7.3638424037558829e+000
6110:-4.7801471780084537e+000
6111:-2.7696470135830786e+000
6112:-2.4402727339973835e+000
6113:-1.1892507087639312e+000
6114:2.7230494919130888e-001
6115:1.2616192488664195e+000
6116:-2.1924769728427260e+000
6117:-7.6731630352922930e-001
6118:8.6826537482001165e-001
6119:1.9508995695726903e+000
6120:-1.8791927007823586e+000
6121:-2.1309386470489514e-001
6122:1.6605850264269599e+000
6123:2.8677886987285510e+000
6124:-1.6980341883892565e+000
6125:1.4999402961030620e-001
6126:2.2089148277589210e+000
6127:3.5176128361401364e+000
6128:1.7412444964464464e+000
6129:2.5308185893060493e+000
6130:3.3389940109891976e+000
6131:3.7874042454385082e+000
6132:2.4668384521440916e+000
6133:3.3105656748227870e+000
6134:4.1666366458275359e+000
6135:4.6364089697700361e+000
6136:3.4306755211535482e+000
6137:4.3438180531812742e+000
6138:5.2611918118210879e+000
6139:5.7587792291680984e+000
6140:4.1207491021515787e+000
6141:5.0957756430117787e+000
6142:6.0729508332741018e+000
6143:6.6031722254041307e+000
6144:3.9678047150934055e+000
6145:4.2365368958141181e+000
6146:4.4554677533086702e+000
6147:4.5196137525335818e+000
6148:4.8235690123536674e+000
6149:5.1008176412989599e+000
6150:5.3231188416257780e+000
6151:5.3835493333815378e+000
6152:5.9550831906126280e+000
6153:6.2432195499725980e+000
6154:6.4679579981696467e+000
6155:6.5210192066808856e+000
6156:6.8129278507679913e+000
6157:7.1186523334050440e+000
6158:7.3514502203529997e+000
6159:7.3995313758153722e+000
6160:4.5174723310944120e+000
6161:4.4649049078417082e+000
6162:4.3016237280764145e+000
6163:4.1007086803282684e+000
6164:5.3770173408388473e+000
6165:5.3102368312912942e+000
6166:5.1163121626765893e+000
6167:4.8825531762173497e+000
6168:6.5072025744238111e+000
6169:6.4198376074534576e+000
6170:6.1845767253579274e+000
6171:5.9073348898710281e+000
6172:7.3792191056640872e+000
6173:7.2730630224542550e+000
6174:6.9995118805342482e+000
6175:6.6815382051681054e+000
6176:3.9675118607218733e+000
6177:3.6964238051710470e+000
6178:3.3051860419625090e+000
6179:2.9748232958668068e+000
6180:4.7284389697711386e+000
6181:4.4102000103953074e+000
6182:3.9409380588710219e+000
6183:3.5374980787330998e+000
6184:5.7254077282126223e+000
6185:5.3412869056391346e+000
6186:4.7573027758641500e+000
6187:4.2430829057661201e+000
6188:6.4734769074240326e+000
6189:6.0287963946306276e+000
6190:5.3417196749658560e+000
6191:4.7292730816013764e+000
6192:2.7884949883239729e+000
6193:2.4375975198171558e+000
6194:1.9819843580653509e+000
6195:1.6352572545416133e+000
6196:3.3077653670002651e+000
6197:2.8745807049915548e+000
6198:2.3123021487441426e+000
6199:1.8850348769372924e+000
6200:3.9468629306110250e+000
6201:3.3908758050868597e+000
6202:2.6780233700368354e+000
6203:2.1449535634064181e+000
6204:4.3746257425861232e+000
6205:3.7148093287903161e+000
6206:2.8843404806629209e+000
6207:2.2773635451287992e+000
6208:1.4526726502805896e+000
6209:1.1348274921925712e+000
6210:7.7813058359372356e-001
6211:5.5381518312463374e-001
6212:1.6606160994872425e+000
6213:1.2748744871124065e+000
6214:8.5285239915210798e-001
6215:5.9693629674862492e-001
6216:1.8686223657170025e+000
6217:1.4020261221960850e+000
6218:9.0779168580656167e-001
6219:6.2132021201009424e-001
6220:1.9681400982861685e+000
6221:1.4524301235308132e+000
6222:9.1709443824300951e-001
6223:6.1517659648080125e-001
6224:4.5268940622420112e-001
6225:2.9320570221997938e-001
6226:1.4323864195207822e-001
6227:7.2644562379305735e-002
6228:4.8521151759607728e-001
6229:3.0887566837798758e-001
6230:1.4038812720633836e-001
6231:5.7651333876568414e-002
6232:5.0118498992160587e-001
6233:3.1114716446579427e-001
6234:1.2697683851996605e-001
6235:3.4533577722151113e-002
6236:4.9166080170192883e-001
6237:2.9727926185540848e-001
6238:1.1154695826951661e-001
6239:2.2474719299569085e-002
6240:3.4955351577980914e-001
6241:-1.7670816001733092e+000
6242:-4.1378852548899747e+000
6243:-5.7899782598379401e+000
6244:5.0216941452298969e-001
6245:-1.6342425416655897e+000
6246:-4.0375916140627437e+000
6247:-5.7218077719362741e+000
6248:6.4800292655059655e-001
6249:-1.4708915600020940e+000
6250:-3.8710271141873531e+000
6251:-5.5664735877960219e+000
6252:7.2196368717648118e-001
6253:-1.3516573818090083e+000
6254:-3.7148425350589069e+000
6255:-5.3950069566086061e+000
6256:-6.6470400456367793e+000
6257:-8.2845055558966862e+000
6258:-1.0480345514069922e+001
6259:-1.2201896309759142e+001
6260:-6.5986322988811272e+000
6261:-8.2722307100984072e+000
6262:-1.0514538853218291e+001
6263:-1.2273129618654265e+001
6264:-6.4532903354198456e+000
6265:-8.1446353410657064e+000
6266:-1.0410777076632103e+001
6267:-1.2191584943764719e+001
6268:-6.2769988060756896e+000
6269:-7.9592566301258483e+000
6270:-1.0216372317744490e+001
6271:-1.1995627879436057e+001
6272:-1.3123453554486160e+001
6273:-1.4715769566138359e+001
6274:-1.6474576548266356e+001
6275:-1.7561850988119730e+001
6276:-1.3215984216466696e+001
6277:-1.4860677976975591e+001
6278:-1.6709568998970312e+001
6279:-1.7878913356909763e+001
6280:-1.3149391013181166e+001
6281:-1.4843002891813095e+001
6282:-1.6795837371223342e+001
6283:-1.8072527983906227e+001
6284:-1.2955975241296210e+001
6285:-1.4672918976124166e+001
6286:-1.6693934119873788e+001
6287:-1.8050917749771376e+001
6288:-1.8043218168817081e+001
6289:-1.8734633082809246e+001
6290:-1.9215364486808895e+001
6291:-1.9260396952530677e+001
6292:-1.8407508946561553e+001
6293:-1.9189177020640841e+001
6294:-1.9785760801501208e+001
6295:-1.9914652734305882e+001
6296:-1.8667106923582125e+001
6297:-1.9582437307240713e+001
6298:-2.0363547966076926e+001
6299:-2.0635095275901772e+001
6300:-1.8697870874793846e+001
6301:-1.9725356032263065e+001
6302:-2.0671150040870575e+001
6303:-2.1076332251397343e+001
6304:-1.9168611014746141e+001
6305:-1.8764386751351328e+001
6306:-1.7795978283657558e+001
6307:-1.6730096960273826e+001
6308:-1.9864371645827781e+001
6309:-1.9522692969146686e+001
6310:-1.8606773913235717e+001
6311:-1.7561147186440909e+001
6312:-2.0658815866998566e+001
6313:-2.0437733824352055e+001
6314:-1.9640021304708156e+001
6315:-1.8654537811112188e+001
6316:-2.1171563075166482e+001
6317:-2.1072734345204946e+001
6318:-2.0405036791908152e+001
6319:-1.9493461890571012e+001
6320:-1.6053832025735790e+001
6321:-1.4632659734993522e+001
6322:-1.2495860002089998e+001
6323:-1.0646579183256492e+001
6324:-1.6888491604701350e+001
6325:-1.5448224121977880e+001
6326:-1.3233885016342942e+001
6327:-1.1285485321160017e+001
6328:-1.8002047736038520e+001
6329:-1.6560832705891372e+001
6330:-1.4269853877021987e+001
6331:-1.2208385804825639e+001
6332:-1.8869651371405062e+001
6333:-1.7449406953862201e+001
6334:-1.5124205625564629e+001
6335:-1.2993877938927058e+001
6336:-9.5921348164269524e+000
6337:-7.5699380706324231e+000
6338:-4.8713100268637488e+000
6339:-2.7633609042824911e+000
6340:-1.0164934664304841e+001
6341:-8.0053211799712809e+000
6342:-5.1063302495906520e+000
6343:-2.8310612471285328e+000
6344:-1.1010229160677515e+001
6345:-8.6911008754154313e+000
6346:-5.5638551762164310e+000
6347:-3.1011195010006123e+000
6348:-1.1745928475407830e+001
6349:-9.3240979217811795e+000
6350:-6.0502743886716042e+000
6351:-3.4677922787296742e+000
6352:-1.6376161766125950e+000
6353:3.0256251778077309e-001
6354:2.4595967072794611e+000
6355:3.8257810123483122e+000
6356:-1.6128800135475512e+000
6357:4.8910424471842512e-001
6358:2.8289642903244365e+000
6359:4.3119936655131639e+000
6360:-1.7799378574510010e+000
6361:5.1032632317960802e-001
6362:3.0815052477234750e+000
6363:4.7287594387312897e+000
6364:-2.0808077848361584e+000
6365:3.3546901501653148e-001
6366:3.0742164834456078e+000
6367:4.8508932989255520e+000
6368:4.4533327315231146e+000
6369:5.4675103557773514e+000
6370:6.4855388562377074e+000
6371:7.0407906892091505e+000
6372:4.9934346871520008e+000
6373:6.0987351127280798e+000
6374:7.2192987461932479e+000
6375:7.8423687751121385e+000
6376:5.4926180862476865e+000
6377:6.7444498929554015e+000
6378:8.0404100288052671e+000
6379:8.7856178888204841e+000
6380:5.6835790476927333e+000
6381:7.0617325023556843e+000
6382:8.5141505195971270e+000
6383:9.3708394796571728e+000
6384:7.2619472919479415e+000
6385:7.5832674656319377e+000
6386:7.8249315118701093e+000
6387:7.8713573008935089e+000
6388:8.0958517654689270e+000
6389:8.4625978813852392e+000
6390:8.7331075308024122e+000
6391:8.7793755345463182e+000
6392:9.0988806754228424e+000
6393:9.5522505894116776e+000
6394:9.8845469873569485e+000
6395:9.9407510853402936e+000
6396:9.7392263506180416e+000
6397:1.0274891008347021e+001
6398:1.0672172771620613e+001
6399:1.0747209403472601e+001
6400:7.8473075272068264e+000
6401:7.7294995761324872e+000
6402:7.4312541637176661e+000
6403:7.0866124867892406e+000
6404:8.7477328165274901e+000
6405:8.6033161649911936e+000
6406:8.2459772972981380e+000
6407:7.8369664107852097e+000
6408:9.9016772581595980e+000
6409:9.7203211558124174e+000
6410:9.2703598238994864e+000
6411:8.7568108349223461e+000
6412:1.0707458063724493e+001
6413:1.0502516587072721e+001
6414:9.9787809553795448e+000
6415:9.3768633374051387e+000
6416:6.8614427264527480e+000
6417:6.3786244373087229e+000
6418:5.6293501485421773e+000
6419:4.9592580660668277e+000
6420:7.5707502806638907e+000
6421:7.0004774781500183e+000
6422:6.1171514156940656e+000
6423:5.3290618393201070e+000
6424:8.4236781961053389e+000
6425:7.7170170747982576e+000
6426:6.6386883774191556e+000
6427:5.6899156038553453e+000
6428:8.9864163934452108e+000
6429:8.1670877642486239e+000
6430:6.9376278655011090e+000
6431:5.8725581414384864e+000
6432:4.5708361499111652e+000
6433:3.8529613812385586e+000
6434:2.9612006671045572e+000
6435:2.3198639824884197e+000
6436:4.8736373523591592e+000
6437:4.0454569647295058e+000
6438:3.0467047584681124e+000
6439:2.3533511697560052e+000
6440:5.1470858978287932e+000
6441:4.1819134101554969e+000
6442:3.0634921130194255e+000
6443:2.3235697316309771e+000
6444:5.2694080656605404e+000
6445:4.2132135741737429e+000
6446:3.0216157483079114e+000
6447:2.2589992740404048e+000
6448:1.9970675134146174e+000
6449:1.4618355771465548e+000
6450:9.1082966245902552e-001
6451:6.0334137270136667e-001
6452:2.0133028821379582e+000
6453:1.4540147888251058e+000
6454:8.8396828345657485e-001
6455:5.6995064146212893e-001
6456:1.9735036966703379e+000
6457:1.4021526380684368e+000
6458:8.2460378520101818e-001
6459:5.1057711206907308e-001
6460:1.9073493677040438e+000
6461:1.3366553986148355e+000
6462:7.6423380850385780e-001
6463:4.5777658799565352e-001
6464:4.7873948301119185e-001
6465:2.8413726775687248e-001
6466:1.0245054742626093e-001
6467:2.0768268399749153e-002
6468:4.4436936393138832e-001
6469:2.5321803320386915e-001
6470:8.7558538677740522e-002
6471:2.7864198791757142e-002
6472:3.8710713050578682e-001
6473:2.0793276307904879e-001
6474:7.3613104249670186e-002
6475:4.9205657508993472e-002
6476:3.3984506296090744e-001
6477:1.7550651846468099e-001
6478:6.7506660399937482e-002
6479:6.6752031202912177e-002
6480:7.4907324627184768e-001
6481:-1.2896653136242080e+000
6482:-3.6210987630137286e+000
6483:-5.2844665456302771e+000
6484:7.7838741823897939e-001
6485:-1.1760462674690824e+000
6486:-3.4246463993683496e+000
6487:-5.0386804738634279e+000
6488:7.7786954685897813e-001
6489:-1.0308520090039555e+000
6490:-3.1270157245229351e+000
6491:-4.6425165332230298e+000
6492:7.5131598306353053e-001
6493:-9.1945621802899069e-001
6494:-2.8661860090479969e+000
6495:-4.2810137807602686e+000
6496:-6.1592928671085421e+000
6497:-7.8285016425077378e+000
6498:-1.0071212920555681e+001
6499:-1.1843291566865298e+001
6500:-5.8903863180724354e+000
6501:-7.5175451033146148e+000
6502:-9.7117129557894550e+000
6503:-1.1454926081681343e+001
6504:-5.4454453311471598e+000
6505:-6.9836378663612200e+000
6506:-9.0720414880618243e+000
6507:-1.0746714305076168e+001
6508:-5.0328160392594210e+000
6509:-6.4774107619328651e+000
6510:-8.4527305708531486e+000
6511:-1.0051307387479977e+001
6512:-1.2801986541286787e+001
6513:-1.4526321137835513e+001
6514:-1.6578952531274794e+001
6515:-1.7977113549630673e+001
6516:-1.2402655687027943e+001
6517:-1.4126213038471061e+001
6518:-1.6220785575218329e+001
6519:-1.7685515018026898e+001
6520:-1.1664172109832128e+001
6521:-1.3356534034008495e+001
6522:-1.5469043669987959e+001
6523:-1.6997066304035485e+001
6524:-1.0933299574935267e+001
6525:-1.2578414783412612e+001
6526:-1.4675948523932400e+001
6527:-1.6233847279357011e+001
6528:-1.8652016619268792e+001
6529:-1.9741698128445250e+001
6530:-2.0782550007615281e+001
6531:-2.1267201346906763e+001
6532:-1.8408517406390402e+001
6533:-1.9611333656720568e+001
6534:-2.0836357072706242e+001
6535:-2.1483496360169063e+001
6536:-1.7772750993237104e+001
6537:-1.9112823074162307e+001
6538:-2.0584760580120548e+001
6539:-2.1466590562123592e+001
6540:-1.7041817319841677e+001
6541:-1.8478137561530112e+001
6542:-2.0142424331703101e+001
6543:-2.1219530443626027e+001
6544:-2.1405747613962365e+001
6545:-2.1382942229771363e+001
6546:-2.0799554172277819e+001
6547:-1.9938464111268267e+001
6548:-2.1713861823230264e+001
6549:-2.1859619788677602e+001
6550:-2.1476759124950114e+001
6551:-2.0746499271602872e+001
6552:-2.1835765282374197e+001
6553:-2.2250814948435519e+001
6554:-2.2213818146584771e+001
6555:-2.1728044755019393e+001
6556:-2.1708482594782147e+001
6557:-2.2366079901648156e+001
6558:-2.2657603812216873e+001
6559:-2.2415619770940690e+001
6560:-1.9335426783614320e+001
6561:-1.7935858810922742e+001
6562:-1.5603794208984858e+001
6563:-1.3445139580152230e+001
6564:-2.0202238341567373e+001
6565:-1.8878878543690497e+001
6566:-1.6579595823002091e+001
6567:-1.4397303556244342e+001
6568:-2.1301628678658620e+001
6569:-2.0158227080636706e+001
6570:-1.8005084083570811e+001
6571:-1.5862774230773148e+001
6572:-2.2111289136904574e+001
6573:-2.1169817285543012e+001
6574:-1.9214552453724302e+001
6575:-1.7164834213441857e+001
6576:-1.2175089961405495e+001
6577:-9.7065989187146648e+000
6578:-6.3648608191491265e+000
6579:-3.7263160868902090e+000
6580:-1.3098634890184575e+001
6581:-1.0559477077994153e+001
6582:-7.1011638045143428e+000
6583:-4.3599903695653079e+000
6584:-1.4559212007836662e+001
6585:-1.1971858171152505e+001
6586:-8.3917705907185276e+000
6587:-5.5253638576584914e+000
6588:-1.5887191562172509e+001
6589:-1.3304633834626481e+001
6590:-9.6626290534679118e+000
6591:-6.7115472085063343e+000
6592:-2.3083243458457390e+000
6593:1.6935502317805065e-001
6594:2.9938922546658855e+000
6595:4.8398819446493402e+000
6596:-2.8837675815155630e+000
6597:-2.8671353762819285e-001
6598:2.7097624362220532e+000
6599:4.6959973805204349e+000
6600:-3.9740389773805305e+000
6601:-1.2135489716958536e+000
6602:2.0300033116321328e+000
6603:4.2209552280285916e+000
6604:-5.1052981254481544e+000
6605:-2.2166004172195586e+000
6606:1.2312343159002257e+000
6607:3.5947504541478441e+000
6608:5.7104429326658002e+000
6609:7.1589833043160649e+000
6610:8.6995105011367180e+000
6611:9.6192104882047804e+000
6612:5.6429177263147521e+000
6613:7.2310851346909804e+000
6614:8.9419936506871966e+000
6615:9.9802948175510089e+000
6616:5.2789219764733657e+000
6617:7.0660093623500630e+000
6618:9.0117720946907731e+000
6619:1.0207825320517253e+001
6620:4.7463621117235908e+000
6621:6.6990240303119704e+000
6622:8.8360500944307194e+000
6623:1.0157467152722148e+001
6624:1.0018755183977680e+001
6625:1.0601828279551627e+001
6626:1.1038939726493071e+001
6627:1.1128457414410034e+001
6628:1.0437395691889078e+001
6629:1.1107613639263079e+001
6630:1.1618815506197793e+001
6631:1.1737672915672068e+001
6632:1.0739537291590706e+001
6633:1.1521462501018391e+001
6634:1.2128557373149919e+001
6635:1.2289477099158127e+001
6636:1.0747382479593908e+001
6637:1.1615585315743246e+001
6638:1.2297485981884508e+001
6639:1.2494314171783188e+001
6640:1.1090796097606709e+001
6641:1.0876511927222413e+001
6642:1.0314934681669158e+001
6643:9.6651992833475262e+000
6644:1.1706250120734449e+001
6645:1.1478473999598753e+001
6646:1.0850200199564863e+001
6647:1.0113493350288753e+001
6648:1.2270412035338429e+001
6649:1.2034535395359955e+001
6650:1.1334286278839427e+001
6651:1.0497818677284295e+001
6652:1.2488239099576026e+001
6653:1.2255606540641763e+001
6654:1.1517975754953570e+001
6655:1.0622824141179377e+001
6656:9.2433594700058261e+000
6657:8.3639149532547350e+000
6658:7.0576905587096510e+000
6659:5.9368665078330904e+000
6660:9.6342764988079921e+000
6661:8.6485634790622257e+000
6662:7.2141821224252576e+000
6663:6.0060649115713813e+000
6664:9.9520833121767840e+000
6665:8.8490093988080183e+000
6666:7.2858435694701322e+000
6667:6.0004126514310467e+000
6668:1.0037046719637594e+001
6669:8.8672551609882024e+000
6670:7.2402779526411694e+000
6671:5.9252173307662295e+000
6672:5.3060094508917075e+000
6673:4.2089070644432747e+000
6674:2.9857846044620127e+000
6675:2.2145633537725860e+000
6676:5.3337967990676320e+000
6677:4.1761922025970506e+000
6678:2.9071478477860344e+000
6679:2.1240817281210007e+000
6680:5.2952696837363646e+000
6681:4.0912383333356850e+000
6682:2.7892989340530812e+000
6683:2.0003831104714447e+000
6684:5.2111607270008395e+000
6685:3.9967853518691112e+000
6686:2.6914379691516310e+000
6687:1.9067260374512336e+000
6688:1.8631179077629736e+000
6689:1.2947224353817817e+000
6690:7.2810061912148138e-001
6691:4.2864414807758289e-001
6692:1.7735356073486672e+000
6693:1.2109672494771859e+000
6694:6.5899409632521089e-001
6695:3.7686850960559476e-001
6696:1.6527415284472484e+000
6697:1.1010597967927689e+000
6698:5.7370310712413075e-001
6699:3.1921656411295884e-001
6700:1.5634408915750213e+000
6701:1.0231260839630827e+000
6702:5.1739942059745769e-001
6703:2.8529426141311726e-001
6704:3.1542753913358029e-001
6705:1.6089383949467331e-001
6706:6.5892514881143407e-002
6707:7.3939009956463186e-002
6708:2.7497135769550057e-001
6709:1.4027291943262429e-001
6710:6.4926890347239877e-002
6711:8.1168762614956202e-002
6712:2.3474116551128851e-001
6713:1.2607684448352277e-001
6714:6.7042725470071618e-002
6715:8.0330568744059111e-002
6716:2.1438948350683801e-001
6717:1.2380468002220985e-001
6718:7.0608266242957768e-002
6719:7.3798264713074477e-002
6720:7.2900255866521024e-001
6721:-8.5934010861297960e-001
6722:-2.7153497003902682e+000
6723:-4.0679371812886096e+000
6724:6.7263900410027089e-001
6725:-7.4563212579576654e-001
6726:-2.4120016433913190e+000
6727:-3.6325047545597924e+000
6728:5.7553579888965956e-001
6729:-5.9329023174405404e-001
6730:-1.9770003808024954e+000
6731:-2.9969317149198793e+000
6732:4.8779873279771213e-001
6733:-4.7103675852844384e-001
6734:-1.6135373718025434e+000
6735:-2.4595825384238226e+000
6736:-4.7877804725867295e+000
6737:-6.1737017771441929e+000
6738:-8.0775245153443063e+000
6739:-9.6271738811759171e+000
6740:-4.2838868316405412e+000
6741:-5.5435305110586981e+000
6742:-7.2916900724782510e+000
6743:-8.7327313668504090e+000
6744:-3.5431184600754153e+000
6745:-4.6071085334879509e+000
6746:-6.1099199953523087e+000
6747:-7.3754650158830222e+000
6748:-2.9136294597420163e+000
6749:-3.8046802355600606e+000
6750:-5.0870482662303678e+000
6751:-6.1915883063634229e+000
6752:-1.0485871243312276e+001
6753:-1.2097416238128856e+001
6754:-1.4176622657994358e+001
6755:-1.5743739407929844e+001
6756:-9.5386089517636723e+000
6757:-1.1069602499855970e+001
6758:-1.3092975313432483e+001
6759:-1.4664033593216898e+001
6760:-8.0939031636669529e+000
6761:-9.4845129519015785e+000
6762:-1.1392846529616596e+001
6763:-1.2943533895270519e+001
6764:-6.8283603822226926e+000
6765:-8.0840063059501599e+000
6766:-9.8724954610946067e+000
6767:-1.1389277268253963e+001
6768:-1.6566009809383729e+001
6769:-1.8050353350962283e+001
6770:-1.9818018507486659e+001
6771:-2.1004367221633718e+001
6772:-1.5507665752729091e+001
6773:-1.7076346615202535e+001
6774:-1.9040169586510558e+001
6775:-2.0441170568928005e+001
6776:-1.3804896805343780e+001
6777:-1.5472789055069097e+001
6778:-1.7696064533696063e+001
6779:-1.9394449503864926e+001
6780:-1.2257324243675741e+001
6781:-1.3994018036356415e+001
6782:-1.6419048069729619e+001
6783:-1.8357986156776764e+001
6784:-2.1561708735753029e+001
6785:-2.2361106714424057e+001
6786:-2.2850091212678180e+001
6787:-2.2758192546259924e+001
6788:-2.1135087891769032e+001
6789:-2.2223593781061297e+001
6790:-2.3126325778095094e+001
6791:-2.3357626538061989e+001
6792:-2.0281535061427039e+001
6793:-2.1790380073376877e+001
6794:-2.3315870918621396e+001
6795:-2.4049763696593946e+001
6796:-1.9404025172112540e+001
6797:-2.1267109837878657e+001
6798:-2.3332362134199357e+001
6799:-2.4512656606100066e+001
6800:-2.2530396693732296e+001
6801:-2.1720175218373850e+001
6802:-1.9902994316503221e+001
6803:-1.7926823705363340e+001
6804:-2.3298319621962825e+001
6805:-2.2787401035824836e+001
6806:-2.1304226332781269e+001
6807:-1.9521877787256873e+001
6808:-2.4259009176043950e+001
6809:-2.4241977604587962e+001
6810:-2.3339204156098386e+001
6811:-2.1916018695616533e+001
6812:-2.4964554315874530e+001
6813:-2.5402913116703772e+001
6814:-2.5049863217957160e+001
6815:-2.3976788313525521e+001
6816:-1.6674834876463162e+001
6817:-1.4111779085433023e+001
6818:-1.0449847232607691e+001
6819:-7.4583655830287512e+000
6820:-1.8345250255103842e+001
6821:-1.5858108509793476e+001
6822:-1.2186646878868567e+001
6823:-9.1234974824311799e+000
6824:-2.0888970670093126e+001
6825:-1.8575593374452804e+001
6826:-1.4946103567721822e+001
6827:-1.1798920128997255e+001
6828:-2.3099600307728085e+001
6829:-2.0970788091751004e+001
6830:-1.7411277402751097e+001
6831:-1.4206686570964049e+001
6832:-5.8238697693035988e+000
6833:-2.8655229213184730e+000
6834:6.9747913028723085e-001
6835:3.1596057049229072e+000
6836:-7.4321960188991856e+000
6837:-4.3243619842926888e+000
6838:-5.0468387126312120e-001
6839:2.1798669660802887e+000
6840:-1.0027160821703907e+001
6841:-6.6908355922109131e+000
6842:-2.4642675729690784e+000
6843:5.7527032610887208e-001
6844:-1.2369239121351454e+001
6845:-8.8365854425643953e+000
6846:-4.2542812751851313e+000
6847:-9.0563239871455792e-001
6848:4.3648020100017844e+000
6849:6.4117347415322579e+000
6850:8.6565648904285286e+000
6851:1.0047663855746125e+001
6852:3.5060606107296586e+000
6853:5.7662950723145006e+000
6854:8.2526341455716654e+000
6855:9.7946667046372831e+000
6856:2.0939712548143761e+000
6857:4.6943716058804936e+000
6858:7.5613232344032735e+000
6859:9.3311289986466850e+000
6860:7.7924684925081233e-001
6861:3.6731600051130866e+000
6862:6.8638612370986607e+000
6863:8.8185905129771314e+000
6864:1.0669524066997463e+001
6865:1.1584548195627345e+001
6866:1.2306740714085587e+001
6867:1.2523426471653694e+001
6868:1.0482752871734931e+001
6869:1.1489260551684255e+001
6870:1.2279439732384322e+001
6871:1.2521143646633211e+001
6872:1.0113177318635421e+001
6873:1.1238539301831787e+001
6874:1.2095524617663871e+001
6875:1.2342841180564250e+001
6876:9.6716961872806859e+000
6877:1.0877826945824495e+001
6878:1.1761761375646810e+001
6879:1.1990892871425341e+001
6880:1.2525070368873989e+001
6881:1.2296977042980686e+001
6882:1.1545897866292945e+001
6883:1.0626714853373196e+001
6884:1.2529401938486398e+001
6885:1.2295232100234578e+001
6886:1.1504567890509152e+001
6887:1.0536343086285452e+001
6888:1.2343538854004757e+001
6889:1.2073524559764758e+001
6890:1.1208730942312831e+001
6891:1.0177159163314542e+001
6892:1.1973800895902848e+001
6893:1.1658618809464560e+001
6894:1.0730124900779607e+001
6895:9.6623809271513608e+000
6896:1.0024256191329494e+001
6897:8.8282946930061552e+000
6898:7.1804141015962673e+000
6899:5.8600636768084140e+000
6900:9.9037784360738943e+000
6901:8.6646787797901030e+000
6902:6.9911839200269830e+000
6903:5.6750554586353381e+000
6904:9.5134698294696136e+000
6905:8.2396768539467828e+000
6906:6.5696953497898631e+000
6907:5.2927158262176714e+000
6908:8.9885481778291592e+000
6909:7.7171879193543456e+000
6910:6.0909271895920822e+000
6911:4.8769173403710218e+000
6912:5.1468632569864834e+000
6913:3.9358040130098813e+000
6914:2.6366357899201618e+000
6915:1.8577166983088471e+000
6916:4.9719598777091241e+000
6917:3.7819415789941710e+000
6918:2.5103159512759818e+000
6919:1.7513626973712633e+000
6920:4.6219770964524907e+000
6921:3.4926307420023215e+000
6922:2.2926100022988827e+000
6923:1.5800393177208987e+000
6924:4.2486646769810585e+000
6925:3.1959369915697162e+000
6926:2.0825361158338342e+000
6927:1.4232613847360167e+000
6928:1.5178200406490254e+000
6929:9.8495087674077753e-001
6930:4.9153408192136616e-001
6931:2.7115757778104616e-001
6932:1.4214889842537621e+000
6933:9.0837746599166025e-001
6934:4.4314177886556899e-001
6935:2.4625764632675454e-001
6936:1.2714242967829945e+000
6937:7.9661734928074801e-001
6938:3.7824667147825508e-001
6939:2.1389955343058861e-001
6940:1.1379534967254890e+000
6941:7.0273357227906497e-001
6942:3.2740461852372676e-001
6943:1.8793057271349004e-001
6944:2.0709781038691089e-001
6945:1.2501964970822782e-001
6946:7.2877319671928523e-002
6947:6.8820208082495532e-002
6948:1.9489374499214665e-001
6949:1.2786412550566781e-001
6950:7.6071244623519371e-002
6951:5.7331403153726465e-002
6952:1.7795504869366841e-001
6953:1.2840077890687096e-001
6954:7.6129050566549394e-002
6955:3.9879964361520907e-002
6956:1.6186778914701574e-001
6957:1.2330065290908968e-001
6958:7.1626287928613849e-002
6959:2.6450271469281181e-002
6960:4.3776645842831852e-001
6961:-4.0338790197939206e-001
6962:-1.4094536064913443e+000
6963:-2.1561726123731040e+000
6964:3.3869596712957567e-001
6965:-2.7464682582623984e-001
6966:-1.0123853591156800e+000
6967:-1.5620214049730829e+000
6968:1.9998826437882311e-001
6969:-1.0244051761939052e-001
6970:-4.6767030837551327e-001
6971:-7.4182530418644488e-001
6972:8.6986033143576877e-002
6973:3.4100296866225642e-002
6974:-2.9549078974145066e-002
6975:-8.0618749029378656e-002
6976:-2.5572697747629722e+000
6977:-3.3483281883246918e+000
6978:-4.5018535230154475e+000
6979:-5.5110408651871232e+000
6980:-1.8578613446276280e+000
6981:-2.4492201017254236e+000
6982:-3.3419332787789853e+000
6983:-4.1541480115367575e+000
6984:-8.9053805188173030e-001
6985:-1.1998239053234752e+000
6986:-1.7151301873096776e+000
6987:-2.2332622922337753e+000
6988:-1.1045678183485003e-001
6989:-1.8851342479301353e-001
6990:-3.8576419756839592e-001
6991:-6.4838092531825464e-001
6992:-6.0989350728337426e+000
6993:-7.2727421717238547e+000
6994:-8.9860309777034786e+000
6995:-1.0478258314718893e+001
6996:-4.6393332661941509e+000
6997:-5.6379826933833703e+000
6998:-7.1820904480570080e+000
6999:-8.6081211635421404e+000
7000:-2.5614752069787157e+000
7001:-3.2879185106364681e+000
7002:-4.5570962503949550e+000
7003:-5.8595794635219640e+000
7004:-8.3746600676739669e-001
7005:-1.3210351216028824e+000
7006:-2.3400340188662843e+000
7007:-3.5230360597946939e+000
7008:-1.1347417637601508e+001
7009:-1.3117955479438006e+001
7010:-1.5650849331516399e+001
7011:-1.7721829366724339e+001
7012:-9.4693917691625291e+000
7013:-1.1285717477738608e+001
7014:-1.4003838397755215e+001
7015:-1.6317377546078255e+001
7016:-6.6925495540304691e+000
7017:-8.5350091031588935e+000
7018:-1.1459524684093193e+001
7019:-1.4076465174899258e+001
7020:-4.3230620297414637e+000
7021:-6.1636473444261677e+000
7022:-9.2223343526333110e+000
7023:-1.2062751084616069e+001
7024:-1.8856118294703538e+001
7025:-2.0918902613425232e+001
7026:-2.3293640319726979e+001
7027:-2.4733475170343795e+001
7028:-1.7618388351262666e+001
7029:-2.0068892967511790e+001
7030:-2.3060969870657630e+001
7031:-2.5028995256855538e+001
7032:-1.5595362614662719e+001
7033:-1.8574274217082539e+001
7034:-2.2440818590827618e+001
7035:-2.5177283994152067e+001
7036:-1.3749029968983500e+001
7037:-1.7150252275790283e+001
7038:-2.1739688064691926e+001
7039:-2.5125425979318500e+001
7040:-2.5327741822216957e+001
7041:-2.6035607268642554e+001
7042:-2.6011344257966318e+001
7043:-2.5149849278871081e+001
7044:-2.5916466671329630e+001
7045:-2.7184812254056610e+001
7046:-2.7854762419116618e+001
7047:-2.7449365172072540e+001
7048:-2.6497657228328865e+001
7049:-2.8600282168384176e+001
7050:-3.0315955242708622e+001
7051:-3.0608742720903219e+001
7052:-2.6815644935461631e+001
7053:-2.9632202834190650e+001
7054:-3.2243890305150082e+001
7055:-3.3136038658955641e+001
7056:-2.4364103038498605e+001
7057:-2.2350876261519147e+001
7058:-1.8841993270196799e+001
7059:-1.5609871405258080e+001
7060:-2.6865448961911898e+001
7061:-2.5122359552679274e+001
7062:-2.1765406357889827e+001
7063:-1.8510836669123062e+001
7064:-3.0339759795598130e+001
7065:-2.9042865050197666e+001
7066:-2.5988952520512136e+001
7067:-2.2761362935353574e+001
7068:-3.3138680385866657e+001
7069:-3.2240182988173615e+001
7070:-2.9483389216945586e+001
7071:-2.6311072401755105e+001
7072:-1.3736471795919291e+001
7073:-1.0093307181700538e+001
7074:-5.3093967404462612e+000
7075:-1.7865451770608098e+000
7076:-1.6579143215588108e+001
7077:-1.2734583996908439e+001
7078:-7.5645507002841157e+000
7079:-3.7021298127897087e+000
7080:-2.0772245425540472e+001
7081:-1.6680490444262968e+001
7082:-1.1001226450749728e+001
7083:-6.6818156986269637e+000
7084:-2.4288874198107621e+001
7085:-2.0016880066629906e+001
7086:-1.3946571380621341e+001
7087:-9.2738872089940951e+000
7088:-8.7155326995605291e-003
7089:3.0492923732951511e+000
7090:6.4191103565433165e+000
7091:8.4725523789434458e+000
7092:-1.7419622327187234e+000
7093:1.6426235161897920e+000
7094:5.3732561390445941e+000
7095:7.6244884261429311e+000
7096:-4.4750548727201149e+000
7097:-6.4121708122311694e-001
7098:3.5897349009892467e+000
7099:6.1077364304102719e+000
7100:-6.8772159621210776e+000
7101:-2.6943158416306057e+000
7102:1.9217776542788552e+000
7103:4.6319313190889204e+000
7104:9.3613788378181830e+000
7105:1.0604365747534686e+001
7106:1.1492391908969202e+001
7107:1.1703620818792869e+001
7108:8.5831980946779716e+000
7109:9.8970173615120789e+000
7110:1.0789035954390643e+001
7111:1.0959679231272320e+001
7112:7.1541613494104190e+000
7113:8.5461625872669984e+000
7114:9.4120314381457941e+000
7115:9.4961809723164929e+000
7116:5.7318928118730890e+000
7117:7.1516901264698127e+000
7118:7.9451502458433279e+000
7119:7.9151650938782065e+000
7120:1.1672992526008086e+001
7121:1.1328599747777789e+001
7122:1.0366688532194969e+001
7123:9.2874340928846255e+000
7124:1.0898762836726899e+001
7125:1.0493204548468416e+001
7126:9.4714032727355857e+000
7127:8.3852427816665926e+000
7128:9.3754265763202635e+000
7129:8.8641384479746801e+000
7130:7.7661082356085318e+000
7131:6.7071564138209228e+000
7132:7.7214230898445022e+000
7133:7.0945185780223392e+000
7134:5.9346110799786116e+000
7135:4.9308039682897631e+000
7136:8.6151683567988577e+000
7137:7.3587859404966629e+000
7138:5.7736531610094044e+000
7139:4.6067163680916998e+000
7140:7.7286515503749893e+000
7141:6.5229433738546669e+000
7142:5.0421055556036523e+000
7143:3.9848134037920371e+000
7144:6.1030342019766914e+000
7145:5.0203530166230541e+000
7146:3.7434955230066662e+000
7147:2.8815259119292813e+000
7148:4.3980762232137245e+000
7149:3.4660188632135234e+000
7150:2.4134905682058077e+000
7151:1.7530260957854011e+000
7152:4.0081688177125159e+000
7153:3.0082929349108141e+000
7154:1.9537546466804621e+000
7155:1.3300069419754788e+000
7156:3.4541360288693741e+000
7157:2.5765102307443830e+000
7158:1.6607884177954211e+000
7159:1.1222942468200983e+000
7160:2.4686885530247142e+000
7161:1.8070119729832319e+000
7162:1.1442364336610304e+000
7163:7.6681657945755677e-001
7164:1.4590624895831736e+000
7165:1.0176591921739206e+000
7166:6.1894781064518456e-001
7167:4.1490479519622642e-001
7168:1.0599378781400830e+000
7169:6.4982035399847671e-001
7170:2.9997153315392300e-001
7171:1.7338000647811919e-001
7172:8.8912088294762182e-001
7173:5.3855773273389085e-001
7174:2.4586791852365125e-001
7175:1.4459808282619790e-001
7176:6.0527868552149411e-001
7177:3.6722633679664601e-001
7178:1.7436133047471072e-001
7179:1.0879071965513309e-001
7180:3.3241704201222677e-001
7181:2.1591500975414293e-001
7182:1.2424558027816025e-001
7183:8.7846822227281962e-002
7184:1.5161312215039188e-001
7185:1.1786704584252730e-001
7186:6.7359514863416028e-002
7187:1.9925408128009369e-002
7188:1.2946976055311218e-001
7189:1.0353879670431365e-001
7190:5.7432527046612621e-002
7191:1.0279283349215268e-002
7192:9.8259915377482188e-002
7193:7.8245845266914471e-002
7194:4.1342511551306360e-002
7195:3.7972636630389778e-003
7196:7.6300724864615990e-002
7197:5.5363632778432585e-002
7198:2.6833473803805751e-002
7199:3.8178691080388264e-003
