label=Stress xy
num_items=1152

0:-2.0004472423971387e-01
1:-9.2111187624847990e-01
2:-5.8022715440149841e-01
3:5.8841560762885448e-01
4:5.5421603778882300e-01
5:1.0351979487802445e+00
6:8.8077298180915098e-01
7:1.0701997776933581e+00
8:1.2280376613847241e+00
9:-7.7438360878087351e-02
10:3.2419109707350630e-01
11:2.6132849499817529e-01
12:1.2083563587012933e+00
13:8.1096257373054237e-01
14:1.3638542510760876e-01
15:1.1448054542894683e+00
16:6.6331749085391456e-01
17:9.1954860140920192e-02
18:1.3542775955598188e-01
19:8.9378754054814227e-02
20:8.0381628898030161e-02
21:-7.6766053901585238e-02
22:5.7592735184809896e-02
23:2.1263919077965651e-01
24:-4.6063023195230590e-02
25:1.1180692566205681e-01
26:2.7400032719185979e-01
27:6.2819152821515609e-02
28:9.2633564311326456e-03
29:-1.0648194331327557e-02
30:2.2317863104318017e-01
31:1.1093958007461568e-01
32:2.9595374937320163e-02
33:2.8339974685020936e-01
34:1.6888440330248206e-01
35:8.2514505789376927e-02
36:-3.6941809670715898e-04
37:2.1105319361198308e-02
38:2.3923934652916090e-02
39:1.9424414626153314e-02
40:3.9818304506833706e-02
41:5.0831274718352880e-02
42:6.3853158437025659e-02
43:6.7857443729758146e-02
44:7.1756011850358722e-02
45:1.5661824900848630e-02
46:2.8506320967501635e-03
47:-1.1138004927955535e-04
48:4.6149786620284274e-02
49:2.9680969355947287e-02
50:2.0302330070209141e-02
51:6.7500623856466740e-02
52:5.1842452104050245e-02
53:4.0515455650756836e-02
54:2.6077852060567819e-03
55:6.1021437793618979e-03
56:5.7941257339077070e-03
57:1.8975906256260344e-02
58:1.8241106844471808e-02
59:1.5990415398612571e-02
60:3.6306152382672596e-02
61:3.0869566924319691e-02
62:2.6203574016587728e-02
63:3.8700246620665619e-03
64:1.1845237215873591e-03
65:3.0261655084027299e-04
66:1.3199057507820284e-02
67:7.4396943241124714e-03
68:2.6159190803381935e-03
69:2.2488004008683806e-02
70:1.3931680235373861e-02
71:5.4429385721773832e-03
72:7.4475754878668610e-01
73:6.7697368649771594e-01
74:4.7032044125524486e-01
75:3.3964638782103723e-01
76:-2.7186310744308956e-01
77:-8.4414003709207430e-01
78:-1.2127542988165039e-02
79:-7.5716400828775954e-01
80:-1.2848659594035670e+00
81:3.5373333603932383e-01
82:2.1978542039145313e-01
83:3.9996338037236734e-02
84:-8.6755368958530354e-01
85:-4.5388255414560452e-01
86:-1.2204052373680685e-01
87:-1.2171468629143223e+00
88:-6.7306820073729234e-01
89:-2.4680658191571933e-01
90:1.1461308669923193e-02
91:1.2368543336751432e-01
92:2.3731171325806844e-01
93:-2.3295427754415707e-02
94:4.2007688033966734e-02
95:1.1503815838810116e-01
96:-1.2768275709402119e-01
97:-5.9454884815770145e-02
98:2.2825541401026390e-02
99:2.4296900569046093e-01
100:1.6230508097155663e-01
101:1.0399013557591062e-01
102:1.3254094706921418e-01
103:1.1801362425875205e-01
104:1.0866517098116141e-01
105:5.9439040471112044e-02
106:8.6169402066298889e-02
107:1.0090852340397224e-01
108:8.8277564015352125e-02
109:8.0402307635859940e-02
110:7.5985042386507176e-02
111:1.0084301720847028e-01
112:8.4117945584933615e-02
113:7.3822316500614812e-02
114:9.6308005457865664e-02
115:7.9567805759588411e-02
116:7.2228500009604624e-02
117:7.1066423998781644e-02
118:5.8342198672307222e-02
119:4.8706172888584240e-02
120:6.9488491869746427e-02
121:6.1757908392357959e-02
122:5.5603051300555983e-02
123:7.0421916964694825e-02
124:6.5525493957244454e-02
125:6.0692324178209037e-02
126:4.4028303768424287e-02
127:3.6561693933843502e-02
128:3.0591987350992104e-02
129:5.1248184120908119e-02
130:4.2521912534072143e-02
131:3.5502020290746249e-02
132:5.6351969564010757e-02
133:4.7465396435427111e-02
134:4.0494678742136560e-02
135:2.6242225028650736e-02
136:1.6173854688098725e-02
137:5.9135268551308720e-03
138:3.0277006980318672e-02
139:1.8100386043152710e-02
140:5.7079077604790512e-03
141:3.4926049596646927e-02
142:2.1368777628854262e-02
143:7.5717484624515923e-03
144:-1.4981209688550828e-01
145:-7.2961587561064101e-01
146:-1.0762036999468512e+00
147:-2.2407192362940795e-01
148:-4.7805266565582466e-01
149:-6.2234296484012042e-01
150:-1.7199952713032912e-01
151:-2.7171890976173474e-01
152:-3.8527336109782251e-01
153:-9.9737687372371586e-01
154:-5.9803828724984109e-01
155:-3.0342008687082872e-01
156:-6.0389074548651300e-01
157:-4.8230942335622023e-01
158:-3.8445399537469527e-01
159:-4.4072136405428264e-01
160:-4.7181629379887374e-01
161:-4.4564262574613905e-01
162:-2.1215059052536309e-01
163:-1.1951827646778532e-01
164:-1.7580063869835860e-02
165:-3.2078927527434603e-01
166:-1.9315163947706046e-01
167:-7.8845146263105001e-02
168:-3.7938802729231336e-01
169:-2.3806240312370350e-01
170:-1.3270496266212412e-01
171:2.6459643150857203e-02
172:6.0303291608437157e-02
173:7.9347041060564186e-02
174:-3.6449658331253292e-02
175:-1.1595258461262004e-03
176:2.6848885024028067e-02
177:-9.7165079392748349e-02
178:-5.7020012640809067e-02
179:-1.6638490113361812e-02
180:7.7853391379678796e-02
181:6.8655198306078594e-02
182:6.7861653828436785e-02
183:3.5531863033827084e-02
184:4.3359961481729901e-02
185:5.3197668258817672e-02
186:1.7685199883316189e-03
187:2.1659118711950209e-02
188:3.7164285497983639e-02
189:6.7966702861850817e-02
190:6.3600710191656015e-02
191:5.9086986543891856e-02
192:5.5459540536019335e-02
193:5.2510464858995812e-02
194:5.0201085894540622e-02
195:4.0604823122266952e-02
196:4.0675024217209269e-02
197:4.2172349714860072e-02
198:5.5129736163002471e-02
199:4.7246169819120963e-02
200:4.1076643463213880e-02
201:4.7949959285433913e-02
202:4.2633953493294310e-02
203:3.8128974493131719e-02
204:4.1944889364845632e-02
205:3.8685316459180073e-02
206:3.5333757149498213e-02
207:3.5597203988454465e-02
208:2.1681468157184785e-02
209:7.5352030554909702e-03
210:3.3055734663274897e-02
211:1.9490142787280902e-02
212:5.7496331923389222e-03
213:3.0820479461033418e-02
214:1.8644562744422537e-02
215:6.3493398603441803e-03
216:-1.0554198155043482e-01
217:-2.0730071183162851e-01
218:-3.4950872780003944e-01
219:-3.9662621709734114e-02
220:-1.7059892770155438e-01
221:-3.0991854288045584e-01
222:-1.8526980538216182e-02
223:-1.4556651646807428e-01
224:-2.4892338508487907e-01
225:-4.2221128052666834e-01
226:-4.5895942448347155e-01
227:-4.2634142122206398e-01
228:-3.5729623365387292e-01
229:-3.5604898110789274e-01
230:-3.2485694543995053e-01
231:-2.6789485437068211e-01
232:-2.5113748471268627e-01
233:-2.4385669602898299e-01
234:-3.6195226836158850e-01
235:-2.4113095265723417e-01
236:-1.5603064753598853e-01
237:-2.9002586318360413e-01
238:-2.2874782431866178e-01
239:-1.7970434653095038e-01
240:-2.4023673295397902e-01
241:-2.2169737920850338e-01
242:-1.9190613703438297e-01
243:-1.2505948054022370e-01
244:-7.9982258413368645e-02
245:-3.3839878216298691e-02
246:-1.5229802283714941e-01
247:-1.0158966288907550e-01
248:-5.4486493726031586e-02
249:-1.6509644474110641e-01
250:-1.1536130320844921e-01
251:-7.3901701316071988e-02
252:-1.2896681116301937e-02
253:8.6810214543382724e-03
254:2.4738199749695329e-02
255:-3.5116478968380049e-02
256:-1.5281029270848718e-02
257:1.5282010514579610e-03
258:-5.7432349363842783e-02
259:-3.7296671860367017e-02
260:-1.7692908832053125e-02
261:2.9069068300929573e-02
262:3.2226687328818442e-02
263:3.6574583377076073e-02
264:8.4094853483946425e-03
265:1.6935799824531750e-02
266:2.5051039573697684e-02
267:-8.2022339909936185e-03
268:3.8529616580278460e-03
269:1.3895730832746055e-02
270:3.7389539875051038e-02
271:3.4858449342143612e-02
272:3.1993561570645396e-02
273:2.6996132228013846e-02
274:2.5661566227634734e-02
275:2.4065235265193455e-02
276:1.6624743424416482e-02
277:1.7136747078292609e-02
278:1.7459018046634904e-02
279:2.7991579949493660e-02
280:1.7210218009166417e-02
281:6.2600894472209841e-03
282:2.1238872670204141e-02
283:1.3036849731810064e-02
284:4.4404781814962602e-03
285:1.5928754863348219e-02
286:1.0070055646818695e-02
287:3.5914258280742941e-03
288:-2.1228554488148511e-02
289:-1.2916338983005499e-01
290:-2.0843340273577785e-01
291:-2.1076267257966175e-02
292:-9.6168232237444334e-02
293:-1.5754021668611151e-01
294:-1.8305969427204014e-02
295:-7.2273326158615717e-02
296:-1.2746554426458670e-01
297:-2.2057541307583367e-01
298:-2.1239947968823819e-01
299:-2.2105568493742861e-01
300:-1.7679232266254738e-01
301:-1.9217140226828791e-01
302:-2.1023856907276764e-01
303:-1.5411317533229837e-01
304:-1.8230988176201268e-01
305:-1.9905062395242382e-01
306:-2.2607422556535511e-01
307:-2.1393697315023727e-01
308:-1.8652138784318861e-01
309:-2.1144266531584416e-01
310:-1.9214488522345946e-01
311:-1.6721837887473381e-01
312:-1.9454649078381581e-01
313:-1.7231759270818195e-01
314:-1.5410957501180014e-01
315:-1.6156809699941987e-01
316:-1.1841487685432518e-01
317:-8.3504680960045083e-02
318:-1.4981313845621499e-01
319:-1.2079403313762689e-01
320:-9.5235864349471941e-02
321:-1.4401876845843692e-01
322:-1.2410154690889495e-01
323:-1.0286317416940419e-01
324:-6.8558707733786722e-02
325:-4.6938415615500058e-02
326:-2.5553715215428190e-02
327:-8.1214673929276532e-02
328:-5.7459937635340790e-02
329:-3.5416787272861121e-02
330:-8.8910453437103132e-02
331:-6.5110791124836628e-02
332:-4.4498708957268436e-02
333:-1.5345447748459780e-02
334:-2.9633862924766299e-03
335:7.1476536380658652e-03
336:-2.5630963103746705e-02
337:-1.3946283605150774e-02
338:-3.8199336246050432e-03
339:-3.5508661633452475e-02
340:-2.3714803562021835e-02
341:-1.2766583001249379e-02
342:1.0279164816099529e-02
343:1.2193421000780864e-02
344:1.3794656376352743e-02
345:1.6384095155522649e-04
346:4.2115624432193279e-03
347:7.4505522391751953e-03
348:-7.8848148742482888e-03
349:-2.3530373168206137e-03
350:1.8742976583050240e-03
351:1.2950281268760107e-02
352:8.2397795629926482e-03
353:2.8946781224102351e-03
354:7.4823445042422028e-03
355:4.5780830661629971e-03
356:1.2143935315304206e-03
357:2.6164748295092310e-03
358:1.5981528345818418e-03
359:2.9557438136365973e-04
360:-1.6859715768735094e-02
361:-6.4541574904859525e-02
362:-1.1675429587258748e-01
363:-1.5446400869009752e-02
364:-5.5939675901862773e-02
365:-9.7380013902849186e-02
366:-1.2633401171467858e-02
367:-4.7256414524876195e-02
368:-7.9242691982945243e-02
369:-1.4334815624697919e-01
370:-1.7083485712229521e-01
371:-1.8474210510142117e-01
372:-1.1685193164446772e-01
373:-1.3736937722419049e-01
374:-1.5115407025844882e-01
375:-9.2588192548716183e-02
376:-1.0823917535217012e-01
377:-1.2400410596088068e-01
378:-1.7984848916979118e-01
379:-1.6149571443330782e-01
380:-1.4872908996054576e-01
381:-1.5157686597828357e-01
382:-1.4444028359003624e-01
383:-1.3861928175405330e-01
384:-1.2931605128328100e-01
385:-1.2982458625067428e-01
386:-1.2737813205887968e-01
387:-1.4111079484174530e-01
388:-1.2271398128311699e-01
389:-1.0218333081510989e-01
390:-1.3191910780253105e-01
391:-1.1377251588522166e-01
392:-9.5481387071239071e-02
393:-1.2095315046019582e-01
394:-1.0441843565957455e-01
395:-8.9728483974984924e-02
396:-8.8839841977941050e-02
397:-6.6972345383957355e-02
398:-4.8326017427643780e-02
399:-8.4703802189034436e-02
400:-6.7252161246490041e-02
401:-5.1661121304784070e-02
402:-8.1498221352498679e-02
403:-6.7036924745013729e-02
404:-5.3075661501533616e-02
405:-3.9800731182823117e-02
406:-2.7567143903881177e-02
407:-1.6102600010408922e-02
408:-4.3546312759832603e-02
409:-3.0836419410358473e-02
410:-1.9345046380331982e-02
411:-4.5139095321493745e-02
412:-3.2580332423018783e-02
413:-2.1689566777970466e-02
414:-1.0974775231111143e-02
415:-5.2003196383233648e-03
416:-7.8782658620281984e-04
417:-1.4382340198267944e-02
418:-8.7196197200079973e-03
419:-4.1208177537468563e-03
420:-1.7020837991221158e-02
421:-1.1285238292487749e-02
422:-6.3155130770898172e-03
423:3.1181086963095697e-04
424:3.8295697633394056e-04
425:1.8392555988624954e-04
426:-2.4867422083117655e-03
427:-1.0395418313237531e-03
428:1.0691527645058495e-05
429:-4.2873539074824883e-03
430:-2.1310405468956931e-03
431:-4.9848369920040393e-04
432:-1.0158485935210836e-02
433:-4.1746894039269261e-02
434:-7.0155776130403705e-02
435:-6.6847749385336060e-03
436:-3.2857066629869480e-02
437:-5.7568337452423991e-02
438:-5.2479778204158160e-03
439:-2.5993294870680167e-02
440:-4.6996096196316249e-02
441:-8.1690150624534663e-02
442:-9.6073742406969448e-02
443:-1.1216503596142026e-01
444:-6.8282773886795906e-02
445:-8.1552788351146779e-02
446:-9.5160726472550070e-02
447:-5.6766927653057110e-02
448:-6.8509242694219735e-02
449:-7.9219703277465664e-02
450:-1.1824578640136631e-01
451:-1.1968684247637805e-01
452:-1.1762396114565959e-01
453:-9.9294161430843700e-02
454:-9.8949766205310166e-02
455:-9.7485547207299433e-02
456:-8.1443073525530846e-02
457:-7.9855361070454975e-02
458:-7.9531938476142774e-02
459:-1.1178933065166306e-01
460:-9.7452351389802419e-02
461:-8.5267227462809458e-02
462:-9.3664690594467345e-02
463:-8.3507545840394021e-02
464:-7.4568276261391037e-02
465:-7.7485072859521525e-02
466:-7.0141616654814803e-02
467:-6.3082055465377596e-02
468:-7.8108913845412881e-02
469:-6.4493752802430304e-02
470:-5.1170175996287481e-02
471:-6.8370275774602363e-02
472:-5.5828101285948367e-02
473:-4.4221744981186112e-02
474:-5.7552960392353872e-02
475:-4.6448498224059456e-02
476:-3.6924088186716393e-02
477:-4.3628974092848466e-02
478:-3.1912099822670958e-02
479:-2.1842085129027175e-02
480:-3.8009402700564111e-02
481:-2.8389047055794151e-02
482:-1.9893434602965873e-02
483:-3.2038326168529467e-02
484:-2.4141930380199041e-02
485:-1.6848161399211865e-02
486:-1.7413489280618737e-02
487:-1.1638980277114269e-02
488:-6.5420146131103078e-03
489:-1.5897377870424882e-02
490:-1.0368354774316278e-02
491:-5.5113698060821103e-03
492:-1.3260599782349178e-02
493:-8.2669943561424555e-03
494:-3.9399218461923643e-03
495:-4.4682967790687289e-03
496:-2.3266889973799936e-03
497:-6.8871307669763997e-04
498:-3.6480644143395734e-03
499:-1.8666264492967241e-03
500:-3.9287265178430128e-04
501:-2.3853859531909830e-03
502:-1.0121892477556174e-03
503:2.4927098361679511e-04
504:-5.0786197930525918e-03
505:-2.1950263160823009e-02
506:-3.9586522901912655e-02
507:-3.6973887123696062e-03
508:-1.3214349223316973e-02
509:-2.3520176195198954e-02
510:-8.8902757078410859e-04
511:-3.8618135901253275e-03
512:-7.6477161580120858e-03
513:-4.7881947924023886e-02
514:-5.7734169337523962e-02
515:-6.6772878171487582e-02
516:-2.7907031590402864e-02
517:-3.3010789366137980e-02
518:-3.9421142724266049e-02
519:-8.3401324679935329e-03
520:-8.6207760641725285e-03
521:-1.2328123404687507e-02
522:-6.8401150027415161e-02
523:-6.6770745468437975e-02
524:-6.7135146525782383e-02
525:-4.0787092921386194e-02
526:-3.9596578508650726e-02
527:-4.0527167390022864e-02
528:-1.3271735096636704e-02
529:-1.2045864811840648e-02
530:-1.3067395498939835e-02
531:-6.5666049399402057e-02
532:-5.9218192030595661e-02
533:-5.3161854887287620e-02
534:-3.9407558812066722e-02
535:-3.4354624080550220e-02
536:-3.0997042873089169e-02
537:-1.2271254834373782e-02
538:-8.9990690628170226e-03
539:-8.7260701138757550e-03
540:-4.8428721641035857e-02
541:-3.9005730686447457e-02
542:-3.1191995465565909e-02
543:-2.8531802803321394e-02
544:-2.3010960699670117e-02
545:-1.8555498320367556e-02
546:-8.5494506963617704e-03
547:-6.6161609188672551e-03
548:-5.2043748563806291e-03
549:-2.7148757042467789e-02
550:-2.0325528032975642e-02
551:-1.3961419591630039e-02
552:-1.6078126017879325e-02
553:-1.1647473065347925e-02
554:-7.7048990694889843e-03
555:-4.2861292858744834e-03
556:-2.5394890621754282e-03
557:-1.3098861836811373e-03
558:-1.0881150815235547e-02
559:-6.6776893218395313e-03
560:-2.9608435825731554e-03
561:-6.0149853503721753e-03
562:-3.7536935320369577e-03
563:-1.3662388499484993e-03
564:-1.0723296713552092e-03
565:-6.7484072678583367e-04
566:4.6158969942024458e-04
567:-1.6602073665120656e-03
568:-5.9805180537665333e-04
569:4.5677089006156189e-04
570:-5.5809240191657581e-04
571:-1.4942049020142141e-04
572:4.1475299313936741e-04
573:7.8929236756756463e-04
574:5.0750976652834900e-04
575:5.4406317444622050e-04
576:0.0000000000000000e+00
577:0.0000000000000000e+00
578:0.0000000000000000e+00
579:0.0000000000000000e+00
580:0.0000000000000000e+00
581:0.0000000000000000e+00
582:0.0000000000000000e+00
583:0.0000000000000000e+00
584:0.0000000000000000e+00
585:0.0000000000000000e+00
586:0.0000000000000000e+00
587:0.0000000000000000e+00
588:0.0000000000000000e+00
589:0.0000000000000000e+00
590:0.0000000000000000e+00
591:0.0000000000000000e+00
592:0.0000000000000000e+00
593:0.0000000000000000e+00
594:0.0000000000000000e+00
595:0.0000000000000000e+00
596:0.0000000000000000e+00
597:0.0000000000000000e+00
598:0.0000000000000000e+00
599:0.0000000000000000e+00
600:0.0000000000000000e+00
601:0.0000000000000000e+00
602:0.0000000000000000e+00
603:0.0000000000000000e+00
604:0.0000000000000000e+00
605:0.0000000000000000e+00
606:0.0000000000000000e+00
607:0.0000000000000000e+00
608:0.0000000000000000e+00
609:0.0000000000000000e+00
610:0.0000000000000000e+00
611:0.0000000000000000e+00
612:0.0000000000000000e+00
613:0.0000000000000000e+00
614:0.0000000000000000e+00
615:0.0000000000000000e+00
616:0.0000000000000000e+00
617:0.0000000000000000e+00
618:0.0000000000000000e+00
619:0.0000000000000000e+00
620:0.0000000000000000e+00
621:0.0000000000000000e+00
622:0.0000000000000000e+00
623:0.0000000000000000e+00
624:0.0000000000000000e+00
625:0.0000000000000000e+00
626:0.0000000000000000e+00
627:0.0000000000000000e+00
628:0.0000000000000000e+00
629:0.0000000000000000e+00
630:0.0000000000000000e+00
631:0.0000000000000000e+00
632:0.0000000000000000e+00
633:0.0000000000000000e+00
634:0.0000000000000000e+00
635:0.0000000000000000e+00
636:0.0000000000000000e+00
637:0.0000000000000000e+00
638:0.0000000000000000e+00
639:0.0000000000000000e+00
640:0.0000000000000000e+00
641:0.0000000000000000e+00
642:0.0000000000000000e+00
643:0.0000000000000000e+00
644:0.0000000000000000e+00
645:0.0000000000000000e+00
646:0.0000000000000000e+00
647:0.0000000000000000e+00
648:0.0000000000000000e+00
649:0.0000000000000000e+00
650:0.0000000000000000e+00
651:0.0000000000000000e+00
652:0.0000000000000000e+00
653:0.0000000000000000e+00
654:0.0000000000000000e+00
655:0.0000000000000000e+00
656:0.0000000000000000e+00
657:0.0000000000000000e+00
658:0.0000000000000000e+00
659:0.0000000000000000e+00
660:0.0000000000000000e+00
661:0.0000000000000000e+00
662:0.0000000000000000e+00
663:0.0000000000000000e+00
664:0.0000000000000000e+00
665:0.0000000000000000e+00
666:0.0000000000000000e+00
667:0.0000000000000000e+00
668:0.0000000000000000e+00
669:0.0000000000000000e+00
670:0.0000000000000000e+00
671:0.0000000000000000e+00
672:0.0000000000000000e+00
673:0.0000000000000000e+00
674:0.0000000000000000e+00
675:0.0000000000000000e+00
676:0.0000000000000000e+00
677:0.0000000000000000e+00
678:0.0000000000000000e+00
679:0.0000000000000000e+00
680:0.0000000000000000e+00
681:0.0000000000000000e+00
682:0.0000000000000000e+00
683:0.0000000000000000e+00
684:0.0000000000000000e+00
685:0.0000000000000000e+00
686:0.0000000000000000e+00
687:0.0000000000000000e+00
688:0.0000000000000000e+00
689:0.0000000000000000e+00
690:0.0000000000000000e+00
691:0.0000000000000000e+00
692:0.0000000000000000e+00
693:0.0000000000000000e+00
694:0.0000000000000000e+00
695:0.0000000000000000e+00
696:0.0000000000000000e+00
697:0.0000000000000000e+00
698:0.0000000000000000e+00
699:0.0000000000000000e+00
700:0.0000000000000000e+00
701:0.0000000000000000e+00
702:0.0000000000000000e+00
703:0.0000000000000000e+00
704:0.0000000000000000e+00
705:0.0000000000000000e+00
706:0.0000000000000000e+00
707:0.0000000000000000e+00
708:0.0000000000000000e+00
709:0.0000000000000000e+00
710:0.0000000000000000e+00
711:0.0000000000000000e+00
712:0.0000000000000000e+00
713:0.0000000000000000e+00
714:0.0000000000000000e+00
715:0.0000000000000000e+00
716:0.0000000000000000e+00
717:0.0000000000000000e+00
718:0.0000000000000000e+00
719:0.0000000000000000e+00
720:0.0000000000000000e+00
721:0.0000000000000000e+00
722:0.0000000000000000e+00
723:0.0000000000000000e+00
724:0.0000000000000000e+00
725:0.0000000000000000e+00
726:0.0000000000000000e+00
727:0.0000000000000000e+00
728:0.0000000000000000e+00
729:0.0000000000000000e+00
730:0.0000000000000000e+00
731:0.0000000000000000e+00
732:0.0000000000000000e+00
733:0.0000000000000000e+00
734:0.0000000000000000e+00
735:0.0000000000000000e+00
736:0.0000000000000000e+00
737:0.0000000000000000e+00
738:0.0000000000000000e+00
739:0.0000000000000000e+00
740:0.0000000000000000e+00
741:0.0000000000000000e+00
742:0.0000000000000000e+00
743:0.0000000000000000e+00
744:0.0000000000000000e+00
745:0.0000000000000000e+00
746:0.0000000000000000e+00
747:0.0000000000000000e+00
748:0.0000000000000000e+00
749:0.0000000000000000e+00
750:0.0000000000000000e+00
751:0.0000000000000000e+00
752:0.0000000000000000e+00
753:0.0000000000000000e+00
754:0.0000000000000000e+00
755:0.0000000000000000e+00
756:0.0000000000000000e+00
757:0.0000000000000000e+00
758:0.0000000000000000e+00
759:0.0000000000000000e+00
760:0.0000000000000000e+00
761:0.0000000000000000e+00
762:0.0000000000000000e+00
763:0.0000000000000000e+00
764:0.0000000000000000e+00
765:0.0000000000000000e+00
766:0.0000000000000000e+00
767:0.0000000000000000e+00
768:0.0000000000000000e+00
769:0.0000000000000000e+00
770:0.0000000000000000e+00
771:0.0000000000000000e+00
772:0.0000000000000000e+00
773:0.0000000000000000e+00
774:0.0000000000000000e+00
775:0.0000000000000000e+00
776:0.0000000000000000e+00
777:0.0000000000000000e+00
778:0.0000000000000000e+00
779:0.0000000000000000e+00
780:0.0000000000000000e+00
781:0.0000000000000000e+00
782:0.0000000000000000e+00
783:0.0000000000000000e+00
784:0.0000000000000000e+00
785:0.0000000000000000e+00
786:0.0000000000000000e+00
787:0.0000000000000000e+00
788:0.0000000000000000e+00
789:0.0000000000000000e+00
790:0.0000000000000000e+00
791:0.0000000000000000e+00
792:0.0000000000000000e+00
793:0.0000000000000000e+00
794:0.0000000000000000e+00
795:0.0000000000000000e+00
796:0.0000000000000000e+00
797:0.0000000000000000e+00
798:0.0000000000000000e+00
799:0.0000000000000000e+00
800:0.0000000000000000e+00
801:0.0000000000000000e+00
802:0.0000000000000000e+00
803:0.0000000000000000e+00
804:0.0000000000000000e+00
805:0.0000000000000000e+00
806:0.0000000000000000e+00
807:0.0000000000000000e+00
808:0.0000000000000000e+00
809:0.0000000000000000e+00
810:0.0000000000000000e+00
811:0.0000000000000000e+00
812:0.0000000000000000e+00
813:0.0000000000000000e+00
814:0.0000000000000000e+00
815:0.0000000000000000e+00
816:0.0000000000000000e+00
817:0.0000000000000000e+00
818:0.0000000000000000e+00
819:0.0000000000000000e+00
820:0.0000000000000000e+00
821:0.0000000000000000e+00
822:0.0000000000000000e+00
823:0.0000000000000000e+00
824:0.0000000000000000e+00
825:0.0000000000000000e+00
826:0.0000000000000000e+00
827:0.0000000000000000e+00
828:0.0000000000000000e+00
829:0.0000000000000000e+00
830:0.0000000000000000e+00
831:0.0000000000000000e+00
832:0.0000000000000000e+00
833:0.0000000000000000e+00
834:0.0000000000000000e+00
835:0.0000000000000000e+00
836:0.0000000000000000e+00
837:0.0000000000000000e+00
838:0.0000000000000000e+00
839:0.0000000000000000e+00
840:0.0000000000000000e+00
841:0.0000000000000000e+00
842:0.0000000000000000e+00
843:0.0000000000000000e+00
844:0.0000000000000000e+00
845:0.0000000000000000e+00
846:0.0000000000000000e+00
847:0.0000000000000000e+00
848:0.0000000000000000e+00
849:0.0000000000000000e+00
850:0.0000000000000000e+00
851:0.0000000000000000e+00
852:0.0000000000000000e+00
853:0.0000000000000000e+00
854:0.0000000000000000e+00
855:0.0000000000000000e+00
856:0.0000000000000000e+00
857:0.0000000000000000e+00
858:0.0000000000000000e+00
859:0.0000000000000000e+00
860:0.0000000000000000e+00
861:0.0000000000000000e+00
862:0.0000000000000000e+00
863:0.0000000000000000e+00
864:0.0000000000000000e+00
865:0.0000000000000000e+00
866:0.0000000000000000e+00
867:0.0000000000000000e+00
868:0.0000000000000000e+00
869:0.0000000000000000e+00
870:0.0000000000000000e+00
871:0.0000000000000000e+00
872:0.0000000000000000e+00
873:0.0000000000000000e+00
874:0.0000000000000000e+00
875:0.0000000000000000e+00
876:0.0000000000000000e+00
877:0.0000000000000000e+00
878:0.0000000000000000e+00
879:0.0000000000000000e+00
880:0.0000000000000000e+00
881:0.0000000000000000e+00
882:0.0000000000000000e+00
883:0.0000000000000000e+00
884:0.0000000000000000e+00
885:0.0000000000000000e+00
886:0.0000000000000000e+00
887:0.0000000000000000e+00
888:0.0000000000000000e+00
889:0.0000000000000000e+00
890:0.0000000000000000e+00
891:0.0000000000000000e+00
892:0.0000000000000000e+00
893:0.0000000000000000e+00
894:0.0000000000000000e+00
895:0.0000000000000000e+00
896:0.0000000000000000e+00
897:0.0000000000000000e+00
898:0.0000000000000000e+00
899:0.0000000000000000e+00
900:0.0000000000000000e+00
901:0.0000000000000000e+00
902:0.0000000000000000e+00
903:0.0000000000000000e+00
904:0.0000000000000000e+00
905:0.0000000000000000e+00
906:0.0000000000000000e+00
907:0.0000000000000000e+00
908:0.0000000000000000e+00
909:0.0000000000000000e+00
910:0.0000000000000000e+00
911:0.0000000000000000e+00
912:0.0000000000000000e+00
913:0.0000000000000000e+00
914:0.0000000000000000e+00
915:0.0000000000000000e+00
916:0.0000000000000000e+00
917:0.0000000000000000e+00
918:0.0000000000000000e+00
919:0.0000000000000000e+00
920:0.0000000000000000e+00
921:0.0000000000000000e+00
922:0.0000000000000000e+00
923:0.0000000000000000e+00
924:0.0000000000000000e+00
925:0.0000000000000000e+00
926:0.0000000000000000e+00
927:0.0000000000000000e+00
928:0.0000000000000000e+00
929:0.0000000000000000e+00
930:0.0000000000000000e+00
931:0.0000000000000000e+00
932:0.0000000000000000e+00
933:0.0000000000000000e+00
934:0.0000000000000000e+00
935:0.0000000000000000e+00
936:0.0000000000000000e+00
937:0.0000000000000000e+00
938:0.0000000000000000e+00
939:0.0000000000000000e+00
940:0.0000000000000000e+00
941:0.0000000000000000e+00
942:0.0000000000000000e+00
943:0.0000000000000000e+00
944:0.0000000000000000e+00
945:0.0000000000000000e+00
946:0.0000000000000000e+00
947:0.0000000000000000e+00
948:0.0000000000000000e+00
949:0.0000000000000000e+00
950:0.0000000000000000e+00
951:0.0000000000000000e+00
952:0.0000000000000000e+00
953:0.0000000000000000e+00
954:0.0000000000000000e+00
955:0.0000000000000000e+00
956:0.0000000000000000e+00
957:0.0000000000000000e+00
958:0.0000000000000000e+00
959:0.0000000000000000e+00
960:0.0000000000000000e+00
961:0.0000000000000000e+00
962:0.0000000000000000e+00
963:0.0000000000000000e+00
964:0.0000000000000000e+00
965:0.0000000000000000e+00
966:0.0000000000000000e+00
967:0.0000000000000000e+00
968:0.0000000000000000e+00
969:0.0000000000000000e+00
970:0.0000000000000000e+00
971:0.0000000000000000e+00
972:0.0000000000000000e+00
973:0.0000000000000000e+00
974:0.0000000000000000e+00
975:0.0000000000000000e+00
976:0.0000000000000000e+00
977:0.0000000000000000e+00
978:0.0000000000000000e+00
979:0.0000000000000000e+00
980:0.0000000000000000e+00
981:0.0000000000000000e+00
982:0.0000000000000000e+00
983:0.0000000000000000e+00
984:0.0000000000000000e+00
985:0.0000000000000000e+00
986:0.0000000000000000e+00
987:0.0000000000000000e+00
988:0.0000000000000000e+00
989:0.0000000000000000e+00
990:0.0000000000000000e+00
991:0.0000000000000000e+00
992:0.0000000000000000e+00
993:0.0000000000000000e+00
994:0.0000000000000000e+00
995:0.0000000000000000e+00
996:0.0000000000000000e+00
997:0.0000000000000000e+00
998:0.0000000000000000e+00
999:0.0000000000000000e+00
1000:0.0000000000000000e+00
1001:0.0000000000000000e+00
1002:0.0000000000000000e+00
1003:0.0000000000000000e+00
1004:0.0000000000000000e+00
1005:0.0000000000000000e+00
1006:0.0000000000000000e+00
1007:0.0000000000000000e+00
1008:0.0000000000000000e+00
1009:0.0000000000000000e+00
1010:0.0000000000000000e+00
1011:0.0000000000000000e+00
1012:0.0000000000000000e+00
1013:0.0000000000000000e+00
1014:0.0000000000000000e+00
1015:0.0000000000000000e+00
1016:0.0000000000000000e+00
1017:0.0000000000000000e+00
1018:0.0000000000000000e+00
1019:0.0000000000000000e+00
1020:0.0000000000000000e+00
1021:0.0000000000000000e+00
1022:0.0000000000000000e+00
1023:0.0000000000000000e+00
1024:0.0000000000000000e+00
1025:0.0000000000000000e+00
1026:0.0000000000000000e+00
1027:0.0000000000000000e+00
1028:0.0000000000000000e+00
1029:0.0000000000000000e+00
1030:0.0000000000000000e+00
1031:0.0000000000000000e+00
1032:0.0000000000000000e+00
1033:0.0000000000000000e+00
1034:0.0000000000000000e+00
1035:0.0000000000000000e+00
1036:0.0000000000000000e+00
1037:0.0000000000000000e+00
1038:0.0000000000000000e+00
1039:0.0000000000000000e+00
1040:0.0000000000000000e+00
1041:0.0000000000000000e+00
1042:0.0000000000000000e+00
1043:0.0000000000000000e+00
1044:0.0000000000000000e+00
1045:0.0000000000000000e+00
1046:0.0000000000000000e+00
1047:0.0000000000000000e+00
1048:0.0000000000000000e+00
1049:0.0000000000000000e+00
1050:0.0000000000000000e+00
1051:0.0000000000000000e+00
1052:0.0000000000000000e+00
1053:0.0000000000000000e+00
1054:0.0000000000000000e+00
1055:0.0000000000000000e+00
1056:0.0000000000000000e+00
1057:0.0000000000000000e+00
1058:0.0000000000000000e+00
1059:0.0000000000000000e+00
1060:0.0000000000000000e+00
1061:0.0000000000000000e+00
1062:0.0000000000000000e+00
1063:0.0000000000000000e+00
1064:0.0000000000000000e+00
1065:0.0000000000000000e+00
1066:0.0000000000000000e+00
1067:0.0000000000000000e+00
1068:0.0000000000000000e+00
1069:0.0000000000000000e+00
1070:0.0000000000000000e+00
1071:0.0000000000000000e+00
1072:0.0000000000000000e+00
1073:0.0000000000000000e+00
1074:0.0000000000000000e+00
1075:0.0000000000000000e+00
1076:0.0000000000000000e+00
1077:0.0000000000000000e+00
1078:0.0000000000000000e+00
1079:0.0000000000000000e+00
1080:0.0000000000000000e+00
1081:0.0000000000000000e+00
1082:0.0000000000000000e+00
1083:0.0000000000000000e+00
1084:0.0000000000000000e+00
1085:0.0000000000000000e+00
1086:0.0000000000000000e+00
1087:0.0000000000000000e+00
1088:0.0000000000000000e+00
1089:0.0000000000000000e+00
1090:0.0000000000000000e+00
1091:0.0000000000000000e+00
1092:0.0000000000000000e+00
1093:0.0000000000000000e+00
1094:0.0000000000000000e+00
1095:0.0000000000000000e+00
1096:0.0000000000000000e+00
1097:0.0000000000000000e+00
1098:0.0000000000000000e+00
1099:0.0000000000000000e+00
1100:0.0000000000000000e+00
1101:0.0000000000000000e+00
1102:0.0000000000000000e+00
1103:0.0000000000000000e+00
1104:0.0000000000000000e+00
1105:0.0000000000000000e+00
1106:0.0000000000000000e+00
1107:0.0000000000000000e+00
1108:0.0000000000000000e+00
1109:0.0000000000000000e+00
1110:0.0000000000000000e+00
1111:0.0000000000000000e+00
1112:0.0000000000000000e+00
1113:0.0000000000000000e+00
1114:0.0000000000000000e+00
1115:0.0000000000000000e+00
1116:0.0000000000000000e+00
1117:0.0000000000000000e+00
1118:0.0000000000000000e+00
1119:0.0000000000000000e+00
1120:0.0000000000000000e+00
1121:0.0000000000000000e+00
1122:0.0000000000000000e+00
1123:0.0000000000000000e+00
1124:0.0000000000000000e+00
1125:0.0000000000000000e+00
1126:0.0000000000000000e+00
1127:0.0000000000000000e+00
1128:0.0000000000000000e+00
1129:0.0000000000000000e+00
1130:0.0000000000000000e+00
1131:0.0000000000000000e+00
1132:0.0000000000000000e+00
1133:0.0000000000000000e+00
1134:0.0000000000000000e+00
1135:0.0000000000000000e+00
1136:0.0000000000000000e+00
1137:0.0000000000000000e+00
1138:0.0000000000000000e+00
1139:0.0000000000000000e+00
1140:0.0000000000000000e+00
1141:0.0000000000000000e+00
1142:0.0000000000000000e+00
1143:0.0000000000000000e+00
1144:0.0000000000000000e+00
1145:0.0000000000000000e+00
1146:0.0000000000000000e+00
1147:0.0000000000000000e+00
1148:0.0000000000000000e+00
1149:0.0000000000000000e+00
1150:0.0000000000000000e+00
1151:0.0000000000000000e+00
