x	y	stress_yy
 1.000000000000000e+000	 0.000000000000000e+000	 3.101505024003390e+001
 9.999553790721549e-001	 9.446392261750536e-003	 3.099985826360015e+001
 9.998208276644109e-001	 1.892867080636967e-002	 3.097234644616123e+001
 9.995953221430520e-001	 2.844573836262591e-002	 3.093253428632402e+001
 9.992778519071311e-001	 3.799646941872217e-002	 3.088043854360279e+001
 9.988674201817245e-001	 4.757971027342477e-002	 3.081607308069858e+001
 9.983630448185402e-001	 5.719427911104237e-002	 3.073944870332263e+001
 9.977637591031844e-001	 6.683896610081597e-002	 3.065057299755373e+001
 9.970686125683426e-001	 7.651253352126189e-002	 3.054945016475715e+001
 9.962766718121099e-001	 8.621371590998764e-002	 3.043608085412955e+001
 9.953870213206724e-001	 9.594122023947824e-002	 3.031046199298126e+001
 1.026666858896873e+000	 0.000000000000000e+000	 2.908586285975559e+001
 1.026621048068823e+000	 9.698297869740000e-003	 2.907952444973493e+001
 1.026482908597070e+000	 1.943343899728710e-002	 2.906188099852745e+001
 1.026251389550869e+000	 2.920429685057105e-002	 2.903288261532306e+001
 1.025925453379797e+000	 3.900971590386779e-002	 2.899247926444438e+001
 1.025504076728145e+000	 4.884851169029192e-002	 2.894061919985295e+001
 1.024986251256887e+000	 5.871947087877486e-002	 2.887724894194833e+001
 1.024370984472468e+000	 6.862135137610566e-002	 2.880231325225868e+001
 1.023657300561674e+000	 7.855288245458952e-002	 2.871575510574321e+001
 1.022844241231782e+000	 8.851276490585899e-002	 2.861751566046272e+001
 1.021930866555178e+000	 9.849967122134781e-002	 2.850753422441562e+001
 1.053334071134978e+000	 0.000000000000000e+000	 2.740853402713666e+001
 1.053287070390996e+000	 9.950206815530270e-003	 2.740743003206641e+001
 1.053145342807795e+000	 1.993821387648614e-002	 2.739623134875059e+001
 1.052907810157237e+000	 2.996286538957084e-002	 2.737482662236381e+001
 1.052573407939045e+000	 4.002297581473556e-002	 2.734310464486521e+001
 1.052141086216367e+000	 5.011732991903531e-002	 2.730095294441342e+001
 1.051609810459081e+000	 6.024468285560676e-002	 2.724825787449982e+001
 1.050978562394118e+000	 7.040376026835926e-002	 2.718490470149855e+001
 1.050246340862016e+000	 8.059325842294959e-002	 2.711077769008896e+001
 1.049412162678889e+000	 9.081184436458797e-002	 2.702576018603955e+001
 1.048475063502990e+000	 1.010581561031999e-001	 2.692973469588308e+001
 1.080001590045551e+000	 0.000000000000000e+000	 2.594894589013918e+001
 1.079953399371986e+000	 1.020211865827080e-002	 2.595013052616088e+001
 1.079808083636172e+000	 2.044299456059085e-002	 2.594256448496680e+001
 1.079564537312246e+000	 3.072144265210019e-002	 2.592608050686123e+001
 1.079221668949764e+000	 4.103624737807987e-002	 2.590051101942730e+001
 1.078778402030408e+000	 5.138616273917135e-002	 2.586568694007056e+001
 1.078233675832652e+000	 6.176991237235381e-002	 2.582143785464954e+001
 1.077586446303606e+000	 7.218618965828590e-002	 2.576759219517144e+001
 1.076835686937252e+000	 8.263365785559590e-002	 2.570397741577957e+001
 1.075980389658250e+000	 9.311095026268368e-002	 2.563042016629229e+001
 1.075019565710423e+000	 1.036166704075697e-001	 2.554674646259621e+001
 1.106669368959824e+000	 0.000000000000000e+000	 2.467587239717208e+001
 1.106619988345106e+000	 1.045403295711104e-002	 2.467703659599268e+001
 1.106471084421780e+000	 2.094778016622530e-002	 2.467086988644503e+001
 1.106221524365987e+000	 3.148002731063400e-002	 2.465715383995784e+001
 1.105870189776840e+000	 4.204952882065516e-002	 2.463566856923250e+001
 1.105415977554288e+000	 5.265500793021637e-002	 2.460619178188502e+001
 1.104857800785134e+000	 6.329515675983194e-002	 2.456849902743824e+001
 1.104194589636403e+000	 7.396863642659464e-002	 2.452236394410336e+001
 1.103425292255272e+000	 8.467407718178245e-002	 2.446755850437854e+001
 1.102548875674684e+000	 9.541007857665527e-002	 2.440385325852852e+001
 1.101564326723789e+000	 1.061752096569922e-001	 2.433101757505520e+001
 1.133337361209029e+000	 0.000000000000000e+000	 2.356064058149298e+001
 1.133286790643667e+000	 1.070594927120045e-002	 2.356007953748276e+001
 1.133134298504202e+000	 2.145256981001351e-002	 2.355362998149372e+001
 1.132878724668551e+000	 3.223861803764715e-002	 2.354102627830059e+001
 1.132518923785160e+000	 4.306281836921582e-002	 2.352199956571694e+001
 1.132053766172025e+000	 5.392386327168684e-002	 2.349627707535819e+001
 1.131482138724057e+000	 6.482041334885690e-002	 2.346358242847416e+001
 1.130802945827984e+000	 7.575109745399460e-002	 2.342363593232042e+001
 1.130015110283960e+000	 8.671451283076302e-002	 2.337615487592355e+001
 1.129117574233009e+000	 9.770922528301183e-002	 2.332085382413573e+001
 1.128109300089399e+000	 1.087337693740023e-001	 2.325744490892599e+001
 1.160005520124402e+000	 0.000000000000000e+000	 2.257683726449987e+001
 1.159953759600982e+000	 1.095786715968847e-002	 2.257342288281989e+001
 1.159797679223019e+000	 2.195736260857955e-002	 2.256553603580498e+001
 1.159536091570028e+000	 3.299721350561456e-002	 2.255286711431386e+001
 1.159167824339611e+000	 4.407611425051633e-002	 2.253510095442720e+001
 1.158691721267636e+000	 5.519272654309909e-002	 2.251191641936330e+001
 1.158106643056953e+000	 6.634567947024450e-002	 2.248298672616985e+001
 1.157411468313821e+000	 7.753356962119486e-002	 2.244797977367760e+001
 1.156605094491205e+000	 8.875496123179154e-002	 2.240655847041796e+001
 1.155686438838045e+000	 1.000083863582625e-001	 2.235838106125401e+001
 1.154654439353568e+000	 1.112923450811353e-001	 2.230310145153580e+001
 1.186673799037173e+000	 0.000000000000000e+000	 2.170005529123155e+001
 1.186620848550362e+000	 1.120978618172458e-002	 2.169321287478113e+001
 1.186461179917815e+000	 2.246215767854747e-002	 2.168324232892960e+001
 1.186193578420510e+000	 3.375581238701111e-002	 2.166979261398533e+001
 1.185816844805080e+000	 4.508941469131111e-002	 2.165250430780540e+001
 1.185329796225141e+000	 5.646159552396950e-002	 2.163100942250860e+001
 1.184731267191354e+000	 6.787095245481060e-002	 2.160493174552519e+001
 1.184020110529385e+000	 7.931604980890453e-002	 2.157388718254934e+001
 1.183195198344893e+000	 9.079541881412187e-002	 2.153748410095773e+001
 1.182255422994611e+000	 1.023075577789163e-001	 2.149532367231640e+001
 1.181199698062607e+000	 1.138509323009261e-001	 2.144700021266925e+001
 1.213342151278578e+000	 0.000000000000000e+000	 2.090767321966522e+001
 1.213288010825120e+000	 1.146170589645821e-002	 2.089736183440436e+001
 1.213124753928167e+000	 2.296695413654130e-002	 2.088515273164999e+001
 1.212851138570086e+000	 3.451441335431171e-002	 2.087065533185671e+001
 1.212465938546455e+000	 4.610271791835455e-002	 2.085346740097717e+001
 1.211967944428558e+000	 5.773046799381450e-002	 2.083317505848204e+001
 1.211355964534790e+000	 6.939622963337105e-002	 2.080935311769661e+001
 1.210628825910150e+000	 8.109853489783273e-002	 2.078156542853818e+001
 1.209785375312910e+000	 9.283588200700788e-002	 2.074936522109163e+001
 1.208824480207525e+000	 1.046067355214826e-001	 2.071229544852808e+001
 1.207745029762831e+000	 1.164095265559097e-001	 2.066988912795964e+001
 1.240010530179849e+000	 0.000000000000000e+000	 2.017866343056410e+001
 1.239955199758569e+000	 1.171362586303883e-002	 2.016535947303208e+001
 1.239788354593661e+000	 2.347175109918509e-002	 2.015123480931005e+001
 1.239508725368846e+000	 3.527301507999124e-002	 2.013586059197704e+001
 1.239115058928623e+000	 4.711602215840111e-002	 2.011879265254706e+001
 1.238606119261905e+000	 5.899934173215044e-002	 2.009957164507324e+001
 1.237980688494794e+000	 7.092150833674160e-002	 2.007772337208650e+001
 1.237237567891589e+000	 8.288102176868853e-002	 2.005275911323165e+001
 1.236375578863144e+000	 9.487634723970345e-002	 2.002417595491347e+001
 1.235393563981607e+000	 1.069059155624702e-001	 1.999145711935010e+001
 1.234290388000549e+000	 1.189681233686213e-001	 1.995407229153521e+001
 1.266678889072220e+000	 0.000000000000000e+000	 1.949342447186848e+001
 1.266622368684020e+000	 1.196554564061589e-002	 1.947810803280171e+001
 1.266451935253877e+000	 2.397654768310291e-002	 1.946285739675568e+001
 1.266166292166884e+000	 3.603161623652462e-002	 1.944720613344792e+001
 1.265764159316470e+000	 4.812932563820523e-002	 1.943066847331579e+001
 1.265244274109201e+000	 6.026821451849370e-002	 1.941273952529263e+001
 1.264605392478897e+000	 7.244678589573809e-002	 1.939289557602032e+001
 1.263846289909173e+000	 8.466350730218103e-002	 1.937059439178658e+001
 1.262965762463481e+000	 9.691681094146248e-002	 1.934527552137462e+001
 1.261962627821675e+000	 1.092050938783884e-001	 1.931636059811653e+001
 1.260835726322077e+000	 1.215267182615958e-001	 1.928325363956497e+001
 9.953870213206724e-001	 9.594122023947824e-002	 3.031046199298125e+001
 9.943989199946589e-001	 1.056922649420928e-001	 3.017230512572910e+001
 9.933113650226917e-001	 1.154669775827053e-001	 3.002120313138806e+001
 9.921235000424145e-001	 1.252640057452699e-001	 2.985704317160604e+001
 9.908344898374512e-001	 1.350819710464206e-001	 2.967972861064604e+001
 9.894435211587168e-001	 1.449194694473043e-001	 2.948917951550360e+001
 9.879498035443918e-001	 1.547750715930050e-001	 2.928533313951355e+001
 9.863525701375676e-001	 1.646473231798204e-001	 2.906814438821191e+001
 9.846510785005697e-001	 1.745347453506194e-001	 2.883758626627035e+001
 9.828446114249161e-001	 1.844358351184653e-001	 2.859365030438466e+001
 9.809324777358747e-001	 1.943490658186562e-001	 2.833634696506526e+001
 1.021930866555178e+000	 9.849967122134781e-002	 2.850753422441562e+001
 1.020916415669762e+000	 1.085107456576842e-001	 2.838608999749001e+001
 1.019799859022319e+000	 1.185461191814804e-001	 2.825337230410396e+001
 1.018580317413973e+000	 1.286044033119972e-001	 2.810924599790778e+001
 1.017256933355725e+000	 1.386841829087085e-001	 2.795358914658601e+001
 1.015828871911665e+000	 1.487840164914495e-001	 2.778629349209655e+001
 1.014295321540812e+000	 1.589024365888926e-001	 2.760726489613204e+001
 1.012655494936566e+000	 1.690379501156183e-001	 2.741642376970359e+001
 1.010908629862745e+000	 1.791890387780153e-001	 2.721370548581453e+001
 1.009053989985139e+000	 1.893541595092008e-001	 2.699906077426465e+001
 1.007090865697531e+000	 1.995317449331146e-001	 2.677245609770633e+001
 1.048475063502990e+000	 1.010581561031999e-001	 2.692973469588307e+001
 1.047434262709218e+000	 1.113292637187003e-001	 2.682337955851083e+001
 1.046288704002161e+000	 1.216253015794872e-001	 2.670730688724109e+001
 1.045037485346122e+000	 1.319448451396527e-001	 2.658135249193127e+001
 1.043679726979181e+000	 1.422864425010265e-001	 2.644536256421902e+001
 1.042214572278316e+000	 1.526486147416389e-001	 2.629919410881630e+001
 1.040641188623105e+000	 1.630298562732486e-001	 2.614271536148691e+001
 1.038958768256984e+000	 1.734286352282083e-001	 2.597580619272032e+001
 1.037166529144998e+000	 1.838433938759065e-001	 2.579835849619547e+001
 1.035263715826961e+000	 1.942725490689864e-001	 2.561027656121433e+001
 1.033249600264920e+000	 2.047144927194935e-001	 2.541147742838019e+001
 1.075019565710423e+000	 1.036166704075697e-001	 2.554674646259620e+001
 1.073952414705431e+000	 1.141478141926027e-001	 2.545390515794455e+001
 1.072777853605359e+000	 1.247045193880078e-001	 2.535279788377498e+001
 1.071494957537422e+000	 1.352853253822968e-001	 2.524322493020154e+001
 1.070102824466526e+000	 1.458887435192349e-001	 2.512499429650757e+001
 1.068600576082287e+000	 1.565132574346200e-001	 2.499792210400052e+001
 1.066987358684599e+000	 1.671573234228618e-001	 2.486183299668730e+001
 1.065262344066698e+000	 1.778193708336415e-001	 2.471656052887087e+001
 1.063424730394631e+000	 1.884978024988976e-001	 2.456194753886564e+001
 1.061473743082011e+000	 1.991909951903410e-001	 2.439784650813031e+001
 1.059408635658941e+000	 2.098973001076576e-001	 2.422411990522815e+001
 1.101564326723789e+000	 1.061752096569922e-001	 2.433101757505520e+001
 1.100470825250804e+000	 1.169663921468526e-001	 2.425017823394697e+001
 1.099267261475050e+000	 1.277837672183244e-001	 2.416242960566894e+001
 1.097952687686433e+000	 1.386258381939897e-001	 2.406753021701766e+001
 1.096526179576468e+000	 1.494910796591940e-001	 2.396524379632415e+001
 1.094986837147195e+000	 1.603779378071404e-001	 2.385533967798640e+001
 1.093333785618622e+000	 1.712848308145205e-001	 2.373759319557623e+001
 1.091566176333586e+000	 1.822101492479693e-001	 2.361178606268513e+001
 1.089683187658943e+000	 1.931522565015935e-001	 2.347770674078680e+001
 1.087684025881921e+000	 2.041094892657834e-001	 2.333515079351432e+001
 1.085567926100498e+000	 2.150801580274720e-001	 2.318392122687877e+001
 1.128109300089399e+000	 1.087337693740023e-001	 2.325744490892599e+001
 1.126989447937741e+000	 1.197849926489115e-001	 2.318717288540863e+001
 1.125756881254374e+000	 1.308630396817190e-001	 2.311126114041324e+001
 1.124410629491716e+000	 1.419663777287919e-001	 2.302942040285030e+001
 1.122949746067712e+000	 1.530934446167641e-001	 2.294136426780142e+001
 1.121373309296657e+000	 1.642426490959474e-001	 2.284680960248897e+001
 1.119680423318503e+000	 1.754123712250134e-001	 2.274547694112817e+001
 1.117870219025528e+000	 1.866009627872430e-001	 2.263709086786403e+001
 1.115941854985237e+000	 1.978067477385986e-001	 2.252138038712828e+001
 1.113894518358322e+000	 2.090280226878327e-001	 2.239807928089310e+001
 1.111727425810493e+000	 2.202630574088016e-001	 2.226692645244814e+001
 1.154654439353568e+000	 1.112923450811353e-001	 2.230310145153581e+001
 1.153508236358646e+000	 1.226036107662409e-001	 2.224205204623065e+001
 1.152246666586472e+000	 1.339423313894738e-001	 2.217655154262996e+001
 1.150868736651832e+000	 1.453069381407635e-001	 2.210625702642433e+001
 1.149373477698965e+000	 1.566958320878054e-001	 2.203082629560015e+001
 1.147759946354290e+000	 1.681073845377886e-001	 2.194991827727561e+001
 1.146027225677570e+000	 1.795399374311290e-001	 2.186319343321300e+001
 1.144174426110399e+000	 1.909918037675140e-001	 2.177031415322105e+001
 1.142200686420812e+000	 2.024612680645178e-001	 2.167094513581678e+001
 1.140105174642845e+000	 2.139465868490073e-001	 2.156475375568170e+001
 1.137887089009828e+000	 2.254459891815113e-001	 2.145141041762243e+001
 1.181199698062607e+000	 1.138509323009261e-001	 2.144700021266926e+001
 1.180027144105923e+000	 1.254222415663019e-001	 2.139393040686244e+001
 1.178736571114482e+000	 1.370216369528710e-001	 2.133752187617755e+001
 1.177326962865341e+000	 1.486475135839651e-001	 2.127737239039696e+001
 1.175797328228936e+000	 1.602982357681785e-001	 2.121307847031996e+001
 1.174146702143711e+000	 1.719721373694114e-001	 2.114423582458636e+001
 1.172374146589153e+000	 1.836675222096557e-001	 2.107043977438271e+001
 1.170478751556079e+000	 1.953826645048333e-001	 2.099128566522868e+001
 1.168459636012969e+000	 2.071158093339556e-001	 2.090636926522422e+001
 1.166315948867122e+000	 2.188651731418263e-001	 2.081528714932954e+001
 1.164046869919403e+000	 2.306289442754662e-001	 2.071763706945466e+001
 1.207745029762831e+000	 1.164095265559097e-001	 2.066988912795964e+001
 1.206546124771974e+000	 1.282408801165561e-001	 2.062366843246665e+001
 1.205226548481543e+000	 1.401009509831926e-001	 2.057514844022854e+001
 1.203785261830803e+000	 1.519880982124569e-001	 2.052386209131313e+001
 1.202221251416331e+000	 1.639006493537434e-001	 2.046933932110460e+001
 1.200533530488537e+000	 1.758369008275634e-001	 2.041110752594560e+001
 1.198721139946579e+000	 1.877951183373822e-001	 2.034869201520225e+001
 1.196783149330445e+000	 1.997735373152525e-001	 2.028161644890602e+001
 1.194718657809009e+000	 2.117703634015168e-001	 2.020940326033809e+001
 1.192526795162783e+000	 2.237837729588086e-001	 2.013157406314624e+001
 1.190206722760122e+000	 2.358119136205312e-001	 2.004765004282078e+001
 1.234290388000549e+000	 1.189681233686213e-001	 1.995407229153521e+001
 1.233065131949204e+000	 1.310595214844649e-001	 1.991369279870001e+001
 1.231716552330795e+000	 1.431802680917210e-001	 1.987198248715020e+001
 1.230243587246780e+000	 1.553286861802993e-001	 1.982840410107734e+001
 1.228645201019855e+000	 1.675030665403604e-001	 1.978241584471030e+001
 1.226920385212384e+000	 1.797016681489920e-001	 1.973347188533177e+001
 1.225068159643175e+000	 1.919227185910969e-001	 1.968102284050775e+001
 1.223087573401376e+000	 2.041644145148226e-001	 1.962451624861160e+001
 1.220977705856232e+000	 2.164249221218061e-001	 1.956339702196832e+001
 1.218737667661458e+000	 2.287023776924730e-001	 1.949710788220554e+001
 1.216366601752886e+000	 2.409948881465710e-001	 1.942508977767177e+001
 1.260835726322077e+000	 1.215267182615958e-001	 1.928325363956497e+001
 1.259584119230017e+000	 1.338781607374896e-001	 1.924783935372241e+001
 1.258206536305377e+000	 1.462595828897382e-001	 1.921199252986110e+001
 1.256701892811832e+000	 1.586692716415527e-001	 1.917510048880934e+001
 1.255069130798217e+000	 1.711054810238902e-001	 1.913654471327730e+001
 1.253307220138871e+000	 1.835664325704446e-001	 1.909570139653901e+001
 1.251415159572273e+000	 1.960503157475885e-001	 1.905194197227917e+001
 1.249391977736748e+000	 2.085552884195949e-001	 1.900463362458201e+001
 1.247236734201940e+000	 2.210794773494281e-001	 1.895313977732255e+001
 1.244948520494780e+000	 2.336209787353382e-001	 1.889682056252212e+001
 1.242526461118596e+000	 2.461778587834510e-001	 1.883503326754600e+001
 9.809324777358747e-001	 1.943490658186562e-001	 2.833634696506526e+001
 9.789137024229728e-001	 2.042743766435053e-001	 2.806664939277022e+001
 9.767879280981021e-001	 2.142087061355223e-001	 2.778559719635047e+001
 9.745545470450379e-001	 2.241504565049763e-001	 2.749320873203754e+001
 9.722129807570792e-001	 2.340980083161345e-001	 2.718951937339934e+001
 9.697626806991601e-001	 2.440497210832210e-001	 2.687458181970006e+001
 9.672031290579123e-001	 2.540039338948809e-001	 2.654846638406327e+001
 9.645338394785437e-001	 2.639589660669880e-001	 2.621126126106348e+001
 9.617543577873684e-001	 2.739131178235835e-001	 2.586307277345783e+001
 9.588642626988490e-001	 2.838646710056856e-001	 2.550402559785325e+001
 9.558631665059840e-001	 2.938118898076575e-001	 2.513426296918950e+001
 1.007090865697531e+000	 1.995317449331146e-001	 2.677245609770633e+001
 1.005018255988954e+000	 2.097217326205241e-001	 2.653479690318252e+001
 1.002835793940865e+000	 2.199209794745262e-001	 2.628705670445274e+001
 1.000542855631143e+000	 2.301278450974099e-001	 2.602922326762454e+001
 9.981388471261151e-001	 2.403406668682315e-001	 2.576130043690651e+001
 9.956232052629930e-001	 2.505577605546663e-001	 2.548330844122121e+001
 9.929953984199389e-001	 2.607774209541257e-001	 2.519528418056297e+001
 9.902549272725891e-001	 2.709979225639719e-001	 2.489728149186378e+001
 9.874013255358587e-001	 2.812175202806164e-001	 2.458937139422939e+001
 9.844341606898323e-001	 2.914344501272308e-001	 2.427164231350522e+001
 9.813530346885656e-001	 3.016469300097511e-001	 2.394420028623104e+001
 1.033249600264920e+000	 2.047144927194935e-001	 2.541147742838020e+001
 1.031123155447073e+000	 2.151691607766280e-001	 2.520285617236944e+001
 1.028884004924326e+000	 2.256333285029850e-001	 2.498537731870183e+001
 1.026531508568457e+000	 2.361053128922975e-001	 2.475899116430367e+001
 1.024065057018631e+000	 2.465834081378281e-001	 2.452366320614052e+001
 1.021484072484157e+000	 2.570658862601133e-001	 2.427937445272297e+001
 1.018788009534555e+000	 2.675509977647321e-001	 2.402612171513855e+001
 1.015976355875734e+000	 2.780369723299311e-001	 2.376391787751324e+001
 1.013048633111059e+000	 2.885220195238799e-001	 2.349279214692188e+001
 1.010004397486102e+000	 2.990043295512846e-001	 2.321279028288232e+001
 1.006843240615852e+000	 3.094820740290298e-001	 2.292397480668046e+001
 1.059408635658941e+000	 2.098973001076576e-001	 2.422411990522815e+001
 1.057228355112487e+000	 2.206166515784633e-001	 2.404170353815542e+001
 1.054932515462900e+000	 2.313457432239041e-001	 2.385160387116863e+001
 1.052520460375683e+000	 2.420828494286582e-001	 2.365372726630144e+001
 1.049991565062670e+000	 2.528262211996881e-001	 2.344799447776689e+001
 1.047345237105108e+000	 2.635740868098780e-001	 2.323434097411816e+001
 1.044580917263728e+000	 2.743246524724556e-001	 2.301271723949696e+001
 1.041698080274572e+000	 2.850761030460262e-001	 2.278308905402043e+001
 1.038696235629327e+000	 2.958266027699860e-001	 2.254543775349420e+001
 1.035574928338934e+000	 3.065742960300392e-001	 2.229976046877231e+001
 1.032333739679205e+000	 3.173173081534752e-001	 2.204607034521553e+001
 1.085567926100498e+000	 2.150801580274720e-001	 2.318392122687877e+001
 1.083333809300356e+000	 2.260641954926754e-001	 2.302504008529561e+001
 1.080981279971006e+000	 2.370582136402892e-001	 2.285960113011790e+001
 1.078509665571524e+000	 2.480604442455112e-001	 2.268746071588587e+001
 1.075918325886272e+000	 2.590690951285747e-001	 2.250848886167374e+001
 1.073206653868300e+000	 2.700823508142762e-001	 2.232256958877073e+001
 1.070374076469423e+000	 2.810983732230515e-001	 2.212960123672944e+001
 1.067420055455696e+000	 2.921153023934179e-001	 2.192949675799175e+001
 1.064344088207020e+000	 3.031312572355475e-001	 2.172218399146015e+001
 1.061145708499603e+000	 3.141443363156863e-001	 2.150760591553756e+001
 1.057824487269989e+000	 3.251526186710684e-001	 2.128572088131058e+001
 1.111727425810493e+000	 2.202630574088016e-001	 2.226692645244813e+001
 1.109439472325838e+000	 2.315117829859109e-001	 2.212907062961497e+001
 1.107030252863060e+000	 2.427707297551455e-001	 2.198573320236674e+001
 1.104499078674683e+000	 2.540380868818758e-001	 2.183671482294573e+001
 1.101845294117478e+000	 2.653120189992516e-001	 2.168182917171537e+001
 1.099068277516187e+000	 2.765906668836241e-001	 2.152090331430345e+001
 1.096167442013604e+000	 2.878721481622747e-001	 2.135377803604778e+001
 1.093142236405699e+000	 2.991545580532664e-001	 2.118030815412480e+001
 1.089992145960496e+000	 3.104359701371768e-001	 2.100036280792688e+001
 1.086716693219385e+000	 3.217144371604181e-001	 2.081382572843316e+001
 1.083315438779566e+000	 3.329879918697909e-001	 2.062059548749486e+001
 1.137887089009828e+000	 2.254459891815113e-001	 2.145141041762243e+001
 1.135545298504095e+000	 2.369594045248153e-001	 2.133222640971468e+001
 1.133079388553482e+000	 2.484832815714788e-001	 2.120858653724426e+001
 1.130488654203866e+000	 2.600157668767713e-001	 2.108023042220157e+001
 1.127772424384331e+000	 2.715549818864824e-001	 2.094691018156154e+001
 1.124930062791226e+000	 2.830990236282377e-001	 2.080839080687944e+001
 1.121960968758237e+000	 2.946459654358806e-001	 2.066445051970818e+001
 1.118864578111176e+000	 3.061938577067329e-001	 2.051488110340605e+001
 1.115640364006114e+000	 3.177407286914862e-001	 2.035948821211698e+001
 1.112287837749558e+000	 3.292845853164264e-001	 2.019809165791417e+001
 1.108806549599299e+000	 3.408234140376239e-001	 2.003052567730124e+001
 1.164046869919403e+000	 2.306289442754662e-001	 2.071763706945466e+001
 1.161651242150283e+000	 2.424070505760348e-001	 2.061492461436878e+001
 1.159128641456689e+000	 2.541958590922946e-001	 2.050872967694178e+001
 1.156478346677774e+000	 2.659934737692165e-001	 2.039872588076305e+001
 1.153699671314873e+000	 2.777979728650303e-001	 2.028459892764106e+001
 1.150791964435869e+000	 2.896074096584329e-001	 2.016604700165257e+001
 1.147754611565289e+000	 3.014198131896246e-001	 2.004278114704474e+001
 1.144587035558720e+000	 3.132331890349774e-001	 1.991452562076602e+001
 1.141288697460231e+000	 3.250455201150880e-001	 1.978101822064746e+001
 1.137859097341395e+000	 3.368547675359032e-001	 1.964201059049971e+001
 1.134297775120553e+000	 3.486588714625484e-001	 1.949726850362438e+001
 1.190206722760122e+000	 2.358119136205312e-001	 2.004765004282078e+001
 1.187757257579563e+000	 2.478547116062153e-001	 1.995935908133037e+001
 1.185177965987098e+000	 2.599084523205985e-001	 1.986850410271290e+001
 1.182468110615112e+000	 2.719711970982310e-001	 1.977468812027302e+001
 1.179626989537143e+000	 2.840409810096590e-001	 1.967752593930926e+001
 1.176653937192574e+000	 2.961158135845260e-001	 1.957664458658847e+001
 1.173548325296723e+000	 3.081936795692618e-001	 1.947168371113890e+001
 1.170309563734924e+000	 3.202725397191609e-001	 1.936229595736587e+001
 1.166937101439205e+000	 3.323503316245950e-001	 1.924814731178037e+001
 1.163430427246173e+000	 3.444249705710406e-001	 1.912891742491069e+001
 1.159789070734689e+000	 3.564943504325457e-001	 1.900429991023799e+001
 1.216366601752886e+000	 2.409948881465710e-001	 1.942508977767176e+001
 1.213863299107094e+000	 2.533023780820027e-001	 1.934931747726353e+001
 1.211227316559127e+000	 2.656210512593958e-001	 1.927184149802174e+001
 1.208457900534584e+000	 2.779489264028339e-001	 1.919218998697790e+001
 1.205554333679185e+000	 2.902839953951322e-001	 1.910990274274196e+001
 1.202515935803794e+000	 3.026242240168329e-001	 1.902453167029992e+001
 1.199342064814506e+000	 3.149675527205473e-001	 1.893564120394604e+001
 1.196032117626381e+000	 3.273118974404437e-001	 1.884280869960962e+001
 1.192585531059394e+000	 3.396551504366193e-001	 1.874562479816523e+001
 1.189001782715169e+000	 3.519951811740304e-001	 1.864369376163873e+001
 1.185280391833071e+000	 3.643298372355973e-001	 1.853663378453347e+001
 1.242526461118596e+000	 2.461778587834510e-001	 1.883503326754600e+001
 1.239969321048035e+000	 2.587500404700431e-001	 1.877002105806911e+001
 1.237276647587192e+000	 2.713336459116922e-001	 1.870410353737691e+001
 1.234447670954891e+000	 2.839266512220444e-001	 1.863673008864762e+001
 1.231481658369039e+000	 2.965270050962132e-001	 1.856736176842909e+001
 1.228377915011984e+000	 3.091326295656696e-001	 1.849547178553279e+001
 1.225135784980603e+000	 3.217414207892365e-001	 1.842054594414267e+001
 1.221754652219686e+000	 3.343512498799867e-001	 1.834208305268345e+001
 1.218233941437156e+000	 3.469599637677736e-001	 1.825959530037220e+001
 1.214573118999657e+000	 3.595653860970647e-001	 1.817260860374874e+001
 1.210771693807061e+000	 3.721653181596841e-001	 1.808066292584015e+001
 9.558631665059840e-001	 2.938118898076575e-001	 2.513426296918950e+001
 9.527507155138414e-001	 3.037530213952426e-001	 2.475419897208141e+001
 9.495265899749483e-001	 3.136862962449286e-001	 2.436429733108911e+001
 9.461905054388915e-001	 3.236099293720238e-001	 2.396481386670433e+001
 9.427422136050960e-001	 3.335221213151299e-001	 2.355603673740226e+001
 9.391815029145866e-001	 3.434210590039753e-001	 2.313828667004823e+001
 9.355081991183116e-001	 3.533049166519174e-001	 2.271191714910209e+001
 9.317221658209343e-001	 3.631718566724364e-001	 2.227731456431092e+001
 9.278233049990163e-001	 3.730200306188906e-001	 2.183489831666600e+001
 9.238115574925392e-001	 3.828475801467559e-001	 2.138512088247759e+001
 9.196869034687286e-001	 3.926526379975133e-001	 2.092846783549632e+001
 9.813530346885656e-001	 3.016469300097511e-001	 2.394420028623104e+001
 9.781575844051821e-001	 3.118531603513708e-001	 2.360774994691456e+001
 9.748474815655586e-001	 3.220513244408870e-001	 2.326303426731165e+001
 9.714224341338947e-001	 3.322395896935919e-001	 2.291025053939296e+001
 9.678821871882342e-001	 3.424161086620216e-001	 2.254962347489123e+001
 9.642265235280022e-001	 3.525790199269325e-001	 2.218140540318148e+001
 9.604552642574868e-001	 3.627264490136036e-001	 2.180587643583983e+001
 9.565682693441295e-001	 3.728565093327700e-001	 2.142334459800183e+001
 9.525654381505310e-001	 3.829673031454391e-001	 2.103414592671836e+001
 9.484467099390737e-001	 3.930569225507893e-001	 2.063864453657330e+001
 9.442120643481219e-001	 4.031234504962961e-001	 2.023723265288698e+001
 1.006843240615852e+000	 3.094820740290298e-001	 2.292397480668046e+001
 1.003564789941372e+000	 3.199534066371333e-001	 2.262723471300633e+001
 1.000168708661770e+000	 3.304164634760867e-001	 2.232349072126804e+001
 9.966546971557494e-001	 3.408693643605512e-001	 2.201288310391896e+001
 9.930224938798730e-001	 3.513102138563777e-001	 2.169557559224133e+001
 9.892718759918836e-001	 3.617371021947264e-001	 2.137175554867554e+001
 9.854026599493357e-001	 3.721481062121692e-001	 2.104163411232245e+001
 9.814147020823928e-001	 3.825412903160630e-001	 2.070544631816593e+001
 9.773078991396468e-001	 3.929147074744280e-001	 2.036345119063112e+001
 9.730821888058523e-001	 4.032664002295056e-001	 2.001593181215512e+001
 9.687375501904938e-001	 4.135944017341220e-001	 1.966319536749431e+001
 1.032333739679205e+000	 3.173173081534752e-001	 2.204607034521553e+001
 1.028972287659047e+000	 3.280537460765929e-001	 2.178535920341517e+001
 1.025490226950689e+000	 3.387816987110449e-001	 2.151864839306763e+001
 1.021887250347247e+000	 3.494992382703296e-001	 2.124602268867895e+001
 1.018163089683721e+000	 3.602044213330747e-001	 2.096758727172436e+001
 1.014317516476093e+000	 3.708952897803031e-001	 2.068346788291698e+001
 1.010350342535127e+000	 3.815698717593335e-001	 2.039381095280257e+001
 1.006261420553655e+000	 3.922261826735969e-001	 2.009878371165132e+001
 1.002050644666225e+000	 4.028622261975743e-001	 1.979857427968736e+001
 9.977179509799359e-001	 4.134759953160150e-001	 1.949339173875148e+001
 9.932633180753755e-001	 4.240654733865391e-001	 1.918346618653370e+001
 1.057824487269989e+000	 3.251526186710684e-001	 2.128572088131058e+001
 1.054380033094837e+000	 3.361541644938118e-001	 2.105756431116443e+001
 1.050811992119420e+000	 3.471470155062801e-001	 2.082420313180261e+001
 1.047120049551180e+000	 3.581291963203556e-001	 2.058566818524120e+001
 1.043303930603482e+000	 3.690987155269895e-001	 2.034200853457775e+001
 1.039363401150493e+000	 3.800535666566078e-001	 2.009329160017835e+001
 1.035298268356127e+000	 3.909917291668158e-001	 1.983960327803486e+001
 1.031108381275849e+000	 4.019111694566532e-001	 1.958104804169715e+001
 1.026793631430127e+000	 4.128098419065946e-001	 1.931774902925713e+001
 1.022353953348383e+000	 4.236856899434282e-001	 1.904984811691563e+001
 1.017789325082299e+000	 4.345366471290957e-001	 1.877750598069967e+001
 1.083315438779566e+000	 3.329879918697909e-001	 2.062059548749486e+001
 1.079787981785381e+000	 3.442546477128530e-001	 2.042171212930109e+001
 1.076133959855069e+000	 3.555123992223094e-001	 2.021825312632996e+001
 1.072353050610339e+000	 3.667592234080572e-001	 2.001019702854910e+001
 1.068444972642865e+000	 3.779930808729982e-001	 1.979753924853062e+001
 1.064409486184943e+000	 3.892119167965864e-001	 1.958029218398388e+001
 1.060246393753604e+000	 4.004136619463352e-001	 1.935848532502277e+001
 1.055955540766905e+000	 4.115962337165134e-001	 1.913216534802283e+001
 1.051536816131212e+000	 4.227575371932062e-001	 1.890139619800084e+001
 1.046990152798253e+000	 4.338954662448556e-001	 1.866625916150754e+001
 1.042315528290796e+000	 4.450079046373393e-001	 1.842685293205883e+001
 1.108806549599299e+000	 3.408234140376239e-001	 2.003052567730124e+001
 1.105196089267310e+000	 3.523551815577792e-001	 1.985781437520465e+001
 1.101456085844741e+000	 3.638778352196508e-001	 1.968102895681854e+001
 1.097586209367518e+000	 3.753893044308631e-001	 1.950009742654373e+001
 1.093586171805575e+000	 3.868875018059776e-001	 1.931496408580338e+001
 1.089455727749307e+000	 3.983703241731845e-001	 1.912558964274881e+001
 1.085194675068824e+000	 4.098356536096109e-001	 1.893195130800799e+001
 1.080802855544754e+000	 4.212813585044585e-001	 1.873404287880600e+001
 1.076280155469341e+000	 4.327052946491252e-001	 1.853187481387411e+001
 1.071626506216607e+000	 4.441053063534078e-001	 1.832547430162921e+001
 1.066841884780397e+000	 4.554792275868185e-001	 1.811488532414288e+001
 1.134297775120553e+000	 3.486588714625484e-001	 1.949726850362438e+001
 1.130604311077259e+000	 3.604557518526529e-001	 1.934779636690060e+001
 1.126778325775542e+000	 3.722433088588220e-001	 1.919465892569328e+001
 1.122819481665506e+000	 3.840194242862013e-001	 1.903773552252824e+001
 1.118727484095319e+000	 3.957819627608041e-001	 1.887692199336742e+001
 1.114502082013446e+000	 4.075287727593477e-001	 1.871213076365933e+001
 1.110143068643055e+000	 4.192576876683624e-001	 1.854329093050201e+001
 1.105650282127328e+000	 4.309665268717704e-001	 1.837034833375207e+001
 1.101023606144375e+000	 4.426530968660690e-001	 1.819326561901790e+001
 1.096262970490503e+000	 4.543151924021958e-001	 1.801202229554969e+001
 1.091368351630633e+000	 4.659505976530814e-001	 1.782661479208464e+001
 1.159789070734689e+000	 3.564943504325457e-001	 1.900429991023799e+001
 1.156012602751863e+000	 3.685563444215371e-001	 1.887529108465934e+001
 1.152100635334577e+000	 3.806088055003410e-001	 1.874296424319894e+001
 1.148052823347096e+000	 3.926495678714999e-001	 1.860715211882375e+001
 1.143868865515805e+000	 4.046764481723542e-001	 1.846770486869344e+001
 1.139548505147221e+000	 4.166872465280218e-001	 1.832449015400886e+001
 1.135091530817564e+000	 4.286797476343087e-001	 1.817739320481436e+001
 1.130497777032559e+000	 4.406517218697299e-001	 1.802631687313421e+001
 1.125767124856174e+000	 4.526009264357540e-001	 1.787118167794682e+001
 1.120899502507002e+000	 4.645251065243294e-001	 1.771192584559020e+001
 1.115894885921037e+000	 4.764219965116759e-001	 1.754850534924888e+001
 1.185280391833071e+000	 3.643298372355973e-001	 1.853663378453347e+001
 1.181420919827755e+000	 3.766569450884943e-001	 1.842545879122822e+001
 1.177422970208952e+000	 3.889743105047254e-001	 1.831127957566472e+001
 1.173286190255080e+000	 4.012797200841873e-001	 1.819388451395982e+001
 1.169010272070738e+000	 4.135709424755045e-001	 1.807308104679424e+001
 1.164594953320496e+000	 4.258457294521522e-001	 1.794869573872099e+001
 1.160040017933619e+000	 4.381018170191692e-001	 1.782057432004950e+001
 1.155345296778378e+000	 4.503369265496192e-001	 1.768858171528078e+001
 1.150510668304600e+000	 4.625487659498976e-001	 1.755260206221746e+001
 1.145536059153163e+000	 4.747350308529197e-001	 1.741253872598201e+001
 1.140421444731140e+000	 4.868934058381502e-001	 1.726831431224657e+001
 1.210771693807061e+000	 3.721653181596841e-001	 1.808066292584015e+001
 1.206829217841571e+000	 3.847575396775871e-001	 1.798482844609054e+001
 1.202745286085772e+000	 3.973398092324930e-001	 1.788629522075428e+001
 1.198519538232249e+000	 4.099098658216918e-001	 1.778480975441738e+001
 1.194151659763825e+000	 4.224654301051314e-001	 1.768013994412860e+001
 1.189641382703130e+000	 4.350042055046847e-001	 1.757207511196247e+001
 1.184988486332486e+000	 4.475238793346628e-001	 1.746042601656160e+001
 1.180192797882715e+000	 4.600221239627187e-001	 1.734502484828849e+001
 1.175254193189512e+000	 4.724965980002161e-001	 1.722572521279409e+001
 1.170172597316046e+000	 4.849449475210771e-001	 1.710240210794404e+001
 1.164947985140473e+000	 4.973648073080526e-001	 1.697495189913348e+001
 9.196869034687286e-001	 3.926526379975133e-001	 2.092846783549632e+001
 9.154500070382964e-001	 4.024318639757796e-001	 2.046663363484018e+001
 9.111003186645378e-001	 4.121848497096857e-001	 2.000099319385169e+001
 9.066379396471510e-001	 4.219097086716465e-001	 1.953178804165391e+001
 9.020630121438826e-001	 4.316045495771123e-001	 1.905926438575364e+001
 8.973757194803052e-001	 4.412674774614075e-001	 1.858367312728792e+001
 8.925762864264074e-001	 4.508965947721493e-001	 1.810526988694206e+001
 8.876649794392210e-001	 4.604900024760815e-001	 1.762431504212759e+001
 8.826421068707412e-001	 4.700458011791232e-001	 1.714107377589923e+001
 8.775080191404553e-001	 4.795620922583880e-001	 1.665581613796793e+001
 8.722631088718381e-001	 4.890369790048946e-001	 1.616881711803975e+001
 9.442120643481219e-001	 4.031234504962961e-001	 2.023723265288698e+001
 9.398621831981485e-001	 4.131634577139968e-001	 1.983090759318320e+001
 9.353965022980482e-001	 4.231765249420750e-001	 1.942045521361109e+001
 9.308151256488799e-001	 4.331607153452563e-001	 1.900615995284937e+001
 9.261181991993086e-001	 4.431140872044483e-001	 1.858831476336989e+001
 9.213059111636404e-001	 4.530346950222970e-001	 1.816722105006491e+001
 9.163784923057911e-001	 4.629205906447350e-001	 1.774318861408546e+001
 9.113362161883818e-001	 4.727698243973318e-001	 1.731653560273463e+001
 9.061793993862046e-001	 4.825804462352117e-001	 1.688758846615361e+001
 9.009084016633495e-001	 4.923505069052576e-001	 1.645668192142092e+001
 8.955236261133457e-001	 5.020780591192977e-001	 1.602415892455432e+001
 9.687375501904938e-001	 4.135944017341220e-001	 1.966319536749431e+001
 9.642746828240307e-001	 4.238951936465678e-001	 1.930575330538507e+001
 9.596930078607578e-001	 4.341683458149260e-001	 1.894399448136759e+001
 9.549926320031290e-001	 4.444118710955526e-001	 1.857822914609748e+001
 9.501737049907746e-001	 4.546237773341320e-001	 1.820877947563061e+001
 9.452364199267954e-001	 4.648020684999468e-001	 1.783597945202253e+001
 9.401810135691121e-001	 4.749447458365617e-001	 1.746017474500794e+001
 9.350077665860249e-001	 4.850498090276872e-001	 1.708172259586763e+001
 9.297170037752286e-001	 4.951152573769659e-001	 1.670099170448654e+001
 9.243090942455402e-001	 5.051390910003677e-001	 1.631836212048338e+001
 9.187844515606748e-001	 5.151193120298432e-001	 1.593422513915681e+001
 9.932633180753755e-001	 4.240654733865391e-001	 1.918346618653370e+001
 9.886874631931889e-001	 4.346270529926760e-001	 1.886899583875260e+001
 9.839897928328978e-001	 4.451602930922763e-001	 1.855012740175511e+001
 9.791704163983789e-001	 4.556631562327355e-001	 1.822718128050899e+001
 9.742294874202677e-001	 4.661335998239209e-001	 1.790049281390786e+001
 9.691672038905157e-001	 4.765695773011598e-001	 1.757041211408713e+001
 9.639838085611113e-001	 4.869690393050530e-001	 1.723730390401033e+001
 9.586795892061150e-001	 4.973299348768570e-001	 1.690154735471413e+001
 9.532548788462155e-001	 5.076502126681390e-001	 1.656353592349102e+001
 9.477100559350589e-001	 5.179278221633580e-001	 1.622367719415706e+001
 9.420455445066669e-001	 5.281607149139946e-001	 1.588239272040606e+001
 1.017789325082299e+000	 4.345366471290957e-001	 1.877750598069967e+001
 1.013100481582870e+000	 4.453590169715063e-001	 1.850074535669988e+001
 1.008286814694700e+000	 4.561523475381651e-001	 1.821959206499180e+001
 1.003348436523110e+000	 4.669145510670051e-001	 1.793436233754294e+001
 9.982855043897772e-001	 4.776435345315741e-001	 1.764538996313751e+001
 9.930982211755461e-001	 4.883372008327391e-001	 1.735302610032599e+001
 9.877868356265308e-001	 4.989934500076330e-001	 1.705763908715639e+001
 9.823516426226164e-001	 5.096101804545525e-001	 1.675961424938080e+001
 9.767929834075642e-001	 5.201852901724832e-001	 1.645935370870893e+001
 9.711112457799381e-001	 5.307166780138687e-001	 1.615727619253667e+001
 9.653068642441641e-001	 5.412022449492143e-001	 1.585381684641356e+001
 1.042315528290796e+000	 4.450079046373393e-001	 1.842685293205883e+001
 1.037513695270321e+000	 4.560910668022424e-001	 1.818313095356529e+001
 1.032584030926394e+000	 4.671444899166304e-001	 1.793508902868636e+001
 1.027526650065803e+000	 4.781660359085613e-001	 1.768302612584198e+001
 1.022341713801290e+000	 4.891535613148496e-001	 1.742726102197337e+001
 1.017029429902632e+000	 5.001049185014880e-001	 1.716813210221897e+001
 1.011590053110111e+000	 5.110179569017253e-001	 1.690599715621291e+001
 1.006023885409494e+000	 5.218905242704837e-001	 1.664123317303406e+001
 1.000331276267676e+000	 5.327204679537507e-001	 1.637423613669695e+001
 9.945126228282096e-001	 5.435056361715400e-001	 1.610542082391221e+001
 9.885683700660080e-001	 5.542438793129652e-001	 1.583522060565762e+001
 1.066841884780397e+000	 4.554792275868185e-001	 1.811488532414287e+001
 1.061927061532788e+000	 4.668231837040687e-001	 1.790006959342833e+001
 1.056881399008212e+000	 4.781367009917106e-001	 1.768105620003403e+001
 1.051705014714938e+000	 4.894175910676042e-001	 1.745811491537166e+001
 1.046398073556794e+000	 5.006636600315061e-001	 1.723153721157326e+001
 1.040960788192517e+000	 5.118727097142092e-001	 1.700163605915396e+001
 1.035393419356594e+000	 5.230425389447538e-001	 1.676874572248036e+001
 1.029696276140712e+000	 5.341709448343606e-001	 1.653322155544624e+001
 1.023869716234950e+000	 5.452557240756947e-001	 1.629543979959863e+001
 1.017914146127906e+000	 5.562946742560117e-001	 1.605579738676990e+001
 1.011830021265040e+000	 5.672855951827097e-001	 1.581471174805486e+001
 1.091368351630633e+000	 4.659505976530814e-001	 1.782661479208464e+001
 1.086340537647517e+000	 4.775553488961693e-001	 1.763706463400852e+001
 1.081178876420385e+000	 4.891289615274444e-001	 1.744347245728581e+001
 1.075883488158995e+000	 5.006691968543336e-001	 1.724606799243283e+001
 1.070454541558279e+000	 5.121738105393018e-001	 1.704510421248989e+001
 1.064892254165948e+000	 5.236405538777059e-001	 1.684085713807742e+001
 1.059196892710721e+000	 5.350671750941420e-001	 1.663362564280352e+001
 1.053368773390236e+000	 5.464514206558941e-001	 1.642373126184420e+001
 1.047408262117787e+000	 5.577910366020672e-001	 1.621151800633352e+001
 1.041315774727059e+000	 5.690837698869241e-001	 1.599735218598141e+001
 1.035091777134104e+000	 5.803273697359112e-001	 1.578162224208655e+001
 1.115894885921037e+000	 4.764219965116759e-001	 1.754850534924888e+001
 1.110754080891756e+000	 4.882875435977283e-001	 1.738102938665526e+001
 1.105476420643145e+000	 5.001212522878700e-001	 1.720968559157384e+001
 1.100062028086456e+000	 5.119208335789502e-001	 1.703465384248935e+001
 1.094511075707730e+000	 5.236839926959949e-001	 1.685613845852498e+001
 1.088823785943670e+000	 5.354084303987813e-001	 1.667436801941237e+001
 1.083000431517234e+000	 5.470918443073142e-001	 1.648959518974708e+001
 1.077041335732030e+000	 5.587319302447943e-001	 1.630209655082651e+001
 1.070946872724587e+000	 5.703263835966207e-001	 1.611217244315048e+001
 1.064717467673700e+000	 5.818729006839174e-001	 1.592014682240908e+001
 1.058353596966040e+000	 5.933691801500316e-001	 1.572636713148919e+001
 1.140421444731140e+000	 4.868934058381502e-001	 1.726831431224657e+001
 1.135167648542750e+000	 4.990197490279299e-001	 1.712013194574211e+001
 1.129773989156722e+000	 5.111135540370256e-001	 1.696826091011764e+001
 1.124240592185799e+000	 5.231724815516531e-001	 1.681282240605668e+001
 1.118567633907137e+000	 5.351941863593439e-001	 1.665396293374939e+001
 1.112755341646426e+000	 5.471763186842383e-001	 1.649185413336807e+001
 1.106803994120874e+000	 5.591165255416938e-001	 1.632669263518374e+001
 1.100713921740058e+000	 5.710124521107712e-001	 1.615869992315925e+001
 1.094485506863751e+000	 5.828617431231077e-001	 1.598812221560155e+001
 1.088119184015863e+000	 5.946620442666314e-001	 1.581523036615692e+001
 1.081615440053690e+000	 6.064110036025346e-001	 1.564031978809010e+001
 1.164947985140473e+000	 4.973648073080526e-001	 1.697495189913348e+001
 1.159581197877747e+000	 5.097519464059583e-001	 1.684365815493759e+001
 1.154071539441347e+000	 5.221058475389500e-001	 1.670884745786774e+001
 1.148419138145507e+000	 5.344241210826426e-001	 1.657057445138832e+001
 1.142624174058487e+000	 5.467043713871074e-001	 1.642891960039025e+001
 1.136686879394964e+000	 5.589441981408801e-001	 1.628398905578493e+001
 1.130607538866382e+000	 5.711411977547047e-001	 1.613591453555241e+001
 1.124386489988285e+000	 5.832929647635357e-001	 1.598485322669293e+001
 1.118024123343679e+000	 5.953970932452810e-001	 1.583098771223435e+001
 1.111520882801578e+000	 6.074511782547065e-001	 1.567452592709948e+001
 1.104877265689896e+000	 6.194528172708822e-001	 1.551570114623897e+001
 8.722631088718381e-001	 4.890369790048946e-001	 1.616881711803974e+001
 8.669069994773564e-001	 4.984699794031350e-001	 1.567934122026216e+001
 8.614409475685219e-001	 5.078577791162043e-001	 1.518729086405427e+001
 8.558654737743154e-001	 5.171984938406529e-001	 1.469370917830945e+001
 8.501811411206635e-001	 5.264902458615942e-001	 1.419967462465911e+001
 8.443885549780590e-001	 5.357311652289508e-001	 1.370630006458814e+001
 8.384883629704415e-001	 5.449193909360232e-001	 1.321473177379702e+001
 8.324812548450976e-001	 5.540530720989082e-001	 1.272614840457289e+001
 8.263679623034136e-001	 5.631303691352767e-001	 1.224175989693269e+001
 8.201492587923700e-001	 5.721494549410070e-001	 1.176280633930275e+001
 8.138259592567364e-001	 5.811085160631598e-001	 1.129055677950056e+001
 8.955236261133457e-001	 5.020780591192977e-001	 1.602415892455433e+001
 8.900246861062579e-001	 5.117626080080405e-001	 1.558990346755691e+001
 8.844128717634382e-001	 5.214007508515945e-001	 1.515417851392711e+001
 8.786887175973517e-001	 5.309905530979979e-001	 1.471772662422370e+001
 8.728528016480038e-001	 5.405300869595506e-001	 1.428131656400974e+001
 8.669057454291611e-001	 5.500174326204224e-001	 1.384574279037256e+001
 8.608482138348055e-001	 5.594506794466541e-001	 1.341182490882451e+001
 8.546809150055599e-001	 5.688279271970237e-001	 1.298040710067128e+001
 8.484046001549335e-001	 5.781472872332618e-001	 1.255235752084847e+001
 8.420200633552514e-001	 5.874068837280613e-001	 1.212856766614027e+001
 8.355281412832462e-001	 5.966048548693306e-001	 1.170995171360707e+001
 9.187844515606748e-001	 5.151193120298432e-001	 1.593422513915681e+001
 9.131426790481644e-001	 5.250554127421397e-001	 1.554880039639684e+001
 9.073851003396591e-001	 5.349439020332116e-001	 1.516247756422812e+001
 9.015122638313120e-001	 5.447827951019330e-001	 1.477575252490559e+001
 8.955247625774229e-001	 5.545701140871350e-001	 1.438914012852978e+001
 8.894232342352665e-001	 5.643038893065866e-001	 1.400317403433744e+001
 8.832083609691115e-001	 5.739821604984207e-001	 1.361840654233651e+001
 8.768808693131817e-001	 5.836029780634552e-001	 1.323540841480509e+001
 8.704415299933851e-001	 5.931644043068414e-001	 1.285476868700255e+001
 8.638911577076851e-001	 6.026645146774508e-001	 1.247709446627223e+001
 8.572306108650805e-001	 6.121013990034107e-001	 1.210301071854582e+001
 9.420455445066669e-001	 5.281607149139946e-001	 1.588239272040606e+001
 9.362609378459224e-001	 5.383483703426760e-001	 1.554000997406327e+001
 9.303575930951712e-001	 5.484872089601938e-001	 1.519686387626042e+001
 9.243360725344286e-001	 5.585751957156878e-001	 1.485325374079521e+001
 9.181969842324795e-001	 5.686103026739566e-001	 1.450949238385897e+001
 9.119409819903062e-001	 5.785905102858034e-001	 1.416590625836096e+001
 9.055687652426796e-001	 5.885138086608936e-001	 1.382283559564500e+001
 8.990810789176518e-001	 5.983781988415262e-001	 1.348063455365421e+001
 8.924787132537713e-001	 6.081816940757199e-001	 1.313967137034787e+001
 8.857625035748910e-001	 6.179223210879754e-001	 1.280032852092842e+001
 8.789333300225429e-001	 6.275981213460914e-001	 1.246300287718801e+001
 9.653068642441641e-001	 5.412022449492143e-001	 1.585381684641356e+001
 9.593794220423776e-001	 5.516414575468932e-001	 1.554923382093877e+001
 9.533303098279591e-001	 5.620306479316777e-001	 1.524367316742161e+001
 9.471601037649345e-001	 5.723677308024932e-001	 1.493728433572638e+001
 9.408694269367316e-001	 5.826506281496252e-001	 1.463022647450851e+001
 9.344589492882121e-001	 5.928772705564345e-001	 1.432266879940098e+001
 9.279293875248308e-001	 6.030455985036434e-001	 1.401479098296958e+001
 9.212815049686621e-001	 6.131535636745614e-001	 1.370678356512945e+001
 9.145161113710950e-001	 6.231991302596035e-001	 1.339884838239000e+001
 9.076340626820888e-001	 6.331802762584340e-001	 1.309119901397437e+001
 9.006362607759364e-001	 6.430949947780623e-001	 1.278406124253336e+001
 9.885683700660080e-001	 5.542438793129652e-001	 1.583522060565762e+001
 9.824980911803788e-001	 5.649346510920354e-001	 1.556369305492367e+001
 9.763032103360101e-001	 5.755741952468014e-001	 1.529070413313739e+001
 9.699843175810624e-001	 5.861603762255794e-001	 1.501629705773913e+001
 9.635420510137376e-001	 5.966910659437502e-001	 1.474052250109015e+001
 9.569770967229156e-001	 6.071641451168405e-001	 1.446343913561788e+001
 9.502901886848859e-001	 6.175775045962409e-001	 1.418511421266913e+001
 9.434821086159001e-001	 6.279290467058839e-001	 1.390562417350295e+001
 9.365536857803576e-001	 6.382166865781973e-001	 1.362505529045759e+001
 9.295057967545002e-001	 6.484383534876271e-001	 1.334350433593071e+001
 9.223393651455634e-001	 6.585919921800144e-001	 1.306107927641572e+001
 1.011830021265040e+000	 5.672855951827097e-001	 1.581471174805486e+001
 1.005616904802770e+000	 5.782279277153465e-001	 1.557195032095226e+001
 9.992762544173094e-001	 5.891178272047021e-001	 1.532704672642208e+001
 9.928086740410455e-001	 5.999531078481775e-001	 1.507997880366697e+001
 9.862148167870557e-001	 6.107315914859411e-001	 1.483073106719363e+001
 9.794953848883495e-001	 6.214511089653824e-001	 1.457929537401124e+001
 9.726511295921650e-001	 6.321095015082566e-001	 1.432567163426962e+001
 9.656828510090559e-001	 6.427046220788176e-001	 1.406986856360931e+001
 9.585913979165628e-001	 6.532343367512070e-001	 1.381190447502886e+001
 9.513776675173451e-001	 6.636965260743545e-001	 1.355180810760716e+001
 9.440426051517269e-001	 6.740890864326373e-001	 1.329050061330130e+001
 1.035091777134104e+000	 5.803273697359112e-001	 1.578162224208656e+001
 1.028735822452400e+000	 5.915212641540699e-001	 1.556375388900028e+001
 1.022249401869843e+000	 6.026615201045174e-001	 1.534293163999397e+001
 1.015633133203116e+000	 6.137459015335169e-001	 1.511910629697466e+001
 1.008887684580245e+000	 6.247721802058077e-001	 1.489223593198693e+001
 1.002013774378445e+000	 6.357381371004209e-001	 1.466228662331087e+001
 9.950121711159885e-001	 6.466415638092610e-001	 1.442923324274908e+001
 9.878836932978198e-001	 6.574802639366864e-001	 1.419306029231821e+001
 9.806292092147125e-001	 6.682520544983372e-001	 1.395379968501066e+001
 9.732496366958434e-001	 6.789547673174153e-001	 1.371365965035197e+001
 9.657459428147288e-001	 6.895862504166215e-001	 1.347396459612051e+001
 1.058353596966040e+000	 5.933691801500316e-001	 1.572636713148919e+001
 1.051854803672116e+000	 6.048146371454501e-001	 1.552990042750935e+001
 1.045222612491598e+000	 6.162052502453843e-001	 1.532959773102450e+001
 1.038457655125506e+000	 6.275387331448290e-001	 1.512541887104539e+001
 1.031560614716861e+000	 6.388128075329591e-001	 1.491733283103427e+001
 1.024532225787134e+000	 6.500252045203179e-001	 1.470531850227490e+001
 1.017373274125678e+000	 6.611736660688250e-001	 1.448936549442224e+001
 1.010084596631881e+000	 6.722559464228142e-001	 1.426992058867990e+001
 1.002667081109809e+000	 6.832698135392944e-001	 1.404965941779158e+001
 9.951216660152161e-001	 6.942130505156094e-001	 1.382908119194529e+001
 9.874493401548727e-001	 7.050834570126574e-001	 1.360826426065233e+001
 1.081615440053690e+000	 6.064110036025346e-001	 1.564031978809010e+001
 1.074973808004762e+000	 6.181080234267304e-001	 1.546211364272620e+001
 1.068195846080558e+000	 6.297489939264407e-001	 1.527917468927809e+001
 1.061282199866449e+000	 6.413315785453437e-001	 1.509150578463903e+001
 1.054233567520466e+000	 6.528534488970053e-001	 1.489912203306796e+001
 1.047050699708348e+000	 6.643122862234333e-001	 1.470205150652426e+001
 1.039734399490552e+000	 6.757057828565188e-001	 1.450143175122016e+001
 1.032285522160929e+000	 6.870316436805244e-001	 1.429967433002814e+001
 1.024704975036855e+000	 6.982875875937834e-001	 1.409697877030378e+001
 1.016993717200683e+000	 7.094713489677370e-001	 1.389348827145731e+001
 1.009152759192461e+000	 7.205806791014351e-001	 1.368936514092644e+001
 1.104877265689896e+000	 6.194528172708822e-001	 1.551570114623897e+001
 1.098092794993187e+000	 6.314013997351550e-001	 1.535293644751676e+001
 1.091169062434710e+000	 6.432927274468235e-001	 1.518457870390412e+001
 1.084106727484178e+000	 6.551244135982918e-001	 1.501070592954455e+001
 1.076906503314615e+000	 6.668940797275553e-001	 1.483141309001509e+001
 1.069569156736019e+000	 6.785993572081285e-001	 1.464858423278440e+001
 1.062095508079932e+000	 6.902378887419132e-001	 1.446404768974560e+001
 1.054486431034654e+000	 7.018073298531413e-001	 1.427801645795560e+001
 1.046742852430854e+000	 7.133053503815100e-001	 1.409072935900727e+001
 1.038865751977465e+000	 7.247296359725971e-001	 1.390245029227414e+001
 1.030856161947795e+000	 7.360778895636447e-001	 1.371346740964477e+001
 8.138259592567364e-001	 5.811085160631598e-001	 1.129055677950056e+001
 8.073989196223579e-001	 5.900057536711100e-001	 1.082599169688063e+001
 8.008690357874088e-001	 5.988393841156299e-001	 1.036929023248821e+001
 7.942372439580684e-001	 6.076076406512598e-001	 9.920530091298701e+000
 7.875045204774031e-001	 6.163087747742401e-001	 9.479775784287776e+000
 7.806718813845675e-001	 6.249410573556360e-001	 9.047079360155975e+000
 7.737403819358265e-001	 6.335027797617577e-001	 8.622481169335146e+000
 7.667111160878265e-001	 6.419922549603809e-001	 8.206010656808372e+000
 7.595852159436007e-001	 6.504078186112841e-001	 7.797687180091630e+000
 7.523638511618763e-001	 6.587478301396494e-001	 7.397520848550595e+000
 7.450482283302942e-001	 6.670106737908847e-001	 7.005515096569902e+000
 8.355281412832462e-001	 5.966048548693306e-001	 1.170995171360707e+001
 8.289297126895775e-001	 6.057393538572367e-001	 1.129637620469570e+001
 8.222256973632530e-001	 6.148085494782434e-001	 1.088720734807608e+001
 8.154170564761907e-001	 6.238106278733666e-001	 1.048262224637183e+001
 8.085047924075216e-001	 6.327437939117713e-001	 1.008279425028193e+001
 8.014899482910344e-001	 6.416062723541129e-001	 9.687893575204724e+000
 7.943736075234262e-001	 6.503963090028356e-001	 9.298087935755723e+000
 7.871568932337913e-001	 6.591121718378924e-001	 8.913543194650691e+000
 7.798409677148595e-001	 6.677521521363643e-001	 8.534443818401927e+000
 7.724270318165429e-001	 6.763145655744852e-001	 8.162535222885090e+000
 7.649163243024476e-001	 6.847977533105901e-001	 7.798910931920592e+000
 8.572306108650805e-001	 6.121013990034107e-001	 1.210301071854582e+001
 8.504607910413642e-001	 6.214731625150546e-001	 1.173164419682722e+001
 8.435826419166745e-001	 6.307779264339034e-001	 1.136186688625560e+001
 8.365971496289765e-001	 6.400138297868191e-001	 1.099393762645249e+001
 8.295053425937876e-001	 6.491790308152675e-001	 1.062811936497490e+001
 8.223082910398663e-001	 6.582717081688778e-001	 1.026467968965474e+001
 8.150071065046908e-001	 6.672900620856198e-001	 9.903897638643128e+000
 8.076029412901695e-001	 6.762323155570230e-001	 9.547654800766559e+000
 8.000969878791011e-001	 6.850967154768765e-001	 9.197424579633113e+000
 7.924904783129740e-001	 6.938815337718781e-001	 8.853411555948208e+000
 7.847846835317627e-001	 7.025850685127173e-001	 8.515817651643973e+000
 8.789333300225429e-001	 6.275981213460914e-001	 1.246300287718801e+001
 8.719921169979256e-001	 6.372071521100241e-001	 1.212637626245290e+001
 8.649398320725696e-001	 6.467474870358032e-001	 1.178906988355915e+001
 8.577774863507546e-001	 6.562172180355882e-001	 1.145140813988790e+001
 8.505061342846643e-001	 6.656144567226070e-001	 1.111372589077088e+001
 8.431268731983189e-001	 6.749373356349260e-001	 1.077757020242365e+001
 8.356408427702822e-001	 6.841840094455123e-001	 1.044511402568972e+001
 8.280492244755902e-001	 6.933526561569474e-001	 1.011668209569812e+001
 8.203532409874395e-001	 7.024414782792147e-001	 9.792581499117096e+000
 8.125541555392345e-001	 7.114487039889694e-001	 9.473121929321112e+000
 8.046532712476672e-001	 7.203725882687514e-001	 9.158615239908604e+000
 9.006362607759364e-001	 6.430949947780623e-001	 1.278406124253336e+001
 8.935236528794699e-001	 6.529412951076056e-001	 1.247589516222599e+001
 8.862972304558356e-001	 6.627172033371349e-001	 1.216524662492143e+001
 8.789580295758553e-001	 6.724207642636473e-001	 1.185305812024160e+001
 8.715071307286160e-001	 6.820500428716689e-001	 1.154211615138527e+001
 8.639456583336481e-001	 6.916031255872529e-001	 1.123305859993212e+001
 8.562747802108592e-001	 7.010781215179124e-001	 1.092625836056285e+001
 8.484957070086822e-001	 7.104731636768402e-001	 1.062209597357444e+001
 8.406096915909896e-001	 7.197864101897744e-001	 1.032095898912305e+001
 8.326180283833888e-001	 7.290160454828978e-001	 1.002324131793424e+001
 8.245220526795862e-001	 7.381602814501764e-001	 9.729342571464075e+000
 9.223393651455634e-001	 6.585919921800144e-001	 1.306107927641572e+001
 9.150553610062056e-001	 6.686755639732592e-001	 1.277624231127970e+001
 9.076547996913685e-001	 6.786870473910930e-001	 1.248980255902529e+001
 9.001387422386069e-001	 6.886244401149673e-001	 1.220324790956110e+001
 8.925082951741051e-001	 6.984857605003322e-001	 1.191698491534605e+001
 8.847646100131097e-001	 7.082690488608533e-001	 1.163143220830508e+001
 8.769088827170830e-001	 7.179723687382210e-001	 1.134701973440998e+001
 8.689423531080759e-001	 7.275938081558755e-001	 1.106418796204387e+001
 8.608663042408664e-001	 7.371314808549521e-001	 1.078338706748160e+001
 8.526820617335016e-001	 7.465835275108047e-001	 1.050507610095140e+001
 8.443909930569482e-001	 7.559481169284779e-001	 1.022972213686105e+001
 9.440426051517269e-001	 6.740890864326373e-001	 1.329050061330130e+001
 9.365872036983388e-001	 6.844099311724453e-001	 1.302886657608831e+001
 9.290125024040664e-001	 6.946569912508703e-001	 1.276573001800496e+001
 9.213195872733394e-001	 7.048282172335207e-001	 1.250152202714959e+001
 9.135095908695964e-001	 7.149215808464764e-001	 1.223668861972989e+001
 9.055836918039592e-001	 7.249350762907215e-001	 1.197168985769298e+001
 8.975431141796130e-001	 7.348667215418383e-001	 1.170699893146717e+001
 8.893891269924004e-001	 7.447145596332283e-001	 1.144310121150116e+001
 8.811230434881836e-001	 7.544766599211421e-001	 1.118049327246791e+001
 8.727462204776373e-001	 7.641511193298295e-001	 1.091968189416162e+001
 8.642600576091790e-001	 7.737360635751406e-001	 1.066118304325848e+001
 9.657459428147288e-001	 6.895862504166215e-001	 1.347396459612052e+001
 9.581191432760791e-001	 7.001443691706241e-001	 1.323324643168793e+001
 9.503703012188257e-001	 7.106270069696601e-001	 1.299030358287693e+001
 9.425005276143821e-001	 7.210320672632804e-001	 1.274559561425951e+001
 9.345109810635532e-001	 7.313574751479801e-001	 1.249959793279255e+001
 9.264028672734521e-001	 7.416011787118533e-001	 1.225280076927834e+001
 9.181774384891096e-001	 7.517611503641648e-001	 1.200570812134114e+001
 9.098359928802851e-001	 7.618353881480728e-001	 1.175883666211068e+001
 9.013798738840571e-001	 7.718219170347401e-001	 1.151271461901152e+001
 8.928104695038603e-001	 7.817187901971132e-001	 1.126788062724287e+001
 8.841292115657057e-001	 7.915240902616486e-001	 1.102488256269651e+001
 9.874493401548727e-001	 7.050834570126574e-001	 1.360826426065233e+001
 9.796511420596337e-001	 7.158788504332553e-001	 1.338583652362158e+001
 9.717281587605429e-001	 7.265970666006559e-001	 1.316067823720951e+001
 9.636815261960641e-001	 7.372359618482176e-001	 1.293326966567718e+001
 9.555124290044385e-001	 7.477934146427221e-001	 1.270410668844571e+001
 9.472220999888442e-001	 7.582673269592433e-001	 1.247369965437363e+001
 9.388118195362328e-001	 7.686556256406014e-001	 1.224257219573335e+001
 9.302829149903598e-001	 7.789562637395833e-001	 1.201126000658554e+001
 9.216367599796002e-001	 7.891672218421419e-001	 1.178030959047979e+001
 9.128747737002358e-001	 7.992865093697955e-001	 1.155027698261889e+001
 9.039984201559549e-001	 8.093121658594877e-001	 1.132172645180438e+001
 1.009152759192461e+000	 7.205806791014351e-001	 1.368936514092644e+001
 1.001183162369211e+000	 7.316133474258008e-001	 1.348328811962152e+001
 9.930860376541154e-001	 7.425671421970512e-001	 1.327414026961128e+001
 9.848625459527152e-001	 7.534398726323051e-001	 1.306241579383241e+001
 9.765138979407163e-001	 7.642293705685814e-001	 1.284862319469306e+001
 9.680413535173916e-001	 7.749334918678867e-001	 1.263328400903134e+001
 9.594462212116428e-001	 7.855501178065477e-001	 1.241693150262212e+001
 9.507298575412535e-001	 7.960771564469348e-001	 1.220010932943978e+001
 9.418936663259282e-001	 8.065125439897427e-001	 1.198337016113728e+001
 9.329390979548276e-001	 8.168542461050162e-001	 1.176727429243008e+001
 9.238676486093538e-001	 8.271002592401421e-001	 1.155238822827059e+001
 1.030856161947795e+000	 7.360778895636447e-001	 1.371346740964477e+001
 1.022715166525019e+000	 7.473478326137195e-001	 1.352242434865011e+001
 1.014443900524439e+000	 7.585372058120380e-001	 1.332808924768034e+001
 1.006043549818665e+000	 7.696437712595147e-001	 1.313096442957910e+001
 9.975153511208504e-001	 7.806653141634373e-001	 1.293156416224398e+001
 9.888605914263493e-001	 7.915996442727785e-001	 1.273041328107416e+001
 9.800806074060003e-001	 8.024445972974047e-001	 1.252804577236650e+001
 9.711767847515960e-001	 8.131980363093015e-001	 1.232500332338216e+001
 9.621505574741556e-001	 8.238578531239378e-001	 1.212183384508091e+001
 9.530034071557008e-001	 8.344219696599167e-001	 1.191908997376372e+001
 9.437368621553292e-001	 8.448883392750972e-001	 1.171732755807900e+001
 7.450482283302942e-001	 6.670106737908847e-001	 7.005515096569899e+000
 7.376407085647760e-001	 6.751935382033578e-001	 6.621942058525186e+000
 7.301414800067997e-001	 6.832961067697868e-001	 6.246992303004133e+000
 7.225518559652614e-001	 6.913168456532408e-001	 5.880966604675514e+000
 7.148731837902085e-001	 6.992542498395045e-001	 5.524152537470120e+000
 7.071068440770070e-001	 7.071068440770069e-001	 5.176824319030863e+000
 6.992542498395046e-001	 7.148731837902086e-001	 4.839242686801891e+000
 6.913168456532407e-001	 7.225518559652614e-001	 4.511654806866794e+000
 6.832961067697868e-001	 7.301414800067997e-001	 4.194294216525472e+000
 6.751935382033579e-001	 7.376407085647760e-001	 3.887380801478857e+000
 6.670106737908847e-001	 7.450482283302943e-001	 3.591120808357448e+000
 7.649163243024476e-001	 6.847977533105901e-001	 7.798910931920594e+000
 7.573112692520885e-001	 6.931988290128908e-001	 7.442611407587792e+000
 7.496120598240782e-001	 7.015174676312072e-001	 7.092794509932649e+000
 7.418200443491130e-001	 7.097520944260171e-001	 6.749851107036575e+000
 7.339366061068124e-001	 7.179011642491269e-001	 6.414160864448851e+000
 7.259631625086618e-001	 7.259631625086618e-001	 6.086091878817725e+000
 7.179011642491264e-001	 7.339366061068126e-001	 5.766000341555787e+000
 7.097520944260168e-001	 7.418200443491130e-001	 5.454230234273246e+000
 7.015174676312068e-001	 7.496120598240780e-001	 5.151113057598725e+000
 6.931988290128908e-001	 7.573112692520886e-001	 4.856967594880211e+000
 6.847977533105903e-001	 7.649163243024477e-001	 4.572099712124433e+000
 7.847846835317627e-001	 7.025850685127173e-001	 8.515817651643973e+000
 7.769820905793919e-001	 7.112043583964481e-001	 8.183675075392960e+000
 7.690828976316781e-001	 7.197390699298709e-001	 7.856098030098686e+000
 7.610884880415944e-001	 7.281875874703213e-001	 7.533553046862730e+000
 7.530002810188171e-001	 7.365483257350832e-001	 7.216497253946820e+000
 7.448197307914483e-001	 7.448197307914483e-001	 6.905377817003284e+000
 7.365483257350833e-001	 7.530002810188171e-001	 6.600631408039877e+000
 7.281875874703212e-001	 7.610884880415944e-001	 6.302683705463704e+000
 7.197390699298712e-001	 7.690828976316783e-001	 6.011948927435682e+000
 7.112043583964484e-001	 7.769820905793919e-001	 5.728829400637169e+000
 7.025850685127173e-001	 7.847846835317627e-001	 5.453715166411794e+000
 8.046532712476672e-001	 7.203725882687514e-001	 9.158615239908601e+000
 7.966531381217792e-001	 7.292100948435913e-001	 8.847989383614598e+000
 7.885539593546564e-001	 7.379608817771644e-001	 8.540226250183943e+000
 7.803571533219557e-001	 7.466232925231846e-001	 8.235854917535812e+000
 7.720641751638337e-001	 7.551957016639452e-001	 7.935396666761707e+000
 7.636765159254422e-001	 7.636765159254418e-001	 7.639364244582752e+000
 7.551957016639452e-001	 7.720641751638339e-001	 7.348261153529940e+000
 7.466232925231846e-001	 7.803571533219557e-001	 7.062580972794041e+000
 7.379608817771644e-001	 7.885539593546562e-001	 6.782806712576712e+000
 7.292100948435912e-001	 7.966531381217792e-001	 6.509410204646109e+000
 7.203725882687513e-001	 8.046532712476668e-001	 6.242851531649517e+000
 8.245220526795862e-001	 7.381602814501764e-001	 9.729342571464077e+000
 8.163243774543456e-001	 7.472160068438808e-001	 9.438019916229607e+000
 8.080252109180682e-001	 7.561828712844724e-001	 9.148063272907956e+000
 7.996260064694477e-001	 7.650591773216392e-001	 8.860052355683161e+000
 7.911282551794755e-001	 7.738432594022843e-001	 8.574560498672676e+000
 7.825334849107183e-001	 7.825334849107182e-001	 8.292153754533977e+000
 7.738432594022845e-001	 7.911282551794753e-001	 8.013390020053265e+000
 7.650591773216392e-001	 7.996260064694477e-001	 7.738818192260474e+000
 7.561828712844722e-001	 8.080252109180682e-001	 7.468977358498179e+000
 7.472160068438808e-001	 8.163243774543455e-001	 7.204396023740164e+000
 7.381602814501764e-001	 8.245220526795862e-001	 6.945591378302038e+000
 8.443909930569482e-001	 7.559481169284779e-001	 1.022972213686105e+001
 8.359957741521835e-001	 7.652220628868781e-001	 9.955871742302742e+000
 8.274966182469707e-001	 7.744050065631816e-001	 9.682089501449264e+000
 8.188950137633203e-001	 7.834952096027164e-001	 9.408994965074077e+000
 8.101924877033535e-001	 7.924909663166712e-001	 9.137202535541446e+000
 8.013906047473510e-001	 8.013906047473510e-001	 8.867320413851244e+000
 7.924909663166713e-001	 8.101924877033534e-001	 8.599949573177518e+000
 7.834952096027162e-001	 8.188950137633202e-001	 8.335682763040355e+000
 7.744050065631813e-001	 8.274966182469704e-001	 8.075103548135374e+000
 7.652220628868780e-001	 8.359957741521834e-001	 7.818785385711051e+000
 7.559481169284781e-001	 8.443909930569481e-001	 7.567290745223329e+000
 8.642600576091790e-001	 7.737360635751406e-001	 1.066118304325848e+001
 8.556672937903875e-001	 7.832282314621443e-001	 1.040331715361317e+001
 8.469681472664187e-001	 7.926272557246766e-001	 1.014441399478333e+001
 8.381641414828237e-001	 8.019313571034474e-001	 9.885123182448883e+000
 8.292568393730803e-001	 8.111387897736772e-001	 9.626090234410702e+000
 8.202478424354156e-001	 8.202478424354154e-001	 9.367955376789958e+000
 8.111387897736770e-001	 8.292568393730803e-001	 9.111352376461728e+000
 8.019313571034478e-001	 8.381641414828240e-001	 8.856907404464110e+000
 7.926272557246764e-001	 8.469681472664185e-001	 8.605237935008960e+000
 7.832282314621443e-001	 8.556672937903874e-001	 8.356951684584184e+000
 7.737360635751404e-001	 8.642600576091787e-001	 8.112645595468765e+000
 8.841292115657057e-001	 7.915240902616486e-001	 1.102488256269651e+001
 8.753389019440514e-001	 8.012344810592407e-001	 1.078182130861431e+001
 8.664397639014685e-001	 8.108495868803437e-001	 1.053680410239972e+001
 8.574333559072089e-001	 8.203675875608653e-001	 1.029050180836558e+001
 8.483212768262674e-001	 8.297866971398730e-001	 1.004358206625740e+001
 8.391051649749869e-001	 8.391051649749869e-001	 9.796707965797067e+000
 8.297866971398730e-001	 8.483212768262672e-001	 9.550536747408415e+000
 8.203675875608647e-001	 8.574333559072087e-001	 9.305718534475902e+000
 8.108495868803441e-001	 8.664397639014688e-001	 9.062895102377111e+000
 8.012344810592408e-001	 8.753389019440514e-001	 8.822698689387110e+000
 7.915240902616488e-001	 8.841292115657058e-001	 8.585750854380727e+000
 9.039984201559549e-001	 8.093121658594877e-001	 1.132172645180438e+001
 8.950105641882689e-001	 8.192407801677287e-001	 1.109256610529241e+001
 8.859114340771768e-001	 8.290719681415687e-001	 1.086071279737930e+001
 8.767026233157251e-001	 8.388038687119999e-001	 1.062685071652562e+001
 8.673857667005268e-001	 8.484346557818302e-001	 1.039166152665053e+001
 8.579625393661392e-001	 8.579625393661392e-001	 1.015582291772282e+001
 8.484346557818305e-001	 8.673857667005271e-001	 9.920007182662161e+000
 8.388038687120000e-001	 8.767026233157254e-001	 9.684879826526785e+000
 8.290719681415686e-001	 8.859114340771765e-001	 9.451098213858632e+000
 8.192407801677285e-001	 8.950105641882691e-001	 9.219310259909214e+000
 8.093121658594878e-001	 9.039984201559550e-001	 8.990153171292464e+000
 9.238676486093538e-001	 8.271002592401421e-001	 1.155238822827059e+001
 9.146822460981339e-001	 8.372470972771690e-001	 1.133647254989383e+001
 9.053831237185985e-001	 8.472943676197365e-001	 1.111730405464004e+001
 8.959719099876236e-001	 8.572401682938835e-001	 1.089557316662175e+001
 8.864502756334715e-001	 8.670826330661203e-001	 1.067196831619274e+001
 8.768199326089481e-001	 8.768199326089481e-001	 1.044717437283301e+001
 8.670826330661202e-001	 8.864502756334713e-001	 1.022187110462321e+001
 8.572401682938836e-001	 8.959719099876237e-001	 9.996731670933203e+000
 8.472943676197366e-001	 9.053831237185989e-001	 9.772421154844531e+000
 8.372470972771690e-001	 9.146822460981339e-001	 9.549595141679319e+000
 8.271002592401424e-001	 9.238676486093539e-001	 9.328898349823039e+000
 9.437368621553292e-001	 8.448883392750972e-001	 1.171732755807900e+001
 9.343539132487400e-001	 8.552534008771232e-001	 1.151422184342420e+001
 9.248547987507910e-001	 8.655167534262337e-001	 1.130747656265426e+001
 9.152411822021542e-001	 8.756764540435483e-001	 1.109778207407803e+001
 9.055147702627122e-001	 8.857305963593138e-001	 1.088582710801836e+001
 8.956773117034881e-001	 8.956773117034879e-001	 1.067229708680203e+001
 8.857305963593135e-001	 9.055147702627118e-001	 1.045787247173985e+001
 8.756764540435483e-001	 9.152411822021546e-001	 1.024322714439617e+001
 8.655167534262336e-001	 9.248547987507910e-001	 1.002902682934294e+001
 8.552534008771232e-001	 9.343539132487404e-001	 9.815927565447282e+000
 8.448883392750972e-001	 9.437368621553289e-001	 9.604574232550155e+000
 6.670106737908847e-001	 7.450482283302943e-001	 3.591120808357450e+000
 6.587478301396494e-001	 7.523638511618765e-001	 3.306367145836416e+000
 6.504078186112842e-001	 7.595852159436007e-001	 3.033674411643208e+000
 6.419922549603809e-001	 7.667111160878266e-001	 2.772574700640432e+000
 6.335027797617576e-001	 7.737403819358266e-001	 2.522563238804206e+000
 6.249410573556360e-001	 7.806718813845673e-001	 2.283100689080086e+000
 6.163087747742402e-001	 7.875045204774029e-001	 2.053615148906739e+000
 6.076076406512597e-001	 7.942372439580682e-001	 1.833504206647167e+000
 5.988393841156297e-001	 8.008690357874089e-001	 1.622137048277211e+000
 5.900057536711102e-001	 8.073989196223580e-001	 1.418856605586010e+000
 5.811085160631598e-001	 8.138259592567366e-001	 1.222981737113275e+000
 6.847977533105903e-001	 7.649163243024477e-001	 4.572099712124435e+000
 6.763145655744852e-001	 7.724270318165427e-001	 4.296641520923650e+000
 6.677521521363645e-001	 7.798409677148591e-001	 4.030469734081456e+000
 6.591121718378921e-001	 7.871568932337911e-001	 3.773579839256147e+000
 6.503963090028354e-001	 7.943736075234261e-001	 3.526073292562685e+000
 6.416062723541127e-001	 8.014899482910342e-001	 3.287658724448597e+000
 6.327437939117713e-001	 8.085047924075214e-001	 3.058009629346535e+000
 6.238106278733668e-001	 8.154170564761906e-001	 2.836770654293947e+000
 6.148085494782432e-001	 8.222256973632529e-001	 2.623559405820292e+000
 6.057393538572367e-001	 8.289297126895776e-001	 2.417968298720512e+000
 5.966048548693305e-001	 8.355281412832460e-001	 2.219566437862499e+000
 7.025850685127173e-001	 7.847846835317627e-001	 5.453715166411793e+000
 6.938815337718784e-001	 7.924904783129741e-001	 5.186328227533051e+000
 6.850967154768765e-001	 8.000969878791007e-001	 4.926207709856113e+000
 6.762323155570231e-001	 8.076029412901697e-001	 4.673315670860296e+000
 6.672900620856199e-001	 8.150071065046909e-001	 4.427584853655288e+000
 6.582717081688777e-001	 8.223082910398660e-001	 4.189220322608303e+000
 6.491790308152675e-001	 8.295053425937875e-001	 3.958487905696631e+000
 6.400138297868191e-001	 8.365971496289766e-001	 3.735241486265355e+000
 6.307779264339032e-001	 8.435826419166744e-001	 3.519307799997503e+000
 6.214731625150546e-001	 8.504607910413643e-001	 3.310489561099711e+000
 6.121013990034108e-001	 8.572306108650805e-001	 3.108567120732692e+000
 7.203725882687513e-001	 8.046532712476668e-001	 6.242851531649520e+000
 7.114487039889692e-001	 8.125541555392345e-001	 5.982504086870002e+000
 7.024414782792146e-001	 8.203532409874392e-001	 5.727617707139779e+000
 6.933526561569472e-001	 8.280492244755902e-001	 5.478319317433800e+000
 6.841840094455125e-001	 8.356408427702823e-001	 5.234708868826086e+000
 6.749373356349260e-001	 8.431268731983186e-001	 4.996859568279805e+000
 6.656144567226071e-001	 8.505061342846643e-001	 4.764823360714174e+000
 6.562172180355884e-001	 8.577774863507547e-001	 4.539087553158996e+000
 6.467474870358031e-001	 8.649398320725701e-001	 4.319953297286340e+000
 6.372071521100242e-001	 8.719921169979257e-001	 4.107396929475535e+000
 6.275981213460913e-001	 8.789333300225430e-001	 3.901373542408073e+000
 7.381602814501764e-001	 8.245220526795862e-001	 6.945591378302038e+000
 7.290160454828978e-001	 8.326180283833887e-001	 6.691642183207850e+000
 7.197864101897744e-001	 8.406096915909893e-001	 6.441550608656103e+000
 7.104731636768403e-001	 8.484957070086823e-001	 6.195576377546144e+000
 7.010781215179122e-001	 8.562747802108590e-001	 5.953954352838637e+000
 6.916031255872529e-001	 8.639456583336480e-001	 5.716894489980861e+000
 6.820500428716689e-001	 8.715071307286159e-001	 5.484581863444901e+000
 6.724207642636472e-001	 8.789580295758553e-001	 5.257176767883242e+000
 6.627172033371349e-001	 8.862972304558358e-001	 5.034886607768527e+000
 6.529412951076056e-001	 8.935236528794698e-001	 4.818459965898681e+000
 6.430949947780623e-001	 9.006362607759364e-001	 4.608141539294926e+000
 7.559481169284781e-001	 8.443909930569481e-001	 7.567290745223329e+000
 7.465835275108046e-001	 8.526820617335015e-001	 7.319450935360149e+000
 7.371314808549523e-001	 8.608663042408662e-001	 7.074056051446635e+000
 7.275938081558755e-001	 8.689423531080758e-001	 6.831468957264311e+000
 7.179723687382209e-001	 8.769088827170829e-001	 6.592029543516218e+000
 7.082690488608531e-001	 8.847646100131094e-001	 6.356054446867220e+000
 6.984857605003324e-001	 8.925082951741054e-001	 6.123836845109839e+000
 6.886244401149672e-001	 9.001387422386068e-001	 5.895646329646033e+000
 6.786870473910929e-001	 9.076547996913688e-001	 5.671728856128598e+000
 6.686755639732592e-001	 9.150553610062054e-001	 5.452306773750896e+000
 6.585919921800143e-001	 9.223393651455637e-001	 5.237881596278101e+000
 7.737360635751404e-001	 8.642600576091787e-001	 8.112645595468761e+000
 7.641511193298297e-001	 8.727462204776373e-001	 7.870944549571108e+000
 7.544766599211421e-001	 8.811230434881837e-001	 7.630456700850696e+000
 7.447145596332284e-001	 8.893891269924004e-001	 7.391620604501457e+000
 7.348667215418384e-001	 8.975431141796132e-001	 7.154853501055425e+000
 7.249350762907216e-001	 9.055836918039592e-001	 6.920550843201999e+000
 7.149215808464765e-001	 9.135095908695964e-001	 6.689085901128531e+000
 7.048282172335211e-001	 9.213195872733393e-001	 6.460809448201930e+000
 6.946569912508702e-001	 9.290125024040665e-001	 6.236049528435939e+000
 6.844099311724451e-001	 9.365872036983388e-001	 6.015111306805422e+000
 6.740890864326371e-001	 9.440426051517269e-001	 5.798277003073012e+000
 7.915240902616488e-001	 8.841292115657058e-001	 8.585750854380727e+000
 7.817187901971133e-001	 8.928104695038603e-001	 8.350505495848621e+000
 7.718219170347404e-001	 9.013798738840566e-001	 8.115414011321461e+000
 7.618353881480726e-001	 9.098359928802852e-001	 7.880965225132791e+000
 7.517611503641647e-001	 9.181774384891093e-001	 7.647628074947195e+000
 7.416011787118532e-001	 9.264028672734520e-001	 7.415850984849682e+000
 7.313574751479801e-001	 9.345109810635528e-001	 7.186061319761544e+000
 7.210320672632805e-001	 9.425005276143821e-001	 6.958664923576919e+000
 7.106270069696604e-001	 9.503703012188259e-001	 6.734045743015757e+000
 7.001443691706238e-001	 9.581191432760791e-001	 6.512565538771012e+000
 6.895862504166215e-001	 9.657459428147289e-001	 6.294563685100478e+000
 8.093121658594878e-001	 9.039984201559550e-001	 8.990153171292464e+000
 7.992865093697956e-001	 9.128747737002357e-001	 8.761940235028852e+000
 7.891672218421421e-001	 9.216367599796003e-001	 8.532986783893628e+000
 7.789562637395834e-001	 9.302829149903599e-001	 8.303808357309769e+000
 7.686556256406014e-001	 9.388118195362331e-001	 8.074901803077214e+000
 7.582673269592434e-001	 9.472220999888442e-001	 7.846744532673514e+000
 7.477934146427221e-001	 9.555124290044386e-001	 7.619793861116352e+000
 7.372359618482176e-001	 9.636815261960642e-001	 7.394486434316183e+000
 7.265970666006560e-001	 9.717281587605431e-001	 7.171237746415277e+000
 7.158788504332554e-001	 9.796511420596339e-001	 6.950441749163269e+000
 7.050834570126574e-001	 9.874493401548725e-001	 6.732470554914634e+000
 8.271002592401424e-001	 9.238676486093539e-001	 9.328898349823039e+000
 8.168542461050162e-001	 9.329390979548276e-001	 9.108529212712396e+000
 8.065125439897430e-001	 9.418936663259283e-001	 8.886683604779798e+000
 7.960771564469348e-001	 9.507298575412534e-001	 8.663881954435954e+000
 7.855501178065477e-001	 9.594462212116431e-001	 8.440626957587030e+000
 7.749334918678870e-001	 9.680413535173917e-001	 8.217402748637316e+000
 7.642293705685817e-001	 9.765138979407164e-001	 7.994674159745078e+000
 7.534398726323051e-001	 9.848625459527152e-001	 7.772886071753224e+000
 7.425671421970508e-001	 9.930860376541151e-001	 7.552462859757920e+000
 7.316133474258006e-001	 1.001183162369211e+000	 7.333807935793766e+000
 7.205806791014349e-001	 1.009152759192461e+000	 7.117303390615529e+000
 8.448883392750972e-001	 9.437368621553289e-001	 9.604574232550155e+000
 8.344219696599167e-001	 9.530034071557008e-001	 9.393071965048252e+000
 8.238578531239381e-001	 9.621505574741556e-001	 9.179510066908890e+000
 8.131980363093013e-001	 9.711767847515960e-001	 8.964393633499201e+000
 8.024445972974045e-001	 9.800806074060000e-001	 8.748210747512886e+000
 7.915996442727785e-001	 9.888605914263495e-001	 8.531431596800790e+000
 7.806653141634374e-001	 9.975153511208504e-001	 8.314507684620130e+000
 7.696437712595143e-001	 1.006043549818665e+000	 8.097871136192529e+000
 7.585372058120381e-001	 1.014443900524439e+000	 7.881934104966107e+000
 7.473478326137194e-001	 1.022715166525019e+000	 7.667088281459020e+000
 7.360778895636446e-001	 1.030856161947795e+000	 7.453704507022512e+000
 5.811085160631598e-001	 8.138259592567366e-001	 1.222981737113275e+000
 5.721494549410069e-001	 8.201492587923700e-001	 1.034230882894019e+000
 5.631303691352768e-001	 8.263679623034137e-001	 8.531145587627160e-001
 5.540530720989082e-001	 8.324812548450976e-001	 6.801096437081753e-001
 5.449193909360233e-001	 8.384883629704416e-001	 5.156751815040975e-001
 5.357311652289508e-001	 8.443885549780590e-001	 3.602523625844528e-001
 5.264902458615941e-001	 8.501811411206632e-001	 2.142645151113294e-001
 5.171984938406530e-001	 8.558654737743153e-001	 7.811710200752771e-002
 5.078577791162044e-001	 8.614409475685220e-001	-4.780227906870137e-002
 4.984699794031350e-001	 8.669069994773565e-001	-1.631238955950442e-001
 4.890369790048946e-001	 8.722631088718381e-001	-2.674958824470545e-001
 5.966048548693305e-001	 8.355281412832460e-001	 2.219566437862499e+000
 5.874068837280612e-001	 8.420200633552515e-001	 2.028377355933843e+000
 5.781472872332619e-001	 8.484046001549332e-001	 1.844864049867535e+000
 5.688279271970236e-001	 8.546809150055600e-001	 1.669225087348852e+000
 5.594506794466541e-001	 8.608482138348056e-001	 1.501641630514888e+000
 5.500174326204225e-001	 8.669057454291612e-001	 1.342278003474634e+000
 5.405300869595506e-001	 8.728528016480037e-001	 1.191282258955551e+000
 5.309905530979980e-001	 8.786887175973518e-001	 1.048786739182000e+000
 5.214007508515943e-001	 8.844128717634381e-001	 9.149086263769719e-001
 5.117626080080407e-001	 8.900246861062580e-001	 7.897504785950626e-001
 5.020780591192976e-001	 8.955236261133456e-001	 6.734007469356114e-001
 6.121013990034108e-001	 8.572306108650805e-001	 3.108567120732692e+000
 6.026645146774508e-001	 8.638911577076851e-001	 2.913775867036482e+000
 5.931644043068414e-001	 8.704415299933851e-001	 2.726507804237027e+000
 5.836029780634551e-001	 8.768808693131815e-001	 2.546749127444577e+000
 5.739821604984206e-001	 8.832083609691114e-001	 2.374469134311216e+000
 5.643038893065867e-001	 8.894232342352666e-001	 2.209621291390637e+000
 5.545701140871351e-001	 8.955247625774229e-001	 2.052144289772596e+000
 5.447827951019328e-001	 9.015122638313119e-001	 1.901963083530928e+000
 5.349439020332116e-001	 9.073851003396593e-001	 1.758989904887769e+000
 5.250554127421397e-001	 9.131426790481644e-001	 1.623125250403220e+000
 5.151193120298434e-001	 9.187844515606746e-001	 1.494258832933340e+000
 6.275981213460913e-001	 8.789333300225430e-001	 3.901373542408073e+000
 6.179223210879753e-001	 8.857625035748911e-001	 3.702247215388580e+000
 6.081816940757200e-001	 8.924787132537714e-001	 3.510320396702629e+000
 5.983781988415263e-001	 8.990810789176523e-001	 3.325427593344768e+000
 5.885138086608936e-001	 9.055687652426796e-001	 3.147387010520665e+000
 5.785905102858034e-001	 9.119409819903062e-001	 2.976002037207072e+000
 5.686103026739566e-001	 9.181969842324796e-001	 2.811062711218828e+000
 5.585751957156880e-001	 9.243360725344287e-001	 2.652347155826421e+000
 5.484872089601938e-001	 9.303575930951712e-001	 2.499622980425128e+000
 5.383483703426760e-001	 9.362609378459221e-001	 2.352648638247834e+000
 5.281607149139947e-001	 9.420455445066668e-001	 2.211174734648488e+000
 6.430949947780623e-001	 9.006362607759364e-001	 4.608141539294926e+000
 6.331802762584339e-001	 9.076340626820887e-001	 4.404349961209516e+000
 6.231991302596035e-001	 9.145161113710947e-001	 4.207283923641227e+000
 6.131535636745613e-001	 9.212815049686620e-001	 4.016682108499868e+000
 6.030455985036434e-001	 9.279293875248309e-001	 3.832267588657122e+000
 5.928772705564346e-001	 9.344589492882121e-001	 3.653749659937696e+000
 5.826506281496252e-001	 9.408694269367316e-001	 3.480825642790419e+000
 5.723677308024933e-001	 9.471601037649344e-001	 3.313182644252446e+000
 5.620306479316777e-001	 9.533303098279593e-001	 3.150499271362881e+000
 5.516414575468932e-001	 9.593794220423780e-001	 2.992447287773243e+000
 5.412022449492145e-001	 9.653068642441643e-001	 2.838693205936336e+000
 6.585919921800143e-001	 9.223393651455637e-001	 5.237881596278101e+000
 6.484383534876271e-001	 9.295057967545003e-001	 5.029474142242307e+000
 6.382166865781973e-001	 9.365536857803575e-001	 4.827187116985978e+000
 6.279290467058838e-001	 9.434821086159000e-001	 4.630714794557546e+000
 6.175775045962408e-001	 9.502901886848859e-001	 4.439736639712544e+000
 6.071641451168404e-001	 9.569770967229155e-001	 4.253919420194970e+000
 5.966910659437502e-001	 9.635420510137375e-001	 4.072919278674515e+000
 5.861603762255796e-001	 9.699843175810625e-001	 3.896383753561471e+000
 5.755741952468013e-001	 9.763032103360099e-001	 3.723953738557697e+000
 5.649346510920354e-001	 9.824980911803787e-001	 3.555265371495465e+000
 5.542438793129650e-001	 9.885683700660078e-001	 3.389951843758685e+000
 6.740890864326371e-001	 9.440426051517269e-001	 5.798277003073012e+000
 6.636965260743544e-001	 9.513776675173450e-001	 5.585919591354134e+000
 6.532343367512071e-001	 9.585913979165628e-001	 5.378708412386660e+000
 6.427046220788175e-001	 9.656828510090558e-001	 5.176596256273857e+000
 6.321095015082566e-001	 9.726511295921652e-001	 4.979266394490693e+000
 6.214511089653824e-001	 9.794953848883493e-001	 4.786390539212484e+000
 6.107315914859413e-001	 9.862148167870557e-001	 4.597631125480326e+000
 5.999531078481774e-001	 9.928086740410452e-001	 4.412643530507888e+000
 5.891178272047021e-001	 9.992762544173094e-001	 4.231078218718209e+000
 5.782279277153465e-001	 1.005616904802770e+000	 4.052582801899355e+000
 5.672855951827097e-001	 1.011830021265040e+000	 3.876804004727012e+000
 6.895862504166215e-001	 9.657459428147289e-001	 6.294563685100478e+000
 6.789547673174153e-001	 9.732496366958434e-001	 6.080256520248144e+000
 6.682520544983374e-001	 9.806292092147124e-001	 5.869474142775002e+000
 6.574802639366865e-001	 9.878836932978199e-001	 5.662339477966334e+000
 6.466415638092610e-001	 9.950121711159885e-001	 5.459253890133937e+000
 6.357381371004210e-001	 1.002013774378445e+000	 5.259949053346238e+000
 6.247721802058078e-001	 1.008887684580245e+000	 5.064137379784648e+000
 6.137459015335171e-001	 1.015633133203115e+000	 4.871525736869257e+000
 6.026615201045172e-001	 1.022249401869843e+000	 4.681817722934214e+000
 5.915212641540699e-001	 1.028735822452400e+000	 4.494715843390689e+000
 5.803273697359112e-001	 1.035091777134104e+000	 4.309923576603000e+000
 7.050834570126574e-001	 9.874493401548725e-001	 6.732470554914634e+000
 6.942130505156096e-001	 9.951216660152163e-001	 6.517383156760955e+000
 6.832698135392946e-001	 1.002667081109809e+000	 6.304893257891044e+000
 6.722559464228139e-001	 1.010084596631881e+000	 6.094817058648212e+000
 6.611736660688249e-001	 1.017373274125678e+000	 5.887086903074474e+000
 6.500252045203178e-001	 1.024532225787134e+000	 5.682357753337208e+000
 6.388128075329590e-001	 1.031560614716861e+000	 5.480576886277265e+000
 6.275387331448292e-001	 1.038457655125505e+000	 5.281542801814558e+000
 6.162052502453843e-001	 1.045222612491598e+000	 5.085052321591324e+000
 6.048146371454500e-001	 1.051854803672116e+000	 4.890902831317947e+000
 5.933691801500317e-001	 1.058353596966040e+000	 4.698894396515366e+000
 7.205806791014349e-001	 1.009152759192461e+000	 7.117303390615529e+000
 7.094713489677368e-001	 1.016993717200683e+000	 6.902814021416377e+000
 6.982875875937835e-001	 1.024704975036855e+000	 6.689942348068587e+000
 6.870316436805243e-001	 1.032285522160929e+000	 6.478638451687669e+000
 6.757057828565186e-001	 1.039734399490552e+000	 6.268823075386024e+000
 6.643122862234333e-001	 1.047050699708348e+000	 6.060415153823779e+000
 6.528534488970051e-001	 1.054233567520466e+000	 5.854113697756030e+000
 6.413315785453437e-001	 1.061282199866449e+000	 5.650221950193883e+000
 6.297489939264407e-001	 1.068195846080558e+000	 5.448666786322855e+000
 6.181080234267304e-001	 1.074973808004762e+000	 5.249377240738522e+000
 6.064110036025345e-001	 1.081615440053690e+000	 5.052286627740446e+000
 7.360778895636446e-001	 1.030856161947795e+000	 7.453704507022512e+000
 7.247296359725970e-001	 1.038865751977465e+000	 7.241421964711766e+000
 7.133053503815099e-001	 1.046742852430853e+000	 7.029739956340810e+000
 7.018073298531414e-001	 1.054486431034654e+000	 6.818780188252166e+000
 6.902378887419132e-001	 1.062095508079932e+000	 6.608633372712967e+000
 6.785993572081287e-001	 1.069569156736019e+000	 6.399359751026259e+000
 6.668940797275553e-001	 1.076906503314615e+000	 6.190989738107057e+000
 6.551244135982919e-001	 1.084106727484178e+000	 5.984161250551140e+000
 6.432927274468238e-001	 1.091169062434711e+000	 5.779609794401544e+000
 6.314013997351549e-001	 1.098092794993187e+000	 5.577429970227934e+000
 6.194528172708822e-001	 1.104877265689896e+000	 5.377722017865676e+000
 4.890369790048946e-001	 8.722631088718381e-001	-2.674958824470542e-001
 4.795620922583881e-001	 8.775080191404551e-001	-3.614533010926372e-001
 4.700458011791232e-001	 8.826421068707412e-001	-4.460327077602707e-001
 4.604900024760815e-001	 8.876649794392211e-001	-5.216097403610571e-001
 4.508965947721494e-001	 8.925762864264075e-001	-5.885675976585648e-001
 4.412674774614076e-001	 8.973757194803049e-001	-6.472960133885295e-001
 4.316045495771122e-001	 9.020630121438827e-001	-6.981902752823406e-001
 4.219097086716463e-001	 9.066379396471509e-001	-7.416502911380507e-001
 4.121848497096857e-001	 9.111003186645378e-001	-7.780797036673085e-001
 4.024318639757797e-001	 9.154500070382965e-001	-8.078850554324558e-001
 3.926526379975132e-001	 9.196869034687285e-001	-8.314750047845007e-001
 5.020780591192976e-001	 8.955236261133456e-001	 6.734007469356114e-001
 4.923505069052577e-001	 9.009084016633495e-001	 5.652402504211550e-001
 4.825804462352116e-001	 9.061793993862045e-001	 4.644266620594121e-001
 4.727698243973318e-001	 9.113362161883821e-001	 3.707494361563274e-001
 4.629205906447350e-001	 9.163784923057907e-001	 2.839928729987945e-001
 4.530346950222971e-001	 9.213059111636405e-001	 2.039368980518548e-001
 4.431140872044483e-001	 9.261181991993087e-001	 1.303577889068709e-001
 4.331607153452562e-001	 9.308151256488805e-001	 6.302884829275580e-002
 4.231765249420750e-001	 9.353965022980483e-001	 1.721021932767800e-003
 4.131634577139968e-001	 9.398621831981483e-001	-5.379653950756894e-002
 4.031234504962961e-001	 9.442120643481219e-001	-1.037559746809481e-001
 5.151193120298434e-001	 9.187844515606746e-001	 1.494258832933339e+000
 5.051390910003677e-001	 9.243090942455401e-001	 1.371748300342497e+000
 4.951152573769660e-001	 9.297170037752285e-001	 1.254946310965736e+000
 4.850498090276871e-001	 9.350077665860251e-001	 1.143781293536824e+000
 4.749447458365615e-001	 9.401810135691118e-001	 1.038178590816298e+000
 4.648020684999469e-001	 9.452364199267955e-001	 9.380610429998171e-001
 4.546237773341318e-001	 9.501737049907746e-001	 8.433495102873867e-001
 4.444118710955525e-001	 9.549926320031293e-001	 7.539633332806112e-001
 4.341683458149260e-001	 9.596930078607578e-001	 6.698207304058160e-001
 4.238951936465678e-001	 9.642746828240306e-001	 5.908391320908270e-001
 4.135944017341220e-001	 9.687375501904937e-001	 5.169354519332988e-001
 5.281607149139947e-001	 9.420455445066668e-001	 2.211174734648489e+000
 5.179278221633582e-001	 9.477100559350589e-001	 2.074583374860247e+000
 5.076502126681389e-001	 9.532548788462153e-001	 1.942414256017666e+000
 4.973299348768570e-001	 9.586795892061151e-001	 1.814710422440349e+000
 4.869690393050531e-001	 9.639838085611113e-001	 1.691513606102132e+000
 4.765695773011600e-001	 9.691672038905160e-001	 1.572864663977998e+000
 4.661335998239208e-001	 9.742294874202679e-001	 1.458803944563003e+000
 4.556631562327353e-001	 9.791704163983791e-001	 1.349371582478547e+000
 4.451602930922763e-001	 9.839897928328978e-001	 1.244607720692931e+000
 4.346270529926761e-001	 9.886874631931889e-001	 1.144552660485281e+000
 4.240654733865391e-001	 9.932633180753756e-001	 1.049246939863687e+000
 5.412022449492145e-001	 9.653068642441643e-001	 2.838693205936337e+000
 5.307166780138688e-001	 9.711112457799381e-001	 2.688679125315994e+000
 5.201852901724832e-001	 9.767929834075642e-001	 2.542115923422703e+000
 5.096101804545524e-001	 9.823516426226164e-001	 2.399138444644368e+000
 4.989934500076330e-001	 9.877868356265306e-001	 2.259881744590641e+000
 4.883372008327391e-001	 9.930982211755457e-001	 2.124481430232626e+000
 4.776435345315740e-001	 9.982855043897769e-001	 1.993073917653070e+000
 4.669145510670052e-001	 1.003348436523110e+000	 1.865796606471402e+000
 4.561523475381651e-001	 1.008286814694700e+000	 1.742787970711283e+000
 4.453590169715064e-001	 1.013100481582870e+000	 1.624187566566584e+000
 4.345366471290956e-001	 1.017789325082299e+000	 1.510135958189139e+000
 5.542438793129650e-001	 9.885683700660078e-001	 3.389951843758686e+000
 5.435056361715400e-001	 9.945126228282096e-001	 3.227539772831568e+000
 5.327204679537508e-001	 1.000331276267676e+000	 3.067888139660436e+000
 5.218905242704836e-001	 1.006023885409494e+000	 2.911202121917853e+000
 5.110179569017254e-001	 1.011590053110111e+000	 2.757688426665228e+000
 5.001049185014881e-001	 1.017029429902632e+000	 2.607555581531671e+000
 4.891535613148496e-001	 1.022341713801290e+000	 2.461014130186657e+000
 4.781660359085612e-001	 1.027526650065803e+000	 2.318276731221989e+000
 4.671444899166303e-001	 1.032584030926394e+000	 2.179558160365450e+000
 4.560910668022425e-001	 1.037513695270321e+000	 2.045075216738133e+000
 4.450079046373392e-001	 1.042315528290796e+000	 1.915046534633395e+000
 5.672855951827097e-001	 1.011830021265040e+000	 3.876804004727013e+000
 5.562946742560117e-001	 1.017914146127906e+000	 3.703367422866053e+000
 5.452557240756947e-001	 1.023869716234950e+000	 3.532250454529900e+000
 5.341709448343607e-001	 1.029696276140713e+000	 3.363708315999634e+000
 5.230425389447537e-001	 1.035393419356594e+000	 3.197998910949484e+000
 5.118727097142094e-001	 1.040960788192517e+000	 3.035383120551117e+000
 5.006636600315061e-001	 1.046398073556794e+000	 2.876124982605744e+000
 4.894175910676042e-001	 1.051705014714938e+000	 2.720491758773605e+000
 4.781367009917106e-001	 1.056881399008212e+000	 2.568753889893764e+000
 4.668231837040688e-001	 1.061927061532788e+000	 2.421184840295172e+000
 4.554792275868185e-001	 1.066841884780397e+000	 2.278060832874677e+000
 5.803273697359112e-001	 1.035091777134104e+000	 4.309923576603002e+000
 5.690837698869242e-001	 1.041315774727058e+000	 4.127170730446279e+000
 5.577910366020671e-001	 1.047408262117787e+000	 3.946517361367561e+000
 5.464514206558939e-001	 1.053368773390236e+000	 3.768249440440947e+000
 5.350671750941420e-001	 1.059196892710721e+000	 3.592656670040507e+000
 5.236405538777063e-001	 1.064892254165948e+000	 3.420032820627742e+000
 5.121738105393017e-001	 1.070454541558278e+000	 3.250675939147699e+000
 5.006691968543336e-001	 1.075883488158995e+000	 3.084888427956607e+000
 4.891289615274445e-001	 1.081178876420385e+000	 2.922976994264804e+000
 4.775553488961694e-001	 1.086340537647517e+000	 2.765252471115925e+000
 4.659505976530813e-001	 1.091368351630633e+000	 2.612029511929425e+000
 5.933691801500317e-001	 1.058353596966040e+000	 4.698894396515366e+000
 5.818729006839174e-001	 1.064717467673700e+000	 4.508857785282318e+000
 5.703263835966207e-001	 1.070946872724587e+000	 4.320894353295361e+000
 5.587319302447942e-001	 1.077041335732030e+000	 4.135302405411429e+000
 5.470918443073142e-001	 1.083000431517234e+000	 3.952384954714467e+000
 5.354084303987815e-001	 1.088823785943670e+000	 3.772450153838178e+000
 5.236839926959950e-001	 1.094511075707730e+000	 3.595811578103928e+000
 5.119208335789500e-001	 1.100062028086456e+000	 3.422788359152957e+000
 5.001212522878700e-001	 1.105476420643145e+000	 3.253705168965239e+000
 4.882875435977285e-001	 1.110754080891756e+000	 3.088892055343344e+000
 4.764219965116759e-001	 1.115894885921038e+000	 2.928684131093658e+000
 6.064110036025345e-001	 1.081615440053690e+000	 5.052286627740446e+000
 5.946620442666316e-001	 1.088119184015863e+000	 4.857315592746311e+000
 5.828617431231078e-001	 1.094485506863751e+000	 4.664560249143352e+000
 5.710124521107711e-001	 1.100713921740057e+000	 4.474313540641571e+000
 5.591165255416937e-001	 1.106803994120874e+000	 4.286874077505780e+000
 5.471763186842386e-001	 1.112755341646426e+000	 4.102546710567092e+000
 5.351941863593440e-001	 1.118567633907137e+000	 3.921642934651685e+000
 5.231724815516528e-001	 1.124240592185799e+000	 3.744481119761308e+000
 5.111135540370255e-001	 1.129773989156722e+000	 3.571386569726611e+000
 4.990197490279300e-001	 1.135167648542750e+000	 3.402691409409042e+000
 4.868934058381502e-001	 1.140421444731140e+000	 3.238734302843879e+000
 6.194528172708822e-001	 1.104877265689896e+000	 5.377722017865676e+000
 6.074511782547066e-001	 1.111520882801578e+000	 5.180478126861758e+000
 5.953970932452810e-001	 1.118024123343679e+000	 4.985737813144071e+000
 5.832929647635355e-001	 1.124386489988285e+000	 4.793771563449913e+000
 5.711411977547047e-001	 1.130607538866382e+000	 4.604856520631500e+000
 5.589441981408803e-001	 1.136686879394963e+000	 4.419277249014654e+000
 5.467043713871074e-001	 1.142624174058487e+000	 4.237326303922933e+000
 5.344241210826425e-001	 1.148419138145507e+000	 4.059304603261269e+000
 5.221058475389497e-001	 1.154071539441348e+000	 3.885521600626783e+000
 5.097519464059584e-001	 1.159581197877748e+000	 3.716295260962549e+000
 4.973648073080526e-001	 1.164947985140473e+000	 3.551951841267078e+000
 3.926526379975132e-001	 9.196869034687285e-001	-8.314750047845020e-001
 3.828475801467559e-001	 9.238115574925391e-001	-8.488122768905272e-001
 3.730200306188907e-001	 9.278233049990166e-001	-8.598395674059542e-001
 3.631718566724362e-001	 9.317221658209343e-001	-8.649559280300517e-001
 3.533049166519174e-001	 9.355081991183117e-001	-8.645731553883082e-001
 3.434210590039752e-001	 9.391815029145867e-001	-8.591150540881198e-001
 3.335221213151299e-001	 9.427422136050959e-001	-8.490167297615647e-001
 3.236099293720238e-001	 9.461905054388913e-001	-8.347239114085496e-001
 3.136862962449284e-001	 9.495265899749484e-001	-8.166923021076409e-001
 3.037530213952426e-001	 9.527507155138413e-001	-7.953869569552227e-001
 2.938118898076575e-001	 9.558631665059840e-001	-7.712816869046668e-001
 4.031234504962961e-001	 9.442120643481219e-001	-1.037559746809470e-001
 3.930569225507894e-001	 9.484467099390739e-001	-1.482952021993953e-001
 3.829673031454391e-001	 9.525654381505309e-001	-1.875725383687685e-001
 3.728565093327699e-001	 9.565682693441295e-001	-2.218799709591179e-001
 3.627264490136036e-001	 9.604552642574867e-001	-2.515187805348697e-001
 3.525790199269324e-001	 9.642265235280020e-001	-2.767990346860879e-001
 3.424161086620217e-001	 9.678821871882344e-001	-2.980391205186303e-001
 3.322395896935920e-001	 9.714224341338947e-001	-3.155653138489179e-001
 3.220513244408869e-001	 9.748474815655585e-001	-3.297113832760064e-001
 3.118531603513708e-001	 9.781575844051822e-001	-3.408182270713478e-001
 3.016469300097510e-001	 9.813530346885655e-001	-3.492335406167329e-001
 4.135944017341220e-001	 9.687375501904937e-001	 5.169354519332986e-001
 4.032664002295056e-001	 9.730821888058526e-001	 4.478501385885787e-001
 3.929147074744283e-001	 9.773078991396467e-001	 3.832701261099417e-001
 3.825412903160629e-001	 9.814147020823927e-001	 3.229946948283107e-001
 3.721481062121691e-001	 9.854026599493362e-001	 2.668167666031086e-001
 3.617371021947264e-001	 9.892718759918838e-001	 2.145232081874801e-001
 3.513102138563777e-001	 9.930224938798731e-001	 1.658950873796831e-001
 3.408693643605511e-001	 9.966546971557493e-001	 1.207078843722810e-001
 3.304164634760866e-001	 1.000168708661771e+000	 7.873166101168287e-002
 3.199534066371332e-001	 1.003564789941372e+000	 3.973119095318889e-002
 3.094820740290298e-001	 1.006843240615851e+000	 3.466053924936568e-003
 4.240654733865391e-001	 9.932633180753756e-001	 1.049246939863688e+000
 4.134759953160149e-001	 9.977179509799360e-001	 9.583490713193632e-001
 4.028622261975744e-001	 1.002050644666225e+000	 8.714376724012031e-001
 3.922261826735969e-001	 1.006261420553655e+000	 7.883887945956830e-001
 3.815698717593334e-001	 1.010350342535127e+000	 7.090746091809350e-001
 3.708952897803031e-001	 1.014317516476094e+000	 6.333635347137611e-001
 3.602044213330747e-001	 1.018163089683721e+000	 5.611203075116454e-001
 3.494992382703296e-001	 1.021887250347247e+000	 4.922059983927051e-001
 3.387816987110449e-001	 1.025490226950689e+000	 4.264779792842510e-001
 3.280537460765928e-001	 1.028972287659046e+000	 3.637898436130743e-001
 3.173173081534751e-001	 1.032333739679205e+000	 3.039912846601531e-001
 4.345366471290956e-001	 1.017789325082299e+000	 1.510135958189139e+000
 4.236856899434281e-001	 1.022353953348383e+000	 1.400236883117991e+000
 4.128098419065946e-001	 1.026793631430127e+000	 1.293994024295886e+000
 4.019111694566532e-001	 1.031108381275849e+000	 1.191346882425346e+000
 3.909917291668158e-001	 1.035298268356127e+000	 1.092233160832941e+000
 3.800535666566078e-001	 1.039363401150493e+000	 9.965887414873172e-001
 3.690987155269896e-001	 1.043303930603482e+000	 9.043475932223241e-001
 3.581291963203556e-001	 1.047120049551180e+000	 8.154416162874879e-001
 3.471470155062800e-001	 1.050811992119419e+000	 7.298004277471314e-001
 3.361541644938117e-001	 1.054380033094837e+000	 6.473510925986413e-001
 3.251526186710684e-001	 1.057824487269988e+000	 5.680178057810553e-001
 4.450079046373392e-001	 1.042315528290796e+000	 1.915046534633396e+000
 4.338954662448556e-001	 1.046990152798254e+000	 1.789036873579103e+000
 4.227575371932061e-001	 1.051536816131212e+000	 1.666496534660049e+000
 4.115962337165132e-001	 1.055955540766905e+000	 1.547416210661091e+000
 4.004136619463352e-001	 1.060246393753604e+000	 1.431786544386283e+000
 3.892119167965862e-001	 1.064409486184943e+000	 1.319597975613874e+000
 3.779930808729983e-001	 1.068444972642865e+000	 1.210840508295588e+000
 3.667592234080574e-001	 1.072353050610339e+000	 1.105503403001328e+000
 3.555123992223092e-001	 1.076133959855069e+000	 1.003574800066992e+000
 3.442546477128529e-001	 1.079787981785380e+000	 9.050412793067195e-001
 3.329879918697909e-001	 1.083315438779565e+000	 8.098873624916233e-001
 4.554792275868185e-001	 1.066841884780397e+000	 2.278060832874677e+000
 4.441053063534077e-001	 1.071626506216606e+000	 2.138913116874060e+000
 4.327052946491253e-001	 1.076280155469341e+000	 2.003149415267981e+000
 4.212813585044584e-001	 1.080802855544754e+000	 1.870800322137086e+000
 4.098356536096108e-001	 1.085194675068824e+000	 1.741897853328450e+000
 3.983703241731844e-001	 1.089455727749307e+000	 1.616475184844595e+000
 3.868875018059778e-001	 1.093586171805575e+000	 1.494566298164884e+000
 3.753893044308633e-001	 1.097586209367518e+000	 1.376205538407902e+000
 3.638778352196507e-001	 1.101456085844741e+000	 1.261427091769778e+000
 3.523551815577790e-001	 1.105196089267309e+000	 1.150264389131491e+000
 3.408234140376239e-001	 1.108806549599300e+000	 1.042749443123452e+000
 4.659505976530813e-001	 1.091368351630633e+000	 2.612029511929425e+000
 4.543151924021956e-001	 1.096262970490503e+000	 2.462801911461283e+000
 4.426530968660690e-001	 1.101023606144375e+000	 2.316935826591541e+000
 4.309665268717702e-001	 1.105650282127328e+000	 2.174491339906333e+000
 4.192576876683623e-001	 1.110143068643055e+000	 2.035531211829624e+000
 4.075287727593477e-001	 1.114502082013446e+000	 1.900120529112103e+000
 3.957819627608041e-001	 1.118727484095320e+000	 1.768326245400828e+000
 3.840194242862013e-001	 1.122819481665506e+000	 1.640216620746050e+000
 3.722433088588219e-001	 1.126778325775542e+000	 1.515860567503107e+000
 3.604557518526529e-001	 1.130604311077259e+000	 1.395326910614983e+000
 3.486588714625483e-001	 1.134297775120553e+000	 1.278683570713584e+000
 4.764219965116759e-001	 1.115894885921038e+000	 2.928684131093658e+000
 4.645251065243294e-001	 1.120899502507003e+000	 2.772525195347594e+000
 4.526009264357542e-001	 1.125767124856174e+000	 2.619731909682967e+000
 4.406517218697297e-001	 1.130497777032559e+000	 2.470384230775980e+000
 4.286797476343086e-001	 1.135091530817564e+000	 2.324565894034975e+000
 4.166872465280216e-001	 1.139548505147221e+000	 2.182363989091932e+000
 4.046764481723542e-001	 1.143868865515805e+000	 2.043868410783207e+000
 3.926495678715000e-001	 1.148052823347096e+000	 1.909171193473718e+000
 3.806088055003410e-001	 1.152100635334577e+000	 1.778365737267755e+000
 3.685563444215369e-001	 1.156012602751862e+000	 1.651545935252698e+000
 3.564943504325456e-001	 1.159789070734689e+000	 1.528805211440842e+000
 4.868934058381502e-001	 1.140421444731140e+000	 3.238734302843879e+000
 4.747350308529195e-001	 1.145536059153163e+000	 3.078888641272558e+000
 4.625487659498976e-001	 1.150510668304600e+000	 2.922405477989940e+000
 4.503369265496188e-001	 1.155345296778378e+000	 2.769375755655224e+000
 4.381018170191691e-001	 1.160040017933618e+000	 2.619895202717197e+000
 4.258457294521522e-001	 1.164594953320496e+000	 2.474063851101392e+000
 4.135709424755044e-001	 1.169010272070738e+000	 2.331985410845581e+000
 4.012797200841874e-001	 1.173286190255080e+000	 2.193766510596508e+000
 3.889743105047253e-001	 1.177422970208952e+000	 2.059515813669214e+000
 3.766569450884943e-001	 1.181420919827755e+000	 1.929343020057691e+000
 3.643298372355972e-001	 1.185280391833070e+000	 1.803357765382063e+000
 4.973648073080526e-001	 1.164947985140473e+000	 3.551951841267077e+000
 4.849449475210769e-001	 1.170172597316046e+000	 3.391766689336175e+000
 4.724965980002161e-001	 1.175254193189512e+000	 3.234901629499513e+000
 4.600221239627185e-001	 1.180192797882715e+000	 3.081450363090174e+000
 4.475238793346627e-001	 1.184988486332486e+000	 2.931512352916585e+000
 4.350042055046847e-001	 1.189641382703130e+000	 2.785192296674269e+000
 4.224654301051314e-001	 1.194151659763825e+000	 2.642599436593365e+000
 4.099098658216919e-001	 1.198519538232249e+000	 2.503846715368589e+000
 3.973398092324927e-001	 1.202745286085772e+000	 2.369049789313177e+000
 3.847575396775870e-001	 1.206829217841571e+000	 2.238325910466797e+000
 3.721653181596841e-001	 1.210771693807061e+000	 2.111792690064941e+000
 2.938118898076575e-001	 9.558631665059840e-001	-7.712816869046668e-001
 2.838646710056857e-001	 9.588642626988490e-001	-7.447574051384722e-001
 2.739131178235836e-001	 9.617543577873683e-001	-7.161269578012661e-001
 2.639589660669879e-001	 9.645338394785438e-001	-6.857683437714200e-001
 2.540039338948808e-001	 9.672031290579124e-001	-6.540595079845833e-001
 2.440497210832210e-001	 9.697626806991601e-001	-6.213781802896833e-001
 2.340980083161345e-001	 9.722129807570793e-001	-5.881017334589590e-001
 2.241504565049763e-001	 9.745545470450379e-001	-5.546070576269888e-001
 2.142087061355221e-001	 9.767879280981019e-001	-5.212704484453847e-001
 2.042743766435053e-001	 9.789137024229727e-001	-4.884675062721706e-001
 1.943490658186562e-001	 9.809324777358748e-001	-4.565730437744166e-001
 3.016469300097510e-001	 9.813530346885655e-001	-3.492335406167329e-001
 2.914344501272309e-001	 9.844341606898324e-001	-3.550044486913211e-001
 2.812175202806164e-001	 9.874013255358588e-001	-3.581450560621039e-001
 2.709979225639717e-001	 9.902549272725887e-001	-3.589593545881776e-001
 2.607774209541256e-001	 9.929953984199387e-001	-3.577525236879531e-001
 2.505577605546663e-001	 9.956232052629931e-001	-3.548309086004408e-001
 2.403406668682315e-001	 9.981388471261151e-001	-3.505020162605919e-001
 2.301278450974099e-001	 1.000542855631143e+000	-3.450745254093848e-001
 2.199209794745261e-001	 1.002835793940866e+000	-3.388583075872295e-001
 2.097217326205240e-001	 1.005018255988954e+000	-3.321644557143534e-001
 1.995317449331146e-001	 1.007090865697531e+000	-3.253053170408107e-001
 3.094820740290298e-001	 1.006843240615851e+000	 3.466053924936568e-003
 2.990043295512846e-001	 1.010004397486102e+000	-2.987540600975362e-002
 2.885220195238800e-001	 1.013048633111059e+000	-6.010629862220935e-002
 2.780369723299310e-001	 1.015976355875734e+000	-8.747465317133153e-002
 2.675509977647321e-001	 1.018788009534555e+000	-1.122306666846977e-001
 2.570658862601133e-001	 1.021484072484157e+000	-1.346268095748757e-001
 2.465834081378282e-001	 1.024065057018631e+000	-1.549179485377244e-001
 2.361053128922975e-001	 1.026531508568457e+000	-1.733614826347059e-001
 2.256333285029849e-001	 1.028884004924326e+000	-1.902174885074751e-001
 2.151691607766280e-001	 1.031123155447072e+000	-2.057488707428856e-001
 2.047144927194935e-001	 1.033249600264919e+000	-2.202215135108118e-001
 3.173173081534751e-001	 1.032333739679205e+000	 3.039912846601531e-001
 3.065742960300392e-001	 1.035574928338934e+000	 2.474268867270468e-001
 2.958266027699861e-001	 1.038696235629327e+000	 1.944058201246126e-001
 2.850761030460261e-001	 1.041698080274572e+000	 1.447196019556529e-001
 2.743246524724556e-001	 1.044580917263728e+000	 9.815686810472284e-002
 2.635740868098779e-001	 1.047345237105108e+000	 5.450314965248620e-002
 2.528262211996881e-001	 1.049991565062670e+000	 1.354063111696752e-002
 2.420828494286583e-001	 1.052520460375683e+000	-2.495210459071147e-002
 2.313457432239041e-001	 1.054932515462900e+000	-6.120033966560400e-002
 2.206166515784631e-001	 1.057228355112487e+000	-9.543348862080243e-002
 2.098973001076576e-001	 1.059408635658941e+000	-1.278853645934678e-001
 3.251526186710684e-001	 1.057824487269988e+000	 5.680178057810553e-001
 3.141443363156863e-001	 1.061145708499603e+000	 4.922394505416897e-001
 3.031312572355475e-001	 1.064344088207020e+000	 4.203859994543842e-001
 2.921153023934178e-001	 1.067420055455696e+000	 3.522736142271158e-001
 2.810983732230514e-001	 1.070374076469423e+000	 2.877151366956205e-001
 2.700823508142761e-001	 1.073206653868300e+000	 2.265197539885689e-001
 2.590690951285748e-001	 1.075918325886272e+000	 1.684926433812091e-001
 2.480604442455113e-001	 1.078509665571524e+000	 1.134346025973710e-001
 2.370582136402890e-001	 1.080981279971006e+000	 6.114167125818414e-002
 2.260641954926754e-001	 1.083333809300356e+000	 1.140474906741154e-002
 2.150801580274720e-001	 1.085567926100498e+000	-3.599078382213378e-002
 3.329879918697909e-001	 1.083315438779565e+000	 8.098873624916233e-001
 3.217144371604180e-001	 1.086716693219385e+000	 7.185999880589368e-001
 3.104359701371768e-001	 1.089992145960497e+000	 6.315641088074345e-001
 2.991545580532664e-001	 1.093142236405700e+000	 5.486070457366105e-001
 2.878721481622746e-001	 1.096167442013604e+000	 4.695526466681386e-001
 2.765906668836241e-001	 1.099068277516187e+000	 3.942208442020289e-001
 2.653120189992517e-001	 1.101845294117479e+000	 3.224271899405075e-001
 2.540380868818759e-001	 1.104499078674684e+000	 2.539823717137859e-001
 2.427707297551454e-001	 1.107030252863060e+000	 1.886917204679853e-001
 2.315117829859108e-001	 1.109439472325838e+000	 1.263547133531606e-001
 2.202630574088016e-001	 1.111727425810493e+000	 6.676447938192377e-002
 3.408234140376239e-001	 1.108806549599300e+000	 1.042749443123452e+000
 3.292845853164264e-001	 1.112287837749558e+000	 9.393852958130243e-001
 3.177407286914863e-001	 1.115640364006114e+000	 8.405403163978976e-001
 3.061938577067327e-001	 1.118864578111176e+000	 7.460408318197828e-001
 2.946459654358807e-001	 1.121960968758238e+000	 6.557098409244689e-001
 2.830990236282377e-001	 1.124930062791226e+000	 5.693664665351725e-001
 2.715549818864824e-001	 1.127772424384332e+000	 4.868253790565749e-001
 2.600157668767713e-001	 1.130488654203866e+000	 4.078961994228423e-001
 2.484832815714786e-001	 1.133079388553482e+000	 3.323828891257727e-001
 2.369594045248153e-001	 1.135545298504094e+000	 2.600831349178784e-001
 2.254459891815113e-001	 1.137887089009828e+000	 1.907877355991367e-001
 3.486588714625483e-001	 1.134297775120553e+000	 1.278683570713584e+000
 3.368547675359032e-001	 1.137859097341395e+000	 1.166430788411799e+000
 3.250455201150881e-001	 1.141288697460231e+000	 1.058901805156840e+000
 3.132331890349773e-001	 1.144587035558720e+000	 9.559110597656421e-001
 3.014198131896246e-001	 1.147754611565289e+000	 8.572701219310186e-001
 2.896074096584329e-001	 1.150791964435870e+000	 7.627870369855112e-001
 2.777979728650303e-001	 1.153699671314873e+000	 6.722656360926000e-001
 2.659934737692166e-001	 1.156478346677774e+000	 5.855048208840324e-001
 2.541958590922944e-001	 1.159128641456689e+000	 5.022978314739729e-001
 2.424070505760347e-001	 1.161651242150283e+000	 4.224315066295003e-001
 2.306289442754662e-001	 1.164046869919403e+000	 3.456855446647094e-001
 3.564943504325456e-001	 1.159789070734689e+000	 1.528805211440842e+000
 3.444249705710406e-001	 1.163430427246174e+000	 1.410634039283353e+000
 3.323503316245950e-001	 1.166937101439205e+000	 1.297323907595302e+000
 3.202725397191608e-001	 1.170309563734924e+000	 1.188667669900785e+000
 3.081936795692617e-001	 1.173548325296723e+000	 1.084456101422178e+000
 2.961158135845260e-001	 1.176653937192574e+000	 9.844771322971238e-001
 2.840409810096591e-001	 1.179626989537143e+000	 8.885150387033252e-001
 2.719711970982311e-001	 1.182468110615112e+000	 7.963496022492037e-001
 2.599084523205983e-001	 1.185177965987098e+000	 7.077552478944228e-001
 2.478547116062153e-001	 1.187757257579563e+000	 6.225001704989974e-001
 2.358119136205312e-001	 1.190206722760122e+000	 5.403454598649105e-001
 3.643298372355972e-001	 1.185280391833070e+000	 1.803357765382063e+000
 3.519951811740304e-001	 1.189001782715169e+000	 1.682044743291497e+000
 3.396551504366194e-001	 1.192585531059394e+000	 1.565658004306126e+000
 3.273118974404436e-001	 1.196032117626382e+000	 1.453960263034972e+000
 3.149675527205472e-001	 1.199342064814506e+000	 1.346713298877006e+000
 3.026242240168329e-001	 1.202515935803794e+000	 1.243677070579598e+000
 2.902839953951322e-001	 1.205554333679185e+000	 1.144608779709126e+000
 2.779489264028340e-001	 1.208457900534583e+000	 1.049261894879875e+000
 2.656210512593957e-001	 1.211227316559127e+000	 9.573851484893375e-001
 2.533023780820027e-001	 1.213863299107094e+000	 8.687215175294138e-001
 2.409948881465711e-001	 1.216366601752886e+000	 7.830071997843384e-001
 3.721653181596841e-001	 1.210771693807061e+000	 2.111792690064941e+000
 3.595653860970648e-001	 1.214573118999657e+000	 1.989943101646018e+000
 3.469599637677736e-001	 1.218233941437156e+000	 1.873008136156286e+000
 3.343512498799867e-001	 1.221754652219686e+000	 1.760712913807041e+000
 3.217414207892364e-001	 1.225135784980603e+000	 1.652783137846278e+000
 3.091326295656695e-001	 1.228377915011984e+000	 1.548944080399844e+000
 2.965270050962132e-001	 1.231481658369039e+000	 1.448919506683953e+000
 2.839266512220445e-001	 1.234447670954891e+000	 1.352430551090158e+000
 2.713336459116921e-001	 1.237276647587193e+000	 1.259194558539919e+000
 2.587500404700431e-001	 1.239969321048035e+000	 1.168923904314998e+000
 2.461778587834510e-001	 1.242526461118597e+000	 1.081324805285011e+000
 1.943490658186562e-001	 9.809324777358748e-001	-4.565730437744160e-001
 1.844358351184653e-001	 9.828446114249160e-001	-4.253297322728101e-001
 1.745347453506193e-001	 9.846510785005697e-001	-3.944320165339114e-001
 1.646473231798204e-001	 9.863525701375676e-001	-3.641957902577483e-001
 1.547750715930049e-001	 9.879498035443917e-001	-3.349369091918778e-001
 1.449194694473043e-001	 9.894435211587169e-001	-3.069711833252173e-001
 1.350819710464206e-001	 9.908344898374509e-001	-2.806143603364905e-001
 1.252640057452698e-001	 9.921235000424143e-001	-2.561820984812240e-001
 1.154669775827054e-001	 9.933113650226918e-001	-2.339899272806090e-001
 1.056922649420928e-001	 9.943989199946589e-001	-2.143531945579793e-001
 9.594122023947826e-002	 9.953870213206723e-001	-1.975869985567661e-001
 1.995317449331146e-001	 1.007090865697531e+000	-3.253053170408108e-001
 1.893541595092008e-001	 1.009053989985139e+000	-3.179375694796276e-001
 1.791890387780153e-001	 1.010908629862745e+000	-3.096952440098517e-001
 1.690379501156183e-001	 1.012655494936566e+000	-3.008616216194003e-001
 1.589024365888925e-001	 1.014295321540812e+000	-2.917212133422825e-001
 1.487840164914495e-001	 1.015828871911665e+000	-2.825598446838016e-001
 1.386841829087086e-001	 1.017256933355725e+000	-2.736647264824297e-001
 1.286044033119972e-001	 1.018580317413973e+000	-2.653245099849255e-001
 1.185461191814805e-001	 1.019799859022319e+000	-2.578293241308247e-001
 1.085107456576841e-001	 1.020916415669762e+000	-2.514707932651517e-001
 9.849967122134784e-002	 1.021930866555178e+000	-2.465420337272654e-001
 2.047144927194935e-001	 1.033249600264919e+000	-2.202215135108124e-001
 1.942725490689864e-001	 1.035263715826961e+000	-2.331939751330736e-001
 1.838433938759064e-001	 1.037166529144998e+000	-2.442254503758334e-001
 1.734286352282083e-001	 1.038958768256984e+000	-2.535803477027678e-001
 1.630298562732485e-001	 1.040641188623105e+000	-2.615253036972954e-001
 1.526486147416389e-001	 1.042214572278316e+000	-2.683293564871466e-001
 1.422864425010266e-001	 1.043679726979181e+000	-2.742641012622394e-001
 1.319448451396527e-001	 1.045037485346122e+000	-2.796038252017296e-001
 1.216253015794873e-001	 1.046288704002161e+000	-2.846256193830648e-001
 1.113292637187003e-001	 1.047434262709218e+000	-2.896094655114929e-001
 1.010581561032000e-001	 1.048475063502990e+000	-2.948382955836161e-001
 2.098973001076576e-001	 1.059408635658941e+000	-1.278853645934673e-001
 1.991909951903410e-001	 1.061473743082011e+000	-1.580048914498307e-001
 1.884978024988975e-001	 1.063424730394631e+000	-1.852628011484535e-001
 1.778193708336415e-001	 1.065262344066698e+000	-2.099169006657712e-001
 1.671573234228617e-001	 1.066987358684599e+000	-2.322279691611344e-001
 1.565132574346200e-001	 1.068600576082287e+000	-2.524600195499975e-001
 1.458887435192350e-001	 1.070102824466526e+000	-2.708805382353672e-001
 1.352853253822968e-001	 1.071494957537422e+000	-2.877606997850150e-001
 1.247045193880079e-001	 1.072777853605359e+000	-3.033755536420136e-001
 1.141478141926026e-001	 1.073952414705431e+000	-3.180041802700972e-001
 1.036166704075698e-001	 1.075019565710423e+000	-3.319298144540060e-001
 2.150801580274720e-001	 1.085567926100498e+000	-3.599078382213378e-002
 2.041094892657835e-001	 1.087684025881921e+000	-8.037319404875865e-002
 1.931522565015935e-001	 1.089683187658944e+000	-1.211117820880626e-001
 1.822101492479693e-001	 1.091566176333586e+000	-1.584686351429976e-001
 1.712848308145205e-001	 1.093333785618622e+000	-1.927093167390201e-001
 1.603779378071404e-001	 1.094986837147195e+000	-2.241032180328444e-001
 1.494910796591941e-001	 1.096526179576468e+000	-2.529238836811827e-001
 1.386258381939897e-001	 1.097952687686433e+000	-2.794493084553387e-001
 1.277837672183244e-001	 1.099267261475050e+000	-3.039622011353410e-001
 1.169663921468526e-001	 1.100470825250804e+000	-3.267502125814714e-001
 1.061752096569922e-001	 1.101564326723789e+000	-3.481061252505493e-001
 2.202630574088016e-001	 1.111727425810493e+000	 6.676447938192427e-002
 2.090280226878327e-001	 1.113894518358322e+000	 1.072404881958753e-002
 1.978067477385986e-001	 1.115941854985237e+000	-4.102201087840098e-002
 1.866009627872431e-001	 1.117870219025528e+000	-8.874962593564871e-002
 1.754123712250134e-001	 1.119680423318503e+000	-1.327384755158687e-001
 1.642426490959474e-001	 1.121373309296657e+000	-1.732724368561479e-001
 1.530934446167642e-001	 1.122949746067712e+000	-2.106400016286617e-001
 1.419663777287918e-001	 1.124410629491716e+000	-2.451346590341728e-001
 1.308630396817190e-001	 1.125756881254375e+000	-2.770552415331408e-001
 1.197849926489115e-001	 1.126989447937741e+000	-3.067062295338091e-001
 1.087337693740024e-001	 1.128109300089399e+000	-3.343980117850746e-001
 2.254459891815113e-001	 1.137887089009828e+000	 1.907877355991362e-001
 2.139465868490073e-001	 1.140105174642845e+000	 1.254413752161750e-001
 2.024612680645177e-001	 1.142200686420812e+000	 6.491450866095032e-002
 1.909918037675141e-001	 1.144174426110399e+000	 8.909080117873071e-003
 1.795399374311289e-001	 1.146027225677570e+000	-4.287677910051523e-002
 1.681073845377886e-001	 1.147759946354290e+000	-9.074929617364785e-002
 1.566958320878055e-001	 1.149373477698965e+000	-1.350195704913237e-001
 1.453069381407635e-001	 1.150868736651832e+000	-1.760040502011706e-001
 1.339423313894738e-001	 1.152246666586471e+000	-2.140249667761884e-001
 1.226036107662408e-001	 1.153508236358646e+000	-2.494107232653635e-001
 1.112923450811353e-001	 1.154654439353569e+000	-2.824962323807123e-001
 2.306289442754662e-001	 1.164046869919403e+000	 3.456855446647094e-001
 2.188651731418263e-001	 1.166315948867122e+000	 2.731564503796891e-001
 2.071158093339555e-001	 1.168459636012968e+000	 2.058522750745357e-001
 1.953826645048334e-001	 1.170478751556079e+000	 1.434457665492061e-001
 1.836675222096557e-001	 1.172374146589153e+000	 8.560600712378499e-002
 1.719721373694115e-001	 1.174146702143711e+000	 3.199775820665644e-002
 1.602982357681785e-001	 1.175797328228937e+000	-1.771916023843538e-002
 1.486475135839651e-001	 1.177326962865341e+000	-6.389044918654027e-002
 1.370216369528710e-001	 1.178736571114481e+000	-1.068678633880677e-001
 1.254222415663019e-001	 1.180027144105923e+000	-1.470096924691880e-001
 1.138509323009261e-001	 1.181199698062607e+000	-1.846811857698140e-001
 2.358119136205312e-001	 1.190206722760122e+000	 5.403454598649109e-001
 2.237837729588087e-001	 1.192526795162783e+000	 4.625495051878678e-001
 2.117703634015168e-001	 1.194718657809009e+000	 3.902694514381151e-001
 1.997735373152525e-001	 1.196783149330445e+000	 3.231429716073175e-001
 1.877951183373821e-001	 1.198721139946578e+000	 2.608044199499115e-001
 1.758369008275634e-001	 1.200533530488537e+000	 2.028840546587038e-001
 1.639006493537435e-001	 1.202221251416331e+000	 1.490072983705249e-001
 1.519880982124569e-001	 1.203785261830803e+000	 9.879404362006236e-002
 1.401009509831927e-001	 1.205226548481543e+000	 5.185800977263942e-002
 1.282408801165560e-001	 1.206546124771974e+000	 7.806157355252164e-003
 1.164095265559098e-001	 1.207745029762831e+000	-3.376183492361824e-002
 2.409948881465711e-001	 1.216366601752886e+000	 7.830071997843384e-001
 2.287023776924730e-001	 1.218737667661458e+000	 7.016725103435407e-001
 2.164249221218060e-001	 1.220977705856232e+000	 6.260350657411733e-001
 2.041644145148226e-001	 1.223087573401375e+000	 5.556927466820204e-001
 1.919227185910969e-001	 1.225068159643175e+000	 4.902406545784445e-001
 1.797016681489920e-001	 1.226920385212384e+000	 4.292701973930512e-001
 1.675030665403606e-001	 1.228645201019855e+000	 3.723682162420604e-001
 1.553286861802993e-001	 1.230243587246780e+000	 3.191161609757666e-001
 1.431802680917211e-001	 1.231716552330795e+000	 2.690893222897774e-001
 1.310595214844649e-001	 1.233065131949204e+000	 2.218561272324526e-001
 1.189681233686213e-001	 1.234290388000549e+000	 1.769775042631741e-001
 2.461778587834510e-001	 1.242526461118597e+000	 1.081324805285011e+000
 2.336209787353383e-001	 1.244948520494780e+000	 9.980095983766438e-001
 2.210794773494281e-001	 1.247236734201940e+000	 9.204677170054118e-001
 2.085552884195949e-001	 1.249391977736748e+000	 8.482536727345725e-001
 1.960503157475883e-001	 1.251415159572273e+000	 7.809199246020671e-001
 1.835664325704446e-001	 1.253307220138870e+000	 7.180158102189109e-001
 1.711054810238903e-001	 1.255069130798217e+000	 6.590865206246931e-001
 1.586692716415527e-001	 1.256701892811832e+000	 6.036721283453107e-001
 1.462595828897382e-001	 1.258206536305377e+000	 5.513066773523216e-001
 1.338781607374896e-001	 1.259584119230017e+000	 5.015173428498078e-001
 1.215267182615959e-001	 1.260835726322077e+000	 4.538236680139179e-001
 9.594122023947826e-002	 9.953870213206723e-001	-1.975869985567651e-001
 8.621371590998771e-002	 9.962766718121099e-001	-1.840879086273755e-001
 7.651253352126196e-002	 9.970686125683425e-001	-1.738459812677100e-001
 6.683896610081594e-002	 9.977637591031844e-001	-1.665537895720553e-001
 5.719427911104236e-002	 9.983630448185401e-001	-1.618971676644508e-001
 4.757971027342479e-002	 9.988674201817246e-001	-1.595561977626833e-001
 3.799646941872222e-002	 9.992778519071311e-001	-1.592061536255887e-001
 2.844573836262598e-002	 9.995953221430518e-001	-1.605183991867019e-001
 1.892867080636962e-002	 9.998208276644112e-001	-1.631612414473347e-001
 9.446392261750505e-003	 9.999553790721549e-001	-1.668007369716394e-001
 0.000000000000000e+000	 1.000000000000000e+000	-1.711014515752683e-001
 9.849967122134784e-002	 1.021930866555178e+000	-2.465420337272654e-001
 8.851276490585905e-002	 1.022844241231782e+000	-2.429497497875527e-001
 7.855288245458961e-002	 1.023657300561674e+000	-2.403084460912617e-001
 6.862135137610560e-002	 1.024370984472468e+000	-2.384693562228432e-001
 5.871947087877485e-002	 1.024986251256887e+000	-2.372805426720179e-001
 4.884851169029193e-002	 1.025504076728145e+000	-2.365876246473378e-001
 3.900971590386785e-002	 1.025925453379796e+000	-2.362344612552020e-001
 2.920429685057112e-002	 1.026251389550869e+000	-2.360637891531879e-001
 1.943343899728704e-002	 1.026482908597069e+000	-2.359178140716498e-001
 9.698297869739969e-003	 1.026621048068823e+000	-2.356387558774021e-001
 0.000000000000000e+000	 1.026666858896873e+000	-2.350680583973864e-001
 1.010581561032000e-001	 1.048475063502990e+000	-2.948382955836161e-001
 9.081184436458804e-002	 1.049412162678889e+000	-2.998734463532395e-001
 8.059325842294968e-002	 1.050246340862016e+000	-3.040772061978703e-001
 7.040376026835922e-002	 1.050978562394118e+000	-3.074380911848636e-001
 6.024468285560673e-002	 1.051609810459080e+000	-3.099443592683352e-001
 5.011732991903532e-002	 1.052141086216367e+000	-3.115845307424832e-001
 4.002297581473560e-002	 1.052573407939045e+000	-3.123478620830661e-001
 2.996286538957090e-002	 1.052907810157237e+000	-3.122247725061696e-001
 1.993821387648608e-002	 1.053145342807795e+000	-3.112072228804501e-001
 9.950206815530237e-003	 1.053287070390996e+000	-3.092890469250264e-001
 0.000000000000000e+000	 1.053334071134978e+000	-3.064652974001401e-001
 1.036166704075698e-001	 1.075019565710423e+000	-3.319298144540060e-001
 9.311095026268376e-002	 1.075980389658250e+000	-3.444799367214690e-001
 8.263365785559605e-002	 1.076835686937253e+000	-3.548566164757485e-001
 7.218618965828585e-002	 1.077586446303605e+000	-3.631655915790153e-001
 6.176991237235380e-002	 1.078233675832652e+000	-3.695146507692275e-001
 5.138616273917136e-002	 1.078778402030408e+000	-3.740139975321998e-001
 4.103624737807992e-002	 1.079221668949764e+000	-3.767765643520867e-001
 3.072144265210026e-002	 1.079564537312246e+000	-3.779182768067477e-001
 2.044299456059079e-002	 1.079808083636172e+000	-3.775582673080765e-001
 1.020211865827077e-002	 1.079953399371986e+000	-3.758190386130882e-001
 0.000000000000000e+000	 1.080001590045551e+000	-3.728259308492183e-001
 1.061752096569922e-001	 1.101564326723789e+000	-3.481061252505488e-001
 9.541007857665534e-002	 1.102548875674683e+000	-3.672052103955107e-001
 8.467407718178258e-002	 1.103425292255272e+000	-3.831529434485759e-001
 7.396863642659460e-002	 1.104194589636403e+000	-3.961533607850503e-001
 6.329515675983193e-002	 1.104857800785134e+000	-4.064143028266751e-001
 5.265500793021638e-002	 1.105415977554288e+000	-4.141476712897257e-001
 4.204952882065519e-002	 1.105870189776840e+000	-4.195696326962707e-001
 3.148002731063408e-002	 1.106221524365987e+000	-4.229007676646092e-001
 2.094778016622522e-002	 1.106471084421780e+000	-4.243661658680982e-001
 1.045403295711100e-002	 1.106619988345106e+000	-4.241954669105571e-001
 0.000000000000000e+000	 1.106669368959824e+000	-4.226224297404799e-001
 1.087337693740024e-001	 1.128109300089399e+000	-3.343980117850736e-001
 9.770922528301190e-002	 1.129117574233009e+000	-3.592081834438318e-001
 8.671451283076313e-002	 1.130015110283961e+000	-3.801834917828482e-001
 7.575109745399455e-002	 1.130802945827984e+000	-3.976083230446065e-001
 6.482041334885687e-002	 1.131482138724057e+000	-4.117721107226993e-001
 5.392386327168685e-002	 1.132053766172024e+000	-4.229695356007560e-001
 4.306281836921587e-002	 1.132518923785159e+000	-4.315006667467510e-001
 3.223861803764724e-002	 1.132878724668551e+000	-4.376710429449369e-001
 2.145256981001344e-002	 1.133134298504202e+000	-4.417916944655612e-001
 1.070594927120041e-002	 1.133286790643667e+000	-4.441791054791964e-001
 0.000000000000000e+000	 1.133337361209029e+000	-4.451548693829179e-001
 1.112923450811353e-001	 1.154654439353569e+000	-2.824962323807118e-001
 1.000083863582626e-001	 1.155686438838045e+000	-3.122912628368867e-001
 8.875496123179164e-002	 1.156605094491205e+000	-3.377982490648241e-001
 7.753356962119480e-002	 1.157411468313820e+000	-3.593648050210305e-001
 6.634567947024449e-002	 1.158106643056953e+000	-3.773443690448968e-001
 5.519272654309911e-002	 1.158691721267636e+000	-3.920963958139659e-001
 4.407611425051639e-002	 1.159167824339611e+000	-4.039864826652993e-001
 3.299721350561465e-002	 1.159536091570028e+000	-4.133864296433024e-001
 2.195736260857948e-002	 1.159797679223020e+000	-4.206742331135631e-001
 1.095786715968844e-002	 1.159953759600982e+000	-4.262340132386593e-001
 0.000000000000000e+000	 1.160005520124402e+000	-4.304557444864742e-001
 1.138509323009261e-001	 1.181199698062607e+000	-1.846811857698135e-001
 1.023075577789164e-001	 1.182255422994611e+000	-2.188316046371236e-001
 9.079541881412197e-002	 1.183195198344892e+000	-2.484120806553030e-001
 7.931604980890450e-002	 1.184020110529385e+000	-2.738170242093287e-001
 6.787095245481058e-002	 1.184731267191354e+000	-2.954470233679179e-001
 5.646159552396952e-002	 1.185329796225141e+000	-3.137090768333380e-001
 4.508941469131115e-002	 1.185816844805080e+000	-3.290167532878983e-001
 3.375581238701120e-002	 1.186193578420510e+000	-3.417902762921403e-001
 2.246215767854739e-002	 1.186461179917814e+000	-3.524565344327105e-001
 1.120978618172454e-002	 1.186620848550362e+000	-3.614490169426510e-001
 0.000000000000000e+000	 1.186673799037173e+000	-3.692076170892543e-001
 1.164095265559098e-001	 1.207745029762831e+000	-3.376183492361774e-002
 1.046067355214827e-001	 1.208824480207525e+000	-7.172142159072248e-002
 9.283588200700799e-002	 1.209785375312910e+000	-1.049458522924737e-001
 8.109853489783266e-002	 1.210628825910150e+000	-1.338604685264154e-001
 6.939622963337101e-002	 1.211355964534790e+000	-1.588967598057836e-001
 5.773046799381452e-002	 1.211967944428558e+000	-1.804926868632474e-001
 4.610271791835461e-002	 1.212465938546455e+000	-1.990929217991214e-001
 3.451441335431180e-002	 1.212851138570085e+000	-2.151490040346358e-001
 2.296695413654122e-002	 1.213124753928167e+000	-2.291194115517154e-001
 1.146170589645817e-002	 1.213288010825121e+000	-2.414695475005351e-001
 0.000000000000000e+000	 1.213342151278578e+000	-2.526716241624794e-001
 1.189681233686213e-001	 1.234290388000549e+000	 1.769775042631741e-001
 1.069059155624703e-001	 1.235393563981607e+000	 1.356840215693892e-001
 9.487634723970358e-002	 1.236375578863144e+000	 9.922486293235841e-002
 8.288102176868849e-002	 1.237237567891589e+000	 6.715917077824285e-002
 7.092150833674156e-002	 1.237980688494794e+000	 3.904031243451775e-002
 5.899934173215044e-002	 1.238606119261905e+000	 1.441541701355219e-002
 4.711602215840118e-002	 1.239115058928623e+000	-7.174993602428880e-003
 3.527301507999132e-002	 1.239508725368847e+000	-2.619727815165051e-002
 2.347175109918501e-002	 1.239788354593661e+000	-4.312485294466092e-002
 1.171362586303879e-002	 1.239955199758569e+000	-5.843827225194860e-002
 0.000000000000000e+000	 1.240010530179849e+000	-7.262521101017837e-002
 1.215267182615959e-001	 1.260835726322077e+000	 4.538236680139189e-001
 1.092050938783885e-001	 1.261962627821675e+000	 4.096118575880738e-001
 9.691681094146261e-002	 1.262965762463481e+000	 3.703146104720711e-001
 8.466350730218102e-002	 1.263846289909173e+000	 3.354906255494904e-001
 7.244678589573805e-002	 1.264605392478897e+000	 3.046935039853361e-001
 6.026821451849371e-002	 1.265244274109201e+000	 2.774710959286230e-001
 4.812932563820527e-002	 1.265764159316470e+000	 2.533649540738203e-001
 3.603161623652470e-002	 1.266166292166884e+000	 2.319098960807002e-001
 2.397654768310283e-002	 1.266451935253878e+000	 2.126336770378391e-001
 1.196554564061585e-002	 1.266622368684020e+000	 1.950567723738287e-001
 0.000000000000000e+000	 1.266678889072220e+000	 1.786922683902302e-001
 1.266678889072220e+000	 0.000000000000000e+000	 1.949342447186848e+001
 1.266622368684020e+000	 1.196554564061589e-002	 1.947810803280170e+001
 1.266451935253877e+000	 2.397654768310291e-002	 1.946285739675568e+001
 1.266166292166884e+000	 3.603161623652462e-002	 1.944720613344792e+001
 1.265764159316470e+000	 4.812932563820523e-002	 1.943066847331579e+001
 1.265244274109201e+000	 6.026821451849370e-002	 1.941273952529263e+001
 1.264605392478897e+000	 7.244678589573809e-002	 1.939289557602032e+001
 1.263846289909173e+000	 8.466350730218103e-002	 1.937059439178658e+001
 1.262965762463481e+000	 9.691681094146248e-002	 1.934527552137462e+001
 1.261962627821675e+000	 1.092050938783884e-001	 1.931636059811653e+001
 1.260835726322077e+000	 1.215267182615958e-001	 1.928325363956497e+001
 1.293343190136031e+000	 0.000000000000000e+000	 1.885786277315967e+001
 1.293285479961983e+000	 1.221742708636594e-002	 1.884246271364830e+001
 1.293111458812611e+000	 2.448126745774412e-002	 1.882778771353691e+001
 1.292819802778529e+000	 3.679010196516097e-002	 1.881332582409925e+001
 1.292409204806197e+000	 4.914247493488750e-002	 1.879854210337075e+001
 1.291878375723875e+000	 6.153689423456663e-002	 1.878287887854955e+001
 1.291226045277082e+000	 7.397183137018699e-002	 1.876575603661158e+001
 1.290450963172669e+000	 8.644572161462837e-002	 1.874657131703734e+001
 1.289551900130541e+000	 9.895696416848014e-002	 1.872470060464403e+001
 1.288527648942039e+000	 1.115039223538046e-001	 1.869949822063875e+001
 1.287377025533950e+000	 1.240849238414894e-001	 1.867029721015435e+001
 1.320007431208043e+000	 0.000000000000000e+000	 1.828193964325336e+001
 1.319948531250828e+000	 1.246930796544279e-002	 1.826878510744162e+001
 1.319770922390312e+000	 2.498598609687761e-002	 1.825681216353764e+001
 1.319473253422687e+000	 3.754858598735979e-002	 1.824544747060430e+001
 1.319054190347506e+000	 5.015562195217481e-002	 1.823409207496095e+001
 1.318512417414774e+000	 6.280557109632907e-002	 1.822212172804958e+001
 1.317846638181773e+000	 7.549687341352278e-002	 1.820888721569695e+001
 1.317055576578640e+000	 8.822793191734575e-002	 1.819371468786995e+001
 1.316137977981790e+000	 1.009971128054111e-001	 1.817590598658606e+001
 1.315092610294107e+000	 1.138027456571139e-001	 1.815473896978248e+001
 1.313918265030891e+000	 1.266431236656700e-001	 1.812946782911725e+001
 1.346671618954121e+000	 0.000000000000000e+000	 1.775440911116943e+001
 1.346611529216121e+000	 1.272118834083839e-002	 1.774534252991303e+001
 1.346430332651642e+000	 2.549070372671897e-002	 1.773777435023493e+001
 1.346126650762511e+000	 3.830706849278583e-002	 1.773106373470246e+001
 1.345699122601420e+000	 5.116876694340033e-002	 1.772454106423644e+001
 1.345146405840180e+000	 6.407424542099521e-002	 1.771750797602262e+001
 1.344467177847875e+000	 7.702191240704667e-002	 1.770923747304985e+001
 1.343660136777989e+000	 9.001013865592052e-002	 1.769897409673391e+001
 1.342724002663489e+000	 1.030372573623213e-001	 1.768593416217130e+001
 1.341657518518851e+000	 1.161015643630453e-001	 1.766930605513029e+001
 1.340459451447940e+000	 1.292013183737075e-001	 1.764825058944011e+001
 1.373335760040133e+000	 0.000000000000000e+000	 1.727016622909789e+001
 1.373274480523431e+000	 1.297306827554474e-002	 1.726547606185941e+001
 1.373089696261269e+000	 2.599542047348386e-002	 1.726255548234488e+001
 1.372780001461154e+000	 3.906554967110389e-002	 1.726069335535834e+001
 1.372344008228968e+000	 5.218191016189716e-002	 1.725914705516048e+001
 1.371780347658369e+000	 6.534291752577912e-002	 1.725714256450828e+001
 1.371087670930294e+000	 7.854694873205979e-002	 1.725387465684571e+001
 1.370264650421613e+000	 9.179234227594005e-002	 1.724850715235406e+001
 1.369309980821893e+000	 1.050773983492762e-001	 1.724017324728509e+001
 1.368222380257244e+000	 1.184003790463279e-001	 1.722797591549274e+001
 1.367000591420135e+000	 1.317595086051721e-001	 1.721098838055835e+001
 1.399999861131944e+000	 0.000000000000000e+000	 1.682680475892681e+001
 1.399937391838324e+000	 1.322494783255377e-002	 1.682607723397798e+001
 1.399749019883856e+000	 2.650013646338788e-002	 1.682740232882740e+001
 1.399433312181770e+000	 3.982402971197879e-002	 1.682998717822803e+001
 1.398988853891178e+000	 5.319505186099847e-002	 1.683300527642086e+001
 1.398414249527623e+000	 6.661158772789501e-002	 1.683559667707963e+001
 1.397708124083939e+000	 8.007198276986338e-002	 1.683686828880573e+001
 1.396869124160417e+000	 9.357454322299176e-002	 1.683589425610735e+001
 1.395895919103263e+000	 1.071175362763417e-001	 1.683171642507823e+001
 1.394787202150259e+000	 1.206991902816908e-001	 1.682334489240353e+001
 1.393541691582514e+000	 1.343176949996336e-001	 1.680975863571813e+001
 1.426663928895422e+000	 0.000000000000000e+000	 1.642223769522779e+001
 1.426600269826366e+000	 1.347682707485748e-002	 1.642456904821585e+001
 1.426408310184067e+000	 2.700485182264663e-002	 1.642929939068786e+001
 1.426086589587512e+000	 4.058250880507529e-002	 1.643554311992883e+001
 1.425633666249075e+000	 5.420819229403738e-002	 1.644237935482096e+001
 1.425048118106222e+000	 6.788025634455705e-002	 1.644885227605559e+001
 1.424328543963713e+000	 8.159701490175864e-002	 1.645397157528606e+001
 1.423473564645299e+000	 9.535674194266300e-002	 1.645671300235253e+001
 1.422481824153855e+000	 1.091576716535834e-001	 1.645601900950216e+001
 1.421351990838867e+000	 1.229979986438629e-001	 1.645079949084921e+001
 1.420082758570117e+000	 1.368758781966621e-001	 1.643993261462356e+001
 1.453327969996434e+000	 0.000000000000000e+000	 1.605482142636532e+001
 1.453263121153126e+000	 1.372870606544782e-002	 1.605884252175083e+001
 1.453067573826569e+000	 2.750956667747578e-002	 1.606572079673975e+001
 1.452739840341533e+000	 4.134098714005818e-002	 1.607446727693489e+001
 1.452278451963687e+000	 5.522133171434702e-002	 1.608405653756022e+001
 1.451681960052446e+000	 6.914892369297943e-002	 1.609342722301402e+001
 1.450948937224526e+000	 8.312204550904671e-002	 1.610148268986184e+001
 1.450077978527162e+000	 9.713893888054116e-002	 1.610709176157381e+001
 1.449067702619928e+000	 1.111978049910672e-001	 1.610908959355347e+001
 1.447916752964040e+000	 1.252968047075733e-001	 1.610627864622354e+001
 1.446623799017982e+000	 1.394340588358277e-001	 1.609742976313435e+001
 1.479991991100845e+000	 0.000000000000000e+000	 1.572331578865819e+001
 1.479925952484172e+000	 1.398058486731675e-002	 1.572721383391990e+001
 1.479726817476025e+000	 2.801428115409090e-002	 1.573458486242972e+001
 1.479393071106987e+000	 4.209946490659224e-002	 1.574432621814949e+001
 1.478923217696040e+000	 5.623447037526055e-002	 1.575529804290942e+001
 1.478315782024575e+000	 7.041759009037626e-002	 1.576632401420423e+001
 1.477569310521282e+000	 8.464707497302883e-002	 1.577619222216194e+001
 1.476682372456906e+000	 9.892113448221362e-002	 1.578365617314069e+001
 1.475653561147740e+000	 1.132379367988586e-001	 1.578743591804047e+001
 1.474481495166753e+000	 1.275956090475512e-001	 1.578621930251941e+001
 1.473164819561149e+000	 1.419922375567004e-001	 1.577866333539190e+001
 1.506655998874523e+000	 0.000000000000000e+000	 1.542684836382762e+001
 1.506588770485068e+000	 1.423246354345626e-002	 1.542838602572950e+001
 1.506386047797100e+000	 2.851899537870764e-002	 1.543421347778610e+001
 1.506046288547027e+000	 4.285794229434228e-002	 1.544310435002444e+001
 1.505567970107163e+000	 5.724760853011108e-002	 1.545379469338978e+001
 1.504949590680887e+000	 7.168625585396170e-002	 1.546498397462754e+001
 1.504189670508888e+000	 8.617210367500611e-002	 1.547533622743704e+001
 1.503286753085432e+000	 1.007033291932677e-001	 1.548348134648172e+001
 1.502239406383549e+000	 1.152780675870236e-001	 1.548801652179620e+001
 1.501046224087976e+000	 1.298944122385254e-001	 1.548750781011153e+001
 1.499705826834654e+000	 1.445504149988501e-001	 1.548049183857491e+001
 1.533319999983334e+000	 0.000000000000000e+000	 1.516488250313393e+001
 1.533251581821385e+000	 1.448434215685831e-002	 1.516141469768931e+001
 1.533045271454459e+000	 2.902370947754160e-002	 1.516329573656146e+001
 1.532699499324805e+000	 4.361641949297308e-002	 1.516916573665727e+001
 1.532212715858081e+000	 5.826074643223178e-002	 1.517762718832220e+001
 1.531583392679665e+000	 7.295492130094992e-002	 1.518724624620159e+001
 1.530810023842251e+000	 8.769713199627981e-002	 1.519655419497780e+001
 1.529891127063641e+000	 1.024855234592909e-001	 1.520404907567567e+001
 1.528825244973612e+000	 1.173181978656276e-001	 1.520819746944799e+001
 1.527610946368682e+000	 1.321932148552252e-001	 1.520743643459320e+001
 1.526246827473539e+000	 1.471085918018469e-001	 1.520017559137584e+001
 1.260835726322077e+000	 1.215267182615958e-001	 1.928325363956497e+001
 1.259584119230017e+000	 1.338781607374896e-001	 1.924783935372241e+001
 1.258206536305377e+000	 1.462595828897382e-001	 1.921199252986110e+001
 1.256701892811832e+000	 1.586692716415527e-001	 1.917510048880934e+001
 1.255069130798217e+000	 1.711054810238902e-001	 1.913654471327730e+001
 1.253307220138871e+000	 1.835664325704446e-001	 1.909570139653901e+001
 1.251415159572273e+000	 1.960503157475885e-001	 1.905194197227917e+001
 1.249391977736748e+000	 2.085552884195949e-001	 1.900463362458201e+001
 1.247236734201940e+000	 2.210794773494281e-001	 1.895313977732255e+001
 1.244948520494780e+000	 2.336209787353382e-001	 1.889682056252212e+001
 1.242526461118596e+000	 2.461778587834510e-001	 1.883503326754600e+001
 1.287377025533950e+000	 1.240849238414894e-001	 1.867029721015436e+001
 1.286099071410704e+000	 1.366963711093230e-001	 1.863927123112454e+001
 1.284692489592918e+000	 1.493384291424060e-001	 1.860858274357477e+001
 1.283156172509960e+000	 1.620093488027418e-001	 1.857754102756958e+001
 1.281489039940201e+000	 1.747073473676788e-001	 1.854544876447288e+001
 1.279690040073258e+000	 1.874306089332176e-001	 1.851160264207442e+001
 1.277758150570499e+000	 2.001772848530018e-001	 1.847529393651664e+001
 1.275692379622538e+000	 2.129454942133351e-001	 1.843580906984782e+001
 1.273491767002438e+000	 2.257333243445114e-001	 1.839243014235401e+001
 1.271155385113263e+000	 2.385388313687072e-001	 1.834443543916989e+001
 1.268682340028648e+000	 2.513600407846233e-001	 1.829109991103436e+001
 1.313918265030891e+000	 1.266431236656700e-001	 1.812946782911726e+001
 1.312613963935719e+000	 1.395145751404187e-001	 1.810261720679703e+001
 1.311178383290003e+000	 1.524172684678870e-001	 1.807670330919340e+001
 1.309610392688861e+000	 1.653494184489529e-001	 1.805095720156339e+001
 1.307908889640256e+000	 1.783092056074409e-001	 1.802460341537464e+001
 1.306072800649137e+000	 1.912947766017440e-001	 1.799686062302107e+001
 1.304101082299808e+000	 2.043042446728650e-001	 1.796694228318947e+001
 1.301992722335230e+000	 2.173356901292264e-001	 1.793405725548658e+001
 1.299746740731929e+000	 2.303871608685431e-001	 1.789741038331355e+001
 1.297362190769153e+000	 2.434566729370094e-001	 1.785620304437521e+001
 1.294838160090887e+000	 2.565422111259951e-001	 1.780963366863257e+001
 1.340459451447940e+000	 1.292013183737075e-001	 1.764825058944012e+001
 1.339128803433513e+000	 1.423327735353478e-001	 1.762567863506567e+001
 1.337664224017839e+000	 1.554961016359137e-001	 1.760449665531882e+001
 1.336064559961831e+000	 1.686894814152311e-001	 1.758384251601444e+001
 1.334328686503093e+000	 1.819110566436752e-001	 1.756284624841926e+001
 1.332455508461953e+000	 1.951589365421073e-001	 1.754063699529562e+001
 1.330443961345699e+000	 2.084311962389667e-001	 1.751638459406463e+001
 1.328293012449679e+000	 2.217258772648734e-001	 1.748923180243635e+001
 1.326001661953930e+000	 2.350409880850432e-001	 1.745831020908953e+001
 1.323568944013922e+000	 2.483745046697696e-001	 1.742274915860324e+001
 1.320993927844035e+000	 2.617243711031739e-001	 1.738167630936266e+001
 1.367000591420135e+000	 1.317595086051721e-001	 1.721098838055835e+001
 1.365643596532541e+000	 1.451509669986814e-001	 1.719255049861160e+001
 1.364150018397633e+000	 1.585749294162189e-001	 1.717600569190166e+001
 1.362518680942165e+000	 1.720295385366216e-001	 1.716041250824935e+001
 1.360748437133422e+000	 1.855129013768804e-001	 1.714482127581107e+001
 1.358838170107153e+000	 1.990230897203908e-001	 1.712827534755742e+001
 1.356786794293666e+000	 2.125581405830955e-001	 1.710981237517919e+001
 1.354593256540739e+000	 2.261160567178805e-001	 1.708846560558906e+001
 1.352256537231954e+000	 2.396948071575316e-001	 1.706326519271628e+001
 1.349775651399042e+000	 2.532923277965123e-001	 1.703323951685174e+001
 1.347149649826810e+000	 2.669065220117671e-001	 1.699741650340179e+001
 1.393541691582514e+000	 1.343176949996336e-001	 1.680975863571813e+001
 1.392158349861254e+000	 1.479691562349905e-001	 1.679474122739728e+001
 1.390635773050592e+000	 1.616537525785351e-001	 1.678209056103474e+001
 1.388972762243157e+000	 1.753695906481697e-001	 1.677078465862941e+001
 1.387168148135953e+000	 1.891147407075555e-001	 1.675979339308249e+001
 1.385220792180180e+000	 2.028872371026778e-001	 1.674807993486325e+001
 1.383129587729204e+000	 2.166850787370401e-001	 1.673460223335602e+001
 1.380893461183264e+000	 2.305062295858520e-001	 1.671831452505062e+001
 1.378511373129517e+000	 2.443486192495283e-001	 1.669816886019030e+001
 1.375982319475984e+000	 2.582101435467623e-001	 1.667311663897953e+001
 1.373305332577932e+000	 2.720886651473819e-001	 1.664211014798893e+001
 1.420082758570117e+000	 1.368758781966621e-001	 1.643993261462356e+001
 1.418673070048106e+000	 1.507873419488461e-001	 1.642764676036923e+001
 1.417121494597922e+000	 1.647325718925951e-001	 1.641819794240825e+001
 1.415426810478104e+000	 1.787096385849206e-001	 1.641048214366349e+001
 1.413587826115396e+000	 1.927165755361990e-001	 1.640338769703059e+001
 1.411603381276482e+000	 2.067513796550519e-001	 1.639579696173993e+001
 1.409472348237812e+000	 2.208120117325893e-001	 1.638658803982893e+001
 1.407193632952109e+000	 2.348963969663925e-001	 1.637463652374859e+001
 1.404766176210132e+000	 2.490024255245532e-001	 1.635881726549462e+001
 1.402188954796221e+000	 2.631279531500440e-001	 1.633800615706442e+001
 1.399460982636122e+000	 2.772708018056259e-001	 1.631108191149957e+001
 1.446623799017982e+000	 1.394340588358277e-001	 1.609742976313435e+001
 1.445187763721549e+000	 1.536055248448193e-001	 1.608720454530376e+001
 1.443607189660832e+000	 1.678113881281315e-001	 1.608030788996878e+001
 1.441880832260298e+000	 1.820496831819193e-001	 1.607555190260333e+001
 1.440007477676460e+000	 1.963184067633098e-001	 1.607174193984749e+001
 1.437985943991505e+000	 2.106155183435960e-001	 1.606767854449525e+001
 1.435815082404983e+000	 2.249389406015317e-001	 1.606215942628919e+001
 1.433493778422127e+000	 2.392865599571062e-001	 1.605398147826835e+001
 1.431020953037317e+000	 2.536562271461264e-001	 1.604194281769085e+001
 1.428395563911226e+000	 2.680457578358819e-001	 1.602484483987348e+001
 1.425616606540098e+000	 2.824529332821062e-001	 1.600149427266758e+001
 1.473164819561149e+000	 1.419922375567004e-001	 1.577866333539190e+001
 1.471702437510035e+000	 1.564237056274813e-001	 1.576983944973330e+001
 1.470092864860527e+000	 1.708902020548769e-001	 1.576488018548603e+001
 1.468334834203037e+000	 1.853897252742113e-001	 1.576251158612143e+001
 1.466427109423857e+000	 1.999202352893867e-001	 1.576145422387515e+001
 1.464368486920693e+000	 2.144796541343939e-001	 1.576042542383930e+001
 1.462157796816215e+000	 2.290658663756561e-001	 1.575814153992207e+001
 1.459793904168173e+000	 2.436767196555978e-001	 1.575332027099803e+001
 1.457275710174585e+000	 2.583100252777679e-001	 1.574468300474548e+001
 1.454602153372468e+000	 2.729635588338008e-001	 1.573095717589144e+001
 1.451772210828581e+000	 2.876350608724305e-001	 1.571087862486877e+001
 1.499705826834654e+000	 1.445504149988501e-001	 1.548049183857491e+001
 1.498217098042018e+000	 1.592418850014028e-001	 1.547241547185051e+001
 1.496578526818215e+000	 1.739690144425641e-001	 1.546880645331744e+001
 1.494788822919614e+000	 1.887297656968416e-001	 1.546830221131673e+001
 1.492846727962297e+000	 2.035220620149284e-001	 1.546953633177688e+001
 1.490751016659494e+000	 2.183437879935286e-001	 1.547114110356959e+001
 1.488500498057003e+000	 2.331927900867511e-001	 1.547175012225680e+001
 1.486094016765102e+000	 2.480668771594715e-001	 1.547000093897742e+001
 1.483530454185450e+000	 2.629638210829976e-001	 1.546453774028067e+001
 1.480808729731422e+000	 2.778813573733251e-001	 1.545401404383037e+001
 1.477927802040291e+000	 2.928171858722059e-001	 1.543709539408919e+001
 1.526246827473539e+000	 1.471085918018469e-001	 1.520017559137583e+001
 1.524731751945950e+000	 1.620600636711551e-001	 1.519219254523748e+001
 1.523064182155104e+000	 1.770478260609258e-001	 1.518936733493689e+001
 1.521242805023325e+000	 1.920698052848553e-001	 1.519024582829134e+001
 1.519266339896488e+000	 2.071238878404338e-001	 1.519337200600030e+001
 1.517133539803352e+000	 2.222079208870836e-001	 1.519729086223685e+001
 1.514843192712843e+000	 2.373197127666054e-001	 1.520055137072175e+001
 1.512394122787768e+000	 2.524570335663319e-001	 1.520170950129390e+001
 1.509785191633430e+000	 2.676176157253354e-001	 1.519933127092069e+001
 1.507015299539557e+000	 2.827991546839795e-001	 1.519199581209501e+001
 1.504083386713946e+000	 2.979993095770399e-001	 1.517829844063652e+001
 1.242526461118596e+000	 2.461778587834510e-001	 1.883503326754600e+001
 1.239969321048035e+000	 2.587500404700431e-001	 1.877002105806911e+001
 1.237276647587192e+000	 2.713336459116922e-001	 1.870410353737691e+001
 1.234447670954891e+000	 2.839266512220444e-001	 1.863673008864762e+001
 1.231481658369039e+000	 2.965270050962132e-001	 1.856736176842909e+001
 1.228377915011984e+000	 3.091326295656696e-001	 1.849547178553279e+001
 1.225135784980603e+000	 3.217414207892365e-001	 1.842054594414267e+001
 1.221754652219686e+000	 3.343512498799867e-001	 1.834208305268345e+001
 1.218233941437156e+000	 3.469599637677736e-001	 1.825959530037220e+001
 1.214573118999657e+000	 3.595653860970647e-001	 1.817260860374874e+001
 1.210771693807061e+000	 3.721653181596841e-001	 1.808066292584015e+001
 1.268682340028648e+000	 2.513600407846233e-001	 1.829109991103436e+001
 1.266071370725263e+000	 2.641968739471594e-001	 1.823495772515130e+001
 1.263322014977708e+000	 2.770453713412648e-001	 1.817862081918301e+001
 1.260433486800480e+000	 2.899034664766287e-001	 1.812146198870850e+001
 1.257405037986019e+000	 3.027690648672337e-001	 1.806286609247062e+001
 1.254235959090373e+000	 3.156400448021336e-001	 1.800223054843942e+001
 1.250925580403296e+000	 3.285142581531009e-001	 1.793896578894010e+001
 1.247473272901273e+000	 3.413895312189304e-001	 1.787249567670765e+001
 1.243878449182009e+000	 3.542636656061270e-001	 1.780225788416679e+001
 1.240140564378870e+000	 3.671344391456396e-001	 1.772770423866343e+001
 1.236259117053800e+000	 3.799996068452375e-001	 1.764830103678856e+001
 1.294838160090887e+000	 2.565422111259951e-001	 1.780963366863256e+001
 1.292173361675890e+000	 2.696436951690278e-001	 1.776054789406677e+001
 1.289367323769279e+000	 2.827570839196106e-001	 1.771187165101950e+001
 1.286419244181258e+000	 2.958802682835723e-001	 1.766290904507191e+001
 1.283328359278822e+000	 3.090111105938581e-001	 1.761297720024382e+001
 1.280093944991751e+000	 3.221474453972028e-001	 1.756140675970829e+001
 1.276715317802694e+000	 3.352870802784264e-001	 1.750754233870471e+001
 1.273191835719854e+000	 3.484277967221452e-001	 1.745074293186559e+001
 1.269522899230740e+000	 3.615673510116164e-001	 1.739038227767584e+001
 1.265707952235458e+000	 3.747034751643715e-001	 1.732584918327493e+001
 1.261746482958037e+000	 3.878338779042281e-001	 1.725654781329148e+001
 1.320993927844035e+000	 2.617243711031739e-001	 1.738167630936266e+001
 1.318275300425168e+000	 2.750905054974155e-001	 1.733826189440316e+001
 1.315412580472970e+000	 2.884687850747152e-001	 1.729576000229936e+001
 1.312404949593380e+000	 3.018570581371237e-001	 1.725341385338411e+001
 1.309251628727974e+000	 3.152531438366363e-001	 1.721048121367697e+001
 1.305951879180282e+000	 3.286548329777549e-001	 1.716623488666160e+001
 1.302505003625874e+000	 3.420598888584344e-001	 1.711996314859724e+001
 1.298910347104691e+000	 3.554660481492021e-001	 1.707097012997423e+001
 1.295167297994062e+000	 3.688710218101569e-001	 1.701857614630119e+001
 1.291275288960849e+000	 3.822724960455040e-001	 1.696211798197905e+001
 1.287233797891179e+000	 3.956681332952001e-001	 1.690094913156774e+001
 1.347149649826810e+000	 2.669065220117671e-001	 1.699741650340179e+001
 1.344377193498347e+000	 2.805373062940901e-001	 1.695926261986880e+001
 1.341457791599845e+000	 2.941804762345625e-001	 1.692233311666268e+001
 1.338390609533002e+000	 3.078338375315319e-001	 1.688578536923981e+001
 1.335174852813998e+000	 3.214951661561187e-001	 1.684879570888151e+001
 1.331809768120134e+000	 3.351622091706677e-001	 1.681057997459732e+001
 1.328294644319918e+000	 3.488326855863470e-001	 1.677051362417721e+001
 1.324628813485048e+000	 3.625042872596722e-001	 1.672788654071272e+001
 1.320811651882687e+000	 3.761746798276636e-001	 1.668197611517824e+001
 1.316842580946469e+000	 3.898415036812795e-001	 1.663207809635481e+001
 1.312721068224635e+000	 4.035023749766975e-001	 1.657750676090537e+001
 1.373305332577932e+000	 2.720886651473819e-001	 1.664211014798893e+001
 1.370479047420677e+000	 2.859840989208189e-001	 1.660892937596745e+001
 1.367502963660969e+000	 2.998921588271373e-001	 1.657744680683103e+001
 1.364376230496282e+000	 3.138106079610459e-001	 1.654675426473700e+001
 1.361098038017419e+000	 3.277371791128551e-001	 1.651596436424710e+001
 1.357667618275472e+000	 3.416695756028192e-001	 1.648421199485420e+001
 1.354084246331905e+000	 3.556054721553858e-001	 1.645065571800532e+001
 1.350347241290185e+000	 3.695425158131266e-001	 1.641447906488013e+001
 1.346455967307327e+000	 3.834783268900515e-001	 1.637489172332321e+001
 1.342409834583748e+000	 3.974104999639416e-001	 1.633113060256538e+001
 1.338208300329813e+000	 4.113366049072643e-001	 1.628246076470551e+001
 1.399460982636122e+000	 2.772708018056259e-001	 1.631108191149957e+001
 1.396580868717411e+000	 2.914308847393696e-001	 1.628212851341009e+001
 1.393548103167406e+000	 3.056038342804243e-001	 1.625532674506394e+001
 1.390361818979375e+000	 3.197873709199146e-001	 1.622970627429518e+001
 1.387021190818762e+000	 3.339791842673958e-001	 1.620431982702356e+001
 1.383525436110463e+000	 3.481769339010871e-001	 1.617824487451181e+001
 1.379873816108914e+000	 3.623782502587722e-001	 1.615058522438310e+001
 1.376065636949365e+000	 3.765807355691361e-001	 1.612047250201912e+001
 1.372100250678695e+000	 3.907819648232359e-001	 1.608706750909535e+001
 1.367977056264114e+000	 4.049794867857330e-001	 1.604956144625587e+001
 1.363695500578122e+000	 4.191708250454448e-001	 1.600717698728748e+001
 1.425616606540098e+000	 2.824529332821062e-001	 1.600149427266758e+001
 1.422682663913799e+000	 2.968776651115094e-001	 1.597626375397524e+001
 1.419593216630219e+000	 3.113155040224080e-001	 1.595362751619364e+001
 1.416347381478437e+000	 3.257641279023868e-001	 1.593255593874413e+001
 1.412944317698551e+000	 3.402211831802908e-001	 1.591204515997612e+001
 1.409383228089274e+000	 3.546842856923493e-001	 1.589111898678612e+001
 1.405663360098026e+000	 3.691510215897284e-001	 1.586883069814640e+001
 1.401784006891852e+000	 3.836189482872719e-001	 1.584426472734575e+001
 1.397744508407502e+000	 3.980855954531314e-001	 1.581653820787649e+001
 1.393544252378993e+000	 4.125484660388972e-001	 1.578480236815703e+001
 1.389182675340970e+000	 4.270050373497829e-001	 1.574824376065965e+001
 1.451772210828581e+000	 2.876350608724305e-001	 1.571087862486877e+001
 1.448784439535093e+000	 3.023244413990055e-001	 1.568908785454695e+001
 1.445638310560474e+000	 3.170271694810730e-001	 1.567033216608256e+001
 1.442332924489626e+000	 3.317408804027114e-001	 1.565352498385912e+001
 1.438867425137311e+000	 3.464631774120902e-001	 1.563760862666072e+001
 1.435241000676072e+000	 3.611916326034839e-001	 1.562155646153835e+001
 1.431452884746319e+000	 3.759237878414755e-001	 1.560437494060791e+001
 1.427502357546905e+000	 3.906571557271049e-001	 1.558510550357043e+001
 1.423388746904461e+000	 4.053892206056537e-001	 1.556282632887245e+001
 1.419111429319816e+000	 4.201174396156769e-001	 1.553665391668858e+001
 1.414669830989763e+000	 4.348392437788227e-001	 1.550574448731318e+001
 1.477927802040291e+000	 2.928171858722059e-001	 1.543709539408919e+001
 1.474886202106543e+000	 3.077712149636254e-001	 1.541866426001503e+001
 1.471683391469234e+000	 3.227388320844039e-001	 1.540371544006767e+001
 1.468318454509097e+000	 3.377176299151375e-001	 1.539110719241429e+001
 1.464790519615566e+000	 3.527051685233442e-001	 1.537973024256218e+001
 1.461098760335022e+000	 3.676989762613686e-001	 1.536851020574775e+001
 1.457242396500875e+000	 3.826965507072358e-001	 1.535640988013560e+001
 1.453220695343789e+000	 3.976953596482062e-001	 1.534243139139954e+001
 1.449032972580285e+000	 4.126928421067173e-001	 1.532561816937851e+001
 1.444678593478009e+000	 4.276864094083155e-001	 1.530505673777312e+001
 1.440156973895912e+000	 4.426734462911082e-001	 1.527987829827873e+001
 1.504083386713946e+000	 2.979993095770399e-001	 1.517829844063653e+001
 1.500987958153399e+000	 3.132179871671365e-001	 1.516333288480733e+001
 1.497728465867564e+000	 3.284504932603852e-001	 1.515231098876612e+001
 1.494303978033006e+000	 3.436943779339137e-001	 1.514403707632845e+001
 1.490713607613841e+000	 3.589471580746027e-001	 1.513735195322671e+001
 1.486956513530291e+000	 3.742063182928812e-001	 1.513113562482582e+001
 1.483031901808774e+000	 3.894693118802305e-001	 1.512430987136635e+001
 1.478939026711766e+000	 4.047335618101468e-001	 1.511584065886761e+001
 1.474677191845686e+000	 4.199964617822379e-001	 1.510474036393365e+001
 1.470245751245001e+000	 4.352553773090560e-001	 1.509006979098736e+001
 1.465644110430824e+000	 4.505076468451837e-001	 1.507093996091454e+001
 1.210771693807061e+000	 3.721653181596841e-001	 1.808066292584015e+001
 1.206829217841571e+000	 3.847575396775871e-001	 1.798482844609054e+001
 1.202745286085772e+000	 3.973398092324930e-001	 1.788629522075428e+001
 1.198519538232249e+000	 4.099098658216918e-001	 1.778480975441737e+001
 1.194151659763825e+000	 4.224654301051314e-001	 1.768013994412860e+001
 1.189641382703130e+000	 4.350042055046847e-001	 1.757207511196247e+001
 1.184988486332486e+000	 4.475238793346628e-001	 1.746042601656160e+001
 1.180192797882715e+000	 4.600221239627187e-001	 1.734502484828849e+001
 1.175254193189512e+000	 4.724965980002161e-001	 1.722572521279409e+001
 1.170172597316046e+000	 4.849449475210771e-001	 1.710240210794404e+001
 1.164947985140473e+000	 4.973648073080526e-001	 1.697495189913348e+001
 1.236259117053800e+000	 3.799996068452375e-001	 1.764830103678856e+001
 1.232233649757977e+000	 3.928569016887678e-001	 1.756522677674179e+001
 1.228063748948146e+000	 4.057040350748470e-001	 1.747980169002080e+001
 1.223749046732216e+000	 4.185386984054039e-001	 1.739173360584240e+001
 1.219289221972249e+000	 4.313585643590141e-001	 1.730075423996086e+001
 1.214684001049800e+000	 4.441612880133066e-001	 1.720661918473289e+001
 1.209933158600961e+000	 4.569445079992766e-001	 1.710910787409707e+001
 1.205036518219666e+000	 4.697058476866244e-001	 1.700802352884912e+001
 1.199993953127882e+000	 4.824429163991847e-001	 1.690319308780612e+001
 1.194805386811314e+000	 4.951533106594304e-001	 1.679446713061401e+001
 1.189470793619292e+000	 5.078346154609772e-001	 1.668171979806338e+001
 1.261746482958037e+000	 3.878338779042281e-001	 1.725654781329148e+001
 1.257638024518648e+000	 4.009562454770290e-001	 1.718381183143966e+001
 1.253382154848216e+000	 4.140682420983951e-001	 1.710913336060890e+001
 1.248978498470000e+000	 4.271675115750019e-001	 1.703218550018473e+001
 1.244426727625320e+000	 4.402516786041618e-001	 1.695266740467906e+001
 1.239726563054677e+000	 4.533183499193709e-001	 1.687030420624278e+001
 1.234877774747946e+000	 4.663651154684180e-001	 1.678484690827138e+001
 1.229880182662189e+000	 4.793895496231639e-001	 1.669607225637382e+001
 1.224733657405657e+000	 4.923892124200253e-001	 1.660378259322202e+001
 1.219438120886602e+000	 5.053616508301388e-001	 1.650780570399053e+001
 1.213993546925534e+000	 5.183044000580986e-001	 1.640799465922982e+001
 1.287233797891179e+000	 3.956681332952001e-001	 1.690094913156774e+001
 1.283042348474234e+000	 4.090555730671776e-001	 1.683659043742380e+001
 1.278700510115135e+000	 4.224324323941558e-001	 1.677073307226872e+001
 1.274207899752516e+000	 4.357963074876533e-001	 1.670301970840024e+001
 1.269564183006969e+000	 4.491447750638160e-001	 1.663312093850519e+001
 1.264769074977957e+000	 4.624753935121033e-001	 1.656073510391136e+001
 1.259822341009157e+000	 4.757857040971966e-001	 1.648558809030400e+001
 1.254723797420769e+000	 4.890732321932149e-001	 1.640743309821013e+001
 1.249473312207339e+000	 5.023354885492570e-001	 1.632605039584141e+001
 1.244070805699674e+000	 5.155699705852225e-001	 1.624124706211199e+001
 1.238516251189468e+000	 5.287741637167839e-001	 1.615285672780626e+001
 1.312721068224635e+000	 4.035023749766975e-001	 1.657750676090537e+001
 1.308446627975386e+000	 4.171548864840204e-001	 1.651998851993527e+001
 1.304018821078061e+000	 4.307966080531482e-001	 1.646142738703508e+001
 1.299437256886679e+000	 4.444250883005265e-001	 1.640144030020576e+001
 1.294701594401127e+000	 4.580378559612176e-001	 1.633967370081881e+001
 1.289811543079843e+000	 4.716324210807296e-001	 1.627580323910751e+001
 1.284766863620316e+000	 4.852062762407214e-001	 1.620953344363445e+001
 1.279567368705895e+000	 4.987568978176555e-001	 1.614059736322585e+001
 1.274212923717429e+000	 5.122817472733993e-001	 1.606875619019599e+001
 1.268703447408290e+000	 5.257782724767012e-001	 1.599379887394614e+001
 1.263038912541362e+000	 5.392439090544005e-001	 1.591554173420886e+001
 1.338208300329813e+000	 4.113366049072643e-001	 1.628246076470551e+001
 1.333850869372756e+000	 4.252541877523638e-001	 1.623080666454234e+001
 1.329337094066145e+000	 4.391607711663916e-001	 1.617838677350257e+001
 1.324666576179405e+000	 4.530538561707893e-001	 1.612496369680396e+001
 1.319838968091726e+000	 4.669309235196080e-001	 1.607016668183301e+001
 1.314853973620533e+000	 4.807894349144758e-001	 1.601365324947878e+001
 1.309711348817139e+000	 4.946268342541015e-001	 1.595511080993508e+001
 1.304410902728050e+000	 5.084405489173637e-001	 1.589425614599113e+001
 1.298952498120429e+000	 5.222279910789710e-001	 1.583083487696433e+001
 1.293336052170214e+000	 5.359865590565953e-001	 1.576462091380050e+001
 1.287561537111484e+000	 5.497136386883157e-001	 1.569541591608387e+001
 1.363695500578122e+000	 4.191708250454448e-001	 1.600717698728748e+001
 1.359255079016994e+000	 4.333534788970149e-001	 1.596201890291077e+001
 1.354655335408544e+000	 4.475249238249043e-001	 1.591638109272068e+001
 1.349895863937609e+000	 4.616826132556096e-001	 1.586982645209798e+001
 1.344976310362695e+000	 4.758239799622282e-001	 1.582196102693996e+001
 1.339896372860226e+000	 4.899464373025678e-001	 1.577243383055189e+001
 1.334655802835345e+000	 5.040473804924456e-001	 1.572093642524250e+001
 1.329254405697723e+000	 5.181241879132170e-001	 1.566727304926142e+001
 1.323692041600839e+000	 5.321742224524918e-001	 1.561137069486848e+001
 1.317968626143207e+000	 5.461948328769254e-001	 1.555300047722705e+001
 1.312084131030102e+000	 5.601833552358968e-001	 1.549195259454783e+001
 1.389182675340970e+000	 4.270050373497829e-001	 1.574824376065965e+001
 1.384659263258752e+000	 4.414527619427804e-001	 1.570912578617782e+001
 1.379973551434412e+000	 4.558890681197056e-001	 1.566989702062514e+001
 1.375125126468206e+000	 4.703113617121550e-001	 1.563008320933366e+001
 1.370113627497968e+000	 4.847170275123194e-001	 1.558925585837816e+001
 1.364938747059123e+000	 4.991034305342312e-001	 1.554703207823897e+001
 1.359600231910653e+000	 5.134679173108632e-001	 1.550307416797491e+001
 1.354097883825400e+000	 5.278078172260935e-001	 1.545708893215103e+001
 1.348431560343163e+000	 5.421204438804806e-001	 1.540882672426286e+001
 1.342601175485032e+000	 5.564030964897108e-001	 1.535808021201380e+001
 1.336606700427484e+000	 5.706530613145109e-001	 1.530468286153026e+001
 1.414669830989763e+000	 4.348392437788227e-001	 1.550574448731318e+001
 1.410063428448682e+000	 4.495520389144668e-001	 1.547248792003981e+001
 1.405291748472902e+000	 4.642532061418142e-001	 1.543945172411816e+001
 1.400354370078112e+000	 4.789401036975940e-001	 1.540612533335961e+001
 1.395250925781475e+000	 4.936100683931229e-001	 1.537204658361535e+001
 1.389981102477423e+000	 5.082604168986921e-001	 1.533680158705863e+001
 1.384544642278781e+000	 5.228884470644629e-001	 1.530002432085300e+001
 1.378941343321566e+000	 5.374914392768713e-001	 1.526139592119171e+001
 1.373171060531900e+000	 5.520666578494572e-001	 1.522064367533756e+001
 1.367233706353451e+000	 5.666113524469723e-001	 1.517753970607323e+001
 1.361129251433898e+000	 5.811227595415255e-001	 1.513189934487683e+001
 1.440156973895912e+000	 4.426734462911082e-001	 1.527987829827873e+001
 1.435467580937434e+000	 4.576513118368814e-001	 1.525255730414980e+001
 1.430609932853170e+000	 4.726173399822491e-001	 1.522573489912209e+001
 1.425583601074242e+000	 4.875688413690944e-001	 1.519886490894582e+001
 1.420388211497145e+000	 5.025031048278797e-001	 1.517145227659603e+001
 1.415023445375325e+000	 5.174173986851759e-001	 1.514305297258057e+001
 1.409489040175448e+000	 5.323089721083543e-001	 1.511327359139566e+001
 1.403784790396708e+000	 5.471750564864277e-001	 1.508177062371393e+001
 1.397910548351551e+000	 5.620128668459404e-001	 1.504824939569522e+001
 1.391866224906227e+000	 5.768196033007297e-001	 1.501246266876698e+001
 1.385651790179613e+000	 5.915924525343077e-001	 1.497420889531955e+001
 1.465644110430824e+000	 4.505076468451837e-001	 1.507093996091454e+001
 1.460871727075660e+000	 4.657505827348306e-001	 1.504985889206605e+001
 1.455928110904371e+000	 4.809814717320294e-001	 1.502948714668464e+001
 1.450812825763512e+000	 4.961975768838239e-001	 1.500924349832914e+001
 1.445525490928912e+000	 5.113961390398313e-001	 1.498860067094766e+001
 1.440065782013028e+000	 5.265743781829089e-001	 1.496708529226680e+001
 1.434433431836373e+000	 5.417294947976459e-001	 1.494427750278246e+001
 1.428628231261313e+000	 5.568586712756410e-001	 1.491981020838442e+001
 1.422650029986620e+000	 5.719590733564495e-001	 1.489336796662301e+001
 1.416498737301121e+000	 5.870278516030030e-001	 1.486468549877538e+001
 1.410174322794896e+000	 6.020621429102250e-001	 1.483354582217412e+001
 1.164947985140473e+000	 4.973648073080526e-001	 1.697495189913348e+001
 1.159581197877747e+000	 5.097519464059583e-001	 1.684365815493759e+001
 1.154071539441347e+000	 5.221058475389500e-001	 1.670884745786774e+001
 1.148419138145507e+000	 5.344241210826426e-001	 1.657057445138832e+001
 1.142624174058487e+000	 5.467043713871074e-001	 1.642891960039025e+001
 1.136686879394964e+000	 5.589441981408801e-001	 1.628398905578493e+001
 1.130607538866382e+000	 5.711411977547047e-001	 1.613591453555241e+001
 1.124386489988285e+000	 5.832929647635357e-001	 1.598485322669293e+001
 1.118024123343679e+000	 5.953970932452810e-001	 1.583098771223435e+001
 1.111520882801578e+000	 6.074511782547065e-001	 1.567452592709948e+001
 1.104877265689896e+000	 6.194528172708822e-001	 1.551570114623897e+001
 1.189470793619292e+000	 5.078346154609772e-001	 1.668171979806339e+001
 1.183991032474813e+000	 5.204825107846713e-001	 1.656528549961467e+001
 1.178365392638336e+000	 5.330964684657114e-001	 1.644551659795229e+001
 1.172594005125170e+000	 5.456740485767645e-001	 1.632240302942192e+001
 1.166677053794102e+000	 5.582128050381114e-001	 1.619596073203003e+001
 1.160614775748049e+000	 5.707102870103701e-001	 1.606623151973192e+001
 1.154407461691780e+000	 5.831640403073666e-001	 1.593328298126476e+001
 1.148055456245717e+000	 5.955716088276521e-001	 1.579720840870179e+001
 1.141559158214848e+000	 6.079305360031093e-001	 1.565812676055963e+001
 1.134919020811867e+000	 6.202383662630417e-001	 1.551618266388589e+001
 1.128135551833708e+000	 6.324926465120909e-001	 1.537154645929349e+001
 1.213993546925534e+000	 5.183044000580986e-001	 1.640799465922982e+001
 1.208400812153459e+000	 5.312130510209823e-001	 1.630470417313406e+001
 1.202659191177848e+000	 5.440870646650543e-001	 1.619828817506974e+001
 1.196768817715077e+000	 5.569239507601439e-001	 1.608868270128881e+001
 1.190729879414451e+000	 5.697212127968530e-001	 1.597584962014659e+001
 1.184542618267112e+000	 5.824763494079926e-001	 1.585977648426501e+001
 1.178207330971136e+000	 5.951868558105830e-001	 1.574047641644633e+001
 1.171724369251810e+000	 6.078502252668817e-001	 1.561798803539416e+001
 1.165094140136081e+000	 6.204639505628590e-001	 1.549237542690183e+001
 1.158317106180301e+000	 6.330255255024672e-001	 1.536372816570354e+001
 1.151393785650396e+000	 6.455324464160297e-001	 1.523216139265276e+001
 1.238516251189468e+000	 5.287741637167839e-001	 1.615285672780626e+001
 1.232810543015708e+000	 5.419435697974288e-001	 1.606122795869047e+001
 1.226952941132905e+000	 5.550776388845086e-001	 1.596669576956154e+001
 1.220943581958496e+000	 5.681738304451133e-001	 1.586915294950133e+001
 1.214782656932294e+000	 5.812295975402648e-001	 1.576851759461394e+001
 1.208470412933654e+000	 5.942423882750677e-001	 1.566473290505496e+001
 1.202007152653947e+000	 6.072096472698342e-001	 1.555776702619977e+001
 1.195393234923308e+000	 6.201288171506310e-001	 1.544761294105123e+001
 1.188629074990625e+000	 6.329973400576118e-001	 1.533428842053410e+001
 1.181715144755887e+000	 6.458126591694798e-001	 1.521783603779245e+001
 1.174651972953994e+000	 6.585722202423398e-001	 1.509832325199938e+001
 1.263038912541362e+000	 5.392439090544005e-001	 1.591554173420886e+001
 1.257220231163583e+000	 5.526740697965494e-001	 1.583430455934830e+001
 1.251246648576530e+000	 5.660681938716050e-001	 1.575038646637598e+001
 1.245118303898696e+000	 5.794236904440049e-001	 1.566364756231990e+001
 1.238835392360393e+000	 5.927379621452803e-001	 1.557397237322968e+001
 1.232398165729178e+000	 6.060084065529144e-001	 1.548126955171307e+001
 1.225806932689711e+000	 6.192324176906022e-001	 1.538547164025609e+001
 1.219062059176956e+000	 6.324073875483049e-001	 1.528653489864355e+001
 1.212163968661729e+000	 6.455307076204506e-001	 1.518443920328359e+001
 1.205113142387636e+000	 6.585997704605783e-001	 1.507918802563561e+001
 1.197910119558531e+000	 6.716119712506629e-001	 1.497100815854388e+001
 1.287561537111484e+000	 5.497136386883157e-001	 1.569541591608387e+001
 1.281629882699106e+000	 5.634045537008822e-001	 1.562349185979994e+001
 1.275540319581744e+000	 5.770587323738733e-001	 1.554909827071502e+001
 1.269292989578943e+000	 5.906735335691515e-001	 1.547207311472576e+001
 1.262888091711506e+000	 6.042463094888311e-001	 1.539227751680244e+001
 1.256325882635189e+000	 6.177744071828526e-001	 1.530959534316712e+001
 1.249606677027924e+000	 6.312551700783681e-001	 1.522393285223196e+001
 1.242730847929497e+000	 6.446859395293100e-001	 1.513521842401665e+001
 1.235698827032637e+000	 6.580640563844562e-001	 1.504340237718275e+001
 1.228511104924556e+000	 6.713868625722594e-001	 1.494861692902668e+001
 1.221168231278044e+000	 6.846517027006408e-001	 1.485273757189889e+001
 1.312084131030102e+000	 5.601833552358968e-001	 1.549195259454783e+001
 1.306039503724299e+000	 5.741350241929648e-001	 1.542843556479473e+001
 1.299833960221570e+000	 5.880492571388442e-001	 1.536263873362889e+001
 1.293467645042504e+000	 6.019233626328854e-001	 1.529438850388851e+001
 1.286940760998396e+000	 6.157546424478506e-001	 1.522353279495559e+001
 1.280253569633189e+000	 6.295403931062016e-001	 1.514994046204490e+001
 1.273406391618082e+000	 6.432779074386127e-001	 1.507350079864400e+001
 1.266399607097675e+000	 6.569644761630513e-001	 1.499412313342013e+001
 1.259233655986598e+000	 6.705973894827110e-001	 1.491183303919156e+001
 1.251909038215656e+000	 6.841739387010215e-001	 1.482823183801337e+001
 1.244426313926563e+000	 6.976914178519144e-001	 1.474388918776181e+001
 1.336606700427484e+000	 5.706530613145109e-001	 1.530468286153026e+001
 1.330449100341185e+000	 5.848654839553354e-001	 1.524884803732463e+001
 1.324127576569028e+000	 5.990397709140478e-001	 1.519086463205092e+001
 1.317642276332648e+000	 6.131731804475389e-001	 1.513058540358028e+001
 1.310993406233822e+000	 6.272629638992715e-001	 1.506785534555787e+001
 1.304181232704681e+000	 6.413063672642813e-001	 1.500253814788527e+001
 1.297206082409683e+000	 6.553006327768172e-001	 1.493451551280846e+001
 1.290068342598234e+000	 6.692430005189354e-001	 1.486372215052504e+001
 1.282768461406858e+000	 6.831307100482967e-001	 1.479144270962787e+001
 1.275306948109946e+000	 6.969610020433622e-001	 1.471828741684697e+001
 1.267684373318120e+000	 7.107311199641255e-001	 1.464420503302215e+001
 1.361129251433898e+000	 5.811227595415255e-001	 1.513189934487683e+001
 1.354858678651786e+000	 5.955959356705326e-001	 1.508382211681814e+001
 1.348421174697141e+000	 6.100302764470145e-001	 1.503342432681360e+001
 1.341816889492642e+000	 6.244229898254444e-001	 1.498062221992863e+001
 1.335046033430547e+000	 6.387712767200264e-001	 1.492536071540377e+001
 1.328108877831169e+000	 6.530723325984108e-001	 1.486760708341817e+001
 1.321005755352224e+000	 6.673233490984624e-001	 1.480729163481834e+001
 1.313737060347918e+000	 6.815215156663675e-001	 1.474533114910517e+001
 1.306303249176666e+000	 6.956640212142953e-001	 1.468243666885960e+001
 1.298704840456433e+000	 7.097480557957786e-001	 1.461848375165408e+001
 1.290942415266750e+000	 7.237708122969158e-001	 1.455340690145382e+001
 1.385651790179613e+000	 5.915924525343077e-001	 1.497420889531955e+001
 1.379268244758125e+000	 6.063263820210936e-001	 1.493348108792740e+001
 1.372714760678931e+000	 6.210207764852744e-001	 1.489031025996256e+001
 1.365991490565752e+000	 6.356727935789341e-001	 1.484462714382562e+001
 1.359098648601329e+000	 6.502795837870480e-001	 1.479639235862133e+001
 1.352036510994155e+000	 6.648382920499099e-001	 1.474559277079307e+001
 1.344805416395201e+000	 6.793460594090302e-001	 1.469287211175718e+001
 1.337405766263471e+000	 6.938000246747536e-001	 1.463919224187084e+001
 1.329838025179267e+000	 7.081973261137887e-001	 1.458447464449802e+001
 1.322102721104127e+000	 7.225351031547689e-001	 1.452851169520313e+001
 1.314200445586484e+000	 7.368104981099263e-001	 1.447120442607711e+001
 1.410174322794896e+000	 6.020621429102250e-001	 1.483354582217412e+001
 1.403677804762223e+000	 6.170568256895567e-001	 1.479982806168086e+001
 1.397008340587419e+000	 6.320112737763581e-001	 1.476347526157801e+001
 1.390166085595247e+000	 6.469225945203407e-001	 1.472444152656247e+001
 1.383151257758930e+000	 6.617878879772692e-001	 1.468271226496397e+001
 1.375964138175143e+000	 6.766042485600979e-001	 1.463863399126259e+001
 1.368605071488112e+000	 6.913687667140008e-001	 1.459321844395162e+001
 1.361074466261639e+000	 7.060785306134997e-001	 1.454641849159323e+001
 1.353372795297910e+000	 7.207306278798588e-001	 1.449816593840386e+001
 1.345500595902038e+000	 7.353221473168310e-001	 1.444845751366836e+001
 1.337458470091355e+000	 7.498501806627994e-001	 1.439735468158537e+001
 1.104877265689896e+000	 6.194528172708822e-001	 1.551570114623897e+001
 1.098092794993187e+000	 6.314013997351550e-001	 1.535293644751676e+001
 1.091169062434710e+000	 6.432927274468235e-001	 1.518457870390412e+001
 1.084106727484178e+000	 6.551244135982918e-001	 1.501070592954455e+001
 1.076906503314615e+000	 6.668940797275553e-001	 1.483141309001509e+001
 1.069569156736019e+000	 6.785993572081285e-001	 1.464858423278440e+001
 1.062095508079932e+000	 6.902378887419132e-001	 1.446404768974560e+001
 1.054486431034654e+000	 7.018073298531413e-001	 1.427801645795560e+001
 1.046742852430854e+000	 7.133053503815100e-001	 1.409072935900727e+001
 1.038865751977465e+000	 7.247296359725971e-001	 1.390245029227414e+001
 1.030856161947795e+000	 7.360778895636447e-001	 1.371346740964477e+001
 1.128135551833708e+000	 6.324926465120909e-001	 1.537154645929349e+001
 1.121208264223476e+000	 6.446927533389900e-001	 1.522240903298057e+001
 1.114138783211110e+000	 6.568344001685658e-001	 1.506697491585917e+001
 1.106927782148541e+000	 6.689151499495939e-001	 1.490545973648231e+001
 1.099575989221505e+000	 6.809325741521235e-001	 1.474020623647193e+001
 1.092084187381794e+000	 6.928842542887643e-001	 1.457257413402268e+001
 1.084453214229405e+000	 7.047677834389823e-001	 1.440286217817092e+001
 1.076683961844281e+000	 7.165807677744921e-001	 1.423140170205330e+001
 1.068777376567416e+000	 7.283208280838213e-001	 1.405855572298518e+001
 1.060734458731179e+000	 7.399856012941009e-001	 1.388471794465600e+001
 1.052556262338826e+000	 7.515727419881261e-001	 1.371031166443174e+001
 1.151393785650396e+000	 6.455324464160297e-001	 1.523216139265276e+001
 1.144323681448046e+000	 6.579840770396939e-001	 1.509570047005784e+001
 1.137108452309784e+000	 6.703760424240129e-001	 1.495259863945781e+001
 1.129748785469733e+000	 6.827058552742500e-001	 1.480533844504932e+001
 1.122245424126297e+000	 6.949710369926212e-001	 1.465500994746235e+001
 1.114599167373023e+000	 7.071691192309458e-001	 1.450196678123430e+001
 1.106810870078322e+000	 7.192976454463669e-001	 1.434660158046612e+001
 1.098881442713736e+000	 7.313541724581945e-001	 1.418934498097232e+001
 1.090811851130529e+000	 7.433362720038976e-001	 1.403066450566290e+001
 1.082603116284461e+000	 7.552415322922724e-001	 1.387106333600709e+001
 1.074256313908682e+000	 7.670675595517769e-001	 1.371107897300350e+001
 1.174651972953994e+000	 6.585722202423398e-001	 1.509832325199938e+001
 1.167439052445210e+000	 6.712753741597765e-001	 1.497386134623343e+001
 1.160078075472602e+000	 6.839176575982479e-001	 1.484471528855212e+001
 1.152569743152447e+000	 6.964965330196067e-001	 1.471182706325459e+001
 1.144914813695786e+000	 7.090094717583353e-001	 1.457557699685171e+001
 1.137114102337887e+000	 7.214539556055635e-001	 1.443639042478028e+001
 1.129168481215533e+000	 7.338274783962134e-001	 1.429473664813080e+001
 1.121078879191826e+000	 7.461275475972879e-001	 1.415112775543097e+001
 1.112846281628262e+000	 7.583516858952986e-001	 1.400611731200997e+001
 1.104471730103942e+000	 7.704974327808040e-001	 1.386029892011639e+001
 1.095956322081866e+000	 7.825623461280227e-001	 1.371430465361126e+001
 1.197910119558531e+000	 6.716119712506629e-001	 1.497100815854388e+001
 1.190554382993286e+000	 6.845666480217496e-001	 1.485982003931659e+001
 1.183047658441432e+000	 6.974592490763552e-001	 1.474426130591096e+001
 1.175390660901376e+000	 7.102871866330096e-001	 1.462471336321992e+001
 1.167584163596768e+000	 7.230478819585515e-001	 1.450160817101389e+001
 1.159628997904562e+000	 7.357387669835083e-001	 1.437542720503760e+001
 1.151526053229886e+000	 7.483572859206673e-001	 1.424670026591890e+001
 1.143276276827363e+000	 7.609008968848122e-001	 1.411600413790775e+001
 1.134880673568683e+000	 7.733670735115833e-001	 1.398396110018000e+001
 1.126340305656252e+000	 7.857533065733875e-001	 1.385123729416218e+001
 1.117656292282877e+000	 7.980571055902893e-001	 1.371854095105808e+001
 1.221168231278044e+000	 6.846517027006408e-001	 1.485273757189889e+001
 1.213669678870589e+000	 6.978579019481238e-001	 1.475416872465718e+001
 1.206017206958142e+000	 7.110008202434178e-001	 1.465103047010399e+001
 1.198211544421214e+000	 7.240778195618056e-001	 1.454373775421658e+001
 1.190253479496037e+000	 7.370862711025564e-001	 1.443276011980857e+001
 1.182143859701229e+000	 7.500235569356701e-001	 1.431862055079271e+001
 1.173883591710230e+000	 7.628870716518743e-001	 1.420189414950511e+001
 1.165473641169157e+000	 7.756742240138078e-001	 1.408320664920232e+001
 1.156915032459861e+000	 7.883824386063120e-001	 1.396323276463307e+001
 1.148208848408022e+000	 8.010091574837155e-001	 1.384269438438405e+001
 1.139356229936217e+000	 8.135518418120015e-001	 1.372235860949989e+001
 1.244426313926563e+000	 6.976914178519144e-001	 1.474388918776181e+001
 1.236784945855437e+000	 7.111491392614100e-001	 1.465668428587233e+001
 1.228986726764600e+000	 7.245423744845198e-001	 1.456477648803619e+001
 1.221032399416653e+000	 7.378684352533408e-001	 1.446860160406765e+001
 1.212922767060388e+000	 7.511246426996362e-001	 1.436865352521357e+001
 1.204658693356066e+000	 7.643083290329400e-001	 1.426548296698521e+001
 1.196241102245413e+000	 7.774168392219808e-001	 1.415969603080840e+001
 1.187670977766017e+000	 7.904475326773144e-001	 1.405195258665112e+001
 1.178949363809866e+000	 8.033977849330436e-001	 1.394296447965292e+001
 1.170077363825882e+000	 8.162649893254801e-001	 1.383349356465583e+001
 1.161056140466386e+000	 8.290465586665842e-001	 1.372434957341621e+001
 1.267684373318120e+000	 7.107311199641255e-001	 1.464420503302215e+001
 1.259900189726144e+000	 7.244403632841190e-001	 1.456711277306299e+001
 1.251956223602675e+000	 7.380839151847439e-001	 1.448522145923287e+001
 1.243853231592387e+000	 7.516590371549613e-001	 1.439897579890304e+001
 1.235592031956618e+000	 7.651630002590770e-001	 1.430888154682660e+001
 1.227173504497251e+000	 7.785930868462080e-001	 1.421550416180794e+001
 1.218598590424284e+000	 7.919465922631326e-001	 1.411946726835199e+001
 1.209868292166755e+000	 8.052208265683716e-001	 1.402145092545061e+001
 1.200983673126766e+000	 8.184131162453378e-001	 1.392218970560654e+001
 1.191945857376462e+000	 8.315208059123731e-001	 1.382247058814907e+001
 1.182756029297883e+000	 8.445412600274632e-001	 1.372313067185855e+001
 1.290942415266750e+000	 7.237708122969158e-001	 1.455340690145382e+001
 1.283015416261027e+000	 7.377315773387618e-001	 1.448517776300767e+001
 1.274925703214236e+000	 7.516254457291739e-001	 1.441206453638367e+001
 1.266674046653109e+000	 7.654496287140142e-001	 1.433450951122983e+001
 1.258261279851520e+000	 7.792013472901653e-001	 1.425301850934176e+001
 1.249688298752963e+000	 7.928778339463646e-001	 1.416815947038811e+001
 1.240956061835691e+000	 8.064763344074757e-001	 1.408056082907823e+001
 1.232065589920179e+000	 8.199941093800192e-001	 1.399090968587586e+001
 1.223017965918630e+000	 8.334284362967542e-001	 1.389994977438355e+001
 1.213814334526392e+000	 8.467766110580868e-001	 1.380847922956077e+001
 1.204455901855211e+000	 8.600359497680635e-001	 1.371734816198470e+001
 1.314200445586484e+000	 7.368104981099263e-001	 1.447120442607711e+001
 1.306130631238402e+000	 7.510227847478495e-001	 1.441058890025254e+001
 1.297895171341149e+000	 7.651669695028937e-001	 1.434499075786541e+001
 1.289494850303512e+000	 7.792402133778452e-001	 1.427483915054529e+001
 1.280930516411890e+000	 7.932396873021873e-001	 1.420062880205904e+001
 1.272203081751379e+000	 8.071625739043004e-001	 1.412291853834271e+001
 1.263313522068484e+000	 8.210060692871558e-001	 1.404232959563594e+001
 1.254262876575102e+000	 8.347673848052973e-001	 1.395954370871148e+001
 1.245052247693526e+000	 8.484437488408523e-001	 1.387530098229712e+001
 1.235682800742303e+000	 8.620324085763136e-001	 1.379039754990955e+001
 1.226155763562868e+000	 8.755306317618103e-001	 1.370568302545603e+001
 1.337458470091355e+000	 7.498501806627994e-001	 1.439735468158538e+001
 1.329245840436585e+000	 7.643139888338926e-001	 1.434305059711981e+001
 1.320864633725284e+000	 7.787084898909862e-001	 1.428368003135284e+001
 1.312315648248289e+000	 7.930307945938000e-001	 1.421959747431702e+001
 1.303599747304523e+000	 8.072780238044296e-001	 1.415127596466226e+001
 1.294717859120680e+000	 8.214473102909055e-001	 1.407925423362129e+001
 1.285670976711510e+000	 8.355358005343189e-001	 1.400413495956755e+001
 1.276460157680332e+000	 8.495406565372459e-001	 1.392658278925043e+001
 1.267086523959525e+000	 8.634590576311914e-001	 1.384732212871916e+001
 1.257551261490825e+000	 8.772882022807456e-001	 1.376713470815955e+001
 1.247855619845356e+000	 8.910253098821287e-001	 1.368685692609562e+001
 1.030856161947795e+000	 7.360778895636447e-001	 1.371346740964477e+001
 1.022715166525019e+000	 7.473478326137195e-001	 1.352242434865011e+001
 1.014443900524439e+000	 7.585372058120380e-001	 1.332808924768033e+001
 1.006043549818665e+000	 7.696437712595147e-001	 1.313096442957910e+001
 9.975153511208504e-001	 7.806653141634373e-001	 1.293156416224398e+001
 9.888605914263493e-001	 7.915996442727785e-001	 1.273041328107416e+001
 9.800806074060003e-001	 8.024445972974047e-001	 1.252804577236650e+001
 9.711767847515960e-001	 8.131980363093015e-001	 1.232500332338216e+001
 9.621505574741556e-001	 8.238578531239378e-001	 1.212183384508091e+001
 9.530034071557008e-001	 8.344219696599167e-001	 1.191908997376372e+001
 9.437368621553292e-001	 8.448883392750972e-001	 1.171732755807900e+001
 1.052556262338826e+000	 7.515727419881261e-001	 1.371031166443174e+001
 1.044243894396206e+000	 7.630799236604066e-001	 1.353381000896450e+001
 1.035798513607119e+000	 7.745048394403977e-001	 1.335372600039154e+001
 1.027221330807447e+000	 7.858452043199752e-001	 1.317057247464959e+001
 1.018513608743844e+000	 7.970987568837924e-001	 1.298487203474747e+001
 1.009676661503627e+000	 8.082632607748014e-001	 1.279715555389402e+001
 1.000711853895297e+000	 8.193365061433413e-001	 1.260796064026069e+001
 9.916206007802294e-001	 8.303163110778581e-001	 1.241783006964300e+001
 9.824043663561701e-001	 8.412005230153463e-001	 1.222731019258426e+001
 9.730646633932649e-001	 8.519870201296238e-001	 1.203694932279223e+001
 9.636030524234189e-001	 8.626737126955777e-001	 1.184729611391282e+001
 1.074256313908682e+000	 7.670675595517769e-001	 1.371107897300350e+001
 1.065772573831665e+000	 7.788119793124742e-001	 1.354888358553717e+001
 1.057153078645655e+000	 7.904724371441629e-001	 1.338262470997833e+001
 1.048399064149761e+000	 8.020466009297870e-001	 1.321283542747334e+001
 1.039511819124084e+000	 8.135321626314671e-001	 1.304005773617521e+001
 1.030492684747856e+000	 8.249268397862400e-001	 1.286484091526451e+001
 1.021343053967182e+000	 8.362283769850172e-001	 1.268773984839799e+001
 1.012064370812964e+000	 8.474345473328055e-001	 1.250931331343951e+001
 1.002658129669613e+000	 8.585431538882246e-001	 1.233012224566037e+001
 9.931258744953387e-001	 8.695520310804036e-001	 1.215072798189818e+001
 9.834691979947897e-001	 8.804590461013546e-001	 1.197169049342656e+001
 1.095956322081866e+000	 7.825623461280227e-001	 1.371430465361125e+001
 1.087301210213081e+000	 7.945440035026687e-001	 1.356591616567877e+001
 1.078507600978236e+000	 8.064400029149779e-001	 1.341284489531483e+001
 1.069576755139626e+000	 8.182479651390546e-001	 1.325565351386183e+001
 1.060509987510751e+000	 8.299655355145810e-001	 1.309491404468516e+001
 1.051308666362708e+000	 8.415903854727679e-001	 1.293120606827142e+001
 1.041974212779163e+000	 8.531202140451907e-001	 1.276511488166404e+001
 1.032508099960486e+000	 8.645527493535050e-001	 1.259722961972709e+001
 1.022911852477707e+000	 8.758857500780444e-001	 1.242814134610943e+001
 1.013187045477039e+000	 8.871170069033347e-001	 1.225844112212493e+001
 1.003335303835817e+000	 8.982443439385991e-001	 1.208871806206919e+001
 1.117656292282877e+000	 7.980571055902893e-001	 1.371854095105808e+001
 1.108829808922140e+000	 8.102760001637359e-001	 1.358321137136359e+001
 1.099862085943054e+000	 8.224075407444853e-001	 1.344248996437149e+001
 1.090754409071060e+000	 8.344493009978826e-001	 1.329697799016461e+001
 1.081508119153021e+000	 8.463988796412525e-001	 1.314728774296398e+001
 1.072124611551856e+000	 8.582539020000586e-001	 1.299404057743733e+001
 1.062605335488745e+000	 8.700120215466197e-001	 1.283786488136866e+001
 1.052951793333486e+000	 8.816709214193184e-001	 1.267939400286584e+001
 1.043165539843673e+000	 8.932283159202766e-001	 1.251926414072129e+001
 1.033248181353480e+000	 9.046819519894958e-001	 1.235811220694065e+001
 1.023201374912877e+000	 9.160296106534807e-001	 1.219657367080837e+001
 1.139356229936217e+000	 8.135518418120015e-001	 1.372235860949989e+001
 1.130358375340526e+000	 8.260079732284229e-001	 1.359910540501861e+001
 1.121216538878298e+000	 8.383750546243289e-001	 1.346970611173107e+001
 1.111932031238083e+000	 8.506506125563763e-001	 1.333480926718131e+001
 1.102506219300071e+000	 8.628321991195993e-001	 1.319507733879041e+001
 1.092940525518970e+000	 8.749173935337853e-001	 1.305118455143614e+001
 1.083236427253435e+000	 8.869038037120627e-001	 1.290381465052097e+001
 1.073395456042649e+000	 8.987890678096056e-001	 1.275365860944050e+001
 1.063419196830736e+000	 9.105708557503934e-001	 1.260141229087203e+001
 1.053309287139780e+000	 9.222468707299641e-001	 1.244777407176746e+001
 1.043067416192346e+000	 9.338148506921709e-001	 1.229344244235222e+001
 1.161056140466386e+000	 8.290465586665842e-001	 1.372434957341620e+001
 1.151886914849926e+000	 8.417399266294754e-001	 1.361196840768827e+001
 1.142570965122156e+000	 8.543425485461513e-001	 1.349268266874428e+001
 1.133109626934713e+000	 8.668519038646394e-001	 1.336719658346339e+001
 1.123504293201081e+000	 8.792654980577411e-001	 1.323623238869561e+001
 1.113756413467723e+000	 8.915808642396221e-001	 1.310052794008396e+001
 1.103867493230738e+000	 9.037955647642769e-001	 1.296083424258610e+001
 1.093839093198666e+000	 9.159071928037287e-001	 1.281791291239238e+001
 1.083672828502116e+000	 9.279133739038656e-001	 1.267253358052538e+001
 1.073370367851056e+000	 9.398117675158186e-001	 1.252547124894914e+001
 1.062933432640599e+000	 9.516000685008400e-001	 1.237750361050539e+001
 1.182756029297883e+000	 8.445412600274632e-001	 1.372313067185855e+001
 1.173415432832025e+000	 8.574718642996397e-001	 1.362020696102252e+001
 1.163925370012821e+000	 8.703100265015967e-001	 1.350965371975565e+001
 1.154287201454969e+000	 8.830531789727772e-001	 1.339223902900839e+001
 1.144502346105226e+000	 8.956987805637957e-001	 1.326875421882446e+001
 1.134572280601786e+000	 9.082443182832425e-001	 1.314001123827295e+001
 1.124498538578164e+000	 9.206873089260210e-001	 1.300683993034603e+001
 1.114282709912222e+000	 9.330253006810482e-001	 1.287008522235396e+001
 1.103926439921037e+000	 9.452558747161652e-001	 1.273060424303102e+001
 1.093431428502421e+000	 9.573766467381373e-001	 1.258926337819747e+001
 1.082799429224013e+000	 9.693852685256590e-001	 1.244693527739864e+001
 1.204455901855211e+000	 8.600359497680635e-001	 1.371734816198470e+001
 1.194943934668507e+000	 8.732037901716623e-001	 1.362226758884592e+001
 1.185279758888481e+000	 8.862774924823083e-001	 1.351890082473812e+001
 1.175464760092871e+000	 8.992544419308942e-001	 1.340808774904918e+001
 1.165500383261686e+000	 9.121320507458814e-001	 1.329069786679578e+001
 1.155388132124831e+000	 9.249077598303189e-001	 1.316762741941682e+001
 1.145129568453215e+000	 9.375790404200531e-001	 1.303979638081610e+001
 1.134726311294007e+000	 9.501433957209261e-001	 1.290814535007164e+001
 1.124180036150719e+000	 9.625983625227634e-001	 1.277363235301609e+001
 1.113492474108993e+000	 9.749415127879983e-001	 1.263722956562730e+001
 1.102665410908964e+000	 9.871704552127985e-001	 1.249991997284069e+001
 1.226155763562868e+000	 8.755306317618103e-001	 1.370568302545603e+001
 1.216472425741059e+000	 8.889357081782895e-001	 1.361664113450299e+001
 1.206634137087326e+000	 9.022449504799290e-001	 1.351875671129534e+001
 1.196642308142437e+000	 9.154556967890949e-001	 1.341294918176717e+001
 1.186498409919638e+000	 9.285653127121178e-001	 1.330017509332200e+001
 1.176203973240529e+000	 9.415711930465260e-001	 1.318142494611323e+001
 1.165760588013400e+000	 9.544707634691313e-001	 1.305771988682925e+001
 1.155169902454707e+000	 9.672614822027226e-001	 1.293010827733706e+001
 1.144433622254387e+000	 9.799408416591322e-001	 1.279966215144414e+001
 1.133553509685888e+000	 9.925063700564804e-001	 1.266747357388806e+001
 1.122531382661828e+000	 1.004955633008429e+000	 1.253465091644638e+001
 1.247855619845356e+000	 8.910253098821287e-001	 1.368685692609562e+001
 1.238000911431365e+000	 9.046676222522669e-001	 1.360186790741330e+001
 1.227988509947546e+000	 9.182124044861023e-001	 1.350760981807121e+001
 1.217819850897685e+000	 9.316569475974837e-001	 1.340508920410957e+001
 1.207496431328260e+000	 9.449985705706225e-001	 1.329535833340512e+001
 1.197019809152552e+000	 9.582346220975364e-001	 1.317951172693135e+001
 1.186391602416225e+000	 9.713624822960134e-001	 1.305868252669614e+001
 1.175613488505012e+000	 9.843795644057992e-001	 1.293403871369840e+001
 1.164687203295262e+000	 9.972833164607429e-001	 1.280677919028413e+001
 1.153614540248221e+000	 1.010071222934661e+000	 1.267812974225998e+001
 1.142397349448981e+000	 1.022740806358721e+000	 1.254933367705836e+001
 9.437368621553292e-001	 8.448883392750972e-001	 1.171732755807900e+001
 9.343539132487400e-001	 8.552534008771232e-001	 1.151422184342420e+001
 9.248547987507910e-001	 8.655167534262337e-001	 1.130747656265426e+001
 9.152411822021542e-001	 8.756764540435483e-001	 1.109778207407803e+001
 9.055147702627122e-001	 8.857305963593138e-001	 1.088582710801836e+001
 8.956773117034881e-001	 8.956773117034879e-001	 1.067229708680203e+001
 8.857305963593135e-001	 9.055147702627118e-001	 1.045787247173985e+001
 8.756764540435483e-001	 9.152411822021546e-001	 1.024322714439617e+001
 8.655167534262336e-001	 9.248547987507910e-001	 1.002902682934294e+001
 8.552534008771232e-001	 9.343539132487404e-001	 9.815927565447282e+000
 8.448883392750972e-001	 9.437368621553289e-001	 9.604574232550156e+000
 9.636030524234189e-001	 8.626737126955777e-001	 1.184729611391282e+001
 9.540225871798312e-001	 8.732569646578550e-001	 1.165602398532887e+001
 9.443235109940164e-001	 8.837363665345823e-001	 1.146084146203944e+001
 9.345075224251110e-001	 8.941099345481917e-001	 1.126243416115860e+001
 9.245763640591428e-001	 9.043757221987769e-001	 1.106148615801282e+001
 9.145318214797459e-001	 9.145318214797458e-001	 1.085867819546801e+001
 9.043757221987767e-001	 9.245763640591429e-001	 1.065468592097284e+001
 8.941099345481919e-001	 9.345075224251110e-001	 1.045017815932346e+001
 8.837363665345825e-001	 9.443235109940160e-001	 1.024581522905553e+001
 8.732569646578552e-001	 9.540225871798311e-001	 1.004224731022221e+001
 8.626737126955777e-001	 9.636030524234188e-001	 9.840112871119235e+000
 9.834691979947897e-001	 8.804590461013546e-001	 1.197169049342656e+001
 9.736912168585270e-001	 8.912604879328961e-001	 1.179075355281747e+001
 9.637921794347112e-001	 9.019559386510658e-001	 1.160568739164229e+001
 9.537738193008559e-001	 9.125433735797032e-001	 1.141716975212243e+001
 9.436379149690517e-001	 9.230208060888488e-001	 1.122587653453152e+001
 9.333862888354512e-001	 9.333862888354511e-001	 1.103247989553571e+001
 9.230208060888487e-001	 9.436379149690515e-001	 1.083764637549081e+001
 9.125433735797034e-001	 9.537738193008564e-001	 1.064203506344789e+001
 9.019559386510658e-001	 9.637921794347114e-001	 1.044629580852611e+001
 8.912604879328957e-001	 9.736912168585270e-001	 1.025106748615952e+001
 8.804590461013545e-001	 9.834691979947897e-001	 1.005697632752638e+001
 1.003335303835817e+000	 8.982443439385991e-001	 1.208871806206919e+001
 9.933598072018451e-001	 9.092639752029758e-001	 1.191682738479690e+001
 9.832608089399147e-001	 9.201754743304356e-001	 1.174062779880627e+001
 9.730400776458450e-001	 9.309767757463133e-001	 1.156078664665425e+001
 9.626994277577085e-001	 9.416658526906770e-001	 1.137796875804761e+001
 9.522407184841031e-001	 9.522407184841031e-001	 1.119283443553144e+001
 9.416658526906770e-001	 9.626994277577085e-001	 1.100603747083600e+001
 9.309767757463132e-001	 9.730400776458451e-001	 1.081822320142692e+001
 9.201754743304355e-001	 9.832608089399147e-001	 1.063002661671384e+001
 9.092639752029756e-001	 9.933598072018450e-001	 1.044207052322454e+001
 8.982443439385988e-001	 1.003335303835817e+000	 1.025496377784153e+001
 1.023201374912877e+000	 9.160296106534807e-001	 1.219657367080837e+001
 1.013028363126802e+000	 9.272674309688241e-001	 1.203262764115626e+001
 1.002729404376667e+000	 9.383949781274455e-001	 1.186422029254806e+001
 9.923063022765317e-001	 9.494101456562505e-001	 1.169200662838049e+001
 9.817609071903852e-001	 9.603108666654103e-001	 1.151663811282673e+001
 9.710951151391997e-001	 9.710951151391994e-001	 1.133876054086215e+001
 9.603108666654103e-001	 9.817609071903853e-001	 1.115901194105427e+001
 9.494101456562506e-001	 9.923063022765318e-001	 1.097802052150701e+001
 9.383949781274457e-001	 1.002729404376667e+000	 1.079640266926489e+001
 9.272674309688241e-001	 1.013028363126802e+000	 1.061476101333437e+001
 9.160296106534808e-001	 1.023201374912877e+000	 1.043368256126525e+001
 1.043067416192346e+000	 9.338148506921709e-001	 1.229344244235222e+001
 1.032696889550414e+000	 9.452708597311709e-001	 1.213650640117989e+001
 1.022197970612008e+000	 9.566144545968488e-001	 1.197497293545915e+001
 1.011572498009371e+000	 9.678434879177446e-001	 1.180948333477828e+001
 1.000822358032352e+000	 9.789558526741965e-001	 1.164067398272123e+001
 9.899494835142406e-001	 9.899494835142404e-001	 1.146917410686352e+001
 9.789558526741967e-001	 1.000822358032352e+000	 1.129560356398466e+001
 9.678434879177446e-001	 1.011572498009371e+000	 1.112057067178853e+001
 9.566144545968488e-001	 1.022197970612008e+000	 1.094467009834763e+001
 9.452708597311709e-001	 1.032696889550413e+000	 1.076848082033887e+001
 9.338148506921710e-001	 1.043067416192346e+000	 1.059256416091778e+001
 1.062933432640599e+000	 9.516000685008400e-001	 1.237750361050539e+001
 1.052365391389698e+000	 9.632742659907464e-001	 1.222679110939563e+001
 1.041666512512977e+000	 9.748339082933978e-001	 1.207135118910367e+001
 1.030838669660818e+000	 9.862768071390247e-001	 1.191181059805559e+001
 1.019883785048881e+000	 9.976008153781840e-001	 1.174878948646596e+001
 1.008803828322724e+000	 1.008803828322724e+000	 1.158289903056821e+001
 9.976008153781842e-001	 1.019883785048881e+000	 1.141473909479777e+001
 9.862768071390249e-001	 1.030838669660818e+000	 1.124489594418543e+001
 9.748339082933980e-001	 1.041666512512977e+000	 1.107394001915179e+001
 9.632742659907462e-001	 1.052365391389697e+000	 1.090242378474617e+001
 9.516000685008400e-001	 1.062933432640599e+000	 1.073087966614925e+001
 1.082799429224013e+000	 9.693852685256590e-001	 1.244693527739864e+001
 1.072033873561670e+000	 9.812776542482794e-001	 1.230179076001603e+001
 1.061135034946614e+000	 9.930533437718464e-001	 1.215178542897903e+001
 1.050104822047326e+000	 1.004710107928321e+000	 1.199753119651215e+001
 1.038945193005243e+000	 1.016245759438521e+000	 1.183963137400943e+001
 1.027658154278150e+000	 1.027658154278149e+000	 1.167867816337775e+001
 1.016245759438521e+000	 1.038945193005243e+000	 1.151525018928983e+001
 1.004710107928321e+000	 1.050104822047327e+000	 1.134991008563985e+001
 9.930533437718467e-001	 1.061135034946614e+000	 1.118320214943781e+001
 9.812776542482794e-001	 1.072033873561670e+000	 1.101565007523657e+001
 9.693852685256590e-001	 1.082799429224013e+000	 1.084775478295580e+001
 1.102665410908964e+000	 9.871704552127985e-001	 1.249991997284069e+001
 1.091702340983348e+000	 9.992810290045007e-001	 1.235980272683386e+001
 1.080603542779960e+000	 1.011272765586947e+000	 1.221467895721920e+001
 1.069370959985351e+000	 1.023143394893862e+000	 1.206514596462429e+001
 1.058006586666708e+000	 1.034890689516356e+000	 1.191179015096992e+001
 1.046512466094015e+000	 1.046512466094015e+000	 1.175517937207165e+001
 1.034890689516356e+000	 1.058006586666708e+000	 1.159588531823655e+001
 1.023143394893862e+000	 1.069370959985352e+000	 1.143443099334306e+001
 1.011272765586948e+000	 1.080603542779960e+000	 1.127133821329133e+001
 9.992810290045006e-001	 1.091702340983348e+000	 1.110710023152067e+001
 9.871704552127985e-001	 1.102665410908964e+000	 1.094218444950212e+001
 1.122531382661828e+000	 1.004955633008429e+000	 1.253465091644638e+001
 1.111370798571747e+000	 1.017284394760140e+000	 1.239911462257660e+001
 1.100072040880052e+000	 1.029492178293453e+000	 1.225841131684748e+001
 1.088637088291348e+000	 1.041576672643878e+000	 1.211311843650622e+001
 1.077067970798547e+000	 1.053535610272836e+000	 1.196380592766345e+001
 1.065366768483820e+000	 1.065366768483820e+000	 1.181102745838607e+001
 1.053535610272836e+000	 1.077067970798547e+000	 1.165531766443687e+001
 1.041576672643877e+000	 1.088637088291348e+000	 1.149718945781750e+001
 1.029492178293453e+000	 1.100072040880052e+000	 1.133713141368383e+001
 1.017284394760140e+000	 1.111370798571748e+000	 1.117560525107379e+001
 1.004955633008429e+000	 1.122531382661828e+000	 1.101304710569002e+001
 1.142397349448981e+000	 1.022740806358721e+000	 1.254933367705836e+001
 1.131039251243886e+000	 1.035287756015926e+000	 1.241803509403374e+001
 1.119540534113931e+000	 1.047711586446118e+000	 1.228136841273207e+001
 1.107903211781769e+000	 1.060009945786597e+000	 1.213990441235137e+001
 1.096129350166033e+000	 1.072180526369110e+000	 1.199419755362910e+001
 1.084221066161063e+000	 1.084221066161063e+000	 1.184478301461107e+001
 1.072180526369110e+000	 1.096129350166033e+000	 1.169217377682514e+001
 1.060009945786597e+000	 1.107903211781770e+000	 1.153685777873806e+001
 1.047711586446118e+000	 1.119540534113932e+000	 1.137929515336647e+001
 1.035287756015926e+000	 1.131039251243886e+000	 1.121991556679343e+001
 1.022740806358721e+000	 1.142397349448981e+000	 1.105911567411186e+001
 8.448883392750972e-001	 9.437368621553289e-001	 9.604574232550156e+000
 8.344219696599167e-001	 9.530034071557008e-001	 9.393071965048252e+000
 8.238578531239381e-001	 9.621505574741556e-001	 9.179510066908890e+000
 8.131980363093013e-001	 9.711767847515960e-001	 8.964393633499201e+000
 8.024445972974045e-001	 9.800806074060000e-001	 8.748210747512886e+000
 7.915996442727785e-001	 9.888605914263495e-001	 8.531431596800788e+000
 7.806653141634374e-001	 9.975153511208504e-001	 8.314507684620132e+000
 7.696437712595143e-001	 1.006043549818665e+000	 8.097871136192529e+000
 7.585372058120381e-001	 1.014443900524439e+000	 7.881934104966110e+000
 7.473478326137194e-001	 1.022715166525019e+000	 7.667088281459020e+000
 7.360778895636446e-001	 1.030856161947795e+000	 7.453704507022511e+000
 8.626737126955777e-001	 9.636030524234188e-001	 9.840112871119235e+000
 8.519870201296237e-001	 9.730646633932647e-001	 9.637444187175987e+000
 8.412005230153468e-001	 9.824043663561702e-001	 9.432249375474251e+000
 8.303163110778579e-001	 9.916206007802297e-001	 9.225018441458264e+000
 8.193365061433412e-001	 1.000711853895297e+000	 9.016224605986000e+000
 8.082632607748013e-001	 1.009676661503627e+000	 8.806323365025321e+000
 7.970987568837924e-001	 1.018513608743844e+000	 8.595751647079753e+000
 7.858452043199751e-001	 1.027221330807447e+000	 8.384927072745400e+000
 7.745048394403975e-001	 1.035798513607119e+000	 8.174247320270482e+000
 7.630799236604067e-001	 1.044243894396206e+000	 7.964089600430966e+000
 7.515727419881260e-001	 1.052556262338826e+000	 7.754810243450982e+000
 8.804590461013545e-001	 9.834691979947897e-001	 1.005697632752638e+001
 8.695520310804036e-001	 9.931258744953385e-001	 9.862000200035942e+000
 8.585431538882248e-001	 1.002658129669613e+000	 9.664101970602248e+000
 8.474345473328057e-001	 1.012064370812964e+000	 9.463775625374620e+000
 8.362283769850171e-001	 1.021343053967182e+000	 9.261497863659935e+000
 8.249268397862399e-001	 1.030492684747855e+000	 9.057727059981840e+000
 8.135321626314672e-001	 1.039511819124085e+000	 8.852902330963607e+000
 8.020466009297869e-001	 1.048399064149761e+000	 8.647442712069013e+000
 7.904724371441629e-001	 1.057153078645654e+000	 8.441746448662578e+000
 7.788119793124740e-001	 1.065772573831665e+000	 8.236190405242873e+000
 7.670675595517766e-001	 1.074256313908682e+000	 8.031129596069395e+000
 8.982443439385988e-001	 1.003335303835817e+000	 1.025496377784153e+001
 8.871170069033352e-001	 1.013187045477039e+000	 1.006664342419787e+001
 8.758857500780446e-001	 1.022911852477707e+000	 9.875057078278932e+000
 8.645527493535050e-001	 1.032508099960486e+000	 9.680720926645730e+000
 8.531202140451906e-001	 1.041974212779163e+000	 9.484132651971782e+000
 8.415903854727679e-001	 1.051308666362708e+000	 9.285770257871961e+000
 8.299655355145811e-001	 1.060509987510751e+000	 9.086091007418039e+000
 8.182479651390547e-001	 1.069576755139626e+000	 8.885530481129949e+000
 8.064400029149780e-001	 1.078507600978236e+000	 8.684501759611640e+000
 7.945440035026685e-001	 1.087301210213081e+000	 8.483394735337583e+000
 7.825623461280228e-001	 1.095956322081866e+000	 8.282575557403261e+000
 9.160296106534808e-001	 1.023201374912877e+000	 1.043368256126525e+001
 9.046819519894961e-001	 1.033248181353480e+000	 1.025107265492679e+001
 8.932283159202767e-001	 1.043165539843673e+000	 1.006488821004556e+001
 8.816709214193184e-001	 1.052951793333486e+000	 9.875685075191329e+000
 8.700120215466197e-001	 1.062605335488745e+000	 9.683998677114644e+000
 8.582539020000589e-001	 1.072124611551856e+000	 9.490342668527550e+000
 8.463988796412522e-001	 1.081508119153020e+000	 9.295207700184637e+000
 8.344493009978825e-001	 1.090754409071060e+000	 9.099060323939685e+000
 8.224075407444851e-001	 1.099862085943054e+000	 8.902342032774556e+000
 8.102760001637358e-001	 1.108829808922140e+000	 8.705468443076219e+000
 7.980571055902892e-001	 1.117656292282877e+000	 8.508828623674003e+000
 9.338148506921710e-001	 1.043067416192346e+000	 1.059256416091779e+001
 9.222468707299640e-001	 1.053309287139780e+000	 1.041479878750133e+001
 9.105708557503933e-001	 1.063419196830736e+000	 1.023317046178100e+001
 8.987890678096057e-001	 1.073395456042650e+000	 1.004829148354846e+001
 8.869038037120626e-001	 1.083236427253435e+000	 9.860751124409871e+000
 8.749173935337853e-001	 1.092940525518970e+000	 9.671114058341106e+000
 8.628321991195993e-001	 1.102506219300071e+000	 9.479918928895879e+000
 8.506506125563762e-001	 1.111932031238083e+000	 9.287677060761428e+000
 8.383750546243285e-001	 1.121216538878297e+000	 9.094871322615990e+000
 8.260079732284228e-001	 1.130358375340526e+000	 8.901955147450876e+000
 8.135518418120015e-001	 1.139356229936217e+000	 8.709351715684546e+000
 9.516000685008400e-001	 1.062933432640599e+000	 1.073087966614925e+001
 9.398117675158186e-001	 1.073370367851056e+000	 1.055716092371167e+001
 9.279133739038658e-001	 1.083672828502116e+000	 1.037929711127683e+001
 9.159071928037287e-001	 1.093839093198666e+000	 1.019797317617506e+001
 9.037955647642770e-001	 1.103867493230739e+000	 1.001384775392909e+001
 8.915808642396224e-001	 1.113756413467723e+000	 9.827551340920243e+000
 8.792654980577412e-001	 1.123504293201081e+000	 9.639684617786417e+000
 8.668519038646394e-001	 1.133109626934713e+000	 9.450816932406013e+000
 8.543425485461513e-001	 1.142570965122156e+000	 9.261484950511953e+000
 8.417399266294754e-001	 1.151886914849926e+000	 9.072191481113848e+000
 8.290465586665842e-001	 1.161056140466386e+000	 8.883404482987077e+000
 9.693852685256590e-001	 1.082799429224013e+000	 1.084775478295580e+001
 9.573766467381373e-001	 1.093431428502421e+000	 1.067734193900839e+001
 9.452558747161655e-001	 1.103926439921036e+000	 1.050249560465707e+001
 9.330253006810483e-001	 1.114282709912222e+000	 1.032398905217657e+001
 9.206873089260209e-001	 1.124498538578164e+000	 1.014256529122454e+001
 9.082443182832425e-001	 1.134572280601786e+000	 9.958934942344122e+000
 8.956987805637957e-001	 1.144502346105226e+000	 9.773774276993260e+000
 8.830531789727772e-001	 1.154287201454969e+000	 9.587723434258995e+000
 8.703100265015967e-001	 1.163925370012821e+000	 9.401384823530815e+000
 8.574718642996397e-001	 1.173415432832025e+000	 9.215321721458249e+000
 8.445412600274632e-001	 1.182756029297883e+000	 9.030057070508864e+000
 9.871704552127985e-001	 1.102665410908964e+000	 1.094218444950213e+001
 9.749415127879983e-001	 1.113492474108992e+000	 1.077438357832992e+001
 9.625983625227639e-001	 1.124180036150719e+000	 1.060184300872388e+001
 9.501433957209258e-001	 1.134726311294006e+000	 1.042543956552583e+001
 9.375790404200532e-001	 1.145129568453215e+000	 1.024601520206752e+001
 9.249077598303189e-001	 1.155388132124830e+000	 1.006437453250479e+001
 9.121320507458818e-001	 1.165500383261687e+000	 9.881282548176955e+000
 8.992544419308943e-001	 1.175464760092871e+000	 9.697462529607464e+000
 8.862774924823080e-001	 1.185279758888481e+000	 9.513594164796565e+000
 8.732037901716623e-001	 1.194943934668507e+000	 9.330311883415730e+000
 8.600359497680634e-001	 1.204455901855211e+000	 9.148203415409506e+000
 1.004955633008429e+000	 1.122531382661828e+000	 1.101304710569002e+001
 9.925063700564805e-001	 1.133553509685887e+000	 1.084720113901539e+001
 9.799408416591326e-001	 1.144433622254387e+000	 1.067628099540871e+001
 9.672614822027223e-001	 1.155169902454707e+000	 1.050128189495215e+001
 9.544707634691311e-001	 1.165760588013400e+000	 1.032315892751715e+001
 9.415711930465260e-001	 1.176203973240529e+000	 1.014282420107395e+001
 9.285653127121181e-001	 1.186498409919638e+000	 9.961144193220529e+000
 9.154556967890950e-001	 1.196642308142436e+000	 9.778937319163170e+000
 9.022449504799286e-001	 1.206634137087326e+000	 9.596971728328619e+000
 8.889357081782892e-001	 1.216472425741059e+000	 9.415963340649814e+000
 8.755306317618103e-001	 1.226155763562868e+000	 9.236574132356287e+000
 1.022740806358721e+000	 1.142397349448981e+000	 1.105911567411186e+001
 1.010071222934661e+000	 1.153614540248221e+000	 1.089459779109568e+001
 9.972833164607429e-001	 1.164687203295261e+000	 1.072463041531116e+001
 9.843795644057992e-001	 1.175613488505011e+000	 1.055034466564674e+001
 9.713624822960134e-001	 1.186391602416225e+000	 1.037282264503424e+001
 9.582346220975365e-001	 1.197019809152552e+000	 1.019309714571759e+001
 9.449985705706224e-001	 1.207496431328260e+000	 1.001214859381408e+001
 9.316569475974839e-001	 1.217819850897686e+000	 9.830902232989946e+000
 9.182124044861019e-001	 1.227988509947546e+000	 9.650225561119619e+000
 9.046676222522668e-001	 1.238000911431365e+000	 9.470926032556791e+000
 8.910253098821288e-001	 1.247855619845356e+000	 9.293749037318282e+000
 7.360778895636446e-001	 1.030856161947795e+000	 7.453704507022511e+000
 7.247296359725970e-001	 1.038865751977465e+000	 7.241421964711763e+000
 7.133053503815099e-001	 1.046742852430853e+000	 7.029739956340810e+000
 7.018073298531414e-001	 1.054486431034654e+000	 6.818780188252164e+000
 6.902378887419132e-001	 1.062095508079932e+000	 6.608633372712969e+000
 6.785993572081287e-001	 1.069569156736019e+000	 6.399359751026259e+000
 6.668940797275553e-001	 1.076906503314615e+000	 6.190989738107056e+000
 6.551244135982919e-001	 1.084106727484178e+000	 5.984161250551138e+000
 6.432927274468238e-001	 1.091169062434711e+000	 5.779609794401545e+000
 6.314013997351549e-001	 1.098092794993187e+000	 5.577429970227933e+000
 6.194528172708822e-001	 1.104877265689896e+000	 5.377722017865676e+000
 7.515727419881260e-001	 1.052556262338826e+000	 7.754810243450982e+000
 7.399856012941009e-001	 1.060734458731179e+000	 7.545805387177526e+000
 7.283208280838214e-001	 1.068777376567416e+000	 7.336457672580168e+000
 7.165807677744921e-001	 1.076683961844282e+000	 7.127062594565763e+000
 7.047677834389825e-001	 1.084453214229405e+000	 6.917882742778490e+000
 6.928842542887642e-001	 1.092084187381793e+000	 6.709148016054297e+000
 6.809325741521235e-001	 1.099575989221505e+000	 6.501055973471612e+000
 6.689151499495940e-001	 1.106927782148541e+000	 6.293772319952941e+000
 6.568344001685657e-001	 1.114138783211110e+000	 6.087890342566760e+000
 6.446927533389901e-001	 1.121208264223477e+000	 5.884501442643785e+000
 6.324926465120909e-001	 1.128135551833708e+000	 5.683893645453058e+000
 7.670675595517766e-001	 1.074256313908682e+000	 8.031129596069395e+000
 7.552415322922724e-001	 1.082603116284461e+000	 7.825716361655422e+000
 7.433362720038976e-001	 1.090811851130529e+000	 7.619187405778873e+000
 7.313541724581945e-001	 1.098881442713736e+000	 7.411981428117532e+000
 7.192976454463670e-001	 1.106810870078322e+000	 7.204501981950661e+000
 7.071691192309457e-001	 1.114599167373023e+000	 6.997117422204037e+000
 6.949710369926212e-001	 1.122245424126297e+000	 6.790161006039698e+000
 6.827058552742502e-001	 1.129748785469733e+000	 6.583931144489912e+000
 6.703760424240128e-001	 1.137108452309784e+000	 6.378691802862635e+000
 6.579840770396939e-001	 1.144323681448046e+000	 6.175027500214481e+000
 6.455324464160299e-001	 1.151393785650397e+000	 5.974258114152808e+000
 7.825623461280228e-001	 1.095956322081866e+000	 8.282575557403261e+000
 7.704974327808040e-001	 1.104471730103942e+000	 8.080960727170778e+000
 7.583516858952986e-001	 1.112846281628261e+000	 7.877622089742587e+000
 7.461275475972876e-001	 1.121078879191826e+000	 7.673112689428061e+000
 7.338274783962134e-001	 1.129168481215533e+000	 7.467947837997122e+000
 7.214539556055636e-001	 1.137114102337887e+000	 7.262604836272957e+000
 7.090094717583351e-001	 1.144914813695785e+000	 7.057522865115218e+000
 6.964965330196068e-001	 1.152569743152447e+000	 6.853103044780626e+000
 6.839176575982479e-001	 1.160078075472602e+000	 6.649708660779999e+000
 6.712753741597766e-001	 1.167439052445210e+000	 6.447665553497672e+000
 6.585722202423399e-001	 1.174651972953994e+000	 6.247567408034647e+000
 7.980571055902892e-001	 1.117656292282877e+000	 8.508828623674003e+000
 7.857533065733875e-001	 1.126340305656252e+000	 8.311119248051453e+000
 7.733670735115833e-001	 1.134880673568682e+000	 8.111237949556831e+000
 7.609008968848122e-001	 1.143276276827363e+000	 7.909824862853446e+000
 7.483572859206671e-001	 1.151526053229886e+000	 7.707479443267876e+000
 7.357387669835083e-001	 1.159628997904562e+000	 7.504759999668760e+000
 7.230478819585516e-001	 1.167584163596768e+000	 7.302183414565238e+000
 7.102871866330097e-001	 1.175390660901376e+000	 7.100225050843015e+000
 6.974592490763553e-001	 1.183047658441432e+000	 6.899318843593025e+000
 6.845666480217496e-001	 1.190554382993286e+000	 6.699857574533229e+000
 6.716119712506630e-001	 1.197910119558531e+000	 6.502193325587719e+000
 8.135518418120015e-001	 1.139356229936217e+000	 8.709351715684546e+000
 8.010091574837157e-001	 1.148208848408022e+000	 8.515561344513939e+000
 7.883824386063120e-001	 1.156915032459861e+000	 8.319306961134611e+000
 7.756742240138076e-001	 1.165473641169156e+000	 8.121290037379572e+000
 7.628870716518743e-001	 1.173883591710230e+000	 7.922168042060234e+000
 7.500235569356702e-001	 1.182143859701230e+000	 7.722553820712458e+000
 7.370862711025564e-001	 1.190253479496037e+000	 7.523015181457242e+000
 7.240778195618057e-001	 1.198211544421214e+000	 7.324074686779969e+000
 7.110008202434178e-001	 1.206017206958142e+000	 7.126209649965323e+000
 6.978579019481238e-001	 1.213669678870590e+000	 6.929852333864083e+000
 6.846517027006408e-001	 1.221168231278044e+000	 6.735390348629473e+000
 8.290465586665842e-001	 1.161056140466386e+000	 8.883404482987077e+000
 8.162649893254802e-001	 1.170077363825882e+000	 8.693458313468183e+000
 8.033977849330439e-001	 1.178949363809866e+000	 8.500908916352543e+000
 7.904475326773142e-001	 1.187670977766017e+000	 8.306494755414628e+000
 7.774168392219807e-001	 1.196241102245413e+000	 8.110906574040701e+000
 7.643083290329399e-001	 1.204658693356066e+000	 7.914786655310100e+000
 7.511246426996361e-001	 1.212922767060388e+000	 7.718728308239221e+000
 7.378684352533409e-001	 1.221032399416653e+000	 7.523275580338869e+000
 7.245423744845195e-001	 1.228986726764600e+000	 7.328923195455293e+000
 7.111491392614100e-001	 1.236784945855437e+000	 7.136116714696290e+000
 6.976914178519145e-001	 1.244426313926563e+000	 6.945252917090940e+000
 8.445412600274632e-001	 1.182756029297883e+000	 9.030057070508864e+000
 8.315208059123731e-001	 1.191945857376462e+000	 8.843796104978475e+000
 8.184131162453380e-001	 1.200983673126766e+000	 8.654943144391293e+000
 8.052208265683714e-001	 1.209868292166755e+000	 8.464250624471664e+000
 7.919465922631326e-001	 1.218598590424284e+000	 8.272419132163483e+000
 7.785930868462081e-001	 1.227173504497251e+000	 8.080096577435272e+000
 7.651630002590770e-001	 1.235592031956618e+000	 7.887877612538828e+000
 7.516590371549616e-001	 1.243853231592387e+000	 7.696303299182056e+000
 7.380839151847439e-001	 1.251956223602676e+000	 7.505861022782221e+000
 7.244403632841193e-001	 1.259900189726144e+000	 7.316984651675840e+000
 7.107311199641254e-001	 1.267684373318120e+000	 7.130054937892892e+000
 8.600359497680634e-001	 1.204455901855211e+000	 9.148203415409506e+000
 8.467766110580867e-001	 1.213814334526392e+000	 8.965387710396374e+000
 8.334284362967542e-001	 1.223017965918630e+000	 8.780139932610794e+000
 8.199941093800189e-001	 1.232065589920179e+000	 8.593204721610833e+000
 8.064763344074756e-001	 1.240956061835692e+000	 8.405270310875416e+000
 7.928778339463644e-001	 1.249688298752962e+000	 8.216967640665946e+000
 7.792013472901653e-001	 1.258261279851520e+000	 8.028869740963376e+000
 7.654496287140141e-001	 1.266674046653108e+000	 7.841491385226214e+000
 7.516254457291737e-001	 1.274925703214236e+000	 7.655289014294261e+000
 7.377315773387618e-001	 1.283015416261027e+000	 7.470660928349460e+000
 7.237708122969158e-001	 1.290942415266750e+000	 7.287947743449952e+000
 8.755306317618103e-001	 1.226155763562868e+000	 9.236574132356287e+000
 8.620324085763136e-001	 1.235682800742303e+000	 9.056885210257725e+000
 8.484437488408522e-001	 1.245052247693526e+000	 8.875071684163315e+000
 8.347673848052971e-001	 1.254262876575102e+000	 8.691849816291901e+000
 8.210060692871558e-001	 1.263313522068484e+000	 8.507874458172161e+000
 8.071625739043004e-001	 1.272203081751379e+000	 8.323738131850112e+000
 7.932396873021873e-001	 1.280930516411890e+000	 8.139970405217719e+000
 7.792402133778448e-001	 1.289494850303511e+000	 7.957037562471352e+000
 7.651669695028934e-001	 1.297895171341149e+000	 7.775342569156898e+000
 7.510227847478496e-001	 1.306130631238402e+000	 7.595225329711856e+000
 7.368104981099266e-001	 1.314200445586484e+000	 7.416963233883889e+000
 8.910253098821288e-001	 1.247855619845356e+000	 9.293749037318282e+000
 8.772882022807453e-001	 1.257551261490825e+000	 9.116791523355913e+000
 8.634590576311915e-001	 1.267086523959525e+000	 8.938163844382318e+000
 8.495406565372458e-001	 1.276460157680332e+000	 8.758534433727652e+000
 8.355358005343191e-001	 1.285670976711510e+000	 8.578504843189666e+000
 8.214473102909056e-001	 1.294717859120681e+000	 8.398608817836413e+000
 8.072780238044295e-001	 1.303599747304523e+000	 8.219311690492452e+000
 7.930307945938002e-001	 1.312315648248288e+000	 8.041010097168147e+000
 7.787084898909862e-001	 1.320864633725284e+000	 7.864032012999214e+000
 7.643139888338927e-001	 1.329245840436585e+000	 7.688637106574461e+000
 7.498501806627993e-001	 1.337458470091355e+000	 7.514764935594056e+000
 6.194528172708822e-001	 1.104877265689896e+000	 5.377722017865676e+000
 6.074511782547066e-001	 1.111520882801578e+000	 5.180478126861758e+000
 5.953970932452810e-001	 1.118024123343679e+000	 4.985737813144070e+000
 5.832929647635355e-001	 1.124386489988285e+000	 4.793771563449913e+000
 5.711411977547047e-001	 1.130607538866382e+000	 4.604856520631500e+000
 5.589441981408803e-001	 1.136686879394963e+000	 4.419277249014653e+000
 5.467043713871074e-001	 1.142624174058487e+000	 4.237326303922933e+000
 5.344241210826425e-001	 1.148419138145507e+000	 4.059304603261269e+000
 5.221058475389497e-001	 1.154071539441348e+000	 3.885521600626783e+000
 5.097519464059584e-001	 1.159581197877748e+000	 3.716295260962549e+000
 4.973648073080526e-001	 1.164947985140473e+000	 3.551951841267078e+000
 6.324926465120909e-001	 1.128135551833708e+000	 5.683893645453058e+000
 6.202383662630420e-001	 1.134919020811867e+000	 5.486084089238148e+000
 6.079305360031093e-001	 1.141559158214848e+000	 5.291007694905762e+000
 5.955716088276520e-001	 1.148055456245717e+000	 5.098908608758793e+000
 5.831640403073667e-001	 1.154407461691780e+000	 4.910039191003749e+000
 5.707102870103700e-001	 1.160614775748049e+000	 4.724660992093852e+000
 5.582128050381113e-001	 1.166677053794103e+000	 4.543045504514253e+000
 5.456740485767643e-001	 1.172594005125170e+000	 4.365474687425509e+000
 5.330964684657112e-001	 1.178365392638335e+000	 4.192241263371839e+000
 5.204825107846715e-001	 1.183991032474813e+000	 4.023648788014396e+000
 5.078346154609772e-001	 1.189470793619292e+000	 3.860011495554303e+000
 6.455324464160299e-001	 1.151393785650397e+000	 5.974258114152807e+000
 6.330255255024671e-001	 1.158317106180301e+000	 5.776425684531362e+000
 6.204639505628590e-001	 1.165094140136081e+000	 5.581327398539747e+000
 6.078502252668818e-001	 1.171724369251810e+000	 5.389189158029356e+000
 5.951868558105830e-001	 1.178207330971136e+000	 5.200247722734826e+000
 5.824763494079930e-001	 1.184542618267112e+000	 5.014751889791337e+000
 5.697212127968527e-001	 1.190729879414451e+000	 4.832963415863856e+000
 5.569239507601437e-001	 1.196768817715077e+000	 4.655157678858267e+000
 5.440870646650543e-001	 1.202659191177848e+000	 4.481624078209157e+000
 5.312130510209822e-001	 1.208400812153459e+000	 4.312666174725273e+000
 5.183044000580986e-001	 1.213993546925534e+000	 4.148601572905311e+000
 6.585722202423399e-001	 1.174651972953994e+000	 6.247567408034647e+000
 6.458126591694799e-001	 1.181715144755887e+000	 6.050271289580167e+000
 6.329973400576118e-001	 1.188629074990625e+000	 5.855507136975919e+000
 6.201288171506310e-001	 1.195393234923308e+000	 5.663489398388392e+000
 6.072096472698343e-001	 1.202007152653947e+000	 5.474447135436322e+000
 5.942423882750678e-001	 1.208470412933654e+000	 5.288625400994416e+000
 5.812295975402648e-001	 1.214782656932294e+000	 5.106286322401446e+000
 5.681738304451132e-001	 1.220943581958496e+000	 4.927709886619021e+000
 5.550776388845088e-001	 1.226952941132905e+000	 4.753194426173876e+000
 5.419435697974289e-001	 1.232810543015708e+000	 4.583056806957814e+000
 5.287741637167839e-001	 1.238516251189468e+000	 4.417632321139606e+000
 6.716119712506630e-001	 1.197910119558531e+000	 6.502193325587720e+000
 6.585997704605783e-001	 1.205113142387636e+000	 6.306139436702792e+000
 6.455307076204506e-001	 1.212163968661729e+000	 6.112131921496885e+000
 6.324073875483049e-001	 1.219062059176956e+000	 5.920482374558125e+000
 6.192324176906023e-001	 1.225806932689711e+000	 5.731418808598996e+000
 6.060084065529144e-001	 1.232398165729178e+000	 5.545190320920312e+000
 5.927379621452800e-001	 1.238835392360392e+000	 5.362068331098495e+000
 5.794236904440047e-001	 1.245118303898696e+000	 5.182347478344834e+000
 5.660681938716050e-001	 1.251246648576530e+000	 5.006346177252074e+000
 5.526740697965494e-001	 1.257220231163583e+000	 4.834406833166587e+000
 5.392439090544005e-001	 1.263038912541362e+000	 4.666895720877469e+000
 6.846517027006408e-001	 1.221168231278044e+000	 6.735390348629472e+000
 6.713868625722598e-001	 1.228511104924556e+000	 6.542189160624695e+000
 6.580640563844562e-001	 1.235698827032637e+000	 6.349543309653061e+000
 6.446859395293096e-001	 1.242730847929497e+000	 6.158619746832431e+000
 6.312551700783683e-001	 1.249606677027924e+000	 5.969742443045328e+000
 6.177744071828529e-001	 1.256325882635189e+000	 5.783171132287999e+000
 6.042463094888311e-001	 1.262888091711506e+000	 5.599194291369583e+000
 5.906735335691515e-001	 1.269292989578943e+000	 5.418130140605834e+000
 5.770587323738733e-001	 1.275540319581744e+000	 5.240327255586667e+000
 5.634045537008823e-001	 1.281629882699106e+000	 5.066164791490419e+000
 5.497136386883157e-001	 1.287561537111484e+000	 4.896052324168012e+000
 6.976914178519145e-001	 1.244426313926563e+000	 6.945252917090940e+000
 6.841739387010217e-001	 1.251909038215656e+000	 6.755539556337258e+000
 6.705973894827110e-001	 1.259233655986598e+000	 6.565760040809451e+000
 6.569644761630512e-001	 1.266399607097674e+000	 6.376114495525520e+000
 6.432779074386129e-001	 1.273406391618082e+000	 6.187779015185715e+000
 6.295403931062018e-001	 1.280253569633188e+000	 6.001091372916279e+000
 6.157546424478506e-001	 1.286940760998396e+000	 5.816363733013620e+000
 6.019233626328853e-001	 1.293467645042504e+000	 5.633945737620571e+000
 5.880492571388442e-001	 1.299833960221569e+000	 5.454225162800788e+000
 5.741350241929648e-001	 1.306039503724299e+000	 5.277628134900114e+000
 5.601833552358967e-001	 1.312084131030102e+000	 5.104618912048585e+000
 7.107311199641254e-001	 1.267684373318120e+000	 7.130054937892890e+000
 6.969610020433620e-001	 1.275306948109945e+000	 6.944122892814058e+000
 6.831307100482968e-001	 1.282768461406858e+000	 6.757819004688155e+000
 6.692430005189350e-001	 1.290068342598233e+000	 6.570898458944638e+000
 6.553006327768171e-001	 1.297206082409683e+000	 6.383654596323923e+000
 6.413063672642816e-001	 1.304181232704681e+000	 6.197257888974694e+000
 6.272629638992716e-001	 1.310993406233822e+000	 6.012075691228136e+000
 6.131731804475384e-001	 1.317642276332648e+000	 5.828495839906651e+000
 5.990397709140476e-001	 1.324127576569028e+000	 5.646953336195852e+000
 5.848654839553358e-001	 1.330449100341185e+000	 5.467930538886059e+000
 5.706530613145106e-001	 1.336606700427484e+000	 5.292040239831888e+000
 7.237708122969158e-001	 1.290942415266750e+000	 7.287947743449950e+000
 7.097480557957788e-001	 1.298704840456433e+000	 7.106054196576534e+000
 6.956640212142951e-001	 1.306303249176665e+000	 6.923486896015582e+000
 6.815215156663675e-001	 1.313737060347918e+000	 6.739987156694987e+000
 6.673233490984625e-001	 1.321005755352224e+000	 6.555243366641375e+000
 6.530723325984112e-001	 1.328108877831169e+000	 6.369745861954079e+000
 6.387712767200264e-001	 1.335046033430547e+000	 6.184608571886057e+000
 6.244229898254440e-001	 1.341816889492641e+000	 6.000281385356184e+000
 6.100302764470144e-001	 1.348421174697141e+000	 5.817675113792316e+000
 5.955959356705326e-001	 1.354858678651786e+000	 5.637827715591486e+000
 5.811227595415254e-001	 1.361129251433898e+000	 5.461795495368473e+000
 7.368104981099266e-001	 1.314200445586484e+000	 7.416963233883892e+000
 7.225351031547691e-001	 1.322102721104127e+000	 7.239334043142011e+000
 7.081973261137888e-001	 1.329838025179267e+000	 7.060757305922352e+000
 6.938000246747534e-001	 1.337405766263471e+000	 6.880816484777736e+000
 6.793460594090302e-001	 1.344805416395201e+000	 6.698690594031015e+000
 6.648382920499100e-001	 1.352036510994155e+000	 6.514502033285111e+000
 6.502795837870479e-001	 1.359098648601329e+000	 6.329654740352366e+000
 6.356727935789340e-001	 1.365991490565752e+000	 6.145747812720416e+000
 6.210207764852744e-001	 1.372714760678931e+000	 5.963885233797746e+000
 6.063263820210938e-001	 1.379268244758125e+000	 5.785198682449390e+000
 5.915924525343077e-001	 1.385651790179613e+000	 5.610837487075810e+000
 7.498501806627993e-001	 1.337458470091355e+000	 7.514764935594056e+000
 7.353221473168309e-001	 1.345500595902038e+000	 7.339884763210943e+000
 7.207306278798588e-001	 1.353372795297910e+000	 7.162779405952365e+000
 7.060785306134998e-001	 1.361074466261638e+000	 6.983841957008392e+000
 6.913687667140009e-001	 1.368605071488112e+000	 6.803408297696875e+000
 6.766042485600982e-001	 1.375964138175143e+000	 6.621757090994346e+000
 6.617878879772690e-001	 1.383151257758930e+000	 6.439208218484481e+000
 6.469225945203407e-001	 1.390166085595247e+000	 6.257535417237134e+000
 6.320112737763581e-001	 1.397008340587419e+000	 6.078274216758659e+000
 6.170568256895568e-001	 1.403677804762223e+000	 5.902661596411739e+000
 6.020621429102250e-001	 1.410174322794896e+000	 5.731950820740029e+000
 4.973648073080526e-001	 1.164947985140473e+000	 3.551951841267077e+000
 4.849449475210769e-001	 1.170172597316046e+000	 3.391766689336175e+000
 4.724965980002161e-001	 1.175254193189512e+000	 3.234901629499513e+000
 4.600221239627185e-001	 1.180192797882715e+000	 3.081450363090174e+000
 4.475238793346627e-001	 1.184988486332486e+000	 2.931512352916585e+000
 4.350042055046847e-001	 1.189641382703130e+000	 2.785192296674269e+000
 4.224654301051314e-001	 1.194151659763825e+000	 2.642599436593365e+000
 4.099098658216919e-001	 1.198519538232249e+000	 2.503846715368589e+000
 3.973398092324927e-001	 1.202745286085772e+000	 2.369049789313177e+000
 3.847575396775870e-001	 1.206829217841571e+000	 2.238325910466797e+000
 3.721653181596841e-001	 1.210771693807061e+000	 2.111792690064943e+000
 5.078346154609772e-001	 1.189470793619292e+000	 3.860011495554304e+000
 4.951533106594304e-001	 1.194805386811314e+000	 3.700487352941328e+000
 4.824429163991849e-001	 1.199993953127882e+000	 3.544128383387578e+000
 4.697058476866244e-001	 1.205036518219667e+000	 3.391030867720400e+000
 4.569445079992764e-001	 1.209933158600962e+000	 3.241298271501955e+000
 4.441612880133066e-001	 1.214684001049800e+000	 3.095040667082883e+000
 4.313585643590141e-001	 1.219289221972249e+000	 2.952373968419736e+000
 4.185386984054039e-001	 1.223749046732216e+000	 2.813418989966438e+000
 4.057040350748469e-001	 1.228063748948146e+000	 2.678300341965259e+000
 3.928569016887677e-001	 1.232233649757978e+000	 2.547145175360889e+000
 3.799996068452374e-001	 1.236259117053800e+000	 2.420081790333708e+000
 5.183044000580986e-001	 1.213993546925534e+000	 4.148601572905310e+000
 5.053616508301387e-001	 1.219438120886603e+000	 3.988463170443754e+000
 4.923892124200254e-001	 1.224733657405657e+000	 3.831179490723870e+000
 4.793895496231638e-001	 1.229880182662189e+000	 3.676856644223332e+000
 4.663651154684179e-001	 1.234877774747946e+000	 3.525610256876758e+000
 4.533183499193709e-001	 1.239726563054676e+000	 3.377564813924857e+000
 4.402516786041618e-001	 1.244426727625320e+000	 3.232852789702003e+000
 4.271675115750019e-001	 1.248978498470000e+000	 3.091613576122381e+000
 4.140682420983949e-001	 1.253382154848216e+000	 2.953992223775659e+000
 4.009562454770290e-001	 1.257638024518649e+000	 2.820138010560036e+000
 3.878338779042280e-001	 1.261746482958037e+000	 2.690202853658599e+000
 5.287741637167839e-001	 1.238516251189468e+000	 4.417632321139606e+000
 5.155699705852225e-001	 1.244070805699674e+000	 4.255819493858912e+000
 5.023354885492571e-001	 1.249473312207339e+000	 4.096408451208334e+000
 4.890732321932147e-001	 1.254723797420769e+000	 3.939522084048879e+000
 4.757857040971966e-001	 1.259822341009158e+000	 3.785296074622304e+000
 4.624753935121033e-001	 1.264769074977958e+000	 3.633878134939500e+000
 4.491447750638161e-001	 1.269564183006969e+000	 3.485427000691975e+000
 4.357963074876533e-001	 1.274207899752516e+000	 3.340111195092660e+000
 4.224324323941557e-001	 1.278700510115136e+000	 3.198107578354415e+000
 4.090555730671776e-001	 1.283042348474234e+000	 3.059599699662231e+000
 3.956681332952000e-001	 1.287233797891179e+000	 2.924775969489872e+000
 5.392439090544005e-001	 1.263038912541362e+000	 4.666895720877469e+000
 5.257782724767011e-001	 1.268703447408290e+000	 4.502566180201867e+000
 5.122817472733993e-001	 1.274212923717429e+000	 4.340053918236692e+000
 4.987568978176553e-001	 1.279567368705895e+000	 4.179505272742365e+000
 4.852062762407214e-001	 1.284766863620316e+000	 4.021083636088897e+000
 4.716324210807296e-001	 1.289811543079843e+000	 3.864968560441101e+000
 4.580378559612177e-001	 1.294701594401128e+000	 3.711354584208204e+000
 4.444250883005267e-001	 1.299437256886679e+000	 3.560449796021159e+000
 4.307966080531481e-001	 1.304018821078061e+000	 3.412474153963958e+000
 4.171548864840204e-001	 1.308446627975386e+000	 3.267657579082795e+000
 4.035023749766974e-001	 1.312721068224635e+000	 3.126237843316721e+000
 5.497136386883157e-001	 1.287561537111484e+000	 4.896052324168013e+000
 5.359865590565952e-001	 1.293336052170213e+000	 4.728585779582700e+000
 5.222279910789711e-001	 1.298952498120428e+000	 4.562229365520405e+000
 5.084405489173633e-001	 1.304410902728050e+000	 4.397159261569920e+000
 4.946268342541013e-001	 1.309711348817139e+000	 4.233573998907405e+000
 4.807894349144759e-001	 1.314853973620533e+000	 4.071693403972736e+000
 4.669309235196081e-001	 1.319838968091726e+000	 3.911757225045439e+000
 4.530538561707893e-001	 1.324666576179405e+000	 3.754023460056124e+000
 4.391607711663913e-001	 1.329337094066145e+000	 3.598766405618977e+000
 4.252541877523637e-001	 1.333850869372756e+000	 3.446282916911061e+000
 4.113366049072643e-001	 1.338208300329813e+000	 3.297558452319296e+000
 5.601833552358967e-001	 1.312084131030102e+000	 5.104618912048584e+000
 5.461948328769253e-001	 1.317968626143207e+000	 4.933622445307361e+000
 5.321742224524917e-001	 1.323692041600839e+000	 4.762913361920271e+000
 5.181241879132170e-001	 1.329254405697723e+000	 4.592703816948788e+000
 5.040473804924455e-001	 1.334655802835345e+000	 4.423266472126247e+000
 4.899464373025677e-001	 1.339896372860226e+000	 4.255610012968445e+000
 4.758239799622283e-001	 1.344976310362696e+000	 4.090492256605606e+000
 4.616826132556096e-001	 1.349895863937608e+000	 3.928396119662114e+000
 4.475249238249042e-001	 1.354655335408544e+000	 3.769777682245606e+000
 4.333534788970148e-001	 1.359255079016994e+000	 3.615063644151045e+000
 4.191708250454448e-001	 1.363695500578122e+000	 3.464649209592850e+000
 5.706530613145106e-001	 1.336606700427484e+000	 5.292040239831890e+000
 5.564030964897108e-001	 1.342601175485032e+000	 5.118103579425429e+000
 5.421204438804808e-001	 1.348431560343163e+000	 4.944600128846698e+000
 5.278078172260935e-001	 1.354097883825399e+000	 4.772104738038639e+000
 5.134679173108632e-001	 1.359600231910653e+000	 4.601177590494606e+000
 4.991034305342312e-001	 1.364938747059123e+000	 4.432359587498428e+000
 4.847170275123195e-001	 1.370113627497968e+000	 4.266168269910857e+000
 4.703113617121550e-001	 1.375125126468206e+000	 4.103094272125910e+000
 4.558890681197054e-001	 1.379973551434411e+000	 3.943598298285469e+000
 4.414527619427803e-001	 1.384659263258752e+000	 3.788108606607331e+000
 4.270050373497829e-001	 1.389182675340970e+000	 3.637018983779756e+000
 5.811227595415254e-001	 1.361129251433898e+000	 5.461795495368471e+000
 5.666113524469723e-001	 1.367233706353451e+000	 5.288022206975909e+000
 5.520666578494572e-001	 1.373171060531899e+000	 5.114697689852584e+000
 5.374914392768710e-001	 1.378941343321566e+000	 4.942417641192764e+000
 5.228884470644628e-001	 1.384544642278781e+000	 4.771759994699842e+000
 5.082604168986920e-001	 1.389981102477423e+000	 4.603280043312751e+000
 4.936100683931231e-001	 1.395250925781474e+000	 4.437506180191297e+000
 4.789401036975942e-001	 1.400354370078113e+000	 4.274936250437687e+000
 4.642532061418141e-001	 1.405291748472903e+000	 4.116034500927127e+000
 4.495520389144668e-001	 1.410063428448682e+000	 3.961229110862028e+000
 4.348392437788227e-001	 1.414669830989763e+000	 3.810910281283825e+000
 5.915924525343077e-001	 1.385651790179613e+000	 5.610837487075810e+000
 5.768196033007296e-001	 1.391866224906227e+000	 5.439023971293102e+000
 5.620128668459405e-001	 1.397910548351552e+000	 5.267681421048994e+000
 5.471750564864276e-001	 1.403784790396708e+000	 5.097428101174095e+000
 5.323089721083540e-001	 1.409489040175448e+000	 4.928860715622253e+000
 5.174173986851759e-001	 1.415023445375324e+000	 4.762549254380621e+000
 5.025031048278797e-001	 1.420388211497145e+000	 4.599032548864359e+000
 4.875688413690945e-001	 1.425583601074242e+000	 4.438814525835185e+000
 4.726173399822490e-001	 1.430609932853171e+000	 4.282361144155797e+000
 4.576513118368814e-001	 1.435467580937434e+000	 4.130097993357762e+000
 4.426734462911082e-001	 1.440156973895912e+000	 3.982408528089154e+000
 6.020621429102250e-001	 1.410174322794896e+000	 5.731950820740031e+000
 5.870278516030029e-001	 1.416498737301121e+000	 5.564125646529636e+000
 5.719590733564497e-001	 1.422650029986620e+000	 5.396819689279766e+000
 5.568586712756409e-001	 1.428628231261313e+000	 5.230675465784156e+000
 5.417294947976459e-001	 1.434433431836373e+000	 5.066309290881011e+000
 5.265743781829089e-001	 1.440065782013029e+000	 4.904305834858680e+000
 5.113961390398313e-001	 1.445525490928912e+000	 4.745213489933806e+000
 4.961975768838239e-001	 1.450812825763512e+000	 4.589540533089901e+000
 4.809814717320292e-001	 1.455928110904371e+000	 4.437752066148366e+000
 4.657505827348304e-001	 1.460871727075660e+000	 4.290267707976447e+000
 4.505076468451836e-001	 1.465644110430823e+000	 4.147460008249324e+000
 3.721653181596841e-001	 1.210771693807061e+000	 2.111792690064943e+000
 3.595653860970648e-001	 1.214573118999657e+000	 1.989943101646019e+000
 3.469599637677736e-001	 1.218233941437156e+000	 1.873008136156285e+000
 3.343512498799867e-001	 1.221754652219686e+000	 1.760712913807042e+000
 3.217414207892364e-001	 1.225135784980603e+000	 1.652783137846278e+000
 3.091326295656695e-001	 1.228377915011984e+000	 1.548944080399844e+000
 2.965270050962132e-001	 1.231481658369039e+000	 1.448919506683953e+000
 2.839266512220445e-001	 1.234447670954891e+000	 1.352430551090157e+000
 2.713336459116921e-001	 1.237276647587193e+000	 1.259194558539919e+000
 2.587500404700431e-001	 1.239969321048035e+000	 1.168923904314998e+000
 2.461778587834510e-001	 1.242526461118597e+000	 1.081324805285011e+000
 3.799996068452374e-001	 1.236259117053800e+000	 2.420081790333708e+000
 3.671344391456395e-001	 1.240140564378870e+000	 2.297642194803392e+000
 3.542636656061270e-001	 1.243878449182008e+000	 2.180067477448791e+000
 3.413895312189302e-001	 1.247473272901273e+000	 2.067051896915847e+000
 3.285142581531008e-001	 1.250925580403296e+000	 1.958291995020798e+000
 3.156400448021336e-001	 1.254235959090374e+000	 1.853485425134260e+000
 3.027690648672338e-001	 1.257405037986019e+000	 1.752329707477450e+000
 2.899034664766288e-001	 1.260433486800481e+000	 1.654520926676063e+000
 2.770453713412645e-001	 1.263322014977708e+000	 1.559752386812489e+000
 2.641968739471592e-001	 1.266071370725263e+000	 1.467713239007268e+000
 2.513600407846233e-001	 1.268682340028648e+000	 1.378087096249459e+000
 3.878338779042280e-001	 1.261746482958037e+000	 2.690202853658599e+000
 3.747034751643715e-001	 1.265707952235458e+000	 2.564791162327951e+000
 3.615673510116165e-001	 1.269522899230740e+000	 2.444191849730632e+000
 3.484277967221451e-001	 1.273191835719855e+000	 2.328088309412658e+000
 3.352870802784262e-001	 1.276715317802694e+000	 2.216167920846715e+000
 3.221474453972028e-001	 1.280093944991751e+000	 2.108120673454516e+000
 3.090111105938582e-001	 1.283328359278823e+000	 2.003637705747088e+000
 2.958802682835722e-001	 1.286419244181258e+000	 1.902409776996330e+000
 2.827570839196105e-001	 1.289367323769279e+000	 1.804125688739840e+000
 2.696436951690276e-001	 1.292173361675890e+000	 1.708470673190526e+000
 2.565422111259951e-001	 1.294838160090888e+000	 1.615124765276857e+000
 3.956681332952000e-001	 1.287233797891179e+000	 2.924775969489872e+000
 3.822724960455041e-001	 1.291275288960849e+000	 2.794335628596527e+000
 3.688710218101570e-001	 1.295167297994062e+000	 2.668642039478735e+000
 3.554660481492020e-001	 1.298910347104691e+000	 2.547387486346560e+000
 3.420598888584344e-001	 1.302505003625874e+000	 2.430269990630241e+000
 3.286548329777549e-001	 1.305951879180282e+000	 2.316991681422299e+000
 3.152531438366364e-001	 1.309251628727975e+000	 2.207257068783564e+000
 3.018570581371236e-001	 1.312404949593379e+000	 2.100771239633216e+000
 2.884687850747150e-001	 1.315412580472970e+000	 1.997237995821541e+000
 2.750905054974154e-001	 1.318275300425168e+000	 1.896357953729099e+000
 2.617243711031739e-001	 1.320993927844035e+000	 1.797826624349579e+000
 4.035023749766974e-001	 1.312721068224635e+000	 3.126237843316721e+000
 3.898415036812796e-001	 1.316842580946469e+000	 2.989021407219977e+000
 3.761746798276636e-001	 1.320811651882687e+000	 2.856462518911665e+000
 3.625042872596722e-001	 1.324628813485048e+000	 2.728281943431273e+000
 3.488326855863470e-001	 1.328294644319918e+000	 2.604208030150288e+000
 3.351622091706676e-001	 1.331809768120133e+000	 2.483974777924753e+000
 3.214951661561188e-001	 1.335174852813998e+000	 2.367454037696921e+000
 3.078338375315319e-001	 1.338390609533002e+000	 2.254992920357634e+000
 2.941804762345622e-001	 1.341457791599845e+000	 2.146341076158117e+000
 2.805373062940900e-001	 1.344377193498346e+000	 2.041144479086147e+000
 2.669065220117670e-001	 1.347149649826810e+000	 1.939028918818536e+000
 4.113366049072643e-001	 1.338208300329813e+000	 3.297558452319296e+000
 3.974104999639416e-001	 1.342409834583748e+000	 3.153977493792263e+000
 3.834783268900516e-001	 1.346455967307327e+000	 3.016109501456336e+000
 3.695425158131264e-001	 1.350347241290185e+000	 2.883703905635189e+000
 3.556054721553857e-001	 1.354084246331904e+000	 2.756485429473654e+000
 3.416695756028192e-001	 1.357667618275472e+000	 2.634154459450484e+000
 3.277371791128551e-001	 1.361098038017419e+000	 2.516387629552854e+000
 3.138106079610459e-001	 1.364376230496281e+000	 2.402838592875142e+000
 2.998921588271372e-001	 1.367502963660970e+000	 2.293138953771232e+000
 2.859840989208189e-001	 1.370479047420677e+000	 2.186899333345192e+000
 2.720886651473818e-001	 1.373305332577932e+000	 2.083710540992132e+000
 4.191708250454448e-001	 1.363695500578122e+000	 3.464649209592850e+000
 4.049794867857331e-001	 1.367977056264114e+000	 3.319529762040356e+000
 3.907819648232359e-001	 1.372100250678695e+000	 3.180282970297447e+000
 3.765807355691360e-001	 1.376065636949365e+000	 3.046632081405779e+000
 3.623782502587722e-001	 1.379873816108914e+000	 2.918273150151448e+000
 3.481769339010870e-001	 1.383525436110463e+000	 2.794875775286299e+000
 3.339791842673958e-001	 1.387021190818762e+000	 2.676084079670597e+000
 3.197873709199146e-001	 1.390361818979375e+000	 2.561517903409261e+000
 3.056038342804242e-001	 1.393548103167406e+000	 2.450774178366525e+000
 2.914308847393696e-001	 1.396580868717411e+000	 2.343428452078576e+000
 2.772708018056258e-001	 1.399460982636122e+000	 2.239036529031936e+000
 4.270050373497829e-001	 1.389182675340970e+000	 3.637018983779756e+000
 4.125484660388972e-001	 1.393544252378993e+000	 3.491319057017490e+000
 3.980855954531315e-001	 1.397744508407502e+000	 3.351568614241112e+000
 3.836189482872718e-001	 1.401784006891852e+000	 3.217466534399862e+000
 3.691510215897282e-001	 1.405663360098026e+000	 3.088681325603528e+000
 3.546842856923493e-001	 1.409383228089274e+000	 2.964852278519326e+000
 3.402211831802909e-001	 1.412944317698551e+000	 2.845590898433291e+000
 3.257641279023869e-001	 1.416347381478438e+000	 2.730482579796913e+000
 3.113155040224079e-001	 1.419593216630219e+000	 2.619088486326032e+000
 2.968776651115092e-001	 1.422682663913800e+000	 2.510947599332993e+000
 2.824529332821062e-001	 1.425616606540098e+000	 2.405578896941898e+000
 4.348392437788227e-001	 1.414669830989763e+000	 3.810910281283825e+000
 4.201174396156771e-001	 1.419111429319816e+000	 3.666024737836771e+000
 4.053892206056536e-001	 1.423388746904461e+000	 3.527079570384149e+000
 3.906571557271050e-001	 1.427502357546906e+000	 3.393749626221231e+000
 3.759237878414754e-001	 1.431452884746319e+000	 3.265675434974603e+000
 3.611916326034839e-001	 1.435241000676072e+000	 3.142464837340438e+000
 3.464631774120903e-001	 1.438867425137311e+000	 3.023694932078247e+000
 3.317408804027114e-001	 1.442332924489626e+000	 2.908914299217509e+000
 3.170271694810728e-001	 1.445638310560474e+000	 2.797645456606360e+000
 3.023244413990053e-001	 1.448784439535093e+000	 2.689387506521006e+000
 2.876350608724304e-001	 1.451772210828581e+000	 2.583618929046928e+000
 4.426734462911082e-001	 1.440156973895912e+000	 3.982408528089154e+000
 4.276864094083155e-001	 1.444678593478009e+000	 3.840151444711432e+000
 4.126928421067176e-001	 1.449032972580286e+000	 3.703738104752246e+000
 3.976953596482061e-001	 1.453220695343790e+000	 3.572818169137952e+000
 3.826965507072357e-001	 1.457242396500876e+000	 3.447002183600655e+000
 3.676989762613686e-001	 1.461098760335022e+000	 3.325863747965697e+000
 3.527051685233442e-001	 1.464790519615566e+000	 3.208942048522518e+000
 3.377176299151375e-001	 1.468318454509096e+000	 3.095744704908230e+000
 3.227388320844036e-001	 1.471683391469234e+000	 2.985750882024242e+000
 3.077712149636253e-001	 1.474886202106543e+000	 2.878414617069563e+000
 2.928171858722058e-001	 1.477927802040290e+000	 2.773168311786857e+000
 4.505076468451836e-001	 1.465644110430823e+000	 4.147460008249324e+000
 4.352553773090560e-001	 1.470245751245001e+000	 4.010046989114863e+000
 4.199964617822380e-001	 1.474677191845686e+000	 3.878293506445452e+000
 4.047335618101466e-001	 1.478939026711766e+000	 3.751821372986132e+000
 3.894693118802304e-001	 1.483031901808773e+000	 3.630207547696792e+000
 3.742063182928812e-001	 1.486956513530291e+000	 3.512986918196028e+000
 3.589471580746028e-001	 1.490713607613841e+000	 3.399655496763819e+000
 3.436943779339139e-001	 1.494303978033006e+000	 3.289673974088672e+000
 3.284504932603850e-001	 1.497728465867564e+000	 3.182471573948003e+000
 3.132179871671365e-001	 1.500987958153400e+000	 3.077450151538075e+000
 2.979993095770399e-001	 1.504083386713946e+000	 2.973988478211454e+000
 2.461778587834510e-001	 1.242526461118597e+000	 1.081324805285011e+000
 2.336209787353383e-001	 1.244948520494780e+000	 9.980095983766445e-001
 2.210794773494281e-001	 1.247236734201940e+000	 9.204677170054118e-001
 2.085552884195949e-001	 1.249391977736748e+000	 8.482536727345714e-001
 1.960503157475883e-001	 1.251415159572273e+000	 7.809199246020665e-001
 1.835664325704446e-001	 1.253307220138870e+000	 7.180158102189109e-001
 1.711054810238903e-001	 1.255069130798217e+000	 6.590865206246931e-001
 1.586692716415527e-001	 1.256701892811832e+000	 6.036721283453118e-001
 1.462595828897382e-001	 1.258206536305377e+000	 5.513066773523229e-001
 1.338781607374896e-001	 1.259584119230017e+000	 5.015173428498078e-001
 1.215267182615959e-001	 1.260835726322077e+000	 4.538236680139167e-001
 2.513600407846233e-001	 1.268682340028648e+000	 1.378087096249459e+000
 2.385388313687072e-001	 1.271155385113263e+000	 1.292688829539184e+000
 2.257333243445114e-001	 1.273491767002438e+000	 1.213199959679851e+000
 2.129454942133351e-001	 1.275692379622538e+000	 1.139138528422532e+000
 2.001772848530018e-001	 1.277758150570499e+000	 1.070021024444854e+000
 1.874306089332176e-001	 1.279690040073258e+000	 1.005361133635497e+000
 1.747073473676788e-001	 1.281489039940201e+000	 9.446685370297481e-001
 1.620093488027417e-001	 1.283156172509960e+000	 8.874477671978804e-001
 1.493384291424061e-001	 1.284692489592919e+000	 8.331971330524083e-001
 1.366963711093230e-001	 1.286099071410704e+000	 7.814077221693699e-001
 1.240849238414895e-001	 1.287377025533950e+000	 7.315624888196861e-001
 2.565422111259951e-001	 1.294838160090888e+000	 1.615124765276857e+000
 2.434566729370095e-001	 1.297362190769154e+000	 1.526132847752559e+000
 2.303871608685430e-001	 1.299746740731929e+000	 1.443394428890033e+000
 2.173356901292265e-001	 1.301992722335230e+000	 1.366407782695253e+000
 2.043042446728649e-001	 1.304101082299809e+000	 1.294669508654124e+000
 1.912947766017440e-001	 1.306072800649137e+000	 1.227673067014897e+000
 1.783092056074410e-001	 1.307908889640256e+000	 1.164907367315796e+000
 1.653494184489528e-001	 1.309610392688861e+000	 1.105855422445808e+000
 1.524172684678871e-001	 1.311178383290003e+000	 1.049993079589417e+000
 1.395145751404186e-001	 1.312613963935719e+000	 9.967878384263639e-001
 1.266431236656700e-001	 1.313918265030891e+000	 9.456977659471810e-001
 2.617243711031739e-001	 1.320993927844035e+000	 1.797826624349578e+000
 2.483745046697697e-001	 1.323568944013921e+000	 1.703941597201053e+000
 2.350409880850431e-001	 1.326001661953930e+000	 1.616841635347011e+000
 2.217258772648734e-001	 1.328293012449679e+000	 1.536022143030049e+000
 2.084311962389666e-001	 1.330443961345699e+000	 1.460976133501133e+000
 1.951589365421072e-001	 1.332455508461953e+000	 1.391192512063572e+000
 1.819110566436752e-001	 1.334328686503093e+000	 1.326196874701163e+000
 1.686894814152311e-001	 1.336064559961831e+000	 1.265637817709371e+000
 1.554961016359138e-001	 1.337664224017839e+000	 1.208937427346101e+000
 1.423327735353477e-001	 1.339128803433513e+000	 1.155482764580823e+000
 1.292013183737076e-001	 1.340459451447940e+000	 1.104655231393370e+000
 2.669065220117670e-001	 1.347149649826810e+000	 1.939028918818538e+000
 2.532923277965124e-001	 1.349775651399042e+000	 1.842446327105611e+000
 2.396948071575314e-001	 1.352256537231954e+000	 1.753667322284448e+000
 2.261160567178805e-001	 1.354593256540739e+000	 1.672071147726891e+000
 2.125581405830954e-001	 1.356786794293665e+000	 1.597030854936270e+000
 1.990230897203908e-001	 1.358838170107152e+000	 1.527914281276626e+000
 1.855129013768806e-001	 1.360748437133422e+000	 1.464084975261074e+000
 1.720295385366216e-001	 1.362518680942165e+000	 1.404903051865332e+000
 1.585749294162189e-001	 1.364150018397633e+000	 1.349725961699424e+000
 1.451509669986813e-001	 1.365643596532541e+000	 1.297909159339583e+000
 1.317595086051721e-001	 1.367000591420134e+000	 1.248806657675016e+000
 2.720886651473818e-001	 1.373305332577932e+000	 2.083710540992132e+000
 2.582101435467623e-001	 1.375982319475984e+000	 1.986221707956890e+000
 2.443486192495282e-001	 1.378511373129517e+000	 1.896888965065259e+000
 2.305062295858520e-001	 1.380893461183264e+000	 1.815041352970744e+000
 2.166850787370401e-001	 1.383129587729205e+000	 1.740003787140468e+000
 2.028872371026779e-001	 1.385220792180180e+000	 1.671098466466477e+000
 1.891147407075556e-001	 1.387168148135953e+000	 1.607646214284152e+000
 1.753695906481697e-001	 1.388972762243157e+000	 1.548967730967653e+000
 1.616537525785352e-001	 1.390635773050592e+000	 1.494384738867363e+000
 1.479691562349904e-001	 1.392158349861254e+000	 1.443221002070419e+000
 1.343176949996336e-001	 1.393541691582514e+000	 1.394803205270081e+000
 2.772708018056258e-001	 1.399460982636122e+000	 2.239036529031935e+000
 2.631279531500440e-001	 1.402188954796221e+000	 2.140435944540554e+000
 2.490024255245531e-001	 1.404766176210133e+000	 2.050258808342786e+000
 2.348963969663925e-001	 1.407193632952109e+000	 1.967782522922331e+000
 2.208120117325892e-001	 1.409472348237812e+000	 1.892282239325281e+000
 2.067513796550518e-001	 1.411603381276482e+000	 1.823032765652010e+000
 1.927165755361991e-001	 1.413587826115396e+000	 1.759310391969388e+000
 1.787096385849205e-001	 1.415426810478104e+000	 1.700394607073596e+000
 1.647325718925951e-001	 1.417121494597922e+000	 1.645569684383458e+000
 1.507873419488461e-001	 1.418673070048106e+000	 1.594126116226688e+000
 1.368758781966621e-001	 1.420082758570117e+000	 1.545361877873652e+000
 2.824529332821062e-001	 1.425616606540098e+000	 2.405578896941899e+000
 2.680457578358820e-001	 1.428395563911225e+000	 2.305994148558978e+000
 2.536562271461264e-001	 1.431020953037317e+000	 2.214986672792842e+000
 2.392865599571062e-001	 1.433493778422127e+000	 2.131779042527519e+000
 2.249389406015317e-001	 1.435815082404983e+000	 2.055593271142487e+000
 2.106155183435960e-001	 1.437985943991505e+000	 1.985653297422280e+000
 1.963184067633099e-001	 1.440007477676460e+000	 1.921187369959395e+000
 1.820496831819193e-001	 1.441880832260298e+000	 1.861430302259494e+000
 1.678113881281316e-001	 1.443607189660832e+000	 1.805625571886836e+000
 1.536055248448193e-001	 1.445187763721549e+000	 1.753027239269552e+000
 1.394340588358278e-001	 1.446623799017982e+000	 1.702901664187631e+000
 2.876350608724304e-001	 1.451772210828581e+000	 2.583618929046928e+000
 2.729635588338008e-001	 1.454602153372468e+000	 2.483506378655934e+000
 2.583100252777679e-001	 1.457275710174585e+000	 2.391984562892979e+000
 2.436767196555977e-001	 1.459793904168173e+000	 2.308216206405989e+000
 2.290658663756560e-001	 1.462157796816215e+000	 2.231364991809660e+000
 2.144796541343938e-001	 1.464368486920693e+000	 2.160598705563718e+000
 1.999202352893869e-001	 1.466427109423858e+000	 2.095092265369309e+000
 1.853897252742113e-001	 1.468334834203037e+000	 2.034030595550046e+000
 1.708902020548770e-001	 1.470092864860527e+000	 1.976611319321921e+000
 1.564237056274812e-001	 1.471702437510035e+000	 1.922047239463813e+000
 1.419922375567005e-001	 1.473164819561149e+000	 1.869568581652124e+000
 2.928171858722058e-001	 1.477927802040290e+000	 2.773168311786856e+000
 2.778813573733250e-001	 1.480808729731422e+000	 2.673309145569733e+000
 2.629638210829975e-001	 1.483530454185451e+000	 2.581888504379304e+000
 2.480668771594715e-001	 1.486094016765102e+000	 2.498002342702598e+000
 2.331927900867510e-001	 1.488500498057003e+000	 2.420748919563139e+000
 2.183437879935285e-001	 1.490751016659494e+000	 2.349232698418017e+000
 2.035220620149286e-001	 1.492846727962296e+000	 2.282568109441813e+000
 1.887297656968415e-001	 1.494788822919614e+000	 2.219883135361352e+000
 1.739690144425642e-001	 1.496578526818215e+000	 2.160322684775552e+000
 1.592418850014027e-001	 1.498217098042018e+000	 2.103051719866406e+000
 1.445504149988502e-001	 1.499705826834654e+000	 2.047258108537918e+000
 2.979993095770399e-001	 1.504083386713946e+000	 2.973988478211456e+000
 2.827991546839796e-001	 1.507015299539558e+000	 2.875485030029630e+000
 2.676176157253354e-001	 1.509785191633430e+000	 2.785078404875525e+000
 2.524570335663319e-001	 1.512394122787768e+000	 2.701788881161876e+000
 2.373197127666052e-001	 1.514843192712843e+000	 2.624640217228575e+000
 2.222079208870836e-001	 1.517133539803352e+000	 2.552664407305787e+000
 2.071238878404339e-001	 1.519266339896488e+000	 2.484906279473376e+000
 1.920698052848553e-001	 1.521242805023325e+000	 2.420427890865610e+000
 1.770478260609259e-001	 1.523064182155104e+000	 2.358312678514253e+000
 1.620600636711550e-001	 1.524731751945949e+000	 2.297669327589010e+000
 1.471085918018470e-001	 1.526246827473539e+000	 2.237635322341962e+000
 1.215267182615959e-001	 1.260835726322077e+000	 4.538236680139178e-001
 1.092050938783885e-001	 1.261962627821675e+000	 4.096118575880727e-001
 9.691681094146261e-002	 1.262965762463481e+000	 3.703146104720711e-001
 8.466350730218102e-002	 1.263846289909173e+000	 3.354906255494904e-001
 7.244678589573805e-002	 1.264605392478897e+000	 3.046935039853351e-001
 6.026821451849371e-002	 1.265244274109201e+000	 2.774710959286241e-001
 4.812932563820527e-002	 1.265764159316470e+000	 2.533649540738203e-001
 3.603161623652470e-002	 1.266166292166884e+000	 2.319098960806990e-001
 2.397654768310283e-002	 1.266451935253878e+000	 2.126336770378391e-001
 1.196554564061585e-002	 1.266622368684020e+000	 1.950567723738287e-001
 0.000000000000000e+000	 1.266678889072220e+000	 1.786922683902314e-001
 1.240849238414895e-001	 1.287377025533950e+000	 7.315624888196872e-001
 1.115039223538047e-001	 1.288527648942039e+000	 6.852667334975489e-001
 9.895696416848027e-002	 1.289551900130541e+000	 6.441971067744687e-001
 8.644572161462832e-002	 1.290450963172669e+000	 6.079119055395230e-001
 7.397183137018699e-002	 1.291226045277082e+000	 5.759646531919838e-001
 6.153689423456665e-002	 1.291878375723875e+000	 5.479032442262819e-001
 4.914247493488754e-002	 1.292409204806197e+000	 5.232692100263983e-001
 3.679010196516106e-002	 1.292819802778529e+000	 5.015971083751840e-001
 2.448126745774404e-002	 1.293111458812611e+000	 4.824140382605360e-001
 1.221742708636590e-002	 1.293285479961983e+000	 4.652392806685535e-001
 0.000000000000000e+000	 1.293343190136031e+000	 4.495840635473278e-001
 1.266431236656700e-001	 1.313918265030891e+000	 9.456977659471820e-001
 1.138027456571140e-001	 1.315092610294107e+000	 8.986042433081996e-001
 1.009971128054113e-001	 1.316137977981790e+000	 8.574685672811866e-001
 8.822793191734571e-002	 1.317055576578640e+000	 8.218350171508220e-001
 7.549687341352278e-002	 1.317846638181773e+000	 7.912424391306373e-001
 6.280557109632910e-002	 1.318512417414775e+000	 7.652232132946354e-001
 5.015562195217487e-002	 1.319054190347506e+000	 7.433023575660509e-001
 3.754858598735988e-002	 1.319473253422687e+000	 7.249967717500212e-001
 2.498598609687752e-002	 1.319770922390312e+000	 7.098146235557148e-001
 1.246930796544274e-002	 1.319948531250828e+000	 6.972548775433256e-001
 0.000000000000000e+000	 1.320007431208043e+000	 6.868069661079689e-001
 1.292013183737076e-001	 1.340459451447940e+000	 1.104655231393370e+000
 1.161015643630454e-001	 1.341657518518851e+000	 1.058599475345210e+000
 1.030372573623214e-001	 1.342724002663488e+000	 1.019541426370764e+000
 9.001013865592045e-002	 1.343660136777989e+000	 9.869604158638409e-001
 7.702191240704664e-002	 1.344467177847875e+000	 9.603385164874024e-001
 6.407424542099523e-002	 1.345146405840180e+000	 9.391596944241373e-001
 5.116876694340037e-002	 1.345699122601420e+000	 9.229088420613480e-001
 3.830706849278592e-002	 1.346126650762511e+000	 9.110706912111294e-001
 2.549070372671889e-002	 1.346430332651642e+000	 9.031286082902744e-001
 1.272118834083836e-002	 1.346611529216121e+000	 8.985632741608511e-001
 0.000000000000000e+000	 1.346671618954121e+000	 8.968512513839876e-001
 1.317595086051721e-001	 1.367000591420134e+000	 1.248806657675015e+000
 1.184003790463280e-001	 1.368222380257244e+000	 1.204895016935940e+000
 1.050773983492763e-001	 1.369309980821893e+000	 1.168718561513828e+000
 9.179234227593996e-002	 1.370264650421613e+000	 1.139717480044070e+000
 7.854694873205979e-002	 1.371087670930294e+000	 1.117340713934172e+000
 6.534291752577912e-002	 1.371780347658369e+000	 1.101045229861537e+000
 5.218191016189722e-002	 1.372344008228968e+000	 1.090295138166723e+000
 3.906554967110398e-002	 1.372780001461154e+000	 1.084560656820062e+000
 2.599542047348377e-002	 1.373089696261269e+000	 1.083316922208064e+000
 1.297306827554469e-002	 1.373274480523431e+000	 1.086042649501127e+000
 0.000000000000000e+000	 1.373335760040133e+000	 1.092218645218945e+000
 1.343176949996336e-001	 1.393541691582514e+000	 1.394803205270080e+000
 1.206991902816909e-001	 1.394787202150259e+000	 1.351948017982133e+000
 1.071175362763418e-001	 1.395895919103263e+000	 1.317514420373286e+000
 9.357454322299168e-002	 1.396869124160417e+000	 1.290885404377599e+000
 8.007198276986338e-002	 1.397708124083939e+000	 1.271458959055595e+000
 6.661158772789504e-002	 1.398414249527623e+000	 1.258647536394732e+000
 5.319505186099852e-002	 1.398988853891178e+000	 1.251877323906074e+000
 3.982402971197888e-002	 1.399433312181770e+000	 1.250587323102764e+000
 2.650013646338779e-002	 1.399749019883856e+000	 1.254228234792404e+000
 1.322494783255373e-002	 1.399937391838324e+000	 1.262261153897886e+000
 0.000000000000000e+000	 1.399999861131944e+000	 1.274156076239964e+000
 1.368758781966621e-001	 1.420082758570117e+000	 1.545361877873652e+000
 1.229979986438630e-001	 1.421351990838867e+000	 1.502429817923423e+000
 1.091576716535836e-001	 1.422481824153855e+000	 1.468488523008161e+000
 9.535674194266292e-002	 1.423473564645299e+000	 1.442845612482918e+000
 8.159701490175862e-002	 1.424328543963714e+000	 1.424830258801565e+000
 6.788025634455708e-002	 1.425048118106222e+000	 1.413792923343719e+000
 5.420819229403744e-002	 1.425633666249075e+000	 1.409104855035928e+000
 4.058250880507539e-002	 1.426086589587512e+000	 1.410157350077990e+000
 2.700485182264656e-002	 1.426408310184067e+000	 1.416360773243828e+000
 1.347682707485744e-002	 1.426600269826366e+000	 1.427143343312605e+000
 0.000000000000000e+000	 1.426663928895422e+000	 1.441949684825418e+000
 1.394340588358278e-001	 1.446623799017982e+000	 1.702901664187632e+000
 1.252968047075734e-001	 1.447916752964040e+000	 1.658722523219527e+000
 1.111978049910673e-001	 1.449067702619928e+000	 1.623922298241802e+000
 9.713893888054107e-002	 1.450077978527162e+000	 1.597714772701316e+000
 8.312204550904669e-002	 1.450948937224526e+000	 1.579342230024750e+000
 6.914892369297943e-002	 1.451681960052446e+000	 1.568075540319668e+000
 5.522133171434710e-002	 1.452278451963687e+000	 1.563213960601365e+000
 4.134098714005827e-002	 1.452739840341533e+000	 1.564084645887443e+000
 2.750956667747569e-002	 1.453067573826568e+000	 1.570041871009110e+000
 1.372870606544777e-002	 1.453263121153126e+000	 1.580465965411858e+000
 0.000000000000000e+000	 1.453327969996434e+000	 1.594761962847117e+000
 1.419922375567005e-001	 1.473164819561149e+000	 1.869568581652122e+000
 1.275956090475513e-001	 1.474481495166753e+000	 1.822943708409257e+000
 1.132379367988588e-001	 1.475653561147740e+000	 1.785843201572370e+000
 9.892113448221356e-002	 1.476682372456906e+000	 1.757368095044850e+000
 8.464707497302880e-002	 1.477569310521282e+000	 1.736655340431052e+000
 7.041759009037629e-002	 1.478315782024575e+000	 1.722878330037475e+000
 5.623447037526061e-002	 1.478923217696040e+000	 1.715247078484779e+000
 4.209946490659234e-002	 1.479393071106987e+000	 1.713008059094589e+000
 2.801428115409081e-002	 1.479726817476025e+000	 1.715443694107526e+000
 1.398058486731671e-002	 1.479925952484172e+000	 1.721871500594037e+000
 0.000000000000000e+000	 1.479991991100845e+000	 1.731642893596195e+000
 1.445504149988502e-001	 1.499705826834654e+000	 2.047258108537916e+000
 1.298944122385256e-001	 1.501046224087976e+000	 1.996968528022857e+000
 1.152780675870237e-001	 1.502239406383549e+000	 1.956046294923633e+000
 1.007033291932677e-001	 1.503286753085432e+000	 1.923460168829333e+000
 8.617210367500609e-002	 1.504189670508888e+000	 1.898222796262088e+000
 7.168625585396170e-002	 1.504949590680887e+000	 1.879391760444333e+000
 5.724760853011116e-002	 1.505567970107163e+000	 1.866070228716839e+000
 4.285794229434238e-002	 1.506046288547026e+000	 1.857407192365871e+000
 2.851899537870754e-002	 1.506386047797100e+000	 1.852597296942291e+000
 1.423246354345621e-002	 1.506588770485069e+000	 1.850880264379729e+000
 0.000000000000000e+000	 1.506655998874523e+000	 1.851539908015522e+000
 1.471085918018470e-001	 1.526246827473539e+000	 2.237635322341960e+000
 1.321932148552253e-001	 1.527610946368682e+000	 2.182449554553072e+000
 1.173181978656277e-001	 1.528825244973612e+000	 2.136113597238059e+000
 1.024855234592909e-001	 1.529891127063641e+000	 2.097443640397088e+000
 8.769713199627979e-002	 1.530810023842251e+000	 2.065308363205274e+000
 7.295492130094994e-002	 1.531583392679665e+000	 2.038630606520823e+000
 5.826074643223184e-002	 1.532212715858080e+000	 2.016388575616817e+000
 4.361641949297316e-002	 1.532699499324805e+000	 1.997616566249684e+000
 2.902370947754151e-002	 1.533045271454459e+000	 1.981405210975422e+000
 1.448434215685826e-002	 1.533251581821384e+000	 1.966901246313442e+000
 0.000000000000000e+000	 1.533319999983334e+000	 1.953306801347004e+000
 1.533319999983334e+000	 0.000000000000000e+000	 1.516488250313393e+001
 1.533251581821385e+000	 1.448434215685831e-002	 1.516141469768931e+001
 1.533045271454459e+000	 2.902370947754160e-002	 1.516329573656146e+001
 1.532699499324805e+000	 4.361641949297308e-002	 1.516916573665727e+001
 1.532212715858081e+000	 5.826074643223178e-002	 1.517762718832220e+001
 1.531583392679665e+000	 7.295492130094992e-002	 1.518724624620159e+001
 1.530810023842251e+000	 8.769713199627981e-002	 1.519655419497781e+001
 1.529891127063641e+000	 1.024855234592909e-001	 1.520404907567567e+001
 1.528825244973612e+000	 1.173181978656276e-001	 1.520819746944799e+001
 1.527610946368682e+000	 1.321932148552252e-001	 1.520743643459320e+001
 1.526246827473539e+000	 1.471085918018469e-001	 1.520017559137584e+001
 1.559987999982150e+000	 0.000000000000000e+000	 1.493370813984418e+001
 1.559918391869258e+000	 1.473625854557675e-002	 1.492370131919419e+001
 1.559708493285285e+000	 2.952849927044130e-002	 1.492021560456912e+001
 1.559356707374226e+000	 4.437501044347395e-002	 1.492175663224715e+001
 1.558861457611046e+000	 5.927403627859133e-002	 1.492679224007326e+001
 1.558221189039145e+000	 7.422377701450698e-002	 1.493375406936036e+001
 1.557434369519299e+000	 8.922238903169809e-002	 1.494103936191597e+001
 1.556499490988984e+000	 1.042679850074528e-001	 1.494701293701637e+001
 1.555415070730929e+000	 1.193586341098443e-001	 1.495000934457369e+001
 1.554179652649703e+000	 1.344923622314419e-001	 1.494833518943199e+001
 1.552791808555088e+000	 1.496671522635357e-001	 1.494027162038974e+001
 1.586655999981867e+000	 0.000000000000000e+000	 1.472548252875706e+001
 1.586585201918022e+000	 1.498817493449890e-002	 1.470903163785476e+001
 1.586371715116970e+000	 3.003328906368751e-002	 1.470022137738928e+001
 1.586013915424462e+000	 4.513360139441185e-002	 1.469743016362803e+001
 1.585510199364770e+000	 6.028732612543465e-002	 1.469899788284952e+001
 1.584858985399321e+000	 7.549263272855974e-002	 1.470322779644739e+001
 1.584058715196978e+000	 9.074764606759800e-002	 1.470838866319709e+001
 1.583107854914894e+000	 1.060504465560655e-001	 1.471271706270415e+001
 1.582004896488756e+000	 1.213990703544733e-001	 1.471441991561893e+001
 1.580748358931190e+000	 1.367915096080340e-001	 1.471167719473419e+001
 1.579336789637071e+000	 1.522257127255743e-001	 1.470264481957386e+001
 1.613323999982383e+000	 0.000000000000000e+000	 1.453411825099406e+001
 1.613252011967577e+000	 1.524009132357382e-002	 1.451166507856830e+001
 1.613034936949426e+000	 3.053807885719378e-002	 1.449790576410394e+001
 1.612671123475432e+000	 4.589219234567800e-002	 1.449109801270100e+001
 1.612158941119188e+000	 6.130061597264207e-002	 1.448945968905731e+001
 1.611496781760144e+000	 7.676148844298673e-002	 1.449117101962246e+001
 1.610683060875255e+000	 9.227290310386339e-002	 1.449437703589973e+001
 1.609716218841355e+000	 1.078329081050230e-001	 1.449719024217909e+001
 1.608594722247091e+000	 1.234395065994216e-001	 1.449769350263083e+001
 1.607317065213149e+000	 1.390906569849222e-001	 1.449394314104625e+001
 1.605881770719505e+000	 1.547842731878955e-001	 1.448397224482684e+001
 1.639991999983600e+000	 0.000000000000000e+000	 1.435418125370514e+001
 1.639918822017828e+000	 1.549200771275063e-002	 1.432647747175824e+001
 1.639698158782560e+000	 3.104286865087362e-002	 1.430844280946581e+001
 1.639328331527060e+000	 4.665078329716376e-002	 1.429822003483376e+001
 1.638807682874235e+000	 6.231390582009395e-002	 1.429391016476604e+001
 1.638134578121566e+000	 7.803034415766653e-002	 1.429357495980826e+001
 1.637307406554097e+000	 9.379816014037826e-002	 1.429523968614825e+001
 1.636324582768350e+000	 1.096153696542197e-001	 1.429689612747753e+001
 1.635184548005932e+000	 1.254799428445966e-001	 1.429650584099388e+001
 1.633885771495591e+000	 1.413898043620276e-001	 1.429200364999010e+001
 1.632426751802406e+000	 1.573428336504320e-001	 1.428130136359631e+001
 1.666659999985417e+000	 0.000000000000000e+000	 1.418083857796765e+001
 1.666585632068675e+000	 1.574392410197842e-002	 1.414891112939397e+001
 1.666361380616284e+000	 3.154765844464056e-002	 1.412754021669137e+001
 1.665985539579266e+000	 4.740937424876035e-002	 1.411475872351567e+001
 1.665456424629847e+000	 6.332719566767057e-002	 1.410855524776172e+001
 1.664772374483535e+000	 7.929919987247770e-002	 1.410687688615191e+001
 1.663931752233472e+000	 9.532341717702640e-002	 1.410763231448850e+001
 1.662932946695863e+000	 1.113978312035495e-001	 1.410869514555657e+001
 1.661774373765276e+000	 1.275203790899053e-001	 1.410790755830647e+001
 1.660454477778524e+000	 1.436889517392707e-001	 1.410308418990564e+001
 1.658971732885789e+000	 1.599013941131163e-001	 1.409201628016384e+001
 1.693327999987733e+000	 0.000000000000000e+000	 1.400981102604312e+001
 1.693252442120022e+000	 1.599584049120630e-002	 1.397492963901376e+001
 1.693024602450508e+000	 3.205244823840814e-002	 1.395139617749180e+001
 1.692642747631973e+000	 4.816796520035906e-002	 1.393713798234020e+001
 1.692105166385958e+000	 6.434048551525225e-002	 1.393003492413885e+001
 1.691410170846005e+000	 8.056805558729877e-002	 1.392792247661098e+001
 1.690556097913347e+000	 9.684867421369173e-002	 1.392859511660359e+001
 1.689541310623874e+000	 1.131802927529067e-001	 1.392981003205126e+001
 1.688364199525119e+000	 1.295608153352550e-001	 1.392929113089697e+001
 1.687023184061957e+000	 1.459880991165722e-001	 1.392473334168767e+001
 1.685516713969673e+000	 1.624599545758813e-001	 1.391380719425067e+001
 1.719995999990450e+000	 0.000000000000000e+000	 1.383733023190959e+001
 1.719919252171772e+000	 1.624775688038337e-002	 1.380097686369461e+001
 1.719687824285143e+000	 3.255723803208991e-002	 1.377666022015935e+001
 1.719299955685101e+000	 4.892655615185122e-002	 1.376220573682902e+001
 1.718753908142506e+000	 6.535377536271933e-002	 1.375538751643242e+001
 1.718047967208927e+000	 8.183691130200831e-002	 1.375393169192273e+001
 1.717180443593690e+000	 9.837393125025810e-002	 1.375552014962301e+001
 1.716149674552369e+000	 1.149627543021854e-001	 1.375779459342019e+001
 1.714954025285460e+000	 1.316012515805530e-001	 1.375836094232345e+001
 1.713591890345899e+000	 1.482872464938531e-001	 1.375479405120909e+001
 1.712061695054074e+000	 1.650185150386594e-001	 1.374464274202182e+001
 1.746663999993467e+000	 0.000000000000000e+000	 1.366009966446645e+001
 1.746586062223828e+000	 1.649967326945873e-002	 1.362393969845417e+001
 1.746351046120097e+000	 3.306202782559937e-002	 1.360039764627556e+001
 1.745957163738572e+000	 4.968514710312810e-002	 1.358719997571245e+001
 1.745402649899424e+000	 6.636706520995209e-002	 1.358201725089291e+001
 1.744685763572250e+000	 8.310576701648488e-002	 1.358246778746090e+001
 1.743804789274466e+000	 9.989918828660942e-002	 1.358612170432310e+001
 1.742758038481331e+000	 1.167452158512797e-001	 1.359050535244285e+001
 1.741543851046296e+000	 1.336416878257062e-001	 1.359310611233144e+001
 1.740160596630359e+000	 1.505863938710342e-001	 1.359137754913812e+001
 1.738606676139007e+000	 1.675770755013836e-001	 1.358274491143018e+001
 1.773331999996684e+000	 0.000000000000000e+000	 1.347525914942521e+001
 1.773252872276091e+000	 1.675158965838147e-002	 1.344111418765066e+001
 1.773014267955283e+000	 3.356681761885008e-002	 1.342005717827265e+001
 1.772614371792308e+000	 5.044373805408099e-002	 1.340971786065119e+001
 1.772051391656649e+000	 6.738035505683089e-002	 1.340766475871296e+001
 1.771323559935927e+000	 8.437462273060700e-002	 1.341140913265915e+001
 1.770429134955646e+000	 1.014244453226296e-001	 1.341840936679420e+001
 1.769366402410742e+000	 1.185276774000839e-001	 1.342607577354237e+001
 1.768133676807624e+000	 1.356821240706220e-001	 1.343177580462543e+001
 1.766729302915345e+000	 1.528855412480361e-001	 1.343283965735532e+001
 1.765151657224491e+000	 1.701356359639863e-001	 1.342656626090190e+001
 1.800000000000000e+000	 0.000000000000000e+000	 1.328035254496700e+001
 1.799919682328466e+000	 1.700350604710072e-002	 1.325017465481668e+001
 1.799677489790610e+000	 3.407160741175556e-002	 1.323344148485526e+001
 1.799271579846229e+000	 5.120232900460112e-002	 1.322768758617595e+001
 1.798700133414114e+000	 6.839364490323605e-002	 1.323038020692929e+001
 1.797961356299907e+000	 8.564347844425327e-002	 1.323892354683197e+001
 1.797053480637195e+000	 1.029497023582024e-001	 1.325066349065225e+001
 1.795974766340585e+000	 1.203101389484920e-001	 1.326289280038237e+001
 1.794723502569440e+000	 1.377225603152076e-001	 1.327285675638073e+001
 1.793298009200867e+000	 1.551846886247796e-001	 1.327775923445869e+001
 1.791696638310540e+000	 1.726941964264003e-001	 1.327476920248722e+001
 1.526246827473539e+000	 1.471085918018469e-001	 1.520017559137583e+001
 1.524731751945950e+000	 1.620600636711551e-001	 1.519219254523748e+001
 1.523064182155104e+000	 1.770478260609258e-001	 1.518936733493689e+001
 1.521242805023325e+000	 1.920698052848553e-001	 1.519024582829134e+001
 1.519266339896488e+000	 2.071238878404338e-001	 1.519337200600030e+001
 1.517133539803352e+000	 2.222079208870836e-001	 1.519729086223685e+001
 1.514843192712843e+000	 2.373197127666054e-001	 1.520055137072175e+001
 1.512394122787768e+000	 2.524570335663319e-001	 1.520170950129390e+001
 1.509785191633430e+000	 2.676176157253354e-001	 1.519933127092069e+001
 1.507015299539557e+000	 2.827991546839795e-001	 1.519199581209501e+001
 1.504083386713946e+000	 2.979993095770399e-001	 1.517829844063653e+001
 1.552791808555088e+000	 1.496671522635357e-001	 1.494027162038974e+001
 1.551250382341223e+000	 1.648786649929308e-001	 1.493188117318604e+001
 1.549553809634328e+000	 1.801270994193072e-001	 1.492935279328893e+001
 1.547700754519251e+000	 1.954103457901381e-001	 1.493114330033648e+001
 1.545689914068317e+000	 2.107262538441939e-001	 1.493570974490588e+001
 1.543520019622557e+000	 2.260726332979972e-001	 1.494151268719148e+001
 1.541189838070859e+000	 2.414472543753199e-001	 1.494701954885472e+001
 1.538698173125491e+000	 2.568478483801319e-001	 1.495070802117282e+001
 1.536043866592424e+000	 2.722721083133523e-001	 1.495106951141483e+001
 1.533225799634873e+000	 2.877176895336973e-001	 1.494661260824072e+001
 1.530242894028381e+000	 3.031822104628573e-001	 1.493586654587415e+001
 1.579336789637071e+000	 1.522257127255743e-001	 1.470264481957386e+001
 1.577769012736920e+000	 1.676972663150494e-001	 1.469363680513877e+001
 1.576043437113978e+000	 1.832063727780419e-001	 1.469112066460150e+001
 1.574158704015620e+000	 1.987508862957980e-001	 1.469347172054881e+001
 1.572113488240613e+000	 2.143286198483647e-001	 1.469906764971129e+001
 1.569906499442260e+000	 2.299373457093609e-001	 1.470629215199375e+001
 1.567536483429407e+000	 2.455747959845261e-001	 1.471353870099263e+001
 1.565002223463775e+000	 2.612386631944633e-001	 1.471921435711319e+001
 1.562302541552006e+000	 2.769266009019343e-001	 1.472174362305102e+001
 1.559436299730789e+000	 2.926362243840045e-001	 1.471957232013191e+001
 1.556402401343417e+000	 3.083651113492743e-001	 1.471117146282762e+001
 1.605881770719505e+000	 1.547842731878955e-001	 1.448397224482683e+001
 1.604287643133057e+000	 1.705158676374521e-001	 1.447432286024215e+001
 1.602533064594071e+000	 1.862856461370759e-001	 1.447172064846009e+001
 1.600616653512444e+000	 2.020914268017832e-001	 1.447446591549927e+001
 1.598537062413384e+000	 2.179309858528943e-001	 1.448086343508741e+001
 1.596292979262458e+000	 2.338020581211211e-001	 1.448922652325476e+001
 1.593883128788470e+000	 2.497023375941674e-001	 1.449788120348189e+001
 1.591306273802593e+000	 2.656294780092663e-001	 1.450517044135480e+001
 1.588561216512131e+000	 2.815810934910187e-001	 1.450945842617419e+001
 1.585646799827250e+000	 2.975547592348355e-001	 1.450913487554448e+001
 1.582561908658987e+000	 3.135480122362240e-001	 1.450261933764712e+001
 1.632426751802406e+000	 1.573428336504320e-001	 1.428130136359631e+001
 1.630806273529654e+000	 1.733344689600800e-001	 1.427115490913472e+001
 1.629022692074626e+000	 1.893649194963554e-001	 1.426853689158558e+001
 1.627074603009735e+000	 2.054319673080419e-001	 1.427167802059130e+001
 1.624960636586632e+000	 2.215333518577308e-001	 1.427881556210565e+001
 1.622679459083146e+000	 2.376667705332243e-001	 1.428819783680267e+001
 1.620229774148032e+000	 2.538298792041876e-001	 1.429808881898417e+001
 1.617610324141914e+000	 2.700202928244812e-001	 1.430677281262591e+001
 1.614819891472758e+000	 2.862355860805423e-001	 1.431255917952493e+001
 1.611857299924204e+000	 3.024732940861247e-001	 1.431378709292414e+001
 1.608721415975027e+000	 3.187309131236401e-001	 1.430883028851412e+001
 1.658971732885789e+000	 1.599013941131163e-001	 1.409201628016384e+001
 1.657324903926732e+000	 1.761530702828741e-001	 1.408166813290364e+001
 1.655512319555662e+000	 1.924441928558264e-001	 1.407925665736259e+001
 1.653532552507511e+000	 2.087725078145225e-001	 1.408294733275673e+001
 1.651384210760366e+000	 2.251357178628224e-001	 1.409091424237164e+001
 1.649065938904318e+000	 2.415314829456167e-001	 1.410134501717852e+001
 1.646576419508075e+000	 2.579574208145299e-001	 1.411244589090241e+001
 1.643914374481710e+000	 2.744111076400478e-001	 1.412244684070537e+001
 1.641078566433845e+000	 2.908900786704421e-001	 1.412960678578262e+001
 1.638067800021593e+000	 3.073918289378069e-001	 1.413221881440350e+001
 1.634880923291471e+000	 3.239138140114559e-001	 1.412861540828832e+001
 1.685516713969673e+000	 1.624599545758813e-001	 1.391380719425066e+001
 1.683843534324310e+000	 1.789716716057755e-001	 1.390368790594596e+001
 1.682001947037197e+000	 1.955234662154352e-001	 1.390184201222260e+001
 1.679990502005782e+000	 2.121130483211732e-001	 1.390637307563653e+001
 1.677807784934589e+000	 2.287380838681173e-001	 1.391539525326328e+001
 1.675452418725971e+000	 2.453961953582446e-001	 1.392703871015824e+001
 1.672923064868585e+000	 2.620849624251379e-001	 1.393945515636961e+001
 1.670218424821950e+000	 2.788019224559066e-001	 1.395082347901198e+001
 1.667337241395350e+000	 2.955445712606550e-001	 1.395935543884075e+001
 1.664278300119365e+000	 3.123103637898162e-001	 1.396330139880887e+001
 1.661040430608252e+000	 3.290967148996047e-001	 1.396095605026526e+001
 1.712061695054074e+000	 1.650185150386594e-001	 1.374464274202181e+001
 1.710362164722407e+000	 1.817902729287253e-001	 1.373530316368660e+001
 1.708491574519249e+000	 1.986027395751275e-001	 1.373450420145394e+001
 1.706448451504562e+000	 2.154535888279422e-001	 1.374028976114509e+001
 1.704231359109308e+000	 2.323404498735635e-001	 1.375071625917411e+001
 1.701838898548098e+000	 2.492609077710546e-001	 1.376385853384636e+001
 1.699269710229544e+000	 2.662125040359551e-001	 1.377781589359869e+001
 1.696522475162606e+000	 2.831927372719976e-001	 1.379071827084512e+001
 1.693595916357230e+000	 3.001990638511179e-001	 1.380073244780426e+001
 1.690488800217466e+000	 3.172288986420876e-001	 1.380606831851795e+001
 1.687199937925307e+000	 3.342796157880200e-001	 1.380498514924956e+001
 1.738606676139007e+000	 1.675770755013836e-001	 1.358274491143019e+001
 1.736880795121043e+000	 1.846088742516645e-001	 1.357484225751940e+001
 1.734981202001836e+000	 2.016820129348496e-001	 1.357568042700275e+001
 1.732906401003865e+000	 2.187941293347777e-001	 1.358324486992617e+001
 1.730654933284528e+000	 2.359428158791092e-001	 1.359553537093032e+001
 1.728225378370697e+000	 2.531256201839929e-001	 1.361057248985408e+001
 1.725616355590934e+000	 2.703400456469253e-001	 1.362640415410497e+001
 1.722826525503650e+000	 2.875835520882610e-001	 1.364111236841407e+001
 1.719854591319444e+000	 3.048535564417678e-001	 1.365282000506787e+001
 1.716699300315840e+000	 3.221474334945551e-001	 1.365969763531503e+001
 1.713359445242568e+000	 3.394625166766351e-001	 1.365997036041521e+001
 1.765151657224491e+000	 1.701356359639863e-001	 1.342656626090190e+001
 1.763399425520238e+000	 1.874274755745342e-001	 1.342085103514391e+001
 1.761470829484977e+000	 2.047612862945475e-001	 1.342401277441014e+001
 1.759364350503703e+000	 2.221346698416280e-001	 1.343397860659382e+001
 1.757078507460254e+000	 2.395451818847026e-001	 1.344869170777090e+001
 1.754611858193762e+000	 2.569903325970059e-001	 1.346611830717081e+001
 1.751963000952741e+000	 2.744675872579916e-001	 1.348425486032807e+001
 1.749130575845050e+000	 2.919743669046370e-001	 1.350113535277121e+001
 1.746113266281949e+000	 3.095080490325418e-001	 1.351483869382214e+001
 1.742909800414432e+000	 3.270659683471534e-001	 1.352349615744200e+001
 1.739518952559972e+000	 3.446454175653835e-001	 1.352529882459435e+001
 1.791696638310540e+000	 1.726941964264003e-001	 1.327476920248722e+001
 1.789918055920011e+000	 1.902460768972756e-001	 1.327207291550423e+001
 1.787960456968690e+000	 2.078405596541674e-001	 1.327832906600060e+001
 1.785822300004091e+000	 2.254752103484413e-001	 1.329140551458282e+001
 1.783502081636491e+000	 2.431475478902916e-001	 1.330918775420520e+001
 1.780998338017287e+000	 2.608550450100400e-001	 1.332958651829032e+001
 1.778309646314947e+000	 2.785951288690977e-001	 1.335054557519370e+001
 1.775434626186778e+000	 2.963651817210658e-001	 1.337004966787650e+001
 1.772371941244703e+000	 3.141625416233767e-001	 1.338613255459193e+001
 1.769120300513190e+000	 3.319845031998169e-001	 1.339688510348828e+001
 1.765678459877450e+000	 3.498283184541985e-001	 1.340046339131669e+001
 1.504083386713946e+000	 2.979993095770399e-001	 1.517829844063653e+001
 1.500987958153399e+000	 3.132179871671365e-001	 1.516333288480733e+001
 1.497728465867564e+000	 3.284504932603852e-001	 1.515231098876612e+001
 1.494303978033006e+000	 3.436943779339137e-001	 1.514403707632845e+001
 1.490713607613841e+000	 3.589471580746027e-001	 1.513735195322671e+001
 1.486956513530291e+000	 3.742063182928812e-001	 1.513113562482582e+001
 1.483031901808774e+000	 3.894693118802305e-001	 1.512430987136635e+001
 1.478939026711766e+000	 4.047335618101468e-001	 1.511584065886761e+001
 1.474677191845686e+000	 4.199964617822379e-001	 1.510474036393364e+001
 1.470245751245001e+000	 4.352553773090560e-001	 1.509006979098736e+001
 1.465644110430824e+000	 4.505076468451837e-001	 1.507093996091454e+001
 1.530242894028381e+000	 3.031822104628573e-001	 1.493586654587415e+001
 1.527093628768171e+000	 3.186655762418404e-001	 1.492410709416855e+001
 1.523777446333049e+000	 3.341630110338180e-001	 1.491673319663211e+001
 1.520293398692991e+000	 3.496720223060635e-001	 1.491249874762741e+001
 1.516640583384481e+000	 3.651900837583482e-001	 1.491019858355253e+001
 1.512818144699393e+000	 3.807146362526285e-001	 1.490867152026139e+001
 1.508825274855080e+000	 3.962430887872052e-001	 1.490680323344785e+001
 1.504661215143897e+000	 4.117728195150920e-001	 1.490352895745450e+001
 1.500325257060339e+000	 4.273011768062745e-001	 1.489783597806829e+001
 1.495816743404018e+000	 4.428254803534433e-001	 1.488876589515436e+001
 1.491135069356658e+000	 4.583430223207199e-001	 1.487541663146538e+001
 1.556402401343417e+000	 3.083651113492743e-001	 1.471117146282762e+001
 1.553199299383525e+000	 3.241131653171373e-001	 1.470197837490604e+001
 1.549826426799085e+000	 3.398755288078223e-001	 1.469755700331812e+001
 1.546282819353484e+000	 3.556496666787523e-001	 1.469661638355970e+001
 1.542567559155575e+000	 3.714330094425919e-001	 1.469791140290243e+001
 1.538679775868886e+000	 3.872229542128295e-001	 1.470024617972581e+001
 1.534618647901714e+000	 4.030168656945872e-001	 1.470247726985077e+001
 1.530383403576289e+000	 4.188120772204010e-001	 1.470351667242607e+001
 1.525973322275190e+000	 4.346058918306374e-001	 1.470233460800755e+001
 1.521387735563173e+000	 4.503955833981296e-001	 1.469796204176882e+001
 1.516626028282580e+000	 4.661783977965402e-001	 1.468949292529655e+001
 1.582561908658987e+000	 3.135480122362240e-001	 1.450261933764712e+001
 1.579304969999390e+000	 3.295607543929612e-001	 1.449549619174351e+001
 1.575875407265591e+000	 3.455880465823346e-001	 1.449347837043645e+001
 1.572272240014396e+000	 3.616273110519195e-001	 1.449523471920085e+001
 1.568494534927030e+000	 3.776759351272775e-001	 1.449948530290595e+001
 1.564541407038679e+000	 3.937312721734312e-001	 1.450500515251917e+001
 1.560412020948581e+000	 4.097906426023273e-001	 1.451062782143528e+001
 1.556105592008850e+000	 4.258513349260275e-001	 1.451524872081536e+001
 1.551621387490148e+000	 4.419106068552816e-001	 1.451782820339624e+001
 1.546958727722380e+000	 4.579656864430683e-001	 1.451739436553603e+001
 1.542116987208505e+000	 4.740137732725954e-001	 1.451304553780863e+001
 1.608721415975027e+000	 3.187309131236401e-001	 1.430883028851412e+001
 1.605410640615688e+000	 3.350083434692462e-001	 1.430341123915038e+001
 1.601924387732486e+000	 3.513005643572913e-001	 1.430338146696859e+001
 1.598261660675640e+000	 3.676049554255052e-001	 1.430737339298969e+001
 1.594421510698755e+000	 3.839188608123485e-001	 1.431407649261365e+001
 1.590403038208676e+000	 4.002395901343809e-001	 1.432224143854729e+001
 1.586205393995587e+000	 4.165644195103766e-001	 1.433068403454844e+001
 1.581827780441484e+000	 4.328905926319244e-001	 1.433828890593089e+001
 1.577269452705119e+000	 4.492153218801608e-001	 1.434401291283192e+001
 1.572529719881547e+000	 4.655357894882130e-001	 1.434688825255973e+001
 1.567607946134350e+000	 4.818491487488354e-001	 1.434602521791394e+001
 1.634880923291471e+000	 3.239138140114559e-001	 1.412861540828832e+001
 1.631516311232345e+000	 3.404559325459265e-001	 1.412465328836592e+001
 1.627973368199684e+000	 3.570130821326286e-001	 1.412631736840861e+001
 1.624251081337129e+000	 3.735825997994487e-001	 1.413220650237917e+001
 1.620348486470660e+000	 3.901617864977486e-001	 1.414098291168059e+001
 1.616264669378785e+000	 4.067479080956263e-001	 1.415137675669483e+001
 1.611998767042638e+000	 4.233381964186860e-001	 1.416219047887832e+001
 1.607549968874099e+000	 4.399298503380456e-001	 1.417230287562243e+001
 1.602917517920016e+000	 4.565200369052302e-001	 1.418067287012750e+001
 1.598100712040590e+000	 4.731058925335174e-001	 1.418634293885839e+001
 1.593098905060033e+000	 4.896845242252110e-001	 1.418844215976102e+001
 1.661040430608252e+000	 3.290967148996047e-001	 1.396095605026526e+001
 1.657621981849287e+000	 3.459035216229360e-001	 1.395831124234302e+001
 1.654022348667107e+000	 3.627255999082827e-001	 1.396148488710693e+001
 1.650240501998774e+000	 3.795602441736897e-001	 1.396904421266417e+001
 1.646275462242652e+000	 3.964047121834209e-001	 1.397962661762391e+001
 1.642126300548912e+000	 4.132562260571145e-001	 1.399194470731983e+001
 1.637792140089639e+000	 4.301119733272061e-001	 1.400479107885638e+001
 1.633272157306602e+000	 4.469691080443441e-001	 1.401704281313816e+001
 1.628565583134742e+000	 4.638247519304442e-001	 1.402766563205895e+001
 1.623671704199419e+000	 4.806759955789353e-001	 1.403571767935112e+001
 1.618589863985467e+000	 4.975198997016720e-001	 1.404035288424342e+001
 1.687199937925307e+000	 3.342796157880200e-001	 1.380498514924956e+001
 1.683727652466438e+000	 3.513511107002090e-001	 1.380361515897652e+001
 1.680071329134671e+000	 3.684381176841904e-001	 1.380821330250670e+001
 1.676229922660488e+000	 3.855378885481679e-001	 1.381731619614564e+001
 1.672202438014640e+000	 4.026476378693090e-001	 1.382953793289896e+001
 1.667987931718963e+000	 4.197645440187934e-001	 1.384357562329008e+001
 1.663585513136496e+000	 4.368857502358879e-001	 1.385821466177441e+001
 1.658994345738899e+000	 4.540083657507736e-001	 1.387233367252451e+001
 1.654213648349210e+000	 4.711294669557572e-001	 1.388490908835194e+001
 1.649242696357944e+000	 4.882460986244200e-001	 1.389501931685906e+001
 1.644080822910571e+000	 5.053552751781691e-001	 1.390184844859606e+001
 1.713359445242568e+000	 3.394625166766351e-001	 1.365997036041521e+001
 1.709833323083724e+000	 3.567986997776795e-001	 1.365992003225123e+001
 1.706120309602293e+000	 3.741506354602879e-001	 1.366594678821558e+001
 1.702219343322184e+000	 3.915155329228228e-001	 1.367655670600854e+001
 1.698129413786532e+000	 4.088905635553564e-001	 1.369034116370776e+001
 1.693849562888844e+000	 4.262728619806097e-001	 1.370598292909341e+001
 1.689378886183114e+000	 4.436595271446825e-001	 1.372226194982294e+001
 1.684716534170896e+000	 4.610476234572876e-001	 1.373806079348940e+001
 1.679861713563326e+000	 4.784341819811238e-001	 1.375236968655572e+001
 1.674813688516081e+000	 4.958162016699257e-001	 1.376429110148868e+001
 1.669571781835260e+000	 5.131906506546526e-001	 1.377304384213241e+001
 1.739518952559972e+000	 3.446454175653835e-001	 1.352529882459436e+001
 1.735938993701071e+000	 3.622462888552817e-001	 1.352669114625285e+001
 1.732169290069892e+000	 3.798631532365110e-001	 1.353423035728797e+001
 1.728208763983774e+000	 3.974931772975942e-001	 1.354639111282633e+001
 1.724056389558237e+000	 4.151334892415066e-001	 1.356174172508186e+001
 1.719711194058461e+000	 4.327811799425113e-001	 1.357895084926432e+001
 1.715172259229400e+000	 4.504333040535404e-001	 1.359679384404781e+001
 1.710438722602501e+000	 4.680868811638395e-001	 1.361415875051047e+001
 1.705509778777000e+000	 4.857388970064985e-001	 1.363005183338212e+001
 1.700384680673739e+000	 5.033863047154056e-001	 1.364360262876610e+001
 1.695062740759450e+000	 5.210260261310729e-001	 1.365406844325318e+001
 1.765678459877450e+000	 3.498283184541985e-001	 1.340046339131669e+001
 1.762044664318403e+000	 3.676938779329496e-001	 1.340349083891943e+001
 1.758218270537386e+000	 3.855756710127969e-001	 1.341269716826093e+001
 1.754198184645169e+000	 4.034708216724215e-001	 1.342652375200113e+001
 1.749983365329663e+000	 4.213764149277031e-001	 1.344351452639326e+001
 1.745572825227723e+000	 4.392894979044454e-001	 1.346232332618805e+001
 1.740965632275259e+000	 4.572070809624127e-001	 1.348172086623706e+001
 1.736160911033618e+000	 4.751261388703825e-001	 1.350060130818105e+001
 1.731157843990140e+000	 4.930436120318356e-001	 1.351798835049582e+001
 1.725955672830830e+000	 5.109564077608136e-001	 1.353304078049241e+001
 1.720553699683057e+000	 5.288614016073797e-001	 1.354505742765793e+001
 1.465644110430824e+000	 4.505076468451837e-001	 1.507093996091454e+001
 1.460871727075660e+000	 4.657505827348306e-001	 1.504985889206605e+001
 1.455928110904371e+000	 4.809814717320294e-001	 1.502948714668464e+001
 1.450812825763512e+000	 4.961975768838239e-001	 1.500924349832914e+001
 1.445525490928912e+000	 5.113961390398313e-001	 1.498860067094766e+001
 1.440065782013028e+000	 5.265743781829089e-001	 1.496708529226680e+001
 1.434433431836373e+000	 5.417294947976459e-001	 1.494427750278246e+001
 1.428628231261313e+000	 5.568586712756410e-001	 1.491981020838442e+001
 1.422650029986620e+000	 5.719590733564495e-001	 1.489336796662301e+001
 1.416498737301121e+000	 5.870278516030030e-001	 1.486468549877538e+001
 1.410174322794896e+000	 6.020621429102250e-001	 1.483354582217412e+001
 1.491135069356658e+000	 4.583430223207199e-001	 1.487541663146538e+001
 1.486279683158418e+000	 4.738510683077294e-001	 1.486027616701549e+001
 1.481250086007147e+000	 4.893468578788444e-001	 1.484597126169636e+001
 1.476045834163695e+000	 5.048276064791276e-001	 1.483189411346789e+001
 1.470666540282229e+000	 5.202905069701495e-001	 1.481749422106812e+001
 1.465111874333372e+000	 5.357327309837993e-001	 1.480227838125156e+001
 1.459381564490777e+000	 5.511514303145783e-001	 1.478581030780689e+001
 1.453475397979445e+000	 5.665437383493174e-001	 1.476770985866339e+001
 1.447393221884075e+000	 5.819067715331873e-001	 1.474765185956325e+001
 1.441134943915833e+000	 5.972376308707768e-001	 1.472536451513001e+001
 1.434700533135920e+000	 6.125334034609495e-001	 1.470062740069890e+001
 1.516626028282580e+000	 4.661783977965402e-001	 1.468949292529655e+001
 1.511687639241224e+000	 4.819515538809139e-001	 1.467934861806025e+001
 1.506572061109939e+000	 4.977122440259598e-001	 1.467007927093692e+001
 1.501278842563869e+000	 5.134576360747547e-001	 1.466106639739962e+001
 1.495807589635517e+000	 5.291848749008191e-001	 1.465175306277583e+001
 1.490157966653669e+000	 5.448910837850698e-001	 1.464164392016652e+001
 1.484329697145122e+000	 5.605733658319159e-001	 1.463030483010055e+001
 1.478322564697501e+000	 5.762288054234166e-001	 1.461736204833206e+001
 1.472136413781435e+000	 5.918544697103531e-001	 1.460250096856113e+001
 1.465771150530427e+000	 6.074474101389680e-001	 1.458546440943947e+001
 1.459226743476797e+000	 6.230046640120598e-001	 1.456605043800658e+001
 1.542116987208505e+000	 4.740137732725954e-001	 1.451304553780863e+001
 1.537095595323997e+000	 4.900520394543282e-001	 1.450709533720709e+001
 1.531894036212673e+000	 5.060776301733111e-001	 1.450197984672145e+001
 1.526511850963969e+000	 5.220876656706314e-001	 1.449708488047619e+001
 1.520948638988720e+000	 5.380792428317555e-001	 1.449186298143841e+001
 1.515204058973875e+000	 5.540494365866256e-001	 1.448583349317136e+001
 1.509277829799371e+000	 5.699953013495547e-001	 1.447858217287855e+001
 1.503169731415458e+000	 5.859138724978268e-001	 1.446976032804747e+001
 1.496879605678688e+000	 6.018021678878297e-001	 1.445908346159712e+001
 1.490407357144906e+000	 6.176571894074572e-001	 1.444632941326523e+001
 1.483752953817541e+000	 6.334759245634387e-001	 1.443133598802390e+001
 1.567607946134350e+000	 4.818491487488354e-001	 1.434602521791394e+001
 1.562503551406660e+000	 4.981525250279171e-001	 1.434359363005943e+001
 1.557216011315279e+000	 5.144430163208340e-001	 1.434188301301867e+001
 1.551744859363929e+000	 5.307176952666832e-001	 1.434029759215710e+001
 1.546089688341783e+000	 5.469736107628745e-001	 1.433831445307238e+001
 1.540250151293942e+000	 5.632077893883718e-001	 1.433548364874050e+001
 1.534225962453488e+000	 5.794172368673900e-001	 1.433142780091665e+001
 1.528016898133288e+000	 5.955989395724354e-001	 1.432584117578613e+001
 1.521622797575823e+000	 6.117498660655001e-001	 1.431848821670010e+001
 1.515043563759269e+000	 6.278669686761254e-001	 1.430920151993156e+001
 1.508279164158169e+000	 6.439471851149696e-001	 1.429787924273475e+001
 1.593098905060033e+000	 4.896845242252110e-001	 1.418844215976102e+001
 1.587911507489136e+000	 5.062530106016241e-001	 1.418896521073134e+001
 1.582537986417684e+000	 5.228084024684645e-001	 1.419002718184439e+001
 1.576977867763687e+000	 5.393477248628366e-001	 1.419106397279412e+001
 1.571230737694647e+000	 5.558679786940914e-001	 1.419159146103429e+001
 1.565296243613825e+000	 5.723661421902139e-001	 1.419120564636732e+001
 1.559174095107435e+000	 5.888391723853176e-001	 1.418958223795896e+001
 1.552864064850969e+000	 6.052840066471303e-001	 1.418647566122870e+001
 1.546365989472827e+000	 6.216975642432467e-001	 1.418171746516949e+001
 1.539679770373518e+000	 6.380767479448533e-001	 1.417521411404274e+001
 1.532805374498695e+000	 6.544184456665354e-001	 1.416694415106145e+001
 1.618589863985467e+000	 4.975198997016720e-001	 1.404035288424342e+001
 1.613319463571345e+000	 5.143534961753936e-001	 1.404336380338305e+001
 1.607859961519817e+000	 5.311737886161386e-001	 1.404666750789890e+001
 1.602210876163177e+000	 5.479777544590171e-001	 1.404974401042527e+001
 1.596371787047260e+000	 5.647623466253220e-001	 1.405216143999503e+001
 1.590342335933476e+000	 5.815244949920563e-001	 1.405357622870578e+001
 1.584122227761178e+000	 5.982611079032335e-001	 1.405373268397776e+001
 1.577711231568475e+000	 6.149690737218001e-001	 1.405246192105746e+001
 1.571109181369688e+000	 6.316452624209524e-001	 1.404968013380986e+001
 1.564315976987654e+000	 6.482865272135218e-001	 1.404538618554956e+001
 1.557331584839137e+000	 6.648897062180198e-001	 1.403965850567422e+001
 1.644080822910571e+000	 5.053552751781691e-001	 1.390184844859606e+001
 1.638727419653209e+000	 5.224539817491696e-001	 1.390696399770653e+001
 1.633181936621605e+000	 5.395391747637919e-001	 1.391206541836779e+001
 1.627443884562336e+000	 5.566077840551512e-001	 1.391668846961609e+001
 1.621512836399563e+000	 5.736567145564816e-001	 1.392046622484089e+001
 1.615388428252850e+000	 5.906828477938049e-001	 1.392312930784615e+001
 1.609070360414681e+000	 6.076830434210331e-001	 1.392450545244055e+001
 1.602558398285783e+000	 6.246541407963322e-001	 1.392451835714478e+001
 1.595852373266393e+000	 6.415929605984999e-001	 1.392318581029988e+001
 1.588952183601679e+000	 6.584963064820117e-001	 1.392061706490889e+001
 1.581857795179509e+000	 6.753609667693055e-001	 1.391714403086639e+001
 1.669571781835260e+000	 5.131906506546526e-001	 1.377304384213241e+001
 1.664135375734650e+000	 5.305544673228969e-001	 1.377995122433697e+001
 1.658503911722976e+000	 5.479045609113603e-001	 1.378647919228252e+001
 1.652676892961098e+000	 5.652378136511652e-001	 1.379223009562714e+001
 1.646653885751501e+000	 5.825510824874859e-001	 1.379691389709093e+001
 1.640434520571898e+000	 5.998412005953645e-001	 1.380034846801724e+001
 1.634018493067907e+000	 6.171049789386121e-001	 1.380245913993596e+001
 1.627405565002866e+000	 6.343392078706147e-001	 1.380327748036184e+001
 1.620595565162932e+000	 6.515406587757719e-001	 1.380293926508572e+001
 1.613588390215593e+000	 6.687060857502039e-001	 1.380168965578776e+001
 1.606384005519828e+000	 6.858322273202755e-001	 1.380042984957329e+001
 1.695062740759450e+000	 5.210260261310729e-001	 1.365406844325318e+001
 1.689543331815590e+000	 5.386549528965192e-001	 1.366251273229132e+001
 1.683825886823860e+000	 5.562699470587799e-001	 1.367015547894839e+001
 1.677909901359400e+000	 5.738678432469843e-001	 1.367667569122887e+001
 1.671794935103017e+000	 5.914454504182500e-001	 1.368187143434206e+001
 1.665480612890576e+000	 6.089995533966403e-001	 1.368566019876215e+001
 1.658966625720819e+000	 6.265269144558662e-001	 1.368807845105457e+001
 1.652252731719701e+000	 6.440242749445355e-001	 1.368928033203466e+001
 1.645338757059289e+000	 6.614883569526509e-001	 1.368953547120368e+001
 1.638224596829399e+000	 6.789158650179793e-001	 1.368950518497830e+001
 1.630910215860108e+000	 6.963034878708130e-001	 1.369014256318394e+001
 1.720553699683057e+000	 5.288614016073797e-001	 1.354505742765793e+001
 1.714951287895950e+000	 5.467554384699808e-001	 1.355482946450888e+001
 1.709147861924183e+000	 5.646353332059860e-001	 1.356332165804374e+001
 1.703142909757176e+000	 5.824978728425351e-001	 1.357029897565638e+001
 1.696935984454057e+000	 6.003398183486900e-001	 1.357565807945404e+001
 1.690526705208835e+000	 6.181579061975373e-001	 1.357942778282333e+001
 1.683914758373382e+000	 6.359488499726911e-001	 1.358176861056034e+001
 1.677099898436262e+000	 6.537093420179821e-001	 1.358297142313033e+001
 1.670081948955454e+000	 6.714360551290194e-001	 1.358350424858559e+001
 1.662860803443095e+000	 6.891256442852184e-001	 1.358466920503607e+001
 1.655436426200365e+000	 7.067747484208016e-001	 1.358681953607233e+001
 1.410174322794896e+000	 6.020621429102250e-001	 1.483354582217412e+001
 1.403677804762223e+000	 6.170568256895567e-001	 1.479982806168086e+001
 1.397008340587419e+000	 6.320112737763581e-001	 1.476347526157801e+001
 1.390166085595247e+000	 6.469225945203407e-001	 1.472444152656247e+001
 1.383151257758930e+000	 6.617878879772692e-001	 1.468271226496397e+001
 1.375964138175143e+000	 6.766042485600979e-001	 1.463863399126259e+001
 1.368605071488112e+000	 6.913687667140008e-001	 1.459321844395162e+001
 1.361074466261639e+000	 7.060785306134997e-001	 1.454641849159323e+001
 1.353372795297910e+000	 7.207306278798588e-001	 1.449816593840386e+001
 1.345500595902038e+000	 7.353221473168310e-001	 1.444845751366836e+001
 1.337458470091355e+000	 7.498501806627994e-001	 1.439735468158537e+001
 1.434700533135920e+000	 6.125334034609495e-001	 1.470062740069890e+001
 1.428091025549134e+000	 6.277888786388084e-001	 1.467320861899974e+001
 1.421305563884740e+000	 6.430034193492565e-001	 1.464296306137762e+001
 1.414344306168952e+000	 6.581740826320957e-001	 1.460987653439748e+001
 1.407207474166046e+000	 6.732979181063205e-001	 1.457409682078061e+001
 1.399895353861613e+000	 6.883719696499761e-001	 1.453658185490963e+001
 1.392408295894034e+000	 7.033932771043159e-001	 1.449737040814599e+001
 1.384746715932977e+000	 7.183588780004508e-001	 1.445633724027362e+001
 1.376911095003749e+000	 7.332658093066115e-001	 1.441342351449020e+001
 1.368901979756440e+000	 7.481111091940828e-001	 1.436863666456816e+001
 1.360719982678853e+000	 7.628918188198210e-001	 1.432205011825851e+001
 1.459226743476797e+000	 6.230046640120598e-001	 1.456605043800658e+001
 1.452504246335858e+000	 6.385209315883906e-001	 1.454392574175567e+001
 1.445602787181828e+000	 6.539955649224104e-001	 1.451885639747522e+001
 1.438522526742372e+000	 6.694255707440153e-001	 1.449088744701292e+001
 1.431263690572821e+000	 6.848079482354361e-001	 1.446080666532238e+001
 1.423826569547684e+000	 7.001396907398114e-001	 1.442883272168105e+001
 1.416211520299499e+000	 7.154177874944814e-001	 1.439478639047561e+001
 1.408418965603801e+000	 7.306392253871504e-001	 1.435855637179922e+001
 1.400449394709020e+000	 7.458009907330195e-001	 1.432009921286887e+001
 1.392303363610223e+000	 7.609000710709124e-001	 1.427943908212782e+001
 1.383981495265687e+000	 7.759334569763623e-001	 1.423666739636988e+001
 1.483752953817541e+000	 6.334759245634387e-001	 1.443133598802390e+001
 1.476917467122426e+000	 6.492529845381935e-001	 1.441367517515656e+001
 1.469900010478731e+000	 6.649877104957208e-001	 1.439302129673316e+001
 1.462700747315572e+000	 6.806770588560147e-001	 1.436986726117091e+001
 1.455319906979338e+000	 6.963179783645463e-001	 1.434471638374672e+001
 1.447757785233454e+000	 7.119074118295533e-001	 1.431734545623057e+001
 1.440014744704620e+000	 7.274422978844636e-001	 1.428759369595902e+001
 1.432091215274239e+000	 7.429195727735806e-001	 1.425536980141391e+001
 1.423987694413863e+000	 7.583361721590806e-001	 1.422065177417951e+001
 1.415704747463540e+000	 7.736890329473285e-001	 1.418348659011245e+001
 1.407243007852023e+000	 7.889750951324396e-001	 1.414398972033214e+001
 1.508279164158169e+000	 6.439471851149696e-001	 1.429787924273475e+001
 1.501330687908871e+000	 6.599850374881072e-001	 1.428400271014543e+001
 1.494197233775495e+000	 6.759798560690888e-001	 1.426732248097945e+001
 1.486878967888615e+000	 6.919285469680097e-001	 1.424853672226677e+001
 1.479376123385674e+000	 7.078280084935836e-001	 1.422747113726754e+001
 1.471689000919019e+000	 7.236751329191492e-001	 1.420391828848342e+001
 1.463817969109509e+000	 7.394668082742285e-001	 1.417774192695150e+001
 1.455763464944417e+000	 7.551999201597240e-001	 1.414887685958572e+001
 1.447525994118421e+000	 7.708713535847911e-001	 1.411732866175622e+001
 1.439106131316547e+000	 7.864779948233394e-001	 1.408317323562822e+001
 1.430504520438026e+000	 8.020167332880692e-001	 1.404655621515769e+001
 1.532805374498695e+000	 6.544184456665354e-001	 1.416694415106145e+001
 1.525743908695221e+000	 6.707170904380223e-001	 1.415633160786396e+001
 1.518494457072168e+000	 6.869720016424157e-001	 1.414342982521509e+001
 1.511057188461564e+000	 7.031800350799156e-001	 1.412826156612555e+001
 1.503432339791911e+000	 7.193380386224789e-001	 1.411057538481778e+001
 1.495620216604477e+000	 7.354428540085495e-001	 1.409019281999103e+001
 1.487621193514281e+000	 7.514913186637426e-001	 1.406700830547620e+001
 1.479435714614465e+000	 7.674802675455639e-001	 1.404098892196507e+001
 1.471064293822835e+000	 7.834065350101486e-001	 1.401217399025969e+001
 1.462507515169399e+000	 7.992669566989542e-001	 1.398067450686703e+001
 1.453766033023863e+000	 8.150583714432672e-001	 1.394667242314092e+001
 1.557331584839137e+000	 6.648897062180198e-001	 1.403965850567422e+001
 1.550157129481510e+000	 6.814491433878283e-001	 1.403216359148709e+001
 1.542791680368797e+000	 6.979641472156025e-001	 1.402246768942672e+001
 1.535235409034484e+000	 7.144315231916468e-001	 1.401028439291353e+001
 1.527488556198130e+000	 7.308480687511643e-001	 1.399539556847972e+001
 1.519551432289924e+000	 7.472105750977020e-001	 1.397765791839699e+001
 1.511424417919046e+000	 7.635158290529712e-001	 1.395700276969705e+001
 1.503107964284511e+000	 7.797606149310816e-001	 1.393343570027203e+001
 1.494602593527249e+000	 7.959417164351500e-001	 1.390703600281759e+001
 1.485908899022250e+000	 8.120559185741813e-001	 1.387795598776419e+001
 1.477027545609700e+000	 8.281000095980499e-001	 1.384642012672067e+001
 1.581857795179509e+000	 6.753609667693055e-001	 1.391714403086639e+001
 1.574570350267766e+000	 6.921811963374154e-001	 1.391249981487484e+001
 1.567088903665430e+000	 7.089562927885509e-001	 1.390544571479153e+001
 1.559413629607439e+000	 7.256830113031196e-001	 1.389572624242089e+001
 1.551544772604411e+000	 7.423580988795705e-001	 1.388316280141722e+001
 1.543482647975456e+000	 7.589782961865553e-001	 1.386765351216088e+001
 1.535227642323919e+000	 7.755403394418812e-001	 1.384917286904930e+001
 1.526780213954683e+000	 7.920409623162604e-001	 1.382777123091630e+001
 1.518140893231805e+000	 8.084768978597926e-001	 1.380357414567788e+001
 1.509310282875257e+000	 8.248448804490292e-001	 1.377678151068673e+001
 1.500289058195703e+000	 8.411416477524337e-001	 1.374766657065827e+001
 1.606384005519828e+000	 6.858322273202755e-001	 1.380042984957329e+001
 1.598983571054024e+000	 7.029132492866742e-001	 1.379814317938748e+001
 1.591386126962114e+000	 7.199484383611617e-001	 1.379326655005696e+001
 1.583591850180492e+000	 7.369344994142486e-001	 1.378558826344753e+001
 1.575600989010834e+000	 7.538681290076297e-001	 1.377497555804620e+001
 1.567413863661173e+000	 7.707460172750590e-001	 1.376137429620300e+001
 1.559030866729012e+000	 7.875648498304381e-001	 1.374480847954933e+001
 1.550452463625108e+000	 8.043213097010831e-001	 1.372537959365762e+001
 1.541679192936645e+000	 8.210120792840731e-001	 1.370326578339454e+001
 1.532711666728574e+000	 8.376338423235071e-001	 1.367872086080371e+001
 1.523550570782039e+000	 8.541832859064347e-001	 1.365207314773299e+001
 1.630910215860108e+000	 6.963034878708130e-001	 1.369014256318394e+001
 1.623396791840312e+000	 7.136453022354944e-001	 1.368980250474107e+001
 1.615683350258895e+000	 7.309405839333361e-001	 1.368672666218542e+001
 1.607770070753706e+000	 7.481859875249498e-001	 1.368075346738851e+001
 1.599657205417480e+000	 7.653781591352731e-001	 1.367180236620944e+001
 1.591345079347169e+000	 7.825137383631613e-001	 1.365987335784980e+001
 1.582834091134438e+000	 7.995893602186086e-001	 1.364504635821649e+001
 1.574124713295916e+000	 8.166016570855321e-001	 1.362748038872837e+001
 1.565217492641910e+000	 8.335472607079891e-001	 1.360741259238964e+001
 1.556113050582356e+000	 8.504228041976230e-001	 1.358515707933564e+001
 1.546812083368873e+000	 8.672249240600691e-001	 1.356110360443318e+001
 1.655436426200365e+000	 7.067747484208016e-001	 1.358681953607233e+001
 1.647810012626662e+000	 7.243773551837668e-001	 1.358809261686469e+001
 1.639980573555821e+000	 7.419327295049750e-001	 1.358651729655744e+001
 1.631948291327146e+000	 7.594374756351380e-001	 1.358198855728927e+001
 1.623713421824428e+000	 7.768881892624319e-001	 1.357448450115126e+001
 1.615276295033542e+000	 7.942814594508109e-001	 1.356406573134820e+001
 1.606637315540310e+000	 8.116138706063586e-001	 1.355087455329460e+001
 1.597796962967233e+000	 8.288820044695902e-001	 1.353513399747070e+001
 1.588755792347744e+000	 8.460824421315375e-001	 1.351714666624971e+001
 1.579514434436757e+000	 8.632117660713861e-001	 1.349729340728587e+001
 1.570073595956371e+000	 8.802665622133532e-001	 1.347603181642691e+001
 1.337458470091355e+000	 7.498501806627994e-001	 1.439735468158538e+001
 1.329245840436585e+000	 7.643139888338926e-001	 1.434305059711981e+001
 1.320864633725284e+000	 7.787084898909862e-001	 1.428368003135284e+001
 1.312315648248289e+000	 7.930307945938000e-001	 1.421959747431702e+001
 1.303599747304523e+000	 8.072780238044296e-001	 1.415127596466226e+001
 1.294717859120680e+000	 8.214473102909055e-001	 1.407925423362128e+001
 1.285670976711510e+000	 8.355358005343189e-001	 1.400413495956755e+001
 1.276460157680332e+000	 8.495406565372459e-001	 1.392658278925043e+001
 1.267086523959525e+000	 8.634590576311914e-001	 1.384732212871916e+001
 1.257551261490825e+000	 8.772882022807456e-001	 1.376713470815955e+001
 1.247855619845356e+000	 8.910253098821287e-001	 1.368685692609562e+001
 1.360719982678853e+000	 7.628918188198210e-001	 1.432205011825851e+001
 1.352364516298867e+000	 7.776071862455712e-001	 1.427198909006675e+001
 1.343837540915352e+000	 7.922520411454747e-001	 1.421702942036072e+001
 1.335139868703277e+000	 8.068234440286460e-001	 1.415770141961037e+001
 1.326272377976344e+000	 8.213184656822814e-001	 1.409438015138735e+001
 1.317236013105266e+000	 8.357341890065823e-001	 1.402717081158193e+001
 1.308031784375627e+000	 8.500677108533143e-001	 1.395663476404700e+001
 1.298660767784928e+000	 8.643161438656809e-001	 1.388341121289225e+001
 1.289124104778561e+000	 8.784766183172065e-001	 1.380820035349266e+001
 1.279423001924546e+000	 8.925462839472684e-001	 1.373176085637811e+001
 1.269558730526954e+000	 9.065223117909245e-001	 1.365490711651629e+001
 1.383981495265687e+000	 7.759334569763623e-001	 1.423666739636989e+001
 1.375483192160448e+000	 7.909003836567357e-001	 1.419018582511757e+001
 1.366810448104691e+000	 8.057955923994367e-001	 1.413861593570848e+001
 1.357964089157520e+000	 8.206160934629746e-001	 1.408246270824489e+001
 1.348945008647412e+000	 8.353589075596424e-001	 1.402230118443692e+001
 1.339754167089103e+000	 8.500210677218110e-001	 1.395877511830471e+001
 1.330392592039014e+000	 8.645996211719169e-001	 1.389254938050105e+001
 1.320861377888823e+000	 8.790916311937900e-001	 1.382366188077588e+001
 1.311161685596942e+000	 8.934941790029705e-001	 1.375256557392112e+001
 1.301294742357671e+000	 9.078043656136207e-001	 1.367999102531629e+001
 1.291261841208033e+000	 9.220193136996339e-001	 1.360672562555867e+001
 1.407243007852023e+000	 7.889750951324396e-001	 1.414398972033214e+001
 1.398601868021504e+000	 8.041935810674046e-001	 1.410063488373784e+001
 1.389783355293484e+000	 8.193391436528905e-001	 1.405207900909932e+001
 1.380788309611204e+000	 8.344087428967986e-001	 1.399879847269654e+001
 1.371617639317917e+000	 8.493993494365167e-001	 1.394133979035692e+001
 1.362272321072382e+000	 8.643079464365847e-001	 1.388031823974761e+001
 1.352753399701855e+000	 8.791315314901063e-001	 1.381641633489706e+001
 1.343061987992202e+000	 8.938671185215376e-001	 1.375038215635349e+001
 1.333199266414842e+000	 9.085117396884321e-001	 1.368302747750078e+001
 1.323166482790366e+000	 9.230624472797356e-001	 1.361456669276870e+001
 1.312964951888744e+000	 9.375163156081748e-001	 1.354518005182032e+001
 1.430504520438026e+000	 8.020167332880692e-001	 1.404655621515769e+001
 1.421720543882209e+000	 8.174867784775972e-001	 1.400601672133297e+001
 1.412756262481913e+000	 8.328826949058533e-001	 1.396023468056620e+001
 1.403612530064516e+000	 8.482013923301294e-001	 1.390965506544442e+001
 1.394290269988049e+000	 8.634397913129078e-001	 1.385479285349151e+001
 1.384790475055292e+000	 8.785948251508937e-001	 1.379623162822316e+001
 1.375114207364341e+000	 8.936634418078613e-001	 1.373462203358429e+001
 1.365262598095244e+000	 9.086426058488873e-001	 1.367068008527374e+001
 1.355236847232435e+000	 9.235293003735394e-001	 1.360518534282084e+001
 1.345038223222794e+000	 9.383205289455460e-001	 1.353897894663017e+001
 1.334668062569236e+000	 9.530133175164640e-001	 1.347296152455449e+001
 1.453766033023863e+000	 8.150583714432672e-001	 1.394667242314092e+001
 1.444839219742738e+000	 8.307799758873320e-001	 1.390876352110953e+001
 1.435729169670161e+000	 8.464262461583425e-001	 1.386563649647627e+001
 1.426436750517643e+000	 8.619940417629792e-001	 1.381770256615482e+001
 1.416962900657996e+000	 8.774802331888187e-001	 1.376544260740394e+001
 1.407308629038023e+000	 8.928817038647322e-001	 1.370940574452310e+001
 1.397475015026657e+000	 9.081953521251606e-001	 1.365020779067796e+001
 1.387463208198132e+000	 9.234180931758037e-001	 1.358852954843596e+001
 1.377274428049897e+000	 9.385468610582417e-001	 1.352511497294101e+001
 1.366909963655117e+000	 9.535786106109838e-001	 1.346076920199601e+001
 1.356371173249661e+000	 9.685103194244188e-001	 1.339635645765476e+001
 1.477027545609700e+000	 8.281000095980499e-001	 1.384642012672066e+001
 1.467957895603269e+000	 8.440731732966296e-001	 1.381107016381322e+001
 1.458702076858409e+000	 8.599697974103761e-001	 1.377058759390726e+001
 1.449260970970773e+000	 8.757866911953606e-001	 1.372534795008950e+001
 1.439635531327949e+000	 8.915206750642536e-001	 1.367579587332758e+001
 1.429826783020763e+000	 9.071685825780912e-001	 1.362244369142886e+001
 1.419835822688992e+000	 9.227272624419833e-001	 1.356586985547314e+001
 1.409663818301048e+000	 9.381935805022509e-001	 1.350671723735360e+001
 1.399312008867401e+000	 9.535644217424867e-001	 1.344569129239477e+001
 1.388781704087501e+000	 9.688366922759821e-001	 1.338355809134201e+001
 1.378074283930169e+000	 9.840073213319565e-001	 1.332114222633673e+001
 1.500289058195703e+000	 8.411416477524337e-001	 1.374766657065828e+001
 1.491076571463974e+000	 8.573663707055079e-001	 1.371490449993174e+001
 1.481674984046840e+000	 8.735133486619712e-001	 1.367715199349366e+001
 1.472085191424092e+000	 8.895793406272855e-001	 1.363474737366881e+001
 1.462308161998095e+000	 9.055611169392154e-001	 1.358809731200317e+001
 1.452344937003705e+000	 9.214554612909641e-001	 1.353767540688951e+001
 1.442196630351531e+000	 9.372591727583078e-001	 1.348402062161231e+001
 1.431864428404175e+000	 9.529690678281924e-001	 1.342773558647763e+001
 1.421349589685121e+000	 9.685819824262231e-001	 1.336948476901043e+001
 1.410653444520108e+000	 9.840947739404731e-001	 1.330999251651251e+001
 1.399777394610910e+000	 9.995043232389941e-001	 1.325004097557789e+001
 1.523550570782039e+000	 8.541832859064347e-001	 1.365207314773299e+001
 1.514195247325030e+000	 8.706595681139866e-001	 1.362201699891611e+001
 1.504647891235637e+000	 8.870568999131455e-001	 1.358716518534179e+001
 1.494909411877786e+000	 9.033719900587659e-001	 1.354781767154877e+001
 1.484980792668627e+000	 9.196015588137076e-001	 1.350434180771070e+001
 1.474863090987035e+000	 9.357423400033417e-001	 1.345717091215097e+001
 1.464557438014463e+000	 9.517910830741139e-001	 1.340680271782803e+001
 1.454065038507694e+000	 9.677445551535929e-001	 1.335379768646492e+001
 1.443387170503232e+000	 9.835995431093992e-001	 1.329877719429292e+001
 1.432525184953105e+000	 9.993528556043897e-001	 1.324242159367151e+001
 1.421480505292034e+000	 1.015001325145448e+000	 1.318546190045536e+001
 1.546812083368873e+000	 8.672249240600691e-001	 1.356110360443319e+001
 1.537313923186612e+000	 8.839527655220844e-001	 1.353394984100386e+001
 1.527620798424980e+000	 9.006004511639167e-001	 1.350224408243494e+001
 1.517733632332044e+000	 9.171646394898141e-001	 1.346624714821798e+001
 1.507653423339732e+000	 9.336420006877344e-001	 1.342628607585223e+001
 1.497381244970944e+000	 9.500292187152168e-001	 1.338275271432458e+001
 1.486918245677973e+000	 9.663229933893792e-001	 1.333610218572477e+001
 1.476265648611787e+000	 9.825200424784158e-001	 1.328685121865079e+001
 1.465424751321909e+000	 9.986171037919641e-001	 1.323557635733478e+001
 1.454396925386652e+000	 1.014610937267665e+000	 1.318290558998639e+001
 1.443183615973692e+000	 1.030498327051237e+000	 1.312954310697405e+001
 1.570073595956371e+000	 8.802665622133532e-001	 1.347603181642691e+001
 1.560432599048893e+000	 8.972459629298201e-001	 1.345204550945498e+001
 1.550593705615053e+000	 9.141440024143019e-001	 1.342379640712865e+001
 1.540557852787052e+000	 9.309572889204422e-001	 1.339150573728292e+001
 1.530326054011600e+000	 9.476824425612989e-001	 1.335545957461382e+001
 1.519899398955622e+000	 9.643160974265818e-001	 1.331600745109031e+001
 1.509279053342250e+000	 9.808549037040831e-001	 1.327356083928592e+001
 1.498466258716638e+000	 9.972955298026260e-001	 1.322859151223953e+001
 1.487462332141325e+000	 1.013634664473865e+000	 1.318162306273402e+001
 1.476268665820915e+000	 1.029869018930230e+000	 1.313325692272223e+001
 1.464886726656035e+000	 1.045995328956277e+000	 1.308412689910237e+001
 1.247855619845356e+000	 8.910253098821287e-001	 1.368685692609562e+001
 1.238000911431365e+000	 9.046676222522669e-001	 1.360186790741330e+001
 1.227988509947546e+000	 9.182124044861023e-001	 1.350760981807121e+001
 1.217819850897685e+000	 9.316569475974837e-001	 1.340508920410957e+001
 1.207496431328260e+000	 9.449985705706225e-001	 1.329535833340512e+001
 1.197019809152552e+000	 9.582346220975364e-001	 1.317951172693135e+001
 1.186391602416225e+000	 9.713624822960134e-001	 1.305868252669614e+001
 1.175613488505012e+000	 9.843795644057992e-001	 1.293403871369840e+001
 1.164687203295262e+000	 9.972833164607429e-001	 1.280677919028413e+001
 1.153614540248221e+000	 1.010071222934661e+000	 1.267812974225998e+001
 1.142397349448981e+000	 1.022740806358721e+000	 1.254933367705836e+001
 1.269558730526954e+000	 9.065223117909245e-001	 1.365490711651629e+001
 1.259532625819865e+000	 9.204018956938826e-001	 1.357304952504916e+001
 1.249346085393796e+000	 9.341822531847158e-001	 1.348172275614341e+001
 1.239000569719292e+000	 9.478606281616913e-001	 1.338201029906636e+001
 1.228497601879959e+000	 9.614342929799052e-001	 1.327504962224823e+001
 1.217838766884827e+000	 9.749005502189513e-001	 1.316202841093736e+001
 1.207025710921144e+000	 9.882567344307593e-001	 1.304418061528338e+001
 1.196060140548291e+000	 1.001500213865284e+000	 1.292278232318296e+001
 1.184943821833555e+000	 1.014628392171736e+000	 1.279914197159622e+001
 1.173678579430655e+000	 1.027638710073067e+000	 1.267461845574016e+001
 1.162266295601971e+000	 1.040528647011485e+000	 1.255058191502602e+001
 1.291261841208033e+000	 9.220193136996339e-001	 1.360672562555867e+001
 1.281064340207938e+000	 9.361361691354978e-001	 1.352832258233581e+001
 1.270703660839725e+000	 9.501521018834158e-001	 1.344050697668435e+001
 1.260181288540694e+000	 9.640643087260686e-001	 1.334441248834325e+001
 1.249498772431579e+000	 9.778700153894413e-001	 1.324123330684506e+001
 1.238657724617147e+000	 9.915664783407002e-001	 1.313222010801156e+001
 1.227659819426233e+000	 1.005150986565916e+000	 1.301867581677610e+001
 1.216506792591863e+000	 1.018620863325253e+000	 1.290194582263302e+001
 1.205200440372255e+000	 1.031973467883280e+000	 1.278343532691410e+001
 1.193742618613598e+000	 1.045206197212085e+000	 1.266457070679317e+001
 1.182135241755561e+000	 1.058316487664915e+000	 1.254681780239257e+001
 1.312964951888744e+000	 9.375163156081748e-001	 1.354518005182032e+001
 1.302596054595719e+000	 9.518704425770157e-001	 1.347064328348245e+001
 1.292061236285450e+000	 9.661219505820893e-001	 1.338693858558491e+001
 1.281362007361988e+000	 9.802679892904931e-001	 1.329522464216690e+001
 1.270499942983189e+000	 9.943057377990964e-001	 1.319672553604507e+001
 1.259476682349561e+000	 1.008232406462639e+000	 1.309272649505246e+001
 1.248293927931517e+000	 1.022045238701332e+000	 1.298456415381930e+001
 1.236953444635726e+000	 1.035741512785547e+000	 1.287364344232037e+001
 1.225457058911339e+000	 1.049318543595212e+000	 1.276139931494907e+001
 1.213806657797006e+000	 1.062773684351549e+000	 1.264931457937425e+001
 1.202004187909683e+000	 1.076104328318845e+000	 1.253890872728178e+001
 1.334668062569236e+000	 9.530133175164640e-001	 1.347296152455449e+001
 1.324127768983342e+000	 9.676047160183382e-001	 1.340276873285740e+001
 1.313418811731085e+000	 9.820917992806265e-001	 1.332378891648920e+001
 1.302542726183266e+000	 9.964716698548412e-001	 1.323716913926666e+001
 1.291501113534862e+000	 1.010741460208737e+000	 1.314413220523435e+001
 1.280295640082116e+000	 1.024898334584625e+000	 1.304598358493369e+001
 1.268928036437022e+000	 1.038939490836855e+000	 1.294406915146159e+001
 1.257400096679885e+000	 1.052862162246009e+000	 1.283979605800860e+001
 1.245713677450784e+000	 1.066663619307370e+000	 1.273462089972870e+001
 1.233870696980833e+000	 1.080341171491293e+000	 1.263004434292871e+001
 1.221873134064270e+000	 1.093892168973107e+000	 1.252760557561970e+001
 1.356371173249661e+000	 9.685103194244188e-001	 1.339635645765476e+001
 1.345659483370942e+000	 9.833389894593682e-001	 1.332840202067021e+001
 1.334776387176746e+000	 9.980616479789166e-001	 1.325367111403812e+001
 1.323723445004623e+000	 1.012675350418991e+000	 1.317278644165885e+001
 1.312502284086669e+000	 1.027177182618228e+000	 1.308590355715126e+001
 1.301114597814863e+000	 1.041564262706513e+000	 1.299427495246508e+001
 1.289562144942771e+000	 1.055833742972335e+000	 1.289923713454421e+001
 1.277846748724337e+000	 1.069982811706480e+000	 1.280218249760208e+001
 1.265970295990567e+000	 1.084008695019590e+000	 1.270455392584516e+001
 1.253934736165034e+000	 1.097908658631153e+000	 1.260783917997757e+001
 1.241742080219257e+000	 1.111680009627535e+000	 1.251356509041072e+001
 1.378074283930169e+000	 9.840073213319565e-001	 1.332114222633673e+001
 1.367191197758651e+000	 9.990732629000086e-001	 1.325526015173409e+001
 1.356133962622546e+000	 1.014031496676848e+000	 1.318295953267743e+001
 1.344904163826153e+000	 1.028879030982817e+000	 1.310553267602518e+001
 1.333503454638683e+000	 1.043612905027437e+000	 1.302432552125777e+001
 1.321933555547848e+000	 1.058230190828161e+000	 1.293972657144026e+001
 1.310196253448787e+000	 1.072727995107619e+000	 1.285198769014015e+001
 1.298293400769084e+000	 1.087103461166803e+000	 1.276245970575107e+001
 1.286226914530664e+000	 1.101353770731710e+000	 1.267254402240733e+001
 1.273998775349563e+000	 1.115476145770962e+000	 1.258368646941336e+001
 1.261611026374577e+000	 1.129467850281964e+000	 1.249737127021065e+001
 1.399777394610910e+000	 9.995043232389941e-001	 1.325004097557789e+001
 1.388722912146604e+000	 1.014807536340161e+000	 1.318670281581408e+001
 1.377491538068603e+000	 1.030001345374311e+000	 1.311729322817868e+001
 1.366084882647951e+000	 1.045082711546199e+000	 1.304301890854285e+001
 1.354504625190976e+000	 1.060048627436228e+000	 1.296516397314408e+001
 1.342752513281120e+000	 1.074896118949426e+000	 1.288508011993257e+001
 1.330830361955098e+000	 1.089622247242557e+000	 1.280413359878518e+001
 1.318740052814126e+000	 1.104224110626819e+000	 1.272218768569033e+001
 1.306483533071053e+000	 1.118698846443568e+000	 1.263985232450068e+001
 1.294062814534374e+000	 1.133043632910556e+000	 1.255850403864986e+001
 1.281479972530163e+000	 1.147255690936225e+000	 1.247955591107243e+001
 1.421480505292034e+000	 1.015001325145448e+000	 1.318546190045536e+001
 1.410254626534935e+000	 1.030541809779729e+000	 1.312520073796645e+001
 1.398849113515031e+000	 1.045971194071194e+000	 1.305911910047546e+001
 1.387265601470111e+000	 1.061286392109012e+000	 1.298834520854697e+001
 1.375505795743618e+000	 1.076484349844469e+000	 1.291407325234022e+001
 1.363571471014727e+000	 1.091562047070162e+000	 1.283756066104012e+001
 1.351464470461725e+000	 1.106516499376995e+000	 1.276012525469733e+001
 1.339186704859462e+000	 1.121344760086371e+000	 1.268314228494917e+001
 1.326740151611712e+000	 1.136043922155000e+000	 1.260767813853153e+001
 1.314126853719423e+000	 1.150611120049767e+000	 1.253316149482690e+001
 1.301348918685950e+000	 1.165043531590152e+000	 1.246061838350194e+001
 1.443183615973692e+000	 1.030498327051237e+000	 1.312954310697406e+001
 1.431786340923777e+000	 1.046276083218615e+000	 1.307290764017344e+001
 1.420206688961944e+000	 1.061941042767387e+000	 1.301058986146925e+001
 1.408446320292726e+000	 1.077490072671134e+000	 1.294361387906809e+001
 1.396506966296683e+000	 1.092920072252026e+000	 1.287306379323170e+001
 1.384390428748719e+000	 1.108227975190228e+000	 1.280008108748087e+001
 1.372098578968695e+000	 1.123410751510783e+000	 1.272586191482704e+001
 1.359633356905095e+000	 1.138465409545300e+000	 1.265165428521398e+001
 1.346996770152616e+000	 1.153388997865844e+000	 1.257875516061846e+001
 1.334190892904664e+000	 1.168178607188432e+000	 1.250850746451505e+001
 1.321217864841871e+000	 1.182831372243579e+000	 1.244104472494806e+001
 1.464886726656035e+000	 1.045995328956277e+000	 1.308412689910237e+001
 1.453318055313266e+000	 1.062010356656721e+000	 1.303170247425327e+001
 1.441564264409459e+000	 1.077910891462778e+000	 1.297357321154667e+001
 1.429627039115891e+000	 1.093693753232441e+000	 1.291064147091642e+001
 1.417508136850242e+000	 1.109355794658762e+000	 1.284386211990526e+001
 1.405209386483143e+000	 1.124893903309479e+000	 1.277424008035156e+001
 1.392732687476031e+000	 1.140305003643770e+000	 1.270282778570140e+001
 1.380080008951025e+000	 1.155586059003449e+000	 1.263072255475889e+001
 1.367253388693743e+000	 1.170734073575938e+000	 1.255906388791548e+001
 1.354254932090050e+000	 1.185746094326383e+000	 1.248903069211950e+001
 1.341086810997859e+000	 1.200619212896339e+000	 1.242183844105893e+001
 1.142397349448981e+000	 1.022740806358721e+000	 1.254933367705836e+001
 1.131039251243886e+000	 1.035287756015926e+000	 1.241803509403374e+001
 1.119540534113931e+000	 1.047711586446118e+000	 1.228136841273207e+001
 1.107903211781769e+000	 1.060009945786597e+000	 1.213990441235137e+001
 1.096129350166033e+000	 1.072180526369110e+000	 1.199419755362910e+001
 1.084221066161063e+000	 1.084221066161063e+000	 1.184478301461107e+001
 1.072180526369110e+000	 1.096129350166033e+000	 1.169217377682514e+001
 1.060009945786597e+000	 1.107903211781770e+000	 1.153685777873806e+001
 1.047711586446118e+000	 1.119540534113932e+000	 1.137929515336647e+001
 1.035287756015926e+000	 1.131039251243886e+000	 1.121991556679343e+001
 1.022740806358721e+000	 1.142397349448981e+000	 1.105911567411186e+001
 1.162266295601971e+000	 1.040528647011485e+000	 1.255058191502602e+001
 1.150710653660098e+000	 1.053293817296594e+000	 1.242422777733268e+001
 1.139011947103368e+000	 1.065933727024969e+000	 1.229218176204936e+001
 1.127172224677734e+000	 1.078445983429568e+000	 1.215502778858326e+001
 1.115193588232937e+000	 1.090828238706443e+000	 1.201333106798223e+001
 1.103078191481013e+000	 1.103078191481013e+000	 1.186763491484944e+001
 1.090828238706443e+000	 1.115193588232937e+000	 1.171845761156135e+001
 1.078445983429568e+000	 1.127172224677734e+000	 1.156628934315142e+001
 1.065933727024968e+000	 1.139011947103368e+000	 1.141158922124039e+001
 1.053293817296594e+000	 1.150710653660097e+000	 1.125478241529083e+001
 1.040528647011485e+000	 1.162266295601972e+000	 1.109625740923896e+001
 1.182135241755561e+000	 1.058316487664915e+000	 1.254681780239257e+001
 1.170382056076979e+000	 1.071299878577974e+000	 1.242680910856845e+001
 1.158483360093529e+000	 1.084155867604568e+000	 1.230058910028582e+001
 1.146441237574461e+000	 1.096882021073315e+000	 1.216880335803993e+001
 1.134257826300627e+000	 1.109475951044568e+000	 1.203207750328228e+001
 1.121935316801759e+000	 1.121935316801759e+000	 1.189101367756763e+001
 1.109475951044568e+000	 1.134257826300627e+000	 1.174618707333378e+001
 1.096882021073315e+000	 1.146441237574461e+000	 1.159814253646991e+001
 1.084155867604569e+000	 1.158483360093529e+000	 1.144739126088621e+001
 1.071299878577974e+000	 1.170382056076979e+000	 1.129440759521909e+001
 1.058316487664915e+000	 1.182135241755561e+000	 1.113962598159337e+001
 1.202004187909683e+000	 1.076104328318845e+000	 1.253890872728178e+001
 1.190053458494446e+000	 1.089305939859901e+000	 1.242617437963483e+001
 1.177954773084311e+000	 1.102378008184755e+000	 1.230655315492071e+001
 1.165710250471834e+000	 1.115318058717681e+000	 1.218079871810695e+001
 1.153322064368974e+000	 1.128123663383335e+000	 1.204964463770941e+001
 1.140792442123159e+000	 1.140792442123158e+000	 1.191380042435167e+001
 1.128123663383335e+000	 1.153322064368973e+000	 1.177394761768641e+001
 1.115318058717681e+000	 1.165710250471834e+000	 1.163073594394303e+001
 1.102378008184754e+000	 1.177954773084312e+000	 1.148477956647049e+001
 1.089305939859901e+000	 1.190053458494445e+000	 1.133665345159786e+001
 1.076104328318845e+000	 1.202004187909682e+000	 1.118688987194540e+001
 1.221873134064270e+000	 1.093892168973107e+000	 1.252760557561970e+001
 1.209724860912411e+000	 1.107312001142208e+000	 1.242262549729738e+001
 1.197426186075614e+000	 1.120600148765364e+000	 1.230996356213079e+001
 1.184979263369735e+000	 1.133754096362508e+000	 1.219052601052935e+001
 1.172386302437845e+000	 1.146771375722591e+000	 1.206519993984584e+001
 1.159649567445070e+000	 1.159649567445070e+000	 1.193484879541650e+001
 1.146771375722591e+000	 1.172386302437845e+000	 1.180030790405510e+001
 1.133754096362507e+000	 1.184979263369735e+000	 1.166238007469248e+001
 1.120600148765364e+000	 1.197426186075614e+000	 1.152183129101153e+001
 1.107312001142208e+000	 1.209724860912411e+000	 1.137938652092886e+001
 1.093892168973107e+000	 1.221873134064270e+000	 1.123572566760841e+001
 1.241742080219257e+000	 1.111680009627535e+000	 1.251356509041072e+001
 1.229396263330790e+000	 1.125318062424730e+000	 1.241639122098998e+001
 1.216897599067334e+000	 1.138822289346235e+000	 1.231065517636881e+001
 1.204248276268045e+000	 1.152190134007636e+000	 1.219745848376624e+001
 1.191450540507110e+000	 1.165419088062188e+000	 1.207788555237866e+001
 1.178506692767354e+000	 1.178506692767353e+000	 1.195299851066493e+001
 1.165419088062188e+000	 1.191450540507110e+000	 1.182383207749720e+001
 1.152190134007636e+000	 1.204248276268046e+000	 1.169138849461310e+001
 1.138822289346235e+000	 1.216897599067333e+000	 1.155663254803543e+001
 1.125318062424730e+000	 1.229396263330790e+000	 1.142048670617753e+001
 1.111680009627535e+000	 1.241742080219257e+000	 1.128382640222486e+001
 1.261611026374577e+000	 1.129467850281964e+000	 1.249737127021065e+001
 1.249067665749498e+000	 1.143324123707302e+000	 1.240764663822146e+001
 1.236369012059369e+000	 1.157044429927205e+000	 1.230842579639411e+001
 1.223517289166649e+000	 1.170626171652911e+000	 1.220104663223979e+001
 1.210514778576640e+000	 1.184066800401973e+000	 1.208683299592913e+001
 1.197363818089865e+000	 1.197363818089865e+000	 1.196708877810300e+001
 1.184066800401974e+000	 1.210514778576640e+000	 1.184309201022511e+001
 1.170626171652911e+000	 1.223517289166650e+000	 1.171608901798247e+001
 1.157044429927205e+000	 1.236369012059368e+000	 1.158728865854950e+001
 1.143324123707303e+000	 1.249067665749498e+000	 1.145785667264923e+001
 1.129467850281964e+000	 1.261611026374577e+000	 1.132891018226202e+001
 1.281479972530163e+000	 1.147255690936225e+000	 1.247955591107243e+001
 1.268739068168448e+000	 1.161330184989758e+000	 1.239653196033317e+001
 1.255840425051615e+000	 1.175266570508109e+000	 1.230305337108534e+001
 1.242786302065429e+000	 1.189062209298173e+000	 1.220073395839525e+001
 1.229579016646303e+000	 1.202714512741798e+000	 1.209117762338114e+001
 1.216220943412465e+000	 1.216220943412465e+000	 1.197597156617447e+001
 1.202714512741798e+000	 1.229579016646304e+000	 1.185667950730355e+001
 1.189062209298173e+000	 1.242786302065429e+000	 1.173483495140316e+001
 1.175266570508110e+000	 1.255840425051614e+000	 1.161193452755834e+001
 1.161330184989758e+000	 1.268739068168449e+000	 1.148943144078186e+001
 1.147255690936225e+000	 1.281479972530163e+000	 1.136872906909727e+001
 1.301348918685950e+000	 1.165043531590152e+000	 1.246061838350194e+001
 1.288410470587557e+000	 1.179336246271932e+000	 1.238317071124071e+001
 1.275311838043971e+000	 1.193488711088788e+000	 1.229431274062994e+001
 1.262055314964265e+000	 1.207498246943265e+000	 1.219597239788065e+001
 1.248643254715969e+000	 1.221362225081510e+000	 1.209007285136895e+001
 1.235078068735010e+000	 1.235078068735010e+000	 1.197852475455449e+001
 1.221362225081510e+000	 1.248643254715969e+000	 1.186321848033624e+001
 1.207498246943265e+000	 1.262055314964265e+000	 1.174601638448146e+001
 1.193488711088788e+000	 1.275311838043970e+000	 1.162874513627391e+001
 1.179336246271932e+000	 1.288410470587557e+000	 1.151318815480570e+001
 1.165043531590152e+000	 1.301348918685950e+000	 1.140107818937308e+001
 1.321217864841871e+000	 1.182831372243579e+000	 1.244104472494806e+001
 1.308081873006736e+000	 1.197342307553658e+000	 1.236768737305505e+001
 1.294783251036333e+000	 1.211710851669076e+000	 1.228199196199545e+001
 1.281324327863042e+000	 1.225934284588030e+000	 1.218623744330387e+001
 1.267707492785507e+000	 1.240009937420960e+000	 1.208270419237883e+001
 1.253935194057360e+000	 1.253935194057359e+000	 1.197366517619186e+001
 1.240009937420960e+000	 1.267707492785507e+000	 1.186137709250707e+001
 1.225934284588030e+000	 1.281324327863042e+000	 1.174807152231749e+001
 1.211710851669076e+000	 1.294783251036333e+000	 1.163594613783607e+001
 1.197342307553658e+000	 1.308081873006736e+000	 1.152715600875358e+001
 1.182831372243579e+000	 1.321217864841870e+000	 1.142380504958802e+001
 1.341086810997859e+000	 1.200619212896339e+000	 1.242183844105893e+001
 1.327753275425903e+000	 1.215348368834772e+000	 1.235022454490382e+001
 1.314254664028600e+000	 1.229932992248813e+000	 1.226590826179128e+001
 1.300593340761640e+000	 1.244370322232309e+000	 1.217104299782220e+001
 1.286771730854787e+000	 1.258657649759996e+000	 1.206830310813642e+001
 1.272792319379371e+000	 1.272792319379371e+000	 1.196036156187342e+001
 1.258657649759996e+000	 1.286771730854787e+000	 1.184987987794151e+001
 1.244370322232309e+000	 1.300593340761641e+000	 1.173949805546603e+001
 1.229932992248813e+000	 1.314254664028600e+000	 1.163182454580373e+001
 1.215348368834772e+000	 1.327753275425902e+000	 1.152942631349703e+001
 1.200619212896339e+000	 1.341086810997858e+000	 1.143293406968843e+001
 1.022740806358721e+000	 1.142397349448981e+000	 1.105911567411186e+001
 1.010071222934661e+000	 1.153614540248221e+000	 1.089459779109568e+001
 9.972833164607429e-001	 1.164687203295261e+000	 1.072463041531116e+001
 9.843795644057992e-001	 1.175613488505011e+000	 1.055034466564674e+001
 9.713624822960134e-001	 1.186391602416225e+000	 1.037282264503424e+001
 9.582346220975365e-001	 1.197019809152552e+000	 1.019309714571759e+001
 9.449985705706224e-001	 1.207496431328260e+000	 1.001214859381408e+001
 9.316569475974839e-001	 1.217819850897686e+000	 9.830902232989946e+000
 9.182124044861019e-001	 1.227988509947546e+000	 9.650225561119619e+000
 9.046676222522668e-001	 1.238000911431365e+000	 9.470926032556791e+000
 8.910253098821288e-001	 1.247855619845356e+000	 9.293749037318282e+000
 1.040528647011485e+000	 1.162266295601972e+000	 1.109625740923896e+001
 1.027638710073067e+000	 1.173678579430655e+000	 1.093366604860132e+001
 1.014628392171736e+000	 1.184943821833555e+000	 1.076532484260290e+001
 1.001500213865284e+000	 1.196060140548291e+000	 1.059248432772017e+001
 9.882567344307596e-001	 1.207025710921144e+000	 1.041633494700692e+001
 9.749005502189513e-001	 1.217838766884827e+000	 1.023801885032263e+001
 9.614342929799058e-001	 1.228497601879960e+000	 1.005861623735749e+001
 9.478606281616914e-001	 1.239000569719292e+000	 9.879144684530383e+000
 9.341822531847158e-001	 1.249346085393796e+000	 9.700556226844840e+000
 9.204018956938826e-001	 1.259532625819865e+000	 9.523734732357013e+000
 9.065223117909241e-001	 1.269558730526953e+000	 9.349493582094414e+000
 1.058316487664915e+000	 1.182135241755561e+000	 1.113962598159337e+001
 1.045206197212085e+000	 1.193742618613598e+000	 1.098066679068069e+001
 1.031973467883280e+000	 1.205200440372255e+000	 1.081584173905789e+001
 1.018620863325253e+000	 1.216506792591863e+000	 1.064647927212052e+001
 1.005150986565916e+000	 1.227659819426233e+000	 1.047385164995233e+001
 9.915664783407000e-001	 1.238657724617147e+000	 1.029916175350916e+001
 9.778700153894413e-001	 1.249498772431579e+000	 1.012355260469138e+001
 9.640643087260685e-001	 1.260181288540694e+000	 9.948095130444090e+000
 9.501521018834153e-001	 1.270703660839725e+000	 9.773787075507014e+000
 9.361361691354979e-001	 1.281064340207938e+000	 9.601550096013163e+000
 9.220193136996340e-001	 1.291261841208033e+000	 9.432227187060343e+000
 1.076104328318845e+000	 1.202004187909682e+000	 1.118688987194540e+001
 1.062773684351549e+000	 1.213806657797006e+000	 1.103308483936923e+001
 1.049318543595212e+000	 1.225457058911340e+000	 1.087349273593253e+001
 1.035741512785547e+000	 1.236953444635727e+000	 1.070948581092102e+001
 1.022045238701332e+000	 1.248293927931518e+000	 1.054237147235018e+001
 1.008232406462639e+000	 1.259476682349561e+000	 1.037338997798251e+001
 9.943057377990965e-001	 1.270499942983189e+000	 1.020370216049311e+001
 9.802679892904931e-001	 1.281362007361988e+000	 1.003439744372064e+001
 9.661219505820892e-001	 1.292061236285451e+000	 9.866482682814354e+000
 9.518704425770156e-001	 1.302596054595719e+000	 9.700880890164585e+000
 9.375163156081747e-001	 1.312964951888744e+000	 9.538428454066821e+000
 1.093892168973107e+000	 1.221873134064270e+000	 1.123572566760841e+001
 1.080341171491293e+000	 1.233870696980833e+000	 1.108841927014259e+001
 1.066663619307370e+000	 1.245713677450784e+000	 1.093560654203212e+001
 1.052862162246009e+000	 1.257400096679885e+000	 1.077866898084968e+001
 1.038939490836855e+000	 1.268928036437022e+000	 1.061891686592213e+001
 1.024898334584625e+000	 1.280295640082117e+000	 1.045758454368839e+001
 1.010741460208737e+000	 1.291501113534862e+000	 1.029582602409851e+001
 9.964716698548413e-001	 1.302542726183266e+000	 1.013471318559358e+001
 9.820917992806263e-001	 1.313418811731085e+000	 9.975223332939203e+000
 9.676047160183381e-001	 1.324127768983342e+000	 9.818248449952256e+000
 9.530133175164638e-001	 1.334668062569236e+000	 9.664531829742398e+000
 1.111680009627535e+000	 1.241742080219257e+000	 1.128382640222486e+001
 1.097908658631153e+000	 1.253934736165034e+000	 1.114418792376450e+001
 1.084008695019590e+000	 1.265970295990567e+000	 1.099953256993238e+001
 1.069982811706480e+000	 1.277846748724338e+000	 1.085121866050505e+001
 1.055833742972335e+000	 1.289562144942771e+000	 1.070052684274736e+001
 1.041564262706513e+000	 1.301114597814863e+000	 1.054865511675823e+001
 1.027177182618228e+000	 1.312502284086669e+000	 1.039671419374127e+001
 1.012675350418990e+000	 1.323723445004623e+000	 1.024572321164562e+001
 9.980616479789162e-001	 1.334776387176746e+000	 1.009654381098601e+001
 9.833389894593683e-001	 1.345659483370942e+000	 9.945763646154838e+000
 9.685103194244189e-001	 1.356371173249662e+000	 9.792049514108353e+000
 1.129467850281964e+000	 1.261611026374577e+000	 1.132891018226202e+001
 1.115476145770963e+000	 1.273998775349563e+000	 1.119793530231246e+001
 1.101353770731711e+000	 1.286226914530664e+000	 1.106264811242524e+001
 1.087103461166803e+000	 1.298293400769084e+000	 1.092435336584843e+001
 1.072727995107619e+000	 1.310196253448788e+000	 1.078427159915540e+001
 1.058230190828162e+000	 1.321933555547848e+000	 1.064353392972003e+001
 1.043612905027437e+000	 1.333503454638683e+000	 1.050317594490093e+001
 1.028879030982817e+000	 1.344904163826153e+000	 1.036007785775531e+001
 1.014031496676848e+000	 1.356133962622547e+000	 1.021173369642445e+001
 9.990732629000086e-001	 1.367191197758652e+000	 1.005955874800319e+001
 9.840073213319562e-001	 1.378074283930169e+000	 9.904895244217117e+000
 1.147255690936225e+000	 1.281479972530163e+000	 1.136872906909727e+001
 1.133043632910556e+000	 1.294062814534374e+000	 1.124724077478243e+001
 1.118698846443568e+000	 1.306483533071053e+000	 1.112236588049684e+001
 1.104224110626819e+000	 1.318740052814126e+000	 1.099532713849365e+001
 1.089622247242556e+000	 1.330830361955098e+000	 1.086725643872754e+001
 1.074896118949426e+000	 1.342752513281120e+000	 1.073642520949367e+001
 1.060048627436229e+000	 1.354504625190975e+000	 1.059827188764067e+001
 1.045082711546199e+000	 1.366084882647951e+000	 1.045406562557279e+001
 1.030001345374311e+000	 1.377491538068603e+000	 1.030520150417427e+001
 1.014807536340161e+000	 1.388722912146604e+000	 1.015300761161902e+001
 9.995043232389940e-001	 1.399777394610910e+000	 9.998744347822131e+000
 1.165043531590152e+000	 1.301348918685950e+000	 1.140107818937308e+001
 1.150611120049767e+000	 1.314126853719422e+000	 1.128972705918207e+001
 1.136043922155001e+000	 1.326740151611712e+000	 1.117614186419551e+001
 1.121344760086371e+000	 1.339186704859463e+000	 1.106035136134956e+001
 1.106516499376995e+000	 1.351464470461725e+000	 1.093634708834035e+001
 1.091562047070163e+000	 1.363571471014728e+000	 1.080425212678572e+001
 1.076484349844469e+000	 1.375505795743618e+000	 1.066548251875154e+001
 1.061286392109012e+000	 1.387265601470110e+000	 1.052139066990553e+001
 1.045971194071194e+000	 1.398849113515031e+000	 1.037326255540079e+001
 1.030541809779729e+000	 1.410254626534935e+000	 1.022231508173317e+001
 1.015001325145448e+000	 1.421480505292034e+000	 1.006969360805595e+001
 1.182831372243579e+000	 1.321217864841870e+000	 1.142380504958802e+001
 1.168178607188432e+000	 1.334190892904663e+000	 1.132304406529713e+001
 1.153388997865845e+000	 1.346996770152616e+000	 1.121561363892447e+001
 1.138465409545300e+000	 1.359633356905095e+000	 1.109839595000753e+001
 1.123410751510783e+000	 1.372098578968695e+000	 1.097279983917195e+001
 1.108227975190228e+000	 1.384390428748719e+000	 1.084017409938647e+001
 1.092920072252026e+000	 1.396506966296683e+000	 1.070180457579673e+001
 1.077490072671134e+000	 1.408446320292725e+000	 1.055891141646103e+001
 1.061941042767387e+000	 1.420206688961944e+000	 1.041264647742119e+001
 1.046276083218615e+000	 1.431786340923777e+000	 1.026409088510190e+001
 1.030498327051237e+000	 1.443183615973693e+000	 1.011425275863035e+001
 1.200619212896339e+000	 1.341086810997858e+000	 1.143293406968843e+001
 1.185746094326383e+000	 1.354254932090050e+000	 1.133135353671645e+001
 1.170734073575938e+000	 1.367253388693743e+000	 1.122015486411232e+001
 1.155586059003449e+000	 1.380080008951025e+000	 1.110065621005996e+001
 1.140305003643770e+000	 1.392732687476032e+000	 1.097411622094326e+001
 1.124893903309479e+000	 1.405209386483143e+000	 1.084173122985346e+001
 1.109355794658762e+000	 1.417508136850241e+000	 1.070463260572324e+001
 1.093693753232441e+000	 1.429627039115892e+000	 1.056388425593578e+001
 1.077910891462778e+000	 1.441564264409459e+000	 1.042048028477197e+001
 1.062010356656721e+000	 1.453318055313266e+000	 1.027534280961630e+001
 1.045995328956277e+000	 1.464886726656035e+000	 1.012931993644467e+001
 8.910253098821288e-001	 1.247855619845356e+000	 9.293749037318282e+000
 8.772882022807453e-001	 1.257551261490825e+000	 9.116791523355913e+000
 8.634590576311915e-001	 1.267086523959525e+000	 8.938163844382316e+000
 8.495406565372458e-001	 1.276460157680332e+000	 8.758534433727652e+000
 8.355358005343191e-001	 1.285670976711510e+000	 8.578504843189666e+000
 8.214473102909056e-001	 1.294717859120681e+000	 8.398608817836413e+000
 8.072780238044295e-001	 1.303599747304523e+000	 8.219311690492452e+000
 7.930307945938002e-001	 1.312315648248288e+000	 8.041010097168146e+000
 7.787084898909862e-001	 1.320864633725284e+000	 7.864032012999211e+000
 7.643139888338927e-001	 1.329245840436585e+000	 7.688637106574461e+000
 7.498501806627993e-001	 1.337458470091355e+000	 7.514764935594055e+000
 9.065223117909241e-001	 1.269558730526953e+000	 9.349493582094414e+000
 8.925462839472682e-001	 1.279423001924546e+000	 9.175981802776624e+000
 8.784766183172065e-001	 1.289124104778561e+000	 9.001280438366431e+000
 8.643161438656806e-001	 1.298660767784928e+000	 8.825992969846810e+000
 8.500677108533142e-001	 1.308031784375627e+000	 8.650650151631597e+000
 8.357341890065820e-001	 1.317236013105266e+000	 8.475709100476738e+000
 8.213184656822814e-001	 1.326272377976344e+000	 8.301552731114763e+000
 8.068234440286461e-001	 1.335139868703277e+000	 8.128423408131861e+000
 7.922520411454743e-001	 1.343837540915351e+000	 7.954712085262999e+000
 7.776071862455714e-001	 1.352364516298867e+000	 7.780263477687233e+000
 7.628918188198212e-001	 1.360719982678853e+000	 7.605879771118337e+000
 9.220193136996340e-001	 1.291261841208033e+000	 9.432227187060343e+000
 9.078043656136207e-001	 1.301294742357671e+000	 9.264028847949106e+000
 8.934941790029707e-001	 1.311161685596942e+000	 9.095031874199801e+000
 8.790916311937900e-001	 1.320861377888824e+000	 8.925759911577261e+000
 8.645996211719170e-001	 1.330392592039014e+000	 8.756657750209577e+000
 8.500210677218111e-001	 1.339754167089103e+000	 8.587147581622899e+000
 8.353589075596423e-001	 1.348945008647412e+000	 8.415042851408682e+000
 8.206160934629750e-001	 1.357964089157520e+000	 8.241079914813247e+000
 8.057955923994367e-001	 1.366810448104691e+000	 8.066132635429552e+000
 7.909003836567353e-001	 1.375483192160448e+000	 7.891011905280470e+000
 7.759334569763624e-001	 1.383981495265687e+000	 7.716464470222384e+000
 9.375163156081747e-001	 1.312964951888744e+000	 9.538428454066821e+000
 9.230624472797354e-001	 1.323166482790366e+000	 9.377398130691494e+000
 9.085117396884321e-001	 1.333199266414842e+000	 9.215878120213992e+000
 8.938671185215374e-001	 1.343061987992202e+000	 9.051894045101173e+000
 8.791315314901061e-001	 1.352753399701856e+000	 8.883766006173662e+000
 8.643079464365844e-001	 1.362272321072382e+000	 8.712496710662277e+000
 8.493993494365169e-001	 1.371617639317917e+000	 8.539027784240119e+000
 8.344087428967989e-001	 1.380788309611204e+000	 8.364237865044293e+000
 8.193391436528904e-001	 1.389783355293484e+000	 8.188941120577882e+000
 8.041935810674046e-001	 1.398601868021504e+000	 8.013885926416744e+000
 7.889750951324397e-001	 1.407243007852023e+000	 7.839753709140324e+000
 9.530133175164638e-001	 1.334668062569236e+000	 9.664531829742398e+000
 9.383205289455460e-001	 1.345038223222794e+000	 9.508791860690081e+000
 9.235293003735396e-001	 1.355236847232435e+000	 9.347444122465072e+000
 9.086426058488871e-001	 1.365262598095244e+000	 9.181553265181178e+000
 8.936634418078615e-001	 1.375114207364341e+000	 9.012123565584606e+000
 8.785948251508936e-001	 1.384790475055292e+000	 8.840096998348860e+000
 8.634397913129078e-001	 1.394290269988049e+000	 8.666351462743990e+000
 8.482013923301294e-001	 1.403612530064517e+000	 8.491699167828379e+000
 8.328826949058532e-001	 1.412756262481913e+000	 8.316885179024180e+000
 8.174867784775971e-001	 1.421720543882209e+000	 8.142586128657570e+000
 8.020167332880693e-001	 1.430504520438026e+000	 7.969409092767951e+000
 9.685103194244189e-001	 1.356371173249662e+000	 9.792049514108353e+000
 9.535786106109838e-001	 1.366909963655117e+000	 9.634491143807271e+000
 9.385468610582419e-001	 1.377274428049897e+000	 9.471971208003430e+000
 9.234180931758037e-001	 1.387463208198132e+000	 9.305489671370795e+000
 9.081953521251606e-001	 1.397475015026658e+000	 9.135983434419803e+000
 8.928817038647322e-001	 1.407308629038023e+000	 8.964324446871224e+000
 8.774802331888189e-001	 1.416962900657996e+000	 8.791317978391021e+000
 8.619940417629793e-001	 1.426436750517643e+000	 8.617701049585032e+000
 8.464262461583425e-001	 1.435729169670161e+000	 8.444141025890609e+000
 8.307799758873323e-001	 1.444839219742739e+000	 8.271234376748017e+000
 8.150583714432672e-001	 1.453766033023863e+000	 8.099505602186675e+000
 9.840073213319562e-001	 1.378074283930169e+000	 9.904895244217117e+000
 9.688366922759821e-001	 1.388781704087501e+000	 9.746900990337965e+000
 9.535644217424868e-001	 1.399312008867400e+000	 9.584519265854409e+000
 9.381935805022507e-001	 1.409663818301048e+000	 9.418676891421695e+000
 9.227272624419833e-001	 1.419835822688992e+000	 9.250235020526450e+000
 9.071685825780912e-001	 1.429826783020764e+000	 9.079987314481155e+000
 8.915206750642536e-001	 1.439635531327948e+000	 8.908658276098478e+000
 8.757866911953608e-001	 1.449260970970773e+000	 8.736901744622632e+000
 8.599697974103759e-001	 1.458702076858409e+000	 8.565299554262111e+000
 8.440731732966296e-001	 1.467957895603269e+000	 8.394360358444265e+000
 8.281000095980499e-001	 1.477027545609700e+000	 8.224518621699907e+000
 9.995043232389940e-001	 1.399777394610910e+000	 9.998744347822131e+000
 9.840947739404727e-001	 1.410653444520108e+000	 9.841604298871898e+000
 9.685819824262233e-001	 1.421349589685121e+000	 9.680579331155551e+000
 9.529690678281922e-001	 1.431864428404175e+000	 9.516515383873776e+000
 9.372591727583082e-001	 1.442196630351531e+000	 9.350190215496557e+000
 9.214554612909641e-001	 1.452344937003705e+000	 9.182311659754832e+000
 9.055611169392154e-001	 1.462308161998095e+000	 9.013516040944886e+000
 8.895793406272856e-001	 1.472085191424091e+000	 8.844366750722303e+000
 8.735133486619712e-001	 1.481674984046840e+000	 8.675352988364134e+000
 8.573663707055079e-001	 1.491076571463974e+000	 8.506888666292317e+000
 8.411416477524336e-001	 1.500289058195703e+000	 8.339311482479459e+000
 1.015001325145448e+000	 1.421480505292034e+000	 1.006969360805595e+001
 9.993528556043898e-001	 1.432525184953105e+000	 9.914603573262841e+000
 9.835995431093997e-001	 1.443387170503232e+000	 9.756058505972540e+000
 9.677445551535926e-001	 1.454065038507694e+000	 9.594817897533943e+000
 9.517910830741139e-001	 1.464557438014463e+000	 9.431569147053560e+000
 9.357423400033419e-001	 1.474863090987035e+000	 9.266927407031840e+000
 9.196015588137076e-001	 1.484980792668627e+000	 9.101434098890463e+000
 9.033719900587662e-001	 1.494909411877786e+000	 8.935555589429891e+000
 8.870568999131454e-001	 1.504647891235637e+000	 8.769682029756435e+000
 8.706595681139866e-001	 1.514195247325030e+000	 8.604126358072533e+000
 8.541832859064348e-001	 1.523550570782039e+000	 8.439123467602190e+000
 1.030498327051237e+000	 1.443183615973693e+000	 1.011425275863035e+001
 1.014610937267665e+000	 1.454396925386652e+000	 9.962305006570178e+000
 9.986171037919640e-001	 1.465424751321909e+000	 9.807265620501385e+000
 9.825200424784156e-001	 1.476265648611788e+000	 9.649795405367645e+000
 9.663229933893792e-001	 1.486918245677973e+000	 9.490486402505844e+000
 9.500292187152167e-001	 1.497381244970944e+000	 9.329854878162051e+000
 9.336420006877344e-001	 1.507653423339732e+000	 9.168341277386869e+000
 9.171646394898144e-001	 1.517733632332045e+000	 9.006309017918808e+000
 9.006004511639166e-001	 1.527620798424980e+000	 8.844043444637956e+000
 8.839527655220841e-001	 1.537313923186611e+000	 8.681750945513631e+000
 8.672249240600692e-001	 1.546812083368872e+000	 8.519558229900330e+000
 1.045995328956277e+000	 1.464886726656035e+000	 1.012931993644467e+001
 1.029869018930230e+000	 1.476268665820915e+000	 9.981509966453668e+000
 1.013634664473865e+000	 1.487462332141325e+000	 9.830896198526425e+000
 9.972955298026258e-001	 1.498466258716639e+000	 9.678043463595532e+000
 9.808549037040830e-001	 1.509279053342249e+000	 9.523437674406241e+000
 9.643160974265818e-001	 1.519899398955622e+000	 9.367491742192065e+000
 9.476824425612986e-001	 1.530326054011600e+000	 9.210539678175399e+000
 9.309572889204426e-001	 1.540557852787053e+000	 9.052836645585010e+000
 9.141440024143019e-001	 1.550593705615053e+000	 8.894558046508228e+000
 8.972459629298201e-001	 1.560432599048893e+000	 8.735798766856103e+000
 8.802665622133532e-001	 1.570073595956371e+000	 8.576572579808367e+000
 7.498501806627993e-001	 1.337458470091355e+000	 7.514764935594054e+000
 7.353221473168309e-001	 1.345500595902038e+000	 7.339884763210943e+000
 7.207306278798588e-001	 1.353372795297910e+000	 7.162779405952365e+000
 7.060785306134998e-001	 1.361074466261638e+000	 6.983841957008393e+000
 6.913687667140009e-001	 1.368605071488112e+000	 6.803408297696874e+000
 6.766042485600982e-001	 1.375964138175143e+000	 6.621757090994347e+000
 6.617878879772690e-001	 1.383151257758930e+000	 6.439208218484481e+000
 6.469225945203407e-001	 1.390166085595247e+000	 6.257535417237134e+000
 6.320112737763581e-001	 1.397008340587419e+000	 6.078274216758659e+000
 6.170568256895568e-001	 1.403677804762223e+000	 5.902661596411738e+000
 6.020621429102250e-001	 1.410174322794896e+000	 5.731950820740029e+000
 7.628918188198212e-001	 1.360719982678853e+000	 7.605879771118338e+000
 7.481111091940829e-001	 1.368901979756440e+000	 7.430898737655342e+000
 7.332658093066115e-001	 1.376911095003749e+000	 7.254427589727162e+000
 7.183588780004508e-001	 1.384746715932977e+000	 7.076910666314498e+000
 7.033932771043161e-001	 1.392408295894034e+000	 6.898733556269886e+000
 6.883719696499764e-001	 1.399895353861612e+000	 6.720222895312050e+000
 6.732979181063208e-001	 1.407207474166046e+000	 6.541646317973131e+000
 6.581740826320958e-001	 1.414344306168952e+000	 6.363518558075900e+000
 6.430034193492565e-001	 1.421305563884740e+000	 6.187922781644415e+000
 6.277888786388084e-001	 1.428091025549134e+000	 6.016351822501976e+000
 6.125334034609495e-001	 1.434700533135920e+000	 5.850165579926657e+000
 7.759334569763624e-001	 1.383981495265687e+000	 7.716464470222384e+000
 7.609000710709125e-001	 1.392303363610223e+000	 7.541860976044553e+000
 7.458009907330193e-001	 1.400449394709020e+000	 7.366410940800899e+000
 7.306392253871503e-001	 1.408418965603801e+000	 7.190604016936946e+000
 7.154177874944816e-001	 1.416211520299499e+000	 7.014869465461620e+000
 7.001396907398116e-001	 1.423826569547684e+000	 6.839575762035049e+000
 6.848079482354358e-001	 1.431263690572821e+000	 6.665030362658258e+000
 6.694255707440150e-001	 1.438522526742372e+000	 6.491479629460216e+000
 6.539955649224103e-001	 1.445602787181828e+000	 6.319819227811557e+000
 6.385209315883906e-001	 1.452504246335858e+000	 6.152277501482425e+000
 6.230046640120596e-001	 1.459226743476797e+000	 5.990342173280031e+000
 7.889750951324397e-001	 1.407243007852023e+000	 7.839753709140324e+000
 7.736890329473286e-001	 1.415704747463540e+000	 7.665978843919588e+000
 7.583361721590805e-001	 1.423987694413863e+000	 7.491907188100326e+000
 7.429195727735806e-001	 1.432091215274239e+000	 7.318068454881205e+000
 7.274422978844638e-001	 1.440014744704620e+000	 7.144930228976441e+000
 7.119074118295534e-001	 1.447757785233454e+000	 6.972897386759319e+000
 6.963179783645463e-001	 1.455319906979338e+000	 6.802311680341878e+000
 6.806770588560146e-001	 1.462700747315572e+000	 6.633451486597381e+000
 6.649877104957208e-001	 1.469900010478731e+000	 6.466542469467206e+000
 6.492529845381936e-001	 1.476917467122426e+000	 6.303117701955170e+000
 6.334759245634387e-001	 1.483752953817541e+000	 6.145270219498644e+000
 8.020167332880693e-001	 1.430504520438026e+000	 7.969409092767955e+000
 7.864779948233396e-001	 1.439106131316547e+000	 7.796877959111685e+000
 7.708713535847912e-001	 1.447525994118420e+000	 7.624503740670409e+000
 7.551999201597239e-001	 1.455763464944417e+000	 7.452851609249507e+000
 7.394668082742286e-001	 1.463817969109509e+000	 7.282422783028686e+000
 7.236751329191496e-001	 1.471689000919019e+000	 7.113653765110802e+000
 7.078280084935832e-001	 1.479376123385674e+000	 6.946915749983202e+000
 6.919285469680097e-001	 1.486878967888615e+000	 6.782514199400076e+000
 6.759798560690888e-001	 1.494197233775495e+000	 6.620688588894534e+000
 6.599850374881072e-001	 1.501330687908871e+000	 6.461788984101371e+000
 6.439471851149695e-001	 1.508279164158169e+000	 6.307947047943937e+000
 8.150583714432672e-001	 1.453766033023863e+000	 8.099505602186676e+000
 7.992669566989544e-001	 1.462507515169399e+000	 7.928589152187802e+000
 7.834065350101485e-001	 1.471064293822835e+000	 7.758185140255762e+000
 7.674802675455636e-001	 1.479435714614465e+000	 7.588890217906465e+000
 7.514913186637425e-001	 1.487621193514281e+000	 7.421235177805924e+000
 7.354428540085497e-001	 1.495620216604477e+000	 7.255684014517279e+000
 7.193380386224788e-001	 1.503432339791911e+000	 7.092633156727788e+000
 7.031800350799152e-001	 1.511057188461564e+000	 6.932410872962250e+000
 6.869720016424156e-001	 1.518494457072168e+000	 6.775276852505979e+000
 6.707170904380223e-001	 1.525743908695221e+000	 6.621421962965762e+000
 6.544184456665354e-001	 1.532805374498695e+000	 6.471603653894415e+000
 8.281000095980499e-001	 1.477027545609700e+000	 8.224518621699907e+000
 8.120559185741816e-001	 1.485908899022251e+000	 8.055535983832110e+000
 7.959417164351506e-001	 1.494602593527250e+000	 7.887321050218421e+000
 7.797606149310815e-001	 1.503107964284512e+000	 7.720498570639874e+000
 7.635158290529713e-001	 1.511424417919046e+000	 7.555625459124596e+000
 7.472105750977021e-001	 1.519551432289924e+000	 7.393189680182753e+000
 7.308480687511642e-001	 1.527488556198130e+000	 7.233609309627771e+000
 7.144315231916465e-001	 1.535235409034484e+000	 7.077231772483542e+000
 6.979641472156025e-001	 1.542791680368797e+000	 6.924333260215269e+000
 6.814491433878283e-001	 1.550157129481510e+000	 6.775118329246110e+000
 6.648897062180196e-001	 1.557331584839138e+000	 6.629731070189670e+000
 8.411416477524336e-001	 1.500289058195703e+000	 8.339311482479461e+000
 8.248448804490295e-001	 1.509310282875257e+000	 8.172522758710725e+000
 8.084768978597926e-001	 1.518140893231805e+000	 8.006654722575222e+000
 7.920409623162603e-001	 1.526780213954683e+000	 7.842357413645497e+000
 7.755403394418811e-001	 1.535227642323919e+000	 7.680210995984441e+000
 7.589782961865559e-001	 1.543482647975457e+000	 7.520724472708831e+000
 7.423580988795706e-001	 1.551544772604411e+000	 7.364334577728453e+000
 7.256830113031192e-001	 1.559413629607439e+000	 7.211404847648406e+000
 7.089562927885509e-001	 1.567088903665430e+000	 7.062224876587755e+000
 6.921811963374156e-001	 1.574570350267766e+000	 6.917009756416914e+000
 6.753609667693055e-001	 1.581857795179509e+000	 6.775899704642069e+000
 8.541832859064348e-001	 1.523550570782039e+000	 8.439123467602190e+000
 8.376338423235072e-001	 1.532711666728574e+000	 8.274722982751090e+000
 8.210120792840733e-001	 1.541679192936644e+000	 8.111291892049620e+000
 8.043213097010831e-001	 1.550452463625108e+000	 7.949503266025872e+000
 7.875648498304384e-001	 1.559030866729012e+000	 7.789958206360281e+000
 7.707460172750591e-001	 1.567413863661173e+000	 7.633184391223653e+000
 7.538681290076296e-001	 1.575600989010834e+000	 7.479634799802698e+000
 7.369344994142486e-001	 1.583591850180492e+000	 7.329686619483265e+000
 7.199484383611615e-001	 1.591386126962113e+000	 7.183640338962834e+000
 7.029132492866742e-001	 1.598983571054023e+000	 7.041719030339445e+000
 6.858322273202755e-001	 1.606384005519828e+000	 6.904067822980512e+000
 8.672249240600692e-001	 1.546812083368872e+000	 8.519558229900328e+000
 8.504228041976235e-001	 1.556113050582356e+000	 8.357668217152776e+000
 8.335472607079892e-001	 1.565217492641910e+000	 8.196690052180669e+000
 8.166016570855321e-001	 1.574124713295916e+000	 8.037318104924797e+000
 7.995893602186089e-001	 1.582834091134438e+000	 7.880172639304135e+000
 7.825137383631615e-001	 1.591345079347169e+000	 7.725798191432838e+000
 7.653781591352729e-001	 1.599657205417480e+000	 7.574662128395538e+000
 7.481859875249496e-001	 1.607770070753707e+000	 7.427153391530110e+000
 7.309405839333361e-001	 1.615683350258895e+000	 7.283581428005675e+000
 7.136453022354947e-001	 1.623396791840312e+000	 7.144175314298903e+000
 6.963034878708130e-001	 1.630910215860108e+000	 7.009083074960085e+000
 8.802665622133532e-001	 1.570073595956371e+000	 8.576572579808364e+000
 8.632117660713863e-001	 1.579514434436757e+000	 8.417237287978917e+000
 8.460824421315376e-001	 1.588755792347744e+000	 8.258648073861261e+000
 8.288820044695899e-001	 1.597796962967234e+000	 8.101519381062557e+000
 8.116138706063589e-001	 1.606637315540310e+000	 7.946489376400105e+000
 7.942814594508111e-001	 1.615276295033541e+000	 7.794118162814156e+000
 7.768881892624316e-001	 1.623713421824429e+000	 7.644886173502511e+000
 7.594374756351380e-001	 1.631948291327146e+000	 7.499192751696566e+000
 7.419327295049752e-001	 1.639980573555821e+000	 7.357354920388030e+000
 7.243773551837668e-001	 1.647810012626662e+000	 7.219606346169921e+000
 7.067747484208015e-001	 1.655436426200365e+000	 7.086096501187866e+000
 6.020621429102250e-001	 1.410174322794896e+000	 5.731950820740030e+000
 5.870278516030029e-001	 1.416498737301121e+000	 5.564125646529637e+000
 5.719590733564497e-001	 1.422650029986620e+000	 5.396819689279766e+000
 5.568586712756409e-001	 1.428628231261313e+000	 5.230675465784158e+000
 5.417294947976459e-001	 1.434433431836373e+000	 5.066309290881011e+000
 5.265743781829089e-001	 1.440065782013029e+000	 4.904305834858678e+000
 5.113961390398313e-001	 1.445525490928912e+000	 4.745213489933805e+000
 4.961975768838239e-001	 1.450812825763512e+000	 4.589540533089901e+000
 4.809814717320292e-001	 1.455928110904371e+000	 4.437752066148366e+000
 4.657505827348304e-001	 1.460871727075660e+000	 4.290267707976447e+000
 4.505076468451836e-001	 1.465644110430823e+000	 4.147460008249324e+000
 6.125334034609495e-001	 1.434700533135920e+000	 5.850165579926658e+000
 5.972376308707766e-001	 1.441134943915833e+000	 5.687089646169936e+000
 5.819067715331873e-001	 1.447393221884075e+000	 5.524460932178283e+000
 5.665437383493174e-001	 1.453475397979446e+000	 5.362966679069258e+000
 5.511514303145781e-001	 1.459381564490778e+000	 5.203262264605471e+000
 5.357327309837993e-001	 1.465111874333371e+000	 5.045965426612903e+000
 5.202905069701495e-001	 1.470666540282229e+000	 4.891651408019247e+000
 5.048276064791278e-001	 1.476045834163695e+000	 4.740849007749327e+000
 4.893468578788444e-001	 1.481250086007147e+000	 4.594037514542377e+000
 4.738510683077294e-001	 1.486279683158419e+000	 4.451644494095420e+000
 4.583430223207198e-001	 1.491135069356658e+000	 4.314044393808848e+000
 6.230046640120596e-001	 1.459226743476797e+000	 5.990342173280030e+000
 6.074474101389679e-001	 1.465771150530428e+000	 5.831466975691111e+000
 5.918544697103533e-001	 1.472136413781435e+000	 5.672708295056490e+000
 5.762288054234166e-001	 1.478322564697501e+000	 5.514836184652996e+000
 5.605733658319158e-001	 1.484329697145122e+000	 5.358581973074482e+000
 5.448910837850698e-001	 1.490157966653669e+000	 5.204632079579858e+000
 5.291848749008191e-001	 1.495807589635517e+000	 5.053622877153657e+000
 5.134576360747548e-001	 1.501278842563868e+000	 4.906136584180269e+000
 4.977122440259597e-001	 1.506572061109939e+000	 4.762698157636084e+000
 4.819515538809139e-001	 1.511687639241224e+000	 4.623773153270927e+000
 4.661783977965402e-001	 1.516626028282580e+000	 4.489766511426230e+000
 6.334759245634387e-001	 1.483752953817541e+000	 6.145270219498646e+000
 6.176571894074571e-001	 1.490407357144906e+000	 5.990179741720681e+000
 6.018021678878300e-001	 1.496879605678688e+000	 5.834648095125396e+000
 5.859138724978267e-001	 1.503169731415457e+000	 5.679564625027785e+000
 5.699953013495547e-001	 1.509277829799371e+000	 5.525771726294819e+000
 5.540494365866255e-001	 1.515204058973874e+000	 5.374058178715557e+000
 5.380792428317556e-001	 1.520948638988721e+000	 5.225153670676411e+000
 5.220876656706315e-001	 1.526511850963969e+000	 5.079724488392666e+000
 5.060776301733108e-001	 1.531894036212673e+000	 4.938370339042337e+000
 4.900520394543282e-001	 1.537095595323997e+000	 4.801622267872340e+000
 4.740137732725954e-001	 1.542116987208505e+000	 4.669941621753312e+000
 6.439471851149695e-001	 1.508279164158169e+000	 6.307947047943937e+000
 6.278669686761252e-001	 1.515043563759268e+000	 6.156328797671216e+000
 6.117498660655004e-001	 1.521622797575824e+000	 6.003516705650496e+000
 5.955989395724353e-001	 1.528016898133288e+000	 5.850554453642048e+000
 5.794172368673897e-001	 1.534225962453487e+000	 5.698429007759202e+000
 5.632077893883719e-001	 1.540250151293942e+000	 5.548063404016659e+000
 5.469736107628745e-001	 1.546089688341782e+000	 5.400310878286901e+000
 5.307176952666834e-001	 1.551744859363929e+000	 5.255950313914250e+000
 5.144430163208340e-001	 1.557216011315279e+000	 5.115682970337397e+000
 4.981525250279170e-001	 1.562503551406660e+000	 4.980130446874630e+000
 4.818491487488355e-001	 1.567607946134351e+000	 4.849833827388701e+000
 6.544184456665354e-001	 1.532805374498695e+000	 6.471603653894416e+000
 6.380767479448531e-001	 1.539679770373518e+000	 6.323217893582261e+000
 6.216975642432467e-001	 1.546365989472827e+000	 6.172723069263634e+000
 6.052840066471301e-001	 1.552864064850969e+000	 6.021350972996149e+000
 5.888391723853175e-001	 1.559174095107435e+000	 5.870265190772825e+000
 5.723661421902138e-001	 1.565296243613825e+000	 5.720553270370307e+000
 5.558679786940914e-001	 1.571230737694648e+000	 5.573220406277209e+000
 5.393477248628367e-001	 1.576977867763687e+000	 5.429184610566623e+000
 5.228084024684643e-001	 1.582537986417684e+000	 5.289273327585840e+000
 5.062530106016239e-001	 1.587911507489136e+000	 5.154221440143277e+000
 4.896845242252109e-001	 1.593098905060032e+000	 5.024670605509049e+000
 6.648897062180196e-001	 1.557331584839138e+000	 6.629731070189671e+000
 6.482865272135217e-001	 1.564315976987654e+000	 6.484378224343560e+000
 6.316452624209525e-001	 1.571109181369688e+000	 6.335871581870471e+000
 6.149690737218001e-001	 1.577711231568476e+000	 6.185663706694403e+000
 5.982611079032335e-001	 1.584122227761179e+000	 6.035125544170509e+000
 5.815244949920564e-001	 1.590342335933476e+000	 5.885537905226485e+000
 5.647623466253220e-001	 1.596371787047260e+000	 5.738084657942470e+000
 5.479777544590173e-001	 1.602210876163178e+000	 5.593847590617523e+000
 5.311737886161385e-001	 1.607859961519817e+000	 5.453802898203504e+000
 5.143534961753934e-001	 1.613319463571345e+000	 5.318819232693702e+000
 4.975198997016720e-001	 1.618589863985467e+000	 5.189657247697715e+000
 6.753609667693055e-001	 1.581857795179509e+000	 6.775899704642071e+000
 6.584963064820117e-001	 1.588952183601679e+000	 6.633593333104872e+000
 6.415929605985001e-001	 1.595852373266394e+000	 6.486785306966547e+000
 6.246541407963321e-001	 1.602558398285783e+000	 6.337388069237218e+000
 6.076830434210330e-001	 1.609070360414681e+000	 6.187009496039050e+000
 5.906828477938049e-001	 1.615388428252850e+000	 6.037151038302005e+000
 5.736567145564815e-001	 1.621512836399564e+000	 5.889200374629758e+000
 5.566077840551514e-001	 1.627443884562336e+000	 5.744425939584033e+000
 5.395391747637919e-001	 1.633181936621605e+000	 5.603973272705061e+000
 5.224539817491696e-001	 1.638727419653209e+000	 5.468863121107963e+000
 5.053552751781693e-001	 1.644080822910571e+000	 5.339991217048480e+000
 6.858322273202755e-001	 1.606384005519828e+000	 6.904067822980513e+000
 6.687060857502040e-001	 1.613588390215593e+000	 6.764911649347480e+000
 6.515406587757721e-001	 1.620595565162931e+000	 6.619529485086577e+000
 6.343392078706145e-001	 1.627405565002866e+000	 6.470627301763261e+000
 6.171049789386121e-001	 1.634018493067907e+000	 6.320091127897473e+000
 5.998412005953645e-001	 1.640434520571898e+000	 6.169669180674486e+000
 5.825510824874860e-001	 1.646653885751501e+000	 6.020976620274560e+000
 5.652378136511652e-001	 1.652676892961099e+000	 5.875489720513987e+000
 5.479045609113603e-001	 1.658503911722977e+000	 5.734542076549048e+000
 5.305544673228969e-001	 1.664135375734651e+000	 5.599322774020515e+000
 5.131906506546526e-001	 1.669571781835260e+000	 5.470876431391284e+000
 6.963034878708130e-001	 1.630910215860108e+000	 7.009083074960085e+000
 6.789158650179793e-001	 1.638224596829399e+000	 6.872364859340349e+000
 6.614883569526509e-001	 1.645338757059289e+000	 6.728435307358031e+000
 6.440242749445354e-001	 1.652252731719701e+000	 6.579714645778640e+000
 6.265269144558660e-001	 1.658966625720819e+000	 6.428739875100911e+000
 6.089995533966401e-001	 1.665480612890576e+000	 6.277530973353232e+000
 5.914454504182501e-001	 1.671794935103017e+000	 6.127952894336903e+000
 5.738678432469846e-001	 1.677909901359400e+000	 5.981709361920656e+000
 5.562699470587798e-001	 1.683825886823860e+000	 5.840338937870265e+000
 5.386549528965191e-001	 1.689543331815590e+000	 5.705213278360743e+000
 5.210260261310727e-001	 1.695062740759449e+000	 5.577537480422600e+000
 7.067747484208015e-001	 1.655436426200365e+000	 7.086096501187866e+000
 6.891256442852183e-001	 1.662860803443095e+000	 6.950778863476521e+000
 6.714360551290197e-001	 1.670081948955455e+000	 6.808058296689482e+000
 6.537093420179819e-001	 1.677099898436262e+000	 6.659235730225420e+000
 6.359488499726910e-001	 1.683914758373383e+000	 6.507541412110930e+000
 6.181579061975374e-001	 1.690526705208835e+000	 6.355356687773507e+000
 6.003398183486900e-001	 1.696935984454057e+000	 6.204817359841203e+000
 5.824978728425352e-001	 1.703142909757176e+000	 6.057872720710854e+000
 5.646353332059857e-001	 1.709147861924183e+000	 5.916281487391339e+000
 5.467554384699808e-001	 1.714951287895949e+000	 5.781610172838570e+000
 5.288614016073797e-001	 1.720553699683057e+000	 5.655233783603604e+000
 4.505076468451836e-001	 1.465644110430823e+000	 4.147460008249324e+000
 4.352553773090560e-001	 1.470245751245001e+000	 4.010046989114863e+000
 4.199964617822380e-001	 1.474677191845686e+000	 3.878293506445452e+000
 4.047335618101466e-001	 1.478939026711766e+000	 3.751821372986133e+000
 3.894693118802304e-001	 1.483031901808773e+000	 3.630207547696792e+000
 3.742063182928812e-001	 1.486956513530291e+000	 3.512986918196028e+000
 3.589471580746028e-001	 1.490713607613841e+000	 3.399655496763819e+000
 3.436943779339139e-001	 1.494303978033006e+000	 3.289673974088672e+000
 3.284504932603850e-001	 1.497728465867564e+000	 3.182471573948003e+000
 3.132179871671365e-001	 1.500987958153400e+000	 3.077450151538075e+000
 2.979993095770399e-001	 1.504083386713946e+000	 2.973988478211454e+000
 4.583430223207198e-001	 1.491135069356658e+000	 4.314044393808848e+000
 4.428254803534434e-001	 1.495816743404018e+000	 4.181773965608437e+000
 4.273011768062746e-001	 1.500325257060339e+000	 4.054910605846120e+000
 4.117728195150919e-001	 1.504661215143897e+000	 3.933058918532889e+000
 3.962430887872050e-001	 1.508825274855079e+000	 3.815771884929255e+000
 3.807146362526286e-001	 1.512818144699393e+000	 3.702554314449462e+000
 3.651900837583481e-001	 1.516640583384481e+000	 3.592866766249801e+000
 3.496720223060635e-001	 1.520293398692991e+000	 3.486129877706537e+000
 3.341630110338178e-001	 1.523777446333049e+000	 3.381729034887672e+000
 3.186655762418404e-001	 1.527093628768171e+000	 3.279019319615256e+000
 3.031822104628572e-001	 1.530242894028381e+000	 3.177330667779223e+000
 4.661783977965402e-001	 1.516626028282580e+000	 4.489766511426230e+000
 4.503955833981298e-001	 1.521387735563174e+000	 4.361011815478324e+000
 4.346058918306376e-001	 1.525973322275190e+000	 4.237374628810436e+000
 4.188120772204008e-001	 1.530383403576289e+000	 4.118465279646138e+000
 4.030168656945870e-001	 1.534618647901714e+000	 4.003834579066881e+000
 3.872229542128294e-001	 1.538679775868886e+000	 3.892977979483987e+000
 3.714330094425919e-001	 1.542567559155575e+000	 3.785340268563203e+000
 3.556496666787524e-001	 1.546282819353483e+000	 3.680320726063233e+000
 3.398755288078220e-001	 1.549826426799085e+000	 3.577278669836199e+000
 3.241131653171372e-001	 1.553199299383525e+000	 3.475539316679880e+000
 3.083651113492741e-001	 1.556402401343417e+000	 3.374399883819238e+000
 4.740137732725954e-001	 1.542116987208505e+000	 4.669941621753312e+000
 4.579656864430685e-001	 1.546958727722380e+000	 4.543439415236261e+000
 4.419106068552816e-001	 1.551621387490147e+000	 4.421747423971299e+000
 4.258513349260272e-001	 1.556105592008849e+000	 4.304501642180984e+000
 4.097906426023272e-001	 1.560412020948581e+000	 4.191269412769863e+000
 3.937312721734311e-001	 1.564541407038679e+000	 4.081554342317471e+000
 3.776759351272775e-001	 1.568494534927030e+000	 3.974801824398297e+000
 3.616273110519196e-001	 1.572272240014395e+000	 3.870405089125058e+000
 3.455880465823344e-001	 1.575875407265591e+000	 3.767711695464465e+000
 3.295607543929611e-001	 1.579304969999389e+000	 3.666030382263191e+000
 3.135480122362239e-001	 1.582561908658987e+000	 3.564638194025783e+000
 4.818491487488355e-001	 1.567607946134351e+000	 4.849833827388701e+000
 4.655357894882131e-001	 1.572529719881547e+000	 4.724664398251059e+000
 4.492153218801609e-001	 1.577269452705120e+000	 4.604000341343066e+000
 4.328905926319242e-001	 1.581827780441484e+000	 4.487520332263657e+000
 4.165644195103765e-001	 1.586205393995588e+000	 4.374823898127927e+000
 4.002395901343810e-001	 1.590403038208677e+000	 4.265437148192516e+000
 3.839188608123486e-001	 1.594421510698755e+000	 4.158819194283049e+000
 3.676049554255053e-001	 1.598261660675640e+000	 4.054369168467573e+000
 3.513005643572911e-001	 1.601924387732485e+000	 3.951433743918372e+000
 3.350083434692461e-001	 1.605410640615688e+000	 3.849315064235911e+000
 3.187309131236400e-001	 1.608721415975027e+000	 3.747278986621736e+000
 4.896845242252109e-001	 1.593098905060032e+000	 5.024670605509049e+000
 4.731058925335175e-001	 1.598100712040590e+000	 4.900237224308795e+000
 4.565200369052304e-001	 1.602917517920015e+000	 4.780027975414805e+000
 4.399298503380454e-001	 1.607549968874099e+000	 4.663778359801928e+000
 4.233381964186858e-001	 1.611998767042638e+000	 4.551132737534910e+000
 4.067479080956263e-001	 1.616264669378785e+000	 4.441650943625541e+000
 3.901617864977485e-001	 1.620348486470660e+000	 4.334815684294618e+000
 3.735825997994487e-001	 1.624251081337129e+000	 4.230040609667907e+000
 3.570130821326285e-001	 1.627973368199685e+000	 4.126678957272786e+000
 3.404559325459264e-001	 1.631516311232345e+000	 4.024032659955389e+000
 3.239138140114558e-001	 1.634880923291471e+000	 3.921361811970400e+000
 4.975198997016720e-001	 1.618589863985467e+000	 5.189657247697715e+000
 4.806759955789353e-001	 1.623671704199418e+000	 5.065665079470178e+000
 4.638247519304444e-001	 1.628565583134742e+000	 4.945661655783141e+000
 4.469691080443440e-001	 1.633272157306602e+000	 4.829450621780998e+000
 4.301119733272060e-001	 1.637792140089639e+000	 4.716730852455981e+000
 4.132562260571145e-001	 1.642126300548911e+000	 4.607104034173054e+000
 3.964047121834209e-001	 1.646275462242652e+000	 4.500083126882700e+000
 3.795602441736897e-001	 1.650240501998774e+000	 4.395101590607319e+000
 3.627255999082826e-001	 1.654022348667107e+000	 4.291523257945257e+000
 3.459035216229358e-001	 1.657621981849287e+000	 4.188652733503153e+000
 3.290967148996046e-001	 1.661040430608253e+000	 4.085746201314906e+000
 5.053552751781693e-001	 1.644080822910571e+000	 5.339991217048480e+000
 4.882460986244200e-001	 1.649242696357944e+000	 5.216425624647566e+000
 4.711294669557573e-001	 1.654213648349210e+000	 5.096682712726770e+000
 4.540083657507736e-001	 1.658994345738900e+000	 4.980642802269344e+000
 4.368857502358878e-001	 1.663585513136496e+000	 4.868066026985790e+000
 4.197645440187933e-001	 1.667987931718962e+000	 4.758600972141500e+000
 4.026476378693090e-001	 1.672202438014639e+000	 4.651794304620561e+000
 3.855378885481678e-001	 1.676229922660488e+000	 4.547101264267558e+000
 3.684381176841902e-001	 1.680071329134671e+000	 4.443896884503101e+000
 3.513511107002089e-001	 1.683727652466438e+000	 4.341487809287023e+000
 3.342796157880199e-001	 1.687199937925307e+000	 4.239124573658842e+000
 5.131906506546526e-001	 1.669571781835260e+000	 5.470876431391284e+000
 4.958162016699257e-001	 1.674813688516081e+000	 5.347980609073257e+000
 4.784341819811238e-001	 1.679861713563327e+000	 5.228835541778555e+000
 4.610476234572875e-001	 1.684716534170897e+000	 5.113404001550971e+000
 4.436595271446824e-001	 1.689378886183114e+000	 5.001511207367302e+000
 4.262728619806095e-001	 1.693849562888843e+000	 4.892854624478432e+000
 4.088905635553564e-001	 1.698129413786532e+000	 4.787014876421160e+000
 3.915155329228229e-001	 1.702219343322185e+000	 4.683467625011974e+000
 3.741506354602876e-001	 1.706120309602293e+000	 4.581596271375196e+000
 3.567986997776794e-001	 1.709833323083725e+000	 4.480705330032845e+000
 3.394625166766352e-001	 1.713359445242568e+000	 4.380034328243278e+000
 5.210260261310727e-001	 1.695062740759449e+000	 5.577537480422600e+000
 5.033863047154056e-001	 1.700384680673738e+000	 5.455789362885979e+000
 4.857388970064985e-001	 1.705509778777000e+000	 5.337840488457229e+000
 4.680868811638395e-001	 1.710438722602501e+000	 5.223739122900600e+000
 4.504333040535402e-001	 1.715172259229400e+000	 5.113376493688497e+000
 4.327811799425113e-001	 1.719711194058462e+000	 5.006497865040042e+000
 4.151334892415067e-001	 1.724056389558237e+000	 4.902714858593137e+000
 3.974931772975942e-001	 1.728208763983774e+000	 4.801518859037650e+000
 3.798631532365108e-001	 1.732169290069892e+000	 4.702295341533293e+000
 3.622462888552815e-001	 1.735938993701071e+000	 4.604338956601841e+000
 3.446454175653834e-001	 1.739518952559972e+000	 4.506869208349354e+000
 5.288614016073797e-001	 1.720553699683057e+000	 5.655233783603604e+000
 5.109564077608135e-001	 1.725955672830829e+000	 5.535322181378636e+000
 4.930436120318358e-001	 1.731157843990140e+000	 5.419406571814483e+000
 4.751261388703822e-001	 1.736160911033619e+000	 5.307621042137893e+000
 4.572070809624126e-001	 1.740965632275259e+000	 5.199920855684038e+000
 4.392894979044454e-001	 1.745572825227723e+000	 5.096094930190025e+000
 4.213764149277031e-001	 1.749983365329664e+000	 4.995779706903291e+000
 4.034708216724216e-001	 1.754198184645169e+000	 4.898474232496296e+000
 3.855756710127967e-001	 1.758218270537386e+000	 4.803556273023190e+000
 3.676938779329494e-001	 1.762044664318403e+000	 4.710299277891430e+000
 3.498283184541985e-001	 1.765678459877450e+000	 4.617890011997478e+000
 2.979993095770399e-001	 1.504083386713946e+000	 2.973988478211456e+000
 2.827991546839796e-001	 1.507015299539558e+000	 2.875485030029630e+000
 2.676176157253354e-001	 1.509785191633430e+000	 2.785078404875523e+000
 2.524570335663319e-001	 1.512394122787768e+000	 2.701788881161877e+000
 2.373197127666052e-001	 1.514843192712843e+000	 2.624640217228575e+000
 2.222079208870836e-001	 1.517133539803352e+000	 2.552664407305787e+000
 2.071238878404339e-001	 1.519266339896488e+000	 2.484906279473374e+000
 1.920698052848553e-001	 1.521242805023325e+000	 2.420427890865613e+000
 1.770478260609259e-001	 1.523064182155104e+000	 2.358312678514255e+000
 1.620600636711550e-001	 1.524731751945949e+000	 2.297669327589010e+000
 1.471085918018470e-001	 1.526246827473539e+000	 2.237635322341962e+000
 3.031822104628572e-001	 1.530242894028381e+000	 3.177330667779224e+000
 2.877176895336974e-001	 1.533225799634873e+000	 3.080145852420174e+000
 2.722721083133522e-001	 1.536043866592425e+000	 2.990677225767270e+000
 2.568478483801319e-001	 1.538698173125490e+000	 2.907878830500839e+000
 2.414472543753198e-001	 1.541189838070859e+000	 2.830709076415444e+000
 2.260726332979972e-001	 1.543520019622557e+000	 2.758136432517284e+000
 2.107262538441941e-001	 1.545689914068317e+000	 2.689144940346494e+000
 1.954103457901381e-001	 1.547700754519251e+000	 2.622739497236422e+000
 1.801270994193073e-001	 1.549553809634328e+000	 2.557950861769646e+000
 1.648786649929307e-001	 1.551250382341223e+000	 2.493840337483925e+000
 1.496671522635357e-001	 1.552791808555088e+000	 2.429504094886701e+000
 3.083651113492741e-001	 1.556402401343417e+000	 3.374399883819238e+000
 2.926362243840046e-001	 1.559436299730789e+000	 3.277427291379320e+000
 2.769266009019342e-001	 1.562302541552006e+000	 3.187914531114936e+000
 2.612386631944633e-001	 1.565002223463775e+000	 3.104775713047001e+000
 2.455747959845260e-001	 1.567536483429407e+000	 3.026929797412663e+000
 2.299373457093609e-001	 1.569906499442260e+000	 2.953307282427970e+000
 2.143286198483649e-001	 1.572113488240614e+000	 2.882856692976815e+000
 1.987508862957979e-001	 1.574158704015620e+000	 2.814550811761425e+000
 1.832063727780419e-001	 1.576043437113978e+000	 2.747392598429982e+000
 1.676972663150494e-001	 1.577769012736919e+000	 2.680420746456293e+000
 1.522257127255744e-001	 1.579336789637071e+000	 2.612714832038257e+000
 3.135480122362239e-001	 1.582561908658987e+000	 3.564638194025782e+000
 2.975547592348355e-001	 1.585646799827250e+000	 3.467187963442334e+000
 2.815810934910186e-001	 1.588561216512131e+000	 3.377061805908297e+000
 2.656294780092664e-001	 1.591306273802593e+000	 3.293155927782110e+000
 2.497023375941673e-001	 1.593883128788470e+000	 3.214371460242177e+000
 2.338020581211211e-001	 1.596292979262458e+000	 3.139622214519182e+000
 2.179309858528945e-001	 1.598537062413384e+000	 3.067842218071961e+000
 2.020914268017831e-001	 1.600616653512443e+000	 2.997992965373529e+000
 1.862856461370760e-001	 1.602533064594071e+000	 2.929070321419887e+000
 1.705158676374521e-001	 1.604287643133056e+000	 2.860111020832036e+000
 1.547842731878955e-001	 1.605881770719505e+000	 2.790198710445605e+000
 3.187309131236400e-001	 1.608721415975027e+000	 3.747278986621735e+000
 3.024732940861249e-001	 1.611857299924204e+000	 3.649067579516558e+000
 2.862355860805422e-001	 1.614819891472758e+000	 3.558161825632225e+000
 2.700202928244812e-001	 1.617610324141914e+000	 3.473457816662119e+000
 2.538298792041875e-001	 1.620229774148032e+000	 3.393856226212122e+000
 2.376667705332243e-001	 1.622679459083146e+000	 3.318271217021555e+000
 2.215333518577310e-001	 1.624960636586633e+000	 3.245639109310308e+000
 2.054319673080420e-001	 1.627074603009736e+000	 3.174926735300141e+000
 1.893649194963556e-001	 1.629022692074626e+000	 3.105139409906614e+000
 1.733344689600799e-001	 1.630806273529654e+000	 3.035328452896865e+000
 1.573428336504320e-001	 1.632426751802406e+000	 2.964598203403388e+000
 3.239138140114558e-001	 1.634880923291471e+000	 3.921361811970404e+000
 3.073918289378070e-001	 1.638067800021593e+000	 3.822502258775860e+000
 2.908900786704420e-001	 1.641078566433846e+000	 3.731044530201335e+000
 2.744111076400478e-001	 1.643914374481710e+000	 3.645898172028586e+000
 2.579574208145298e-001	 1.646576419508075e+000	 3.565976537879374e+000
 2.415314829456166e-001	 1.649065938904318e+000	 3.490206946125344e+000
 2.251357178628226e-001	 1.651384210760366e+000	 3.417540578121519e+000
 2.087725078145225e-001	 1.653532552507511e+000	 3.346962033385090e+000
 1.924441928558265e-001	 1.655512319555662e+000	 3.277498462833036e+000
 1.761530702828740e-001	 1.657324903926732e+000	 3.208228207073924e+000
 1.599013941131164e-001	 1.658971732885789e+000	 3.138288872960161e+000
 3.290967148996046e-001	 1.661040430608253e+000	 4.085746201314905e+000
 3.123103637898164e-001	 1.664278300119365e+000	 3.986738719709193e+000
 2.955445712606549e-001	 1.667337241395350e+000	 3.895341672314445e+000
 2.788019224559066e-001	 1.670218424821950e+000	 3.810487414052198e+000
 2.620849624251379e-001	 1.672923064868585e+000	 3.731110884101528e+000
 2.453961953582447e-001	 1.675452418725971e+000	 3.656161123868534e+000
 2.287380838681175e-001	 1.677807784934590e+000	 3.584612516339560e+000
 2.121130483211732e-001	 1.679990502005783e+000	 3.515475652152520e+000
 1.955234662154353e-001	 1.682001947037197e+000	 3.447807733789058e+000
 1.789716716057754e-001	 1.683843534324309e+000	 3.380722435805003e+000
 1.624599545758813e-001	 1.685516713969673e+000	 3.313399145891007e+000
 3.342796157880199e-001	 1.687199937925307e+000	 4.239124573658842e+000
 3.172288986420876e-001	 1.690488800217466e+000	 4.140847470186045e+000
 3.001990638511178e-001	 1.693595916357230e+000	 4.050500373244287e+000
 2.831927372719975e-001	 1.696522475162606e+000	 3.967043582554058e+000
 2.662125040359551e-001	 1.699269710229544e+000	 3.889438285913300e+000
 2.492609077710546e-001	 1.701838898548099e+000	 3.816659563768193e+000
 2.323404498735637e-001	 1.704231359109308e+000	 3.747709094952512e+000
 2.154535888279422e-001	 1.706448451504562e+000	 3.681627457704790e+000
 1.986027395751276e-001	 1.708491574519248e+000	 3.617505926777041e+000
 1.817902729287252e-001	 1.710362164722407e+000	 3.554497674635654e+000
 1.650185150386595e-001	 1.712061695054074e+000	 3.491828292350612e+000
 3.394625166766352e-001	 1.713359445242568e+000	 4.380034328243278e+000
 3.221474334945552e-001	 1.716699300315839e+000	 4.283735103520433e+000
 3.048535564417678e-001	 1.719854591319444e+000	 4.195795702828390e+000
 2.875835520882611e-001	 1.722826525503650e+000	 4.115205269917147e+000
 2.703400456469252e-001	 1.725616355590934e+000	 4.040951639936828e+000
 2.531256201839929e-001	 1.728225378370697e+000	 3.972035970855393e+000
 2.359428158791093e-001	 1.730654933284528e+000	 3.907487055404931e+000
 2.187941293347777e-001	 1.732906401003865e+000	 3.846375195449930e+000
 2.016820129348497e-001	 1.734981202001836e+000	 3.787825528050959e+000
 1.846088742516645e-001	 1.736880795121043e+000	 3.731030700415335e+000
 1.675770755013836e-001	 1.738606676139007e+000	 3.675262799296844e+000
 3.446454175653834e-001	 1.739518952559972e+000	 4.506869208349356e+000
 3.270659683471535e-001	 1.742909800414432e+000	 4.414155794642307e+000
 3.095080490325418e-001	 1.746113266281949e+000	 4.330342386383418e+000
 2.919743669046372e-001	 1.749130575845050e+000	 4.254443606557262e+000
 2.744675872579915e-001	 1.751963000952741e+000	 4.185470039594701e+000
 2.569903325970060e-001	 1.754611858193762e+000	 4.122444645130471e+000
 2.395451818847027e-001	 1.757078507460254e+000	 4.064418831084804e+000
 2.221346698416279e-001	 1.759364350503703e+000	 4.010488054682896e+000
 2.047612862945476e-001	 1.761470829484977e+000	 3.959806828134596e+000
 1.874274755745342e-001	 1.763399425520239e+000	 3.911603014398754e+000
 1.701356359639863e-001	 1.765151657224491e+000	 3.865191307665162e+000
 3.498283184541985e-001	 1.765678459877450e+000	 4.617890011997477e+000
 3.319845031998169e-001	 1.769120300513190e+000	 4.530722079330507e+000
 3.141625416233765e-001	 1.772371941244703e+000	 4.453105729086476e+000
 2.963651817210658e-001	 1.775434626186778e+000	 4.384073397211278e+000
 2.785951288690975e-001	 1.778309646314947e+000	 4.322650180132705e+000
 2.608550450100400e-001	 1.780998338017287e+000	 4.267872202162733e+000
 2.431475478902918e-001	 1.783502081636491e+000	 4.218804620315298e+000
 2.254752103484412e-001	 1.785822300004091e+000	 4.174559120739599e+000
 2.078405596541675e-001	 1.787960456968690e+000	 4.134310769859278e+000
 1.902460768972755e-001	 1.789918055920011e+000	 4.097314092856209e+000
 1.726941964264004e-001	 1.791696638310540e+000	 4.062918262244740e+000
 1.471085918018470e-001	 1.526246827473539e+000	 2.237635322341960e+000
 1.321932148552253e-001	 1.527610946368682e+000	 2.182449554553072e+000
 1.173181978656277e-001	 1.528825244973612e+000	 2.136113597238059e+000
 1.024855234592909e-001	 1.529891127063641e+000	 2.097443640397088e+000
 8.769713199627979e-002	 1.530810023842251e+000	 2.065308363205274e+000
 7.295492130094994e-002	 1.531583392679665e+000	 2.038630606520823e+000
 5.826074643223184e-002	 1.532212715858080e+000	 2.016388575616817e+000
 4.361641949297316e-002	 1.532699499324805e+000	 1.997616566249684e+000
 2.902370947754151e-002	 1.533045271454459e+000	 1.981405210975420e+000
 1.448434215685826e-002	 1.533251581821384e+000	 1.966901246313444e+000
 0.000000000000000e+000	 1.533319999983334e+000	 1.953306801347004e+000
 1.496671522635357e-001	 1.552791808555088e+000	 2.429504094886700e+000
 1.344923622314420e-001	 1.554179652649703e+000	 2.369359196945939e+000
 1.193586341098445e-001	 1.555415070730929e+000	 2.317502459903385e+000
 1.042679850074528e-001	 1.556499490988984e+000	 2.272593734021293e+000
 8.922238903169807e-002	 1.557434369519299e+000	 2.233354637816370e+000
 7.422377701450698e-002	 1.558221189039145e+000	 2.198570926179463e+000
 5.927403627859138e-002	 1.558861457611046e+000	 2.167094315267451e+000
 4.437501044347406e-002	 1.559356707374226e+000	 2.137843755398205e+000
 2.952849927044121e-002	 1.559708493285285e+000	 2.109806147499495e+000
 1.473625854557671e-002	 1.559918391869258e+000	 2.082036502858590e+000
 0.000000000000000e+000	 1.559987999982150e+000	 2.053657546173190e+000
 1.522257127255744e-001	 1.579336789637071e+000	 2.612714832038257e+000
 1.367915096080341e-001	 1.580748358931190e+000	 2.548857093495584e+000
 1.213990703544734e-001	 1.582004896488756e+000	 2.493016989070603e+000
 1.060504465560655e-001	 1.583107854914895e+000	 2.443709337320947e+000
 9.074764606759797e-002	 1.584058715196978e+000	 2.399520724048680e+000
 7.549263272855974e-002	 1.584858985399321e+000	 2.359112617213263e+000
 6.028732612543471e-002	 1.585510199364770e+000	 2.321223859551225e+000
 4.513360139441194e-002	 1.586013915424461e+000	 2.284672528020884e+000
 3.003328906368742e-002	 1.586371715116971e+000	 2.248357154078036e+000
 1.498817493449885e-002	 1.586585201918022e+000	 2.211257303539411e+000
 0.000000000000000e+000	 1.586655999981867e+000	 2.172433515377449e+000
 1.547842731878955e-001	 1.605881770719505e+000	 2.790198710445605e+000
 1.390906569849223e-001	 1.607317065213150e+000	 2.724071601786760e+000
 1.234395065994218e-001	 1.608594722247091e+000	 2.665953449444909e+000
 1.078329081050230e-001	 1.609716218841355e+000	 2.614222196223564e+000
 9.227290310386338e-002	 1.610683060875255e+000	 2.567338356858528e+000
 7.676148844298673e-002	 1.611496781760144e+000	 2.523848939472846e+000
 6.130061597264214e-002	 1.612158941119188e+000	 2.482390659534079e+000
 4.589219234567812e-002	 1.612671123475431e+000	 2.441692433068501e+000
 3.053807885719368e-002	 1.613034936949425e+000	 2.400577141393395e+000
 1.524009132357377e-002	 1.613252011967577e+000	 2.357962664977965e+000
 0.000000000000000e+000	 1.613323999982383e+000	 2.312862185041828e+000
 1.573428336504320e-001	 1.632426751802406e+000	 2.964598203403388e+000
 1.413898043620276e-001	 1.633885771495591e+000	 2.897836942819613e+000
 1.254799428445967e-001	 1.635184548005932e+000	 2.839308108990422e+000
 1.096153696542196e-001	 1.636324582768350e+000	 2.787257738807447e+000
 9.379816014037826e-002	 1.637307406554097e+000	 2.740026138281580e+000
 7.803034415766655e-002	 1.638134578121565e+000	 2.696052679243722e+000
 6.231390582009404e-002	 1.638807682874235e+000	 2.653879796663343e+000
 4.665078329716386e-002	 1.639328331527060e+000	 2.612156170702924e+000
 3.104286865087352e-002	 1.639698158782560e+000	 2.569639083800983e+000
 1.549200771275058e-002	 1.639918822017827e+000	 2.525195949082278e+000
 0.000000000000000e+000	 1.639991999983600e+000	 2.477805007876490e+000
 1.599013941131164e-001	 1.658971732885789e+000	 3.138288872960161e+000
 1.436889517392707e-001	 1.660454477778524e+000	 3.072715738708243e+000
 1.275203790899055e-001	 1.661774373765276e+000	 3.015800550442452e+000
 1.113978312035494e-001	 1.662932946695862e+000	 2.965659178428915e+000
 9.532341717702637e-002	 1.663931752233472e+000	 2.920514439610098e+000
 7.929919987247772e-002	 1.664772374483535e+000	 2.878701847618058e+000
 6.332719566767064e-002	 1.665456424629846e+000	 2.838674464278528e+000
 4.740937424876045e-002	 1.665985539579266e+000	 2.799006833793267e+000
 3.154765844464044e-002	 1.666361380616284e+000	 2.758397987681247e+000
 1.574392410197837e-002	 1.666585632068675e+000	 2.715673515282000e+000
 0.000000000000000e+000	 1.666659999985417e+000	 2.669786696668692e+000
 1.624599545758813e-001	 1.685516713969673e+000	 3.313399145891007e+000
 1.459880991165724e-001	 1.687023184061957e+000	 3.251019451391688e+000
 1.295608153352552e-001	 1.688364199525119e+000	 3.197894800956722e+000
 1.131802927529066e-001	 1.689541310623874e+000	 3.152009352752262e+000
 9.684867421369169e-002	 1.690556097913347e+000	 3.111467958543353e+000
 8.056805558729877e-002	 1.691410170846005e+000	 3.074502954867546e+000
 6.434048551525232e-002	 1.692105166385958e+000	 3.039479948755194e+000
 4.816796520035917e-002	 1.692642747631972e+000	 3.004902575924269e+000
 3.205244823840803e-002	 1.693024602450508e+000	 2.969416217062079e+000
 1.599584049120625e-002	 1.693252442120022e+000	 2.931810665295172e+000
 0.000000000000000e+000	 1.693327999987733e+000	 2.891021740644998e+000
 1.650185150386595e-001	 1.712061695054074e+000	 3.491828292350614e+000
 1.482872464938533e-001	 1.713591890345898e+000	 3.434826950167023e+000
 1.316012515805531e-001	 1.714954025285460e+000	 3.387818516699216e+000
 1.149627543021853e-001	 1.716149674552370e+000	 3.348650544412739e+000
 9.837393125025805e-002	 1.717180443593689e+000	 3.315306185823119e+000
 8.183691130200831e-002	 1.718047967208927e+000	 3.285912123900302e+000
 6.535377536271937e-002	 1.718753908142505e+000	 3.258745381654251e+000
 4.892655615185134e-002	 1.719299955685101e+000	 3.232238985225043e+000
 3.255723803208980e-002	 1.719687824285142e+000	 3.204986463334061e+000
 1.624775688038331e-002	 1.719919252171772e+000	 3.175745174276068e+000
 0.000000000000000e+000	 1.719995999990450e+000	 3.143438455066371e+000
 1.675770755013836e-001	 1.738606676139007e+000	 3.675262799296843e+000
 1.505863938710343e-001	 1.740160596630359e+000	 3.626001408027427e+000
 1.336416878257064e-001	 1.741543851046296e+000	 3.587580430255778e+000
 1.167452158512796e-001	 1.742758038481330e+000	 3.557702499024431e+000
 9.989918828660938e-002	 1.743804789274466e+000	 3.534222004779834e+000
 8.310576701648489e-002	 1.744685763572250e+000	 3.515154273750416e+000
 6.636706520995218e-002	 1.745402649899424e+000	 3.498683501101885e+000
 4.968514710312822e-002	 1.745957163738571e+000	 3.483169409210567e+000
 3.306202782559926e-002	 1.746351046120098e+000	 3.467152610848636e+000
 1.649967326945867e-002	 1.746586062223828e+000	 3.449358666301308e+000
 0.000000000000000e+000	 1.746663999993467e+000	 3.428700827693681e+000
 1.701356359639863e-001	 1.765151657224491e+000	 3.865191307665160e+000
 1.528855412480362e-001	 1.766729302915345e+000	 3.826205702729045e+000
 1.356821240706222e-001	 1.768133676807624e+000	 3.798986243732661e+000
 1.185276774000838e-001	 1.769366402410742e+000	 3.781078830299105e+000
 1.014244453226295e-001	 1.770429134955646e+000	 3.770198620335131e+000
 8.437462273060702e-002	 1.771323559935927e+000	 3.764240576266376e+000
 6.738035505683096e-002	 1.772051391656648e+000	 3.761288631965617e+000
 5.044373805408110e-002	 1.772614371792308e+000	 3.759623446328572e+000
 3.356681761884998e-002	 1.773014267955283e+000	 3.757728719895507e+000
 1.675158965838142e-002	 1.773252872276091e+000	 3.754296061117312e+000
 0.000000000000000e+000	 1.773331999996684e+000	 3.748228394044030e+000
 1.726941964264004e-001	 1.791696638310540e+000	 4.062918262244744e+000
 1.551846886247798e-001	 1.793298009200867e+000	 4.036916477660411e+000
 1.377225603152077e-001	 1.794723502569440e+000	 4.023653128742526e+000
 1.203101389484920e-001	 1.795974766340585e+000	 4.020501979543722e+000
 1.029497023582024e-001	 1.797053480637194e+000	 4.025024990710711e+000
 8.564347844425330e-002	 1.797961356299908e+000	 4.034984365081768e+000
 6.839364490323611e-002	 1.798700133414114e+000	 4.048353069552702e+000
 5.120232900460125e-002	 1.799271579846228e+000	 4.063323794342579e+000
 3.407160741175545e-002	 1.799677489790610e+000	 4.078316322304124e+000
 1.700350604710066e-002	 1.799919682328466e+000	 4.091983292176066e+000
 0.000000000000000e+000	 1.800000000000000e+000	 4.103214345869224e+000
 1.800000000000000e+000	 0.000000000000000e+000	 1.328035254496700e+001
 1.799919682328466e+000	 1.700350604710072e-002	 1.325017465481668e+001
 1.799677489790610e+000	 3.407160741175556e-002	 1.323344148485526e+001
 1.799271579846229e+000	 5.120232900460112e-002	 1.322768758617595e+001
 1.798700133414114e+000	 6.839364490323605e-002	 1.323038020692929e+001
 1.797961356299907e+000	 8.564347844425327e-002	 1.323892354683197e+001
 1.797053480637195e+000	 1.029497023582024e-001	 1.325066349065225e+001
 1.795974766340585e+000	 1.203101389484920e-001	 1.326289280038237e+001
 1.794723502569440e+000	 1.377225603152076e-001	 1.327285675638073e+001
 1.793298009200867e+000	 1.551846886247796e-001	 1.327775923445869e+001
 1.791696638310540e+000	 1.726941964264003e-001	 1.327476920248722e+001
 1.826668000003317e+000	 0.000000000000000e+000	 1.309190113886083e+001
 1.826586492380854e+000	 1.725542243558252e-002	 1.306659303104204e+001
 1.826340711625984e+000	 3.457639720425813e-002	 1.305494461236043e+001
 1.825928787900252e+000	 5.196091995461603e-002	 1.305440151582775e+001
 1.825348875171750e+000	 6.940693474908760e-002	 1.306233602906940e+001
 1.824599152664132e+000	 8.691233415734241e-002	 1.307605167242146e+001
 1.823677826319064e+000	 1.044749593932500e-001	 1.309278830138519e+001
 1.822583130270824e+000	 1.220926004964327e-001	 1.310972771277902e+001
 1.821313328331721e+000	 1.397629965593995e-001	 1.312399974411302e+001
 1.819866715486908e+000	 1.574838360012101e-001	 1.313268885208608e+001
 1.818241619397146e+000	 1.752527568885780e-001	 1.313284115238648e+001
 1.853336000006534e+000	 0.000000000000000e+000	 1.292851113098620e+001
 1.853253302433154e+000	 1.750733882386080e-002	 1.290751634582206e+001
 1.853003933461306e+000	 3.508118699641538e-002	 1.290026849372301e+001
 1.852585995954273e+000	 5.271951090419778e-002	 1.290413498135654e+001
 1.851997616929445e+000	 7.042022459446448e-002	 1.291640465781219e+001
 1.851236949028488e+000	 8.818118986995370e-002	 1.293429275119057e+001
 1.850302172001139e+000	 1.060002164278468e-001	 1.295494637670467e+001
 1.849191494201343e+000	 1.238750620439718e-001	 1.297545059519455e+001
 1.847903154094349e+000	 1.418034328032531e-001	 1.299283501069430e+001
 1.846435421773350e+000	 1.597829833773704e-001	 1.300408089172952e+001
 1.844786600484193e+000	 1.778113173505509e-001	 1.300612879695994e+001
 1.880004000009551e+000	 0.000000000000000e+000	 1.279126653255978e+001
 1.879920112485265e+000	 1.775925521198643e-002	 1.277353411098213e+001
 1.879667155296469e+000	 3.558597678831360e-002	 1.276956927508922e+001
 1.879243204008180e+000	 5.347810185345472e-002	 1.277667074641303e+001
 1.878646358687084e+000	 7.143351443948540e-002	 1.279205421750061e+001
 1.877874745392853e+000	 8.945004558220661e-002	 1.281285768326093e+001
 1.876926517683292e+000	 1.075254734621056e-001	 1.283614739303979e+001
 1.875799858132006e+000	 1.256575235912099e-001	 1.285892440181321e+001
 1.874492979857182e+000	 1.438438690468528e-001	 1.287813170812667e+001
 1.873004128060052e+000	 1.620821307533283e-001	 1.289066196208426e+001
 1.871331581571538e+000	 1.803698778123701e-001	 1.289336572226199e+001
 1.906672000012268e+000	 0.000000000000000e+000	 1.268141211878426e+001
 1.906586922537085e+000	 1.801117160001031e-002	 1.266540658051267e+001
 1.906330377131368e+000	 3.609076658003917e-002	 1.266318174701958e+001
 1.905900412061863e+000	 5.423669280249505e-002	 1.267197606030729e+001
 1.905295100444551e+000	 7.244680428426897e-002	 1.268894111370605e+001
 1.904512541757102e+000	 9.071890129422063e-002	 1.271114741569862e+001
 1.903550863365390e+000	 1.090507304961390e-001	 1.273559082604111e+001
 1.902408222062676e+000	 1.274399851382472e-001	 1.275919964199160e+001
 1.901082805620080e+000	 1.458843052902832e-001	 1.277884232112986e+001
 1.899572834346869e+000	 1.643812781291511e-001	 1.279133582255015e+001
 1.897876562659040e+000	 1.829284382740870e-001	 1.279345454337968e+001
 1.933340000014584e+000	 0.000000000000000e+000	 1.260034234116021e+001
 1.933253732588514e+000	 1.826308798798332e-002	 1.258405245442640e+001
 1.932993598965897e+000	 3.659555637167841e-002	 1.258160603495109e+001
 1.932557620115213e+000	 5.499528375142715e-002	 1.259018852660323e+001
 1.931943842201727e+000	 7.346009412893391e-002	 1.260689526775157e+001
 1.931150338121113e+000	 9.198775700611517e-002	 1.262873772682903e+001
 1.930175209047304e+000	 1.105759875300598e-001	 1.265265046441811e+001
 1.929016585993217e+000	 1.292224466851841e-001	 1.267549879901423e+001
 1.927672631382903e+000	 1.479247415336291e-001	 1.269408716168053e+001
 1.926141540633660e+000	 1.666804255049063e-001	 1.270516811969503e+001
 1.924421543746556e+000	 1.854869987357526e-001	 1.270545204404118e+001
 1.960008000016401e+000	 0.000000000000000e+000	 1.254959114495655e+001
 1.959920542639449e+000	 1.851500437595633e-002	 1.253053758688569e+001
 1.959656820799952e+000	 3.710034616331763e-002	 1.252549537798686e+001
 1.959214828168119e+000	 5.575387470035925e-002	 1.253160312927883e+001
 1.958592583958498e+000	 7.447338397359885e-002	 1.254590656346025e+001
 1.957788134484761e+000	 9.325661271800975e-002	 1.256536526311326e+001
 1.956799554728904e+000	 1.121012445639806e-001	 1.258686020261766e+001
 1.955624949923494e+000	 1.310049082321211e-001	 1.260720204020096e+001
 1.954262457145510e+000	 1.499651777769750e-001	 1.262314015394038e+001
 1.952710246920282e+000	 1.689795728806617e-001	 1.263137239997798e+001
 1.950966524833943e+000	 1.880455591974182e-001	 1.262855556551379e+001
 1.986676000017618e+000	 0.000000000000000e+000	 1.253082260678809e+001
 1.986587352689790e+000	 1.876692076398024e-002	 1.250606460423164e+001
 1.986320042633429e+000	 3.760513595504324e-002	 1.249564489375039e+001
 1.985872036220470e+000	 5.651246564939969e-002	 1.249666030768256e+001
 1.985241325714745e+000	 7.548667381838249e-002	 1.250611239222139e+001
 1.984425930847923e+000	 9.452546843002384e-002	 1.252091471088735e+001
 1.983423900410058e+000	 1.136265015980141e-001	 1.253790099217942e+001
 1.982233313853369e+000	 1.327873697791584e-001	 1.255383409702592e+001
 1.980852282907762e+000	 1.520056140204056e-001	 1.256541578832131e+001
 1.979278953206592e+000	 1.712787202564845e-001	 1.256929727881012e+001
 1.977511505921061e+000	 1.906041196591351e-001	 1.256209052740437e+001
 2.013344000018134e+000	 0.000000000000000e+000	 1.253424656757717e+001
 2.013254162739435e+000	 1.901883715210593e-002	 1.250170378485004e+001
 2.012983264466222e+000	 3.810992574694156e-002	 1.248418852511307e+001
 2.012529244272157e+000	 5.727105659865670e-002	 1.247866913999642e+001
 2.011890067470352e+000	 7.649996366340349e-002	 1.248202353323705e+001
 2.011063727210476e+000	 9.579432414227686e-002	 1.249105097713634e+001
 2.010048246090639e+000	 1.151517586322731e-001	 1.250248400659998e+001
 2.008841677782708e+000	 1.345698313263965e-001	 1.251300037528338e+001
 2.007442108669516e+000	 1.540460502640053e-001	 1.251923507395746e+001
 2.005847659492447e+000	 1.735778676324424e-001	 1.251779241432417e+001
 2.004056487007765e+000	 1.931626801209543e-001	 1.250525818463674e+001
 2.040012000017850e+000	 0.000000000000000e+000	 1.249304686804676e+001
 2.039920972788282e+000	 1.927075354038426e-002	 1.245734928689917e+001
 2.039646486298226e+000	 3.861471553909891e-002	 1.243738430619226e+001
 2.039186452323067e+000	 5.802964754823859e-002	 1.242992998716587e+001
 2.038538809225204e+000	 7.751325350878056e-002	 1.243169185206163e+001
 2.037701523572295e+000	 9.706317985488830e-002	 1.243931509708609e+001
 2.036672591770513e+000	 1.166770156668700e-001	 1.244939681965752e+001
 2.035450041711373e+000	 1.363522928739358e-001	 1.245849824453019e+001
 2.034031934430634e+000	 1.560864865078590e-001	 1.246315694975569e+001
 2.032416365777704e+000	 1.758770150086029e-001	 1.245989909704571e+001
 2.030601468093916e+000	 1.957212405829273e-001	 1.244525167471909e+001
 2.066680000016667e+000	 0.000000000000000e+000	 1.239931016858697e+001
 2.066587782836231e+000	 1.952266992886615e-002	 1.236595075674166e+001
 2.066309708129336e+000	 3.911950533160163e-002	 1.234875998925842e+001
 2.065843660373092e+000	 5.878823849825369e-002	 1.234433189440905e+001
 2.065187550979181e+000	 7.852654335463230e-002	 1.234920823560259e+001
 2.064339319933258e+000	 9.833203556797766e-002	 1.235989109595615e+001
 2.063296937449552e+000	 1.182022727019178e-001	 1.237285540632931e+001
 2.062058405639229e+000	 1.381347544218766e-001	 1.238456140164004e+001
 2.060621760190974e+000	 1.581269227520511e-001	 1.239146700741544e+001
 2.058985072062221e+000	 1.781761623850334e-001	 1.239004016266296e+001
 2.057146449179369e+000	 1.982798010451051e-001	 1.237677108930621e+001
 1.791696638310540e+000	 1.726941964264003e-001	 1.327476920248722e+001
 1.789918055920011e+000	 1.902460768972756e-001	 1.327207291550423e+001
 1.787960456968690e+000	 2.078405596541674e-001	 1.327832906600060e+001
 1.785822300004091e+000	 2.254752103484413e-001	 1.329140551458282e+001
 1.783502081636491e+000	 2.431475478902916e-001	 1.330918775420520e+001
 1.780998338017287e+000	 2.608550450100400e-001	 1.332958651829032e+001
 1.778309646314947e+000	 2.785951288690977e-001	 1.335054557519370e+001
 1.775434626186778e+000	 2.963651817210658e-001	 1.337004966787650e+001
 1.772371941244703e+000	 3.141625416233767e-001	 1.338613255459193e+001
 1.769120300513190e+000	 3.319845031998169e-001	 1.339688510348828e+001
 1.765678459877450e+000	 3.498283184541985e-001	 1.340046339131669e+001
 1.818241619397146e+000	 1.752527568885780e-001	 1.313284115238648e+001
 1.816436686320356e+000	 1.930646782198457e-001	 1.313297593770532e+001
 1.814450084452968e+000	 2.109198330136685e-001	 1.314212780780898e+001
 1.812280249505019e+000	 2.288157508551775e-001	 1.315810346295355e+001
 1.809925655813227e+000	 2.467499138958354e-001	 1.317872889701358e+001
 1.807384817841255e+000	 2.647197574230519e-001	 1.320185765726155e+001
 1.804656291677526e+000	 2.827226704801977e-001	 1.322537931033803e+001
 1.801738676528800e+000	 3.007559965374987e-001	 1.324722806952383e+001
 1.798630616207665e+000	 3.188170342142214e-001	 1.326539153506759e+001
 1.795330800612061e+000	 3.369030380524929e-001	 1.327791949613447e+001
 1.791837967194950e+000	 3.550112193430273e-001	 1.328293273995701e+001
 1.844786600484193e+000	 1.778113173505509e-001	 1.300612879695994e+001
 1.842955316721160e+000	 1.958832795422660e-001	 1.300787198811166e+001
 1.840939711937706e+000	 2.139991063730644e-001	 1.301874746692931e+001
 1.838738199006388e+000	 2.321562913618431e-001	 1.303649797157624e+001
 1.836349229990372e+000	 2.503522799013354e-001	 1.305888746938025e+001
 1.833771297665584e+000	 2.685844698360398e-001	 1.308371012642657e+001
 1.831002937040409e+000	 2.868502120912876e-001	 1.310879950481980e+001
 1.828042726871060e+000	 3.051468113539312e-001	 1.313203793867994e+001
 1.824889291170791e+000	 3.234715268050728e-001	 1.315136603625602e+001
 1.821541300711023e+000	 3.418215729051807e-001	 1.316479225204621e+001
 1.817997474512457e+000	 3.601941202318723e-001	 1.317040246953840e+001
 1.871331581571538e+000	 1.803698778123701e-001	 1.289336572226199e+001
 1.869473947122285e+000	 1.987018808645739e-001	 1.289553644347675e+001
 1.867429339422771e+000	 2.170783797323811e-001	 1.290702584130727e+001
 1.865196148508078e+000	 2.354968318684564e-001	 1.292550884125750e+001
 1.862772804167814e+000	 2.539546459068037e-001	 1.294868377426121e+001
 1.860157777490180e+000	 2.724491822490121e-001	 1.297428211806157e+001
 1.857349582403519e+000	 2.909777537023743e-001	 1.300007848955689e+001
 1.854346777213499e+000	 3.095376261703707e-001	 1.302390083481983e+001
 1.851147966134042e+000	 3.281260193959392e-001	 1.304364075947238e+001
 1.847751800810049e+000	 3.467401077578917e-001	 1.305726393827195e+001
 1.844156981829971e+000	 3.653770211207496e-001	 1.306282053917373e+001
 1.897876562659040e+000	 1.829284382740870e-001	 1.279345454337968e+001
 1.895992577523594e+000	 2.015204821868070e-001	 1.279490439177298e+001
 1.893918966908032e+000	 2.201576530916455e-001	 1.280595063550647e+001
 1.891654098009965e+000	 2.388373723750355e-001	 1.282419546151497e+001
 1.889196378345448e+000	 2.575570119122527e-001	 1.284726684554193e+001
 1.886544257314950e+000	 2.763138946619772e-001	 1.287282913126211e+001
 1.883696227766776e+000	 2.951052953134651e-001	 1.289859388567455e+001
 1.880650827556055e+000	 3.139284409868237e-001	 1.292233097279517e+001
 1.877406641097374e+000	 3.327805119868296e-001	 1.294187978327829e+001
 1.873962300909120e+000	 3.516586426106381e-001	 1.295516055341235e+001
 1.870316489147490e+000	 3.705599220096755e-001	 1.296018570301060e+001
 1.924421543746556e+000	 1.854869987357526e-001	 1.270545204404118e+001
 1.922511207924948e+000	 2.043390835090027e-001	 1.270505628124729e+001
 1.920408594393359e+000	 2.232369264508839e-001	 1.271464567281406e+001
 1.918112047511930e+000	 2.421779128815985e-001	 1.273174363732934e+001
 1.915619952523162e+000	 2.611593779176943e-001	 1.275390193896146e+001
 1.912930737139797e+000	 2.801786070749439e-001	 1.277871217442782e+001
 1.910042873130104e+000	 2.992328369245657e-001	 1.280381756374576e+001
 1.906954877898667e+000	 3.183192558032973e-001	 1.282692498177533e+001
 1.903665316060748e+000	 3.374350045777525e-001	 1.284581716276360e+001
 1.900172801008211e+000	 3.565771774634312e-001	 1.285836500553305e+001
 1.896475996465010e+000	 3.757428228986662e-001	 1.286253990266822e+001
 1.950966524833943e+000	 1.880455591974182e-001	 1.262855556551379e+001
 1.949029838326206e+000	 2.071576848311984e-001	 1.262520478335929e+001
 1.946898221878620e+000	 2.263161998101231e-001	 1.263235828160479e+001
 1.944569997013850e+000	 2.455184533881637e-001	 1.264745354639629e+001
 1.942043526700847e+000	 2.647617439231412e-001	 1.266795910572584e+001
 1.939317216964629e+000	 2.840433194879206e-001	 1.269138699866676e+001
 1.936389518493424e+000	 3.033603785356841e-001	 1.271530557831410e+001
 1.933258928241277e+000	 3.227100706197985e-001	 1.273735258006271e+001
 1.929923991024120e+000	 3.420894971687166e-001	 1.275524838162882e+001
 1.926383301107304e+000	 3.614957123162832e-001	 1.276680937624184e+001
 1.922635503782531e+000	 3.809257237877376e-001	 1.276996137575323e+001
 1.977511505921061e+000	 1.906041196591351e-001	 1.256209052740436e+001
 1.975548468727234e+000	 2.099762861534317e-001	 1.255468275554075e+001
 1.973387849363684e+000	 2.293954731693894e-001	 1.255844774562647e+001
 1.971027946515604e+000	 2.488589938947491e-001	 1.257072872065172e+001
 1.968467100878397e+000	 2.683641099286054e-001	 1.258890274707753e+001
 1.965703696789349e+000	 2.879080319009157e-001	 1.261039426524923e+001
 1.962736163856657e+000	 3.074879201468265e-001	 1.263268898605569e+001
 1.959562978583822e+000	 3.271008854363341e-001	 1.265334807972256e+001
 1.956182665987450e+000	 3.467439897597304e-001	 1.267002257693363e+001
 1.952593801206374e+000	 3.664142471692058e-001	 1.268046789705903e+001
 1.948795011100049e+000	 3.861086246769064e-001	 1.268255841316795e+001
 2.004056487007765e+000	 1.931626801209543e-001	 1.250525818463674e+001
 2.002067099127891e+000	 2.127948874757400e-001	 1.249288364195472e+001
 1.999877476848420e+000	 2.324747465287094e-001	 1.249237471955856e+001
 1.997485896017071e+000	 2.521995344013732e-001	 1.250106595709808e+001
 1.994890675055700e+000	 2.719664759340992e-001	 1.251628205886592e+001
 1.992090176613864e+000	 2.917727443139377e-001	 1.253535056050521e+001
 1.989082809219724e+000	 3.116154617579996e-001	 1.255566546564863e+001
 1.985867028926242e+000	 3.314917002529110e-001	 1.257470264408564e+001
 1.982441340950695e+000	 3.513984823508029e-001	 1.259003546486914e+001
 1.978804301305400e+000	 3.713327820222112e-001	 1.259935057203376e+001
 1.974954518417563e+000	 3.912915255661883e-001	 1.260046370505242e+001
 2.030601468093916e+000	 1.957212405829273e-001	 1.244525167471909e+001
 2.028585729528039e+000	 2.156134887981609e-001	 1.243074105168392e+001
 2.026367104332694e+000	 2.355540198881095e-001	 1.242830408498122e+001
 2.023943845518130e+000	 2.555400749080538e-001	 1.243514159935681e+001
 2.021314249232647e+000	 2.755688419396347e-001	 1.244851773087533e+001
 2.018476656438079e+000	 2.956374567269953e-001	 1.246577168684417e+001
 2.015429454582549e+000	 3.157430033692104e-001	 1.248432958284949e+001
 2.012171079268478e+000	 3.358825150695361e-001	 1.250171638714559e+001
 2.008700015913814e+000	 3.560529749419423e-001	 1.251556800488507e+001
 2.005014801404359e+000	 3.762513168753105e-001	 1.252364353652183e+001
 2.001114025735070e+000	 3.964744264555998e-001	 1.252383774611281e+001
 2.057146449179369e+000	 1.982798010451051e-001	 1.237677108930621e+001
 2.055104359927541e+000	 2.184320901207318e-001	 1.236342178330906e+001
 2.052856731816378e+000	 2.386332932476165e-001	 1.236211232604208e+001
 2.050401795018658e+000	 2.588806154148092e-001	 1.236995562778389e+001
 2.047737823409130e+000	 2.791712079452241e-001	 1.238414362405860e+001
 2.044863136261900e+000	 2.995021691400968e-001	 1.240195882105229e+001
 2.041776099945052e+000	 3.198705449804656e-001	 1.242078588463540e+001
 2.038475129610468e+000	 3.402733298862165e-001	 1.243812330895747e+001
 2.034958690876766e+000	 3.607074675331576e-001	 1.245159520321354e+001
 2.031225301503230e+000	 3.811698517285159e-001	 1.245896323737524e+001
 2.027273533052570e+000	 4.016573273451569e-001	 1.245813878937388e+001
 1.765678459877450e+000	 3.498283184541985e-001	 1.340046339131669e+001
 1.762044664318403e+000	 3.676938779329496e-001	 1.340349083891943e+001
 1.758218270537386e+000	 3.855756710127969e-001	 1.341269716826093e+001
 1.754198184645169e+000	 4.034708216724215e-001	 1.342652375200113e+001
 1.749983365329663e+000	 4.213764149277031e-001	 1.344351452639326e+001
 1.745572825227723e+000	 4.392894979044454e-001	 1.346232332618805e+001
 1.740965632275259e+000	 4.572070809624127e-001	 1.348172086623706e+001
 1.736160911033618e+000	 4.751261388703825e-001	 1.350060130818105e+001
 1.731157843990140e+000	 4.930436120318356e-001	 1.351798835049582e+001
 1.725955672830830e+000	 5.109564077608136e-001	 1.353304078049241e+001
 1.720553699683057e+000	 5.288614016073797e-001	 1.354505742765793e+001
 1.791837967194950e+000	 3.550112193430273e-001	 1.328293273995702e+001
 1.788150334935661e+000	 3.731414670106319e-001	 1.328725280251054e+001
 1.784267251004713e+000	 3.912881887890966e-001	 1.329780148529227e+001
 1.780187605306307e+000	 4.094484660472604e-001	 1.331298769899771e+001
 1.775910341100748e+000	 4.276193406139058e-001	 1.333133222334633e+001
 1.771434456396564e+000	 4.457978158663766e-001	 1.335147573931974e+001
 1.766759005320630e+000	 4.639808578712684e-001	 1.337218647873496e+001
 1.761883099464191e+000	 4.821653965768894e-001	 1.339236742360553e+001
 1.756805909202691e+000	 5.003483270571109e-001	 1.341106298758275e+001
 1.751526664987303e+000	 5.185265108061258e-001	 1.342746511208864e+001
 1.746044658606035e+000	 5.366967770835491e-001	 1.344091871057689e+001
 1.817997474512457e+000	 3.601941202318723e-001	 1.317040246953840e+001
 1.814256005552847e+000	 3.785890560883355e-001	 1.317522774232228e+001
 1.810316231471889e+000	 3.970007065654229e-001	 1.318639508810336e+001
 1.806177025967220e+000	 4.154261104221302e-001	 1.320228425733691e+001
 1.801837316871536e+000	 4.338622663001412e-001	 1.322139642990127e+001
 1.797296087565045e+000	 4.523061338283390e-001	 1.324236298937309e+001
 1.792552378365584e+000	 4.707546347801496e-001	 1.326395388383530e+001
 1.787605287894299e+000	 4.892046542834107e-001	 1.328508549932094e+001
 1.782453974414742e+000	 5.076530420823824e-001	 1.330482797178432e+001
 1.777097657143252e+000	 5.260966138514088e-001	 1.332241186380003e+001
 1.771535617528480e+000	 5.445321525596547e-001	 1.333723413305137e+001
 1.844156981829971e+000	 3.653770211207496e-001	 1.306282053917372e+001
 1.840361676169979e+000	 3.840366451660823e-001	 1.306755042112754e+001
 1.836365211938953e+000	 4.027132243418037e-001	 1.307878670500943e+001
 1.832166446627964e+000	 4.214037547970656e-001	 1.309488198445476e+001
 1.827764292642103e+000	 4.401051919864520e-001	 1.311432012649587e+001
 1.823157718733256e+000	 4.588144517903843e-001	 1.313572583782482e+001
 1.818345751410225e+000	 4.775284116891163e-001	 1.315787378531440e+001
 1.813327476324059e+000	 4.962439119900156e-001	 1.317969719010783e+001
 1.808102039626417e+000	 5.149577571077297e-001	 1.320029581431755e+001
 1.802668649298809e+000	 5.336667168967519e-001	 1.321894325967107e+001
 1.797026576450526e+000	 5.523675280357959e-001	 1.323509349833664e+001
 1.870316489147490e+000	 3.705599220096755e-001	 1.296018570301060e+001
 1.866467346787076e+000	 3.894842342438936e-001	 1.296439165725280e+001
 1.862414192405942e+000	 4.084257421182668e-001	 1.297530687553701e+001
 1.858155867288595e+000	 4.273813991721014e-001	 1.299125748650248e+001
 1.853691268412522e+000	 4.463481176728810e-001	 1.301071104911997e+001
 1.849019349901286e+000	 4.653227697525628e-001	 1.303228696630919e+001
 1.844139124454657e+000	 4.843021885982289e-001	 1.305476641903265e+001
 1.839049664753587e+000	 5.032831696967739e-001	 1.307710173291289e+001
 1.833750104837843e+000	 5.222624721332319e-001	 1.309842508908391e+001
 1.828239641454104e+000	 5.412368199422443e-001	 1.311805649127095e+001
 1.822517535372305e+000	 5.602029035120719e-001	 1.313551090201916e+001
 1.896475996465010e+000	 3.757428228986662e-001	 1.286253990266822e+001
 1.892573017404154e+000	 3.949318233217910e-001	 1.286595162291282e+001
 1.888463172872894e+000	 4.141382598948402e-001	 1.287630210089329e+001
 1.884145287949170e+000	 4.333590435472731e-001	 1.289189036428098e+001
 1.879618244182866e+000	 4.525910433594707e-001	 1.291116737118090e+001
 1.874880981069227e+000	 4.718310877149263e-001	 1.293274733206279e+001
 1.869932497498986e+000	 4.910759655075478e-001	 1.295541851684335e+001
 1.864771853182998e+000	 5.103224274037551e-001	 1.297815345140281e+001
 1.859398170049142e+000	 5.295671871589681e-001	 1.300011840741080e+001
 1.853810633609267e+000	 5.488069229879747e-001	 1.302068208959843e+001
 1.848008494293951e+000	 5.680382789885818e-001	 1.303942342557234e+001
 1.922635503782531e+000	 3.809257237877376e-001	 1.276996137575323e+001
 1.918678688021233e+000	 4.003794123997962e-001	 1.277245378863955e+001
 1.914512153339845e+000	 4.198507776715516e-001	 1.278212957424576e+001
 1.910134708609745e+000	 4.393366879226153e-001	 1.279725867655885e+001
 1.905545219953211e+000	 4.588339690462645e-001	 1.281627384433726e+001
 1.900742612237167e+000	 4.783394056775260e-001	 1.283778292808690e+001
 1.895725870543315e+000	 4.978497424171325e-001	 1.286058062528274e+001
 1.890494041612410e+000	 5.173616851110288e-001	 1.288365956982620e+001
 1.885046235260442e+000	 5.368719021850177e-001	 1.290622066123785e+001
 1.879381625764431e+000	 5.563770260340328e-001	 1.292768252932261e+001
 1.873499453215596e+000	 5.758736544654248e-001	 1.294769003103481e+001
 1.948795011100049e+000	 3.861086246769064e-001	 1.268255841316795e+001
 1.944784358638330e+000	 4.058270014779307e-001	 1.268413945309329e+001
 1.940561133806835e+000	 4.255632954484291e-001	 1.269315243632808e+001
 1.936124129270376e+000	 4.453143322981630e-001	 1.270783487215603e+001
 1.931472195723630e+000	 4.650768947333048e-001	 1.272659835517212e+001
 1.926604243405198e+000	 4.848477236404131e-001	 1.274804190999498e+001
 1.921519243587748e+000	 5.046235193270440e-001	 1.277096474570134e+001
 1.916216230041939e+000	 5.244009428186647e-001	 1.279437830711680e+001
 1.910694300471868e+000	 5.441766172114603e-001	 1.281751750952079e+001
 1.904952617919726e+000	 5.639471290805075e-001	 1.283985104352508e+001
 1.898990412137376e+000	 5.837090299427000e-001	 1.286109063790913e+001
 1.974954518417563e+000	 3.912915255661883e-001	 1.260046370505242e+001
 1.970890029255462e+000	 4.112745905562160e-001	 1.260126280397788e+001
 1.966610114273898e+000	 4.312758132255003e-001	 1.260973550766336e+001
 1.962113549931120e+000	 4.512919766739514e-001	 1.262408214732762e+001
 1.957399171494197e+000	 4.713198204206343e-001	 1.264268885914666e+001
 1.952465874573409e+000	 4.913560416036388e-001	 1.266414205554546e+001
 1.947312616632389e+000	 5.113972962373419e-001	 1.268724226603064e+001
 1.941938418471698e+000	 5.314402005267319e-001	 1.271101722525149e+001
 1.936342365683544e+000	 5.514813322383744e-001	 1.273473408529944e+001
 1.930523610075283e+000	 5.715172321274878e-001	 1.275791062942283e+001
 1.924481371059422e+000	 5.915444054205067e-001	 1.278032536538285e+001
 2.001114025735070e+000	 3.964744264555998e-001	 1.252383774611281e+001
 1.996995699872648e+000	 4.167221796346737e-001	 1.252408646145863e+001
 1.992659094741075e+000	 4.369883310027933e-001	 1.253224145378725e+001
 1.988102970592032e+000	 4.572696210500152e-001	 1.254645118952718e+001
 1.983326147264985e+000	 4.775627461082961e-001	 1.256507065730910e+001
 1.978327505741890e+000	 4.978643595672543e-001	 1.258666852641295e+001
 1.973105989677343e+000	 5.181710731480865e-001	 1.261004215749552e+001
 1.967660606901807e+000	 5.384794582353005e-001	 1.263423180859401e+001
 1.961990430895594e+000	 5.587860472658397e-001	 1.265853390323445e+001
 1.956094602231232e+000	 5.790873351750629e-001	 1.268251322759353e+001
 1.949972329981867e+000	 5.993797808989435e-001	 1.270601392474058e+001
 2.027273533052570e+000	 4.016573273451569e-001	 1.245813878937388e+001
 2.023101370489906e+000	 4.221697687133256e-001	 1.245713087853391e+001
 2.018708075208402e+000	 4.427008487803357e-001	 1.246404526859265e+001
 2.014092391253171e+000	 4.632472654263895e-001	 1.247718859478634e+001
 2.009253123036069e+000	 4.838056717963328e-001	 1.249505548033041e+001
 2.004189136910731e+000	 5.043726775313110e-001	 1.251634228364627e+001
 1.998899362722714e+000	 5.249448500593382e-001	 1.253994941233880e+001
 1.993382795332379e+000	 5.455187159444398e-001	 1.256462425335899e+001
 1.987638496108145e+000	 5.660907622939356e-001	 1.258951794950283e+001
 1.981665594387705e+000	 5.866574382233224e-001	 1.261423905902816e+001
 1.975463288904845e+000	 6.072151563781103e-001	 1.263869514839851e+001
 1.720553699683057e+000	 5.288614016073797e-001	 1.354505742765793e+001
 1.714951287895950e+000	 5.467554384699808e-001	 1.355482946450888e+001
 1.709147861924183e+000	 5.646353332059860e-001	 1.356332165804374e+001
 1.703142909757176e+000	 5.824978728425351e-001	 1.357029897565638e+001
 1.696935984454057e+000	 6.003398183486900e-001	 1.357565807945404e+001
 1.690526705208835e+000	 6.181579061975373e-001	 1.357942778282333e+001
 1.683914758373382e+000	 6.359488499726911e-001	 1.358176861056034e+001
 1.677099898436262e+000	 6.537093420179821e-001	 1.358297142313033e+001
 1.670081948955454e+000	 6.714360551290194e-001	 1.358350424858559e+001
 1.662860803443095e+000	 6.891256442852184e-001	 1.358466920503607e+001
 1.655436426200365e+000	 7.067747484208016e-001	 1.358681953607233e+001
 1.746044658606035e+000	 5.366967770835491e-001	 1.344091871057689e+001
 1.740359243975685e+000	 5.548559240432534e-001	 1.345193309685037e+001
 1.734469837023907e+000	 5.730007193529454e-001	 1.346120383026037e+001
 1.728375918154393e+000	 5.911279024377772e-001	 1.346858089833101e+001
 1.722077033804590e+000	 6.092341862787581e-001	 1.347405946003453e+001
 1.715572797526653e+000	 6.273162589980009e-001	 1.347778041989714e+001
 1.708862891025579e+000	 6.453707854890249e-001	 1.348003002110381e+001
 1.701947065152540e+000	 6.633944090908884e-001	 1.348123841380863e+001
 1.694825140851425e+000	 6.813837533048076e-001	 1.348244620866041e+001
 1.687497010056690e+000	 6.993354235518501e-001	 1.348485542146165e+001
 1.679962636540613e+000	 7.172460089701713e-001	 1.348855413809306e+001
 1.771535617528480e+000	 5.445321525596547e-001	 1.333723413305137e+001
 1.765767200054896e+000	 5.629564096164186e-001	 1.334951357416679e+001
 1.759791812123126e+000	 5.813661054997464e-001	 1.335965630836523e+001
 1.753608926551138e+000	 5.997579320328049e-001	 1.336758668715915e+001
 1.747218083154697e+000	 6.181285542085545e-001	 1.337338821402077e+001
 1.740618889844100e+000	 6.364746117981359e-001	 1.337730427791580e+001
 1.733811023677468e+000	 6.547927210049779e-001	 1.337973781647658e+001
 1.726794231868579e+000	 6.730794761633666e-001	 1.338135536047905e+001
 1.719568332747231e+000	 6.913314514801310e-001	 1.338389756582423e+001
 1.712133216670199e+000	 7.095452028179921e-001	 1.338786478473142e+001
 1.704488846880856e+000	 7.277172695190416e-001	 1.339345061588202e+001
 1.797026576450526e+000	 5.523675280357959e-001	 1.323509349833664e+001
 1.791175156133712e+000	 5.710568951895859e-001	 1.324866626036038e+001
 1.785113787221967e+000	 5.897314916465082e-001	 1.325975869821159e+001
 1.778841934947530e+000	 6.083879616277473e-001	 1.326835886355273e+001
 1.772359132504484e+000	 6.270229221382164e-001	 1.327462852421497e+001
 1.765664982161268e+000	 6.456329645980879e-001	 1.327890410199966e+001
 1.758759156329126e+000	 6.642146565207018e-001	 1.328169644563733e+001
 1.751641398584439e+000	 6.827645432355753e-001	 1.328437885811195e+001
 1.744311524642915e+000	 7.012791496551516e-001	 1.328848138086134e+001
 1.736769423283643e+000	 7.197549820838096e-001	 1.329422561271935e+001
 1.729015057221095e+000	 7.381885300675790e-001	 1.330193171125586e+001
 1.822517535372305e+000	 5.602029035120719e-001	 1.313551090201916e+001
 1.816583112212264e+000	 5.791573807628641e-001	 1.315040049572643e+001
 1.810435762320553e+000	 5.980968777933491e-001	 1.316249453779340e+001
 1.804074943343685e+000	 6.170179912227317e-001	 1.317183406674117e+001
 1.797500181854058e+000	 6.359172900678811e-001	 1.317864906718778e+001
 1.790711074478250e+000	 6.547913173980022e-001	 1.318335965986316e+001
 1.783707288980629e+000	 6.736365920363487e-001	 1.318672786812982e+001
 1.776488565300180e+000	 6.924496103076727e-001	 1.319095428036396e+001
 1.769054716538517e+000	 7.112268478300332e-001	 1.319673042363369e+001
 1.761405629897045e+000	 7.299647613494685e-001	 1.320437527053037e+001
 1.753541267561331e+000	 7.486597906159502e-001	 1.321432924046447e+001
 1.848008494293951e+000	 5.680382789885818e-001	 1.303942342557234e+001
 1.841991068290684e+000	 5.872578663363626e-001	 1.305563853826103e+001
 1.835757737419014e+000	 6.064622639403886e-001	 1.306875041610245e+001
 1.829307951739722e+000	 6.256480208178875e-001	 1.307884228075795e+001
 1.822641231203525e+000	 6.448116579976857e-001	 1.308620227987165e+001
 1.815757166795140e+000	 6.639496701980235e-001	 1.309132498050699e+001
 1.808655421632055e+000	 6.830585275520714e-001	 1.309580016966215e+001
 1.801335732015862e+000	 7.021346773798167e-001	 1.310161088509048e+001
 1.793797908434078e+000	 7.211745460049378e-001	 1.310908795689253e+001
 1.786041836510427e+000	 7.401745406151347e-001	 1.311866099989105e+001
 1.778067477901566e+000	 7.591310511643219e-001	 1.313088492952641e+001
 1.873499453215596e+000	 5.758736544654248e-001	 1.294769003103481e+001
 1.867399024369105e+000	 5.953583519101902e-001	 1.296521467958384e+001
 1.861079712517474e+000	 6.148276500877451e-001	 1.297931524444456e+001
 1.854540960135761e+000	 6.342780504133426e-001	 1.299010619596979e+001
 1.847782280552992e+000	 6.537060259277667e-001	 1.299792374690260e+001
 1.840803259112029e+000	 6.731080229982975e-001	 1.300348537434078e+001
 1.833603554283482e+000	 6.924804630680213e-001	 1.300945119200796e+001
 1.826182898731544e+000	 7.118197444521655e-001	 1.301679051323362e+001
 1.818541100329639e+000	 7.311222441800274e-001	 1.302590862452959e+001
 1.810678043123807e+000	 7.503843198809727e-001	 1.303734085790611e+001
 1.802593688241801e+000	 7.696023117128608e-001	 1.305175136719160e+001
 1.898990412137376e+000	 5.837090299427000e-001	 1.286109063790913e+001
 1.892806980447657e+000	 6.034588374844561e-001	 1.287987451906497e+001
 1.886401687616062e+000	 6.231930362355383e-001	 1.289487966588594e+001
 1.879773968531916e+000	 6.429080800092252e-001	 1.290624069250214e+001
 1.872923329902566e+000	 6.626003938582620e-001	 1.291433169735976e+001
 1.865849351429012e+000	 6.822663757989691e-001	 1.292075675256364e+001
 1.858551686934985e+000	 7.019023985843514e-001	 1.292811529240627e+001
 1.851030065447285e+000	 7.215048115248769e-001	 1.293684848217849e+001
 1.843284292225242e+000	 7.410699423554661e-001	 1.294745943445469e+001
 1.835314249737209e+000	 7.605940991471488e-001	 1.296058475490613e+001
 1.827119898582037e+000	 7.800735722617330e-001	 1.297699306447987e+001
 1.924481371059422e+000	 5.915444054205067e-001	 1.278032536538285e+001
 1.918214936526472e+000	 6.115593230592692e-001	 1.280027438148366e+001
 1.911723662714902e+000	 6.315584223838865e-001	 1.281603559001836e+001
 1.905006976928308e+000	 6.515381096056636e-001	 1.282775243425516e+001
 1.898064379252353e+000	 6.714947617893090e-001	 1.283593227573292e+001
 1.890895443746181e+000	 6.914247286001838e-001	 1.284358853851104e+001
 1.883499819586643e+000	 7.113243341012138e-001	 1.285214289392972e+001
 1.875877232163145e+000	 7.311898785981096e-001	 1.286205456377053e+001
 1.868027484120925e+000	 7.510176405314150e-001	 1.287392082732782e+001
 1.859950456350654e+000	 7.708038784138285e-001	 1.288847558220024e+001
 1.851646108922276e+000	 7.905448328111059e-001	 1.290658761091539e+001
 1.949972329981867e+000	 5.993797808989435e-001	 1.270601392474058e+001
 1.943622892605683e+000	 6.196598086347391e-001	 1.272698086508217e+001
 1.937045637814120e+000	 6.399238085329084e-001	 1.274327584157242e+001
 1.930239985325053e+000	 6.601681392027861e-001	 1.275503956338696e+001
 1.923205428602461e+000	 6.803891297210442e-001	 1.276360787701258e+001
 1.915941536063627e+000	 7.005830814020861e-001	 1.277232173466752e+001
 1.908447952238531e+000	 7.207462696187605e-001	 1.278180141849637e+001
 1.900724398879184e+000	 7.408749456720213e-001	 1.279259403924774e+001
 1.892770676016732e+000	 7.609653387080378e-001	 1.280538782329085e+001
 1.884586662964163e+000	 7.810136576811767e-001	 1.282101042150793e+001
 1.876172319262519e+000	 8.010160933611453e-001	 1.284042691861004e+001
 1.975463288904845e+000	 6.072151563781103e-001	 1.263869514839851e+001
 1.969030848685419e+000	 6.277602942109749e-001	 1.266047050823372e+001
 1.962367612913845e+000	 6.482891946827240e-001	 1.267699391259290e+001
 1.955472993722270e+000	 6.687981688007213e-001	 1.268841516277814e+001
 1.948346477952993e+000	 6.892834976536050e-001	 1.269775922768937e+001
 1.940987628381445e+000	 7.097414342048217e-001	 1.270721726458008e+001
 1.933396084890728e+000	 7.301682051371444e-001	 1.271727629131894e+001
 1.925571565595462e+000	 7.505600127467703e-001	 1.272856882414220e+001
 1.917513867912702e+000	 7.709130368854965e-001	 1.274187123965444e+001
 1.909222869577758e+000	 7.912234369493599e-001	 1.275810182869429e+001
 1.900698529602766e+000	 8.114873539120181e-001	 1.277831854626187e+001
 1.655436426200365e+000	 7.067747484208016e-001	 1.358681953607233e+001
 1.647810012626662e+000	 7.243773551837668e-001	 1.358809261686469e+001
 1.639980573555821e+000	 7.419327295049750e-001	 1.358651729655744e+001
 1.631948291327146e+000	 7.594374756351380e-001	 1.358198855728927e+001
 1.623713421824428e+000	 7.768881892624319e-001	 1.357448450115126e+001
 1.615276295033542e+000	 7.942814594508109e-001	 1.356406573134820e+001
 1.606637315540310e+000	 8.116138706063586e-001	 1.355087455329460e+001
 1.597796962967233e+000	 8.288820044695902e-001	 1.353513399747070e+001
 1.588755792347744e+000	 8.460824421315375e-001	 1.351714666624971e+001
 1.579514434436757e+000	 8.632117660713861e-001	 1.349729340728587e+001
 1.570073595956371e+000	 8.802665622133532e-001	 1.347603181642691e+001
 1.679962636540613e+000	 7.172460089701713e-001	 1.348855413809306e+001
 1.672223233413097e+000	 7.351094081314266e-001	 1.349150160728732e+001
 1.664277796852925e+000	 7.529248750760244e-001	 1.349148994780777e+001
 1.656126511900855e+000	 7.706889637447699e-001	 1.348847181380760e+001
 1.647769638231734e+000	 7.883982193890754e-001	 1.348248517232249e+001
 1.639207510720357e+000	 8.060491805379906e-001	 1.347365252502896e+001
 1.630440539946704e+000	 8.236383809936843e-001	 1.346217994600065e+001
 1.621469212639147e+000	 8.411623518532655e-001	 1.344835593767765e+001
 1.612294092054240e+000	 8.586176235547385e-001	 1.343255010764474e+001
 1.602915818291883e+000	 8.760007279448256e-001	 1.341521166918975e+001
 1.593335108544644e+000	 8.933082003663226e-001	 1.339686776897846e+001
 1.704488846880856e+000	 7.277172695190416e-001	 1.339345061588202e+001
 1.696636454199607e+000	 7.458414610785946e-001	 1.339840977119449e+001
 1.688575020150184e+000	 7.639170206466033e-001	 1.340027378624396e+001
 1.680304732474796e+000	 7.819404518539632e-001	 1.339904906482573e+001
 1.671825854639347e+000	 7.999082495153213e-001	 1.339482965974566e+001
 1.663138726407550e+000	 8.178169016248166e-001	 1.338779634280435e+001
 1.654243764353546e+000	 8.356628913807013e-001	 1.337821548702093e+001
 1.645141462311571e+000	 8.534426992366735e-001	 1.336643776368283e+001
 1.635832391761306e+000	 8.711528049777059e-001	 1.335289665718196e+001
 1.626317202147628e+000	 8.887896898180558e-001	 1.333810680096434e+001
 1.616596621133582e+000	 9.063498385190917e-001	 1.332266213827805e+001
 1.729015057221095e+000	 7.381885300675790e-001	 1.330193171125586e+001
 1.721049674986173e+000	 7.565735140254359e-001	 1.330913148011414e+001
 1.712872243447557e+000	 7.749091662168746e-001	 1.331307993415778e+001
 1.704482953048910e+000	 7.931919399628793e-001	 1.331383375160172e+001
 1.695882071047190e+000	 8.114182796413252e-001	 1.331153973151748e+001
 1.687069942095028e+000	 8.295846227114402e-001	 1.330643371926237e+001
 1.678046988760721e+000	 8.476874017675545e-001	 1.329883934059685e+001
 1.668813711984378e+000	 8.657230466199545e-001	 1.328916654742929e+001
 1.659370691468799e+000	 8.836879864005771e-001	 1.327790997849187e+001
 1.649718586003838e+000	 9.015786516912098e-001	 1.326564713860726e+001
 1.639858133723017e+000	 9.193914766717938e-001	 1.325303640055272e+001
 1.753541267561331e+000	 7.486597906159502e-001	 1.321432924046447e+001
 1.745462895772776e+000	 7.673055669721173e-001	 1.322389045333699e+001
 1.737169466745007e+000	 7.859013117870025e-001	 1.323002894274065e+001
 1.728661173623140e+000	 8.044434280716768e-001	 1.323284861306359e+001
 1.719938287455186e+000	 8.229283097672420e-001	 1.323254608950178e+001
 1.711001157782695e+000	 8.413523437980105e-001	 1.322940950577642e+001
 1.701850213168122e+000	 8.597119121543899e-001	 1.322381709722448e+001
 1.692485961657440e+000	 8.780033940032495e-001	 1.321623560253688e+001
 1.682908991176575e+000	 8.962231678234885e-001	 1.320721847776961e+001
 1.673119969860359e+000	 9.143676135644235e-001	 1.319740392659643e+001
 1.663119646312785e+000	 9.324331148245619e-001	 1.318751275110308e+001
 1.778067477901566e+000	 7.591310511643219e-001	 1.313088492952641e+001
 1.769876116559397e+000	 7.780376199188031e-001	 1.314282058982641e+001
 1.761466690042496e+000	 7.968934573571500e-001	 1.315115164111641e+001
 1.752839394197428e+000	 8.156949161805156e-001	 1.315602657356465e+001
 1.743994503863259e+000	 8.344383398932268e-001	 1.315768931844076e+001
 1.734932373470456e+000	 8.531200648846792e-001	 1.315647790462023e+001
 1.725653437575634e+000	 8.717364225413528e-001	 1.315282291741673e+001
 1.716158211330630e+000	 8.902837413866996e-001	 1.314724576333125e+001
 1.706447290884493e+000	 9.087583492465784e-001	 1.314035674464490e+001
 1.696521353717034e+000	 9.271565754378304e-001	 1.313285294810751e+001
 1.686381158902719e+000	 9.454747529775295e-001	 1.312551595228823e+001
 1.802593688241801e+000	 7.696023117128608e-001	 1.305175136719160e+001
 1.794289337346019e+000	 7.887696728656601e-001	 1.306596692686186e+001
 1.785763913339985e+000	 8.078856029274806e-001	 1.307639011960077e+001
 1.777017614771716e+000	 8.269464042895565e-001	 1.308321177064310e+001
 1.768050720271332e+000	 8.459483700194359e-001	 1.308672097902872e+001
 1.758863589158218e+000	 8.648877859715959e-001	 1.308730364908408e+001
 1.749456661983145e+000	 8.837609329285885e-001	 1.308544082148553e+001
 1.739830461003819e+000	 9.025640887704454e-001	 1.308170680779213e+001
 1.729985590592412e+000	 9.212935306699824e-001	 1.307676713265377e+001
 1.719922737573709e+000	 9.399455373115648e-001	 1.307137628820486e+001
 1.709642671492654e+000	 9.585163911308307e-001	 1.306637530544762e+001
 1.827119898582037e+000	 7.800735722617330e-001	 1.297699306447987e+001
 1.818702558132622e+000	 7.995017258128541e-001	 1.299328671350869e+001
 1.810061136637434e+000	 8.188777484981575e-001	 1.300559883457733e+001
 1.801195835345945e+000	 8.381978923989577e-001	 1.301416070963174e+001
 1.792106936679328e+000	 8.574584001460236e-001	 1.301930483142304e+001
 1.782794804845885e+000	 8.766555070589113e-001	 1.302146331587531e+001
 1.773259886390545e+000	 8.957854433162426e-001	 1.302116611162487e+001
 1.763502710676882e+000	 9.148444361546280e-001	 1.301903901089917e+001
 1.753523890300187e+000	 9.338287120938384e-001	 1.301580146619681e+001
 1.743324121430230e+000	 9.527344991857624e-001	 1.301226421751213e+001
 1.732904184082422e+000	 9.715580292845978e-001	 1.300932673511620e+001
 1.851646108922276e+000	 7.905448328111059e-001	 1.290658761091539e+001
 1.843115778919188e+000	 8.102337787605508e-001	 1.292465058827003e+001
 1.834358359934808e+000	 8.298698940693451e-001	 1.293854582371494e+001
 1.825374055920060e+000	 8.494493805088802e-001	 1.294854353335922e+001
 1.816163153087172e+000	 8.689684302731456e-001	 1.295501817710041e+001
 1.806726020533363e+000	 8.884232281467754e-001	 1.295844675753956e+001
 1.797063110797721e+000	 9.078099537044606e-001	 1.295940691402988e+001
 1.787174960349689e+000	 9.271247835393879e-001	 1.295857481628722e+001
 1.777062190007680e+000	 9.463638935182838e-001	 1.295672286225808e+001
 1.766725505286440e+000	 9.655234610605563e-001	 1.295471718519420e+001
 1.756165696671858e+000	 9.845996674389648e-001	 1.295351497512356e+001
 1.876172319262519e+000	 8.010160933611453e-001	 1.284042691861003e+001
 1.867528999705698e+000	 8.209658317089156e-001	 1.285984385138814e+001
 1.858655583232066e+000	 8.408620396412051e-001	 1.287491402143126e+001
 1.849552276494000e+000	 8.607008686194831e-001	 1.288594539641159e+001
 1.840219369494784e+000	 8.804784604009575e-001	 1.289335330822988e+001
 1.830657236220556e+000	 9.001909492353390e-001	 1.289765864392187e+001
 1.820866335204563e+000	 9.198344640933875e-001	 1.289948583006948e+001
 1.810847210022113e+000	 9.394051309248664e-001	 1.289956061538650e+001
 1.800600489714745e+000	 9.588990749434547e-001	 1.289870765638499e+001
 1.790126889142184e+000	 9.783124229360810e-001	 1.289784791124965e+001
 1.779427209260795e+000	 9.976413055940653e-001	 1.289799584725528e+001
 1.900698529602766e+000	 8.114873539120181e-001	 1.277831854626187e+001
 1.891942220492132e+000	 8.316978846581148e-001	 1.279856782324785e+001
 1.882952806529170e+000	 8.518541852139021e-001	 1.281430266554935e+001
 1.873730497067709e+000	 8.719523567309262e-001	 1.282586793451184e+001
 1.864275585902089e+000	 8.919884905296139e-001	 1.283371905485359e+001
 1.854588451907370e+000	 9.119586703247523e-001	 1.283842010282012e+001
 1.844669559610956e+000	 9.318589744831690e-001	 1.284064168666392e+001
 1.834519459694026e+000	 9.516854783112039e-001	 1.284115862434070e+001
 1.824138789421242e+000	 9.714342563694888e-001	 1.284084742351390e+001
 1.813528272997309e+000	 9.911013848124718e-001	 1.284068356914506e+001
 1.802688721849068e+000	 1.010682943750032e+000	 1.284172905315402e+001
 1.570073595956371e+000	 8.802665622133532e-001	 1.347603181642691e+001
 1.560432599048893e+000	 8.972459629298201e-001	 1.345204550945498e+001
 1.550593705615053e+000	 9.141440024143019e-001	 1.342379640712865e+001
 1.540557852787052e+000	 9.309572889204422e-001	 1.339150573728292e+001
 1.530326054011600e+000	 9.476824425612989e-001	 1.335545957461382e+001
 1.519899398955622e+000	 9.643160974265818e-001	 1.331600745109031e+001
 1.509279053342250e+000	 9.808549037040831e-001	 1.327356083928592e+001
 1.498466258716638e+000	 9.972955298026260e-001	 1.322859151223953e+001
 1.487462332141325e+000	 1.013634664473865e+000	 1.318162306273402e+001
 1.476268665820915e+000	 1.029869018930230e+000	 1.313325692272223e+001
 1.464886726656035e+000	 1.045995328956277e+000	 1.308412689910237e+001
 1.593335108544644e+000	 8.933082003663226e-001	 1.339686776897846e+001
 1.583551274911993e+000	 9.105391603372328e-001	 1.337616626822676e+001
 1.573566612805977e+000	 9.276875536643393e-001	 1.335146496341536e+001
 1.563382073242935e+000	 9.447499383506840e-001	 1.332295319025621e+001
 1.552998684684357e+000	 9.617228844344273e-001	 1.329088368790561e+001
 1.542417552941194e+000	 9.786029761374548e-001	 1.325557121829465e+001
 1.531639861007416e+000	 9.953868140182343e-001	 1.321739106344422e+001
 1.520666868822365e+000	 1.012071017126220e+000	 1.317677036339455e+001
 1.509499912961594e+000	 1.028652225155088e+000	 1.313421563327776e+001
 1.498140406255998e+000	 1.045127100592058e+000	 1.309026527071220e+001
 1.486589837339156e+000	 1.061492330860527e+000	 1.304551931250561e+001
 1.616596621133582e+000	 9.063498385190917e-001	 1.332266213827805e+001
 1.606669950775794e+000	 9.238323577444372e-001	 1.330514792239295e+001
 1.596539519997630e+000	 9.412311049141447e-001	 1.328380291832240e+001
 1.586206293699568e+000	 9.585425877806584e-001	 1.325879991602647e+001
 1.575671315357876e+000	 9.757633263072424e-001	 1.323037371942189e+001
 1.564935706927530e+000	 9.928898548479597e-001	 1.319881975312363e+001
 1.554000668673342e+000	 1.009918724331957e+000	 1.316449255218936e+001
 1.542867478928837e+000	 1.026846504449323e+000	 1.312779788952026e+001
 1.531537493782587e+000	 1.043669785835758e+000	 1.308921706808802e+001
 1.520012146691774e+000	 1.060385182253275e+000	 1.304926436374812e+001
 1.508292948022929e+000	 1.076989332764112e+000	 1.300851345192988e+001
 1.639858133723017e+000	 9.193914766717938e-001	 1.325303640055272e+001
 1.629788626640121e+000	 9.371255551515679e-001	 1.323857097271150e+001
 1.619512427189830e+000	 9.547746561638559e-001	 1.322035259211392e+001
 1.609030514156762e+000	 9.723352372105052e-001	 1.319855244565872e+001
 1.598343946031964e+000	 9.898037681798880e-001	 1.317340239139920e+001
 1.587453860914438e+000	 1.007176733558246e+000	 1.314519353183401e+001
 1.576361476339833e+000	 1.024450634645407e+000	 1.311426806725522e+001
 1.565068089035861e+000	 1.041621991772096e+000	 1.308104519520864e+001
 1.553575074604111e+000	 1.058687346516041e+000	 1.304597621700384e+001
 1.541883887128053e+000	 1.075643263914047e+000	 1.300957277478507e+001
 1.529996058707169e+000	 1.092486334667199e+000	 1.297239701380958e+001
 1.663119646312785e+000	 9.324331148245619e-001	 1.318751275110308e+001
 1.652907302504798e+000	 9.504187525587583e-001	 1.317591423902915e+001
 1.642485334382394e+000	 9.683182074136089e-001	 1.316055218765873e+001
 1.631854734614329e+000	 9.861278866403652e-001	 1.314161074258018e+001
 1.621016576706430e+000	 1.003844210052509e+000	 1.311933341726118e+001
 1.609972014901722e+000	 1.021463612268464e+000	 1.309401457586516e+001
 1.598722284006695e+000	 1.038982544958740e+000	 1.306602720497470e+001
 1.587268699143245e+000	 1.056397479094699e+000	 1.303577520012402e+001
 1.575612655425975e+000	 1.073704907196097e+000	 1.300372370738785e+001
 1.563755627564647e+000	 1.090901345574538e+000	 1.297038880377858e+001
 1.551699169391692e+000	 1.107983336569954e+000	 1.293633551879272e+001
 1.686381158902719e+000	 9.454747529775295e-001	 1.312551595228823e+001
 1.676025978369649e+000	 9.637119499661433e-001	 1.311655694397466e+001
 1.665458241575140e+000	 9.818617586635405e-001	 1.310373811524045e+001
 1.654678955072082e+000	 9.999205360703791e-001	 1.308727077182119e+001
 1.643689207381082e+000	 1.017884651925251e+000	 1.306741677159725e+001
 1.632490168889190e+000	 1.035750490978762e+000	 1.304451847356289e+001
 1.621083091673733e+000	 1.053514455272107e+000	 1.301894765871714e+001
 1.609469309250792e+000	 1.071172966417289e+000	 1.299113831430124e+001
 1.597650236247988e+000	 1.088722467876090e+000	 1.296157571125965e+001
 1.585627368001368e+000	 1.106159427234916e+000	 1.293079446463134e+001
 1.573402280076318e+000	 1.123480338472545e+000	 1.289937650695645e+001
 1.709642671492654e+000	 9.585163911308307e-001	 1.306637530544762e+001
 1.699144654234502e+000	 9.770051473738575e-001	 1.305978090998355e+001
 1.688431148767885e+000	 9.954053099137871e-001	 1.304914741952528e+001
 1.677503175529833e+000	 1.013713185500686e+000	 1.303471901636744e+001
 1.666361838055729e+000	 1.031925093798258e+000	 1.301682261511468e+001
 1.655008322876648e+000	 1.050037369689292e+000	 1.299581279861646e+001
 1.643443899340753e+000	 1.068046365585667e+000	 1.297210743528867e+001
 1.631669919358312e+000	 1.085948453740026e+000	 1.294617601912346e+001
 1.619687817069959e+000	 1.103740028556184e+000	 1.291853774413257e+001
 1.607499108438030e+000	 1.121417508895345e+000	 1.288975949297700e+001
 1.595105390760859e+000	 1.138977340375136e+000	 1.286045374365643e+001
 1.732904184082422e+000	 9.715580292845978e-001	 1.300932673511620e+001
 1.722263330099178e+000	 9.902983447820338e-001	 1.300477285900699e+001
 1.711404055960447e+000	 1.008948861164486e+000	 1.299592029909132e+001
 1.700327395987393e+000	 1.027505834931428e+000	 1.298306868683024e+001
 1.689034468730179e+000	 1.045965535671676e+000	 1.296659639224764e+001
 1.677526476863901e+000	 1.064324248400201e+000	 1.294691096857065e+001
 1.665804707007561e+000	 1.082578275899572e+000	 1.292448083349457e+001
 1.653870529465609e+000	 1.100723941063069e+000	 1.289982448733120e+001
 1.641725397891696e+000	 1.118757589236542e+000	 1.287350849257554e+001
 1.629370848874443e+000	 1.136675590555991e+000	 1.284614537284383e+001
 1.616808501445135e+000	 1.154474342277896e+000	 1.281839143501252e+001
 1.756165696671858e+000	 9.845996674389648e-001	 1.295351497512356e+001
 1.745382005963505e+000	 1.003591542190808e+000	 1.295062680538684e+001
 1.734376963152643e+000	 1.022492412415774e+000	 1.294309480606943e+001
 1.723151616444576e+000	 1.041298484362744e+000	 1.293131095230664e+001
 1.711707099404241e+000	 1.060005977545648e+000	 1.291569467569716e+001
 1.700044630850756e+000	 1.078611127111641e+000	 1.289672759846890e+001
 1.688165514673963e+000	 1.097110186213977e+000	 1.287494189502919e+001
 1.676071139572491e+000	 1.115499428386579e+000	 1.285091823844494e+001
 1.663762978713008e+000	 1.133775149917325e+000	 1.282528366783911e+001
 1.651242589310420e+000	 1.151933672217020e+000	 1.279870938045003e+001
 1.638511612128961e+000	 1.169971344180990e+000	 1.277190845213838e+001
 1.779427209260795e+000	 9.976413055940653e-001	 1.289799584725528e+001
 1.768500681827304e+000	 1.016884739600314e+000	 1.289633786172371e+001
 1.757349870344291e+000	 1.036035963667787e+000	 1.288964204047584e+001
 1.745975836901192e+000	 1.055091133794776e+000	 1.287835316028613e+001
 1.734379730077722e+000	 1.074046419420320e+000	 1.286297982177467e+001
 1.722562784837020e+000	 1.092898005823761e+000	 1.284408179242456e+001
 1.710526322339763e+000	 1.111642096529037e+000	 1.282226789629784e+001
 1.698271749678765e+000	 1.130274915710713e+000	 1.279819382636178e+001
 1.685800559533704e+000	 1.148792710598699e+000	 1.277255988316092e+001
 1.673114329745773e+000	 1.167191753878597e+000	 1.274610864356312e+001
 1.660214722812154e+000	 1.185468346084587e+000	 1.271962256331630e+001
 1.802688721849068e+000	 1.010682943750032e+000	 1.284172905315402e+001
 1.791619357690404e+000	 1.030177937010685e+000	 1.284084043319587e+001
 1.780322777535209e+000	 1.049579514920662e+000	 1.283441873055027e+001
 1.768800057357055e+000	 1.068883783227662e+000	 1.282301270833576e+001
 1.757052360750431e+000	 1.088086861295837e+000	 1.280722311230286e+001
 1.745080938822499e+000	 1.107184884536711e+000	 1.278770048052797e+001
 1.732887130004770e+000	 1.126174006844907e+000	 1.276514287747404e+001
 1.720472359784236e+000	 1.145050403035631e+000	 1.274029355622139e+001
 1.707838140353593e+000	 1.163810271280825e+000	 1.271393855261335e+001
 1.694986070180313e+000	 1.182449835540888e+000	 1.268690421501988e+001
 1.681917833494530e+000	 1.200965347988850e+000	 1.266005467340100e+001
 1.464886726656035e+000	 1.045995328956277e+000	 1.308412689910237e+001
 1.453318055313266e+000	 1.062010356656721e+000	 1.303170247425327e+001
 1.441564264409459e+000	 1.077910891462778e+000	 1.297357321154667e+001
 1.429627039115891e+000	 1.093693753232441e+000	 1.291064147091642e+001
 1.417508136850242e+000	 1.109355794658762e+000	 1.284386211990526e+001
 1.405209386483143e+000	 1.124893903309479e+000	 1.277424008035156e+001
 1.392732687476031e+000	 1.140305003643770e+000	 1.270282778570140e+001
 1.380080008951025e+000	 1.155586059003449e+000	 1.263072255475889e+001
 1.367253388693743e+000	 1.170734073575938e+000	 1.255906388791548e+001
 1.354254932090050e+000	 1.185746094326383e+000	 1.248903069211950e+001
 1.341086810997859e+000	 1.200619212896339e+000	 1.242183844105893e+001
 1.486589837339156e+000	 1.061492330860527e+000	 1.304551931250561e+001
 1.474849769703483e+000	 1.077744630093995e+000	 1.299739636875392e+001
 1.462921839857642e+000	 1.093880740157302e+000	 1.294339701860866e+001
 1.450807757939659e+000	 1.109897433792857e+000	 1.288431802837838e+001
 1.438509307404328e+000	 1.125791517064594e+000	 1.282100099677814e+001
 1.426028344218016e+000	 1.141559831427820e+000	 1.275433003598719e+001
 1.413366795983732e+000	 1.157199255775851e+000	 1.268522937925440e+001
 1.400526660997231e+000	 1.172706708460706e+000	 1.261466092051757e+001
 1.387510007235056e+000	 1.188079149285163e+000	 1.254362169169221e+001
 1.374318971275530e+000	 1.203313581463499e+000	 1.247314128346973e+001
 1.360955757153845e+000	 1.218407053548307e+000	 1.240427921564426e+001
 1.508292948022929e+000	 1.076989332764112e+000	 1.300851345192988e+001
 1.496381484094301e+000	 1.093478903530556e+000	 1.296426352136244e+001
 1.484279415306369e+000	 1.109850588851077e+000	 1.291387896096913e+001
 1.471988476763907e+000	 1.126101114352495e+000	 1.285809900771572e+001
 1.459510477958825e+000	 1.142227239469625e+000	 1.279770112834901e+001
 1.446847301953224e+000	 1.158225759545347e+000	 1.273349876063567e+001
 1.434000904491688e+000	 1.174093507907113e+000	 1.266633899481814e+001
 1.420973313043610e+000	 1.189827357917149e+000	 1.259710020053176e+001
 1.407766625776456e+000	 1.205424224993586e+000	 1.252668960458343e+001
 1.394383010461012e+000	 1.220881068599836e+000	 1.245604082514870e+001
 1.380824703309748e+000	 1.236194894199525e+000	 1.238611136809634e+001
 1.529996058707169e+000	 1.092486334667199e+000	 1.297239701380958e+001
 1.517913198485543e+000	 1.109213176966573e+000	 1.293157872064183e+001
 1.505636990755471e+000	 1.125820437544266e+000	 1.288431656775444e+001
 1.493169195588471e+000	 1.142304794911510e+000	 1.283133852209550e+001
 1.480511648513576e+000	 1.158662961874006e+000	 1.277340521158235e+001
 1.467666259688621e+000	 1.174891687662203e+000	 1.271130765432158e+001
 1.454635012999764e+000	 1.190987760037691e+000	 1.264586493951366e+001
 1.441419965090037e+000	 1.206948007372900e+000	 1.257792186518093e+001
 1.428023244317834e+000	 1.222769300701319e+000	 1.250834653799063e+001
 1.414447049646399e+000	 1.238448555735490e+000	 1.243802794057874e+001
 1.400693649465486e+000	 1.253982734850077e+000	 1.236787347191222e+001
 1.551699169391692e+000	 1.107983336569954e+000	 1.293633551879272e+001
 1.539444912877032e+000	 1.124947450402209e+000	 1.289849178412115e+001
 1.526994566204773e+000	 1.141790286237030e+000	 1.285387771884624e+001
 1.514349914413188e+000	 1.158508475470063e+000	 1.280325457389503e+001
 1.501512819068427e+000	 1.175098684277891e+000	 1.274741168963242e+001
 1.488485217424060e+000	 1.191557615778533e+000	 1.268716414277916e+001
 1.475269121507824e+000	 1.207882012167718e+000	 1.262335035432448e+001
 1.461866617136390e+000	 1.224068656828084e+000	 1.255682966358040e+001
 1.448279862859078e+000	 1.240114376408472e+000	 1.248847987364051e+001
 1.434511088831594e+000	 1.256016042870559e+000	 1.241919477362537e+001
 1.420562595620974e+000	 1.271770575500045e+000	 1.234988164321378e+001
 1.573402280076318e+000	 1.123480338472545e+000	 1.289937650695645e+001
 1.560976627268588e+000	 1.140681723837632e+000	 1.286403202146994e+001
 1.548352141654106e+000	 1.157760134929534e+000	 1.282160550352652e+001
 1.535530633237893e+000	 1.174712156028311e+000	 1.277293442898198e+001
 1.522513989623221e+000	 1.191534406681430e+000	 1.271888075444146e+001
 1.509304175159396e+000	 1.208223543894480e+000	 1.266032841344135e+001
 1.495903230015734e+000	 1.224776264297331e+000	 1.259818078081979e+001
 1.482313269182544e+000	 1.241189306282822e+000	 1.253335811053974e+001
 1.468536481400075e+000	 1.257459452115157e+000	 1.246679495233349e+001
 1.454575128016497e+000	 1.273583530005140e+000	 1.239943755264796e+001
 1.440431541776130e+000	 1.289558416149514e+000	 1.233224124548230e+001
 1.595105390760859e+000	 1.138977340375136e+000	 1.286045374365643e+001
 1.582508341660034e+000	 1.156415997273006e+000	 1.282711269293458e+001
 1.569709717103297e+000	 1.173729983621940e+000	 1.278642304829037e+001
 1.556711352062423e+000	 1.190915836586413e+000	 1.273933992392994e+001
 1.543515160177803e+000	 1.207970129084775e+000	 1.268684023649775e+001
 1.530123132894483e+000	 1.224889472010190e+000	 1.262991998387715e+001
 1.516537338523357e+000	 1.241670516426661e+000	 1.256959149729546e+001
 1.502759921228375e+000	 1.258309955737241e+000	 1.250688067221760e+001
 1.488793099940716e+000	 1.274804527821486e+000	 1.244282418361250e+001
 1.474639167201012e+000	 1.291151017139334e+000	 1.237846669128680e+001
 1.460300487930869e+000	 1.307346256798567e+000	 1.231485804109107e+001
 1.616808501445135e+000	 1.154474342277896e+000	 1.281839143501252e+001
 1.604040056051193e+000	 1.172150270708497e+000	 1.278653546348338e+001
 1.591067292552176e+000	 1.189699832314410e+000	 1.274713831672518e+001
 1.577892070886612e+000	 1.207119517144526e+000	 1.270131271247211e+001
 1.564516330732018e+000	 1.224405851488079e+000	 1.265019139235737e+001
 1.550942090629174e+000	 1.241555400125803e+000	 1.259492411842198e+001
 1.537171447030557e+000	 1.258564768555845e+000	 1.253667464600068e+001
 1.523206573273758e+000	 1.275430605191462e+000	 1.247661767878570e+001
 1.509049718480886e+000	 1.292149603527569e+000	 1.241593581197417e+001
 1.494703206385040e+000	 1.308718504273237e+000	 1.235581646951866e+001
 1.480169434085108e+000	 1.325134097447286e+000	 1.229744884161934e+001
 1.638511612128961e+000	 1.169971344180990e+000	 1.277190845213838e+001
 1.625571770441885e+000	 1.187884544144271e+000	 1.274099485305968e+001
 1.612424868000571e+000	 1.205669681007109e+000	 1.270244888404780e+001
 1.599072789710299e+000	 1.223323197702809e+000	 1.265757945682882e+001
 1.585517501285710e+000	 1.240841573891492e+000	 1.260771459941102e+001
 1.571761048363325e+000	 1.258221328241467e+000	 1.255419810707861e+001
 1.557805555537200e+000	 1.275459020685017e+000	 1.249838617082206e+001
 1.543653225318572e+000	 1.292551254645610e+000	 1.244164398941578e+001
 1.529306337020477e+000	 1.309494679233518e+000	 1.238534237146872e+001
 1.514767245568484e+000	 1.326285991406947e+000	 1.233085433389970e+001
 1.500038380238764e+000	 1.342921938095756e+000	 1.227735709010069e+001
 1.660214722812154e+000	 1.185468346084587e+000	 1.271962256331630e+001
 1.647103484831933e+000	 1.203618817580494e+000	 1.268908268330052e+001
 1.633782443448310e+000	 1.221639529700198e+000	 1.265094668861983e+001
 1.620253508533317e+000	 1.239526878261420e+000	 1.260675696895438e+001
 1.606518671838723e+000	 1.257277296295168e+000	 1.255807496638488e+001
 1.592580006096787e+000	 1.274887256357323e+000	 1.250647741929280e+001
 1.578439664043150e+000	 1.292353272814311e+000	 1.245355258277141e+001
 1.564099877362689e+000	 1.309671904099807e+000	 1.240089643225459e+001
 1.549562955559376e+000	 1.326839754939444e+000	 1.235010885720488e+001
 1.534831284751244e+000	 1.343853478540562e+000	 1.230029980698092e+001
 1.519907326391754e+000	 1.360709778744060e+000	 1.224348389034606e+001
 1.681917833494530e+000	 1.200965347988850e+000	 1.266005467340100e+001
 1.668635199221159e+000	 1.219353091017331e+000	 1.262929252104123e+001
 1.655140018895221e+000	 1.237609378393840e+000	 1.259112276252203e+001
 1.641434227355505e+000	 1.255730558820518e+000	 1.254735730622825e+001
 1.627519842390902e+000	 1.273713018699258e+000	 1.249982786718782e+001
 1.613398963829417e+000	 1.291553184473516e+000	 1.245038174390759e+001
 1.599073772548270e+000	 1.309247524943862e+000	 1.240087756883223e+001
 1.584546529405988e+000	 1.326792553554179e+000	 1.235318103971337e+001
 1.569819574097471e+000	 1.344184830645459e+000	 1.230668128423538e+001
 1.554895323933223e+000	 1.361420965674179e+000	 1.225384775909582e+001
 1.539776272543993e+000	 1.378497619392281e+000	 1.219537656917903e+001
 1.341086810997859e+000	 1.200619212896339e+000	 1.242183844105893e+001
 1.327753275425903e+000	 1.215348368834772e+000	 1.235022454490382e+001
 1.314254664028600e+000	 1.229932992248813e+000	 1.226590826179128e+001
 1.300593340761640e+000	 1.244370322232309e+000	 1.217104299782220e+001
 1.286771730854787e+000	 1.258657649759996e+000	 1.206830310813642e+001
 1.272792319379371e+000	 1.272792319379371e+000	 1.196036156187342e+001
 1.258657649759996e+000	 1.286771730854787e+000	 1.184987987794151e+001
 1.244370322232309e+000	 1.300593340761641e+000	 1.173949805546603e+001
 1.229932992248813e+000	 1.314254664028600e+000	 1.163182454580373e+001
 1.215348368834772e+000	 1.327753275425902e+000	 1.152942631349703e+001
 1.200619212896339e+000	 1.341086810997858e+000	 1.143293406968843e+001
 1.360955757153845e+000	 1.218407053548307e+000	 1.240427921564426e+001
 1.347424677844972e+000	 1.233354430115146e+000	 1.233017201803884e+001
 1.333726077020677e+000	 1.248155132827871e+000	 1.224533792174698e+001
 1.319862353659959e+000	 1.262806359875977e+000	 1.215145892710196e+001
 1.305835968923696e+000	 1.277305362098496e+000	 1.204990927569632e+001
 1.291649444700928e+000	 1.291649444700928e+000	 1.194372531657402e+001
 1.277305362098497e+000	 1.305835968923696e+000	 1.183593771231733e+001
 1.262806359875977e+000	 1.319862353659959e+000	 1.172955864169997e+001
 1.248155132827870e+000	 1.333726077020677e+000	 1.162756500480142e+001
 1.233354430115146e+000	 1.347424677844972e+000	 1.152679746787603e+001
 1.218407053548307e+000	 1.360955757153844e+000	 1.142498914690511e+001
 1.380824703309748e+000	 1.236194894199525e+000	 1.238611136809634e+001
 1.367096080263875e+000	 1.251360491394808e+000	 1.231038178245999e+001
 1.353197490012505e+000	 1.266377273406264e+000	 1.222392869246737e+001
 1.339131366557947e+000	 1.281242397519037e+000	 1.213019113003113e+001
 1.324900206992199e+000	 1.295953074436450e+000	 1.203206817956929e+001
 1.310506570022006e+000	 1.310506570022005e+000	 1.193046897008310e+001
 1.295953074436450e+000	 1.324900206992199e+000	 1.182840766924713e+001
 1.281242397519037e+000	 1.339131366557946e+000	 1.172814187314774e+001
 1.266377273406264e+000	 1.353197490012506e+000	 1.162406212302980e+001
 1.251360491394808e+000	 1.367096080263875e+000	 1.151756922110054e+001
 1.236194894199525e+000	 1.380824703309748e+000	 1.141215991226077e+001
 1.400693649465486e+000	 1.253982734850077e+000	 1.236787347191222e+001
 1.386767482682543e+000	 1.269366552673829e+000	 1.229186752679075e+001
 1.372668903004032e+000	 1.284599413984047e+000	 1.220570527237880e+001
 1.358400379455570e+000	 1.299678435161525e+000	 1.211294534449132e+001
 1.343964445060277e+000	 1.314600786773875e+000	 1.201719581274036e+001
 1.329363695342603e+000	 1.329363695342603e+000	 1.192198191413513e+001
 1.314600786773875e+000	 1.343964445060277e+000	 1.182517877362455e+001
 1.299678435161524e+000	 1.358400379455569e+000	 1.172077351301786e+001
 1.284599413984047e+000	 1.372668903004031e+000	 1.161197019481394e+001
 1.269366552673829e+000	 1.386767482682543e+000	 1.150242042512229e+001
 1.253982734850077e+000	 1.400693649465486e+000	 1.139576534247657e+001
 1.420562595620974e+000	 1.271770575500045e+000	 1.234988164321378e+001
 1.406438885100908e+000	 1.287372613952274e+000	 1.227514348093658e+001
 1.392140315995205e+000	 1.302821554561270e+000	 1.219131330596617e+001
 1.377669392352793e+000	 1.318114472803472e+000	 1.210197412768813e+001
 1.363028683127914e+000	 1.333248499110788e+000	 1.201075782533080e+001
 1.348220820662723e+000	 1.348220820662722e+000	 1.191501669330250e+001
 1.333248499110788e+000	 1.363028683127914e+000	 1.181215808498425e+001
 1.318114472803472e+000	 1.377669392352793e+000	 1.170429081494519e+001
 1.302821554561270e+000	 1.392140315995205e+000	 1.159340743301415e+001
 1.287372613952274e+000	 1.406438885100908e+000	 1.148320028480637e+001
 1.271770575500045e+000	 1.420562595620974e+000	 1.137735001653900e+001
 1.440431541776130e+000	 1.289558416149514e+000	 1.233224124548230e+001
 1.426110287518902e+000	 1.305378675230213e+000	 1.226049980929434e+001
 1.411611728985973e+000	 1.321043695137985e+000	 1.218116483675846e+001
 1.396938405249583e+000	 1.336550510444917e+000	 1.209746505807134e+001
 1.382092921195092e+000	 1.351896211447207e+000	 1.200433513672624e+001
 1.367077945982363e+000	 1.367077945982363e+000	 1.190141711120624e+001
 1.351896211447207e+000	 1.382092921195092e+000	 1.179247022772455e+001
 1.336550510444917e+000	 1.396938405249583e+000	 1.168131259612135e+001
 1.321043695137985e+000	 1.411611728985973e+000	 1.157069281011225e+001
 1.305378675230213e+000	 1.426110287518902e+000	 1.146196738551511e+001
 1.289558416149514e+000	 1.440431541776130e+000	 1.135867836266120e+001
 1.460300487930869e+000	 1.307346256798567e+000	 1.231485804109107e+001
 1.445781689936458e+000	 1.323384736507712e+000	 1.224801470320137e+001
 1.431083141976286e+000	 1.339265835714243e+000	 1.217452086130001e+001
 1.416207418145903e+000	 1.354986548085892e+000	 1.208811565717266e+001
 1.401157159261793e+000	 1.370543923783149e+000	 1.198968597338630e+001
 1.385935071301524e+000	 1.385935071301523e+000	 1.188272975340725e+001
 1.370543923783149e+000	 1.401157159261793e+000	 1.177080735082386e+001
 1.354986548085892e+000	 1.416207418145904e+000	 1.165753647221254e+001
 1.339265835714243e+000	 1.431083141976285e+000	 1.154658696570556e+001
 1.323384736507713e+000	 1.445781689936458e+000	 1.144098411924287e+001
 1.307346256798566e+000	 1.460300487930869e+000	 1.134172840122108e+001
 1.480169434085108e+000	 1.325134097447286e+000	 1.229744884161934e+001
 1.465453092353505e+000	 1.341390797784841e+000	 1.223593163950481e+001
 1.450554554966089e+000	 1.357487976290097e+000	 1.215938027269854e+001
 1.435476431041720e+000	 1.373422585726433e+000	 1.206922893920063e+001
 1.420221397328001e+000	 1.389191636118633e+000	 1.196862465594687e+001
 1.404792196620206e+000	 1.404792196620206e+000	 1.186077761938381e+001
 1.389191636118633e+000	 1.420221397328000e+000	 1.174895686404005e+001
 1.373422585726434e+000	 1.435476431041720e+000	 1.163648576731893e+001
 1.357487976290097e+000	 1.450554554966089e+000	 1.152673740386140e+001
 1.341390797784841e+000	 1.465453092353505e+000	 1.142312975321050e+001
 1.325134097447286e+000	 1.480169434085108e+000	 1.132868503103522e+001
 1.500038380238764e+000	 1.342921938095756e+000	 1.227735709010069e+001
 1.485124494769979e+000	 1.359396859061667e+000	 1.221248383991809e+001
 1.470025967955333e+000	 1.375710116865597e+000	 1.213329810371801e+001
 1.454745443936998e+000	 1.391858623366575e+000	 1.204251710663499e+001
 1.439285635393696e+000	 1.407839348453674e+000	 1.194291877830094e+001
 1.423649321938409e+000	 1.423649321938408e+000	 1.183733828790921e+001
 1.407839348453675e+000	 1.439285635393696e+000	 1.172866443323336e+001
 1.391858623366575e+000	 1.454745443936998e+000	 1.161983588462471e+001
 1.375710116865597e+000	 1.470025967955333e+000	 1.151383728533300e+001
 1.359396859061667e+000	 1.485124494769979e+000	 1.141369520984558e+001
 1.342921938095756e+000	 1.500038380238765e+000	 1.132247398232432e+001
 1.519907326391754e+000	 1.360709778744060e+000	 1.224348389034606e+001
 1.504795897185810e+000	 1.377402920338258e+000	 1.217654602852950e+001
 1.489497380943965e+000	 1.393932257440796e+000	 1.209784311097945e+001
 1.474014456831702e+000	 1.410294661006352e+000	 1.200964963716192e+001
 1.458349873458863e+000	 1.426487060788292e+000	 1.191429221568094e+001
 1.442506447256132e+000	 1.442506447256132e+000	 1.181414698637092e+001
 1.426487060788292e+000	 1.458349873458862e+000	 1.171163691070968e+001
 1.410294661006352e+000	 1.474014456831703e+000	 1.160922892922273e+001
 1.393932257440795e+000	 1.489497380943965e+000	 1.150943098481710e+001
 1.377402920338257e+000	 1.504795897185810e+000	 1.141478891129558e+001
 1.360709778744060e+000	 1.519907326391754e+000	 1.132788318665126e+001
 1.539776272543993e+000	 1.378497619392281e+000	 1.219537656917903e+001
 1.524467299600929e+000	 1.395408981614681e+000	 1.212950546482139e+001
 1.508968793931934e+000	 1.412154398015745e+000	 1.205454701928705e+001
 1.493283469725799e+000	 1.428730698645799e+000	 1.197225572658761e+001
 1.477414111523483e+000	 1.445134773122503e+000	 1.188442770213337e+001
 1.461363572573377e+000	 1.461363572573377e+000	 1.179289915633201e+001
 1.445134773122503e+000	 1.477414111523483e+000	 1.169954475448501e+001
 1.428730698645800e+000	 1.493283469725799e+000	 1.160627585891216e+001
 1.412154398015745e+000	 1.508968793931934e+000	 1.151503864944065e+001
 1.395408981614681e+000	 1.524467299600929e+000	 1.142781211865649e+001
 1.378497619392282e+000	 1.539776272543993e+000	 1.134660593862758e+001
 1.200619212896339e+000	 1.341086810997858e+000	 1.143293406968843e+001
 1.185746094326383e+000	 1.354254932090050e+000	 1.133135353671645e+001
 1.170734073575938e+000	 1.367253388693743e+000	 1.122015486411232e+001
 1.155586059003449e+000	 1.380080008951025e+000	 1.110065621005996e+001
 1.140305003643770e+000	 1.392732687476032e+000	 1.097411622094326e+001
 1.124893903309479e+000	 1.405209386483143e+000	 1.084173122985346e+001
 1.109355794658762e+000	 1.417508136850241e+000	 1.070463260572324e+001
 1.093693753232441e+000	 1.429627039115892e+000	 1.056388425593578e+001
 1.077910891462778e+000	 1.441564264409459e+000	 1.042048028477197e+001
 1.062010356656721e+000	 1.453318055313266e+000	 1.027534280961630e+001
 1.045995328956277e+000	 1.464886726656035e+000	 1.012931993644467e+001
 1.218407053548307e+000	 1.360955757153844e+000	 1.142498914690511e+001
 1.203313581463500e+000	 1.374318971275530e+000	 1.131925850139930e+001
 1.188079149285163e+000	 1.387510007235055e+000	 1.120541826854842e+001
 1.172706708460706e+000	 1.400526660997231e+000	 1.108464997857191e+001
 1.157199255775851e+000	 1.413366795983732e+000	 1.095807370421620e+001
 1.141559831427820e+000	 1.426028344218016e+000	 1.082674549375408e+001
 1.125791517064594e+000	 1.438509307404328e+000	 1.069165495755607e+001
 1.109897433792857e+000	 1.450807757939659e+000	 1.055372300998530e+001
 1.093880740157302e+000	 1.462921839857642e+000	 1.041379976786803e+001
 1.077744630093995e+000	 1.474849769703483e+000	 1.027266260634737e+001
 1.061492330860527e+000	 1.486589837339156e+000	 1.013101437253658e+001
 1.236194894199525e+000	 1.380824703309748e+000	 1.141215991226077e+001
 1.220881068599836e+000	 1.394383010461012e+000	 1.130454443704867e+001
 1.205424224993587e+000	 1.407766625776456e+000	 1.118989768454566e+001
 1.189827357917149e+000	 1.420973313043610e+000	 1.106930938053846e+001
 1.174093507907113e+000	 1.434000904491688e+000	 1.094380683670594e+001
 1.158225759545347e+000	 1.446847301953224e+000	 1.081435254210219e+001
 1.142227239469625e+000	 1.459510477958824e+000	 1.068184191018719e+001
 1.126101114352494e+000	 1.471988476763906e+000	 1.054710118215101e+001
 1.109850588851077e+000	 1.484279415306369e+000	 1.041088548676822e+001
 1.093478903530556e+000	 1.496381484094301e+000	 1.027387705656989e+001
 1.076989332764112e+000	 1.508292948022929e+000	 1.013668359973679e+001
 1.253982734850077e+000	 1.400693649465486e+000	 1.139576534247657e+001
 1.238448555735490e+000	 1.414447049646399e+000	 1.128821245092336e+001
 1.222769300701319e+000	 1.428023244317834e+000	 1.117430546195921e+001
 1.206948007372900e+000	 1.441419965090038e+000	 1.105508538046796e+001
 1.190987760037690e+000	 1.454635012999764e+000	 1.093153080370802e+001
 1.174891687662203e+000	 1.467666259688620e+000	 1.080455559794430e+001
 1.158662961874007e+000	 1.480511648513576e+000	 1.067500673169008e+001
 1.142304794911510e+000	 1.493169195588471e+000	 1.054366226538354e+001
 1.125820437544266e+000	 1.505636990755471e+000	 1.041122949680204e+001
 1.109213176966573e+000	 1.517913198485543e+000	 1.027834326106438e+001
 1.092486334667199e+000	 1.529996058707168e+000	 1.014556438369417e+001
 1.271770575500045e+000	 1.420562595620974e+000	 1.137735001653900e+001
 1.256016042870559e+000	 1.434511088831594e+000	 1.127150045683996e+001
 1.240114376408472e+000	 1.448279862859077e+000	 1.115960020131985e+001
 1.224068656828083e+000	 1.461866617136390e+000	 1.104268297467565e+001
 1.207882012167718e+000	 1.475269121507824e+000	 1.092172103838544e+001
 1.191557615778533e+000	 1.488485217424060e+000	 1.079762288177719e+001
 1.175098684277891e+000	 1.501512819068427e+000	 1.067123106991535e+001
 1.158508475470063e+000	 1.514349914413188e+000	 1.054332024728371e+001
 1.141790286237030e+000	 1.526994566204773e+000	 1.041459529570401e+001
 1.124947450402209e+000	 1.539444912877032e+000	 1.028568964447506e+001
 1.107983336569954e+000	 1.551699169391692e+000	 1.015716373034701e+001
 1.289558416149514e+000	 1.440431541776130e+000	 1.135867836266120e+001
 1.273583530005141e+000	 1.454575128016497e+000	 1.125587668151936e+001
 1.257459452115157e+000	 1.468536481400075e+000	 1.114697965377880e+001
 1.241189306282822e+000	 1.482313269182545e+000	 1.103305361142197e+001
 1.224776264297331e+000	 1.495903230015734e+000	 1.091510528096358e+001
 1.208223543894480e+000	 1.509304175159395e+000	 1.079407942082299e+001
 1.191534406681430e+000	 1.522513989623221e+000	 1.067085661493249e+001
 1.174712156028311e+000	 1.535530633237893e+000	 1.054625122077191e+001
 1.157760134929534e+000	 1.548352141654106e+000	 1.042100946946755e+001
 1.140681723837632e+000	 1.560976627268588e+000	 1.029580771513384e+001
 1.123480338472544e+000	 1.573402280076317e+000	 1.017125083027480e+001
 1.307346256798566e+000	 1.460300487930869e+000	 1.134172840122108e+001
 1.291151017139334e+000	 1.474639167201012e+000	 1.124303273913522e+001
 1.274804527821486e+000	 1.488793099940715e+000	 1.113787325147626e+001
 1.258309955737241e+000	 1.502759921228375e+000	 1.102738729428276e+001
 1.241670516426661e+000	 1.516537338523357e+000	 1.091265536514291e+001
 1.224889472010190e+000	 1.530123132894483e+000	 1.079469862128637e+001
 1.207970129084775e+000	 1.543515160177802e+000	 1.067447655260137e+001
 1.190915836586413e+000	 1.556711352062423e+000	 1.055288480703040e+001
 1.173729983621940e+000	 1.569709717103298e+000	 1.043075316522812e+001
 1.156415997273006e+000	 1.582508341660034e+000	 1.030884366090400e+001
 1.138977340375136e+000	 1.595105390760859e+000	 1.018784884291420e+001
 1.325134097447286e+000	 1.480169434085108e+000	 1.132868503103522e+001
 1.308718504273237e+000	 1.494703206385040e+000	 1.123487631463575e+001
 1.292149603527569e+000	 1.509049718480886e+000	 1.113393430306047e+001
 1.275430605191462e+000	 1.523206573273759e+000	 1.102710439851505e+001
 1.258564768555845e+000	 1.537171447030557e+000	 1.091557875736007e+001
 1.241555400125804e+000	 1.550942090629174e+000	 1.080049362586263e+001
 1.224405851488079e+000	 1.564516330732018e+000	 1.068292682889807e+001
 1.207119517144526e+000	 1.577892070886612e+000	 1.056389540835748e+001
 1.189699832314410e+000	 1.591067292552177e+000	 1.044435340742834e+001
 1.172150270708497e+000	 1.604040056051192e+000	 1.032518979644873e+001
 1.154474342277895e+000	 1.616808501445135e+000	 1.020722653568569e+001
 1.342921938095756e+000	 1.500038380238765e+000	 1.132247398232432e+001
 1.326285991406947e+000	 1.514767245568484e+000	 1.123352349211120e+001
 1.309494679233518e+000	 1.529306337020477e+000	 1.113703188540147e+001
 1.292551254645610e+000	 1.543653225318572e+000	 1.103384722702703e+001
 1.275459020685017e+000	 1.557805555537200e+000	 1.092530987181067e+001
 1.258221328241467e+000	 1.571761048363324e+000	 1.081270847640713e+001
 1.240841573891492e+000	 1.585517501285710e+000	 1.069727724254022e+001
 1.223323197702809e+000	 1.599072789710299e+000	 1.058019330670229e+001
 1.205669681007109e+000	 1.612424868000571e+000	 1.046257427179297e+001
 1.187884544144271e+000	 1.625571770441885e+000	 1.034547587569992e+001
 1.169971344180991e+000	 1.638511612128961e+000	 1.022988979148169e+001
 1.360709778744060e+000	 1.519907326391754e+000	 1.132788318665126e+001
 1.343853478540562e+000	 1.534831284751244e+000	 1.124187395726757e+001
 1.326839754939444e+000	 1.549562955559376e+000	 1.114924245929901e+001
 1.309671904099807e+000	 1.564099877362689e+000	 1.104947132977998e+001
 1.292353272814311e+000	 1.578439664043150e+000	 1.094350118175251e+001
 1.274887256357323e+000	 1.592580006096787e+000	 1.083280909959328e+001
 1.257277296295169e+000	 1.606518671838723e+000	 1.071882238162258e+001
 1.239526878261420e+000	 1.620253508533317e+000	 1.060291562199989e+001
 1.221639529700197e+000	 1.633782443448310e+000	 1.048640793012496e+001
 1.203618817580493e+000	 1.647103484831933e+000	 1.037056028186104e+001
 1.185468346084587e+000	 1.660214722812154e+000	 1.025657299656056e+001
 1.378497619392282e+000	 1.539776272543993e+000	 1.134660593862758e+001
 1.361420965674179e+000	 1.554895323933223e+000	 1.126419621591998e+001
 1.344184830645459e+000	 1.569819574097472e+000	 1.117338419363659e+001
 1.326792553554179e+000	 1.584546529405988e+000	 1.107603660798811e+001
 1.309247524943862e+000	 1.599073772548270e+000	 1.097201414548905e+001
 1.291553184473516e+000	 1.613398963829417e+000	 1.086247413154746e+001
 1.273713018699258e+000	 1.627519842390902e+000	 1.074907241835165e+001
 1.255730558820517e+000	 1.641434227355505e+000	 1.063341714296974e+001
 1.237609378393840e+000	 1.655140018895221e+000	 1.051706557758906e+001
 1.219353091017331e+000	 1.668635199221159e+000	 1.040152110600371e+001
 1.200965347988850e+000	 1.681917833494530e+000	 1.028823031964796e+001
 1.045995328956277e+000	 1.464886726656035e+000	 1.012931993644467e+001
 1.029869018930230e+000	 1.476268665820915e+000	 9.981509966453668e+000
 1.013634664473865e+000	 1.487462332141325e+000	 9.830896198526425e+000
 9.972955298026258e-001	 1.498466258716639e+000	 9.678043463595532e+000
 9.808549037040830e-001	 1.509279053342249e+000	 9.523437674406241e+000
 9.643160974265818e-001	 1.519899398955622e+000	 9.367491742192065e+000
 9.476824425612986e-001	 1.530326054011600e+000	 9.210539678175399e+000
 9.309572889204426e-001	 1.540557852787053e+000	 9.052836645585010e+000
 9.141440024143019e-001	 1.550593705615053e+000	 8.894558046508228e+000
 8.972459629298201e-001	 1.560432599048893e+000	 8.735798766856103e+000
 8.802665622133532e-001	 1.570073595956371e+000	 8.576572579808367e+000
 1.061492330860527e+000	 1.486589837339156e+000	 1.013101437253658e+001
 1.045127100592058e+000	 1.498140406255998e+000	 9.987861822602978e+000
 1.028652225155088e+000	 1.509499912961594e+000	 9.842132227568415e+000
 1.012071017126219e+000	 1.520666868822365e+000	 9.694295135748874e+000
 9.953868140182343e-001	 1.531639861007416e+000	 9.544743818684619e+000
 9.786029761374547e-001	 1.542417552941193e+000	 9.393789964054911e+000
 9.617228844344271e-001	 1.552998684684357e+000	 9.241668406952233e+000
 9.447499383506842e-001	 1.563382073242935e+000	 9.088532467772057e+000
 9.276875536643391e-001	 1.573566612805977e+000	 8.934454064738400e+000
 9.105391603372328e-001	 1.583551274911993e+000	 8.779423084799653e+000
 8.933082003663225e-001	 1.593335108544643e+000	 8.623346908444061e+000
 1.076989332764112e+000	 1.508292948022929e+000	 1.013668359973679e+001
 1.060385182253275e+000	 1.520012146691774e+000	 9.998228652717096e+000
 1.043669785835759e+000	 1.531537493782587e+000	 9.857369808688333e+000
 1.026846504449323e+000	 1.542867478928838e+000	 9.714500190208435e+000
 1.009918724331957e+000	 1.554000668673342e+000	 9.569934043405052e+000
 9.928898548479597e-001	 1.564935706927531e+000	 9.423903198015996e+000
 9.757633263072423e-001	 1.575671315357876e+000	 9.276559556286635e+000
 9.585425877806589e-001	 1.586206293699568e+000	 9.127972046705702e+000
 9.412311049141445e-001	 1.596539519997630e+000	 8.978126485200432e+000
 9.238323577444372e-001	 1.606669950775794e+000	 8.826925050615360e+000
 9.063498385190917e-001	 1.616596621133581e+000	 8.674185909232984e+000
 1.092486334667199e+000	 1.529996058707168e+000	 1.014556438369417e+001
 1.075643263914047e+000	 1.541883887128052e+000	 1.001173411526625e+001
 1.058687346516041e+000	 1.553575074604111e+000	 9.875620282585587e+000
 1.041621991772096e+000	 1.565068089035862e+000	 9.737556667486711e+000
 1.024450634645408e+000	 1.576361476339833e+000	 9.597795395814243e+000
 1.007176733558246e+000	 1.587453860914438e+000	 9.456506235950831e+000
 9.898037681798880e-001	 1.598343946031964e+000	 9.313774466205405e+000
 9.723352372105052e-001	 1.609030514156761e+000	 9.169601953190975e+000
 9.547746561638559e-001	 1.619512427189830e+000	 9.023905398478759e+000
 9.371255551515678e-001	 1.629788626640121e+000	 8.876516181951923e+000
 9.193914766717937e-001	 1.639858133723017e+000	 8.727180065378565e+000
 1.107983336569954e+000	 1.551699169391692e+000	 1.015716373034701e+001
 1.090901345574538e+000	 1.563755627564647e+000	 1.002777047097080e+001
 1.073704907196097e+000	 1.575612655425975e+000	 9.896161757111331e+000
 1.056397479094698e+000	 1.587268699143244e+000	 9.762628700939583e+000
 1.038982544958740e+000	 1.598722284006695e+000	 9.627378637122929e+000
 1.021463612268464e+000	 1.609972014901722e+000	 9.490534174576359e+000
 1.003844210052509e+000	 1.621016576706430e+000	 9.352132368671967e+000
 9.861278866403656e-001	 1.631854734614329e+000	 9.212124158488571e+000
 9.683182074136085e-001	 1.642485334382394e+000	 9.070373739588581e+000
 9.504187525587582e-001	 1.652907302504798e+000	 8.926658242995575e+000
 9.324331148245619e-001	 1.663119646312786e+000	 8.780667489787279e+000
 1.123480338472544e+000	 1.573402280076317e+000	 1.017125083027480e+001
 1.106159427234916e+000	 1.585627368001368e+000	 1.004599075265277e+001
 1.088722467876090e+000	 1.597650236247987e+000	 9.918531517664489e+000
 1.071172966417288e+000	 1.609469309250792e+000	 9.789137843951734e+000
 1.053514455272107e+000	 1.621083091673733e+000	 9.657988582226086e+000
 1.035750490978762e+000	 1.632490168889190e+000	 9.525175832343550e+000
 1.017884651925251e+000	 1.643689207381082e+000	 9.390704203886463e+000
 9.999205360703791e-001	 1.654678955072082e+000	 9.254489775791440e+000
 9.818617586635403e-001	 1.665458241575140e+000	 9.116361301642856e+000
 9.637119499661435e-001	 1.676025978369650e+000	 8.976057525895087e+000
 9.454747529775296e-001	 1.686381158902720e+000	 8.833228467092335e+000
 1.138977340375136e+000	 1.595105390760859e+000	 1.018784884291420e+001
 1.121417508895345e+000	 1.607499108438029e+000	 1.006630077602227e+001
 1.103740028556184e+000	 1.619687817069959e+000	 9.942518278881746e+000
 1.085948453740026e+000	 1.631669919358312e+000	 9.816755574248218e+000
 1.068046365585667e+000	 1.643443899340753e+000	 9.689178963686372e+000
 1.050037369689291e+000	 1.655008322876647e+000	 9.559865995168266e+000
 1.031925093798258e+000	 1.666361838055729e+000	 9.428804770401394e+000
 1.013713185500686e+000	 1.677503175529833e+000	 9.295893387591555e+000
 9.954053099137867e-001	 1.688431148767885e+000	 9.160938587945397e+000
 9.770051473738575e-001	 1.699144654234502e+000	 9.023658970955035e+000
 9.585163911308307e-001	 1.709642671492654e+000	 8.883679835484285e+000
 1.154474342277895e+000	 1.616808501445135e+000	 1.020722653568569e+001
 1.136675590555991e+000	 1.629370848874443e+000	 1.008885100634275e+001
 1.118757589236542e+000	 1.641725397891696e+000	 9.968154292532283e+000
 1.100723941063069e+000	 1.653870529465609e+000	 9.845395654254721e+000
 1.082578275899572e+000	 1.665804707007561e+000	 9.720744420341745e+000
 1.064324248400201e+000	 1.677526476863901e+000	 9.594279193245956e+000
 1.045965535671676e+000	 1.689034468730179e+000	 9.465987189306810e+000
 1.027505834931428e+000	 1.700327395987393e+000	 9.335763709232710e+000
 1.008948861164486e+000	 1.711404055960447e+000	 9.203410517688811e+000
 9.902983447820342e-001	 1.722263330099179e+000	 9.068640140745139e+000
 9.715580292845979e-001	 1.732904184082422e+000	 8.931069223396918e+000
 1.169971344180991e+000	 1.638511612128961e+000	 1.022988979148169e+001
 1.151933672217020e+000	 1.651242589310421e+000	 1.011402829433648e+001
 1.133775149917325e+000	 1.663762978713008e+000	 9.995707324948651e+000
 1.115499428386579e+000	 1.676071139572491e+000	 9.875206360852586e+000
 1.097110186213977e+000	 1.688165514673963e+000	 9.752712987870625e+000
 1.078611127111641e+000	 1.700044630850756e+000	 9.628322130282664e+000
 1.060005977545648e+000	 1.711707099404241e+000	 9.502035411694831e+000
 1.041298484362745e+000	 1.723151616444576e+000	 9.373760640312039e+000
 1.022492412415773e+000	 1.734376963152644e+000	 9.243311412852060e+000
 1.003591542190808e+000	 1.745382005963505e+000	 9.110405061665171e+000
 9.845996674389650e-001	 1.756165696671858e+000	 8.974669154501838e+000
 1.185468346084587e+000	 1.660214722812154e+000	 1.025657299656056e+001
 1.167191753878597e+000	 1.673114329745773e+000	 1.014244749329495e+001
 1.148792710598699e+000	 1.685800559533704e+000	 1.002567251593090e+001
 1.130274915710713e+000	 1.698271749678765e+000	 9.906562596478068e+000
 1.111642096529037e+000	 1.710526322339764e+000	 9.785338470307703e+000
 1.092898005823761e+000	 1.722562784837020e+000	 9.662126321467884e+000
 1.074046419420320e+000	 1.734379730077722e+000	 9.536957153350631e+000
 1.055091133794776e+000	 1.745975836901192e+000	 9.409766277296461e+000
 1.036035963667787e+000	 1.757349870344292e+000	 9.280392912359849e+000
 1.016884739600314e+000	 1.768500681827304e+000	 9.148579890194265e+000
 9.976413055940656e-001	 1.779427209260796e+000	 9.013971033060120e+000
 1.200965347988850e+000	 1.681917833494530e+000	 1.028823031964796e+001
 1.182449835540888e+000	 1.694986070180314e+000	 1.017494296812275e+001
 1.163810271280825e+000	 1.707838140353592e+000	 1.005876412982856e+001
 1.145050403035632e+000	 1.720472359784237e+000	 9.940057892283047e+000
 1.126174006844908e+000	 1.732887130004770e+000	 9.819092703263459e+000
 1.107184884536711e+000	 1.745080938822499e+000	 9.696040622673152e+000
 1.088086861295837e+000	 1.757052360750431e+000	 9.570976693791474e+000
 1.068883783227663e+000	 1.768800057357055e+000	 9.443878425283197e+000
 1.049579514920662e+000	 1.780322777535210e+000	 9.314625376091907e+000
 1.030177937010685e+000	 1.791619357690404e+000	 9.182998836200717e+000
 1.010682943750033e+000	 1.802688721849068e+000	 9.048681597193435e+000
 8.802665622133532e-001	 1.570073595956371e+000	 8.576572579808364e+000
 8.632117660713863e-001	 1.579514434436757e+000	 8.417237287978917e+000
 8.460824421315376e-001	 1.588755792347744e+000	 8.258648073861261e+000
 8.288820044695899e-001	 1.597796962967234e+000	 8.101519381062557e+000
 8.116138706063589e-001	 1.606637315540310e+000	 7.946489376400105e+000
 7.942814594508111e-001	 1.615276295033541e+000	 7.794118162814156e+000
 7.768881892624316e-001	 1.623713421824429e+000	 7.644886173502511e+000
 7.594374756351380e-001	 1.631948291327146e+000	 7.499192751696566e+000
 7.419327295049752e-001	 1.639980573555821e+000	 7.357354920388030e+000
 7.243773551837668e-001	 1.647810012626662e+000	 7.219606346169921e+000
 7.067747484208015e-001	 1.655436426200365e+000	 7.086096501187866e+000
 8.933082003663225e-001	 1.593335108544643e+000	 8.623346908444061e+000
 8.760007279448260e-001	 1.602915818291883e+000	 8.466744223930764e+000
 8.586176235547386e-001	 1.612294092054241e+000	 8.310713179622658e+000
 8.411623518532653e-001	 1.621469212639146e+000	 8.155981079377668e+000
 8.236383809936846e-001	 1.630440539946704e+000	 8.003196667566357e+000
 8.060491805379904e-001	 1.639207510720356e+000	 7.852928190231991e+000
 7.883982193890753e-001	 1.647769638231734e+000	 7.705661637310620e+000
 7.706889637447694e-001	 1.656126511900855e+000	 7.561799170774552e+000
 7.529248750760244e-001	 1.664277796852925e+000	 7.421657743504992e+000
 7.351094081314270e-001	 1.672223233413098e+000	 7.285467913606329e+000
 7.172460089701712e-001	 1.679962636540613e+000	 7.153372858756757e+000
 9.063498385190917e-001	 1.616596621133581e+000	 8.674185909232982e+000
 8.887896898180561e-001	 1.626317202147628e+000	 8.520598470078280e+000
 8.711528049777059e-001	 1.635832391761306e+000	 8.367493886815383e+000
 8.534426992366734e-001	 1.645141462311570e+000	 8.215599448707723e+000
 8.356628913807014e-001	 1.654243764353546e+000	 8.065561414953912e+000
 8.178169016248167e-001	 1.663138726407550e+000	 7.917942949072548e+000
 7.999082495153213e-001	 1.671825854639347e+000	 7.773222233244748e+000
 7.819404518539631e-001	 1.680304732474796e+000	 7.631790767866455e+000
 7.639170206466032e-001	 1.688575020150183e+000	 7.493951861568898e+000
 7.458414610785948e-001	 1.696636454199607e+000	 7.359919316935350e+000
 7.277172695190414e-001	 1.704488846880856e+000	 7.229816317078115e+000
 9.193914766717937e-001	 1.639858133723017e+000	 8.727180065378564e+000
 9.015786516912100e-001	 1.649718586003838e+000	 8.576763074879073e+000
 8.836879864005770e-001	 1.659370691468799e+000	 8.426816293345624e+000
 8.657230466199544e-001	 1.668813711984378e+000	 8.278055063300485e+000
 8.476874017675546e-001	 1.678046988760721e+000	 8.131111053258005e+000
 8.295846227114402e-001	 1.687069942095027e+000	 7.986530089669005e+000
 8.114182796413252e-001	 1.695882071047190e+000	 7.844770166703712e+000
 7.931919399628790e-001	 1.704482953048911e+000	 7.706199639459554e+000
 7.749091662168747e-001	 1.712872243447557e+000	 7.571095606261390e+000
 7.565735140254362e-001	 1.721049674986173e+000	 7.439642485762400e+000
 7.381885300675789e-001	 1.729015057221095e+000	 7.311930794555978e+000
 9.324331148245619e-001	 1.663119646312786e+000	 8.780667489787280e+000
 9.143676135644236e-001	 1.673119969860358e+000	 8.633446305872420e+000
 8.962231678234888e-001	 1.682908991176575e+000	 8.486749689175348e+000
 8.780033940032496e-001	 1.692485961657440e+000	 8.341269998958014e+000
 8.597119121543899e-001	 1.701850213168122e+000	 8.197613118116152e+000
 8.413523437980107e-001	 1.711001157782695e+000	 8.056296206461751e+000
 8.229283097672420e-001	 1.719938287455187e+000	 7.917745628625857e+000
 8.044434280716766e-001	 1.728661173623140e+000	 7.782295062449449e+000
 7.859013117870025e-001	 1.737169466745007e+000	 7.650183793894964e+000
 7.673055669721173e-001	 1.745462895772776e+000	 7.521555204633441e+000
 7.486597906159502e-001	 1.753541267561331e+000	 7.396455458542150e+000
 9.454747529775296e-001	 1.686381158902720e+000	 8.833228467092336e+000
 9.271565754378307e-001	 1.696521353717034e+000	 8.689096428504302e+000
 9.087583492465783e-001	 1.706447290884493e+000	 8.545601534880346e+000
 8.902837413866998e-001	 1.716158211330630e+000	 8.403402976511282e+000
 8.717364225413530e-001	 1.725653437575633e+000	 8.263070521967377e+000
 8.531200648846794e-001	 1.734932373470456e+000	 8.125082216022911e+000
 8.344383398932268e-001	 1.743994503863259e+000	 7.989822247799710e+000
 8.156949161805157e-001	 1.752839394197428e+000	 7.857578995223987e+000
 7.968934573571501e-001	 1.761466690042496e+000	 7.728543252149970e+000
 7.780376199188031e-001	 1.769876116559398e+000	 7.602806644720615e+000
 7.591310511643220e-001	 1.778067477901566e+000	 7.480360243701637e+000
 9.585163911308307e-001	 1.709642671492654e+000	 8.883679835484283e+000
 9.399455373115651e-001	 1.719922737573709e+000	 8.742396327796996e+000
 9.212935306699827e-001	 1.729985590592412e+000	 8.601912289128688e+000
 9.025640887704454e-001	 1.739830461003820e+000	 8.462844363097709e+000
 8.837609329285886e-001	 1.749456661983145e+000	 8.325716699168797e+000
 8.648877859715963e-001	 1.758863589158218e+000	 8.190958618131155e+000
 8.459483700194360e-001	 1.768050720271332e+000	 8.058902442121743e+000
 8.269464042895561e-001	 1.777017614771715e+000	 7.929781495459104e+000
 8.078856029274806e-001	 1.785763913339985e+000	 7.803728282919544e+000
 7.887696728656604e-001	 1.794289337346019e+000	 7.680772852405426e+000
 7.696023117128608e-001	 1.802593688241801e+000	 7.560841349225052e+000
 9.715580292845979e-001	 1.732904184082422e+000	 8.931069223396918e+000
 9.527344991857626e-001	 1.743324121430229e+000	 8.792257987626575e+000
 9.338287120938384e-001	 1.753523890300188e+000	 8.654450099270838e+000
 9.148444361546277e-001	 1.763502710676882e+000	 8.518211044597909e+000
 8.957854433162428e-001	 1.773259886390545e+000	 8.384010632651449e+000
 8.766555070589114e-001	 1.782794804845885e+000	 8.252220650883665e+000
 8.574584001460237e-001	 1.792106936679329e+000	 8.123112678293499e+000
 8.381978923989577e-001	 1.801195835345946e+000	 7.996856062449838e+000
 8.188777484981575e-001	 1.810061136637435e+000	 7.873516067263227e+000
 7.995017258128542e-001	 1.818702558132622e+000	 7.753052198807409e+000
 7.800735722617330e-001	 1.827119898582037e+000	 7.635316716870841e+000
 9.845996674389650e-001	 1.756165696671858e+000	 8.974669154501839e+000
 9.655234610605563e-001	 1.766725505286440e+000	 8.837816840806436e+000
 9.463638935182839e-001	 1.777062190007680e+000	 8.702205367732246e+000
 9.271247835393878e-001	 1.787174960349689e+000	 8.568341181175965e+000
 9.078099537044607e-001	 1.797063110797722e+000	 8.436631773094719e+000
 8.884232281467757e-001	 1.806726020533363e+000	 8.307383349665507e+000
 8.689684302731457e-001	 1.816163153087172e+000	 8.180798648446011e+000
 8.494493805088798e-001	 1.825374055920060e+000	 8.056974910970329e+000
 8.298698940693450e-001	 1.834358359934808e+000	 7.935902017832206e+000
 8.102337787605508e-001	 1.843115778919188e+000	 7.817460793875571e+000
 7.905448328111057e-001	 1.851646108922276e+000	 7.701421491614651e+000
 9.976413055940656e-001	 1.779427209260796e+000	 9.013971033060120e+000
 9.783124229360812e-001	 1.790126889142184e+000	 8.878426001795988e+000
 9.588990749434547e-001	 1.800600489714745e+000	 8.744385205567371e+000
 9.394051309248662e-001	 1.810847210022113e+000	 8.612288856615090e+000
 9.198344640933878e-001	 1.820866335204562e+000	 8.482474860451765e+000
 9.001909492353392e-001	 1.830657236220556e+000	 8.355176518771843e+000
 8.804784604009575e-001	 1.840219369494784e+000	 8.230520371287998e+000
 8.607008686194827e-001	 1.849552276494000e+000	 8.108524182926066e+000
 8.408620396412051e-001	 1.858655583232066e+000	 7.989095083573136e+000
 8.209658317089157e-001	 1.867528999705697e+000	 7.872027868283658e+000
 8.010160933611453e-001	 1.876172319262519e+000	 7.757003466491248e+000
 1.010682943750033e+000	 1.802688721849068e+000	 9.048681597193433e+000
 9.911013848124723e-001	 1.813528272997309e+000	 8.913650392633931e+000
 9.714342563694887e-001	 1.824138789421242e+000	 8.780407783366661e+000
 9.516854783112035e-001	 1.834519459694026e+000	 8.649318631039357e+000
 9.318589744831693e-001	 1.844669559610956e+000	 8.520644656643908e+000
 9.119586703247526e-001	 1.854588451907370e+000	 8.394539623569672e+000
 8.919884905296137e-001	 1.864275585902090e+000	 8.271047224593566e+000
 8.719523567309262e-001	 1.873730497067710e+000	 8.150099102413449e+000
 8.518541852139021e-001	 1.882952806529170e+000	 8.031513011015413e+000
 8.316978846581150e-001	 1.891942220492133e+000	 7.914991126033960e+000
 8.114873539120182e-001	 1.900698529602767e+000	 7.800118513058283e+000
 7.067747484208015e-001	 1.655436426200365e+000	 7.086096501187866e+000
 6.891256442852183e-001	 1.662860803443095e+000	 6.950778863476521e+000
 6.714360551290197e-001	 1.670081948955455e+000	 6.808058296689482e+000
 6.537093420179819e-001	 1.677099898436262e+000	 6.659235730225420e+000
 6.359488499726910e-001	 1.683914758373383e+000	 6.507541412110930e+000
 6.181579061975374e-001	 1.690526705208835e+000	 6.355356687773507e+000
 6.003398183486900e-001	 1.696935984454057e+000	 6.204817359841203e+000
 5.824978728425352e-001	 1.703142909757176e+000	 6.057872720710854e+000
 5.646353332059857e-001	 1.709147861924183e+000	 5.916281487391339e+000
 5.467554384699808e-001	 1.714951287895949e+000	 5.781610172838570e+000
 5.288614016073797e-001	 1.720553699683057e+000	 5.655233783603604e+000
 7.172460089701712e-001	 1.679962636540613e+000	 7.153372858756758e+000
 6.993354235518500e-001	 1.687497010056689e+000	 7.019272582166351e+000
 6.813837533048077e-001	 1.694825140851425e+000	 6.877716099605085e+000
 6.633944090908881e-001	 1.701947065152540e+000	 6.729660166581130e+000
 6.453707854890251e-001	 1.708862891025580e+000	 6.577791594037130e+000
 6.273162589980006e-001	 1.715572797526653e+000	 6.425223362303474e+000
 6.092341862787581e-001	 1.722077033804590e+000	 6.274352352145183e+000
 5.911279024377771e-001	 1.728375918154393e+000	 6.127360700861373e+000
 5.730007193529454e-001	 1.734469837023908e+000	 5.986211663413958e+000
 5.548559240432534e-001	 1.740359243975686e+000	 5.852648178337756e+000
 5.366967770835491e-001	 1.746044658606036e+000	 5.728194015773965e+000
 7.277172695190414e-001	 1.704488846880856e+000	 7.229816317078115e+000
 7.095452028179917e-001	 1.712133216670198e+000	 7.097533327306365e+000
 6.913314514801311e-001	 1.719568332747231e+000	 6.957796263881459e+000
 6.730794761633667e-001	 1.726794231868579e+000	 6.811781030641903e+000
 6.547927210049780e-001	 1.733811023677469e+000	 6.661098373487882e+000
 6.364746117981360e-001	 1.740618889844100e+000	 6.509390581301680e+000
 6.181285542085547e-001	 1.747218083154697e+000	 6.359392402985659e+000
 5.997579320328053e-001	 1.753608926551139e+000	 6.213477009170204e+000
 5.813661054997462e-001	 1.759791812123126e+000	 6.073767499662940e+000
 5.629564096164186e-001	 1.765767200054896e+000	 5.942135794727832e+000
 5.445321525596547e-001	 1.771535617528480e+000	 5.820204383605708e+000
 7.381885300675789e-001	 1.729015057221095e+000	 7.311930794555980e+000
 7.197549820838096e-001	 1.736769423283644e+000	 7.181885810828269e+000
 7.012791496551518e-001	 1.744311524642915e+000	 7.044444038627774e+000
 6.827645432355752e-001	 1.751641398584440e+000	 6.901008808827110e+000
 6.642146565207017e-001	 1.758759156329126e+000	 6.752900020287941e+000
 6.456329645980879e-001	 1.765664982161268e+000	 6.603086542542014e+000
 6.270229221382165e-001	 1.772359132504484e+000	 6.454990686723182e+000
 6.083879616277474e-001	 1.778841934947530e+000	 6.311135999954258e+000
 5.897314916465081e-001	 1.785113787221967e+000	 6.173761604018844e+000
 5.710568951895859e-001	 1.791175156133712e+000	 6.044821547894675e+000
 5.523675280357959e-001	 1.797026576450526e+000	 5.925987313293042e+000
 7.486597906159502e-001	 1.753541267561331e+000	 7.396455458542150e+000
 7.299647613494683e-001	 1.761405629897045e+000	 7.268889403102790e+000
 7.112268478300333e-001	 1.769054716538517e+000	 7.134038723353807e+000
 6.924496103076727e-001	 1.776488565300181e+000	 6.993507438789093e+000
 6.736365920363487e-001	 1.783707288980629e+000	 6.848792794923075e+000
 6.547913173980023e-001	 1.790711074478250e+000	 6.701803402775354e+000
 6.359172900678811e-001	 1.797500181854058e+000	 6.556433593214232e+000
 6.170179912227322e-001	 1.804074943343686e+000	 6.415456712771141e+000
 5.980968777933491e-001	 1.810435762320554e+000	 6.281184880531092e+000
 5.791573807628641e-001	 1.816583112212264e+000	 6.155607927888859e+000
 5.602029035120719e-001	 1.822517535372305e+000	 6.040396824421284e+000
 7.591310511643220e-001	 1.778067477901566e+000	 7.480360243701638e+000
 7.401745406151347e-001	 1.786041836510427e+000	 7.355333619869418e+000
 7.211745460049378e-001	 1.793797908434078e+000	 7.223189107314081e+000
 7.021346773798164e-001	 1.801335732015862e+000	 7.085706267545161e+000
 6.830585275520711e-001	 1.808655421632055e+000	 6.944554986417312e+000
 6.639496701980238e-001	 1.815757166795140e+000	 6.801317124571709e+000
 6.448116579976856e-001	 1.822641231203525e+000	 6.659258641580562e+000
 6.256480208178877e-001	 1.829307951739723e+000	 6.521778942914264e+000
 6.064622639403884e-001	 1.835757737419014e+000	 6.391220852553937e+000
 5.872578663363622e-001	 1.841991068290684e+000	 6.269564066396350e+000
 5.680382789885817e-001	 1.848008494293950e+000	 6.158429668907370e+000
 7.696023117128608e-001	 1.802593688241801e+000	 7.560841349225052e+000
 7.503843198809724e-001	 1.810678043123807e+000	 7.438233611073670e+000
 7.311222441800278e-001	 1.818541100329640e+000	 7.308728934736692e+000
 7.118197444521650e-001	 1.826182898731543e+000	 7.174258800600358e+000
 6.924804630680210e-001	 1.833603554283482e+000	 7.036642294075162e+000
 6.731080229982976e-001	 1.840803259112029e+000	 6.897582264035977e+000
 6.537060259277669e-001	 1.847782280552992e+000	 6.759272516078942e+000
 6.342780504133430e-001	 1.854540960135760e+000	 6.625679455783932e+000
 6.148276500877450e-001	 1.861079712517475e+000	 6.499260149780746e+000
 5.953583519101899e-001	 1.867399024369105e+000	 6.381938595941652e+000
 5.758736544654247e-001	 1.873499453215596e+000	 6.275236666888972e+000
 7.800735722617330e-001	 1.827119898582037e+000	 7.635316716870842e+000
 7.605940991471489e-001	 1.835314249737210e+000	 7.514825651429151e+000
 7.410699423554661e-001	 1.843284292225242e+000	 7.387712393501128e+000
 7.215048115248767e-001	 1.851030065447285e+000	 7.256038178638066e+000
 7.019023985843511e-001	 1.858551686934985e+000	 7.121749315783144e+000
 6.822663757989691e-001	 1.865849351429012e+000	 6.986672828979791e+000
 6.626003938582623e-001	 1.872923329902566e+000	 6.852569212625133e+000
 6.429080800092253e-001	 1.879773968531916e+000	 6.722988331639194e+000
 6.231930362355381e-001	 1.886401687616062e+000	 6.600915143794425e+000
 6.034588374844560e-001	 1.892806980447657e+000	 6.488172673761153e+000
 5.837090299427000e-001	 1.898990412137376e+000	 6.386134221069425e+000
 7.905448328111057e-001	 1.851646108922276e+000	 7.701421491614650e+000
 7.708038784138284e-001	 1.859950456350654e+000	 7.582562632543202e+000
 7.510176405314152e-001	 1.868027484120925e+000	 7.457409625089315e+000
 7.311898785981090e-001	 1.875877232163145e+000	 7.328132695572927e+000
 7.113243341012138e-001	 1.883499819586643e+000	 7.196784806430038e+000
 6.914247286001836e-001	 1.890895443746181e+000	 7.065296800166425e+000
 6.714947617893092e-001	 1.898064379252353e+000	 6.935472864606640e+000
 6.515381096056636e-001	 1.905006976928308e+000	 6.809805428663044e+000
 6.315584223838864e-001	 1.911723662714902e+000	 6.692034718382113e+000
 6.115593230592691e-001	 1.918214936526472e+000	 6.583913155094215e+000
 5.915444054205066e-001	 1.924481371059421e+000	 6.486615992983283e+000
 8.010160933611453e-001	 1.876172319262519e+000	 7.757003466491248e+000
 7.810136576811766e-001	 1.884586662964163e+000	 7.639109556459452e+000
 7.609653387080380e-001	 1.892770676016731e+000	 7.515302253859820e+000
 7.408749456720213e-001	 1.900724398879184e+000	 7.387841354179691e+000
 7.207462696187608e-001	 1.908447952238532e+000	 7.258867254105603e+000
 7.005830814020861e-001	 1.915941536063627e+000	 7.130395615103219e+000
 6.803891297210440e-001	 1.923205428602460e+000	 7.004312350331726e+000
 6.601681392027861e-001	 1.930239985325052e+000	 6.882516953538160e+000
 6.399238085329084e-001	 1.937045637814121e+000	 6.768719162302021e+000
 6.196598086347389e-001	 1.943622892605682e+000	 6.665025902234454e+000
 5.993797808989435e-001	 1.949972329981867e+000	 6.572364726377586e+000
 8.114873539120182e-001	 1.900698529602767e+000	 7.800118513058284e+000
 7.912234369493598e-001	 1.909222869577757e+000	 7.682339030486808e+000
 7.709130368854968e-001	 1.917513867912702e+000	 7.559078933898759e+000
 7.505600127467703e-001	 1.925571565595462e+000	 7.432669455901183e+000
 7.301682051371443e-001	 1.933396084890728e+000	 7.305320507090198e+000
 7.097414342048215e-001	 1.940987628381445e+000	 7.179114875086381e+000
 6.892834976536051e-001	 1.948346477952993e+000	 7.056002746855267e+000
 6.687981688007214e-001	 1.955472993722270e+000	 6.937796574319687e+000
 6.482891946827237e-001	 1.962367612913845e+000	 6.827335173460780e+000
 6.277602942109746e-001	 1.969030848685419e+000	 6.727609217095134e+000
 6.072151563781101e-001	 1.975463288904845e+000	 6.639264204435060e+000
 5.288614016073797e-001	 1.720553699683057e+000	 5.655233783603604e+000
 5.109564077608135e-001	 1.725955672830829e+000	 5.535322181378636e+000
 4.930436120318358e-001	 1.731157843990140e+000	 5.419406571814483e+000
 4.751261388703822e-001	 1.736160911033619e+000	 5.307621042137893e+000
 4.572070809624126e-001	 1.740965632275259e+000	 5.199920855684038e+000
 4.392894979044454e-001	 1.745572825227723e+000	 5.096094930190025e+000
 4.213764149277031e-001	 1.749983365329664e+000	 4.995779706903291e+000
 4.034708216724216e-001	 1.754198184645169e+000	 4.898474232496296e+000
 3.855756710127967e-001	 1.758218270537386e+000	 4.803556273023190e+000
 3.676938779329494e-001	 1.762044664318403e+000	 4.710299277891430e+000
 3.498283184541985e-001	 1.765678459877450e+000	 4.617890011997478e+000
 5.366967770835491e-001	 1.746044658606036e+000	 5.728194015773965e+000
 5.185265108061257e-001	 1.751526664987303e+000	 5.610682645223626e+000
 5.003483270571110e-001	 1.756805909202691e+000	 5.497295537084007e+000
 4.821653965768892e-001	 1.761883099464191e+000	 5.388256375313058e+000
 4.639808578712683e-001	 1.766759005320630e+000	 5.283586062065173e+000
 4.457978158663765e-001	 1.771434456396564e+000	 5.183116723468904e+000
 4.276193406139059e-001	 1.775910341100748e+000	 5.086507264216757e+000
 4.094484660472607e-001	 1.780187605306307e+000	 4.993260274226511e+000
 3.912881887890963e-001	 1.784267251004713e+000	 4.902740087602065e+000
 3.731414670106318e-001	 1.788150334935661e+000	 4.814191792717368e+000
 3.550112193430272e-001	 1.791837967194950e+000	 4.726760992433709e+000
 5.445321525596547e-001	 1.771535617528480e+000	 5.820204383605708e+000
 5.260966138514088e-001	 1.777097657143252e+000	 5.705428256081863e+000
 5.076530420823825e-001	 1.782453974414742e+000	 5.594637313365796e+000
 4.892046542834104e-001	 1.787605287894299e+000	 5.488151707451190e+000
 4.707546347801495e-001	 1.792552378365583e+000	 5.386062787230345e+000
 4.523061338283391e-001	 1.797296087565045e+000	 5.288248753563920e+000
 4.338622663001412e-001	 1.801837316871536e+000	 5.194392034615383e+000
 4.154261104221303e-001	 1.806177025967220e+000	 5.103998164525721e+000
 3.970007065654226e-001	 1.810316231471889e+000	 5.016415945162102e+000
 3.785890560883355e-001	 1.814256005552847e+000	 4.930858669132065e+000
 3.601941202318723e-001	 1.817997474512458e+000	 4.846426182432075e+000
 5.523675280357959e-001	 1.797026576450526e+000	 5.925987313293042e+000
 5.336667168967521e-001	 1.802668649298809e+000	 5.814303537882906e+000
 5.149577571077297e-001	 1.808102039626417e+000	 5.706254835128859e+000
 4.962439119900155e-001	 1.813327476324059e+000	 5.602261487360970e+000
 4.775284116891162e-001	 1.818345751410224e+000	 5.502486664027180e+000
 4.588144517903843e-001	 1.823157718733256e+000	 5.406853862231354e+000
 4.401051919864520e-001	 1.827764292642103e+000	 5.315066253227496e+000
 4.214037547970657e-001	 1.832166446627964e+000	 5.226627696212653e+000
 4.027132243418035e-001	 1.836365211938954e+000	 5.140865177086577e+000
 3.840366451660822e-001	 1.840361676169979e+000	 5.056952428145146e+000
 3.653770211207496e-001	 1.844156981829972e+000	 4.973934484849987e+000
 5.602029035120719e-001	 1.822517535372305e+000	 6.040396824421284e+000
 5.412368199422444e-001	 1.828239641454104e+000	 5.932163522686047e+000
 5.222624721332320e-001	 1.833750104837843e+000	 5.827061161755441e+000
 5.032831696967738e-001	 1.839049664753587e+000	 5.725610633509890e+000
 4.843021885982289e-001	 1.844139124454658e+000	 5.628044883146955e+000
 4.653227697525628e-001	 1.849019349901286e+000	 5.534328286149676e+000
 4.463481176728810e-001	 1.853691268412522e+000	 5.444178131966784e+000
 4.273813991721016e-001	 1.858155867288595e+000	 5.357087952356523e+000
 4.084257421182667e-001	 1.862414192405942e+000	 5.272352428333539e+000
 3.894842342438936e-001	 1.866467346787076e+000	 5.189093607765957e+000
 3.705599220096755e-001	 1.870316489147490e+000	 5.106288165855194e+000
 5.680382789885817e-001	 1.848008494293950e+000	 6.158429668907370e+000
 5.488069229879748e-001	 1.853810633609267e+000	 6.053983502542092e+000
 5.295671871589682e-001	 1.859398170049142e+000	 5.952068030647981e+000
 5.103224274037549e-001	 1.864771853182998e+000	 5.853302070501302e+000
 4.910759655075475e-001	 1.869932497498987e+000	 5.757982888607391e+000
 4.718310877149262e-001	 1.874880981069227e+000	 5.666107680291693e+000
 4.525910433594708e-001	 1.879618244182866e+000	 5.577397372668853e+000
 4.333590435472733e-001	 1.884145287949170e+000	 5.491322463809410e+000
 4.141382598948399e-001	 1.888463172872894e+000	 5.407130606531123e+000
 3.949318233217909e-001	 1.892573017404154e+000	 5.323875643161575e+000
 3.757428228986661e-001	 1.896475996465010e+000	 5.240447797795246e+000
 5.758736544654247e-001	 1.873499453215596e+000	 6.275236666888972e+000
 5.563770260340329e-001	 1.879381625764431e+000	 6.174868987280562e+000
 5.368719021850180e-001	 1.885046235260443e+000	 6.076394615959605e+000
 5.173616851110285e-001	 1.890494041612411e+000	 5.980524462046710e+000
 4.978497424171324e-001	 1.895725870543315e+000	 5.887611252242059e+000
 4.783394056775259e-001	 1.900742612237167e+000	 5.797673294910437e+000
 4.588339690462645e-001	 1.905545219953211e+000	 5.710420801012178e+000
 4.393366879226154e-001	 1.910134708609745e+000	 5.625284447719007e+000
 4.198507776715514e-001	 1.914512153339845e+000	 5.541445865743305e+000
 4.003794123997961e-001	 1.918678688021233e+000	 5.457869729134662e+000
 3.809257237877377e-001	 1.922635503782531e+000	 5.373337126459362e+000
 5.837090299427000e-001	 1.898990412137376e+000	 6.386134221069425e+000
 5.639471290805076e-001	 1.904952617919726e+000	 6.290065848882450e+000
 5.441766172114603e-001	 1.910694300471868e+000	 6.195276473632302e+000
 5.244009428186642e-001	 1.916216230041938e+000	 6.102560121975719e+000
 5.046235193270438e-001	 1.921519243587748e+000	 6.012312710378437e+000
 4.848477236404132e-001	 1.926604243405198e+000	 5.924558291707915e+000
 4.650768947333047e-001	 1.931472195723630e+000	 5.838978109875543e+000
 4.453143322981632e-001	 1.936124129270376e+000	 5.754942119415364e+000
 4.255632954484288e-001	 1.940561133806834e+000	 5.671542621648281e+000
 4.058270014779305e-001	 1.944784358638330e+000	 5.587629666579822e+000
 3.861086246769064e-001	 1.948795011100049e+000	 5.501847869836769e+000
 5.915444054205066e-001	 1.924481371059421e+000	 6.486615992983283e+000
 5.715172321274878e-001	 1.930523610075283e+000	 6.394970635147535e+000
 5.514813322383746e-001	 1.936342365683543e+000	 6.304074655476237e+000
 5.314402005267317e-001	 1.941938418471699e+000	 6.214793086782732e+000
 5.113972962373418e-001	 1.947312616632389e+000	 6.127549347671953e+000
 4.913560416036388e-001	 1.952465874573409e+000	 6.042354186284929e+000
 4.713198204206343e-001	 1.957399171494196e+000	 5.958837701986612e+000
 4.512919766739515e-001	 1.962113549931120e+000	 5.876284070867476e+000
 4.312758132255001e-001	 1.966610114273899e+000	 5.793668595218871e+000
 4.112745905562159e-001	 1.970890029255462e+000	 5.709696694407308e+000
 3.912915255661882e-001	 1.974954518417563e+000	 5.622844454722625e+000
 5.993797808989435e-001	 1.949972329981867e+000	 6.572364726377586e+000
 5.790873351750631e-001	 1.956094602231232e+000	 6.485141037174635e+000
 5.587860472658400e-001	 1.961990430895594e+000	 6.398284976829837e+000
 5.384794582353004e-001	 1.967660606901807e+000	 6.312717334931500e+000
 5.181710731480863e-001	 1.973105989677342e+000	 6.228869914634752e+000
 4.978643595672542e-001	 1.978327505741890e+000	 6.146717405318741e+000
 4.775627461082961e-001	 1.983326147264985e+000	 6.065812622779354e+000
 4.572696210500153e-001	 1.988102970592032e+000	 5.985324709620985e+000
 4.369883310027929e-001	 1.992659094741074e+000	 5.904079882295946e+000
 4.167221796346737e-001	 1.996995699872648e+000	 5.820604308262174e+000
 3.964744264555997e-001	 2.001114025735070e+000	 5.733126138138670e+000
 6.072151563781101e-001	 1.975463288904845e+000	 6.639264204435060e+000
 5.866574382233224e-001	 1.981665594387705e+000	 6.556306496771601e+000
 5.660907622939357e-001	 1.987638496108145e+000	 6.473547423935000e+000
 5.455187159444396e-001	 1.993382795332379e+000	 6.391945139670659e+000
 5.249448500593381e-001	 1.998899362722714e+000	 6.311917266785866e+000
 5.043726775313110e-001	 2.004189136910731e+000	 6.232596531460747e+000
 4.838056717963329e-001	 2.009253123036070e+000	 6.152025845404388e+000
 4.632472654263897e-001	 2.014092391253171e+000	 6.069677770897672e+000
 4.427008487803356e-001	 2.018708075208402e+000	 5.984813395669874e+000
 4.221697687133255e-001	 2.023101370489906e+000	 5.896464930590239e+000
 4.016573273451569e-001	 2.027273533052570e+000	 5.803470156108409e+000
 3.498283184541985e-001	 1.765678459877450e+000	 4.617890011997477e+000
 3.319845031998169e-001	 1.769120300513190e+000	 4.530722079330507e+000
 3.141625416233765e-001	 1.772371941244703e+000	 4.453105729086476e+000
 2.963651817210658e-001	 1.775434626186778e+000	 4.384073397211278e+000
 2.785951288690975e-001	 1.778309646314947e+000	 4.322650180132705e+000
 2.608550450100400e-001	 1.780998338017287e+000	 4.267872202162733e+000
 2.431475478902918e-001	 1.783502081636491e+000	 4.218804620315298e+000
 2.254752103484412e-001	 1.785822300004091e+000	 4.174559120739599e+000
 2.078405596541675e-001	 1.787960456968690e+000	 4.134310769859278e+000
 1.902460768972755e-001	 1.789918055920011e+000	 4.097314092856209e+000
 1.726941964264004e-001	 1.791696638310540e+000	 4.062918262244740e+000
 3.550112193430272e-001	 1.791837967194950e+000	 4.726760992433710e+000
 3.369030380524930e-001	 1.795330800612061e+000	 4.644975657630382e+000
 3.188170342142214e-001	 1.798630616207665e+000	 4.573321162434984e+000
 3.007559965374987e-001	 1.801738676528800e+000	 4.510835063912268e+000
 2.827226704801975e-001	 1.804656291677526e+000	 4.456543609854430e+000
 2.647197574230519e-001	 1.807384817841254e+000	 4.409482252264598e+000
 2.467499138958356e-001	 1.809925655813227e+000	 4.368715775493124e+000
 2.288157508551774e-001	 1.812280249505019e+000	 4.333357877589839e+000
 2.109198330136687e-001	 1.814450084452968e+000	 4.302590053172856e+000
 1.930646782198457e-001	 1.816436686320356e+000	 4.275679636572382e+000
 1.752527568885781e-001	 1.818241619397146e+000	 4.251996875078020e+000
 3.601941202318723e-001	 1.817997474512458e+000	 4.846426182432073e+000
 3.418215729051807e-001	 1.821541300711022e+000	 4.767786628280363e+000
 3.234715268050726e-001	 1.824889291170791e+000	 4.699597974844722e+000
 3.051468113539313e-001	 1.828042726871060e+000	 4.640885284858300e+000
 2.868502120912874e-001	 1.831002937040409e+000	 4.590657573549683e+000
 2.685844698360398e-001	 1.833771297665584e+000	 4.547930682175522e+000
 2.503522799013355e-001	 1.836349229990371e+000	 4.511749742432987e+000
 2.321562913618431e-001	 1.838738199006388e+000	 4.481211053378085e+000
 2.139991063730645e-001	 1.840939711937706e+000	 4.455483203117113e+000
 1.958832795422659e-001	 1.842955316721160e+000	 4.433827278973581e+000
 1.778113173505509e-001	 1.844786600484193e+000	 4.415616021943946e+000
 3.653770211207496e-001	 1.844156981829972e+000	 4.973934484849990e+000
 3.467401077578918e-001	 1.847751800810049e+000	 4.896611769447205e+000
 3.281260193959391e-001	 1.851147966134042e+000	 4.829798970586289e+000
 3.095376261703706e-001	 1.854346777213498e+000	 4.772486800169951e+000
 2.909777537023743e-001	 1.857349582403519e+000	 4.723644367402459e+000
 2.724491822490120e-001	 1.860157777490180e+000	 4.682244643655810e+000
 2.539546459068039e-001	 1.862772804167814e+000	 4.647289493304523e+000
 2.354968318684564e-001	 1.865196148508078e+000	 4.617834073828627e+000
 2.170783797323812e-001	 1.867429339422771e+000	 4.593010420103883e+000
 1.987018808645739e-001	 1.869473947122285e+000	 4.572050040279883e+000
 1.803698778123702e-001	 1.871331581571538e+000	 4.554305363873469e+000
 3.705599220096755e-001	 1.870316489147490e+000	 5.106288165855194e+000
 3.516586426106382e-001	 1.873962300909120e+000	 5.028847676919646e+000
 3.327805119868295e-001	 1.877406641097375e+000	 4.961714770176073e+000
 3.139284409868238e-001	 1.880650827556055e+000	 4.903819625380530e+000
 2.951052953134649e-001	 1.883696227766776e+000	 4.854064393383980e+000
 2.763138946619772e-001	 1.886544257314950e+000	 4.811351501591987e+000
 2.575570119122528e-001	 1.889196378345448e+000	 4.774611499203290e+000
 2.388373723750355e-001	 1.891654098009965e+000	 4.742830225742186e+000
 2.201576530916456e-001	 1.893918966908032e+000	 4.715075099053935e+000
 2.015204821868069e-001	 1.895992577523594e+000	 4.690520332543957e+000
 1.829284382740870e-001	 1.897876562659040e+000	 4.668470905863462e+000
 3.757428228986661e-001	 1.896475996465010e+000	 5.240447797795247e+000
 3.565771774634313e-001	 1.900172801008212e+000	 5.161835858303691e+000
 3.374350045777524e-001	 1.903665316060748e+000	 5.093069102627259e+000
 3.183192558032973e-001	 1.906954877898667e+000	 5.032986582086453e+000
 2.992328369245657e-001	 1.910042873130104e+000	 4.980391962187903e+000
 2.801786070749438e-001	 1.912930737139797e+000	 4.934084936572878e+000
 2.611593779176946e-001	 1.915619952523162e+000	 4.892892153152824e+000
 2.421779128815985e-001	 1.918112047511930e+000	 4.855697414604278e+000
 2.232369264508841e-001	 1.920408594393359e+000	 4.821470929168404e+000
 2.043390835090026e-001	 1.922511207924947e+000	 4.789297402518873e+000
 1.854869987357526e-001	 1.924421543746556e+000	 4.758402777163341e+000
 3.809257237877377e-001	 1.922635503782531e+000	 5.373337126459364e+000
 3.614957123162833e-001	 1.926383301107304e+000	 5.292867691440272e+000
 3.420894971687164e-001	 1.929923991024120e+000	 5.221523902717545e+000
 3.227100706197986e-001	 1.933258928241276e+000	 5.158018575685189e+000
 3.033603785356840e-001	 1.936389518493424e+000	 5.101020786895958e+000
 2.840433194879206e-001	 1.939317216964629e+000	 5.049190683717187e+000
 2.647617439231413e-001	 1.942043526700847e+000	 5.001213777046443e+000
 2.455184533881636e-001	 1.944569997013850e+000	 4.955834456276031e+000
 2.263161998101232e-001	 1.946898221878620e+000	 4.911888480665811e+000
 2.071576848311983e-001	 1.949029838326206e+000	 4.868334217391895e+000
 1.880455591974182e-001	 1.950966524833943e+000	 4.824282413616235e+000
 3.861086246769064e-001	 1.948795011100049e+000	 5.501847869836769e+000
 3.664142471692060e-001	 1.952593801206374e+000	 5.419189259802364e+000
 3.467439897597303e-001	 1.956182665987450e+000	 5.344684231595851e+000
 3.271008854363341e-001	 1.959562978583822e+000	 5.276879643963578e+000
 3.074879201468264e-001	 1.962736163856656e+000	 5.214269196436091e+000
 2.879080319009157e-001	 1.965703696789349e+000	 5.155331941930763e+000
 2.683641099286056e-001	 1.968467100878397e+000	 5.098570251620729e+000
 2.488589938947491e-001	 1.971027946515605e+000	 5.042546946545848e+000
 2.293954731693895e-001	 1.973387849363684e+000	 4.985921326689784e+000
 2.099762861534316e-001	 1.975548468727234e+000	 4.927483845732620e+000
 1.906041196591352e-001	 1.977511505921061e+000	 4.866189198239585e+000
 3.912915255661882e-001	 1.974954518417563e+000	 5.622844454722626e+000
 3.713327820222112e-001	 1.978804301305400e+000	 5.538006076278892e+000
 3.513984823508028e-001	 1.982441340950695e+000	 5.460103037107450e+000
 3.314917002529111e-001	 1.985867028926243e+000	 5.387471797783227e+000
 3.116154617579995e-001	 1.989082809219724e+000	 5.318385094812036e+000
 2.917727443139378e-001	 1.992090176613864e+000	 5.251094484151841e+000
 2.719664759340993e-001	 1.994890675055700e+000	 5.183872304414404e+000
 2.521995344013732e-001	 1.997485896017071e+000	 5.115052747682227e+000
 2.324747465287095e-001	 1.999877476848419e+000	 5.043071743487224e+000
 2.127948874757400e-001	 2.002067099127891e+000	 4.966652166549252e+000
 1.931626801209544e-001	 2.004056487007765e+000	 4.884876721658253e+000
 3.964744264555997e-001	 2.001114025735070e+000	 5.733126138138671e+000
 3.762513168753105e-001	 2.005014801404359e+000	 5.645724408707433e+000
 3.560529749419423e-001	 2.008700015913815e+000	 5.563344289234819e+000
 3.358825150695361e-001	 2.012171079268478e+000	 5.484656268662774e+000
 3.157430033692104e-001	 2.015429454582549e+000	 5.408271732815493e+000
 2.956374567269953e-001	 2.018476656438079e+000	 5.332770914117615e+000
 2.755688419396348e-001	 2.021314249232647e+000	 5.256729835884837e+000
 2.555400749080536e-001	 2.023943845518130e+000	 5.178746428200567e+000
 2.355540198881096e-001	 2.026367104332694e+000	 5.097465984317326e+000
 2.156134887981608e-001	 2.028585729528039e+000	 5.011606116830528e+000
 1.957212405829273e-001	 2.030601468093916e+000	 4.919981361762077e+000
 4.016573273451569e-001	 2.027273533052570e+000	 5.803470156108410e+000
 3.811698517285161e-001	 2.031225301503230e+000	 5.711157466104653e+000
 3.607074675331575e-001	 2.034958690876767e+000	 5.624890120936210e+000
 3.402733298862165e-001	 2.038475129610468e+000	 5.543394624178492e+000
 3.198705449804655e-001	 2.041776099945052e+000	 5.465311922880297e+000
 2.995021691400967e-001	 2.044863136261900e+000	 5.389223593159367e+000
 2.791712079452243e-001	 2.047737823409130e+000	 5.313677053183049e+000
 2.588806154148092e-001	 2.050401795018658e+000	 5.237210006857655e+000
 2.386332932476166e-001	 2.052856731816378e+000	 5.158374312077005e+000
 2.184320901207317e-001	 2.055104359927540e+000	 5.075759456142178e+000
 1.982798010451052e-001	 2.057146449179369e+000	 4.988015808185945e+000
 1.726941964264004e-001	 1.791696638310540e+000	 4.062918262244744e+000
 1.551846886247798e-001	 1.793298009200867e+000	 4.036916477660411e+000
 1.377225603152077e-001	 1.794723502569440e+000	 4.023653128742526e+000
 1.203101389484920e-001	 1.795974766340585e+000	 4.020501979543722e+000
 1.029497023582024e-001	 1.797053480637194e+000	 4.025024990710711e+000
 8.564347844425330e-002	 1.797961356299908e+000	 4.034984365081768e+000
 6.839364490323611e-002	 1.798700133414114e+000	 4.048353069552702e+000
 5.120232900460125e-002	 1.799271579846228e+000	 4.063323794342579e+000
 3.407160741175545e-002	 1.799677489790610e+000	 4.078316322304124e+000
 1.700350604710066e-002	 1.799919682328466e+000	 4.091983292176066e+000
 0.000000000000000e+000	 1.800000000000000e+000	 4.103214345869224e+000
 1.752527568885781e-001	 1.818241619397146e+000	 4.251996875078020e+000
 1.574838360012102e-001	 1.819866715486908e+000	 4.237503369110362e+000
 1.397629965593997e-001	 1.821313328331721e+000	 4.236581174795375e+000
 1.220926004964326e-001	 1.822583130270824e+000	 4.246454847969378e+000
 1.044749593932499e-001	 1.823677826319064e+000	 4.264556612867350e+000
 8.691233415734243e-002	 1.824599152664132e+000	 4.288540013192919e+000
 6.940693474908768e-002	 1.825348875171750e+000	 4.316291886725437e+000
 5.196091995461615e-002	 1.825928787900252e+000	 4.345942619281623e+000
 3.457639720425804e-002	 1.826340711625985e+000	 4.375874646511585e+000
 1.725542243558246e-002	 1.826586492380854e+000	 4.404729184385000e+000
 0.000000000000000e+000	 1.826668000003317e+000	 4.431411176536559e+000
 1.778113173505509e-001	 1.844786600484193e+000	 4.415616021943946e+000
 1.597829833773705e-001	 1.846435421773350e+000	 4.406985663053233e+000
 1.418034328032533e-001	 1.847903154094349e+000	 4.412415319819278e+000
 1.238750620439718e-001	 1.849191494201344e+000	 4.429039227083981e+000
 1.060002164278468e-001	 1.850302172001139e+000	 4.454218434450997e+000
 8.818118986995374e-002	 1.851236949028488e+000	 4.485556145062512e+000
 7.042022459446456e-002	 1.851997616929445e+000	 4.520911218812495e+000
 5.271951090419792e-002	 1.852585995954273e+000	 4.558409789952073e+000
 3.508118699641526e-002	 1.853003933461306e+000	 4.596454962931089e+000
 1.750733882386074e-002	 1.853253302433154e+000	 4.633734563900451e+000
 0.000000000000000e+000	 1.853336000006534e+000	 4.669226933821848e+000
 1.803698778123702e-001	 1.871331581571538e+000	 4.554305363873464e+000
 1.620821307533284e-001	 1.873004128060052e+000	 4.546083149485326e+000
 1.438438690468529e-001	 1.874492979857181e+000	 4.552006515386015e+000
 1.256575235912098e-001	 1.875799858132006e+000	 4.569171111733358e+000
 1.075254734621056e-001	 1.876926517683292e+000	 4.594918384989861e+000
 8.945004558220665e-002	 1.877874745392853e+000	 4.626852701247900e+000
 7.143351443948548e-002	 1.878646358687085e+000	 4.662856467679733e+000
 5.347810185345483e-002	 1.879243204008180e+000	 4.701103195626449e+000
 3.558597678831350e-002	 1.879667155296469e+000	 4.740068464037990e+000
 1.775925521198637e-002	 1.879920112485265e+000	 4.778538756840539e+000
 0.000000000000000e+000	 1.880004000009551e+000	 4.815618157641338e+000
 1.829284382740870e-001	 1.897876562659040e+000	 4.668470905863464e+000
 1.643812781291512e-001	 1.899572834346869e+000	 4.655389905830861e+000
 1.458843052902834e-001	 1.901082805620080e+000	 4.656079291748432e+000
 1.274399851382471e-001	 1.902408222062676e+000	 4.667640781330072e+000
 1.090507304961390e-001	 1.903550863365390e+000	 4.687440863819059e+000
 9.071890129422065e-002	 1.904512541757102e+000	 4.713129819763432e+000
 7.244680428426906e-002	 1.905295100444551e+000	 4.742658564538527e+000
 5.423669280249519e-002	 1.905900412061864e+000	 4.774293252072923e+000
 3.609076658003904e-002	 1.906330377131367e+000	 4.806627591832611e+000
 1.801117160001025e-002	 1.906586922537085e+000	 4.838592848350046e+000
 0.000000000000000e+000	 1.906672000012268e+000	 4.869465503837030e+000
 1.854869987357526e-001	 1.924421543746556e+000	 4.758402777163341e+000
 1.666804255049065e-001	 1.926141540633660e+000	 4.735382378501003e+000
 1.479247415336293e-001	 1.927672631382903e+000	 4.725240065742867e+000
 1.292224466851840e-001	 1.929016585993217e+000	 4.725121240447711e+000
 1.105759875300598e-001	 1.930175209047304e+000	 4.732455201247984e+000
 9.198775700611518e-002	 1.931150338121113e+000	 4.744976187516980e+000
 7.346009412893398e-002	 1.931943842201728e+000	 4.760742063461455e+000
 5.499528375142728e-002	 1.932557620115213e+000	 4.778150571391381e+000
 3.659555637167828e-002	 1.932993598965896e+000	 4.795953101001290e+000
 1.826308798798325e-002	 1.933253732588513e+000	 4.813265939201415e+000
 0.000000000000000e+000	 1.933340000014584e+000	 4.829578977805055e+000
 1.880455591974182e-001	 1.950966524833943e+000	 4.824282413616235e+000
 1.689795728806618e-001	 1.952710246920282e+000	 4.786426831200040e+000
 1.499651777769752e-001	 1.954262457145510e+000	 4.759984788535994e+000
 1.310049082321210e-001	 1.955624949923494e+000	 4.742175982006574e+000
 1.121012445639806e-001	 1.956799554728904e+000	 4.730523435951469e+000
 9.325661271800977e-002	 1.957788134484761e+000	 4.722876713698594e+000
 7.447338397359894e-002	 1.958592583958498e+000	 4.717432575863214e+000
 5.575387470035939e-002	 1.959214828168119e+000	 4.712753006272546e+000
 3.710034616331752e-002	 1.959656820799952e+000	 4.707780545543716e+000
 1.851500437595628e-002	 1.959920542639449e+000	 4.701850891605411e+000
 0.000000000000000e+000	 1.960008000016401e+000	 4.694702740869598e+000
 1.906041196591352e-001	 1.977511505921061e+000	 4.866189198239585e+000
 1.712787202564847e-001	 1.979278953206592e+000	 4.808786219485637e+000
 1.520056140204057e-001	 1.980852282907762e+000	 4.760705995245115e+000
 1.327873697791583e-001	 1.982233313853369e+000	 4.719266136701085e+000
 1.136265015980141e-001	 1.983423900410058e+000	 4.682107472834788e+000
 9.452546843002388e-002	 1.984425930847923e+000	 4.647219588834853e+000
 7.548667381838257e-002	 1.985241325714745e+000	 4.612963607870736e+000
 5.651246564939982e-002	 1.985872036220470e+000	 4.578092127462038e+000
 3.760513595504313e-002	 1.986320042633429e+000	 4.541766243039814e+000
 1.876692076398018e-002	 1.986587352689790e+000	 4.503569612229070e+000
 0.000000000000000e+000	 1.986676000017618e+000	 4.463519529548748e+000
 1.931626801209544e-001	 2.004056487007765e+000	 4.884876721658253e+000
 1.735778676324426e-001	 2.005847659492447e+000	 4.804691316716072e+000
 1.540460502640055e-001	 2.007442108669516e+000	 4.731860437530371e+000
 1.345698313263964e-001	 2.008841677782708e+000	 4.663877445892860e+000
 1.151517586322730e-001	 2.010048246090638e+000	 4.598507353203257e+000
 9.579432414227686e-002	 2.011063727210475e+000	 4.533814662545518e+000
 7.649996366340360e-002	 2.011890067470353e+000	 4.468191080366552e+000
 5.727105659865683e-002	 2.012529244272157e+000	 4.400383137767165e+000
 3.810992574694144e-002	 2.012983264466222e+000	 4.329519748230450e+000
 1.901883715210586e-002	 2.013254162739434e+000	 4.255139715604756e+000
 0.000000000000000e+000	 2.013344000018134e+000	 4.177219188219606e+000
 1.957212405829273e-001	 2.030601468093916e+000	 4.919981361762081e+000
 1.758770150086030e-001	 2.032416365777704e+000	 4.829492670902862e+000
 1.560864865078591e-001	 2.034031934430634e+000	 4.746040686695419e+000
 1.363522928739357e-001	 2.035450041711373e+000	 4.667139993188630e+000
 1.166770156668700e-001	 2.036672591770513e+000	 4.590534861376110e+000
 9.706317985488833e-002	 2.037701523572295e+000	 4.514226599583337e+000
 7.751325350878065e-002	 2.038538809225204e+000	 4.436500988321390e+000
 5.802964754823874e-002	 2.039186452323067e+000	 4.355955846566174e+000
 3.861471553909877e-002	 2.039646486298226e+000	 4.271528761325651e+000
 1.927075354038420e-002	 2.039920972788282e+000	 4.182524997452889e+000
 0.000000000000000e+000	 2.040012000017850e+000	 4.088645582733054e+000
 1.982798010451052e-001	 2.057146449179369e+000	 4.988015808185944e+000
 1.781761623850336e-001	 2.058985072062221e+000	 4.902007424448151e+000
 1.581269227520513e-001	 2.060621760190973e+000	 4.823807499980465e+000
 1.381347544218765e-001	 2.062058405639229e+000	 4.751019925237157e+000
 1.182022727019177e-001	 2.063296937449552e+000	 4.681431128521650e+000
 9.833203556797766e-002	 2.064339319933258e+000	 4.613036667700508e+000
 7.852654335463237e-002	 2.065187550979181e+000	 4.544068145981179e+000
 5.878823849825383e-002	 2.065843660373091e+000	 4.473020506522299e+000
 3.911950533160152e-002	 2.066309708129337e+000	 4.398679743437959e+000
 1.952266992886609e-002	 2.066587782836232e+000	 4.320151049812874e+000
 0.000000000000000e+000	 2.066680000016667e+000	 4.236887397351538e+000
 2.066680000016667e+000	 0.000000000000000e+000	 1.239931016858697e+001
 2.066587782836231e+000	 1.952266992886615e-002	 1.236595075674166e+001
 2.066309708129336e+000	 3.911950533160163e-002	 1.234875998925842e+001
 2.065843660373092e+000	 5.878823849825369e-002	 1.234433189440905e+001
 2.065187550979181e+000	 7.852654335463230e-002	 1.234920823560259e+001
 2.064339319933258e+000	 9.833203556797766e-002	 1.235989109595615e+001
 2.063296937449552e+000	 1.182022727019178e-001	 1.237285540632931e+001
 2.062058405639229e+000	 1.381347544218766e-001	 1.238456140164004e+001
 2.060621760190974e+000	 1.581269227520511e-001	 1.239146700741544e+001
 2.058985072062221e+000	 1.781761623850334e-001	 1.239004016266296e+001
 2.057146449179369e+000	 1.982798010451051e-001	 1.237677108930621e+001
 2.093344000014533e+000	 0.000000000000000e+000	 1.229014298594318e+001
 2.093250593061714e+000	 1.977454853201645e-002	 1.225989819599546e+001
 2.092968930676188e+000	 3.962421940982406e-002	 1.224625331916615e+001
 2.092496870040883e+000	 5.954671566582060e-002	 1.224562494712098e+001
 2.091832295620812e+000	 7.953968121516000e-002	 1.225439894858187e+001
 2.090973120823608e+000	 9.960070096278299e-002	 1.226894337303459e+001
 2.089917289675494e+000	 1.197273009603743e-001	 1.228562122042176e+001
 2.088662778511150e+000	 1.399169486144205e-001	 1.230080306212121e+001
 2.087207597675990e+000	 1.601670529465026e-001	 1.231087951638875e+001
 2.085549793239212e+000	 1.804749649069133e-001	 1.231227358616623e+001
 2.083687448715941e+000	 2.008379777426381e-001	 1.230145287188977e+001
 2.120008000011600e+000	 0.000000000000000e+000	 1.219715988633374e+001
 2.119913403286397e+000	 2.002642713537022e-002	 1.216686493808217e+001
 2.119628153222235e+000	 4.012893348839165e-002	 1.215380677047598e+001
 2.119150079707866e+000	 6.030519283382015e-002	 1.215423173778151e+001
 2.118477040261631e+000	 8.055281907616123e-002	 1.216437723093894e+001
 2.117606921713150e+000	 1.008693663580642e-001	 1.218048482085682e+001
 2.116537641900631e+000	 1.212523292192781e-001	 1.219881318437438e+001
 2.115267151382275e+000	 1.416991428073603e-001	 1.221565079899508e+001
 2.113793435160225e+000	 1.622071831412843e-001	 1.222732841114632e+001
 2.112114514415441e+000	 1.827737674290515e-001	 1.223023128805908e+001
 2.110228448251783e+000	 2.033961544403597e-001	 1.222081126872667e+001
 2.146672000008067e+000	 0.000000000000000e+000	 1.211632492204467e+001
 2.146576213510477e+000	 2.027830573887656e-002	 1.208377144567009e+001
 2.146287375767672e+000	 4.063364756721792e-002	 1.206922231676753e+001
 2.145803289374231e+000	 6.106367000214360e-002	 1.206876183740842e+001
 2.145121784901822e+000	 8.156595693751639e-002	 1.207848742157906e+001
 2.144240722602052e+000	 1.021380317536996e-001	 1.209452289422730e+001
 2.143157994125120e+000	 1.227773574785130e-001	 1.211303148342444e+001
 2.141871524252747e+000	 1.434813370005902e-001	 1.213022849290827e+001
 2.140379272643811e+000	 1.642473133363034e-001	 1.214239366168490e+001
 2.138679235591033e+000	 1.850725699513688e-001	 1.214588322338412e+001
 2.136769447787005e+000	 2.059543311382027e-001	 1.213714168410566e+001
 2.173336000004134e+000	 0.000000000000000e+000	 1.204407737071822e+001
 2.173239023734152e+000	 2.053018434248459e-002	 1.200795554849549e+001
 2.172946598312694e+000	 4.113836164621647e-002	 1.199066333260496e+001
 2.172456499040166e+000	 6.182214717068232e-002	 1.198813222097641e+001
 2.171766529541564e+000	 8.257909479910577e-002	 1.199632931226242e+001
 2.170874523490487e+000	 1.034066971495681e-001	 1.201127067222510e+001
 2.169778346349123e+000	 1.243023857379629e-001	 1.202903429706121e+001
 2.168475897122718e+000	 1.452635311940044e-001	 1.204577266245438e+001
 2.166965110126884e+000	 1.662874435314671e-001	 1.205772486733262e+001
 2.165243956766109e+000	 1.873713724737860e-001	 1.206122838804642e+001
 2.163310447321718e+000	 2.085125078360998e-001	 1.205273046546589e+001
 2.200000000000001e+000	 0.000000000000000e+000	 1.197730293669603e+001
 2.199901833957622e+000	 2.078206294614344e-002	 1.193714643626579e+001
 2.199605820857498e+000	 4.164307572530086e-002	 1.191663124965900e+001
 2.199109708705859e+000	 6.258062433932760e-002	 1.191154645968276e+001
 2.198411274181037e+000	 8.359223266080977e-002	 1.191773975029511e+001
 2.197508324378621e+000	 1.046753625455480e-001	 1.193113074705409e+001
 2.196398698572797e+000	 1.258274139975117e-001	 1.194772385129866e+001
 2.195080269992334e+000	 1.470457253874971e-001	 1.196362055875190e+001
 2.193550947609579e+000	 1.683275737266827e-001	 1.197503127421072e+001
 2.191808677940789e+000	 1.896701749962238e-001	 1.197828664151131e+001
 2.189851446856028e+000	 2.110706845339837e-001	 1.196984841552508e+001
 2.226663999995867e+000	 0.000000000000000e+000	 1.191330702152212e+001
 2.226564644181085e+000	 2.103394154980220e-002	 1.186944052055445e+001
 2.226265043402275e+000	 4.214778980438460e-002	 1.184594389175042e+001
 2.225762918371497e+000	 6.333910150797077e-002	 1.183847541218446e+001
 2.225056018820421e+000	 8.460537052250870e-002	 1.184277557037698e+001
 2.224142125266629e+000	 1.059440279415181e-001	 1.185468028237268e+001
 2.223019050796304e+000	 1.273524422570433e-001	 1.187013349089768e+001
 2.221684642861741e+000	 1.488279195809625e-001	 1.188519914057755e+001
 2.220136785092031e+000	 1.703677039218573e-001	 1.189607254398079e+001
 2.218373399115199e+000	 1.919689775186032e-001	 1.189909116161685e+001
 2.216392446390048e+000	 2.136288612317870e-001	 1.189074482742863e+001
 2.253327999991934e+000	 0.000000000000000e+000	 1.184978989221235e+001
 2.253227454404741e+000	 2.128582015341000e-002	 1.180327901087230e+001
 2.252924265947221e+000	 4.265250388338127e-002	 1.177771534974389e+001
 2.252416128037271e+000	 6.409757867650315e-002	 1.176863929064103e+001
 2.251700763459897e+000	 8.561850838408298e-002	 1.177169774550658e+001
 2.250775926154679e+000	 1.072126933373569e-001	 1.178265714423681e+001
 2.249639403019801e+000	 1.288774705164418e-001	 1.179741568705470e+001
 2.248289015731089e+000	 1.506101137742947e-001	 1.181201485711653e+001
 2.246722622574374e+000	 1.724078341168981e-001	 1.182265021164357e+001
 2.244938120289457e+000	 1.942677800408449e-001	 1.182568147914290e+001
 2.242933445923886e+000	 2.161870379294425e-001	 1.181764199959611e+001
 2.279991999988401e+000	 0.000000000000000e+000	 1.178482359193342e+001
 2.279890264628786e+000	 2.153769875691595e-002	 1.173742706458991e+001
 2.279583488492532e+000	 4.315721796220443e-002	 1.171133727023885e+001
 2.279069337703367e+000	 6.485605584481599e-002	 1.170199098902182e+001
 2.278345508099645e+000	 8.663164624541291e-002	 1.170495665715040e+001
 2.277409727042943e+000	 1.084813587329429e-001	 1.171594701684492e+001
 2.276259755243449e+000	 1.304024987755909e-001	 1.173083090397583e+001
 2.274893388600523e+000	 1.523923079673880e-001	 1.174564417221719e+001
 2.273308460056743e+000	 1.744479643117125e-001	 1.175659977598439e+001
 2.271502841463688e+000	 1.965665825628696e-001	 1.176009704467239e+001
 2.269474445457651e+000	 2.187452146268828e-001	 1.175273019099483e+001
 2.306655999985467e+000	 0.000000000000000e+000	 1.171683045209944e+001
 2.306553074853420e+000	 2.178957736026917e-002	 1.167095438335629e+001
 2.306242711038400e+000	 4.366193204076763e-002	 1.164646144365231e+001
 2.305722547369975e+000	 6.561453301280069e-002	 1.163870057153382e+001
 2.304990252739845e+000	 8.764478410637885e-002	 1.164317839410509e+001
 2.304043527931590e+000	 1.097500241281548e-001	 1.165557142339899e+001
 2.302880107467407e+000	 1.319275270343746e-001	 1.167173725483675e+001
 2.301497761470192e+000	 1.541745021601365e-001	 1.168772477014613e+001
 2.299894297539273e+000	 1.764880945062075e-001	 1.169978337147004e+001
 2.298067562638013e+000	 1.988653850845982e-001	 1.170437128467669e+001
 2.296015444991454e+000	 2.213033913240406e-001	 1.169816298120087e+001
 2.333319999983334e+000	 0.000000000000000e+000	 1.164456307778599e+001
 2.333215885078842e+000	 2.204145596341876e-002	 1.160321714030852e+001
 2.332901933585021e+000	 4.416664611898443e-002	 1.158298358775524e+001
 2.332375757037283e+000	 6.637301018034852e-002	 1.157914082837192e+001
 2.331634997380677e+000	 8.865792196686113e-002	 1.158715199776666e+001
 2.330677328820791e+000	 1.110186895228712e-001	 1.160267657967899e+001
 2.329500459691833e+000	 1.334525552926768e-001	 1.162158088398507e+001
 2.328102134340243e+000	 1.559566963524343e-001	 1.163994738833126e+001
 2.326480135022099e+000	 1.785282247002904e-001	 1.165408297508646e+001
 2.324632283812556e+000	 2.011641876059514e-001	 1.166052610768575e+001
 2.322556444525403e+000	 2.238615680208486e-001	 1.165605300286897e+001
 2.057146449179369e+000	 1.982798010451051e-001	 1.237677108930621e+001
 2.055104359927541e+000	 2.184320901207318e-001	 1.236342178330906e+001
 2.052856731816378e+000	 2.386332932476165e-001	 1.236211232604208e+001
 2.050401795018658e+000	 2.588806154148092e-001	 1.236995562778389e+001
 2.047737823409130e+000	 2.791712079452241e-001	 1.238414362405860e+001
 2.044863136261900e+000	 2.995021691400968e-001	 1.240195882105229e+001
 2.041776099945052e+000	 3.198705449804656e-001	 1.242078588463540e+001
 2.038475129610468e+000	 3.402733298862165e-001	 1.243812330895747e+001
 2.034958690876766e+000	 3.607074675331576e-001	 1.245159520321354e+001
 2.031225301503230e+000	 3.811698517285159e-001	 1.245896323737524e+001
 2.027273533052570e+000	 4.016573273451569e-001	 1.245813878937388e+001
 2.083687448715941e+000	 2.008379777426381e-001	 1.230145287188978e+001
 2.081619012730616e+000	 2.212502686744141e-001	 1.229036196692659e+001
 2.079342386053916e+000	 2.417121047393327e-001	 1.229124764335626e+001
 2.076855776024568e+000	 2.622206548656227e-001	 1.230114409509827e+001
 2.074157434247109e+000	 2.827730336229843e-001	 1.231718047199292e+001
 2.071245658311171e+000	 3.033663018753616e-001	 1.233659211353165e+001
 2.068118793507961e+000	 3.239974674914737e-001	 1.235673179074683e+001
 2.064775234541886e+000	 3.446634861136526e-001	 1.237508099857802e+001
 2.061213427235205e+000	 3.653612619854609e-001	 1.238926134408418e+001
 2.057431870223552e+000	 3.860876488384815e-001	 1.239704607843885e+001
 2.053429116640150e+000	 4.068394508385930e-001	 1.239637182267022e+001
 2.110228448251783e+000	 2.033961544403597e-001	 1.222081126872667e+001
 2.108133665533004e+000	 2.240684472282250e-001	 1.221113804255479e+001
 2.105828040290817e+000	 2.447909162311279e-001	 1.221352871150739e+001
 2.103309757029900e+000	 2.655606943164766e-001	 1.222494706187951e+001
 2.100577045084579e+000	 2.863748593007571e-001	 1.224246720457685e+001
 2.097628180360006e+000	 3.072304346106214e-001	 1.226328438121344e+001
 2.094461487070513e+000	 3.281243900024697e-001	 1.228472574189636e+001
 2.091075339473031e+000	 3.490536423410803e-001	 1.230426114407698e+001
 2.087468163593456e+000	 3.700150564377693e-001	 1.231951402535437e+001
 2.083638438943774e+000	 3.910054459484762e-001	 1.232827240608517e+001
 2.079584700227718e+000	 4.120215743320919e-001	 1.232850008003427e+001
 2.136769447787005e+000	 2.059543311382027e-001	 1.213714168410566e+001
 2.134648318334801e+000	 2.268866257821053e-001	 1.212831193697330e+001
 2.132313694527165e+000	 2.478697277229482e-001	 1.213173073635745e+001
 2.129763738034729e+000	 2.689007337673182e-001	 1.214430139265364e+001
 2.126996655921599e+000	 2.899766849784880e-001	 1.216305238045934e+001
 2.124010702408456e+000	 3.110945673458185e-001	 1.218514759389491e+001
 2.120804180632748e+000	 3.322513125133902e-001	 1.220789653599084e+001
 2.117375444403931e+000	 3.534437985684282e-001	 1.222876449933447e+001
 2.113722899951540e+000	 3.746688508900029e-001	 1.224538279916116e+001
 2.109845007663906e+000	 3.959232430584103e-001	 1.225555912347831e+001
 2.105740283815281e+000	 4.172036978255548e-001	 1.225728806756737e+001
 2.163310447321718e+000	 2.085125078360998e-001	 1.205273046546589e+001
 2.161162971136105e+000	 2.297048043359963e-001	 1.204440078967910e+001
 2.158799348763049e+000	 2.509485392147393e-001	 1.204855063951741e+001
 2.156217719039129e+000	 2.722407732180951e-001	 1.206203447232696e+001
 2.153416266758237e+000	 2.935785106561236e-001	 1.208184625015531e+001
 2.150393224456572e+000	 3.149587000808951e-001	 1.210512901360582e+001
 2.147146874194708e+000	 3.363782350241716e-001	 1.212918435086703e+001
 2.143675549334621e+000	 3.578339547956261e-001	 1.215148182771604e+001
 2.139977636309479e+000	 3.793226453420825e-001	 1.216966844880246e+001
 2.136051576383962e+000	 4.008410401681957e-001	 1.218157822439659e+001
 2.131895867402834e+000	 4.223858213188828e-001	 1.218524191994012e+001
 2.189851446856028e+000	 2.110706845339837e-001	 1.196984841552508e+001
 2.187677623937013e+000	 2.325229828898390e-001	 1.196187205226426e+001
 2.185285002998553e+000	 2.540273507064468e-001	 1.196660365676937e+001
 2.182671700043172e+000	 2.755808126687546e-001	 1.198086221716820e+001
 2.179835877594552e+000	 2.971803363336100e-001	 1.200162009485653e+001
 2.176775746504409e+000	 3.188228328157937e-001	 1.202601177829889e+001
 2.173489567756436e+000	 3.405051575347510e-001	 1.205134249171991e+001
 2.169975654265129e+000	 3.622241110226026e-001	 1.207509673392272e+001
 2.166232372667292e+000	 3.839764397939289e-001	 1.209494682753461e+001
 2.162258145103953e+000	 4.057588372777426e-001	 1.210876156335427e+001
 2.158051450990382e+000	 4.275679448119764e-001	 1.211461502806922e+001
 2.216392446390048e+000	 2.136288612317870e-001	 1.189074482742862e+001
 2.214192276737622e+000	 2.353411614435744e-001	 1.188313901091476e+001
 2.211770657233760e+000	 2.571061621980169e-001	 1.188842026800358e+001
 2.209125681046936e+000	 2.789208521192439e-001	 1.190338733396184e+001
 2.206255488430610e+000	 3.007821620108933e-001	 1.192500573829982e+001
 2.203158268552019e+000	 3.226869655504569e-001	 1.195041559167281e+001
 2.199832261317972e+000	 3.446320800450645e-001	 1.197693918587808e+001
 2.196275759195487e+000	 3.666142672492870e-001	 1.200208849249098e+001
 2.192487109025002e+000	 3.886302342454619e-001	 1.202357265134718e+001
 2.188464713823888e+000	 4.106766343869623e-001	 1.203930554498612e+001
 2.184207034577926e+000	 4.327500683047373e-001	 1.204741355922890e+001
 2.242933445923886e+000	 2.161870379294425e-001	 1.181764199959611e+001
 2.240706929538030e+000	 2.381593399971436e-001	 1.181055669698294e+001
 2.238256311468759e+000	 2.601849736893952e-001	 1.181644343120902e+001
 2.235579662050491e+000	 2.822608915695107e-001	 1.183209780677644e+001
 2.232675099266471e+000	 3.043839876879194e-001	 1.185449521735744e+001
 2.229540790599451e+000	 3.265510982848271e-001	 1.188079751033408e+001
 2.226174954879359e+000	 3.487590025550492e-001	 1.190835942100334e+001
 2.222575864125728e+000	 3.710044234756086e-001	 1.193473487321651e+001
 2.218741845382629e+000	 3.932840286966024e-001	 1.195768324952446e+001
 2.214671282543780e+000	 4.155944314957660e-001	 1.197517573937942e+001
 2.210362618165463e+000	 4.379321917970662e-001	 1.198540187850116e+001
 2.269474445457651e+000	 2.187452146268828e-001	 1.175273019099484e+001
 2.267221582338333e+000	 2.409775185504877e-001	 1.174641815386329e+001
 2.264741965703633e+000	 2.632637851805277e-001	 1.175302609562650e+001
 2.262033643053913e+000	 2.856009310195024e-001	 1.176936559271162e+001
 2.259094710102200e+000	 3.079858133646347e-001	 1.179244059835395e+001
 2.255923312646760e+000	 3.304152310188462e-001	 1.181945282032798e+001
 2.252517648440637e+000	 3.528859250646414e-001	 1.184780682315590e+001
 2.248875969055882e+000	 3.753945797014968e-001	 1.187511496375201e+001
 2.244996581740197e+000	 3.979378231472712e-001	 1.189920227644556e+001
 2.240877851263638e+000	 4.205122286040643e-001	 1.191811142941328e+001
 2.236518201752999e+000	 4.431143152888640e-001	 1.193010787963972e+001
 2.296015444991454e+000	 2.213033913240406e-001	 1.169816298120087e+001
 2.293736235138629e+000	 2.437956971035477e-001	 1.169295103133906e+001
 2.291227619938468e+000	 2.663425966713601e-001	 1.170042897147382e+001
 2.288487624057276e+000	 2.889409704691661e-001	 1.171744550971371e+001
 2.285514320937859e+000	 3.115876390409852e-001	 1.174105392731640e+001
 2.282305834693997e+000	 3.342793637524572e-001	 1.176851599580551e+001
 2.278860342001849e+000	 3.570128475737778e-001	 1.179730557149869e+001
 2.275176073985981e+000	 3.797847359268805e-001	 1.182511198960494e+001
 2.271251318097723e+000	 4.025916175973881e-001	 1.184984338775931e+001
 2.267084419983474e+000	 4.254300257117684e-001	 1.186963009560376e+001
 2.262673785340533e+000	 4.482964387800323e-001	 1.188282823267478e+001
 2.322556444525403e+000	 2.238615680208486e-001	 1.165605300286897e+001
 2.320250887939015e+000	 2.466138756562646e-001	 1.165231448120501e+001
 2.317713274173349e+000	 2.694214081618382e-001	 1.166081853571771e+001
 2.314941605060654e+000	 2.922810099184495e-001	 1.167847430109417e+001
 2.311933931773511e+000	 3.151894647169170e-001	 1.170240730344261e+001
 2.308688356741215e+000	 3.381434964856023e-001	 1.172996173325351e+001
 2.305203035563035e+000	 3.611397700823949e-001	 1.175870234670728e+001
 2.301476178916054e+000	 3.841748921516888e-001	 1.178641613174121e+001
 2.297506054455230e+000	 4.072454120468744e-001	 1.181111388377801e+001
 2.293290988703300e+000	 4.303478228187891e-001	 1.183103184345113e+001
 2.288829368928065e+000	 4.534785622704716e-001	 1.184463355491506e+001
 2.027273533052570e+000	 4.016573273451569e-001	 1.245813878937388e+001
 2.023101370489906e+000	 4.221697687133256e-001	 1.245713087853391e+001
 2.018708075208402e+000	 4.427008487803357e-001	 1.246404526859266e+001
 2.014092391253171e+000	 4.632472654263895e-001	 1.247718859478633e+001
 2.009253123036069e+000	 4.838056717963328e-001	 1.249505548033041e+001
 2.004189136910731e+000	 5.043726775313110e-001	 1.251634228364627e+001
 1.998899362722714e+000	 5.249448500593382e-001	 1.253994941233880e+001
 1.993382795332379e+000	 5.455187159444398e-001	 1.256462425335899e+001
 1.987638496108145e+000	 5.660907622939356e-001	 1.258951794950283e+001
 1.981665594387705e+000	 5.866574382233224e-001	 1.261423905902816e+001
 1.975463288904845e+000	 6.072151563781103e-001	 1.263869514839851e+001
 2.053429116640150e+000	 4.068394508385930e-001	 1.239637182267022e+001
 2.049203125452439e+000	 4.276165406946643e-001	 1.239519174955763e+001
 2.044753148524194e+000	 4.484125097233065e-001	 1.240155649276245e+001
 2.040077913696388e+000	 4.692240132012558e-001	 1.241381497529225e+001
 2.035176209955583e+000	 4.900476610927235e-001	 1.243051171378346e+001
 2.030046889029278e+000	 5.108800192969424e-001	 1.245040016594302e+001
 2.024688866956064e+000	 5.317176109553853e-001	 1.247245659771201e+001
 2.019101125628145e+000	 5.525569178183158e-001	 1.249589451549040e+001
 2.013282714303859e+000	 5.733943816702276e-001	 1.252017970473220e+001
 2.007232751087750e+000	 5.942264058136259e-001	 1.254504591131148e+001
 2.000950424375789e+000	 6.150493566104990e-001	 1.257051119626468e+001
 2.079584700227718e+000	 4.120215743320919e-001	 1.232850008003427e+001
 2.075304880415053e+000	 4.330633126761094e-001	 1.232803272083397e+001
 2.070798221840153e+000	 4.541241706664352e-001	 1.233479591136585e+001
 2.066063436139859e+000	 4.752007609763388e-001	 1.234716885829150e+001
 2.061099296875428e+000	 4.962896503893942e-001	 1.236373270604132e+001
 2.055904641148230e+000	 5.173873610629187e-001	 1.238328341830367e+001
 2.050478371189883e+000	 5.384903718518439e-001	 1.240484523330795e+001
 2.044819455924433e+000	 5.595951196926688e-001	 1.242768474732325e+001
 2.038926932500135e+000	 5.806980010470583e-001	 1.245132567652353e+001
 2.032799907788383e+000	 6.017953734045253e-001	 1.247556434212747e+001
 2.026437559847334e+000	 6.228835568435334e-001	 1.250048591750139e+001
 2.105740283815281e+000	 4.172036978255548e-001	 1.225728806756738e+001
 2.101406635377738e+000	 4.385100846575524e-001	 1.225823604152217e+001
 2.096843295156265e+000	 4.598358316096043e-001	 1.226614384114788e+001
 2.092048958583554e+000	 4.811775087515100e-001	 1.227941097259137e+001
 2.087022383795570e+000	 5.025316396862062e-001	 1.229664391214558e+001
 2.081762393267542e+000	 5.238947028290933e-001	 1.231666844851848e+001
 2.076267875424119e+000	 5.452631327485581e-001	 1.233854266022515e+001
 2.070537786221185e+000	 5.666333215673344e-001	 1.236157059243669e+001
 2.064571150696912e+000	 5.880016204242573e-001	 1.238531669308413e+001
 2.058367064489540e+000	 6.093643409958431e-001	 1.240962106241182e+001
 2.051924695319411e+000	 6.307177570770309e-001	 1.243461556349978e+001
 2.131895867402834e+000	 4.223858213188828e-001	 1.218524191994012e+001
 2.127508390340486e+000	 4.439568566388839e-001	 1.218811443553196e+001
 2.122888368472507e+000	 4.655474925526937e-001	 1.219770184255636e+001
 2.118034481027448e+000	 4.871542565266411e-001	 1.221241598694501e+001
 2.112945470715970e+000	 5.087736289830220e-001	 1.223087934948613e+001
 2.107620145387170e+000	 5.304020445953191e-001	 1.225193676825593e+001
 2.102057379658718e+000	 5.520358936453725e-001	 1.227466786509096e+001
 2.096256116518343e+000	 5.736715234421500e-001	 1.229840025122098e+001
 2.090215368894127e+000	 5.953052398016531e-001	 1.232272358236147e+001
 2.083934221191156e+000	 6.169333085874018e-001	 1.234750452757250e+001
 2.077411830791955e+000	 6.385519573108083e-001	 1.237290270902458e+001
 2.158051450990382e+000	 4.275679448119764e-001	 1.211461502806921e+001
 2.153610145303288e+000	 4.494036286199951e-001	 1.211971753946072e+001
 2.148933441788862e+000	 4.712591534955853e-001	 1.213129994766732e+001
 2.144020003471510e+000	 4.931310043016033e-001	 1.214778051071996e+001
 2.138868557636592e+000	 5.150156182797036e-001	 1.216779035694839e+001
 2.133477897507068e+000	 5.369093863614491e-001	 1.219018449935709e+001
 2.127846883893632e+000	 5.588086545421322e-001	 1.221405363089357e+001
 2.121974446815849e+000	 5.807097253169513e-001	 1.223873678744012e+001
 2.115859587091717e+000	 6.026088591790751e-001	 1.226383496022953e+001
 2.109501377893164e+000	 6.245022761790249e-001	 1.228922573297818e+001
 2.102898966264897e+000	 6.463861575446830e-001	 1.231507901133300e+001
 2.184207034577926e+000	 4.327500683047373e-001	 1.204741355922890e+001
 2.179711900266134e+000	 4.548504006007772e-001	 1.205483821217461e+001
 2.174978515105309e+000	 4.769708144381600e-001	 1.206850374310230e+001
 2.170005525915712e+000	 4.991077520762679e-001	 1.208683093686409e+001
 2.164791644557400e+000	 5.212576075761127e-001	 1.210845418743792e+001
 2.159335649627190e+000	 5.434167281273360e-001	 1.213223170817002e+001
 2.153636388128806e+000	 5.655814154386811e-001	 1.215725660805943e+001
 2.147692777113644e+000	 5.877479271915754e-001	 1.218286893360070e+001
 2.141503805289620e+000	 6.099124785563528e-001	 1.220866877024163e+001
 2.135068534595499e+000	 6.320712437705344e-001	 1.223453049065545e+001
 2.128386101738172e+000	 6.542203577784719e-001	 1.226061822876610e+001
 2.210362618165463e+000	 4.379321917970662e-001	 1.198540187850115e+001
 2.205813655229016e+000	 4.602971725811210e-001	 1.199501872666074e+001
 2.201023588421832e+000	 4.826824753802987e-001	 1.201062131994459e+001
 2.195991048360028e+000	 5.050844998505065e-001	 1.203063114022889e+001
 2.190714731478355e+000	 5.274995968721120e-001	 1.205368244758066e+001
 2.185193401747493e+000	 5.499240698928333e-001	 1.207863158216571e+001
 2.179425892364189e+000	 5.723541763348634e-001	 1.210456722602591e+001
 2.173411107411672e+000	 5.947861290658582e-001	 1.213082173795655e+001
 2.167148023487771e+000	 6.172160979333151e-001	 1.215698366890001e+001
 2.160635691298096e+000	 6.396402113617532e-001	 1.218291155793577e+001
 2.153873237211714e+000	 6.620545580119925e-001	 1.220874910007856e+001
 2.236518201752999e+000	 4.431143152888640e-001	 1.193010787963971e+001
 2.231915410191926e+000	 4.657439445609178e-001	 1.194155685378605e+001
 2.227068661738412e+000	 4.883941363218828e-001	 1.195871010153969e+001
 2.221976570804428e+000	 5.110612476241907e-001	 1.197999004308716e+001
 2.216637818399421e+000	 5.337415861675627e-001	 1.200402939710592e+001
 2.211051153867931e+000	 5.564314116577933e-001	 1.202967946174251e+001
 2.205215396599727e+000	 5.791269372305239e-001	 1.205601945836403e+001
 2.199129437709874e+000	 6.018243309396368e-001	 1.208236706611159e+001
 2.192792241686112e+000	 6.245197173097915e-001	 1.210829026908874e+001
 2.186202848000890e+000	 6.472091789525045e-001	 1.213362063017156e+001
 2.179360372685457e+000	 6.698887582450618e-001	 1.215855110665964e+001
 2.262673785340533e+000	 4.482964387800323e-001	 1.188282823267478e+001
 2.258017165154852e+000	 4.711907165400585e-001	 1.189551184670593e+001
 2.253113735055028e+000	 4.941057972627939e-001	 1.191358355905743e+001
 2.247962093248883e+000	 5.170379953971916e-001	 1.193546905858880e+001
 2.242560905320561e+000	 5.399835754623272e-001	 1.195980011926407e+001
 2.236908905988459e+000	 5.629387534220696e-001	 1.198542173893579e+001
 2.231004900835369e+000	 5.858996981255067e-001	 1.201140045329961e+001
 2.224847768008192e+000	 6.088625328127471e-001	 1.203703396898493e+001
 2.218436459884576e+000	 6.318233366856108e-001	 1.206186225314515e+001
 2.211770004703814e+000	 6.547781465426102e-001	 1.208568020852024e+001
 2.204847508159331e+000	 6.777229584774968e-001	 1.210959703756803e+001
 2.288829368928065e+000	 4.534785622704716e-001	 1.184463355491507e+001
 2.284118920117788e+000	 4.766374885184339e-001	 1.185771033386669e+001
 2.279158808371665e+000	 4.998174582029122e-001	 1.187581782379132e+001
 2.273947615693367e+000	 5.230147431693808e-001	 1.189738942191542e+001
 2.268483992241738e+000	 5.462255647562675e-001	 1.192105857259165e+001
 2.262766658109032e+000	 5.694460951855148e-001	 1.194566463367582e+001
 2.256794405071063e+000	 5.926724590196567e-001	 1.197026004039795e+001
 2.250566098306568e+000	 6.159007346850259e-001	 1.199411892782713e+001
 2.244080678083104e+000	 6.391269560606027e-001	 1.201674736599855e+001
 2.237337161406804e+000	 6.623471141318938e-001	 1.203789535279238e+001
 2.230334643633273e+000	 6.855571587091147e-001	 1.206079267806632e+001
 1.975463288904845e+000	 6.072151563781103e-001	 1.263869514839851e+001
 1.969030848685419e+000	 6.277602942109749e-001	 1.266047050823372e+001
 1.962367612913845e+000	 6.482891946827240e-001	 1.267699391259290e+001
 1.955472993722270e+000	 6.687981688007213e-001	 1.268841516277814e+001
 1.948346477952993e+000	 6.892834976536050e-001	 1.269775922768937e+001
 1.940987628381445e+000	 7.097414342048217e-001	 1.270721726458008e+001
 1.933396084890728e+000	 7.301682051371444e-001	 1.271727629131894e+001
 1.925571565595462e+000	 7.505600127467703e-001	 1.272856882414220e+001
 1.917513867912702e+000	 7.709130368854965e-001	 1.274187123965444e+001
 1.909222869577758e+000	 7.912234369493599e-001	 1.275810182869429e+001
 1.900698529602766e+000	 8.114873539120181e-001	 1.277831854626187e+001
 2.000950424375789e+000	 6.150493566104990e-001	 1.257051119626468e+001
 1.994434993762919e+000	 6.358595647759501e-001	 1.259353509027676e+001
 1.987685789907810e+000	 6.566533260882138e-001	 1.261061983436629e+001
 1.980702217358025e+000	 6.774269039598259e-001	 1.262250738262513e+001
 1.973483756335180e+000	 6.981765314985874e-001	 1.263321268878034e+001
 1.966029963973694e+000	 7.188984133242424e-001	 1.264372887272734e+001
 1.958340475510495e+000	 7.395887274367914e-001	 1.265461783328011e+001
 1.950415005423359e+000	 7.602436271350284e-001	 1.266658984858074e+001
 1.942253348515647e+000	 7.808592429837707e-001	 1.268050169637281e+001
 1.933855380945223e+000	 8.014316848281606e-001	 1.269735446195298e+001
 1.925221061195408e+000	 8.219570438532781e-001	 1.271829103874236e+001
 2.026437559847334e+000	 6.228835568435334e-001	 1.250048591750139e+001
 2.019839138841012e+000	 6.439588353416125e-001	 1.252295459114025e+001
 2.013003966902344e+000	 6.650174574944245e-001	 1.253950407082708e+001
 2.005931440994312e+000	 6.860556391196769e-001	 1.255246769008955e+001
 1.998621034717845e+000	 7.070695653443356e-001	 1.256522735484452e+001
 1.991072299566360e+000	 7.280553924444430e-001	 1.257770733583490e+001
 1.983284866130609e+000	 7.490092497372286e-001	 1.259024738073872e+001
 1.975258445251525e+000	 7.699272415240817e-001	 1.260362301472503e+001
 1.966992829118775e+000	 7.908054490828436e-001	 1.261875899788899e+001
 1.958487892312784e+000	 8.116399327077613e-001	 1.263672690823091e+001
 1.949743592788055e+000	 8.324267337953375e-001	 1.265874241461325e+001
 2.051924695319411e+000	 6.307177570770309e-001	 1.243461556349978e+001
 2.045243283919631e+000	 6.520581059077750e-001	 1.245677944688179e+001
 2.038322143897384e+000	 6.733815889011648e-001	 1.247247464814569e+001
 2.031160664631070e+000	 6.946843742800805e-001	 1.248592294559750e+001
 2.023758313100938e+000	 7.159625991906542e-001	 1.249884289627131e+001
 2.016114635159398e+000	 7.372123715652268e-001	 1.251173491858674e+001
 2.008229256751030e+000	 7.584297720382565e-001	 1.252524908584118e+001
 2.000101885079928e+000	 7.796108559137310e-001	 1.254018364703825e+001
 1.991732309722068e+000	 8.007516551825156e-001	 1.255705782155692e+001
 1.983120403680432e+000	 8.218481805879621e-001	 1.257654200606744e+001
 1.974266124380708e+000	 8.428964237379968e-001	 1.259991316406964e+001
 2.077411830791955e+000	 6.385519573108083e-001	 1.237290270902458e+001
 2.070647428998710e+000	 6.601573764742490e-001	 1.239500900001224e+001
 2.063640320892865e+000	 6.817457203082433e-001	 1.241099321164962e+001
 2.056389888268241e+000	 7.033131094408428e-001	 1.242543478184058e+001
 2.048895591484403e+000	 7.248556330373464e-001	 1.243899693054912e+001
 2.041156970752760e+000	 7.463693506863948e-001	 1.245220699191015e+001
 2.033173647371722e+000	 7.678502943396767e-001	 1.246574372025062e+001
 2.024945324908542e+000	 7.892944703037774e-001	 1.248043580394007e+001
 2.016471790325502e+000	 8.106978612825859e-001	 1.249726005899740e+001
 2.007752915048153e+000	 8.320564284685622e-001	 1.251733928748793e+001
 1.998788655973365e+000	 8.533661136810563e-001	 1.254193220300371e+001
 2.102898966264897e+000	 6.463861575446830e-001	 1.231507901133300e+001
 2.096051574078183e+000	 6.682566470408484e-001	 1.233711881100114e+001
 2.088958497888727e+000	 6.901098517154685e-001	 1.235445925996700e+001
 2.081619111905765e+000	 7.119418446017694e-001	 1.237019705136474e+001
 2.074032869868189e+000	 7.337486668842165e-001	 1.238472033095066e+001
 2.066199306346401e+000	 7.555263298077501e-001	 1.239857139878570e+001
 2.058118037992645e+000	 7.772708166412899e-001	 1.241244555142101e+001
 2.049788764737333e+000	 7.989780846940209e-001	 1.242718963009424e+001
 2.041211270929059e+000	 8.206440673828559e-001	 1.244380025942498e+001
 2.032385426415939e+000	 8.422646763493622e-001	 1.246342176003181e+001
 2.023311187566027e+000	 8.638358036243159e-001	 1.248734371756670e+001
 2.128386101738172e+000	 6.542203577784719e-001	 1.226061822876610e+001
 2.121455719157986e+000	 6.763559176073852e-001	 1.228297011755771e+001
 2.114276674884903e+000	 6.984739831226499e-001	 1.230203566707463e+001
 2.106848335543585e+000	 7.205705797626663e-001	 1.231918815653762e+001
 2.099170148252240e+000	 7.426417007310675e-001	 1.233481783639594e+001
 2.091241641940274e+000	 7.646833089290945e-001	 1.234947041037079e+001
 2.083062428613760e+000	 7.866913389428978e-001	 1.236384593970522e+001
 2.074632204566274e+000	 8.086616990842620e-001	 1.237879746829428e+001
 2.065950751532719e+000	 8.305902734831250e-001	 1.239532935161485e+001
 2.057017937783778e+000	 8.524729242301623e-001	 1.241459527107187e+001
 2.047833719158692e+000	 8.743054935675753e-001	 1.243789591421924e+001
 2.153873237211714e+000	 6.620545580119925e-001	 1.220874910007856e+001
 2.146859864238053e+000	 6.844551881736720e-001	 1.223199472352358e+001
 2.139594851881333e+000	 7.068381145295958e-001	 1.225267495623550e+001
 2.132077559181639e+000	 7.291993149233395e-001	 1.227118044922614e+001
 2.124307426636505e+000	 7.515347345777036e-001	 1.228789261441638e+001
 2.116283977534334e+000	 7.738402880502304e-001	 1.230334933209694e+001
 2.108006819235030e+000	 7.961118612443013e-001	 1.231824395832617e+001
 2.099475644395333e+000	 8.183453134743010e-001	 1.233342407097216e+001
 2.090690232136461e+000	 8.405364795831936e-001	 1.234988993557020e+001
 2.081650449151659e+000	 8.626811721107623e-001	 1.236879267060115e+001
 2.072356250751360e+000	 8.847751835106346e-001	 1.239143209038336e+001
 2.179360372685457e+000	 6.698887582450618e-001	 1.215855110665964e+001
 2.172264009318315e+000	 6.925544587395214e-001	 1.218313017353261e+001
 2.164913028877952e+000	 7.152022459361156e-001	 1.220512826397180e+001
 2.157306782819872e+000	 7.378280500835952e-001	 1.222474952706663e+001
 2.149444705020930e+000	 7.604277684239289e-001	 1.224235590661526e+001
 2.141326313128531e+000	 7.829972671709592e-001	 1.225846651585264e+001
 2.132951209856413e+000	 8.055323835453013e-001	 1.227375679042665e+001
 2.124319084224482e+000	 8.280289278639389e-001	 1.228905740084974e+001
 2.115429712740264e+000	 8.504826856828617e-001	 1.230535290365918e+001
 2.106282960519573e+000	 8.728894199909624e-001	 1.232378010866539e+001
 2.096878782344030e+000	 8.952448734532940e-001	 1.234562613797883e+001
 2.204847508159331e+000	 6.777229584774968e-001	 1.210959703756803e+001
 2.197668154398711e+000	 7.006537293047456e-001	 1.213511677763429e+001
 2.190231205874697e+000	 7.235663773420179e-001	 1.215795420220497e+001
 2.182536006458222e+000	 7.464567852432394e-001	 1.217828343469618e+001
 2.174581983405460e+000	 7.693208022695464e-001	 1.219643658507714e+001
 2.166368648722823e+000	 7.921542462910846e-001	 1.221290328818815e+001
 2.157895600477876e+000	 8.149529058456997e-001	 1.222833004619494e+001
 2.149162524053690e+000	 8.377125422529760e-001	 1.224351935459440e+001
 2.140169193344107e+000	 8.604288917819297e-001	 1.225942858887105e+001
 2.130915471887508e+000	 8.830976678705622e-001	 1.227716862673134e+001
 2.121401313936701e+000	 9.057145633953535e-001	 1.229800217885682e+001
 2.230334643633273e+000	 6.855571587091147e-001	 1.206079267806632e+001
 2.223072299479172e+000	 7.087529998691573e-001	 1.208650604929263e+001
 2.215549382871506e+000	 7.319305087471114e-001	 1.210952762671227e+001
 2.207765230096631e+000	 7.550855204020772e-001	 1.212999177755050e+001
 2.199719261790046e+000	 7.782138361143607e-001	 1.214819062685067e+001
 2.191410984317160e+000	 8.013112254104075e-001	 1.216457380126172e+001
 2.182839991099376e+000	 8.243734281452965e-001	 1.217974800646157e+001
 2.174005963882928e+000	 8.473961566412124e-001	 1.219447641564032e+001
 2.164908673947971e+000	 8.703750978801975e-001	 1.220967784379970e+001
 2.155547983255453e+000	 8.933059157493628e-001	 1.222642568011356e+001
 2.145923845529373e+000	 9.161842533366132e-001	 1.224594654827537e+001
 1.900698529602766e+000	 8.114873539120181e-001	 1.277831854626187e+001
 1.891942220492132e+000	 8.316978846581148e-001	 1.279856782324785e+001
 1.882952806529170e+000	 8.518541852139021e-001	 1.281430266554935e+001
 1.873730497067709e+000	 8.719523567309262e-001	 1.282586793451184e+001
 1.864275585902089e+000	 8.919884905296139e-001	 1.283371905485359e+001
 1.854588451907370e+000	 9.119586703247523e-001	 1.283842010282012e+001
 1.844669559610956e+000	 9.318589744831690e-001	 1.284064168666392e+001
 1.834519459694026e+000	 9.516854783112039e-001	 1.284115862434070e+001
 1.824138789421242e+000	 9.714342563694888e-001	 1.284084742351390e+001
 1.813528272997309e+000	 9.911013848124718e-001	 1.284068356914506e+001
 1.802688721849068e+000	 1.010682943750032e+000	 1.284172905315402e+001
 1.925221061195408e+000	 8.219570438532781e-001	 1.271829103874236e+001
 1.916351779478452e+000	 8.424283278807977e-001	 1.273922614475993e+001
 1.907246385424817e+000	 8.628446820481397e-001	 1.275545226067897e+001
 1.897905091089386e+000	 8.832021572044753e-001	 1.276735961573380e+001
 1.888328194056983e+000	 9.034967942410130e-001	 1.277545231254756e+001
 1.878516078090858e+000	 9.237246263451977e-001	 1.278034630197971e+001
 1.868469213711673e+000	 9.438816812875146e-001	 1.278276714933035e+001
 1.858188158705416e+000	 9.639639837384756e-001	 1.278354759702416e+001
 1.847673558558638e+000	 9.839675576132633e-001	 1.278362492905521e+001
 1.836926146819623e+000	 1.003888428441440e+000	 1.278403814262188e+001
 1.825946745384119e+000	 1.023722625759030e+000	 1.278591637555987e+001
 1.949743592788055e+000	 8.324267337953375e-001	 1.265874241461325e+001
 1.940761338464687e+000	 8.531587711042798e-001	 1.268061268601648e+001
 1.931539964320292e+000	 8.738351788831774e-001	 1.269751344201928e+001
 1.922079685110801e+000	 8.944519576788236e-001	 1.270989762724187e+001
 1.912380802211533e+000	 9.150050979532125e-001	 1.271833551187433e+001
 1.902443704273920e+000	 9.354905823664447e-001	 1.272351252728171e+001
 1.892268867811892e+000	 9.559043880926642e-001	 1.272622689198320e+001
 1.881856857716237e+000	 9.762424891665525e-001	 1.272738703339205e+001
 1.871208327695403e+000	 9.965008588578462e-001	 1.272800881082369e+001
 1.860324020641252e+000	 1.016675472071220e+000	 1.272920300461127e+001
 1.849204768918440e+000	 1.036762307768845e+000	 1.273221227060509e+001
 1.974266124380708e+000	 8.428964237379968e-001	 1.259991316406964e+001
 1.965170897450847e+000	 8.638892143283621e-001	 1.262289215973103e+001
 1.955833543215612e+000	 8.848256757188150e-001	 1.264057803396319e+001
 1.946254279131986e+000	 9.057017581537731e-001	 1.265350341843353e+001
 1.936433410365777e+000	 9.265134016660142e-001	 1.266232185291303e+001
 1.926371330456609e+000	 9.472565383882964e-001	 1.266780545623458e+001
 1.916068521911670e+000	 9.679270948984196e-001	 1.267084238668043e+001
 1.905525556726559e+000	 9.885209945952411e-001	 1.267243409748664e+001
 1.894743096831615e+000	 1.009034160103045e+000	 1.267369239322435e+001
 1.883721894462284e+000	 1.029462515701623e+000	 1.267582778556762e+001
 1.872462792452129e+000	 1.049801989779293e+000	 1.268018202479898e+001
 1.998788655973365e+000	 8.533661136810563e-001	 1.254193220300371e+001
 1.989580456436942e+000	 8.746196575528440e-001	 1.256611684198874e+001
 1.980127122110799e+000	 8.958161725548529e-001	 1.258462457031543e+001
 1.970428873152970e+000	 9.169515586291239e-001	 1.259808432147699e+001
 1.960486018519757e+000	 9.380217053792193e-001	 1.260724963798230e+001
 1.950298956638970e+000	 9.590224944105530e-001	 1.261299615279121e+001
 1.939868176011067e+000	 9.799498017045860e-001	 1.261631885933012e+001
 1.929194255736452e+000	 1.000799500024346e+000	 1.261832917610708e+001
 1.918277865967356e+000	 1.021567461348670e+000	 1.262024222706593e+001
 1.907119768282811e+000	 1.042249559332463e+000	 1.262341390990960e+001
 1.895720815985286e+000	 1.062841671790190e+000	 1.262927334480323e+001
 2.023311187566027e+000	 8.638358036243159e-001	 1.248734371756670e+001
 2.013990015422981e+000	 8.853501007775261e-001	 1.251108297708190e+001
 2.004420701005870e+000	 9.068066693910915e-001	 1.252960194456584e+001
 1.994603467173784e+000	 9.282013591046769e-001	 1.254343764468274e+001
 1.984538626673510e+000	 9.495300090926281e-001	 1.255284652398200e+001
 1.974226582821057e+000	 9.707884504330185e-001	 1.255874448027076e+001
 1.963667830110143e+000	 9.919725085109665e-001	 1.256224986314789e+001
 1.952862954745983e+000	 1.013078005453673e+000	 1.256458975811951e+001
 1.941812635102705e+000	 1.034100762594528e+000	 1.256714237237778e+001
 1.930517642102919e+000	 1.055036602963550e+000	 1.257136100171117e+001
 1.918978839518010e+000	 1.075881353801352e+000	 1.257882153916304e+001
 2.047833719158692e+000	 8.743054935675753e-001	 1.243789591421924e+001
 2.038399574408974e+000	 8.960805440022087e-001	 1.246068883957743e+001
 2.028714279900847e+000	 9.177971662273304e-001	 1.247793796135601e+001
 2.018778061194453e+000	 9.394511595802317e-001	 1.249039825774687e+001
 2.008591234827077e+000	 9.610383128060426e-001	 1.249895326585730e+001
 1.998154209002917e+000	 9.825544064554941e-001	 1.250460339987487e+001
 1.987467484208959e+000	 1.003995215317365e+000	 1.250812173406433e+001
 1.976531653755224e+000	 1.025356510883029e+000	 1.251065959781682e+001
 1.965347404237740e+000	 1.046634063840428e+000	 1.251373842611370e+001
 1.953915515922700e+000	 1.067823646594697e+000	 1.251896117177213e+001
 1.942236863050402e+000	 1.088921035812597e+000	 1.252805456941222e+001
 2.072356250751360e+000	 8.847751835106346e-001	 1.239143209038336e+001
 2.062809133394929e+000	 9.068109872266907e-001	 1.241321404920596e+001
 2.053007858795747e+000	 9.287876630633706e-001	 1.242912762098544e+001
 2.042952655215010e+000	 9.507009600555888e-001	 1.244004696086822e+001
 2.032643842980497e+000	 9.725466165192632e-001	 1.244697883962063e+001
 2.022081835184600e+000	 9.943203624777819e-001	 1.245106024915157e+001
 2.011267138307571e+000	 1.016017922123584e+000	 1.245354446689095e+001
 2.000200352764243e+000	 1.037635016312218e+000	 1.245584467968446e+001
 1.988882173372540e+000	 1.059167365086179e+000	 1.245928379102321e+001
 1.977313389742244e+000	 1.080610690225716e+000	 1.246540381035030e+001
 1.965494886582561e+000	 1.101960717823740e+000	 1.247609798137329e+001
 2.096878782344030e+000	 8.952448734532940e-001	 1.234562613797883e+001
 2.087218692380858e+000	 9.175414304507734e-001	 1.236625000154941e+001
 2.077301437690591e+000	 9.397781598990115e-001	 1.238068624998140e+001
 2.067127249235484e+000	 9.619507605305498e-001	 1.238993967201017e+001
 2.056696451133809e+000	 9.840549202320910e-001	 1.239515180252839e+001
 2.046009461366154e+000	 1.006086318499684e+000	 1.239759857446401e+001
 2.035066792406040e+000	 1.028040628929428e+000	 1.239867760040436e+001
 2.023869051773110e+000	 1.049913521741047e+000	 1.239994692782342e+001
 2.012416942507187e+000	 1.071700666331588e+000	 1.240305432338557e+001
 2.000711263561638e+000	 1.093397733856419e+000	 1.240978055217371e+001
 1.988752910114585e+000	 1.115000399834598e+000	 1.242197972646072e+001
 2.121401313936701e+000	 9.057145633953535e-001	 1.229800217885682e+001
 2.111628251366767e+000	 9.282718736742562e-001	 1.231724362326116e+001
 2.101595016585397e+000	 9.507686567340533e-001	 1.232999007208017e+001
 2.091301843255902e+000	 9.732005610049138e-001	 1.233738763671066e+001
 2.080749059287054e+000	 9.955632239443274e-001	 1.234072336702362e+001
 2.069937087547631e+000	 1.017852274521003e+000	 1.234141152008262e+001
 2.058866446504426e+000	 1.040063335734701e+000	 1.234103926232391e+001
 2.047537750781894e+000	 1.062192027169320e+000	 1.234128632488766e+001
 2.035951711641758e+000	 1.084233967576464e+000	 1.234397603490525e+001
 2.024109137380973e+000	 1.106184777486618e+000	 1.235105634518684e+001
 2.012010933646574e+000	 1.128040081844988e+000	 1.236459493420705e+001
 2.145923845529373e+000	 9.161842533366132e-001	 1.224594654827537e+001
 2.136037810352666e+000	 9.390023168969390e-001	 1.226350982684551e+001
 2.125888595480185e+000	 9.617591535682968e-001	 1.227428913583981e+001
 2.115476437276295e+000	 9.844503614784820e-001	 1.227958181057133e+001
 2.104801667440269e+000	 1.007071527655773e+000	 1.228083036670961e+001
 2.093864713729079e+000	 1.029618230541540e+000	 1.227961009255126e+001
 2.082666100602788e+000	 1.052086042539205e+000	 1.227766971018768e+001
 2.071206449790665e+000	 1.074470532596845e+000	 1.227685905314088e+001
 2.059486480776334e+000	 1.096767268820616e+000	 1.227917464179558e+001
 2.047507011200339e+000	 1.118971821116124e+000	 1.228674215790313e+001
 2.035268957178629e+000	 1.141079763854727e+000	 1.230181153748845e+001
 1.802688721849068e+000	 1.010682943750032e+000	 1.284172905315402e+001
 1.791619357690404e+000	 1.030177937010685e+000	 1.284084043319587e+001
 1.780322777535209e+000	 1.049579514920662e+000	 1.283441873055027e+001
 1.768800057357055e+000	 1.068883783227662e+000	 1.282301270833576e+001
 1.757052360750431e+000	 1.088086861295837e+000	 1.280722311230286e+001
 1.745080938822499e+000	 1.107184884536711e+000	 1.278770048052797e+001
 1.732887130004770e+000	 1.126174006844907e+000	 1.276514287747404e+001
 1.720472359784236e+000	 1.145050403035631e+000	 1.274029355622139e+001
 1.707838140353593e+000	 1.163810271280825e+000	 1.271393855261335e+001
 1.694986070180313e+000	 1.182449835540888e+000	 1.268690421501988e+001
 1.681917833494530e+000	 1.200965347988850e+000	 1.266005467340100e+001
 1.825946745384119e+000	 1.023722625759030e+000	 1.278591637555987e+001
 1.814734565924675e+000	 1.043469140542086e+000	 1.278571647688221e+001
 1.803292238961473e+000	 1.063121034743368e+000	 1.277946784057746e+001
 1.791620854350134e+000	 1.082674363867519e+000	 1.276782403573845e+001
 1.779721590697669e+000	 1.102125197211310e+000	 1.275148928244348e+001
 1.767595715252836e+000	 1.121469620325929e+000	 1.273121608537010e+001
 1.755244583715393e+000	 1.140703737484130e+000	 1.270780279765113e+001
 1.742669639963753e+000	 1.159823674149157e+000	 1.268209111881661e+001
 1.729872415700694e+000	 1.178825579442343e+000	 1.265496353056663e+001
 1.716854530016881e+000	 1.197705628606193e+000	 1.262734067404271e+001
 1.703617688872131e+000	 1.216460025459840e+000	 1.260017867221120e+001
 1.849204768918440e+000	 1.036762307768845e+000	 1.273221227060509e+001
 1.837849774158181e+000	 1.056760344074309e+000	 1.273303334804627e+001
 1.826261700386945e+000	 1.076662554566901e+000	 1.272729667405321e+001
 1.814441651342400e+000	 1.096464944508205e+000	 1.271577094749351e+001
 1.802390820644081e+000	 1.116163533127615e+000	 1.269927395512787e+001
 1.790110491682342e+000	 1.135754356115979e+000	 1.267867001550549e+001
 1.777602037425184e+000	 1.155233468124176e+000	 1.265486735955260e+001
 1.764866920142439e+000	 1.174596945263497e+000	 1.262881545172660e+001
 1.751906691046967e+000	 1.193840887604655e+000	 1.260150225546903e+001
 1.738722989852626e+000	 1.212961421672268e+000	 1.257395144657466e+001
 1.725317544248913e+000	 1.231954702931564e+000	 1.254721957800275e+001
 1.872462792452129e+000	 1.049801989779293e+000	 1.268018202479898e+001
 1.860964982391031e+000	 1.070051547607175e+000	 1.268229059463631e+001
 1.849231161811743e+000	 1.090204074391089e+000	 1.267733660866226e+001
 1.837262448333983e+000	 1.110255525149559e+000	 1.266621401565232e+001
 1.825060050589807e+000	 1.130201869044597e+000	 1.264986405550909e+001
 1.812625268111165e+000	 1.150039091906711e+000	 1.262927250051900e+001
 1.799959491134298e+000	 1.169763198764909e+000	 1.260546684034613e+001
 1.787064200320456e+000	 1.189370216378519e+000	 1.257951341465173e+001
 1.773940966392586e+000	 1.208856195767643e+000	 1.255251449704331e+001
 1.760591449687725e+000	 1.228217214739001e+000	 1.252560533389919e+001
 1.747017399625063e+000	 1.247449380403922e+000	 1.249995114148818e+001
 1.895720815985286e+000	 1.062841671790190e+000	 1.262927334480323e+001
 1.884080190623331e+000	 1.083342751140507e+000	 1.263287027094462e+001
 1.872200623235985e+000	 1.103745594215760e+000	 1.262890185962304e+001
 1.860083245325013e+000	 1.124046105791413e+000	 1.261839723063616e+001
 1.847729280534987e+000	 1.144240204962098e+000	 1.260243076201665e+001
 1.835140044539452e+000	 1.164323827697978e+000	 1.258211911646814e+001
 1.822316944842891e+000	 1.184292929406189e+000	 1.255861821919537e+001
 1.809261480497970e+000	 1.204143487494096e+000	 1.253312019101501e+001
 1.795975241737718e+000	 1.223871503931185e+000	 1.250685024040101e+001
 1.782459909522359e+000	 1.243473007806281e+000	 1.248106351791503e+001
 1.768717255000763e+000	 1.262944057876813e+000	 1.245704193630680e+001
 1.918978839518010e+000	 1.075881353801352e+000	 1.257882153916304e+001
 1.907195398855194e+000	 1.096633954674126e+000	 1.258404225262151e+001
 1.895170084659793e+000	 1.117287114040742e+000	 1.258119491455063e+001
 1.882904042315616e+000	 1.137836686433605e+000	 1.257145354159296e+001
 1.870398510479757e+000	 1.158278540879961e+000	 1.255603513694059e+001
 1.857654820967350e+000	 1.178608563489632e+000	 1.253619649052745e+001
 1.844674398551119e+000	 1.198822660047875e+000	 1.251323093890739e+001
 1.831458760675146e+000	 1.218916758610096e+000	 1.248846508867929e+001
 1.818009517082537e+000	 1.238886812095163e+000	 1.246325550703653e+001
 1.804328369356703e+000	 1.258728800874001e+000	 1.243898538276843e+001
 1.790417110376194e+000	 1.278438735350138e+000	 1.241706116083104e+001
 1.942236863050402e+000	 1.088921035812597e+000	 1.252805456941222e+001
 1.930310607086727e+000	 1.109925158207855e+000	 1.253496941908172e+001
 1.918139546083284e+000	 1.130828633865865e+000	 1.253331183458420e+001
 1.905724839305924e+000	 1.151627267075969e+000	 1.252441026279467e+001
 1.893067740424256e+000	 1.172316876798029e+000	 1.250963362378293e+001
 1.880169597395008e+000	 1.192893299281524e+000	 1.249038787412428e+001
 1.867031852259138e+000	 1.213352390689829e+000	 1.246811253884125e+001
 1.853656040852145e+000	 1.233690029726389e+000	 1.244427721578718e+001
 1.840043792427213e+000	 1.253902120259454e+000	 1.242037805594123e+001
 1.826196829190936e+000	 1.273984593942049e+000	 1.239793422278506e+001
 1.812116965751543e+000	 1.293933412823795e+000	 1.237848433367666e+001
 1.965494886582561e+000	 1.101960717823740e+000	 1.247609798137329e+001
 1.953425815318042e+000	 1.123216361741514e+000	 1.248471271428852e+001
 1.941109007506578e+000	 1.144370153690955e+000	 1.248424743285877e+001
 1.928545636296065e+000	 1.165417847718342e+000	 1.247619435717195e+001
 1.915736970368623e+000	 1.186355212716147e+000	 1.246208342241238e+001
 1.902684373822573e+000	 1.207178035073504e+000	 1.244347859545990e+001
 1.889389305967105e+000	 1.227882121331912e+000	 1.242197416974231e+001
 1.875853321029134e+000	 1.248463300842847e+000	 1.239919104206843e+001
 1.862078067771918e+000	 1.268917428423940e+000	 1.237677297476911e+001
 1.848065289025234e+000	 1.289240387010314e+000	 1.235638284612084e+001
 1.833816821126989e+000	 1.309428090297686e+000	 1.233969889172285e+001
 1.988752910114585e+000	 1.115000399834598e+000	 1.242197972646072e+001
 1.976541023549247e+000	 1.136507565274927e+000	 1.243223609587242e+001
 1.964078468929796e+000	 1.157911673515843e+000	 1.243290034036177e+001
 1.951366433286169e+000	 1.179208428360558e+000	 1.242563760704531e+001
 1.938406200312997e+000	 1.200393548634157e+000	 1.241214775202680e+001
 1.925199150250191e+000	 1.221462770865427e+000	 1.239416140129068e+001
 1.911746759675175e+000	 1.242411851973984e+000	 1.237343600016911e+001
 1.898050601206275e+000	 1.263236571959339e+000	 1.235175185499050e+001
 1.884112343116823e+000	 1.283932736588499e+000	 1.233090817005467e+001
 1.869933748859776e+000	 1.304496180078686e+000	 1.231271908266858e+001
 1.855516676502718e+000	 1.324922767771708e+000	 1.229900969862359e+001
 2.012010933646574e+000	 1.128040081844988e+000	 1.236459493420705e+001
 1.999656231780452e+000	 1.149798768807915e+000	 1.237641138162059e+001
 1.987047930353056e+000	 1.171453193340354e+000	 1.237807796828810e+001
 1.974187230276363e+000	 1.192999009002452e+000	 1.237148168118043e+001
 1.961075430257516e+000	 1.214431884551902e+000	 1.235850101100239e+001
 1.947713926678010e+000	 1.235747506657143e+000	 1.234104169693057e+001
 1.934104213383504e+000	 1.256941582615906e+000	 1.232103252328501e+001
 1.920247881383731e+000	 1.278009843075735e+000	 1.230042111926316e+001
 1.906146618462098e+000	 1.298948044753012e+000	 1.228116976465276e+001
 1.891802208694739e+000	 1.319751973147056e+000	 1.226525120396889e+001
 1.877216531878911e+000	 1.340417445245763e+000	 1.225436938499785e+001
 2.035268957178629e+000	 1.141079763854727e+000	 1.230181153748845e+001
 2.022771440011766e+000	 1.163089972340299e+000	 1.231545529760333e+001
 2.010017391776478e+000	 1.184994713164319e+000	 1.231837112528218e+001
 1.997008027266777e+000	 1.206789589643860e+000	 1.231238310646200e+001
 1.983744660202318e+000	 1.228470220469227e+000	 1.229973384187810e+001
 1.970228703106179e+000	 1.250032242448504e+000	 1.228264269261679e+001
 1.956461667092249e+000	 1.271471313257540e+000	 1.226321777198574e+001
 1.942445161561669e+000	 1.292783114191905e+000	 1.224358174742768e+001
 1.928180893807916e+000	 1.313963352917359e+000	 1.222586740982167e+001
 1.913670668530300e+000	 1.335007766215311e+000	 1.221220339412641e+001
 1.898916387255753e+000	 1.355912122719749e+000	 1.220275990696355e+001
 1.681917833494530e+000	 1.200965347988850e+000	 1.266005467340100e+001
 1.668635199221159e+000	 1.219353091017331e+000	 1.262929252104123e+001
 1.655140018895221e+000	 1.237609378393840e+000	 1.259112276252203e+001
 1.641434227355505e+000	 1.255730558820518e+000	 1.254735730622825e+001
 1.627519842390902e+000	 1.273713018699258e+000	 1.249982786718782e+001
 1.613398963829417e+000	 1.291553184473516e+000	 1.245038174390759e+001
 1.599073772548270e+000	 1.309247524943862e+000	 1.240087756883223e+001
 1.584546529405988e+000	 1.326792553554179e+000	 1.235318103971337e+001
 1.569819574097471e+000	 1.344184830645459e+000	 1.230668128423538e+001
 1.554895323933223e+000	 1.361420965674179e+000	 1.225384775909582e+001
 1.539776272543993e+000	 1.378497619392281e+000	 1.219537656917903e+001
 1.703617688872131e+000	 1.216460025459840e+000	 1.260017867221120e+001
 1.690163684013768e+000	 1.235085004431891e+000	 1.256935565106809e+001
 1.676494390865051e+000	 1.253576831730622e+000	 1.253146320048966e+001
 1.662611769227780e+000	 1.271931808949659e+000	 1.248857076725991e+001
 1.648517862924069e+000	 1.290146275868779e+000	 1.244276828665168e+001
 1.634214798873599e+000	 1.308216612825929e+000	 1.239616151469112e+001
 1.619704786090954e+000	 1.326139243062656e+000	 1.235086733116416e+001
 1.604990114603931e+000	 1.343910635039803e+000	 1.230682302287041e+001
 1.590073154293838e+000	 1.361527304720379e+000	 1.225693391299496e+001
 1.574956353658965e+000	 1.378985817816562e+000	 1.220195937713945e+001
 1.559642238502527e+000	 1.396282791997798e+000	 1.214365633949971e+001
 1.725317544248913e+000	 1.231954702931564e+000	 1.254721957800275e+001
 1.711692168805565e+000	 1.250816917847140e+000	 1.251720034184872e+001
 1.697848762834074e+000	 1.269544285068040e+000	 1.248056859598221e+001
 1.683789311099254e+000	 1.288133059079376e+000	 1.243959374334871e+001
 1.669515883456440e+000	 1.306579533038807e+000	 1.239656542688752e+001
 1.655030633916995e+000	 1.324880041178775e+000	 1.235378851980189e+001
 1.640335799632866e+000	 1.343030961181805e+000	 1.231188970726236e+001
 1.625433699801120e+000	 1.361028716525699e+000	 1.226423272089537e+001
 1.610326734489472e+000	 1.378869778795487e+000	 1.221141958553566e+001
 1.595017383384004e+000	 1.396550669959047e+000	 1.215531002030801e+001
 1.579508204460395e+000	 1.414067964603332e+000	 1.209778499770840e+001
 1.747017399625063e+000	 1.247449380403922e+000	 1.249995114148818e+001
 1.733220653596737e+000	 1.266548831262988e+000	 1.247149346493672e+001
 1.719203134802480e+000	 1.285511738406013e+000	 1.243698096243202e+001
 1.704966852970118e+000	 1.304334309209597e+000	 1.239882762180119e+001
 1.690513903988211e+000	 1.323012790209282e+000	 1.235946651518587e+001
 1.675846468959799e+000	 1.341543469532005e+000	 1.232024557961432e+001
 1.660966813174197e+000	 1.359922679301271e+000	 1.227515360063943e+001
 1.645877284997742e+000	 1.378146798011843e+000	 1.222440035404198e+001
 1.630580314684557e+000	 1.396212252870773e+000	 1.216988492892541e+001
 1.615078413108516e+000	 1.414115522101638e+000	 1.211352799656868e+001
 1.599374170417763e+000	 1.431853137208900e+000	 1.205727088654389e+001
 1.768717255000763e+000	 1.262944057876813e+000	 1.245704193630680e+001
 1.754749138387473e+000	 1.282280744679345e+000	 1.243079980797273e+001
 1.740557506770460e+000	 1.301479191744462e+000	 1.239914426893881e+001
 1.726144394840567e+000	 1.320535559340253e+000	 1.236458061702795e+001
 1.711511924519575e+000	 1.339446047380145e+000	 1.232908553354492e+001
 1.696662304002206e+000	 1.358206897885572e+000	 1.228759403668786e+001
 1.681597826715140e+000	 1.376814397421019e+000	 1.223968000378756e+001
 1.666320870193986e+000	 1.395264879498211e+000	 1.218722169715952e+001
 1.650833894879276e+000	 1.413554726946223e+000	 1.213211878520147e+001
 1.635139442832677e+000	 1.431680374244336e+000	 1.207629156731252e+001
 1.619240136374797e+000	 1.449638309814519e+000	 1.202168017106727e+001
 1.790417110376194e+000	 1.278438735350138e+000	 1.241706116083104e+001
 1.776277623177960e+000	 1.298012658096122e+000	 1.239358781295177e+001
 1.761911878738208e+000	 1.317446645083307e+000	 1.236541005279476e+001
 1.747321936710794e+000	 1.336736809471274e+000	 1.233492373379990e+001
 1.732509945050727e+000	 1.355879304551337e+000	 1.229845132760096e+001
 1.717478139044409e+000	 1.374870326239427e+000	 1.225470640950453e+001
 1.702228840255884e+000	 1.393706115541010e+000	 1.220548994899507e+001
 1.686764455390040e+000	 1.412382960984778e+000	 1.215262334266231e+001
 1.671087475073812e+000	 1.430897201021828e+000	 1.209794787651673e+001
 1.655200472556662e+000	 1.449245226387142e+000	 1.204332417462855e+001
 1.639106102331665e+000	 1.467423482420205e+000	 1.199063162760531e+001
 1.812116965751543e+000	 1.293933412823795e+000	 1.237848433367666e+001
 1.797806107968385e+000	 1.313744571513226e+000	 1.235823521848002e+001
 1.783266250705911e+000	 1.333414098422468e+000	 1.233404280984777e+001
 1.768499478580991e+000	 1.352938059602591e+000	 1.230409490727430e+001
 1.753507965581860e+000	 1.372312561722800e+000	 1.226609198168840e+001
 1.738293974086600e+000	 1.391533754593522e+000	 1.222170544832762e+001
 1.722859853796624e+000	 1.410597833661210e+000	 1.217262508937933e+001
 1.707208040586091e+000	 1.429501042471520e+000	 1.212055883319608e+001
 1.691341055268346e+000	 1.448239675097573e+000	 1.206723253690768e+001
 1.675261502280647e+000	 1.466810078530060e+000	 1.201438976556534e+001
 1.658972068288533e+000	 1.485208655025974e+000	 1.196379156034998e+001
 1.833816821126989e+000	 1.309428090297686e+000	 1.233969889172285e+001
 1.819334592758936e+000	 1.329476484930569e+000	 1.232303461397402e+001
 1.804620622673762e+000	 1.349381551761863e+000	 1.230080025035114e+001
 1.789677020451354e+000	 1.369139309734133e+000	 1.227007029386916e+001
 1.774505986113169e+000	 1.388745818894472e+000	 1.223220897178834e+001
 1.759109809128975e+000	 1.408197182947809e+000	 1.218872549973702e+001
 1.743490867337550e+000	 1.427489551781582e+000	 1.214114422746447e+001
 1.727651625782327e+000	 1.446619123958412e+000	 1.209100482829127e+001
 1.711594635463063e+000	 1.465582149173449e+000	 1.203986250516553e+001
 1.695322532004806e+000	 1.484374930673091e+000	 1.198928820534585e+001
 1.678838034245567e+000	 1.502993827631844e+000	 1.194086883503994e+001
 1.855516676502718e+000	 1.324922767771708e+000	 1.229900969862359e+001
 1.840863077549801e+000	 1.345208398348059e+000	 1.228514519691101e+001
 1.825974994641952e+000	 1.365349005101414e+000	 1.226291522213067e+001
 1.810854562322073e+000	 1.385340559865832e+000	 1.223310781071950e+001
 1.795504006644848e+000	 1.405179076066297e+000	 1.219700748229638e+001
 1.779925644171727e+000	 1.424860611302240e+000	 1.215590936440906e+001
 1.764121880878855e+000	 1.444381269902088e+000	 1.211111985115818e+001
 1.748095210978938e+000	 1.463737205445430e+000	 1.206395730222101e+001
 1.731848215658145e+000	 1.482924623249444e+000	 1.201575277380842e+001
 1.715383561729319e+000	 1.501939782816236e+000	 1.196785077225395e+001
 1.698704000202935e+000	 1.520779000237831e+000	 1.192161002013972e+001
 1.877216531878911e+000	 1.340417445245763e+000	 1.225436938499785e+001
 1.862391562341168e+000	 1.360940311765608e+000	 1.224132330579243e+001
 1.847329366610672e+000	 1.381316458441041e+000	 1.222068063614156e+001
 1.832032104193344e+000	 1.401541809997616e+000	 1.219346229117619e+001
 1.816502027177093e+000	 1.421612333238214e+000	 1.216069353133352e+001
 1.800741479215049e+000	 1.441524039656767e+000	 1.212340514119967e+001
 1.784752894420728e+000	 1.461272988022692e+000	 1.208263467652821e+001
 1.768538796176111e+000	 1.480855286932549e+000	 1.203942777053843e+001
 1.752101795853774e+000	 1.500267097325546e+000	 1.199483948961549e+001
 1.735444591454357e+000	 1.519504634959500e+000	 1.194993572758358e+001
 1.718569966160802e+000	 1.538564172843951e+000	 1.190579462681768e+001
 1.898916387255753e+000	 1.355912122719749e+000	 1.220275990696355e+001
 1.883920047133223e+000	 1.376672225183124e+000	 1.219174631823553e+001
 1.868683738580113e+000	 1.397283911780662e+000	 1.217438057838402e+001
 1.853209646065358e+000	 1.417743060129417e+000	 1.215138282104010e+001
 1.837500047710095e+000	 1.438045590410163e+000	 1.212347106622025e+001
 1.821557314259136e+000	 1.458187468011342e+000	 1.209136305862668e+001
 1.805383907963363e+000	 1.478164706143358e+000	 1.205577819683501e+001
 1.788982381374034e+000	 1.497973368419745e+000	 1.201743954300000e+001
 1.772355376050134e+000	 1.517609571401743e+000	 1.197707590159778e+001
 1.755505621180099e+000	 1.537069487102882e+000	 1.193542395464653e+001
 1.738435932119337e+000	 1.556349345450221e+000	 1.189323043982013e+001
 1.539776272543993e+000	 1.378497619392281e+000	 1.219537656917903e+001
 1.524467299600929e+000	 1.395408981614681e+000	 1.212950546482139e+001
 1.508968793931934e+000	 1.412154398015745e+000	 1.205454701928705e+001
 1.493283469725799e+000	 1.428730698645799e+000	 1.197225572658761e+001
 1.477414111523483e+000	 1.445134773122503e+000	 1.188442770213337e+001
 1.461363572573377e+000	 1.461363572573377e+000	 1.179289915633200e+001
 1.445134773122503e+000	 1.477414111523483e+000	 1.169954475448501e+001
 1.428730698645800e+000	 1.493283469725799e+000	 1.160627585891216e+001
 1.412154398015745e+000	 1.508968793931934e+000	 1.151503864944065e+001
 1.395408981614681e+000	 1.524467299600929e+000	 1.142781211865649e+001
 1.378497619392282e+000	 1.539776272543993e+000	 1.134660593862758e+001
 1.559642238502527e+000	 1.396282791997798e+000	 1.214365633949971e+001
 1.544135751452474e+000	 1.413412342116847e+000	 1.208053511135056e+001
 1.528437286353301e+000	 1.430373805406068e+000	 1.201072278194793e+001
 1.512549592411856e+000	 1.447163971017574e+000	 1.193546762604350e+001
 1.496475490094825e+000	 1.463779688439336e+000	 1.185604930037975e+001
 1.480217869462783e+000	 1.480217869462783e+000	 1.177377836666563e+001
 1.463779688439336e+000	 1.496475490094825e+000	 1.168999571876630e+001
 1.447163971017574e+000	 1.512549592411856e+000	 1.160607190726878e+001
 1.430373805406068e+000	 1.528437286353301e+000	 1.152340635472875e+001
 1.413412342116847e+000	 1.544135751452474e+000	 1.144342645511192e+001
 1.396282791997798e+000	 1.559642238502527e+000	 1.136758655121409e+001
 1.579508204460395e+000	 1.414067964603332e+000	 1.209778499770840e+001
 1.563804203303395e+000	 1.431415702618946e+000	 1.203746200572464e+001
 1.547905778774097e+000	 1.448593212796243e+000	 1.197222690657104e+001
 1.531815715097399e+000	 1.465597243389118e+000	 1.190292182422034e+001
 1.515536868665719e+000	 1.482424603755863e+000	 1.183041234130030e+001
 1.499072166351807e+000	 1.499072166351807e+000	 1.175558790775661e+001
 1.482424603755862e+000	 1.515536868665718e+000	 1.167936216801312e+001
 1.465597243389118e+000	 1.531815715097399e+000	 1.160267319734393e+001
 1.448593212796242e+000	 1.547905778774097e+000	 1.152648363825979e+001
 1.431415702618947e+000	 1.563804203303396e+000	 1.145178072786990e+001
 1.414067964603332e+000	 1.579508204460395e+000	 1.137957620741777e+001
 1.599374170417763e+000	 1.431853137208900e+000	 1.205727088654389e+001
 1.583472655153850e+000	 1.449419063121011e+000	 1.199970690118731e+001
 1.567374271194464e+000	 1.466812620186314e+000	 1.193845486252586e+001
 1.551081837782558e+000	 1.484030515760497e+000	 1.187404692976292e+001
 1.534598247236275e+000	 1.501069519072161e+000	 1.180703305249030e+001
 1.517926463240549e+000	 1.517926463240549e+000	 1.173798210556945e+001
 1.501069519072162e+000	 1.534598247236275e+000	 1.166748295326716e+001
 1.484030515760496e+000	 1.551081837782558e+000	 1.159614543122866e+001
 1.466812620186314e+000	 1.567374271194464e+000	 1.152460123490341e+001
 1.449419063121011e+000	 1.583472655153850e+000	 1.145350470315962e+001
 1.431853137208900e+000	 1.599374170417763e+000	 1.138353348602456e+001
 1.619240136374797e+000	 1.449638309814519e+000	 1.202168017106727e+001
 1.603141107003993e+000	 1.467422423623072e+000	 1.196675469746682e+001
 1.586842763614545e+000	 1.485032027576333e+000	 1.190886957080187e+001
 1.570347960467461e+000	 1.502463788131775e+000	 1.184833947328784e+001
 1.553659625806610e+000	 1.519714434388317e+000	 1.178549340583605e+001
 1.536780760129105e+000	 1.536780760129105e+000	 1.172067639372154e+001
 1.519714434388316e+000	 1.553659625806610e+000	 1.165425112884478e+001
 1.502463788131775e+000	 1.570347960467461e+000	 1.158659953534059e+001
 1.485032027576333e+000	 1.586842763614545e+000	 1.151812424527604e+001
 1.467422423623072e+000	 1.603141107003993e+000	 1.144924997125935e+001
 1.449638309814519e+000	 1.619240136374797e+000	 1.138042476295652e+001
 1.639106102331665e+000	 1.467423482420205e+000	 1.199063162760531e+001
 1.622809558853981e+000	 1.485425784125162e+000	 1.193814889238726e+001
 1.606311256034485e+000	 1.503251434966346e+000	 1.188299570855302e+001
 1.589614083152236e+000	 1.520897060503017e+000	 1.182535824384842e+001
 1.572721004376836e+000	 1.538359349704408e+000	 1.176543565342734e+001
 1.555635057017574e+000	 1.555635057017573e+000	 1.170344220474098e+001
 1.538359349704408e+000	 1.572721004376835e+000	 1.163960934304649e+001
 1.520897060503017e+000	 1.589614083152237e+000	 1.157418768275578e+001
 1.503251434966346e+000	 1.606311256034484e+000	 1.150744890979256e+001
 1.485425784125162e+000	 1.622809558853982e+000	 1.143968758017273e+001
 1.467423482420205e+000	 1.639106102331665e+000	 1.137122280017250e+001
 1.658972068288533e+000	 1.485208655025974e+000	 1.196379156034999e+001
 1.642478010703969e+000	 1.503429144627313e+000	 1.191348618482114e+001
 1.625779748454424e+000	 1.521470842356402e+000	 1.186041417527069e+001
 1.608880205837015e+000	 1.539330332874287e+000	 1.180471878472997e+001
 1.591782382947066e+000	 1.557004265020518e+000	 1.174655700873983e+001
 1.574489353906053e+000	 1.574489353906053e+000	 1.168610198160363e+001
 1.557004265020518e+000	 1.591782382947067e+000	 1.162354531407337e+001
 1.539330332874287e+000	 1.608880205837015e+000	 1.155909935644634e+001
 1.521470842356401e+000	 1.625779748454424e+000	 1.149299937096004e+001
 1.503429144627313e+000	 1.642478010703968e+000	 1.142550559739038e+001
 1.485208655025974e+000	 1.658972068288533e+000	 1.135690519588632e+001
 1.678838034245567e+000	 1.502993827631844e+000	 1.194086883503995e+001
 1.662146462554112e+000	 1.521432505129557e+000	 1.189241121644665e+001
 1.645248240874508e+000	 1.539690249746549e+000	 1.184075670719810e+001
 1.628146328521925e+000	 1.557763605245652e+000	 1.178608803537826e+001
 1.610843761517417e+000	 1.575649180336727e+000	 1.172860446105345e+001
 1.593343650794640e+000	 1.593343650794641e+000	 1.166852429958725e+001
 1.575649180336727e+000	 1.610843761517417e+000	 1.160608738409252e+001
 1.557763605245651e+000	 1.628146328521925e+000	 1.154155745003570e+001
 1.539690249746549e+000	 1.645248240874507e+000	 1.147522442488633e+001
 1.521432505129557e+000	 1.662146462554112e+000	 1.140740660569436e+001
 1.502993827631845e+000	 1.678838034245567e+000	 1.133845270758987e+001
 1.698704000202935e+000	 1.520779000237831e+000	 1.192161002013972e+001
 1.681814914404567e+000	 1.539435865631926e+000	 1.187461144094737e+001
 1.664716733294878e+000	 1.557909657136836e+000	 1.182370062784963e+001
 1.647412451207094e+000	 1.576196877617173e+000	 1.176917910749792e+001
 1.629905140088000e+000	 1.594294095653117e+000	 1.171136971220020e+001
 1.612197947683434e+000	 1.612197947683434e+000	 1.165061908941099e+001
 1.594294095653117e+000	 1.629905140088000e+000	 1.158730014505353e+001
 1.576196877617174e+000	 1.647412451207094e+000	 1.152181440300043e+001
 1.557909657136836e+000	 1.664716733294878e+000	 1.145459426288753e+001
 1.539435865631927e+000	 1.681814914404567e+000	 1.138610513840398e+001
 1.520779000237831e+000	 1.698704000202935e+000	 1.131684745829426e+001
 1.718569966160802e+000	 1.538564172843951e+000	 1.190579462681768e+001
 1.701483366255489e+000	 1.557439226134452e+000	 1.185981211034141e+001
 1.684185225715678e+000	 1.576129064527310e+000	 1.180896372362238e+001
 1.666678573892654e+000	 1.594630149988919e+000	 1.175374618446440e+001
 1.648966518658931e+000	 1.612939010969770e+000	 1.169468422574258e+001
 1.631052244572532e+000	 1.631052244572532e+000	 1.163233295346496e+001
 1.612939010969769e+000	 1.648966518658930e+000	 1.156728013045079e+001
 1.594630149988920e+000	 1.666678573892654e+000	 1.150014836753067e+001
 1.576129064527309e+000	 1.684185225715677e+000	 1.143159720399479e+001
 1.557439226134453e+000	 1.701483366255490e+000	 1.136232505896403e+001
 1.538564172843951e+000	 1.718569966160803e+000	 1.129307103543780e+001
 1.738435932119337e+000	 1.556349345450221e+000	 1.189323043982012e+001
 1.721151818107034e+000	 1.575442586637167e+000	 1.184777136907118e+001
 1.703653718137051e+000	 1.594348471918019e+000	 1.179629923449345e+001
 1.685944696578731e+000	 1.613063422360952e+000	 1.173957953418487e+001
 1.668027897230322e+000	 1.631583926286766e+000	 1.167841437958918e+001
 1.649906541462032e+000	 1.649906541462032e+000	 1.161364456768332e+001
 1.631583926286766e+000	 1.668027897230322e+000	 1.154615156775573e+001
 1.613063422360952e+000	 1.685944696578732e+000	 1.147685940451758e+001
 1.594348471918019e+000	 1.703653718137051e+000	 1.140673641908840e+001
 1.575442586637168e+000	 1.721151818107034e+000	 1.133679688932725e+001
 1.556349345450221e+000	 1.738435932119336e+000	 1.126810249104753e+001
 1.378497619392282e+000	 1.539776272543993e+000	 1.134660593862759e+001
 1.361420965674179e+000	 1.554895323933223e+000	 1.126419621591998e+001
 1.344184830645459e+000	 1.569819574097472e+000	 1.117338419363659e+001
 1.326792553554179e+000	 1.584546529405988e+000	 1.107603660798811e+001
 1.309247524943862e+000	 1.599073772548270e+000	 1.097201414548905e+001
 1.291553184473516e+000	 1.613398963829417e+000	 1.086247413154746e+001
 1.273713018699258e+000	 1.627519842390902e+000	 1.074907241835165e+001
 1.255730558820517e+000	 1.641434227355505e+000	 1.063341714296974e+001
 1.237609378393840e+000	 1.655140018895221e+000	 1.051706557758906e+001
 1.219353091017331e+000	 1.668635199221159e+000	 1.040152110600370e+001
 1.200965347988850e+000	 1.681917833494530e+000	 1.028823031964796e+001
 1.396282791997798e+000	 1.559642238502527e+000	 1.136758655121409e+001
 1.378985817816562e+000	 1.574956353658965e+000	 1.128846734726851e+001
 1.361527304720379e+000	 1.590073154293837e+000	 1.119913434302720e+001
 1.343910635039803e+000	 1.604990114603931e+000	 1.110179678927959e+001
 1.326139243062656e+000	 1.619704786090954e+000	 1.099850834650446e+001
 1.308216612825929e+000	 1.634214798873599e+000	 1.088952387217027e+001
 1.290146275868779e+000	 1.648517862924069e+000	 1.077627931901886e+001
 1.271931808949659e+000	 1.662611769227780e+000	 1.066060497494770e+001
 1.253576831730622e+000	 1.676494390865051e+000	 1.054428431211597e+001
 1.235085004431890e+000	 1.690163684013768e+000	 1.042905062614585e+001
 1.216460025459840e+000	 1.703617688872130e+000	 1.031658378947358e+001
 1.414067964603332e+000	 1.579508204460395e+000	 1.137957620741777e+001
 1.396550669959048e+000	 1.595017383384004e+000	 1.130248442339521e+001
 1.378869778795487e+000	 1.610326734489471e+000	 1.121395394914298e+001
 1.361028716525699e+000	 1.625433699801120e+000	 1.111628150305618e+001
 1.343030961181805e+000	 1.640335799632866e+000	 1.101182461878075e+001
 1.324880041178775e+000	 1.655030633916994e+000	 1.090276161086146e+001
 1.306579533038807e+000	 1.669515883456440e+000	 1.078973295080543e+001
 1.288133059079376e+000	 1.683789311099253e+000	 1.067443605767495e+001
 1.269544285068039e+000	 1.697848762834074e+000	 1.055882254564742e+001
 1.250816917847140e+000	 1.711692168805566e+000	 1.044479601669892e+001
 1.231954702931564e+000	 1.725317544248913e+000	 1.033420860303203e+001
 1.431853137208900e+000	 1.599374170417763e+000	 1.138353348602456e+001
 1.414115522101638e+000	 1.615078413108516e+000	 1.130751754413175e+001
 1.396212252870773e+000	 1.630580314684557e+000	 1.121936429910507e+001
 1.378146798011843e+000	 1.645877284997743e+000	 1.112140592947783e+001
 1.359922679301271e+000	 1.660966813174197e+000	 1.101604144034799e+001
 1.341543469532005e+000	 1.675846468959799e+000	 1.090573392612157e+001
 1.323012790209282e+000	 1.690513903988210e+000	 1.079273306556275e+001
 1.304334309209597e+000	 1.704966852970118e+000	 1.067807553393903e+001
 1.285511738406013e+000	 1.719203134802480e+000	 1.056366325916306e+001
 1.266548831262987e+000	 1.733220653596737e+000	 1.045151290090544e+001
 1.247449380403922e+000	 1.747017399625063e+000	 1.034359022115362e+001
 1.449638309814519e+000	 1.619240136374797e+000	 1.138042476295652e+001
 1.431680374244336e+000	 1.635139442832677e+000	 1.130483139539327e+001
 1.413554726946223e+000	 1.650833894879276e+000	 1.121687097336911e+001
 1.395264879498211e+000	 1.666320870193986e+000	 1.111886101928100e+001
 1.376814397421018e+000	 1.681597826715139e+000	 1.101319002917628e+001
 1.358206897885572e+000	 1.696662304002206e+000	 1.090231485870175e+001
 1.339446047380145e+000	 1.711511924519575e+000	 1.078875786574298e+001
 1.320535559340253e+000	 1.726144394840567e+000	 1.067480877301027e+001
 1.301479191744462e+000	 1.740557506770461e+000	 1.056191361106757e+001
 1.282280744679345e+000	 1.754749138387473e+000	 1.045208719557640e+001
 1.262944057876814e+000	 1.768717255000763e+000	 1.034735254659010e+001
 1.467423482420205e+000	 1.639106102331665e+000	 1.137122280017250e+001
 1.449245226387142e+000	 1.655200472556662e+000	 1.129568474913966e+001
 1.430897201021827e+000	 1.671087475073811e+000	 1.120796408480095e+001
 1.412382960984778e+000	 1.686764455390040e+000	 1.111031534669953e+001
 1.393706115541010e+000	 1.702228840255884e+000	 1.100506637702715e+001
 1.374870326239427e+000	 1.717478139044408e+000	 1.089461594023746e+001
 1.355879304551337e+000	 1.732509945050727e+000	 1.078143108857248e+001
 1.336736809471274e+000	 1.747321936710794e+000	 1.066804427003803e+001
 1.317446645083307e+000	 1.761911878738207e+000	 1.055679890442023e+001
 1.298012658096122e+000	 1.776277623177960e+000	 1.044952896343324e+001
 1.278438735350138e+000	 1.790417110376195e+000	 1.034825154732086e+001
 1.485208655025974e+000	 1.658972068288533e+000	 1.135690519588632e+001
 1.466810078530060e+000	 1.675261502280647e+000	 1.128132976131158e+001
 1.448239675097573e+000	 1.691341055268345e+000	 1.119411826498481e+001
 1.429501042471520e+000	 1.707208040586091e+000	 1.109741563050144e+001
 1.410597833661210e+000	 1.722859853796624e+000	 1.099344063879689e+001
 1.391533754593522e+000	 1.738293974086600e+000	 1.088448389052204e+001
 1.372312561722800e+000	 1.753507965581860e+000	 1.077290550608616e+001
 1.352938059602591e+000	 1.768499478580991e+000	 1.066113255839642e+001
 1.333414098422467e+000	 1.783266250705911e+000	 1.055165623443206e+001
 1.313744571513226e+000	 1.797806107968385e+000	 1.044696597132431e+001
 1.293933412823795e+000	 1.812116965751542e+000	 1.034916861882044e+001
 1.502993827631845e+000	 1.678838034245567e+000	 1.133845270758987e+001
 1.484374930673091e+000	 1.695322532004807e+000	 1.126301108447533e+001
 1.465582149173450e+000	 1.711594635463063e+000	 1.117679241870054e+001
 1.446619123958412e+000	 1.727651625782327e+000	 1.108178698780143e+001
 1.427489551781582e+000	 1.743490867337551e+000	 1.098005774857646e+001
 1.408197182947809e+000	 1.759109809128975e+000	 1.087373875007999e+001
 1.388745818894472e+000	 1.774505986113169e+000	 1.076503327853059e+001
 1.369139309734133e+000	 1.789677020451354e+000	 1.065621172735573e+001
 1.349381551761863e+000	 1.804620622673762e+000	 1.054960918674080e+001
 1.329476484930569e+000	 1.819334592758937e+000	 1.044763697867807e+001
 1.309428090297686e+000	 1.833816821126989e+000	 1.035310370690857e+001
 1.520779000237831e+000	 1.698704000202935e+000	 1.131684745829426e+001
 1.501939782816236e+000	 1.715383561729319e+000	 1.124196481034578e+001
 1.482924623249444e+000	 1.731848215658145e+000	 1.115742926554904e+001
 1.463737205445429e+000	 1.748095210978939e+000	 1.106503294252358e+001
 1.444381269902088e+000	 1.764121880878854e+000	 1.096663776771134e+001
 1.424860611302240e+000	 1.779925644171726e+000	 1.086417444571224e+001
 1.405179076066297e+000	 1.795504006644849e+000	 1.075964115824156e+001
 1.385340559865832e+000	 1.810854562322073e+000	 1.065510198282204e+001
 1.365349005101414e+000	 1.825974994641952e+000	 1.055268502350167e+001
 1.345208398348060e+000	 1.840863077549801e+000	 1.045458024716451e+001
 1.324922767771708e+000	 1.855516676502718e+000	 1.036316821078291e+001
 1.538564172843951e+000	 1.718569966160803e+000	 1.129307103543780e+001
 1.519504634959500e+000	 1.735444591454357e+000	 1.121941725595257e+001
 1.500267097325547e+000	 1.752101795853774e+000	 1.113745468594900e+001
 1.480855286932549e+000	 1.768538796176111e+000	 1.104873520836841e+001
 1.461272988022692e+000	 1.784752894420728e+000	 1.095487598654720e+001
 1.441524039656768e+000	 1.800741479215049e+000	 1.085755909759500e+001
 1.421612333238213e+000	 1.816502027177092e+000	 1.075853089352950e+001
 1.401541809997616e+000	 1.832032104193344e+000	 1.065960107887094e+001
 1.381316458441040e+000	 1.847329366610672e+000	 1.056264149460436e+001
 1.360940311765608e+000	 1.862391562341168e+000	 1.046958459973300e+001
 1.340417445245762e+000	 1.877216531878911e+000	 1.038242164306955e+001
 1.556349345450221e+000	 1.738435932119336e+000	 1.126810249104753e+001
 1.537069487102882e+000	 1.755505621180099e+000	 1.119658360595700e+001
 1.517609571401743e+000	 1.772355376050134e+000	 1.111827688715355e+001
 1.497973368419745e+000	 1.788982381374034e+000	 1.103445326432134e+001
 1.478164706143358e+000	 1.805383907963363e+000	 1.094644279956453e+001
 1.458187468011342e+000	 1.821557314259135e+000	 1.085563508860681e+001
 1.438045590410163e+000	 1.837500047710095e+000	 1.076347939128189e+001
 1.417743060129417e+000	 1.853209646065358e+000	 1.067148447730724e+001
 1.397283911780661e+000	 1.868683738580113e+000	 1.058121817455778e+001
 1.376672225183124e+000	 1.883920047133223e+000	 1.049430660840891e+001
 1.355912122719749e+000	 1.898916387255753e+000	 1.041243312219234e+001
 1.200965347988850e+000	 1.681917833494530e+000	 1.028823031964796e+001
 1.182449835540888e+000	 1.694986070180314e+000	 1.017494296812275e+001
 1.163810271280825e+000	 1.707838140353592e+000	 1.005876412982856e+001
 1.145050403035632e+000	 1.720472359784237e+000	 9.940057892283047e+000
 1.126174006844908e+000	 1.732887130004770e+000	 9.819092703263461e+000
 1.107184884536711e+000	 1.745080938822499e+000	 9.696040622673152e+000
 1.088086861295837e+000	 1.757052360750431e+000	 9.570976693791472e+000
 1.068883783227663e+000	 1.768800057357055e+000	 9.443878425283197e+000
 1.049579514920662e+000	 1.780322777535210e+000	 9.314625376091906e+000
 1.030177937010685e+000	 1.791619357690404e+000	 9.182998836200715e+000
 1.010682943750033e+000	 1.802688721849068e+000	 9.048681597193433e+000
 1.216460025459840e+000	 1.703617688872130e+000	 1.031658378947358e+001
 1.197705628606193e+000	 1.716854530016881e+000	 1.020429853867608e+001
 1.178825579442343e+000	 1.729872415700694e+000	 1.008884564298535e+001
 1.159823674149157e+000	 1.742669639963754e+000	 9.970644747703764e+000
 1.140703737484130e+000	 1.755244583715394e+000	 9.850018407393995e+000
 1.121469620325929e+000	 1.767595715252836e+000	 9.727191347559884e+000
 1.102125197211310e+000	 1.779721590697669e+000	 9.602289838386797e+000
 1.082674363867519e+000	 1.791620854350134e+000	 9.475341170594305e+000
 1.063121034743368e+000	 1.803292238961474e+000	 9.346273224324124e+000
 1.043469140542086e+000	 1.814734565924676e+000	 9.214914122975083e+000
 1.023722625759031e+000	 1.825946745384120e+000	 9.080991964993331e+000
 1.231954702931564e+000	 1.725317544248913e+000	 1.033420860303203e+001
 1.212961421672267e+000	 1.738722989852626e+000	 1.022403737380512e+001
 1.193840887604656e+000	 1.751906691046967e+000	 1.011041569134483e+001
 1.174596945263497e+000	 1.764866920142439e+000	 9.993816613862100e+000
 1.155233468124176e+000	 1.777602037425184e+000	 9.874615368745886e+000
 1.135754356115979e+000	 1.790110491682342e+000	 9.753088638994926e+000
 1.116163533127615e+000	 1.802390820644081e+000	 9.629413952307063e+000
 1.096464944508205e+000	 1.814441651342400e+000	 9.503669161422376e+000
 1.076662554566900e+000	 1.826261700386945e+000	 9.375832005312764e+000
 1.056760344074309e+000	 1.837849774158181e+000	 9.245779741951118e+000
 1.036762307768846e+000	 1.849204768918440e+000	 9.113288844643520e+000
 1.247449380403922e+000	 1.747017399625063e+000	 1.034359022115362e+001
 1.228217214739000e+000	 1.760591449687726e+000	 1.023636091164077e+001
 1.208856195767644e+000	 1.773940966392586e+000	 1.012540527084046e+001
 1.189370216378519e+000	 1.787064200320456e+000	 1.001124777804884e+001
 1.169763198764909e+000	 1.799959491134297e+000	 9.894315043040786e+000
 1.150039091906711e+000	 1.812625268111165e+000	 9.774935133661771e+000
 1.130201869044597e+000	 1.825060050589807e+000	 9.653336994572861e+000
 1.110255525149559e+000	 1.837262448333983e+000	 9.529649944136152e+000
 1.090204074391088e+000	 1.849231161811743e+000	 9.403903237573614e+000
 1.070051547607175e+000	 1.860964982391030e+000	 9.276025685827896e+000
 1.049801989779293e+000	 1.872462792452129e+000	 9.145845320981028e+000
 1.262944057876814e+000	 1.768717255000763e+000	 1.034735254659010e+001
 1.243473007806282e+000	 1.782459909522359e+000	 1.024361777652433e+001
 1.223871503931186e+000	 1.795975241737718e+000	 1.013590054133257e+001
 1.204143487494095e+000	 1.809261480497971e+000	 1.002477487940425e+001
 1.184292929406188e+000	 1.822316944842891e+000	 9.910717613538081e+000
 1.164323827697979e+000	 1.835140044539452e+000	 9.794107737670741e+000
 1.144240204962098e+000	 1.847729280534987e+000	 9.675225881118841e+000
 1.124046105791414e+000	 1.860083245325012e+000	 9.554253835554921e+000
 1.103745594215759e+000	 1.872200623235985e+000	 9.431274131242510e+000
 1.083342751140507e+000	 1.884080190623331e+000	 9.306269650526209e+000
 1.062841671790189e+000	 1.895720815985286e+000	 9.179123268187762e+000
 1.278438735350138e+000	 1.790417110376195e+000	 1.034825154732086e+001
 1.258728800874001e+000	 1.804328369356703e+000	 1.024829714462180e+001
 1.238886812095163e+000	 1.818009517082537e+000	 1.014413598687635e+001
 1.218916758610096e+000	 1.831458760675146e+000	 1.003638991601352e+001
 1.198822660047875e+000	 1.844674398551119e+000	 9.925584896909021e+000
 1.178608563489632e+000	 1.857654820967351e+000	 9.812150482888699e+000
 1.158278540879960e+000	 1.870398510479757e+000	 9.696419342937213e+000
 1.137836686433605e+000	 1.882904042315616e+000	 9.578626833894944e+000
 1.117287114040742e+000	 1.895170084659792e+000	 9.458910602404423e+000
 1.096633954674127e+000	 1.907195398855193e+000	 9.337310203028498e+000
 1.075881353801352e+000	 1.918978839518011e+000	 9.213766720779391e+000
 1.293933412823795e+000	 1.812116965751542e+000	 1.034916861882044e+001
 1.273984593942049e+000	 1.826196829190936e+000	 1.025302188414443e+001
 1.253902120259454e+000	 1.840043792427213e+000	 1.015248738293617e+001
 1.233690029726389e+000	 1.853656040852145e+000	 1.004823308795201e+001
 1.213352390689829e+000	 1.867031852259139e+000	 9.940833110697968e+000
 1.192893299281523e+000	 1.880169597395008e+000	 9.830767267103553e+000
 1.172316876798029e+000	 1.893067740424256e+000	 9.718420686888065e+000
 1.151627267075970e+000	 1.905724839305924e+000	 9.604083447783651e+000
 1.130828633865865e+000	 1.918139546083284e+000	 9.487950217443915e+000
 1.109925158207855e+000	 1.930310607086728e+000	 9.370119887733731e+000
 1.088921035812597e+000	 1.942236863050402e+000	 9.250595188132342e+000
 1.309428090297686e+000	 1.833816821126989e+000	 1.035310370690857e+001
 1.289240387010314e+000	 1.848065289025234e+000	 1.026054148884487e+001
 1.268917428423940e+000	 1.862078067771918e+000	 1.016346458653679e+001
 1.248463300842847e+000	 1.875853321029134e+000	 1.006258548986815e+001
 1.227882121331912e+000	 1.889389305967105e+000	 9.958525513835554e+000
 1.207178035073505e+000	 1.902684373822573e+000	 9.851814487643514e+000
 1.186355212716147e+000	 1.915736970368623e+000	 9.742890467237965e+000
 1.165417847718342e+000	 1.928545636296065e+000	 9.632099450127800e+000
 1.144370153690955e+000	 1.941109007506578e+000	 9.519695073212610e+000
 1.123216361741515e+000	 1.953425815318042e+000	 9.405838276418733e+000
 1.101960717823740e+000	 1.965494886582560e+000	 9.290596917226067e+000
 1.324922767771708e+000	 1.855516676502718e+000	 1.036316821078291e+001
 1.304496180078686e+000	 1.869933748859776e+000	 1.027372482171195e+001
 1.283932736588499e+000	 1.884112343116823e+000	 1.017970416384648e+001
 1.263236571959339e+000	 1.898050601206275e+000	 1.008186166542146e+001
 1.242411851973984e+000	 1.911746759675175e+000	 9.980864930595471e+000
 1.221462770865427e+000	 1.925199150250191e+000	 9.877293577173880e+000
 1.200393548634157e+000	 1.938406200312997e+000	 9.771639075235017e+000
 1.179208428360558e+000	 1.951366433286168e+000	 9.664304562986898e+000
 1.157911673515842e+000	 1.964078468929797e+000	 9.555604618267157e+000
 1.136507565274927e+000	 1.976541023549247e+000	 9.445764966422386e+000
 1.115000399834598e+000	 1.988752910114585e+000	 9.334922107838501e+000
 1.340417445245762e+000	 1.877216531878911e+000	 1.038242164306955e+001
 1.319751973147055e+000	 1.891802208694739e+000	 1.029555268422147e+001
 1.298948044753012e+000	 1.906146618462098e+000	 1.020396186834532e+001
 1.278009843075734e+000	 1.920247881383732e+000	 1.010860203475274e+001
 1.256941582615906e+000	 1.934104213383504e+000	 1.001018616742581e+001
 1.235747506657143e+000	 1.947713926678010e+000	 9.909343449585263e+000
 1.214431884551902e+000	 1.961075430257515e+000	 9.806619253351675e+000
 1.192999009002452e+000	 1.974187230276363e+000	 9.702475079033579e+000
 1.171453193340355e+000	 1.987047930353057e+000	 9.597288419946295e+000
 1.149798768807915e+000	 1.999656231780452e+000	 9.491352531241720e+000
 1.128040081844989e+000	 2.012010933646574e+000	 9.384414487970362e+000
 1.355912122719749e+000	 1.898916387255753e+000	 1.041243312219234e+001
 1.335007766215312e+000	 1.913670668530300e+000	 1.032909847712181e+001
 1.313963352917359e+000	 1.928180893807915e+000	 1.023910498153145e+001
 1.292783114191905e+000	 1.942445161561669e+000	 1.014546520514307e+001
 1.271471313257540e+000	 1.956461667092249e+000	 1.004894833122381e+001
 1.250032242448504e+000	 1.970228703106179e+000	 9.950232863166363e+000
 1.228470220469227e+000	 1.983744660202318e+000	 9.849918540221093e+000
 1.206789589643861e+000	 1.997008027266777e+000	 9.748526424673804e+000
 1.184994713164319e+000	 2.010017391776478e+000	 9.646560693164490e+000
 1.163089972340300e+000	 2.022771440011767e+000	 9.543825734823338e+000
 1.141079763854727e+000	 2.035268957178629e+000	 9.439294317683721e+000
 1.010682943750033e+000	 1.802688721849068e+000	 9.048681597193433e+000
 9.911013848124723e-001	 1.813528272997309e+000	 8.913650392633931e+000
 9.714342563694887e-001	 1.824138789421242e+000	 8.780407783366661e+000
 9.516854783112035e-001	 1.834519459694026e+000	 8.649318631039353e+000
 9.318589744831693e-001	 1.844669559610956e+000	 8.520644656643908e+000
 9.119586703247526e-001	 1.854588451907370e+000	 8.394539623569671e+000
 8.919884905296137e-001	 1.864275585902090e+000	 8.271047224593565e+000
 8.719523567309262e-001	 1.873730497067710e+000	 8.150099102413453e+000
 8.518541852139021e-001	 1.882952806529170e+000	 8.031513011015415e+000
 8.316978846581150e-001	 1.891942220492133e+000	 7.914991126033959e+000
 8.114873539120182e-001	 1.900698529602767e+000	 7.800118513058283e+000
 1.023722625759031e+000	 1.825946745384120e+000	 9.080991964993331e+000
 1.003888428441440e+000	 1.836926146819623e+000	 8.946588165204391e+000
 9.839675576132633e-001	 1.847673558558638e+000	 8.814244304035139e+000
 9.639639837384755e-001	 1.858188158705416e+000	 8.684267685816206e+000
 9.438816812875148e-001	 1.868469213711674e+000	 8.556859268914588e+000
 9.237246263451980e-001	 1.878516078090857e+000	 8.432108823587386e+000
 9.034967942410129e-001	 1.888328194056983e+000	 8.309992844391777e+000
 8.832021572044748e-001	 1.897905091089385e+000	 8.190372582833076e+000
 8.628446820481395e-001	 1.907246385424817e+000	 8.072992207665868e+000
 8.424283278807979e-001	 1.916351779478452e+000	 7.957477101301791e+000
 8.219570438532781e-001	 1.925221061195408e+000	 7.843332301740595e+000
 1.036762307768846e+000	 1.849204768918440e+000	 9.113288844643520e+000
 1.016675472071220e+000	 1.860324020641252e+000	 8.980526276185515e+000
 9.965008588578460e-001	 1.871208327695403e+000	 8.850061462158539e+000
 9.762424891665522e-001	 1.881856857716237e+000	 8.722190268686230e+000
 9.559043880926638e-001	 1.892268867811892e+000	 8.597085821060986e+000
 9.354905823664451e-001	 1.902443704273920e+000	 8.474810467272800e+000
 9.150050979532124e-001	 1.912380802211533e+000	 8.355310294167092e+000
 8.944519576788237e-001	 1.922079685110802e+000	 8.238413112207859e+000
 8.738351788831772e-001	 1.931539964320292e+000	 8.123826553553450e+000
 8.531587711042796e-001	 1.940761338464687e+000	 8.011136292307310e+000
 8.324267337953374e-001	 1.949743592788055e+000	 7.899804396947319e+000
 1.049801989779293e+000	 1.872462792452129e+000	 9.145845320981028e+000
 1.029462515701623e+000	 1.883721894462284e+000	 9.015587285774823e+000
 1.009034160103046e+000	 1.894743096831615e+000	 8.887855750650761e+000
 9.885209945952407e-001	 1.905525556726559e+000	 8.762959921487296e+000
 9.679270948984198e-001	 1.916068521911670e+000	 8.641083782675354e+000
 9.472565383882966e-001	 1.926371330456608e+000	 8.522297838897428e+000
 9.265134016660140e-001	 1.936433410365777e+000	 8.406553584584785e+000
 9.057017581537732e-001	 1.946254279131987e+000	 8.293681382314318e+000
 8.848256757188148e-001	 1.955833543215612e+000	 8.183388438873820e+000
 8.638892143283621e-001	 1.965170897450847e+000	 8.075256888378243e+000
 8.428964237379969e-001	 1.974266124380708e+000	 7.968741993149009e+000
 1.062841671790189e+000	 1.895720815985286e+000	 9.179123268187761e+000
 1.042249559332463e+000	 1.907119768282810e+000	 9.052092879963894e+000
 1.021567461348670e+000	 1.918277865967356e+000	 8.927816288701633e+000
 1.000799500024346e+000	 1.929194255736451e+000	 8.806637413286021e+000
 9.799498017045861e-001	 1.939868176011067e+000	 8.688797929743432e+000
 9.590224944105535e-001	 1.950298956638970e+000	 8.574406984640360e+000
 9.380217053792190e-001	 1.960486018519756e+000	 8.463456367429002e+000
 9.169515586291239e-001	 1.970428873152970e+000	 8.355814077322906e+000
 8.958161725548528e-001	 1.980127122110799e+000	 8.251222118927222e+000
 8.746196575528441e-001	 1.989580456436942e+000	 8.149294388452706e+000
 8.533661136810564e-001	 1.998788655973366e+000	 8.049514662051557e+000
 1.075881353801352e+000	 1.918978839518011e+000	 9.213766720779391e+000
 1.055036602963550e+000	 1.930517642102919e+000	 9.090544046926084e+000
 1.034100762594529e+000	 1.941812635102705e+000	 8.970301983782949e+000
 1.013078005453673e+000	 1.952862954745983e+000	 8.853470107820762e+000
 9.919725085109667e-001	 1.963667830110144e+000	 8.740352910824427e+000
 9.707884504330185e-001	 1.974226582821057e+000	 8.631151649658568e+000
 9.495300090926281e-001	 1.984538626673510e+000	 8.525927264477760e+000
 9.282013591046765e-001	 1.994603467173783e+000	 8.424619611443665e+000
 9.068066693910913e-001	 2.004420701005870e+000	 8.326649642874255e+000
 8.853501007775266e-001	 2.013990015422982e+000	 8.228645049461591e+000
 8.638358036243158e-001	 2.023311187566027e+000	 8.129046865574178e+000
 1.088921035812597e+000	 1.942236863050402e+000	 9.250595188132342e+000
 1.067823646594697e+000	 1.953915515922700e+000	 9.131617970651629e+000
 1.046634063840428e+000	 1.965347404237740e+000	 9.015860658630745e+000
 1.025356510883029e+000	 1.976531653755224e+000	 8.903865343380510e+000
 1.003995215317365e+000	 1.987467484208959e+000	 8.796047749466679e+000
 9.825544064554943e-001	 1.998154209002917e+000	 8.692718144211916e+000
 9.610383128060425e-001	 2.008591234827077e+000	 8.592887893763189e+000
 9.394511595802311e-001	 2.018778061194452e+000	 8.493981294725010e+000
 9.177971662273304e-001	 2.028714279900847e+000	 8.395139834082260e+000
 8.960805440022087e-001	 2.038399574408974e+000	 8.295495576636203e+000
 8.743054935675751e-001	 2.047833719158692e+000	 8.194125285419796e+000
 1.101960717823740e+000	 1.965494886582560e+000	 9.290596917226067e+000
 1.080610690225716e+000	 1.977313389742243e+000	 9.176161544804526e+000
 1.059167365086179e+000	 1.988882173372540e+000	 9.065205931986348e+000
 1.037635016312218e+000	 2.000200352764243e+000	 8.958415548303316e+000
 1.016017922123584e+000	 2.011267138307571e+000	 8.854907631364851e+000
 9.943203624777822e-001	 2.022081835184600e+000	 8.753131052327481e+000
 9.725466165192630e-001	 2.032643842980497e+000	 8.652525868698707e+000
 9.507009600555887e-001	 2.042952655215010e+000	 8.552453301159398e+000
 9.287876630633704e-001	 2.053007858795747e+000	 8.452225357650480e+000
 9.068109872266910e-001	 2.062809133394929e+000	 8.351101720028670e+000
 8.847751835106342e-001	 2.072356250751360e+000	 8.248291923816151e+000
 1.115000399834598e+000	 1.988752910114585e+000	 9.334922107838505e+000
 1.093397733856419e+000	 2.000711263561638e+000	 9.225181930405896e+000
 1.071700666331588e+000	 2.012416942507187e+000	 9.118100296917930e+000
 1.049913521741047e+000	 2.023869051773110e+000	 9.012891197216669e+000
 1.028040628929428e+000	 2.035066792406040e+000	 8.909243563212817e+000
 1.006086318499684e+000	 2.046009461366154e+000	 8.806774891576364e+000
 9.840549202320906e-001	 2.056696451133809e+000	 8.705064753360601e+000
 9.619507605305493e-001	 2.067127249235484e+000	 8.603620553015254e+000
 9.397781598990115e-001	 2.077301437690591e+000	 8.501906040679252e+000
 9.175414304507735e-001	 2.087218692380858e+000	 8.399338634663751e+000
 8.952448734532940e-001	 2.096878782344030e+000	 8.295291610049395e+000
 1.128040081844989e+000	 2.012010933646574e+000	 9.384414487970362e+000
 1.106184777486618e+000	 2.024109137380973e+000	 9.277159827693836e+000
 1.084233967576464e+000	 2.035951711641759e+000	 9.171022819695050e+000
 1.062192027169320e+000	 2.047537750781894e+000	 9.065911616679138e+000
 1.040063335734701e+000	 2.058866446504426e+000	 8.961669315291900e+000
 1.017852274521003e+000	 2.069937087547630e+000	 8.858080915123276e+000
 9.955632239443272e-001	 2.080749059287053e+000	 8.754870394365696e+000
 9.732005610049137e-001	 2.091301843255902e+000	 8.651739619244772e+000
 9.507686567340532e-001	 2.101595016585397e+000	 8.548325082199193e+000
 9.282718736742566e-001	 2.111628251366767e+000	 8.444230913567559e+000
 9.057145633953535e-001	 2.121401313936701e+000	 8.339024025806102e+000
 1.141079763854727e+000	 2.035268957178629e+000	 9.439294317683721e+000
 1.118971821116124e+000	 2.047507011200339e+000	 9.333511486910044e+000
 1.096767268820617e+000	 2.059486480776334e+000	 9.227801547211390e+000
 1.074470532596845e+000	 2.071206449790665e+000	 9.122243349519701e+000
 1.052086042539205e+000	 2.082666100602788e+000	 9.016856995789400e+000
 1.029618230541540e+000	 2.093864713729079e+000	 8.911611341048751e+000
 1.007071527655773e+000	 2.104801667440268e+000	 8.806422025681028e+000
 9.844503614784818e-001	 2.115476437276296e+000	 8.701188670234384e+000
 9.617591535682968e-001	 2.125888595480185e+000	 8.595754846611746e+000
 9.390023168969391e-001	 2.136037810352666e+000	 8.489939225056121e+000
 9.161842533366131e-001	 2.145923845529372e+000	 8.383531183062507e+000
 8.114873539120182e-001	 1.900698529602767e+000	 7.800118513058283e+000
 7.912234369493598e-001	 1.909222869577757e+000	 7.682339030486806e+000
 7.709130368854968e-001	 1.917513867912702e+000	 7.559078933898759e+000
 7.505600127467703e-001	 1.925571565595462e+000	 7.432669455901183e+000
 7.301682051371443e-001	 1.933396084890728e+000	 7.305320507090198e+000
 7.097414342048215e-001	 1.940987628381445e+000	 7.179114875086381e+000
 6.892834976536051e-001	 1.948346477952993e+000	 7.056002746855264e+000
 6.687981688007214e-001	 1.955472993722270e+000	 6.937796574319687e+000
 6.482891946827237e-001	 1.962367612913845e+000	 6.827335173460778e+000
 6.277602942109746e-001	 1.969030848685419e+000	 6.727609217095131e+000
 6.072151563781101e-001	 1.975463288904845e+000	 6.639264204435060e+000
 8.219570438532781e-001	 1.925221061195408e+000	 7.843332301740595e+000
 8.014316848281604e-001	 1.933855380945222e+000	 7.726417612097875e+000
 7.808592429837711e-001	 1.942253348515646e+000	 7.604655298207936e+000
 7.602436271350281e-001	 1.950415005423360e+000	 7.480413181230958e+000
 7.395887274367915e-001	 1.958340475510496e+000	 7.355935716329286e+000
 7.188984133242422e-001	 1.966029963973694e+000	 7.233337778377839e+000
 6.981765314985874e-001	 1.973483756335180e+000	 7.114598768592429e+000
 6.774269039598260e-001	 1.980702217358025e+000	 7.001557064080340e+000
 6.566533260882138e-001	 1.987685789907810e+000	 6.896257995811512e+000
 6.358595647759500e-001	 1.994434993762919e+000	 6.802191644071477e+000
 6.150493566104991e-001	 2.000950424375790e+000	 6.720012918045887e+000
 8.324267337953374e-001	 1.949743592788055e+000	 7.899804396947318e+000
 8.116399327077611e-001	 1.958487892312784e+000	 7.786167309030262e+000
 7.908054490828439e-001	 1.966992829118775e+000	 7.668645138553472e+000
 7.699272415240813e-001	 1.975258445251525e+000	 7.549591623706876e+000
 7.490092497372286e-001	 1.983284866130609e+000	 7.431234648790010e+000
 7.280553924444432e-001	 1.991072299566360e+000	 7.315669702108562e+000
 7.070695653443357e-001	 1.998621034717844e+000	 7.204853649865266e+000
 6.860556391196770e-001	 2.005931440994312e+000	 7.099300457004605e+000
 6.650174574944245e-001	 2.013003966902344e+000	 6.998090172147899e+000
 6.439588353416124e-001	 2.019839138841012e+000	 6.904256214145518e+000
 6.228835568435334e-001	 2.026437559847334e+000	 6.819220673461667e+000
 8.428964237379969e-001	 1.974266124380708e+000	 7.968741993149010e+000
 8.218481805879621e-001	 1.983120403680432e+000	 7.860700650053749e+000
 8.007516551825158e-001	 1.991732309722067e+000	 7.750038017775203e+000
 7.796108559137310e-001	 2.000101885079929e+000	 7.639045247712326e+000
 7.584297720382563e-001	 2.008229256751030e+000	 7.527752017675800e+000
 7.372123715652267e-001	 2.016114635159398e+000	 7.416001376502846e+000
 7.159625991906543e-001	 2.023758313100938e+000	 7.305504432636921e+000
 6.946843742800806e-001	 2.031160664631070e+000	 7.197893236780014e+000
 6.733815889011646e-001	 2.038322143897384e+000	 7.094713763431368e+000
 6.520581059077746e-001	 2.045243283919630e+000	 6.998150289664724e+000
 6.307177570770309e-001	 2.051924695319412e+000	 6.910787281506456e+000
 8.533661136810564e-001	 1.998788655973366e+000	 8.049514662051557e+000
 8.320564284685621e-001	 2.007752915048153e+000	 7.947736067793413e+000
 8.106978612825863e-001	 2.016471790325503e+000	 7.840538826177271e+000
 7.892944703037772e-001	 2.024945324908542e+000	 7.729712997212663e+000
 7.678502943396766e-001	 2.033173647371722e+000	 7.617028251509439e+000
 7.463693506863949e-001	 2.041156970752760e+000	 7.504191964821629e+000
 7.248556330373465e-001	 2.048895591484403e+000	 7.392842468469965e+000
 7.033131094408428e-001	 2.056389888268241e+000	 7.284541955890962e+000
 6.817457203082428e-001	 2.063640320892865e+000	 7.180769093428340e+000
 6.601573764742492e-001	 2.070647428998710e+000	 7.083073072712049e+000
 6.385519573108083e-001	 2.077411830791955e+000	 6.994525645156177e+000
 8.638358036243158e-001	 2.023311187566027e+000	 8.129046865574177e+000
 8.422646763493622e-001	 2.032385426415939e+000	 8.025325067811377e+000
 8.206440673828561e-001	 2.041211270929060e+000	 7.916849033765359e+000
 7.989780846940207e-001	 2.049788764737333e+000	 7.805319350392236e+000
 7.772708166412898e-001	 2.058118037992645e+000	 7.692384608297481e+000
 7.555263298077501e-001	 2.066199306346401e+000	 7.579634960074389e+000
 7.337486668842164e-001	 2.074032869868189e+000	 7.468595211393842e+000
 7.119418446017694e-001	 2.081619111905766e+000	 7.360717490959541e+000
 6.901098517154681e-001	 2.088958497888726e+000	 7.257373551069338e+000
 6.682566470408484e-001	 2.096051574078183e+000	 7.159846755585541e+000
 6.463861575446830e-001	 2.102898966264897e+000	 7.070654801393324e+000
 8.743054935675751e-001	 2.047833719158692e+000	 8.194125285419794e+000
 8.524729242301624e-001	 2.057017937783778e+000	 8.089067362612020e+000
 8.305902734831250e-001	 2.065950751532719e+000	 7.980078702173236e+000
 8.086616990842614e-001	 2.074632204566274e+000	 7.868694914575177e+000
 7.866913389428977e-001	 2.083062428613760e+000	 7.756403938761191e+000
 7.646833089290944e-001	 2.091241641940274e+000	 7.644639603855891e+000
 7.426417007310678e-001	 2.099170148252240e+000	 7.534774635069780e+000
 7.205705797626665e-001	 2.106848335543585e+000	 7.428113152976478e+000
 6.984739831226497e-001	 2.114276674884903e+000	 7.325882721613232e+000
 6.763559176073851e-001	 2.121455719157986e+000	 7.229226006516294e+000
 6.542203577784720e-001	 2.128386101738172e+000	 7.139770971417415e+000
 8.847751835106342e-001	 2.072356250751360e+000	 8.248291923816151e+000
 8.626811721107622e-001	 2.081650449151659e+000	 8.142386447946210e+000
 8.405364795831936e-001	 2.090690232136461e+000	 8.033465885876405e+000
 8.183453134743008e-001	 2.099475644395333e+000	 7.922862765869287e+000
 7.961118612443011e-001	 2.108006819235029e+000	 7.811866737682940e+000
 7.738402880502302e-001	 2.116283977534334e+000	 7.701718218642066e+000
 7.515347345777037e-001	 2.124307426636505e+000	 7.593601386667121e+000
 7.291993149233398e-001	 2.132077559181640e+000	 7.488636572540526e+000
 7.068381145295957e-001	 2.139594851881333e+000	 7.387872110664094e+000
 6.844551881736718e-001	 2.146859864238052e+000	 7.292275713874511e+000
 6.620545580119923e-001	 2.153873237211714e+000	 7.202818606794452e+000
 8.952448734532940e-001	 2.096878782344030e+000	 8.295291610049395e+000
 8.728894199909623e-001	 2.106282960519573e+000	 8.188877643590232e+000
 8.504826856828617e-001	 2.115429712740264e+000	 8.080425519856069e+000
 8.280289278639385e-001	 2.124319084224482e+000	 7.971028322932104e+000
 8.055323835453017e-001	 2.132951209856415e+000	 7.861741601959302e+000
 7.829972671709593e-001	 2.141326313128531e+000	 7.753577181293784e+000
 7.604277684239289e-001	 2.149444705020930e+000	 7.647496211263069e+000
 7.378280500835953e-001	 2.157306782819872e+000	 7.544401514952324e+000
 7.152022459361153e-001	 2.164913028877952e+000	 7.445129294183410e+000
 6.925544587395210e-001	 2.172264009318316e+000	 7.350440264869063e+000
 6.698887582450617e-001	 2.179360372685457e+000	 7.261010298183425e+000
 9.057145633953535e-001	 2.121401313936701e+000	 8.339024025806099e+000
 8.830976678705623e-001	 2.130915471887508e+000	 8.232296469437786e+000
 8.604288917819299e-001	 2.140169193344108e+000	 8.124538527207307e+000
 8.377125422529758e-001	 2.149162524053690e+000	 8.016569113365518e+000
 8.149529058456995e-001	 2.157895600477876e+000	 7.909175586813401e+000
 7.921542462910846e-001	 2.166368648722823e+000	 7.803107803956294e+000
 7.693208022695467e-001	 2.174581983405461e+000	 7.699071296215290e+000
 7.464567852432394e-001	 2.182536006458223e+000	 7.597719630838862e+000
 7.235663773420178e-001	 2.190231205874698e+000	 7.499646022208507e+000
 7.006537293047455e-001	 2.197668154398711e+000	 7.405374268608667e+000
 6.777229584774968e-001	 2.204847508159331e+000	 7.315349096397108e+000
 9.161842533366131e-001	 2.145923845529372e+000	 8.383531183062509e+000
 8.933059157493626e-001	 2.155547983255453e+000	 8.276546924182803e+000
 8.703750978801976e-001	 2.164908673947971e+000	 8.169540826614623e+000
 8.473961566412123e-001	 2.174005963882928e+000	 8.063024441328095e+000
 8.243734281452965e-001	 2.182839991099376e+000	 7.957484468312052e+000
 8.013112254104073e-001	 2.191410984317160e+000	 7.853377129758085e+000
 7.782138361143608e-001	 2.199719261790046e+000	 7.751121541903772e+000
 7.550855204020774e-001	 2.207765230096631e+000	 7.651092147460187e+000
 7.319305087471113e-001	 2.215549382871506e+000	 7.553610279976760e+000
 7.087529998691573e-001	 2.223072299479171e+000	 7.458934940096024e+000
 6.855571587091146e-001	 2.230334643633273e+000	 7.367252871370999e+000
 6.072151563781101e-001	 1.975463288904845e+000	 6.639264204435060e+000
 5.866574382233224e-001	 1.981665594387705e+000	 6.556306496771599e+000
 5.660907622939357e-001	 1.987638496108145e+000	 6.473547423934998e+000
 5.455187159444396e-001	 1.993382795332379e+000	 6.391945139670662e+000
 5.249448500593381e-001	 1.998899362722714e+000	 6.311917266785866e+000
 5.043726775313110e-001	 2.004189136910731e+000	 6.232596531460744e+000
 4.838056717963329e-001	 2.009253123036070e+000	 6.152025845404389e+000
 4.632472654263897e-001	 2.014092391253171e+000	 6.069677770897673e+000
 4.427008487803356e-001	 2.018708075208402e+000	 5.984813395669875e+000
 4.221697687133255e-001	 2.023101370489906e+000	 5.896464930590236e+000
 4.016573273451569e-001	 2.027273533052570e+000	 5.803470156108411e+000
 6.150493566104991e-001	 2.000950424375790e+000	 6.720012918045887e+000
 5.942264058136259e-001	 2.007232751087749e+000	 6.641202054130912e+000
 5.733943816702277e-001	 2.013282714303859e+000	 6.559345988351045e+000
 5.525569178183158e-001	 2.019101125628146e+000	 6.475642329150059e+000
 5.317176109553852e-001	 2.024688866956063e+000	 6.390842654241066e+000
 5.108800192969422e-001	 2.030046889029278e+000	 6.305299581657299e+000
 4.900476610927235e-001	 2.035176209955582e+000	 6.219010531079677e+000
 4.692240132012560e-001	 2.040077913696388e+000	 6.131658366572430e+000
 4.484125097233062e-001	 2.044753148524193e+000	 6.042649130723888e+000
 4.276165406946642e-001	 2.049203125452439e+000	 5.951147095516157e+000
 4.068394508385930e-001	 2.053429116640149e+000	 5.856107367063362e+000
 6.228835568435334e-001	 2.026437559847334e+000	 6.819220673461667e+000
 6.017953734045254e-001	 2.032799907788383e+000	 6.736381081464288e+000
 5.806980010470585e-001	 2.038926932500136e+000	 6.650636231966917e+000
 5.595951196926687e-001	 2.044819455924433e+000	 6.563293292677921e+000
 5.384903718518437e-001	 2.050478371189883e+000	 6.475210148314308e+000
 5.173873610629187e-001	 2.055904641148230e+000	 6.386841681668852e+000
 4.962896503893941e-001	 2.061099296875428e+000	 6.298282421025379e+000
 4.752007609763390e-001	 2.066063436139859e+000	 6.209305778762069e+000
 4.541241706664351e-001	 2.070798221840154e+000	 6.119400126051447e+000
 4.330633126761093e-001	 2.075304880415053e+000	 6.027801964717547e+000
 4.120215743320919e-001	 2.079584700227718e+000	 5.933526469647206e+000
 6.307177570770309e-001	 2.051924695319412e+000	 6.910787281506456e+000
 6.093643409958433e-001	 2.058367064489541e+000	 6.825975227006993e+000
 5.880016204242572e-001	 2.064571150696912e+000	 6.738673167716025e+000
 5.666333215673344e-001	 2.070537786221184e+000	 6.650224658543460e+000
 5.452631327485580e-001	 2.076267875424119e+000	 6.561524588562906e+000
 5.238947028290932e-001	 2.081762393267542e+000	 6.473064555544373e+000
 5.025316396862062e-001	 2.087022383795570e+000	 6.384974250391796e+000
 4.811775087515102e-001	 2.092048958583554e+000	 6.297059112920100e+000
 4.598358316096041e-001	 2.096843295156265e+000	 6.208834541738062e+000
 4.385100846575524e-001	 2.101406635377738e+000	 6.119556958066260e+000
 4.172036978255548e-001	 2.105740283815280e+000	 6.028252036197827e+000
 6.385519573108083e-001	 2.077411830791955e+000	 6.994525645156177e+000
 6.169333085874019e-001	 2.083934221191156e+000	 6.909133615285374e+000
 5.953052398016532e-001	 2.090215368894127e+000	 6.821921609911673e+000
 5.736715234421498e-001	 2.096256116518343e+000	 6.734202255451196e+000
 5.520358936453728e-001	 2.102057379658719e+000	 6.646844343901443e+000
 5.304020445953191e-001	 2.107620145387170e+000	 6.560317160769373e+000
 5.087736289830221e-001	 2.112945470715970e+000	 6.474730432297764e+000
 4.871542565266414e-001	 2.118034481027448e+000	 6.389870193067421e+000
 4.655474925526936e-001	 2.122888368472507e+000	 6.305230897742759e+000
 4.439568566388837e-001	 2.127508390340486e+000	 6.220044118764650e+000
 4.223858213188826e-001	 2.131895867402835e+000	 6.133304185256703e+000
 6.463861575446830e-001	 2.102898966264897e+000	 7.070654801393324e+000
 6.245022761790250e-001	 2.109501377893164e+000	 6.985434492312575e+000
 6.026088591790755e-001	 2.115859587091717e+000	 6.899295174189875e+000
 5.807097253169511e-001	 2.121974446815848e+000	 6.813457004232123e+000
 5.588086545421321e-001	 2.127846883893632e+000	 6.728705717040606e+000
 5.369093863614490e-001	 2.133477897507068e+000	 6.645435741641937e+000
 5.150156182797036e-001	 2.138868557636592e+000	 6.563688511311831e+000
 4.931310043016035e-001	 2.144020003471510e+000	 6.483186310151839e+000
 4.712591534955852e-001	 2.148933441788862e+000	 6.403362024518422e+000
 4.494036286199950e-001	 2.153610145303287e+000	 6.323385186482536e+000
 4.275679448119763e-001	 2.158051450990382e+000	 6.242184710581159e+000
 6.542203577784720e-001	 2.128386101738172e+000	 7.139770971417415e+000
 6.320712437705345e-001	 2.135068534595499e+000	 7.054858411464503e+000
 6.099124785563529e-001	 2.141503805289619e+000	 6.970131437668304e+000
 5.877479271915753e-001	 2.147692777113644e+000	 6.886661901058147e+000
 5.655814154386809e-001	 2.153636388128806e+000	 6.805101610086393e+000
 5.434167281273361e-001	 2.159335649627190e+000	 6.725724047507415e+000
 5.212576075761130e-001	 2.164791644557400e+000	 6.648460815843373e+000
 4.991077520762680e-001	 2.170005525915713e+000	 6.572933201703543e+000
 4.769708144381596e-001	 2.174978515105310e+000	 6.498479274925524e+000
 4.548504006007771e-001	 2.179711900266135e+000	 6.424176958676097e+000
 4.327500683047372e-001	 2.184207034577925e+000	 6.348863521414067e+000
 6.620545580119923e-001	 2.153873237211714e+000	 7.202818606794452e+000
 6.396402113617532e-001	 2.160635691298096e+000	 7.117761443941086e+000
 6.172160979333151e-001	 2.167148023487771e+000	 7.034167154229484e+000
 5.947861290658582e-001	 2.173411107411672e+000	 6.952909087526188e+000
 5.723541763348633e-001	 2.179425892364188e+000	 6.874460309264948e+000
 5.499240698928331e-001	 2.185193401747493e+000	 6.798933702202583e+000
 5.274995968721120e-001	 2.190714731478355e+000	 6.726116292970940e+000
 5.050844998505067e-001	 2.195991048360028e+000	 6.655498243633063e+000
 4.826824753802985e-001	 2.201023588421832e+000	 6.586296975801034e+000
 4.602971725811209e-001	 2.205813655229016e+000	 6.517476916225721e+000
 4.379321917970661e-001	 2.210362618165464e+000	 6.447765368233225e+000
 6.698887582450617e-001	 2.179360372685457e+000	 7.261010298183425e+000
 6.472091789525045e-001	 2.186202848000890e+000	 7.174848411793390e+000
 6.245197173097914e-001	 2.192792241686111e+000	 7.091513520416082e+000
 6.018243309396364e-001	 2.199129437709874e+000	 7.011687000501081e+000
 5.791269372305237e-001	 2.205215396599727e+000	 6.935624379022668e+000
 5.564314116577933e-001	 2.211051153867931e+000	 6.863244712329488e+000
 5.337415861675627e-001	 2.216637818399421e+000	 6.794162510776861e+000
 5.110612476241907e-001	 2.221976570804427e+000	 6.727713836807005e+000
 4.883941363218828e-001	 2.227068661738413e+000	 6.662977099567938e+000
 4.657439445609177e-001	 2.231915410191926e+000	 6.598789091759110e+000
 4.431143152888640e-001	 2.236518201752999e+000	 6.533756830614874e+000
 6.777229584774968e-001	 2.204847508159331e+000	 7.315349096397108e+000
 6.547781465426102e-001	 2.211770004703814e+000	 7.227146141684008e+000
 6.318233366856110e-001	 2.218436459884577e+000	 7.142631487837364e+000
 6.088625328127469e-001	 2.224847768008192e+000	 7.062857595260747e+000
 5.858996981255067e-001	 2.231004900835369e+000	 6.987829656649997e+000
 5.629387534220697e-001	 2.236908905988459e+000	 6.917246103131034e+000
 5.399835754623272e-001	 2.242560905320560e+000	 6.850527814636246e+000
 5.170379953971918e-001	 2.247962093248883e+000	 6.786840972648118e+000
 4.941057972627936e-001	 2.253113735055029e+000	 6.725114138083860e+000
 4.711907165400582e-001	 2.258017165154852e+000	 6.664050161025013e+000
 4.482964387800322e-001	 2.262673785340533e+000	 6.602133546006226e+000
 6.855571587091146e-001	 2.230334643633273e+000	 7.367252871370999e+000
 6.623471141318938e-001	 2.237337161406804e+000	 7.275976737712097e+000
 6.391269560606028e-001	 2.244080678083104e+000	 7.188307118360594e+000
 6.159007346850257e-001	 2.250566098306568e+000	 7.106633636078737e+000
 5.926724590196567e-001	 2.256794405071064e+000	 7.030684339390041e+000
 5.694460951855147e-001	 2.262766658109031e+000	 6.959916671759217e+000
 5.462255647562676e-001	 2.268483992241738e+000	 6.893543625148087e+000
 5.230147431693810e-001	 2.273947615693367e+000	 6.830552963437598e+000
 4.998174582029119e-001	 2.279158808371665e+000	 6.769720162556034e+000
 4.766374885184339e-001	 2.284118920117789e+000	 6.709615739480583e+000
 4.534785622704716e-001	 2.288829368928065e+000	 6.648607660139351e+000
 4.016573273451569e-001	 2.027273533052570e+000	 5.803470156108411e+000
 3.811698517285161e-001	 2.031225301503230e+000	 5.711157466104653e+000
 3.607074675331575e-001	 2.034958690876767e+000	 5.624890120936210e+000
 3.402733298862165e-001	 2.038475129610468e+000	 5.543394624178491e+000
 3.198705449804655e-001	 2.041776099945052e+000	 5.465311922880298e+000
 2.995021691400967e-001	 2.044863136261900e+000	 5.389223593159368e+000
 2.791712079452243e-001	 2.047737823409130e+000	 5.313677053183049e+000
 2.588806154148092e-001	 2.050401795018658e+000	 5.237210006857656e+000
 2.386332932476166e-001	 2.052856731816378e+000	 5.158374312077005e+000
 2.184320901207317e-001	 2.055104359927540e+000	 5.075759456142177e+000
 1.982798010451052e-001	 2.057146449179369e+000	 4.988015808185944e+000
 4.068394508385930e-001	 2.053429116640149e+000	 5.856107367063360e+000
 3.860876488384815e-001	 2.057431870223552e+000	 5.762909586027575e+000
 3.653612619854609e-001	 2.061213427235205e+000	 5.676957429658472e+000
 3.446634861136527e-001	 2.064775234541886e+000	 5.597048526415219e+000
 3.239974674914737e-001	 2.068118793507961e+000	 5.521868743698915e+000
 3.033663018753617e-001	 2.071245658311171e+000	 5.450016269824266e+000
 2.827730336229843e-001	 2.074157434247109e+000	 5.380024757678098e+000
 2.622206548656227e-001	 2.076855776024568e+000	 5.310385762166836e+000
 2.417121047393329e-001	 2.079342386053916e+000	 5.239570692573362e+000
 2.212502686744141e-001	 2.081619012730616e+000	 5.166052488039878e+000
 2.008379777426382e-001	 2.083687448715941e+000	 5.088327209799380e+000
 4.120215743320919e-001	 2.079584700227718e+000	 5.933526469647210e+000
 3.910054459484762e-001	 2.083638438943773e+000	 5.841914146554052e+000
 3.700150564377691e-001	 2.087468163593456e+000	 5.758350750565453e+000
 3.490536423410803e-001	 2.091075339473030e+000	 5.681697800891157e+000
 3.281243900024696e-001	 2.094461487070513e+000	 5.610680399727624e+000
 3.072304346106214e-001	 2.097628180360005e+000	 5.543908862329836e+000
 2.863748593007571e-001	 2.100577045084578e+000	 5.479899442212139e+000
 2.655606943164766e-001	 2.103309757029900e+000	 5.417094415016368e+000
 2.447909162311281e-001	 2.105828040290817e+000	 5.353881771983142e+000
 2.240684472282249e-001	 2.108133665533004e+000	 5.288614759257484e+000
 2.033961544403598e-001	 2.110228448251783e+000	 5.219631482716062e+000
 4.172036978255548e-001	 2.105740283815280e+000	 6.028252036197826e+000
 3.959232430584104e-001	 2.109845007663906e+000	 5.940149293640936e+000
 3.746688508900027e-001	 2.113722899951540e+000	 5.860575560759261e+000
 3.534437985684283e-001	 2.117375444403932e+000	 5.788455334859165e+000
 3.322513125133900e-001	 2.120804180632748e+000	 5.722553636508410e+000
 3.110945673458185e-001	 2.124010702408456e+000	 5.661494810209703e+000
 2.899766849784881e-001	 2.126996655921599e+000	 5.603780452905407e+000
 2.689007337673182e-001	 2.129763738034729e+000	 5.547806768103397e+000
 2.478697277229483e-001	 2.132313694527165e+000	 5.491881629060021e+000
 2.268866257821052e-001	 2.134648318334801e+000	 5.434241617825626e+000
 2.059543311382028e-001	 2.136769447787005e+000	 5.373069288311308e+000
 4.223858213188826e-001	 2.131895867402835e+000	 6.133304185256703e+000
 4.008410401681958e-001	 2.136051576383963e+000	 6.050075834511126e+000
 3.793226453420824e-001	 2.139977636309478e+000	 5.975602904189339e+000
 3.578339547956261e-001	 2.143675549334621e+000	 5.908878439476320e+000
 3.363782350241716e-001	 2.147146874194709e+000	 5.848714604400544e+000
 3.149587000808950e-001	 2.150393224456572e+000	 5.793758245191524e+000
 2.935785106561237e-001	 2.153416266758236e+000	 5.742505613545306e+000
 2.722407732180950e-001	 2.156217719039128e+000	 5.693316584806027e+000
 2.509485392147394e-001	 2.158799348763049e+000	 5.644428689853045e+000
 2.297048043359962e-001	 2.161162971136105e+000	 5.593971260763831e+000
 2.085125078360999e-001	 2.163310447321717e+000	 5.539979969437945e+000
 4.275679448119763e-001	 2.158051450990382e+000	 6.242184710581161e+000
 4.057588372777426e-001	 2.162258145103952e+000	 6.164624400663518e+000
 3.839764397939287e-001	 2.166232372667292e+000	 6.095857608686053e+000
 3.622241110226025e-001	 2.169975654265129e+000	 6.034958149516380e+000
 3.405051575347509e-001	 2.173489567756436e+000	 5.980799278383292e+000
 3.188228328157938e-001	 2.176775746504410e+000	 5.932065577361511e+000
 2.971803363336101e-001	 2.179835877594552e+000	 5.887264033316225e+000
 2.755808126687545e-001	 2.182671700043172e+000	 5.844734682678963e+000
 2.540273507064469e-001	 2.185285002998553e+000	 5.802661180188880e+000
 2.325229828898389e-001	 2.187677623937013e+000	 5.759081627800600e+000
 2.110706845339838e-001	 2.189851446856028e+000	 5.711899976650313e+000
 4.327500683047372e-001	 2.184207034577925e+000	 6.348863521414067e+000
 4.106766343869625e-001	 2.188464713823888e+000	 6.277182938423096e+000
 3.886302342454617e-001	 2.192487109025002e+000	 6.214206837308997e+000
 3.666142672492871e-001	 2.196275759195488e+000	 6.159108854342452e+000
 3.446320800450644e-001	 2.199832261317972e+000	 6.110844195922560e+000
 3.226869655504569e-001	 2.203158268552019e+000	 6.068157375749165e+000
 3.007821620108935e-001	 2.206255488430609e+000	 6.029589174578102e+000
 2.789208521192439e-001	 2.209125681046935e+000	 5.993483241605270e+000
 2.571061621980170e-001	 2.211770657233760e+000	 5.957992736131510e+000
 2.353411614435743e-001	 2.214192276737622e+000	 5.921087384843148e+000
 2.136288612317871e-001	 2.216392446390048e+000	 5.880561304148405e+000
 4.379321917970661e-001	 2.210362618165464e+000	 6.447765368233227e+000
 4.155944314957661e-001	 2.214671282543780e+000	 6.381584499903854e+000
 3.932840286966023e-001	 2.218741845382629e+000	 6.323948946322252e+000
 3.710044234756087e-001	 2.222575864125727e+000	 6.274158232702837e+000
 3.487590025550489e-001	 2.226174954879359e+000	 6.231277486555450e+000
 3.265510982848270e-001	 2.229540790599451e+000	 6.194140518949980e+000
 3.043839876879196e-001	 2.232675099266471e+000	 6.161352159150660e+000
 2.822608915695107e-001	 2.235579662050491e+000	 6.131290308823828e+000
 2.601849736893954e-001	 2.238256311468759e+000	 6.102108159333255e+000
 2.381593399971435e-001	 2.240706929538030e+000	 6.071736989762274e+000
 2.161870379294426e-001	 2.242933445923886e+000	 6.037889934643601e+000
 4.431143152888640e-001	 2.236518201752999e+000	 6.533756830614874e+000
 4.205122286040645e-001	 2.240877851263638e+000	 6.472095309797950e+000
 3.979378231472710e-001	 2.244996581740196e+000	 6.418802624698020e+000
 3.753945797014967e-001	 2.248875969055882e+000	 6.373337466482819e+000
 3.528859250646412e-001	 2.252517648440637e+000	 6.334910169317335e+000
 3.304152310188463e-001	 2.255923312646761e+000	 6.302480593682165e+000
 3.079858133646348e-001	 2.259094710102200e+000	 6.274755293586927e+000
 2.856009310195024e-001	 2.262033643053914e+000	 6.250184484719386e+000
 2.632637851805277e-001	 2.264741965703632e+000	 6.226959305418127e+000
 2.409775185504876e-001	 2.267221582338333e+000	 6.203009833756281e+000
 2.187452146268828e-001	 2.269474445457651e+000	 6.176004292410658e+000
 4.482964387800322e-001	 2.262673785340533e+000	 6.602133546006226e+000
 4.254300257117685e-001	 2.267084419983474e+000	 6.543403085674033e+000
 4.025916175973881e-001	 2.271251318097723e+000	 6.492896292373194e+000
 3.797847359268805e-001	 2.275176073985980e+000	 6.450271710842417e+000
 3.570128475737776e-001	 2.278860342001849e+000	 6.414927696340538e+000
 3.342793637524572e-001	 2.282305834693997e+000	 6.385994521216097e+000
 3.115876390409853e-001	 2.285514320937858e+000	 6.362325795712490e+000
 2.889409704691662e-001	 2.288487624057277e+000	 6.342489774748159e+000
 2.663425966713602e-001	 2.291227619938468e+000	 6.324761094633981e+000
 2.437956971035476e-001	 2.293736235138629e+000	 6.307113452179620e+000
 2.213033913240406e-001	 2.296015444991454e+000	 6.287213703870165e+000
 4.534785622704716e-001	 2.288829368928065e+000	 6.648607660139353e+000
 4.303478228187894e-001	 2.293290988703301e+000	 6.590605591511769e+000
 4.072454120468742e-001	 2.297506054455230e+000	 6.540757736563708e+000
 3.841748921516889e-001	 2.301476178916054e+000	 6.498970800236386e+000
 3.611397700823948e-001	 2.305203035563035e+000	 6.464881722935719e+000
 3.381434964856022e-001	 2.308688356741214e+000	 6.437843393453603e+000
 3.151894647169172e-001	 2.311933931773511e+000	 6.416909706336977e+000
 2.922810099184495e-001	 2.314941605060654e+000	 6.400820594213595e+000
 2.694214081618384e-001	 2.317713274173349e+000	 6.387987634996875e+000
 2.466138756562645e-001	 2.320250887939014e+000	 6.376480799278974e+000
 2.238615680208486e-001	 2.322556444525402e+000	 6.364016865094579e+000
 1.982798010451052e-001	 2.057146449179369e+000	 4.988015808185944e+000
 1.781761623850336e-001	 2.058985072062221e+000	 4.902007424448152e+000
 1.581269227520513e-001	 2.060621760190973e+000	 4.823807499980467e+000
 1.381347544218765e-001	 2.062058405639229e+000	 4.751019925237157e+000
 1.182022727019177e-001	 2.063296937449552e+000	 4.681431128521650e+000
 9.833203556797766e-002	 2.064339319933258e+000	 4.613036667700510e+000
 7.852654335463237e-002	 2.065187550979181e+000	 4.544068145981179e+000
 5.878823849825383e-002	 2.065843660373091e+000	 4.473020506522299e+000
 3.911950533160152e-002	 2.066309708129337e+000	 4.398679743437959e+000
 1.952266992886609e-002	 2.066587782836232e+000	 4.320151049812874e+000
 0.000000000000000e+000	 2.066680000016667e+000	 4.236887397351543e+000
 2.008379777426382e-001	 2.083687448715941e+000	 5.088327209799380e+000
 1.804749649069134e-001	 2.085549793239212e+000	 5.013206675228120e+000
 1.601670529465028e-001	 2.087207597675990e+000	 4.946932361754009e+000
 1.399169486144204e-001	 2.088662778511150e+000	 4.887222976672333e+000
 1.197273009603743e-001	 2.089917289675494e+000	 4.831929302918948e+000
 9.960070096278301e-002	 2.090973120823608e+000	 4.779059771854195e+000
 7.953968121516011e-002	 2.091832295620812e+000	 4.726806621684609e+000
 5.954671566582075e-002	 2.092496870040883e+000	 4.673572705071294e+000
 3.962421940982393e-002	 2.092968930676188e+000	 4.617998990016357e+000
 1.977454853201639e-002	 2.093250593061714e+000	 4.558992778934681e+000
 0.000000000000000e+000	 2.093344000014533e+000	 4.495756640713100e+000
 2.033961544403598e-001	 2.110228448251783e+000	 5.219631482716059e+000
 1.827737674290516e-001	 2.112114514415441e+000	 5.153658654436409e+000
 1.622071831412844e-001	 2.113793435160225e+000	 5.097067652116493e+000
 1.416991428073602e-001	 2.115267151382274e+000	 5.047677857706452e+000
 1.212523292192780e-001	 2.116537641900631e+000	 5.003388741453826e+000
 1.008693663580642e-001	 2.117606921713150e+000	 4.962204160180574e+000
 8.055281907616133e-002	 2.118477040261631e+000	 4.922257522185729e+000
 6.030519283382028e-002	 2.119150079707866e+000	 4.881837892234549e+000
 4.012893348839152e-002	 2.119628153222235e+000	 4.839417088206603e+000
 2.002642713537015e-002	 2.119913403286397e+000	 4.793677799388979e+000
 0.000000000000000e+000	 2.120008000011600e+000	 4.743542722090600e+000
 2.059543311382028e-001	 2.136769447787005e+000	 5.373069288311308e+000
 1.850725699513690e-001	 2.138679235591033e+000	 5.314981386266256e+000
 1.642473133363036e-001	 2.140379272643812e+000	 5.266448693152919e+000
 1.434813370005900e-001	 2.141871524252748e+000	 5.225382912930027e+000
 1.227773574785129e-001	 2.143157994125120e+000	 5.189722096495682e+000
 1.021380317536997e-001	 2.144240722602053e+000	 5.157453387755223e+000
 8.156595693751645e-002	 2.145121784901822e+000	 5.126636938034648e+000
 6.106367000214374e-002	 2.145803289374232e+000	 5.095431073426096e+000
 4.063364756721779e-002	 2.146287375767672e+000	 5.062118775125626e+000
 2.027830573887649e-002	 2.146576213510476e+000	 5.025135508659614e+000
 0.000000000000000e+000	 2.146672000008067e+000	 4.983098399295543e+000
 2.085125078360999e-001	 2.163310447321717e+000	 5.539979969437949e+000
 1.873713724737861e-001	 2.165243956766109e+000	 5.488944852058229e+000
 1.662874435314673e-001	 2.166965110126885e+000	 5.447413602349502e+000
 1.452635311940043e-001	 2.168475897122718e+000	 5.413387892114278e+000
 1.243023857379628e-001	 2.169778346349123e+000	 5.384840015866475e+000
 1.034066971495681e-001	 2.170874523490486e+000	 5.359733783811844e+000
 8.257909479910586e-002	 2.171766529541564e+000	 5.336046906998754e+000
 6.182214717068246e-002	 2.172456499040166e+000	 5.311794971619256e+000
 4.113836164621634e-002	 2.172946598312695e+000	 5.285057072092716e+000
 2.053018434248453e-002	 2.173239023734152e+000	 5.254003145616948e+000
 0.000000000000000e+000	 2.173336000004134e+000	 5.216923007889868e+000
 2.110706845339838e-001	 2.189851446856028e+000	 5.711899976650313e+000
 1.896701749962240e-001	 2.191808677940790e+000	 5.667471055533060e+000
 1.683275737266829e-001	 2.193550947609579e+000	 5.632405118577559e+000
 1.470457253874970e-001	 2.195080269992333e+000	 5.604797668296593e+000
 1.258274139975116e-001	 2.196398698572797e+000	 5.582656893865073e+000
 1.046753625455481e-001	 2.197508324378621e+000	 5.563922385894473e+000
 8.359223266080985e-002	 2.198411274181037e+000	 5.546485690713702e+000
 6.258062433932776e-002	 2.199109708705858e+000	 5.528212814871563e+000
 4.164307572530071e-002	 2.199605820857498e+000	 5.506968760212692e+000
 2.078206294614337e-002	 2.199901833957623e+000	 5.480644139937252e+000
 0.000000000000000e+000	 2.200000000000001e+000	 5.447183878576113e+000
 2.136288612317871e-001	 2.216392446390048e+000	 5.880561304148402e+000
 1.919689775186034e-001	 2.218373399115199e+000	 5.842634005235405e+000
 1.703677039218575e-001	 2.220136785092031e+000	 5.813972239602064e+000
 1.488279195809624e-001	 2.221684642861741e+000	 5.792775648256057e+000
 1.273524422570433e-001	 2.223019050796304e+000	 5.777096181834913e+000
 1.059440279415181e-001	 2.224142125266629e+000	 5.764854286737213e+000
 8.460537052250881e-002	 2.225056018820421e+000	 5.753857303041564e+000
 6.333910150797092e-002	 2.225762918371497e+000	 5.741820200105278e+000
 4.214778980438445e-002	 2.226265043402274e+000	 5.726388742112783e+000
 2.103394154980214e-002	 2.226564644181086e+000	 5.705165142712766e+000
 0.000000000000000e+000	 2.226663999995867e+000	 5.675736215764331e+000
 2.161870379294426e-001	 2.242933445923886e+000	 6.037889934643603e+000
 1.942677800408450e-001	 2.244938120289457e+000	 6.006659621047261e+000
 1.724078341168984e-001	 2.246722622574373e+000	 5.984771686727641e+000
 1.506101137742947e-001	 2.248289015731089e+000	 5.970546900856695e+000
 1.288774705164417e-001	 2.249639403019801e+000	 5.962095294756220e+000
 1.072126933373569e-001	 2.250775926154679e+000	 5.957329442516539e+000
 8.561850838408310e-002	 2.251700763459898e+000	 5.953980352122613e+000
 6.409757867650329e-002	 2.252416128037270e+000	 5.949616109662213e+000
 4.265250388338113e-002	 2.252924265947220e+000	 5.941663382094851e+000
 2.128582015340993e-002	 2.253227454404740e+000	 5.927431847492477e+000
 0.000000000000000e+000	 2.253327999991934e+000	 5.904141564783179e+000
 2.187452146268828e-001	 2.269474445457651e+000	 6.176004292410656e+000
 1.965665825628697e-001	 2.271502841463688e+000	 6.151925570986715e+000
 1.744479643117127e-001	 2.273308460056742e+000	 6.137569210734298e+000
 1.523923079673879e-001	 2.274893388600523e+000	 6.131401026360219e+000
 1.304024987755909e-001	 2.276259755243449e+000	 6.131610146934796e+000
 1.084813587329429e-001	 2.277409727042943e+000	 6.136118986571098e+000
 8.663164624541299e-002	 2.278345508099645e+000	 6.142596252299271e+000
 6.485605584481614e-002	 2.279069337703367e+000	 6.148473149984954e+000
 4.315721796220429e-002	 2.279583488492531e+000	 6.150962908331712e+000
 2.153769875691588e-002	 2.279890264628786e+000	 6.147083700775750e+000
 0.000000000000000e+000	 2.279991999988401e+000	 6.133684983269754e+000
 2.213033913240406e-001	 2.296015444991454e+000	 6.287213703870171e+000
 1.988653850845983e-001	 2.298067562638013e+000	 6.270961043934929e+000
 1.764880945062078e-001	 2.299894297539273e+000	 6.265240751943616e+000
 1.541745021601364e-001	 2.301497761470192e+000	 6.268694787663500e+000
 1.319275270343746e-001	 2.302880107467406e+000	 6.279619346799013e+000
 1.097500241281549e-001	 2.304043527931590e+000	 6.295971088603556e+000
 8.764478410637891e-002	 2.304990252739845e+000	 6.315376856908156e+000
 6.561453301280085e-002	 2.305722547369975e+000	 6.335147075373926e+000
 4.366193204076749e-002	 2.306242711038399e+000	 6.352292953006391e+000
 2.178957736026910e-002	 2.306553074853420e+000	 6.363547591816306e+000
 0.000000000000000e+000	 2.306655999985467e+000	 6.365391021595293e+000
 2.238615680208486e-001	 2.322556444525402e+000	 6.364016865094571e+000
 2.011641876059516e-001	 2.324632283812556e+000	 6.356446463417164e+000
 1.785282247002906e-001	 2.326480135022100e+000	 6.360773466086771e+000
 1.559566963524342e-001	 2.328102134340242e+000	 6.375854522507333e+000
 1.334525552926767e-001	 2.329500459691833e+000	 6.400128078075488e+000
 1.110186895228712e-001	 2.330677328820791e+000	 6.431616395725180e+000
 8.865792196686122e-002	 2.331634997380677e+000	 6.467931558257577e+000
 6.637301018034868e-002	 2.332375757037283e+000	 6.506285654002332e+000
 4.416664611898429e-002	 2.332901933585021e+000	 6.543505299352358e+000
 2.204145596341870e-002	 2.333215885078842e+000	 6.576050603388790e+000
 0.000000000000000e+000	 2.333319999983334e+000	 6.600038607594453e+000
 2.333319999983334e+000	 0.000000000000000e+000	 1.164456307778599e+001
 2.333215885078842e+000	 2.204145596341876e-002	 1.160321714030852e+001
 2.332901933585021e+000	 4.416664611898443e-002	 1.158298358775524e+001
 2.332375757037283e+000	 6.637301018034852e-002	 1.157914082837192e+001
 2.331634997380677e+000	 8.865792196686113e-002	 1.158715199776666e+001
 2.330677328820791e+000	 1.110186895228712e-001	 1.160267657967899e+001
 2.329500459691833e+000	 1.334525552926768e-001	 1.162158088398507e+001
 2.328102134340243e+000	 1.559566963524343e-001	 1.163994738833126e+001
 2.326480135022099e+000	 1.785282247002904e-001	 1.165408297508646e+001
 2.324632283812556e+000	 2.011641876059514e-001	 1.166052610768575e+001
 2.322556444525403e+000	 2.238615680208486e-001	 1.165605300286897e+001
 2.359987999982150e+000	 0.000000000000000e+000	 1.157652208770010e+001
 2.359882695126717e+000	 2.229337235189980e-002	 1.154037942345737e+001
 2.359565155415852e+000	 4.467143591148032e-002	 1.152496656878189e+001
 2.359032965086723e+000	 6.713160113034042e-002	 1.152549798334925e+001
 2.358283739133689e+000	 8.967121181265775e-002	 1.153740124272494e+001
 2.357315125180361e+000	 1.122875452358524e-001	 1.155632798217276e+001
 2.356124805369035e+000	 1.349778123275370e-001	 1.157816354349247e+001
 2.354710498265832e+000	 1.577391579000762e-001	 1.159903533573535e+001
 2.353069960779785e+000	 1.805686609440348e-001	 1.161531994692752e+001
 2.351200990094103e+000	 2.034633349817420e-001	 1.162364905749284e+001
 2.349101425607677e+000	 2.264201284821455e-001	 1.162091421967367e+001
 2.386655999981866e+000	 0.000000000000000e+000	 1.152189974730837e+001
 2.386549505175481e+000	 2.254528874017717e-002	 1.148904530291273e+001
 2.386228377247541e+000	 4.517622570362982e-002	 1.147668153429558e+001
 2.385690173136973e+000	 6.789019207989576e-002	 1.147995555436206e+001
 2.384932480887448e+000	 9.068450165797154e-002	 1.149425765859026e+001
 2.383952921540606e+000	 1.135564009483399e-001	 1.151523151036663e+001
 2.382749151046835e+000	 1.365030693619190e-001	 1.153878286568625e+001
 2.381318862191934e+000	 1.595216194472729e-001	 1.156108685293972e+001
 2.379659786537899e+000	 1.826090971873751e-001	 1.157859385082484e+001
 2.377769696375999e+000	 2.057624823571689e-001	 1.158803402222907e+001
 2.375646406690224e+000	 2.289786889431086e-001	 1.158642057679009e+001
 2.413323999982383e+000	 0.000000000000000e+000	 1.148087642796728e+001
 2.413216315225037e+000	 2.279720512830178e-002	 1.144957386595638e+001
 2.412891599079999e+000	 4.568101549551953e-002	 1.143863273456320e+001
 2.412347381187954e+000	 6.864878302912364e-002	 1.144313214906105e+001
 2.411581222641890e+000	 9.169779150292323e-002	 1.145842624312281e+001
 2.410590717901479e+000	 1.148252566604571e-001	 1.148015350584393e+001
 2.409373496725197e+000	 1.380283263959423e-001	 1.150424448448498e+001
 2.407927226118532e+000	 1.613040809941355e-001	 1.152692787397503e+001
 2.406249612296439e+000	 1.846495334304123e-001	 1.154473504261390e+001
 2.404338402658252e+000	 2.080616297323231e-001	 1.155450305954173e+001
 2.402191387773061e+000	 2.315372494038215e-001	 1.155337630573777e+001
 2.439991999983599e+000	 0.000000000000000e+000	 1.145387163592466e+001
 2.439883125275288e+000	 2.304912151632456e-002	 1.142253935569448e+001
 2.439554820913136e+000	 4.618580528723603e-002	 1.141151538667967e+001
 2.439004589239588e+000	 6.940737397813324e-002	 1.141581299253805e+001
 2.438229964396953e+000	 9.271108134763358e-002	 1.143075415245741e+001
 2.437228514262929e+000	 1.160941123723274e-001	 1.145197795141662e+001
 2.435997842404091e+000	 1.395535834297265e-001	 1.147544715201742e+001
 2.434535590045607e+000	 1.630865425407754e-001	 1.149745297470311e+001
 2.432839438055403e+000	 1.866899696732476e-001	 1.151461814272613e+001
 2.430907108940868e+000	 2.103607771072954e-001	 1.152389826575970e+001
 2.428736368856203e+000	 2.340958098643674e-001	 1.152258165364654e+001
 2.466659999985416e+000	 0.000000000000000e+000	 1.144153108542965e+001
 2.466549935326134e+000	 2.330103790429640e-002	 1.140871890616222e+001
 2.466218042746860e+000	 4.669059507886593e-002	 1.139620407874120e+001
 2.465661797291797e+000	 7.016596492703370e-002	 1.139893901126508e+001
 2.464878706152569e+000	 9.372437119222317e-002	 1.141222047913930e+001
 2.463866310624908e+000	 1.173629680840743e-001	 1.143169696124602e+001
 2.462622188083482e+000	 1.410788404633911e-001	 1.145337396247752e+001
 2.461143953973147e+000	 1.648690040873041e-001	 1.147361735571865e+001
 2.459429263814787e+000	 1.887304059159818e-001	 1.148915480710954e+001
 2.457475815223860e+000	 2.126599244821766e-001	 1.149707536745084e+001
 2.455281349939667e+000	 2.366543703248298e-001	 1.149482733169195e+001
 2.493327999987733e+000	 0.000000000000000e+000	 1.144471460142041e+001
 2.493216745377482e+000	 2.355295429226825e-002	 1.140908106488000e+001
 2.492881264581083e+000	 4.719538487049581e-002	 1.139374191968062e+001
 2.492319005344500e+000	 7.092455587593410e-002	 1.139359662109734e+001
 2.491527447908675e+000	 9.473766103681273e-002	 1.140392669269432e+001
 2.490504106987368e+000	 1.186318237958211e-001	 1.142040189189668e+001
 2.489246533763340e+000	 1.426040974970558e-001	 1.143908415510749e+001
 2.487752317901132e+000	 1.666514656338327e-001	 1.145642936223242e+001
 2.486019089574589e+000	 1.907708421587160e-001	 1.146928699250228e+001
 2.484044521507234e+000	 2.149590718570578e-001	 1.147489776408398e+001
 2.481826331023469e+000	 2.392129307852923e-001	 1.147088937062941e+001
 2.519995999990449e+000	 0.000000000000000e+000	 1.146448479033377e+001
 2.519883555429231e+000	 2.380487068029099e-002	 1.142477504453101e+001
 2.519544486415716e+000	 4.770017466221225e-002	 1.140533037952291e+001
 2.518976213397622e+000	 7.168314682494363e-002	 1.140100816718551e+001
 2.518176189665208e+000	 9.575095088152302e-002	 1.140708769365562e+001
 2.517141903350260e+000	 1.199006795076914e-001	 1.141927502833091e+001
 2.515870879443631e+000	 1.441293545308398e-001	 1.143370545341010e+001
 2.514360681829545e+000	 1.684339271804727e-001	 1.144694350115588e+001
 2.512608915334807e+000	 1.928112784015512e-001	 1.145598067943690e+001
 2.510613227791000e+000	 2.172582192320301e-001	 1.145823098837762e+001
 2.508371312107629e+000	 2.417714912458381e-001	 1.145152435326902e+001
 2.546663999993466e+000	 0.000000000000000e+000	 1.150209642273414e+001
 2.546550365481286e+000	 2.405678706841556e-002	 1.145712065031050e+001
 2.546207708250668e+000	 4.820496445410191e-002	 1.143231976945536e+001
 2.545633421451082e+000	 7.244173777417141e-002	 1.142252296801240e+001
 2.544824931422100e+000	 9.676424072647459e-002	 1.142302343607930e+001
 2.543779699713533e+000	 1.211695352198085e-001	 1.142958180269381e+001
 2.542495225124322e+000	 1.456546115648631e-001	 1.143842690128281e+001
 2.540969045758369e+000	 1.702163887273352e-001	 1.144625391894280e+001
 2.539198741095438e+000	 1.948517146445884e-001	 1.145022001942316e+001
 2.537181934075167e+000	 2.195573666071841e-001	 1.144793755371808e+001
 2.534916293192159e+000	 2.443300517065509e-001	 1.143746499626028e+001
 2.573331999996683e+000	 0.000000000000000e+000	 1.155898647612243e+001
 2.573217175533549e+000	 2.430870345669286e-002	 1.150759883393589e+001
 2.572870930085849e+000	 4.870975424625130e-002	 1.147620031529697e+001
 2.572290629504804e+000	 7.320032872372663e-002	 1.145960891972584e+001
 2.571473673179290e+000	 9.777753057178830e-002	 1.145315107730696e+001
 2.570417496077141e+000	 1.224383909322958e-001	 1.145266350724312e+001
 2.569119570805381e+000	 1.471798685992449e-001	 1.145449216002510e+001
 2.567577409687590e+000	 1.719988502745317e-001	 1.145548830676126e+001
 2.565788566856480e+000	 1.968921508879285e-001	 1.145300187553715e+001
 2.563750640359744e+000	 2.218565139826109e-001	 1.144487216056675e+001
 2.561461274277079e+000	 2.468886121675139e-001	 1.142941605584608e+001
 2.600000000000000e+000	 0.000000000000000e+000	 1.163676479052670e+001
 2.599883985585924e+000	 2.456061984517381e-002	 1.157784282932015e+001
 2.599534151921172e+000	 4.921454403874706e-002	 1.153859378176235e+001
 2.598947837558706e+000	 7.395891967371834e-002	 1.151384462054313e+001
 2.598122414936712e+000	 9.879082041758469e-002	 1.149897761712190e+001
 2.597055292441034e+000	 1.237072466452768e-001	 1.148993046594255e+001
 2.595743916486777e+000	 1.487051256341049e-001	 1.148319323313018e+001
 2.594185773617187e+000	 1.737813118221734e-001	 1.147580220231658e+001
 2.592378392617928e+000	 1.989325871316728e-001	 1.146533072817170e+001
 2.590319346644739e+000	 2.241556613584015e-001	 1.144987723608279e+001
 2.588006255362404e+000	 2.494471726288108e-001	 1.142805053432489e+001
 2.322556444525403e+000	 2.238615680208486e-001	 1.165605300286897e+001
 2.320250887939015e+000	 2.466138756562646e-001	 1.165231448120501e+001
 2.317713274173349e+000	 2.694214081618382e-001	 1.166081853571771e+001
 2.314941605060654e+000	 2.922810099184495e-001	 1.167847430109417e+001
 2.311933931773511e+000	 3.151894647169170e-001	 1.170240730344261e+001
 2.308688356741215e+000	 3.381434964856023e-001	 1.172996173325351e+001
 2.305203035563035e+000	 3.611397700823949e-001	 1.175870234670728e+001
 2.301476178916054e+000	 3.841748921516888e-001	 1.178641613174121e+001
 2.297506054455230e+000	 4.072454120468744e-001	 1.181111388377801e+001
 2.293290988703300e+000	 4.303478228187891e-001	 1.183103184345113e+001
 2.288829368928065e+000	 4.534785622704716e-001	 1.184463355491506e+001
 2.349101425607677e+000	 2.264201284821455e-001	 1.162091421967368e+001
 2.346769518335254e+000	 2.494324769776625e-001	 1.161860197260103e+001
 2.344202901653812e+000	 2.725006815198410e-001	 1.162800909190828e+001
 2.341399554558111e+000	 2.956215504233459e-001	 1.164611433795612e+001
 2.338357505947168e+000	 3.187918307202850e-001	 1.167012448798683e+001
 2.335074836562539e+000	 3.420082088961281e-001	 1.169747480385748e+001
 2.331549680923443e+000	 3.652673116907452e-001	 1.172582907746222e+001
 2.327780229256406e+000	 3.885657069651761e-001	 1.175307940557661e+001
 2.323764729417043e+000	 4.118999046346667e-001	 1.177734585516818e+001
 2.319501488801562e+000	 4.352663576684167e-001	 1.179697618838547e+001
 2.314988876245497e+000	 4.586614631563876e-001	 1.181054582332985e+001
 2.375646406690224e+000	 2.289786889431086e-001	 1.158642057679008e+001
 2.373288148731701e+000	 2.522510782987388e-001	 1.158504171768767e+001
 2.370692529134423e+000	 2.755799548775168e-001	 1.159494138290878e+001
 2.367857504055670e+000	 2.989620909278955e-001	 1.161316395634504e+001
 2.364781080120887e+000	 3.223941967232736e-001	 1.163699344634875e+001
 2.361461316383892e+000	 3.458729213062330e-001	 1.166395200892277e+001
 2.357896326283851e+000	 3.693948532986258e-001	 1.169179799676428e+001
 2.354084279596734e+000	 3.929565217781407e-001	 1.171852370227585e+001
 2.350023404378815e+000	 4.165543972218820e-001	 1.174235297284240e+001
 2.345711988899768e+000	 4.401848925174142e-001	 1.176173888561383e+001
 2.341148383562864e+000	 4.638443640416253e-001	 1.177536167659837e+001
 2.402191387773061e+000	 2.315372494038215e-001	 1.155337630573777e+001
 2.399806779128375e+000	 2.550696796195738e-001	 1.155240913576489e+001
 2.397182156615205e+000	 2.786592282349472e-001	 1.156234981368868e+001
 2.394315453553343e+000	 3.023026314321842e-001	 1.158030793490028e+001
 2.391204654294674e+000	 3.259965627259768e-001	 1.160364430797211e+001
 2.387847796205268e+000	 3.497376337160196e-001	 1.162996738187233e+001
 2.384242971644243e+000	 3.735223949061500e-001	 1.165712914587188e+001
 2.380388329937012e+000	 3.973473365907070e-001	 1.168322068776337e+001
 2.376282079340506e+000	 4.212088898086548e-001	 1.170656760710869e+001
 2.371922488997865e+000	 4.451034273659248e-001	 1.172572548999641e+001
 2.367307890880099e+000	 4.690272649263335e-001	 1.173947566006179e+001
 2.428736368856203e+000	 2.340958098643674e-001	 1.152258165364654e+001
 2.426325409525294e+000	 2.578882809402479e-001	 1.152145210004026e+001
 2.423671784096173e+000	 2.817385015922139e-001	 1.153091838234616e+001
 2.420773403051145e+000	 3.056431719362983e-001	 1.154815851697839e+001
 2.417628228468532e+000	 3.295989287284877e-001	 1.157061329990356e+001
 2.414234276026662e+000	 3.536023461255909e-001	 1.159598047397900e+001
 2.410589617004602e+000	 3.776499365134308e-001	 1.162220831436018e+001
 2.406692380277210e+000	 4.017381514029980e-001	 1.164748883627425e+001
 2.402540754302072e+000	 4.258633823951184e-001	 1.167025084152578e+001
 2.398132989095801e+000	 4.500219622140910e-001	 1.168915303072787e+001
 2.393467398197139e+000	 4.742101658106620e-001	 1.170307741727390e+001
 2.455281349939667e+000	 2.366543703248298e-001	 1.149482733169195e+001
 2.452844039922479e+000	 2.607068822608415e-001	 1.149288627159069e+001
 2.450161411577347e+000	 2.848177749493983e-001	 1.150127692144044e+001
 2.447231352549091e+000	 3.089837124403242e-001	 1.151725258558552e+001
 2.444051802642469e+000	 3.332012947309000e-001	 1.153834088590820e+001
 2.440620755848070e+000	 3.574670585350495e-001	 1.156233549257398e+001
 2.436936262364911e+000	 3.817774781205810e-001	 1.158728721661360e+001
 2.432996430617297e+000	 4.061289662151378e-001	 1.161149468855570e+001
 2.428799429263472e+000	 4.305178749814069e-001	 1.163349486041266e+001
 2.424343489193518e+000	 4.549404970620558e-001	 1.165205357986295e+001
 2.419626905513916e+000	 4.793930666947602e-001	 1.166615649528352e+001
 2.481826331023469e+000	 2.392129307852923e-001	 1.147088937062941e+001
 2.479362670319949e+000	 2.635254835814351e-001	 1.146739079623546e+001
 2.476651039058744e+000	 2.878970483065821e-001	 1.147399765839453e+001
 2.473689302047192e+000	 3.123242529443478e-001	 1.148804911368433e+001
 2.470475376816489e+000	 3.368036607333074e-001	 1.150717013721807e+001
 2.467007235669486e+000	 3.613317709444980e-001	 1.152926062689680e+001
 2.463282907725154e+000	 3.859050197277140e-001	 1.155248381151974e+001
 2.459300480957246e+000	 4.105197810272501e-001	 1.157525420817735e+001
 2.455058104224664e+000	 4.351723675676544e-001	 1.159622538851902e+001
 2.450553989290963e+000	 4.598590319099618e-001	 1.161427782599241e+001
 2.445786412830364e+000	 4.845759675787774e-001	 1.162850710679031e+001
 2.508371312107629e+000	 2.417714912458381e-001	 1.145152435326902e+001
 2.505881300717724e+000	 2.663440849021089e-001	 1.144560433743577e+001
 2.503140666540384e+000	 2.909763216638469e-001	 1.144959207132793e+001
 2.500147251545462e+000	 3.156647934484557e-001	 1.146092686947575e+001
 2.496898950990597e+000	 3.404060267358030e-001	 1.147734531775280e+001
 2.493393715490908e+000	 3.651964833540393e-001	 1.149686754768580e+001
 2.489629553085315e+000	 3.900325613349428e-001	 1.151778275475561e+001
 2.485604531297026e+000	 4.149105958394586e-001	 1.153863422868136e+001
 2.481316779185606e+000	 4.398268601539944e-001	 1.155820417898963e+001
 2.476764489388081e+000	 4.647775667579515e-001	 1.157549865268652e+001
 2.471945920146419e+000	 4.897588684628632e-001	 1.158973285236745e+001
 2.534916293192159e+000	 2.443300517065509e-001	 1.143746499626028e+001
 2.532399931115824e+000	 2.691626862229434e-001	 1.142812142058863e+001
 2.529630294022282e+000	 2.940555950212740e-001	 1.142850801866570e+001
 2.526605201043915e+000	 3.190053339527335e-001	 1.143618235796449e+001
 2.523322525164801e+000	 3.440083927384807e-001	 1.144901066809057e+001
 2.519780195312328e+000	 3.690611957637762e-001	 1.146515106777209e+001
 2.515976198445378e+000	 3.941601029423806e-001	 1.148303597394434e+001
 2.511908581636609e+000	 4.193014106518870e-001	 1.150135398491157e+001
 2.507575454146253e+000	 4.444813527405609e-001	 1.151903154608206e+001
 2.502974989484819e+000	 4.696961016061680e-001	 1.153521472135455e+001
 2.498105427462015e+000	 4.949417693471667e-001	 1.154925140567639e+001
 2.561461274277079e+000	 2.468886121675139e-001	 1.142941605584607e+001
 2.558918561514267e+000	 2.719812875440190e-001	 1.141548906612489e+001
 2.556119921504460e+000	 2.971348683789455e-001	 1.141112712266037e+001
 2.553063150542562e+000	 3.223458744572679e-001	 1.141402798166586e+001
 2.549746099339105e+000	 3.476107587414337e-001	 1.142220937376978e+001
 2.546166675133743e+000	 3.729259081738113e-001	 1.143398895199566e+001
 2.542322843805324e+000	 3.982876445501403e-001	 1.144796335776847e+001
 2.538212631975964e+000	 4.236922254646593e-001	 1.146298672241379e+001
 2.533834129106566e+000	 4.491358453274881e-001	 1.147814893938859e+001
 2.529185489581120e+000	 4.746146364547536e-001	 1.149275405819772e+001
 2.524264934777087e+000	 5.001246702318375e-001	 1.150629916435666e+001
 2.588006255362404e+000	 2.494471726288108e-001	 1.142805053432487e+001
 2.585437191913076e+000	 2.747998888654162e-001	 1.140820369067583e+001
 2.582609548986936e+000	 3.002141417369426e-001	 1.139776238859707e+001
 2.579521100041420e+000	 3.256864149621451e-001	 1.139459040471995e+001
 2.576169673513514e+000	 3.512131247447558e-001	 1.139688270468645e+001
 2.572553154955151e+000	 3.767906205842475e-001	 1.140314186572175e+001
 2.568669489165140e+000	 4.024151861583352e-001	 1.141215355085611e+001
 2.564516682315065e+000	 4.280830402778990e-001	 1.142296137929970e+001
 2.560092804066504e+000	 4.537903379149099e-001	 1.143484155658158e+001
 2.555395989676932e+000	 4.795331713038518e-001	 1.144727764496128e+001
 2.550424442091569e+000	 5.053075711170251e-001	 1.145993586905387e+001
 2.288829368928065e+000	 4.534785622704716e-001	 1.184463355491507e+001
 2.284118920117788e+000	 4.766374885184339e-001	 1.185771033386669e+001
 2.279158808371665e+000	 4.998174582029122e-001	 1.187581782379132e+001
 2.273947615693367e+000	 5.230147431693808e-001	 1.189738942191542e+001
 2.268483992241738e+000	 5.462255647562675e-001	 1.192105857259166e+001
 2.262766658109032e+000	 5.694460951855148e-001	 1.194566463367581e+001
 2.256794405071063e+000	 5.926724590196567e-001	 1.197026004039795e+001
 2.250566098306568e+000	 6.159007346850259e-001	 1.199411892782713e+001
 2.244080678083104e+000	 6.391269560606027e-001	 1.201674736599855e+001
 2.237337161406804e+000	 6.623471141318938e-001	 1.203789535279238e+001
 2.230334643633273e+000	 6.855571587091147e-001	 1.206079267806632e+001
 2.314988876245497e+000	 4.586614631563876e-001	 1.181054582332984e+001
 2.310224590735523e+000	 4.820850775934856e-001	 1.182356291268826e+001
 2.305207788840002e+000	 5.055299759769892e-001	 1.184123509176715e+001
 2.299937036356030e+000	 5.289923875425029e-001	 1.186200428854773e+001
 2.294410968014828e+000	 5.524684904413271e-001	 1.188450423997392e+001
 2.288628289280320e+000	 5.759544131469154e-001	 1.190756495218863e+001
 2.282587778119268e+000	 5.994462359286034e-001	 1.193021859160932e+001
 2.276288286740297e+000	 6.229399923922245e-001	 1.195170698634056e+001
 2.269728743299059e+000	 6.464316710871186e-001	 1.197149090992846e+001
 2.262908153566842e+000	 6.699172171789136e-001	 1.198935616849502e+001
 2.255825602559878e+000	 6.933925341873451e-001	 1.201174606811756e+001
 2.341148383562864e+000	 4.638443640416253e-001	 1.177536167659837e+001
 2.336330261353183e+000	 4.875326666678163e-001	 1.178842239865143e+001
 2.331256769308257e+000	 5.112424937503096e-001	 1.180576147942710e+001
 2.325926457018605e+000	 5.349700319148381e-001	 1.182582691867578e+001
 2.320337943787829e+000	 5.587114161255757e-001	 1.184724771626272e+001
 2.314489920451514e+000	 5.824627311074863e-001	 1.186883678897272e+001
 2.308381151167378e+000	 6.062200128367058e-001	 1.188959546358205e+001
 2.302010475173931e+000	 6.299792500985681e-001	 1.190871974541669e+001
 2.295376808514921e+000	 6.537363861127731e-001	 1.192560855363293e+001
 2.288479145726790e+000	 6.774873202250676e-001	 1.194099377084437e+001
 2.281316561486399e+000	 7.012279096647086e-001	 1.196329739800062e+001
 2.367307890880099e+000	 4.690272649263335e-001	 1.173947566006179e+001
 2.362435931970694e+000	 4.929802557415794e-001	 1.175267427673444e+001
 2.357305749776348e+000	 5.169550115230278e-001	 1.176976113257930e+001
 2.351915877681005e+000	 5.409476762865410e-001	 1.178919047909194e+001
 2.346264919560646e+000	 5.649543418091653e-001	 1.180958409230355e+001
 2.340351551622521e+000	 5.889710490673754e-001	 1.182973249882429e+001
 2.334174524215299e+000	 6.129937897441082e-001	 1.184859793613096e+001
 2.327732663607379e+000	 6.370185078041980e-001	 1.186531926743109e+001
 2.321024873730601e+000	 6.610411011377028e-001	 1.187921906292562e+001
 2.314050137886562e+000	 6.850574232704915e-001	 1.189321577867830e+001
 2.306807520412753e+000	 7.090632851413388e-001	 1.191567619195678e+001
 2.393467398197139e+000	 4.742101658106620e-001	 1.170307741727390e+001
 2.388541602587979e+000	 4.984278448149279e-001	 1.171648436384478e+001
 2.383354730244194e+000	 5.226675292952986e-001	 1.173336613115684e+001
 2.377905298343142e+000	 5.469253206577649e-001	 1.175218604970454e+001
 2.372191895333188e+000	 5.711972674922478e-001	 1.177155872930630e+001
 2.366213182793248e+000	 5.954793670267320e-001	 1.179024943672257e+001
 2.359967897262938e+000	 6.197675666509557e-001	 1.180717537853534e+001
 2.353454852040546e+000	 6.440577655092539e-001	 1.182140913218819e+001
 2.346672938946006e+000	 6.683458161620447e-001	 1.183221206435164e+001
 2.339621130046071e+000	 6.926275263153183e-001	 1.184601660403540e+001
 2.332298479338855e+000	 7.168986606173690e-001	 1.186886145699322e+001
 2.419626905513916e+000	 4.793930666947602e-001	 1.166615649528352e+001
 2.414647273204966e+000	 5.038754338880156e-001	 1.167980487033944e+001
 2.409403710711710e+000	 5.283800470672767e-001	 1.169648378908168e+001
 2.403894719004927e+000	 5.529029650286648e-001	 1.171467114668445e+001
 2.398118871105364e+000	 5.774401931749745e-001	 1.173297699299964e+001
 2.392074813963600e+000	 6.019876849857039e-001	 1.175014089345337e+001
 2.385761270310199e+000	 6.265413435573921e-001	 1.176503137976974e+001
 2.379177040473338e+000	 6.510970232138766e-001	 1.177664775751043e+001
 2.372321004161045e+000	 6.756505311859365e-001	 1.178497764364374e+001
 2.365192122205227e+000	 7.001976293596834e-001	 1.179915370826862e+001
 2.357789438264623e+000	 7.247340360929329e-001	 1.182259416723727e+001
 2.445786412830364e+000	 4.845759675787774e-001	 1.162850710679031e+001
 2.440752943821578e+000	 5.093230229609954e-001	 1.164238037125446e+001
 2.435452691178814e+000	 5.340925648391165e-001	 1.165880382021841e+001
 2.429884139666275e+000	 5.588806093993936e-001	 1.167627807148017e+001
 2.424045846877084e+000	 5.836831188574979e-001	 1.169341377667947e+001
 2.417936445133483e+000	 6.084960029444394e-001	 1.170892678624045e+001
 2.411554643356989e+000	 6.333151204635623e-001	 1.172163560278437e+001
 2.404899228905664e+000	 6.581362809182071e-001	 1.173046141568323e+001
 2.397969069375629e+000	 6.829552462095149e-001	 1.173737325833529e+001
 2.390763114363941e+000	 7.077677324037210e-001	 1.175215899758813e+001
 2.383280397189971e+000	 7.325694115681636e-001	 1.177638937449138e+001
 2.471945920146419e+000	 4.897588684628632e-001	 1.158973285236745e+001
 2.466858614437743e+000	 5.147706120340211e-001	 1.160375369392989e+001
 2.461501671645428e+000	 5.398050826109729e-001	 1.161980538033679e+001
 2.455873560327097e+000	 5.648582537701059e-001	 1.163642209860043e+001
 2.449972822648255e+000	 5.899260445399690e-001	 1.165222282878838e+001
 2.443798076302805e+000	 6.150043209030871e-001	 1.166590412253236e+001
 2.437348016403213e+000	 6.400888973696106e-001	 1.167623538327722e+001
 2.430621417337429e+000	 6.651755386223857e-001	 1.168205696828718e+001
 2.423617134589663e+000	 6.902599612329167e-001	 1.168873302824739e+001
 2.416334106522128e+000	 7.153378354475658e-001	 1.170434989188122e+001
 2.408771356114817e+000	 7.404047870431946e-001	 1.172954797268031e+001
 2.498105427462015e+000	 4.949417693471667e-001	 1.154925140567639e+001
 2.492964285053382e+000	 5.202182011072452e-001	 1.156327172815690e+001
 2.487550652111465e+000	 5.455176003830007e-001	 1.157876399416915e+001
 2.481862980987305e+000	 5.708358981409557e-001	 1.159430951398140e+001
 2.475899798418785e+000	 5.961689702225396e-001	 1.160854589935424e+001
 2.469659707471471e+000	 6.215126388617955e-001	 1.162015725357311e+001
 2.463141389448778e+000	 6.468626742756822e-001	 1.162786709168828e+001
 2.456343605768538e+000	 6.722147963265528e-001	 1.163079127925206e+001
 2.449265199803056e+000	 6.975646762562793e-001	 1.163818742962527e+001
 2.441905098679697e+000	 7.229079384913518e-001	 1.165484009075871e+001
 2.434262315039078e+000	 7.482401625181596e-001	 1.168116814156223e+001
 2.524264934777087e+000	 5.001246702318375e-001	 1.150629916435666e+001
 2.519069955668423e+000	 5.256657901808217e-001	 1.152009116446677e+001
 2.513599632576846e+000	 5.512301181553541e-001	 1.153475837589833e+001
 2.507852401646812e+000	 5.768135425120967e-001	 1.154894551477663e+001
 2.501826774188584e+000	 6.024118959053616e-001	 1.156132171842735e+001
 2.495521338639389e+000	 6.280209568207136e-001	 1.157056793300682e+001
 2.488934762493587e+000	 6.536364511819210e-001	 1.157536727559369e+001
 2.482065794198899e+000	 6.792540540308492e-001	 1.157632659295745e+001
 2.474913265015719e+000	 7.048693912797397e-001	 1.158467310095040e+001
 2.467476090836561e+000	 7.304780415352139e-001	 1.160255005879393e+001
 2.459753273962669e+000	 7.560755379931917e-001	 1.163015649297241e+001
 2.550424442091569e+000	 5.053075711170251e-001	 1.145993586905387e+001
 2.545175626282793e+000	 5.311133792549038e-001	 1.147318416571815e+001
 2.539648613041488e+000	 5.569426359281883e-001	 1.148667715072546e+001
 2.533841822305532e+000	 5.827911868836830e-001	 1.149914198051887e+001
 2.527753749957560e+000	 6.086548215885872e-001	 1.150929481857927e+001
 2.521382969806465e+000	 6.345292747799887e-001	 1.151582519451463e+001
 2.514728135537550e+000	 6.604102280884717e-001	 1.151738359826826e+001
 2.507787982628420e+000	 6.862933117354155e-001	 1.151745901762206e+001
 2.500561330227559e+000	 7.121741063034355e-001	 1.152694240523022e+001
 2.493047082992633e+000	 7.380481445792869e-001	 1.154621725011691e+001
 2.485244232885506e+000	 7.639109134684247e-001	 1.157523894095778e+001
 2.230334643633273e+000	 6.855571587091147e-001	 1.206079267806632e+001
 2.223072299479172e+000	 7.087529998691573e-001	 1.208650604929263e+001
 2.215549382871506e+000	 7.319305087471114e-001	 1.210952762671227e+001
 2.207765230096631e+000	 7.550855204020772e-001	 1.212999177755050e+001
 2.199719261790046e+000	 7.782138361143607e-001	 1.214819062685066e+001
 2.191410984317160e+000	 8.013112254104075e-001	 1.216457380126172e+001
 2.182839991099376e+000	 8.243734281452965e-001	 1.217974800646157e+001
 2.174005963882928e+000	 8.473961566412124e-001	 1.219447641564032e+001
 2.164908673947971e+000	 8.703750978801975e-001	 1.220967784379970e+001
 2.155547983255453e+000	 8.933059157493628e-001	 1.222642568011356e+001
 2.145923845529373e+000	 9.161842533366132e-001	 1.224594654827537e+001
 2.255825602559878e+000	 6.933925341873451e-001	 1.201174606811756e+001
 2.248480255562493e+000	 7.168534854447088e-001	 1.203734907096819e+001
 2.240871357974673e+000	 7.402958948964447e-001	 1.206032625960502e+001
 2.232998238497061e+000	 7.637155499996891e-001	 1.208077133272679e+001
 2.224860311143484e+000	 7.871082040467171e-001	 1.209893458060525e+001
 2.216457076637509e+000	 8.104695782130247e-001	 1.211522285515832e+001
 2.207788123753673e+000	 8.337953636636194e-001	 1.213019940742320e+001
 2.198853130600829e+000	 8.570812237159357e-001	 1.214458356773033e+001
 2.189651865845055e+000	 8.803227960576487e-001	 1.215925024083188e+001
 2.180184189869628e+000	 9.035156950175444e-001	 1.217522918535356e+001
 2.170450055869658e+000	 9.266555138874861e-001	 1.219370404426373e+001
 2.281316561486399e+000	 7.012279096647086e-001	 1.196329739800062e+001
 2.273888211645736e+000	 7.249539710193941e-001	 1.198903716853409e+001
 2.266193333077769e+000	 7.486612810449148e-001	 1.201225768939023e+001
 2.258231246897426e+000	 7.723455795964405e-001	 1.203301946511093e+001
 2.250001360496865e+000	 7.960025719782181e-001	 1.205153698343425e+001
 2.241503168957809e+000	 8.196279310147910e-001	 1.206817891202381e+001
 2.232736256407929e+000	 8.432172991810966e-001	 1.208346820127174e+001
 2.223700297318700e+000	 8.667662907898179e-001	 1.209808206626665e+001
 2.214395057742118e+000	 8.902704942342625e-001	 1.211285181755888e+001
 2.204820396483794e+000	 9.137254742848917e-001	 1.212876250706996e+001
 2.194976266209943e+000	 9.371267744375259e-001	 1.214695235242782e+001
 2.306807520412753e+000	 7.090632851413388e-001	 1.191567619195678e+001
 2.299296167728821e+000	 7.330544565933477e-001	 1.194177703525543e+001
 2.291515308180721e+000	 7.570266671926574e-001	 1.196549071211264e+001
 2.283464255297661e+000	 7.809756091924723e-001	 1.198685153829454e+001
 2.275142409850133e+000	 8.048969399090080e-001	 1.200604374291386e+001
 2.266549261278012e+000	 8.287862838158566e-001	 1.202340189476092e+001
 2.257684389062107e+000	 8.526392346978825e-001	 1.203941127849568e+001
 2.248547464036510e+000	 8.764513578630184e-001	 1.205470819148780e+001
 2.239138249639141e+000	 9.002181924102024e-001	 1.207008012818624e+001
 2.229456603097937e+000	 9.239352535515704e-001	 1.208646581518059e+001
 2.219502476550226e+000	 9.475980349868982e-001	 1.210495505663272e+001
 2.332298479338855e+000	 7.168986606173690e-001	 1.186886145699322e+001
 2.324704123811673e+000	 7.411549421667038e-001	 1.189552438296979e+001
 2.316837283283455e+000	 7.653920533398096e-001	 1.191994424837104e+001
 2.308697263697703e+000	 7.896056387879249e-001	 1.194213569519309e+001
 2.300283459203230e+000	 8.137913078392319e-001	 1.196225772555311e+001
 2.291595353598070e+000	 8.379446366163708e-001	 1.198061436322278e+001
 2.282632521716166e+000	 8.620611702141319e-001	 1.199765531414008e+001
 2.273394630754231e+000	 8.861364249356956e-001	 1.201397659427532e+001
 2.263881441536102e+000	 9.101658905856304e-001	 1.203032108883942e+001
 2.254092809712048e+000	 9.341450328177450e-001	 1.204757900263788e+001
 2.244028686890507e+000	 9.580692955357705e-001	 1.206678815743745e+001
 2.357789438264623e+000	 7.247340360929329e-001	 1.182259416723727e+001
 2.350112079894210e+000	 7.492554277395965e-001	 1.184999712413515e+001
 2.342159258385902e+000	 7.737574394865083e-001	 1.187530117082608e+001
 2.333930272097482e+000	 7.982356683829374e-001	 1.189850727751775e+001
 2.325424508556097e+000	 8.226856757690343e-001	 1.191975371349204e+001
 2.316641445917932e+000	 8.471029894164828e-001	 1.193931695218176e+001
 2.307580654370066e+000	 8.714831057299988e-001	 1.195761262990008e+001
 2.298241797471829e+000	 8.958214920080092e-001	 1.197519652406394e+001
 2.288624633432979e+000	 9.201135887607101e-001	 1.199276551185545e+001
 2.278729016326116e+000	 9.443548120835820e-001	 1.201115846557577e+001
 2.268554897230787e+000	 9.685405560843096e-001	 1.203135703652162e+001
 2.383280397189971e+000	 7.325694115681636e-001	 1.177638937449138e+001
 2.375520035976356e+000	 7.573559133121597e-001	 1.180468816209699e+001
 2.367481233487989e+000	 7.821228256328895e-001	 1.183102172574395e+001
 2.359163280496938e+000	 8.068656979776510e-001	 1.185538282892643e+001
 2.350565557908681e+000	 8.315800436985599e-001	 1.187789293837205e+001
 2.341687538237552e+000	 8.562613422163423e-001	 1.189880338383521e+001
 2.332528787023769e+000	 8.809050412456384e-001	 1.191849663200323e+001
 2.323088964189278e+000	 9.055065590801182e-001	 1.193748763769552e+001
 2.313367825329754e+000	 9.300612869356039e-001	 1.195642523008718e+001
 2.303365222940131e+000	 9.545645913492464e-001	 1.197609348645944e+001
 2.293081107571061e+000	 9.790118166326809e-001	 1.199741304102969e+001
 2.408771356114817e+000	 7.404047870431946e-001	 1.172954797268031e+001
 2.400927992058032e+000	 7.654563988845280e-001	 1.175887781859818e+001
 2.392803208589645e+000	 7.904882117790897e-001	 1.178635657865131e+001
 2.384396288896006e+000	 8.154957275722057e-001	 1.181197371269491e+001
 2.375706607260921e+000	 8.404744116279526e-001	 1.183583722370180e+001
 2.366733630556880e+000	 8.654196950160988e-001	 1.185817508636518e+001
 2.357476919677233e+000	 8.903269767612047e-001	 1.187933685630587e+001
 2.347936130906541e+000	 9.151916261521809e-001	 1.189979542026068e+001
 2.338111017226406e+000	 9.400089851104752e-001	 1.192014884159225e+001
 2.328001429554082e+000	 9.647743706149041e-001	 1.194112224964763e+001
 2.317607317911332e+000	 9.894830771810523e-001	 1.196356971598988e+001
 2.434262315039078e+000	 7.482401625181596e-001	 1.168116814156223e+001
 2.426335948139160e+000	 7.735568844568357e-001	 1.171164592512377e+001
 2.418125183690795e+000	 7.988535979252458e-001	 1.174035951165405e+001
 2.409629297294618e+000	 8.241257571667410e-001	 1.176729937216642e+001
 2.400847656612762e+000	 8.493687795573580e-001	 1.179256276441794e+001
 2.391779722875867e+000	 8.745780478159020e-001	 1.181635544743153e+001
 2.382425052330418e+000	 8.997489122768517e-001	 1.183899364939713e+001
 2.372783297623596e+000	 9.248766932243574e-001	 1.186090624637207e+001
 2.362854209122914e+000	 9.499566832854866e-001	 1.188263710253467e+001
 2.352637636167958e+000	 9.749841498807208e-001	 1.190484751631269e+001
 2.342133528251599e+000	 9.999543377295894e-001	 1.192831871060367e+001
 2.459753273962669e+000	 7.560755379931917e-001	 1.163015649297241e+001
 2.451743904219661e+000	 7.816573700292162e-001	 1.166188360246759e+001
 2.443447158791370e+000	 8.072189840714945e-001	 1.169189979769282e+001
 2.434862305692713e+000	 8.327557867613982e-001	 1.172020025989483e+001
 2.425988705964147e+000	 8.582631474869201e-001	 1.174687356996037e+001
 2.416825815194466e+000	 8.837364006159015e-001	 1.177210372908130e+001
 2.407373184983288e+000	 9.091708477927348e-001	 1.179617251211623e+001
 2.397630464340407e+000	 9.345617602968064e-001	 1.181946210795147e+001
 2.387597401019257e+000	 9.599043814608010e-001	 1.184245799381785e+001
 2.377273842781749e+000	 9.851939291468613e-001	 1.186575198342971e+001
 2.366659738591859e+000	 1.010425598278460e+000	 1.189003061260535e+001
 2.485244232885506e+000	 7.639109134684247e-001	 1.157523894095778e+001
 2.477151860299458e+000	 7.897578556018046e-001	 1.160830475090859e+001
 2.468769133891298e+000	 8.155843702179724e-001	 1.163967427492954e+001
 2.460095314090223e+000	 8.413858163563166e-001	 1.166935045926801e+001
 2.451129755315018e+000	 8.671575154167841e-001	 1.169741459502245e+001
 2.441871907512629e+000	 8.928947534162470e-001	 1.172402866838564e+001
 2.432321317635803e+000	 9.185927833090084e-001	 1.174943812972149e+001
 2.422477631056948e+000	 9.442468273696871e-001	 1.177397503247811e+001
 2.412340592915415e+000	 9.698520796365817e-001	 1.179806148487642e+001
 2.401910049395445e+000	 9.954037084134922e-001	 1.182221334951846e+001
 2.391185948932115e+000	 1.020896858827830e+000	 1.184703093349197e+001
 2.145923845529373e+000	 9.161842533366132e-001	 1.224594654827537e+001
 2.136037810352666e+000	 9.390023168969390e-001	 1.226350982684551e+001
 2.125888595480185e+000	 9.617591535682968e-001	 1.227428913583981e+001
 2.115476437276295e+000	 9.844503614784820e-001	 1.227958181057133e+001
 2.104801667440269e+000	 1.007071527655773e+000	 1.228083036670961e+001
 2.093864713729079e+000	 1.029618230541540e+000	 1.227961009255126e+001
 2.082666100602788e+000	 1.052086042539205e+000	 1.227766971018768e+001
 2.071206449790665e+000	 1.074470532596845e+000	 1.227685905314089e+001
 2.059486480776334e+000	 1.096767268820616e+000	 1.227917464179558e+001
 2.047507011200339e+000	 1.118971821116124e+000	 1.228674215790313e+001
 2.035268957178629e+000	 1.141079763854727e+000	 1.230181153748845e+001
 2.170450055869658e+000	 9.266555138874861e-001	 1.219370404426373e+001
 2.160451031138595e+000	 9.497343698461394e-001	 1.220989891303534e+001
 2.150185818776248e+000	 9.727512991410006e-001	 1.221906612869331e+001
 2.139654657848451e+000	 9.957018495899493e-001	 1.222265009682395e+001
 2.128857883845541e+000	 1.018581557784486e+000	 1.222223235981781e+001
 2.117795929413422e+000	 1.041385951631064e+000	 1.221957986509038e+001
 2.106469325006327e+000	 1.064110552929180e+000	 1.221656214393130e+001
 2.094878699459406e+000	 1.086750879983490e+000	 1.221520541389698e+001
 2.083024780479415e+000	 1.109302450247109e+000	 1.221767362626439e+001
 2.070908395051891e+000	 1.131760782993169e+000	 1.222626424376364e+001
 2.058530469763273e+000	 1.154121402011593e+000	 1.224340337210416e+001
 2.194976266209943e+000	 9.371267744375259e-001	 1.214695235242782e+001
 2.184864251924532e+000	 9.604664227945057e-001	 1.216260487208844e+001
 2.174483042072331e+000	 9.837434447128692e-001	 1.217104697476497e+001
 2.163832878420640e+000	 1.006953337700580e+000	 1.217385236943008e+001
 2.152914100250859e+000	 1.030091587912363e+000	 1.217273616771238e+001
 2.141727145097828e+000	 1.053153672719756e+000	 1.216959798331581e+001
 2.130272549409948e+000	 1.076135063318328e+000	 1.216644765391559e+001
 2.118550949128249e+000	 1.099031227369320e+000	 1.216545373369601e+001
 2.106563080182627e+000	 1.121837631672806e+000	 1.216892620081899e+001
 2.094309778903607e+000	 1.144549744869444e+000	 1.217931237157518e+001
 2.081791982348114e+000	 1.167163040167724e+000	 1.219919214102539e+001
 2.219502476550226e+000	 9.475980349868982e-001	 1.210495505663272e+001
 2.209277472710488e+000	 9.711984757422032e-001	 1.212070009909524e+001
 2.198780265368454e+000	 9.947355902840656e-001	 1.212910310241284e+001
 2.188011098992888e+000	 1.018204825810533e+000	 1.213183679184422e+001
 2.176970316656258e+000	 1.041601618039557e+000	 1.213076824964747e+001
 2.165658360782336e+000	 1.064921393807760e+000	 1.212787317506016e+001
 2.154075773813694e+000	 1.088159573706788e+000	 1.212529381013479e+001
 2.142223198797243e+000	 1.111311574754465e+000	 1.212532016672710e+001
 2.130101379886014e+000	 1.134372813097828e+000	 1.213038679869827e+001
 2.117711162755524e+000	 1.157338706745061e+000	 1.214306892589628e+001
 2.105053494933187e+000	 1.180204678323221e+000	 1.216607785791842e+001
 2.244028686890507e+000	 9.580692955357705e-001	 1.206678815743745e+001
 2.233690693496472e+000	 9.819305286893982e-001	 1.208308316739405e+001
 2.223077488664634e+000	 1.005727735854752e+000	 1.209194667335945e+001
 2.212189319565223e+000	 1.029456313919966e+000	 1.209514611333049e+001
 2.201026533061774e+000	 1.053111648166220e+000	 1.209464028561807e+001
 2.189589576466989e+000	 1.076689114895224e+000	 1.209250272340123e+001
 2.177878998217611e+000	 1.100184084094699e+000	 1.209097385654191e+001
 2.165895448466434e+000	 1.123591922139056e+000	 1.209244414414671e+001
 2.153639679589622e+000	 1.146907994522294e+000	 1.209945115382869e+001
 2.141112546607686e+000	 1.170127668620127e+000	 1.211467597267241e+001
 2.128315007518526e+000	 1.193246316478183e+000	 1.214093889181995e+001
 2.268554897230787e+000	 9.685405560843096e-001	 1.203135703652161e+001
 2.258103914282494e+000	 9.926625816362567e-001	 1.204849592675630e+001
 2.247374711960891e+000	 1.016719881425092e+000	 1.205813472593354e+001
 2.236367540137673e+000	 1.040707802029039e+000	 1.206215635597511e+001
 2.225082749467440e+000	 1.064621678292507e+000	 1.206255320706756e+001
 2.213520792151827e+000	 1.088456835982292e+000	 1.206148971338016e+001
 2.201682222621746e+000	 1.112208594482198e+000	 1.206128389885304e+001
 2.189567698135869e+000	 1.135872269523220e+000	 1.206440546493242e+001
 2.177177979293499e+000	 1.159443175946325e+000	 1.207347325695978e+001
 2.164513930460135e+000	 1.182916630494756e+000	 1.209125204320477e+001
 2.151576520104164e+000	 1.206287954632712e+000	 1.212064854186165e+001
 2.293081107571061e+000	 9.790118166326809e-001	 1.199741304102969e+001
 2.282517135068562e+000	 1.003394634582944e+000	 1.201554024155157e+001
 2.271671935257244e+000	 1.027712026995249e+000	 1.202613965195062e+001
 2.260545760710265e+000	 1.051959290137911e+000	 1.203114758502349e+001
 2.249138965873294e+000	 1.076131708418570e+000	 1.203261417810761e+001
 2.237452007836891e+000	 1.100224557069113e+000	 1.203276002152263e+001
 2.225485447026142e+000	 1.124233104869425e+000	 1.203395986614954e+001
 2.213239947805595e+000	 1.148152616907090e+000	 1.203874119348907e+001
 2.200716278997688e+000	 1.171978357370042e+000	 1.204978215338562e+001
 2.187915314312909e+000	 1.195705592369057e+000	 1.206990879633361e+001
 2.174838032690135e+000	 1.219329592786908e+000	 1.210209152854766e+001
 2.317607317911332e+000	 9.894830771810523e-001	 1.196356971598988e+001
 2.306930355854685e+000	 1.014126687529626e+000	 1.198268056325484e+001
 2.295969158553711e+000	 1.038704172565387e+000	 1.199428308748615e+001
 2.284723981283027e+000	 1.063210778246740e+000	 1.200030672187783e+001
 2.273195182279369e+000	 1.087641738544563e+000	 1.200285331178145e+001
 2.261383223522225e+000	 1.111992278155832e+000	 1.200417906721435e+001
 2.249288671430845e+000	 1.136257615256517e+000	 1.200669426303329e+001
 2.236912197475659e+000	 1.160432964290793e+000	 1.201296237832158e+001
 2.224254578702236e+000	 1.184513538793563e+000	 1.202569859398615e+001
 2.211316698166055e+000	 1.208494554243140e+000	 1.204776756785718e+001
 2.198099545276473e+000	 1.232371230940871e+000	 1.208218040776513e+001
 2.342133528251599e+000	 9.999543377295894e-001	 1.192831871060367e+001
 2.331343576640874e+000	 1.024858740476468e+000	 1.194831685341489e+001
 2.320266381850311e+000	 1.049696318135667e+000	 1.196080880376541e+001
 2.308902201855987e+000	 1.074462266355686e+000	 1.196774392232035e+001
 2.297251398685700e+000	 1.099151768670638e+000	 1.197124014079244e+001
 2.285314439207865e+000	 1.123759999242595e+000	 1.197356834338694e+001
 2.273091895835900e+000	 1.148282125643612e+000	 1.197715272768727e+001
 2.260584447146108e+000	 1.172713311674460e+000	 1.198457060488956e+001
 2.247792878407190e+000	 1.197048720217011e+000	 1.199855155033846e+001
 2.234718082019611e+000	 1.221283516117117e+000	 1.202197581544878e+001
 2.221361057863212e+000	 1.245412869094703e+000	 1.205787191318886e+001
 2.366659738591859e+000	 1.010425598278460e+000	 1.189003061260536e+001
 2.355756797427137e+000	 1.035590793423637e+000	 1.191071281103945e+001
 2.344563605147063e+000	 1.060688463706254e+000	 1.192388413617178e+001
 2.333080422429172e+000	 1.085713754464907e+000	 1.193150870565311e+001
 2.321307615092325e+000	 1.110661798796949e+000	 1.193569986050829e+001
 2.309245654893859e+000	 1.135527720329549e+000	 1.193872174252304e+001
 2.296895120241353e+000	 1.160306636030850e+000	 1.194299040992011e+001
 2.284256696816990e+000	 1.184993659058219e+000	 1.195107439467100e+001
 2.271331178112595e+000	 1.209583901640504e+000	 1.196569460375754e+001
 2.258119465873619e+000	 1.234072477991097e+000	 1.198972346665245e+001
 2.244622570450384e+000	 1.258454507248503e+000	 1.202618323227281e+001
 2.391185948932115e+000	 1.020896858827830e+000	 1.184703093349197e+001
 2.380170018213486e+000	 1.046322846371298e+000	 1.186807142576780e+001
 2.368860828443987e+000	 1.071680609277310e+000	 1.188161571937846e+001
 2.357258643002612e+000	 1.096965242574563e+000	 1.188960585263710e+001
 2.345363831499277e+000	 1.122171828923650e+000	 1.189412936059072e+001
 2.333176870580242e+000	 1.147295441416840e+000	 1.189742169267399e+001
 2.320698344647250e+000	 1.172331146418369e+000	 1.190186818211810e+001
 2.307928946488350e+000	 1.197274006442202e+000	 1.191000546147527e+001
 2.294869477818497e+000	 1.222119083064165e+000	 1.192452221731569e+001
 2.281520849728123e+000	 1.246861439865192e+000	 1.194825917691261e+001
 2.267884083038025e+000	 1.271496145402371e+000	 1.198420822059436e+001
 2.035268957178629e+000	 1.141079763854727e+000	 1.230181153748845e+001
 2.022771440011766e+000	 1.163089972340299e+000	 1.231545529760333e+001
 2.010017391776478e+000	 1.184994713164319e+000	 1.231837112528218e+001
 1.997008027266777e+000	 1.206789589643860e+000	 1.231238310646200e+001
 1.983744660202318e+000	 1.228470220469227e+000	 1.229973384187810e+001
 1.970228703106179e+000	 1.250032242448504e+000	 1.228264269261679e+001
 1.956461667092249e+000	 1.271471313257540e+000	 1.226321777198574e+001
 1.942445161561669e+000	 1.292783114191905e+000	 1.224358174742768e+001
 1.928180893807916e+000	 1.313963352917359e+000	 1.222586740982167e+001
 1.913670668530300e+000	 1.335007766215311e+000	 1.221220339412641e+001
 1.898916387255753e+000	 1.355912122719749e+000	 1.220275990696355e+001
 2.058530469763273e+000	 1.154121402011593e+000	 1.224340337210416e+001
 2.045890115871281e+000	 1.176383169751865e+000	 1.225935946258286e+001
 2.032990298963952e+000	 1.198538264418723e+000	 1.226401513942775e+001
 2.019832247719413e+000	 1.220582239078633e+000	 1.225934557196852e+001
 2.006417290872079e+000	 1.242510662346993e+000	 1.224735340519029e+001
 1.992746857089031e+000	 1.264319121164056e+000	 1.223019048221146e+001
 1.978822474754979e+000	 1.286003223576338e+000	 1.221068270434557e+001
 1.964645771665227e+000	 1.307558601520036e+000	 1.219122016276230e+001
 1.950218474626249e+000	 1.328980913602921e+000	 1.217410531286542e+001
 1.935542408963624e+000	 1.350265847881186e+000	 1.216111542409913e+001
 1.920619497937211e+000	 1.371409124627651e+000	 1.215268413614836e+001
 2.081791982348114e+000	 1.167163040167724e+000	 1.219919214102539e+001
 2.069008791731038e+000	 1.189676367162741e+000	 1.221797039676394e+001
 2.055963206151714e+000	 1.212081815672490e+000	 1.222465877404347e+001
 2.042656468172388e+000	 1.234374888512827e+000	 1.222138065574977e+001
 2.029089921542231e+000	 1.256551104224243e+000	 1.221028833578859e+001
 2.015265011072332e+000	 1.278605999879157e+000	 1.219355581146488e+001
 2.001183282418213e+000	 1.300535133894753e+000	 1.217337085695740e+001
 1.986846381769342e+000	 1.322334088847847e+000	 1.215250618558289e+001
 1.972256055445192e+000	 1.343998474288225e+000	 1.213414872675463e+001
 1.957414149397602e+000	 1.365523929546859e+000	 1.212039414484095e+001
 1.942322608619367e+000	 1.386906126535401e+000	 1.211224723219571e+001
 2.105053494933187e+000	 1.180204678323221e+000	 1.216607785791842e+001
 2.092127467591057e+000	 1.202969564573016e+000	 1.218791064226536e+001
 2.078936113339772e+000	 1.225625366925698e+000	 1.219666724137247e+001
 2.065480688625693e+000	 1.248167537946512e+000	 1.219460294647532e+001
 2.051762552212749e+000	 1.270591546101038e+000	 1.218400453204996e+001
 2.037783165056030e+000	 1.292892878593861e+000	 1.216718305548580e+001
 2.023544090081879e+000	 1.315067044212827e+000	 1.214646588361019e+001
 2.009046991873926e+000	 1.337109576175375e+000	 1.212422346937615e+001
 1.994293636264635e+000	 1.359016034973300e+000	 1.210406448095768e+001
 1.979285889832116e+000	 1.380782011212353e+000	 1.208905248285178e+001
 1.964025719302089e+000	 1.402403128443017e+000	 1.208043336692126e+001
 2.128315007518526e+000	 1.193246316478183e+000	 1.214093889181995e+001
 2.115246143451361e+000	 1.216262761982781e+000	 1.216579933743208e+001
 2.101909020528132e+000	 1.239168918178429e+000	 1.217641943034037e+001
 2.088304909079315e+000	 1.261960187379757e+000	 1.217516994734173e+001
 2.074435182883600e+000	 1.284631987977440e+000	 1.216445687126507e+001
 2.060301319040078e+000	 1.307179757308217e+000	 1.214671427096959e+001
 2.045904897745909e+000	 1.329598954530604e+000	 1.212439634928602e+001
 2.031247601978889e+000	 1.351885063502655e+000	 1.210137594028374e+001
 2.016331217084475e+000	 1.374033595658174e+000	 1.208170803980499e+001
 2.001157630267043e+000	 1.396040092877691e+000	 1.206612901287760e+001
 1.985728829985244e+000	 1.417900130350513e+000	 1.205626067331018e+001
 2.151576520104164e+000	 1.206287954632712e+000	 1.212064854186165e+001
 2.138364819311972e+000	 1.229555959392127e+000	 1.214826858161400e+001
 2.124881927716801e+000	 1.252712469430764e+000	 1.216032409695088e+001
 2.111129129533247e+000	 1.275752836812638e+000	 1.215928475504888e+001
 2.097107813554756e+000	 1.298672429853509e+000	 1.214766031825157e+001
 2.082819473024427e+000	 1.321466636022281e+000	 1.212799368067771e+001
 2.068265705410237e+000	 1.344130864848129e+000	 1.210358956812862e+001
 2.053448212084144e+000	 1.366660550829724e+000	 1.208117209778407e+001
 2.038368797904605e+000	 1.389051156342877e+000	 1.206240572617086e+001
 2.023029370702263e+000	 1.411298174542895e+000	 1.204796358165632e+001
 2.007431940668699e+000	 1.433397132257910e+000	 1.203848190485734e+001
 2.174838032690135e+000	 1.219329592786908e+000	 1.210209152854766e+001
 2.161483495172912e+000	 1.242849156801144e+000	 1.213197975415412e+001
 2.147854834905787e+000	 1.266256020682782e+000	 1.214483604347342e+001
 2.133953349987477e+000	 1.289545486245221e+000	 1.214321213174181e+001
 2.119780444226189e+000	 1.312712871729308e+000	 1.212970592266376e+001
 2.105337627009026e+000	 1.335753514736103e+000	 1.210700588408639e+001
 2.090626513074790e+000	 1.358662775165445e+000	 1.208272316092657e+001
 2.075648822189603e+000	 1.381436038156617e+000	 1.206141684112276e+001
 2.060406378724920e+000	 1.404068717027437e+000	 1.204378168985890e+001
 2.044901111137655e+000	 1.426556256207987e+000	 1.203048080893820e+001
 2.029135051352321e+000	 1.448894134165222e+000	 1.202214202022516e+001
 2.198099545276473e+000	 1.232371230940871e+000	 1.208218040776513e+001
 2.184602171034203e+000	 1.256142354209923e+000	 1.211363979097510e+001
 2.170827742095097e+000	 1.279799571934566e+000	 1.212647228725071e+001
 2.156777570441994e+000	 1.303338135677579e+000	 1.212329459568782e+001
 2.142453074897868e+000	 1.326753313604898e+000	 1.210677686118601e+001
 2.127855780993828e+000	 1.350040393449737e+000	 1.208247728115365e+001
 2.112987320739501e+000	 1.373194685482595e+000	 1.205984280576089e+001
 2.097849432295178e+000	 1.396211525483370e+000	 1.204002945468395e+001
 2.082443959545315e+000	 1.419086277711884e+000	 1.202370917047729e+001
 2.066772851573099e+000	 1.441814337872990e+000	 1.201152506679250e+001
 2.050838162035976e+000	 1.464391136072466e+000	 1.200408764095923e+001
 2.221361057863212e+000	 1.245412869094703e+000	 1.205787191318886e+001
 2.207720846895866e+000	 1.269435551618553e+000	 1.209001742187033e+001
 2.193800649284738e+000	 1.293343123186194e+000	 1.210182821988413e+001
 2.179601790896790e+000	 1.317130785109783e+000	 1.209596852931158e+001
 2.165125705569764e+000	 1.340793755480339e+000	 1.207585764188011e+001
 2.150373934978783e+000	 1.364327272163235e+000	 1.205353103715297e+001
 2.135348128404301e+000	 1.387726595799625e+000	 1.203303896208565e+001
 2.120050042400781e+000	 1.410987012810021e+000	 1.201504119255157e+001
 2.104481540365684e+000	 1.434103838396246e+000	 1.200017616785456e+001
 2.088644592008472e+000	 1.457072419537926e+000	 1.198905737788164e+001
 2.072541272719534e+000	 1.479888137979660e+000	 1.198226941288264e+001
 2.244622570450384e+000	 1.258454507248503e+000	 1.202618323227281e+001
 2.230839522757925e+000	 1.282728749027127e+000	 1.205795937134797e+001
 2.216773556474716e+000	 1.306886674437748e+000	 1.206759375749263e+001
 2.202426011351853e+000	 1.330923434541904e+000	 1.205778030332623e+001
 2.187798336241849e+000	 1.354834197355695e+000	 1.203776036012578e+001
 2.172892088963843e+000	 1.378614150876649e+000	 1.201843441300955e+001
 2.157708936069120e+000	 1.402258506116577e+000	 1.200050832096326e+001
 2.142250652506323e+000	 1.425762500136603e+000	 1.198459295331361e+001
 2.126519121185921e+000	 1.449121399080551e+000	 1.197128288632032e+001
 2.110516332443655e+000	 1.472330501202817e+000	 1.196115267067901e+001
 2.094244383402860e+000	 1.495385139886820e+000	 1.195475272547429e+001
 2.267884083038025e+000	 1.271496145402371e+000	 1.198420822059436e+001
 2.253958198620401e+000	 1.296021946435735e+000	 1.201440652564115e+001
 2.239746463665040e+000	 1.320430225689309e+000	 1.202056948268227e+001
 2.225250231807174e+000	 1.344716083974012e+000	 1.200750393140784e+001
 2.210470966914092e+000	 1.368874639231026e+000	 1.199139155389308e+001
 2.195410242948957e+000	 1.392901029590033e+000	 1.197555495382125e+001
 2.180069743733891e+000	 1.416790416433498e+000	 1.196055182138483e+001
 2.164451262611717e+000	 1.440537987463155e+000	 1.194693303863054e+001
 2.148556702005920e+000	 1.464138959764830e+000	 1.193523927371983e+001
 2.132388072878528e+000	 1.487588582867686e+000	 1.192599713782028e+001
 2.115947494085821e+000	 1.510882141793964e+000	 1.191971492911017e+001
 1.898916387255753e+000	 1.355912122719749e+000	 1.220275990696355e+001
 1.883920047133223e+000	 1.376672225183124e+000	 1.219174631823553e+001
 1.868683738580113e+000	 1.397283911780662e+000	 1.217438057838402e+001
 1.853209646065358e+000	 1.417743060129417e+000	 1.215138282104010e+001
 1.837500047710095e+000	 1.438045590410163e+000	 1.212347106622025e+001
 1.821557314259136e+000	 1.458187468011342e+000	 1.209136305862668e+001
 1.805383907963363e+000	 1.478164706143358e+000	 1.205577819683501e+001
 1.788982381374034e+000	 1.497973368419745e+000	 1.201743954300000e+001
 1.772355376050134e+000	 1.517609571401743e+000	 1.197707590159778e+001
 1.755505621180099e+000	 1.537069487102882e+000	 1.193542395464653e+001
 1.738435932119337e+000	 1.556349345450221e+000	 1.189323043982013e+001
 1.920619497937211e+000	 1.371409124627651e+000	 1.215268413614836e+001
 1.905451761521779e+000	 1.392406498623549e+000	 1.214402666785858e+001
 1.890041314026554e+000	 1.413253760477749e+000	 1.213010352654891e+001
 1.874390364887229e+000	 1.433946740691739e+000	 1.211134760965493e+001
 1.858501218262075e+000	 1.454481312817197e+000	 1.208818357541726e+001
 1.842376271991649e+000	 1.474853396130154e+000	 1.206103032721815e+001
 1.826018016468425e+000	 1.495058958275174e+000	 1.203030361159767e+001
 1.809429033417307e+000	 1.515094017876017e+000	 1.199641871814061e+001
 1.792611994588221e+000	 1.534954647109299e+000	 1.195979326817853e+001
 1.775569660362075e+000	 1.554636974237704e+000	 1.192085007804357e+001
 1.758304878271573e+000	 1.574137186099347e+000	 1.188002008145776e+001
 1.942322608619367e+000	 1.386906126535401e+000	 1.211224723219571e+001
 1.926983475911071e+000	 1.408140772063864e+000	 1.210489809794202e+001
 1.911398889473760e+000	 1.429223609174760e+000	 1.209309629584699e+001
 1.895571083709891e+000	 1.450150421254014e+000	 1.207705918361117e+001
 1.879502388814862e+000	 1.470917035224207e+000	 1.205699119471139e+001
 1.863195229724980e+000	 1.491519324248966e+000	 1.203308685305246e+001
 1.846652124974304e+000	 1.511953210407013e+000	 1.200553392176875e+001
 1.829875685461390e+000	 1.532214667332336e+000	 1.197451667316864e+001
 1.812868613127101e+000	 1.552299722816931e+000	 1.194021926543663e+001
 1.795633699544820e+000	 1.572204461372635e+000	 1.190282921037312e+001
 1.778173824424543e+000	 1.591925026748623e+000	 1.186254091516982e+001
 1.964025719302089e+000	 1.402403128443017e+000	 1.208043336692126e+001
 1.948515190300958e+000	 1.423875045504080e+000	 1.207334610038008e+001
 1.932756464921588e+000	 1.445193457871702e+000	 1.206237977577981e+001
 1.916751802533197e+000	 1.466354101816246e+000	 1.204760548203182e+001
 1.900503559368311e+000	 1.487352757631197e+000	 1.202907809587074e+001
 1.884014187458984e+000	 1.508185252367777e+000	 1.200683971330726e+001
 1.867286233480865e+000	 1.528847462538872e+000	 1.198092323348481e+001
 1.850322337506154e+000	 1.549335316788698e+000	 1.195135608097643e+001
 1.833125231666656e+000	 1.569644798524630e+000	 1.191816405105009e+001
 1.815697738728223e+000	 1.589771948507662e+000	 1.188137526096625e+001
 1.798042770578147e+000	 1.609712867398032e+000	 1.184102418896691e+001
 1.985728829985244e+000	 1.417900130350513e+000	 1.205626067331018e+001
 1.970046904691298e+000	 1.439609318944210e+000	 1.204839096059073e+001
 1.954114040369892e+000	 1.461163306568586e+000	 1.203700912636329e+001
 1.937932521356998e+000	 1.482557782378439e+000	 1.202210694347255e+001
 1.921504729922277e+000	 1.503788480038169e+000	 1.200365803937732e+001
 1.904833145193523e+000	 1.524851180486588e+000	 1.198162163298104e+001
 1.887920341987970e+000	 1.545741714670747e+000	 1.195594644001292e+001
 1.870768989551473e+000	 1.566455966245095e+000	 1.192657473227677e+001
 1.853381850206766e+000	 1.586989874232388e+000	 1.189344653444763e+001
 1.835761777912175e+000	 1.607339435642774e+000	 1.185650394050614e+001
 1.817911716732283e+000	 1.627500708047558e+000	 1.181569553036842e+001
 2.007431940668699e+000	 1.433397132257910e+000	 1.203848190485735e+001
 1.991578619081951e+000	 1.455343592384267e+000	 1.202908220392521e+001
 1.975471615818524e+000	 1.477133155265418e+000	 1.201606820906908e+001
 1.959113240181150e+000	 1.498761462940601e+000	 1.199971099721203e+001
 1.942505900476613e+000	 1.520224202445124e+000	 1.197996899622287e+001
 1.925652102928453e+000	 1.541517108605399e+000	 1.195678580160571e+001
 1.908554450495487e+000	 1.562635966802639e+000	 1.193009429196479e+001
 1.891215641597215e+000	 1.583576615701524e+000	 1.189982091199904e+001
 1.873638468747310e+000	 1.604334949940195e+000	 1.186589010609603e+001
 1.855825817096565e+000	 1.624906922777959e+000	 1.182822888387716e+001
 1.837780662886852e+000	 1.645288548697183e+000	 1.178677149738842e+001
 2.029135051352321e+000	 1.448894134165222e+000	 1.202214202022516e+001
 2.013110333472775e+000	 1.471077865824262e+000	 1.201347774141375e+001
 1.996829191267340e+000	 1.493103003962208e+000	 1.199866416708994e+001
 1.980293959005503e+000	 1.514965143502737e+000	 1.197958669763352e+001
 1.963507071031173e+000	 1.536659924852068e+000	 1.195726790228030e+001
 1.946471060663631e+000	 1.558183036724210e+000	 1.193170080810970e+001
 1.929188559003277e+000	 1.579530218934542e+000	 1.190286856770466e+001
 1.911662293643256e+000	 1.600697265157980e+000	 1.187074885477614e+001
 1.893895087288171e+000	 1.621680025648045e+000	 1.183531842201265e+001
 1.875889856281284e+000	 1.642474409913206e+000	 1.179655780200344e+001
 1.857649609041756e+000	 1.663076389346893e+000	 1.175445613029823e+001
 2.050838162035976e+000	 1.464391136072466e+000	 1.200408764095923e+001
 2.034642047863630e+000	 1.486812139264209e+000	 1.199610747086568e+001
 2.018186766716196e+000	 1.509072852658963e+000	 1.198178450859342e+001
 2.001474677829912e+000	 1.531168824064851e+000	 1.196090515758963e+001
 1.984508241585813e+000	 1.553095647259001e+000	 1.193482553543053e+001
 1.967290018398917e+000	 1.574848964843020e+000	 1.190574568507943e+001
 1.949822667511205e+000	 1.596424471066456e+000	 1.187377733652945e+001
 1.932108945689464e+000	 1.617817914614457e+000	 1.183901427366171e+001
 1.914151705829226e+000	 1.639025101355928e+000	 1.180155123941154e+001
 1.895953895466220e+000	 1.660041897048499e+000	 1.176148866052949e+001
 1.877518555196891e+000	 1.680864229996668e+000	 1.171893750410867e+001
 2.072541272719534e+000	 1.479888137979660e+000	 1.198226941288264e+001
 2.056173762254373e+000	 1.502546412704118e+000	 1.197454598542166e+001
 2.039544342164942e+000	 1.525042701355693e+000	 1.196024138592623e+001
 2.022655396654229e+000	 1.547372504626949e+000	 1.193931970076262e+001
 2.005509412140386e+000	 1.569531369665925e+000	 1.191170554923412e+001
 1.988108976134170e+000	 1.591514892961831e+000	 1.187830505439954e+001
 1.970456776019136e+000	 1.613318723198377e+000	 1.184233030782045e+001
 1.952555597735713e+000	 1.634938564070948e+000	 1.180426995671166e+001
 1.934408324370359e+000	 1.656370177063837e+000	 1.176440029973618e+001
 1.916017934651266e+000	 1.677609384183830e+000	 1.172300588337501e+001
 1.897387501352160e+000	 1.698652070646494e+000	 1.168038428171827e+001
 2.094244383402860e+000	 1.495385139886820e+000	 1.195475272547429e+001
 2.077705476644865e+000	 1.518280686144002e+000	 1.194686943126084e+001
 2.060901917613437e+000	 1.541012550052406e+000	 1.193208448012740e+001
 2.043836115478306e+000	 1.563576185189036e+000	 1.191059865177462e+001
 2.026510582694747e+000	 1.585967092072845e+000	 1.188257974174881e+001
 2.008927933869246e+000	 1.608180821080641e+000	 1.184815760713536e+001
 1.991090884526934e+000	 1.630212975330304e+000	 1.180803425993029e+001
 1.973002249781874e+000	 1.652059213527451e+000	 1.176616142650524e+001
 1.954664942911448e+000	 1.673715252771762e+000	 1.172366525563963e+001
 1.936081973836309e+000	 1.695176871319186e+000	 1.168107657935992e+001
 1.917256447507461e+000	 1.716439911296353e+000	 1.163894226768037e+001
 2.115947494085821e+000	 1.510882141793964e+000	 1.191971492911017e+001
 2.099237191034965e+000	 1.534014959583876e+000	 1.191126561104264e+001
 2.082259493061532e+000	 1.556982398749111e+000	 1.189553442127617e+001
 2.065016834301999e+000	 1.579779865751119e+000	 1.187301619235397e+001
 2.047511753248752e+000	 1.602402814479762e+000	 1.184418072447454e+001
 2.029746891604005e+000	 1.624846749199451e+000	 1.180946694775080e+001
 2.011724993034462e+000	 1.647107227462233e+000	 1.176927687930242e+001
 1.993448901827818e+000	 1.669179862983960e+000	 1.172432265808784e+001
 1.974921561452375e+000	 1.691060328479696e+000	 1.167912963875853e+001
 1.956146013021240e+000	 1.712744358454553e+000	 1.163564679024258e+001
 1.937125393662695e+000	 1.734227751946229e+000	 1.159473096254341e+001
 1.738435932119337e+000	 1.556349345450221e+000	 1.189323043982012e+001
 1.721151818107034e+000	 1.575442586637167e+000	 1.184777136907118e+001
 1.703653718137051e+000	 1.594348471918019e+000	 1.179629923449345e+001
 1.685944696578731e+000	 1.613063422360952e+000	 1.173957953418487e+001
 1.668027897230322e+000	 1.631583926286766e+000	 1.167841437958918e+001
 1.649906541462032e+000	 1.649906541462032e+000	 1.161364456768332e+001
 1.631583926286766e+000	 1.668027897230322e+000	 1.154615156775573e+001
 1.613063422360952e+000	 1.685944696578732e+000	 1.147685940451758e+001
 1.594348471918019e+000	 1.703653718137051e+000	 1.140673641908840e+001
 1.575442586637168e+000	 1.721151818107034e+000	 1.133679688932725e+001
 1.556349345450221e+000	 1.738435932119336e+000	 1.126810249104753e+001
 1.758304878271573e+000	 1.574137186099347e+000	 1.188002008145775e+001
 1.740823220522151e+000	 1.593448647914248e+000	 1.183457932116745e+001
 1.723125131125022e+000	 1.612570612493426e+000	 1.178215938291938e+001
 1.705213709472846e+000	 1.631499460000704e+000	 1.172378373244407e+001
 1.687092135294994e+000	 1.650231638621166e+000	 1.166052083082529e+001
 1.668763666779384e+000	 1.668763666779383e+000	 1.159348594170334e+001
 1.650231638621165e+000	 1.687092135294993e+000	 1.152384284291578e+001
 1.631499460000704e+000	 1.705213709472847e+000	 1.145280542407837e+001
 1.612570612493427e+000	 1.723125131125022e+000	 1.138163915137816e+001
 1.593448647914248e+000	 1.740823220522151e+000	 1.131166238075874e+001
 1.574137186099347e+000	 1.758304878271573e+000	 1.124424750072496e+001
 1.778173824424543e+000	 1.591925026748623e+000	 1.186254091516981e+001
 1.760494622937957e+000	 1.611454709191528e+000	 1.181676547869998e+001
 1.742596544113631e+000	 1.630792753069090e+000	 1.176353546028874e+001
 1.724482722367539e+000	 1.649935497640772e+000	 1.170404079788043e+001
 1.706156373360178e+000	 1.668879350955947e+000	 1.163952254264127e+001
 1.687620792097182e+000	 1.687620792097182e+000	 1.157127457363297e+001
 1.668879350955947e+000	 1.706156373360178e+000	 1.150064521125341e+001
 1.649935497640772e+000	 1.724482722367539e+000	 1.142903871029757e+001
 1.630792753069090e+000	 1.742596544113631e+000	 1.135791661322187e+001
 1.611454709191528e+000	 1.760494622937957e+000	 1.128879894406333e+001
 1.591925026748623e+000	 1.778173824424543e+000	 1.122326522348515e+001
 1.798042770578147e+000	 1.609712867398032e+000	 1.184102418896691e+001
 1.780166025354362e+000	 1.629460770468984e+000	 1.179475688406885e+001
 1.762067957102794e+000	 1.649014893644979e+000	 1.174099740490233e+001
 1.743751735262737e+000	 1.668371535281121e+000	 1.168101356511985e+001
 1.725220611425817e+000	 1.687527063291067e+000	 1.161612818771294e+001
 1.706477917415377e+000	 1.706477917415377e+000	 1.154772089697866e+001
 1.687527063291067e+000	 1.725220611425817e+000	 1.147722980804615e+001
 1.668371535281121e+000	 1.743751735262737e+000	 1.140615309376675e+001
 1.649014893644979e+000	 1.762067957102794e+000	 1.133605040844004e+001
 1.629460770468984e+000	 1.780166025354362e+000	 1.126854414766876e+001
 1.609712867398033e+000	 1.798042770578147e+000	 1.120532052361271e+001
 1.817911716732283e+000	 1.627500708047558e+000	 1.181569553036842e+001
 1.799837427771275e+000	 1.647466831746595e+000	 1.176896859637002e+001
 1.781539370092433e+000	 1.667237034221067e+000	 1.171509923318608e+001
 1.763020748158372e+000	 1.686807572921716e+000	 1.165534729924992e+001
 1.744284849491846e+000	 1.706174775626481e+000	 1.159102937649644e+001
 1.725335042733917e+000	 1.725335042733916e+000	 1.152352080695138e+001
 1.706174775626482e+000	 1.744284849491846e+000	 1.145425763012733e+001
 1.686807572921716e+000	 1.763020748158372e+000	 1.138473839957928e+001
 1.667237034221068e+000	 1.781539370092433e+000	 1.131652585656670e+001
 1.647466831746596e+000	 1.799837427771275e+000	 1.125124843852597e+001
 1.627500708047558e+000	 1.817911716732282e+000	 1.119060159998158e+001
 1.837780662886852e+000	 1.645288548697183e+000	 1.178677149738842e+001
 1.819508830188606e+000	 1.665472893024340e+000	 1.173980062232582e+001
 1.801010783082467e+000	 1.685459174797326e+000	 1.168637622851648e+001
 1.782289761054373e+000	 1.705243610562522e+000	 1.162766702760201e+001
 1.763349087558206e+000	 1.724822487962146e+000	 1.156489802424572e+001
 1.744192168052747e+000	 1.744192168052746e+000	 1.149935296231604e+001
 1.724822487962147e+000	 1.763349087558206e+000	 1.143237667957125e+001
 1.705243610562521e+000	 1.782289761054373e+000	 1.136537734734852e+001
 1.685459174797326e+000	 1.801010783082468e+000	 1.129982857126694e+001
 1.665472893024339e+000	 1.819508830188606e+000	 1.123727132863208e+001
 1.645288548697184e+000	 1.837780662886852e+000	 1.117931571808891e+001
 1.857649609041756e+000	 1.663076389346893e+000	 1.175445613029823e+001
 1.839180232606266e+000	 1.683478954302194e+000	 1.170763482311636e+001
 1.820482196072817e+000	 1.703681315373725e+000	 1.165534208914751e+001
 1.801558773950668e+000	 1.723679648203500e+000	 1.159857482145623e+001
 1.782413325624835e+000	 1.743470200298019e+000	 1.153838366593219e+001
 1.763049293371817e+000	 1.763049293371817e+000	 1.147587603980862e+001
 1.743470200298020e+000	 1.782413325624836e+000	 1.141221907082229e+001
 1.723679648203500e+000	 1.801558773950668e+000	 1.134864243127304e+001
 1.703681315373725e+000	 1.820482196072818e+000	 1.128644104064376e+001
 1.683478954302193e+000	 1.839180232606266e+000	 1.122697761002865e+001
 1.663076389346893e+000	 1.857649609041755e+000	 1.117168500139710e+001
 1.877518555196891e+000	 1.680864229996668e+000	 1.171893750410867e+001
 1.858851635024165e+000	 1.701485015580136e+000	 1.167283179889637e+001
 1.839953609063402e+000	 1.721903455950237e+000	 1.162248603826795e+001
 1.820827786847187e+000	 1.742115685844617e+000	 1.156864703137821e+001
 1.801477563691672e+000	 1.762117912634056e+000	 1.151211072292493e+001
 1.781906418691073e+000	 1.781906418691073e+000	 1.145372594463449e+001
 1.762117912634056e+000	 1.801477563691672e+000	 1.139439810397623e+001
 1.742115685844617e+000	 1.820827786847188e+000	 1.133509278172769e+001
 1.721903455950237e+000	 1.839953609063402e+000	 1.127683920929406e+001
 1.701485015580136e+000	 1.858851635024165e+000	 1.122073359616619e+001
 1.680864229996669e+000	 1.877518555196891e+000	 1.116794227759077e+001
 1.897387501352160e+000	 1.698652070646494e+000	 1.168038428171827e+001
 1.878523037442211e+000	 1.719491076858146e+000	 1.163572775263336e+001
 1.859425022054142e+000	 1.740125596526834e+000	 1.158826989896567e+001
 1.840096799743861e+000	 1.760551723485837e+000	 1.153843147958727e+001
 1.820541801758657e+000	 1.780765624970212e+000	 1.148667572496864e+001
 1.800763544010466e+000	 1.800763544010466e+000	 1.143351298026828e+001
 1.780765624970212e+000	 1.820541801758657e+000	 1.137950530669455e+001
 1.760551723485837e+000	 1.840096799743862e+000	 1.132527100973377e+001
 1.740125596526833e+000	 1.859425022054142e+000	 1.127148906198506e+001
 1.719491076858146e+000	 1.878523037442211e+000	 1.121890338770173e+001
 1.698652070646494e+000	 1.897387501352160e+000	 1.116832697572355e+001
 1.917256447507461e+000	 1.716439911296353e+000	 1.163894226768037e+001
 1.898194439860316e+000	 1.737497138136198e+000	 1.159663133476750e+001
 1.878896435044956e+000	 1.758347737103486e+000	 1.155312513664407e+001
 1.859365812640619e+000	 1.778987761127123e+000	 1.150844461247274e+001
 1.839606039825727e+000	 1.799413337306444e+000	 1.146264449070076e+001
 1.819620669329943e+000	 1.819620669329943e+000	 1.141581898050648e+001
 1.799413337306444e+000	 1.839606039825727e+000	 1.136810744702776e+001
 1.778987761127123e+000	 1.859365812640619e+000	 1.131970003555126e+001
 1.758347737103485e+000	 1.878896435044956e+000	 1.127084320883467e+001
 1.737497138136199e+000	 1.898194439860315e+000	 1.122184516095733e+001
 1.716439911296353e+000	 1.917256447507461e+000	 1.117308107056211e+001
 1.937125393662695e+000	 1.734227751946229e+000	 1.159473096254341e+001
 1.917865842278389e+000	 1.755503199414275e+000	 1.155582047006976e+001
 1.898367848035766e+000	 1.776569877680164e+000	 1.151744987122817e+001
 1.878634825537390e+000	 1.797423798768443e+000	 1.147916861611977e+001
 1.858670277892823e+000	 1.818061049642710e+000	 1.144054926968604e+001
 1.838477794649450e+000	 1.838477794649450e+000	 1.140119440648386e+001
 1.818061049642710e+000	 1.858670277892823e+000	 1.136074351923580e+001
 1.797423798768442e+000	 1.878634825537390e+000	 1.131887990253234e+001
 1.776569877680166e+000	 1.898367848035766e+000	 1.127533747188645e+001
 1.755503199414274e+000	 1.917865842278389e+000	 1.122990747741256e+001
 1.734227751946229e+000	 1.937125393662695e+000	 1.118244507073998e+001
 1.556349345450221e+000	 1.738435932119336e+000	 1.126810249104753e+001
 1.537069487102882e+000	 1.755505621180099e+000	 1.119658360595700e+001
 1.517609571401743e+000	 1.772355376050134e+000	 1.111827688715355e+001
 1.497973368419745e+000	 1.788982381374034e+000	 1.103445326432134e+001
 1.478164706143358e+000	 1.805383907963363e+000	 1.094644279956453e+001
 1.458187468011342e+000	 1.821557314259135e+000	 1.085563508860681e+001
 1.438045590410163e+000	 1.837500047710095e+000	 1.076347939128189e+001
 1.417743060129417e+000	 1.853209646065358e+000	 1.067148447730723e+001
 1.397283911780661e+000	 1.868683738580113e+000	 1.058121817455778e+001
 1.376672225183124e+000	 1.883920047133223e+000	 1.049430660840891e+001
 1.355912122719749e+000	 1.898916387255753e+000	 1.041243312219234e+001
 1.574137186099347e+000	 1.758304878271573e+000	 1.124424750072495e+001
 1.554636974237704e+000	 1.775569660362075e+000	 1.117549429715763e+001
 1.534954647109299e+000	 1.792611994588220e+000	 1.110122727801005e+001
 1.515094017876017e+000	 1.809429033417307e+000	 1.102245666336892e+001
 1.495058958275174e+000	 1.826018016468425e+000	 1.094024600819853e+001
 1.474853396130154e+000	 1.842376271991649e+000	 1.085571335441239e+001
 1.454481312817197e+000	 1.858501218262075e+000	 1.077003211339572e+001
 1.433946740691739e+000	 1.874390364887230e+000	 1.068443166223176e+001
 1.413253760477749e+000	 1.890041314026554e+000	 1.060019763812862e+001
 1.392406498623549e+000	 1.905451761521779e+000	 1.051867191693526e+001
 1.371409124627651e+000	 1.920619497937210e+000	 1.044125226315815e+001
 1.591925026748623e+000	 1.778173824424543e+000	 1.122326522348515e+001
 1.572204461372635e+000	 1.795633699544820e+000	 1.115736888886056e+001
 1.552299722816932e+000	 1.812868613127101e+000	 1.108662709400976e+001
 1.532214667332336e+000	 1.829875685461390e+000	 1.101186779231406e+001
 1.511953210407012e+000	 1.846652124974303e+000	 1.093396874325590e+001
 1.491519324248966e+000	 1.863195229724980e+000	 1.085385927954971e+001
 1.470917035224207e+000	 1.879502388814862e+000	 1.077252180279603e+001
 1.450150421254014e+000	 1.895571083709891e+000	 1.069099298840933e+001
 1.429223609174760e+000	 1.911398889473761e+000	 1.061036468184503e+001
 1.408140772063863e+000	 1.926983475911071e+000	 1.053178446957969e+001
 1.386906126535401e+000	 1.942322608619366e+000	 1.045645590988194e+001
 1.609712867398033e+000	 1.798042770578147e+000	 1.120532052361271e+001
 1.589771948507662e+000	 1.815697738728223e+000	 1.114221458603023e+001
 1.569644798524630e+000	 1.833125231666656e+000	 1.107438069107841e+001
 1.549335316788698e+000	 1.850322337506154e+000	 1.100254008330340e+001
 1.528847462538872e+000	 1.867286233480864e+000	 1.092746250666035e+001
 1.508185252367777e+000	 1.884014187458984e+000	 1.084996845462799e+001
 1.487352757631197e+000	 1.900503559368311e+000	 1.077093114389309e+001
 1.466354101816245e+000	 1.916751802533197e+000	 1.069127819008588e+001
 1.445193457871702e+000	 1.932756464921588e+000	 1.061199296535400e+001
 1.423875045504080e+000	 1.948515190300959e+000	 1.053411561903527e+001
 1.402403128443016e+000	 1.964025719302089e+000	 1.045874374433275e+001
 1.627500708047558e+000	 1.817911716732282e+000	 1.119060159998158e+001
 1.607339435642774e+000	 1.835761777912175e+000	 1.113007175536319e+001
 1.586989874232388e+000	 1.853381850206765e+000	 1.106443303421871e+001
 1.566455966245095e+000	 1.870768989551473e+000	 1.099437275890306e+001
 1.545741714670747e+000	 1.887920341987970e+000	 1.092062762162630e+001
 1.524851180486588e+000	 1.904833145193523e+000	 1.084398628910784e+001
 1.503788480038169e+000	 1.921504729922276e+000	 1.076529172288702e+001
 1.482557782378439e+000	 1.937932521356998e+000	 1.068544319172319e+001
 1.461163306568586e+000	 1.954114040369892e+000	 1.060539795385763e+001
 1.439609318944210e+000	 1.970046904691297e+000	 1.052617258843546e+001
 1.417900130350514e+000	 1.985728829985244e+000	 1.044884395708906e+001
 1.645288548697184e+000	 1.837780662886852e+000	 1.117931571808891e+001
 1.624906922777959e+000	 1.855825817096565e+000	 1.112100924381736e+001
 1.604334949940195e+000	 1.873638468747310e+000	 1.105676473777692e+001
 1.583576615701524e+000	 1.891215641597216e+000	 1.098730572279597e+001
 1.562635966802639e+000	 1.908554450495487e+000	 1.091340809581284e+001
 1.541517108605399e+000	 1.925652102928452e+000	 1.083590296216238e+001
 1.520224202445124e+000	 1.942505900476613e+000	 1.075567917470874e+001
 1.498761462940601e+000	 1.959113240181150e+000	 1.067368555241855e+001
 1.477133155265418e+000	 1.975471615818524e+000	 1.059093275435032e+001
 1.455343592384267e+000	 1.991578619081951e+000	 1.050849478661098e+001
 1.433397132257910e+000	 2.007431940668699e+000	 1.042823089568614e+001
 1.663076389346893e+000	 1.857649609041755e+000	 1.117168500139710e+001
 1.642474409913205e+000	 1.875889856281284e+000	 1.111511978487723e+001
 1.621680025648045e+000	 1.893895087288170e+000	 1.105138721341454e+001
 1.600697265157980e+000	 1.911662293643256e+000	 1.098131457010742e+001
 1.579530218934542e+000	 1.929188559003277e+000	 1.090578660840666e+001
 1.558183036724210e+000	 1.946471060663631e+000	 1.082574849457345e+001
 1.536659924852067e+000	 1.963507071031173e+000	 1.074220844133951e+001
 1.514965143502737e+000	 1.980293959005503e+000	 1.065624000572635e+001
 1.493103003962208e+000	 1.996829191267341e+000	 1.056898402540517e+001
 1.471077865824262e+000	 2.013110333472775e+000	 1.048410494115907e+001
 1.448894134165222e+000	 2.029135051352321e+000	 1.040711512607535e+001
 1.680864229996669e+000	 1.877518555196891e+000	 1.116794227759077e+001
 1.660041897048500e+000	 1.895953895466221e+000	 1.111251548605630e+001
 1.639025101355929e+000	 1.914151705829226e+000	 1.104833791780618e+001
 1.617817914614456e+000	 1.932108945689464e+000	 1.097640570849826e+001
 1.596424471066456e+000	 1.949822667511206e+000	 1.089777961195476e+001
 1.574848964843020e+000	 1.967290018398917e+000	 1.081358793269601e+001
 1.553095647259001e+000	 1.984508241585813e+000	 1.072502913325895e+001
 1.531168824064851e+000	 2.001474677829911e+000	 1.063340856094736e+001
 1.509072852658963e+000	 2.018186766716196e+000	 1.054504800830777e+001
 1.486812139264208e+000	 2.034642047863629e+000	 1.046401868950316e+001
 1.464391136072466e+000	 2.050838162035976e+000	 1.039045893726937e+001
 1.698652070646494e+000	 1.897387501352160e+000	 1.116832697572355e+001
 1.677609384183830e+000	 1.916017934651266e+000	 1.111332339168183e+001
 1.656370177063837e+000	 1.934408324370359e+000	 1.104767569275394e+001
 1.634938564070948e+000	 1.952555597735713e+000	 1.097261158190485e+001
 1.613318723198377e+000	 1.970456776019136e+000	 1.088943254053424e+001
 1.591514892961830e+000	 1.988108976134169e+000	 1.079951663627699e+001
 1.569531369665925e+000	 2.005509412140386e+000	 1.070482827644197e+001
 1.547372504626950e+000	 2.022655396654229e+000	 1.061374518715779e+001
 1.525042701355693e+000	 2.039544342164943e+000	 1.052907931622083e+001
 1.502546412704118e+000	 2.056173762254373e+000	 1.045121304188220e+001
 1.479888137979660e+000	 2.072541272719535e+000	 1.038050882956350e+001
 1.716439911296353e+000	 1.917256447507461e+000	 1.117308107056211e+001
 1.695176871319185e+000	 1.936081973836309e+000	 1.111768111550023e+001
 1.673715252771762e+000	 1.954664942911448e+000	 1.104947619101397e+001
 1.652059213527451e+000	 1.973002249781873e+000	 1.096998598948115e+001
 1.630212975330304e+000	 1.991090884526934e+000	 1.088081511654599e+001
 1.608180821080641e+000	 2.008927933869245e+000	 1.078504622685949e+001
 1.585967092072845e+000	 2.026510582694747e+000	 1.069229863362006e+001
 1.563576185189036e+000	 2.043836115478306e+000	 1.060467101043098e+001
 1.541012550052406e+000	 2.060901917613437e+000	 1.052285116284087e+001
 1.518280686144002e+000	 2.077705476644866e+000	 1.044751694657844e+001
 1.495385139886820e+000	 2.094244383402859e+000	 1.037932691139962e+001
 1.734227751946229e+000	 1.937125393662695e+000	 1.118244507073998e+001
 1.712744358454553e+000	 1.956146013021241e+000	 1.112573253809066e+001
 1.691060328479696e+000	 1.974921561452375e+000	 1.105382738168105e+001
 1.669179862983960e+000	 1.993448901827818e+000	 1.096859949290620e+001
 1.647107227462233e+000	 2.011724993034462e+000	 1.087449996925063e+001
 1.624846749199452e+000	 2.029746891604005e+000	 1.078186372103225e+001
 1.602402814479762e+000	 2.047511753248752e+000	 1.069250790390755e+001
 1.579779865751119e+000	 2.065016834301999e+000	 1.060747825591601e+001
 1.556982398749111e+000	 2.082259493061532e+000	 1.052782454305739e+001
 1.534014959583875e+000	 2.099237191034965e+000	 1.045458931575704e+001
 1.510882141793964e+000	 2.115947494085821e+000	 1.038879713690570e+001
 1.355912122719749e+000	 1.898916387255753e+000	 1.041243312219234e+001
 1.335007766215312e+000	 1.913670668530300e+000	 1.032909847712181e+001
 1.313963352917359e+000	 1.928180893807915e+000	 1.023910498153145e+001
 1.292783114191905e+000	 1.942445161561669e+000	 1.014546520514307e+001
 1.271471313257540e+000	 1.956461667092249e+000	 1.004894833122381e+001
 1.250032242448504e+000	 1.970228703106179e+000	 9.950232863166365e+000
 1.228470220469227e+000	 1.983744660202318e+000	 9.849918540221090e+000
 1.206789589643861e+000	 1.997008027266777e+000	 9.748526424673802e+000
 1.184994713164319e+000	 2.010017391776478e+000	 9.646560693164490e+000
 1.163089972340300e+000	 2.022771440011767e+000	 9.543825734823342e+000
 1.141079763854727e+000	 2.035268957178629e+000	 9.439294317683721e+000
 1.371409124627651e+000	 1.920619497937210e+000	 1.044125226315815e+001
 1.350265847881186e+000	 1.935542408963624e+000	 1.036121088017649e+001
 1.328980913602921e+000	 1.950218474626249e+000	 1.027200530687080e+001
 1.307558601520036e+000	 1.964645771665227e+000	 1.017806611156203e+001
 1.286003223576339e+000	 1.978822474754980e+000	 1.008172325211273e+001
 1.264319121164056e+000	 1.992746857089031e+000	 9.983705059723645e+000
 1.242510662346993e+000	 2.006417290872079e+000	 9.884836652747756e+000
 1.220582239078634e+000	 2.019832247719414e+000	 9.786339996960178e+000
 1.198538264418724e+000	 2.032990298963953e+000	 9.687585220815729e+000
 1.176383169751866e+000	 2.045890115871281e+000	 9.587584186059717e+000
 1.154121402011593e+000	 2.058530469763273e+000	 9.485285413601856e+000
 1.386906126535401e+000	 1.942322608619366e+000	 1.045645590988194e+001
 1.365523929546859e+000	 1.957414149397602e+000	 1.037761677767511e+001
 1.343998474288224e+000	 1.972256055445191e+000	 1.028871435814950e+001
 1.322334088847847e+000	 1.986846381769343e+000	 1.019208227385979e+001
 1.300535133894753e+000	 2.001183282418213e+000	 1.009328668451638e+001
 1.278605999879158e+000	 2.015265011072332e+000	 9.995254993105890e+000
 1.256551104224244e+000	 2.029089921542232e+000	 9.898691287801729e+000
 1.234374888512827e+000	 2.042656468172388e+000	 9.802747129641613e+000
 1.212081815672489e+000	 2.055963206151714e+000	 9.706481541006742e+000
 1.189676367162741e+000	 2.069008791731038e+000	 9.608878919924898e+000
 1.167163040167724e+000	 2.081791982348114e+000	 9.508866393583462e+000
 1.402403128443016e+000	 1.964025719302089e+000	 1.045874374433275e+001
 1.380782011212353e+000	 1.979285889832116e+000	 1.037923997496788e+001
 1.359016034973300e+000	 1.994293636264635e+000	 1.028923490398640e+001
 1.337109576175375e+000	 2.009046991873925e+000	 1.019108587375520e+001
 1.315067044212827e+000	 2.023544090081880e+000	 1.009108604883504e+001
 1.292892878593861e+000	 2.037783165056030e+000	 9.993642275920122e+000
 1.270591546101038e+000	 2.051762552212749e+000	 9.898076199218432e+000
 1.248167537946512e+000	 2.065480688625692e+000	 9.803492630351729e+000
 1.225625366925698e+000	 2.078936113339772e+000	 9.708905591479635e+000
 1.202969564573016e+000	 2.092127467591057e+000	 9.613257991437923e+000
 1.180204678323221e+000	 2.105053494933187e+000	 9.515440668500409e+000
 1.417900130350514e+000	 1.985728829985244e+000	 1.044884395708906e+001
 1.396040092877691e+000	 2.001157630267043e+000	 1.036704112353967e+001
 1.374033595658175e+000	 2.016331217084475e+000	 1.027749379933881e+001
 1.351885063502655e+000	 2.031247601978889e+000	 1.018291208545247e+001
 1.329598954530604e+000	 2.045904897745910e+000	 1.008359378375753e+001
 1.307179757308217e+000	 2.060301319040078e+000	 9.984788014628935e+000
 1.284631987977439e+000	 2.074435182883600e+000	 9.888643886236032e+000
 1.261960187379758e+000	 2.088304909079315e+000	 9.794206708323223e+000
 1.239168918178429e+000	 2.101909020528132e+000	 9.700431605248364e+000
 1.216262761982781e+000	 2.115246143451361e+000	 9.606205121276748e+000
 1.193246316478183e+000	 2.128315007518526e+000	 9.510366116912397e+000
 1.433397132257910e+000	 2.007431940668699e+000	 1.042823089568614e+001
 1.411298174542895e+000	 2.023029370702263e+000	 1.034848202743877e+001
 1.389051156342877e+000	 2.038368797904605e+000	 1.026299079344175e+001
 1.366660550829724e+000	 2.053448212084144e+000	 1.017184129296170e+001
 1.344130864848129e+000	 2.068265705410237e+000	 1.007511413882379e+001
 1.321466636022281e+000	 2.082819473024427e+000	 9.974186411973108e+000
 1.298672429853509e+000	 2.097107813554756e+000	 9.875912443384333e+000
 1.275752836812638e+000	 2.111129129533246e+000	 9.780400168593312e+000
 1.252712469430764e+000	 2.124881927716801e+000	 9.686530936167305e+000
 1.229555959392127e+000	 2.138364819311972e+000	 9.593119118027664e+000
 1.206287954632712e+000	 2.151576520104164e+000	 9.498935031620682e+000
 1.448894134165222e+000	 2.029135051352321e+000	 1.040711512607535e+001
 1.426556256207987e+000	 2.044901111137655e+000	 1.033114386323330e+001
 1.404068717027438e+000	 2.060406378724921e+000	 1.024917996041269e+001
 1.381436038156617e+000	 2.075648822189604e+000	 1.016120407866717e+001
 1.358662775165444e+000	 2.090626513074790e+000	 1.006718905195027e+001
 1.335753514736103e+000	 2.105337627009026e+000	 9.967095987701844e+000
 1.312712871729308e+000	 2.119780444226189e+000	 9.865242880082455e+000
 1.289545486245221e+000	 2.133953349987476e+000	 9.767442469198395e+000
 1.266256020682782e+000	 2.147854834905787e+000	 9.672550788474666e+000
 1.242849156801144e+000	 2.161483495172912e+000	 9.579293213730079e+000
 1.219329592786908e+000	 2.174838032690134e+000	 9.486353993836211e+000
 1.464391136072466e+000	 2.050838162035976e+000	 1.039045893726937e+001
 1.441814337872990e+000	 2.066772851573099e+000	 1.031771486567072e+001
 1.419086277711884e+000	 2.082443959545315e+000	 1.023897456664718e+001
 1.396211525483370e+000	 2.097849432295178e+000	 1.015411281781596e+001
 1.373194685482595e+000	 2.112987320739501e+000	 1.006299050594524e+001
 1.350040393449737e+000	 2.127855780993828e+000	 9.965450577861505e+000
 1.326753313604898e+000	 2.142453074897868e+000	 9.861816348125196e+000
 1.303338135677579e+000	 2.156777570441995e+000	 9.760539685502502e+000
 1.279799571934565e+000	 2.170827742095097e+000	 9.663692857426607e+000
 1.256142354209923e+000	 2.184602171034203e+000	 9.569894319138903e+000
 1.232371230940871e+000	 2.198099545276473e+000	 9.477723680324282e+000
 1.479888137979660e+000	 2.072541272719535e+000	 1.038050882956350e+001
 1.457072419537926e+000	 2.088644592008472e+000	 1.031068433798267e+001
 1.434103838396246e+000	 2.104481540365685e+000	 1.023508195695796e+001
 1.410987012810020e+000	 2.120050042400781e+000	 1.015346830919437e+001
 1.387726595799625e+000	 2.135348128404301e+000	 1.006558834211703e+001
 1.364327272163235e+000	 2.150373934978783e+000	 9.971161114826819e+000
 1.340793755480339e+000	 2.165125705569764e+000	 9.869876347835339e+000
 1.317130785109784e+000	 2.179601790896790e+000	 9.764712388470066e+000
 1.293343123186193e+000	 2.193800649284738e+000	 9.664991887540770e+000
 1.269435551618554e+000	 2.207720846895866e+000	 9.569942204593367e+000
 1.245412869094703e+000	 2.221361057863212e+000	 9.478018608441845e+000
 1.495385139886820e+000	 2.094244383402859e+000	 1.037932691139962e+001
 1.472330501202817e+000	 2.110516332443655e+000	 1.031234906109058e+001
 1.449121399080551e+000	 2.126519121185920e+000	 1.024001008049672e+001
 1.425762500136603e+000	 2.142250652506322e+000	 1.016196635315215e+001
 1.402258506116577e+000	 2.157708936069120e+000	 1.007784308300288e+001
 1.378614150876650e+000	 2.172892088963843e+000	 9.987229900738816e+000
 1.354834197355695e+000	 2.187798336241849e+000	 9.889677303741440e+000
 1.330923434541905e+000	 2.202426011351853e+000	 9.784773443126396e+000
 1.306886674437748e+000	 2.216773556474716e+000	 9.681294154427603e+000
 1.282728749027127e+000	 2.230839522757924e+000	 9.584288611888624e+000
 1.258454507248502e+000	 2.244622570450384e+000	 9.492066823573170e+000
 1.510882141793964e+000	 2.115947494085821e+000	 1.038879713690570e+001
 1.487588582867686e+000	 2.132388072878528e+000	 1.032481968955144e+001
 1.464138959764830e+000	 2.148556702005919e+000	 1.025607398367826e+001
 1.440537987463155e+000	 2.164451262611717e+000	 1.018210428075423e+001
 1.416790416433498e+000	 2.180069743733891e+000	 1.010241243772118e+001
 1.392901029590033e+000	 2.195410242948957e+000	 1.001645331355065e+001
 1.368874639231026e+000	 2.210470966914093e+000	 9.923631086216421e+000
 1.344716083974012e+000	 2.225250231807173e+000	 9.823296527271083e+000
 1.320430225689309e+000	 2.239746463665041e+000	 9.717235875698982e+000
 1.296021946435735e+000	 2.253958198620401e+000	 9.617596302107533e+000
 1.271496145402372e+000	 2.267884083038025e+000	 9.524529533101498e+000
 1.141079763854727e+000	 2.035268957178629e+000	 9.439294317683721e+000
 1.118971821116124e+000	 2.047507011200339e+000	 9.333511486910046e+000
 1.096767268820617e+000	 2.059486480776334e+000	 9.227801547211389e+000
 1.074470532596845e+000	 2.071206449790665e+000	 9.122243349519701e+000
 1.052086042539205e+000	 2.082666100602788e+000	 9.016856995789397e+000
 1.029618230541540e+000	 2.093864713729079e+000	 8.911611341048747e+000
 1.007071527655773e+000	 2.104801667440268e+000	 8.806422025681025e+000
 9.844503614784818e-001	 2.115476437276296e+000	 8.701188670234387e+000
 9.617591535682968e-001	 2.125888595480185e+000	 8.595754846611749e+000
 9.390023168969391e-001	 2.136037810352666e+000	 8.489939225056121e+000
 9.161842533366131e-001	 2.145923845529372e+000	 8.383531183062507e+000
 1.154121402011593e+000	 2.058530469763273e+000	 9.485285413601856e+000
 1.131760782993169e+000	 2.070908395051891e+000	 9.380968414849264e+000
 1.109302450247109e+000	 2.083024780479415e+000	 9.275796488800925e+000
 1.086750879983489e+000	 2.094878699459406e+000	 9.170008203989781e+000
 1.064110552929180e+000	 2.106469325006327e+000	 9.063790610674419e+000
 1.041385951631065e+000	 2.117795929413422e+000	 8.957287376956279e+000
 1.018581557784487e+000	 2.128857883845541e+000	 8.850605848243786e+000
 9.957018495899491e-001	 2.139654657848452e+000	 8.743812744440490e+000
 9.727512991410008e-001	 2.150185818776249e+000	 8.636976998296015e+000
 9.497343698461394e-001	 2.160451031138595e+000	 8.530119641686417e+000
 9.266555138874860e-001	 2.170450055869658e+000	 8.423249597911275e+000
 1.167163040167724e+000	 2.081791982348114e+000	 9.508866393583462e+000
 1.144549744869445e+000	 2.094309778903606e+000	 9.406409560856728e+000
 1.121837631672807e+000	 2.106563080182627e+000	 9.302443481855777e+000
 1.099031227369319e+000	 2.118550949128249e+000	 9.197323846857957e+000
 1.076135063318328e+000	 2.130272549409948e+000	 9.091362965914906e+000
 1.053153672719756e+000	 2.141727145097828e+000	 8.984838690198020e+000
 1.030091587912363e+000	 2.152914100250859e+000	 8.878002134818983e+000
 1.006953337700580e+000	 2.163832878420640e+000	 8.771074597695753e+000
 9.837434447128693e-001	 2.174483042072332e+000	 8.664288109013750e+000
 9.604664227945058e-001	 2.184864251924533e+000	 8.557839522165686e+000
 9.371267744375259e-001	 2.194976266209944e+000	 8.451923877001070e+000
 1.180204678323221e+000	 2.105053494933187e+000	 9.515440668500409e+000
 1.157338706745061e+000	 2.117711162755524e+000	 9.415069151868906e+000
 1.134372813097828e+000	 2.130101379886014e+000	 9.312795861718588e+000
 1.111311574754465e+000	 2.142223198797243e+000	 9.209051374541060e+000
 1.088159573706788e+000	 2.154075773813694e+000	 9.104231984593252e+000
 1.064921393807760e+000	 2.165658360782337e+000	 8.998709566478889e+000
 1.041601618039557e+000	 2.176970316656258e+000	 8.892840107162506e+000
 1.018204825810532e+000	 2.188011098992888e+000	 8.786970825015329e+000
 9.947355902840654e-001	 2.198780265368455e+000	 8.681434400154737e+000
 9.711984757422031e-001	 2.209277472710488e+000	 8.576595589426317e+000
 9.475980349868981e-001	 2.219502476550226e+000	 8.472794132727719e+000
 1.193246316478183e+000	 2.128315007518526e+000	 9.510366116912399e+000
 1.170127668620127e+000	 2.141112546607686e+000	 9.412155469908557e+000
 1.146907994522294e+000	 2.153639679589622e+000	 9.311900725707032e+000
 1.123591922139055e+000	 2.165895448466434e+000	 9.210065353207982e+000
 1.100184084094699e+000	 2.177878998217611e+000	 9.107088651775332e+000
 1.076689114895224e+000	 2.189589576466989e+000	 9.003396716207593e+000
 1.053111648166220e+000	 2.201026533061774e+000	 8.899411928488815e+000
 1.029456313919965e+000	 2.212189319565223e+000	 8.795560886574158e+000
 1.005727735854752e+000	 2.223077488664634e+000	 8.692270134202021e+000
 9.819305286893987e-001	 2.233690693496472e+000	 8.590009971501315e+000
 9.580692955357707e-001	 2.244028686890507e+000	 8.489242493736724e+000
 1.206287954632712e+000	 2.151576520104164e+000	 9.498935031620682e+000
 1.182916630494756e+000	 2.164513930460135e+000	 9.402831279945827e+000
 1.159443175946325e+000	 2.177177979293498e+000	 9.304779830290640e+000
 1.135872269523220e+000	 2.189567698135869e+000	 9.205235174591707e+000
 1.112208594482198e+000	 2.201682222621746e+000	 9.104638819608972e+000
 1.088456835982293e+000	 2.213520792151826e+000	 9.003431520892018e+000
 1.064621678292507e+000	 2.225082749467440e+000	 8.902063889803660e+000
 1.040707802029039e+000	 2.236367540137672e+000	 8.801005275863203e+000
 1.016719881425092e+000	 2.247374711960891e+000	 8.700750845666812e+000
 9.926625816362568e-001	 2.258103914282494e+000	 8.601814161372696e+000
 9.685405560843093e-001	 2.268554897230786e+000	 8.504777487470825e+000
 1.219329592786908e+000	 2.174838032690134e+000	 9.486353993836213e+000
 1.195705592369057e+000	 2.187915314312910e+000	 9.392194202693117e+000
 1.171978357370042e+000	 2.200716278997688e+000	 9.296410451432028e+000
 1.148152616907090e+000	 2.213239947805595e+000	 9.199406393917425e+000
 1.124233104869425e+000	 2.225485447026141e+000	 9.101585014025318e+000
 1.100224557069113e+000	 2.237452007836891e+000	 9.003362300968853e+000
 1.076131708418570e+000	 2.249138965873294e+000	 8.905179132414169e+000
 1.051959290137910e+000	 2.260545760710265e+000	 8.807511258982894e+000
 1.027712026995249e+000	 2.271671935257245e+000	 8.710877304240924e+000
 1.003394634582944e+000	 2.282517135068562e+000	 8.615833077298639e+000
 9.790118166326809e-001	 2.293081107571061e+000	 8.523018541980932e+000
 1.232371230940871e+000	 2.198099545276473e+000	 9.477723680324280e+000
 1.208494554243141e+000	 2.211316698166054e+000	 9.385257036413371e+000
 1.184513538793563e+000	 2.224254578702237e+000	 9.291706210821074e+000
 1.160432964290793e+000	 2.236912197475659e+000	 9.197382051272378e+000
 1.136257615256517e+000	 2.249288671430844e+000	 9.102608242923996e+000
 1.111992278155832e+000	 2.261383223522224e+000	 9.007736603479797e+000
 1.087641738544563e+000	 2.273195182279368e+000	 8.913160408795777e+000
 1.063210778246740e+000	 2.284723981283027e+000	 8.819325633203560e+000
 1.038704172565387e+000	 2.295969158553711e+000	 8.726740010883740e+000
 1.014126687529626e+000	 2.306930355854685e+000	 8.635979847070907e+000
 9.894830771810521e-001	 2.317607317911332e+000	 8.547680598166583e+000
 1.245412869094703e+000	 2.221361057863212e+000	 9.478018608441845e+000
 1.221283516117117e+000	 2.234718082019610e+000	 9.386928031480574e+000
 1.197048720217010e+000	 2.247792878407190e+000	 9.295497870503688e+000
 1.172713311674459e+000	 2.260584447146108e+000	 9.203903977631917e+000
 1.148282125643612e+000	 2.273091895835900e+000	 9.112349805734022e+000
 1.123759999242596e+000	 2.285314439207865e+000	 9.021083508140134e+000
 1.099151768670638e+000	 2.297251398685700e+000	 8.930412879005539e+000
 1.074462266355686e+000	 2.308902201855987e+000	 8.840718008453180e+000
 1.049696318135667e+000	 2.320266381850311e+000	 8.752461550427105e+000
 1.024858740476468e+000	 2.331343576640874e+000	 8.666196525365118e+000
 9.999543377295893e-001	 2.342133528251598e+000	 8.582558824349372e+000
 1.258454507248502e+000	 2.244622570450384e+000	 9.492066823573170e+000
 1.234072477991097e+000	 2.258119465873619e+000	 9.401991121121926e+000
 1.209583901640504e+000	 2.271331178112595e+000	 9.312514098199282e+000
 1.184993659058219e+000	 2.284256696816990e+000	 9.223634086656169e+000
 1.160306636030851e+000	 2.296895120241353e+000	 9.135393104251760e+000
 1.135527720329550e+000	 2.309245654893858e+000	 9.047895950466661e+000
 1.110661798796949e+000	 2.321307615092325e+000	 8.961326940062742e+000
 1.085713754464907e+000	 2.333080422429172e+000	 8.875964137661367e+000
 1.060688463706254e+000	 2.344563605147063e+000	 8.792190982212473e+000
 1.035590793423637e+000	 2.355756797427138e+000	 8.710505216232773e+000
 1.010425598278460e+000	 2.366659738591860e+000	 8.631525060866721e+000
 1.271496145402372e+000	 2.267884083038025e+000	 9.524529533101498e+000
 1.246861439865192e+000	 2.281520849728122e+000	 9.435086111488362e+000
 1.222119083064165e+000	 2.294869477818497e+000	 9.347362205412672e+000
 1.197274006442202e+000	 2.307928946488350e+000	 9.261135653279331e+000
 1.172331146418369e+000	 2.320698344647250e+000	 9.176245454665361e+000
 1.147295441416841e+000	 2.333176870580241e+000	 9.092613060740195e+000
 1.122171828923650e+000	 2.345363831499277e+000	 9.010261085930445e+000
 1.096965242574563e+000	 2.357258643002612e+000	 8.929329292450639e+000
 1.071680609277310e+000	 2.368860828443987e+000	 8.850087726826578e+000
 1.046322846371299e+000	 2.380170018213485e+000	 8.772946915482631e+000
 1.020896858827830e+000	 2.391185948932115e+000	 8.698465054596827e+000
 9.161842533366131e-001	 2.145923845529372e+000	 8.383531183062507e+000
 8.933059157493626e-001	 2.155547983255453e+000	 8.276546924182807e+000
 8.703750978801976e-001	 2.164908673947971e+000	 8.169540826614623e+000
 8.473961566412123e-001	 2.174005963882928e+000	 8.063024441328093e+000
 8.243734281452965e-001	 2.182839991099376e+000	 7.957484468312053e+000
 8.013112254104073e-001	 2.191410984317160e+000	 7.853377129758083e+000
 7.782138361143608e-001	 2.199719261790046e+000	 7.751121541903772e+000
 7.550855204020774e-001	 2.207765230096631e+000	 7.651092147460187e+000
 7.319305087471113e-001	 2.215549382871506e+000	 7.553610279976757e+000
 7.087529998691573e-001	 2.223072299479171e+000	 7.458934940096022e+000
 6.855571587091146e-001	 2.230334643633273e+000	 7.367252871370999e+000
 9.266555138874860e-001	 2.170450055869658e+000	 8.423249597911276e+000
 9.035156950175441e-001	 2.180184189869629e+000	 8.316724199083989e+000
 8.803227960576489e-001	 2.189651865845055e+000	 8.211080177775665e+000
 8.570812237159355e-001	 2.198853130600830e+000	 8.106523169050716e+000
 8.337953636636191e-001	 2.207788123753673e+000	 8.003242106997925e+000
 8.104695782130246e-001	 2.216457076637510e+000	 7.901403925221842e+000
 7.871082040467171e-001	 2.224860311143484e+000	 7.801147119690156e+000
 7.637155499996888e-001	 2.232998238497061e+000	 7.702574239361145e+000
 7.402958948964443e-001	 2.240871357974673e+000	 7.605743380380428e+000
 7.168534854447088e-001	 2.248480255562493e+000	 7.510658769115485e+000
 6.933925341873450e-001	 2.255825602559878e+000	 7.417260527826364e+000
 9.371267744375259e-001	 2.194976266209944e+000	 8.451923877001072e+000
 9.137254742848916e-001	 2.204820396483794e+000	 8.347145271260452e+000
 8.902704942342629e-001	 2.214395057742118e+000	 8.243971342307757e+000
 8.667662907898178e-001	 2.223700297318701e+000	 8.142336317015891e+000
 8.432172991810966e-001	 2.232736256407930e+000	 8.042168023620576e+000
 8.196279310147911e-001	 2.241503168957810e+000	 7.943382857608369e+000
 7.960025719782182e-001	 2.250001360496865e+000	 7.845879463117708e+000
 7.723455795964405e-001	 2.258231246897425e+000	 7.749531199134284e+000
 7.486612810449145e-001	 2.266193333077768e+000	 7.654177471126035e+000
 7.249539710193939e-001	 2.273888211645735e+000	 7.559614019175235e+000
 7.012279096647085e-001	 2.281316561486399e+000	 7.465582263055766e+000
 9.475980349868981e-001	 2.219502476550226e+000	 8.472794132727719e+000
 9.239352535515701e-001	 2.229456603097937e+000	 8.370798933277253e+000
 9.002181924102023e-001	 2.239138249639140e+000	 8.270968243615135e+000
 8.764513578630181e-001	 2.248547464036511e+000	 8.172998336842840e+000
 8.526392346978823e-001	 2.257684389062107e+000	 8.076591618658577e+000
 8.287862838158566e-001	 2.266549261278012e+000	 7.981451798699650e+000
 8.048969399090081e-001	 2.275142409850134e+000	 7.887277619470253e+000
 7.809756091924724e-001	 2.283464255297661e+000	 7.793755216356223e+000
 7.570266671926571e-001	 2.291515308180720e+000	 7.700549194656355e+000
 7.330544565933475e-001	 2.299296167728821e+000	 7.607292520960800e+000
 7.090632851413385e-001	 2.306807520412753e+000	 7.513575336519804e+000
 9.580692955357707e-001	 2.244028686890507e+000	 8.489242493736724e+000
 9.341450328177451e-001	 2.254092809712048e+000	 8.390831255825322e+000
 9.101658905856305e-001	 2.263881441536101e+000	 8.294995459818839e+000
 8.861364249356952e-001	 2.273394630754231e+000	 8.201225832733504e+000
 8.620611702141319e-001	 2.282632521716167e+000	 8.109034075421677e+000
 8.379446366163711e-001	 2.291595353598070e+000	 8.017948181425632e+000
 8.137913078392323e-001	 2.300283459203229e+000	 7.927506143836098e+000
 7.896056387879250e-001	 2.308697263697702e+000	 7.837248128251121e+000
 7.653920533398095e-001	 2.316837283283455e+000	 7.746707203483714e+000
 7.411549421667035e-001	 2.324704123811672e+000	 7.655398734124915e+000
 7.168986606173690e-001	 2.332298479338855e+000	 7.562808550350078e+000
 9.685405560843093e-001	 2.268554897230786e+000	 8.504777487470822e+000
 9.443548120835819e-001	 2.278729016326116e+000	 8.410530421077832e+000
 9.201135887607101e-001	 2.288624633432979e+000	 8.319133561527170e+000
 8.958214920080091e-001	 2.298241797471829e+000	 8.229903453889657e+000
 8.714831057299987e-001	 2.307580654370066e+000	 8.142194854003417e+000
 8.471029894164829e-001	 2.316641445917933e+000	 8.055396138924991e+000
 8.226856757690345e-001	 2.325424508556098e+000	 7.968922923568441e+000
 7.982356683829376e-001	 2.333930272097482e+000	 7.882209966599021e+000
 7.737574394865078e-001	 2.342159258385901e+000	 7.794701463398234e+000
 7.492554277395961e-001	 2.350112079894209e+000	 7.705839837490549e+000
 7.247340360929326e-001	 2.357789438264623e+000	 7.615053154138580e+000
 9.790118166326809e-001	 2.293081107571061e+000	 8.523018541980932e+000
 9.545645913492464e-001	 2.303365222940131e+000	 8.433311691592779e+000
 9.300612869356041e-001	 2.313367825329754e+000	 8.346604597209373e+000
 9.055065590801177e-001	 2.323088964189277e+000	 8.262069942510632e+000
 8.809050412456383e-001	 2.332528787023769e+000	 8.178938344855139e+000
 8.562613422163421e-001	 2.341687538237552e+000	 8.096493803481364e+000
 8.315800436985597e-001	 2.350565557908681e+000	 8.014067159239025e+000
 8.068656979776513e-001	 2.359163280496939e+000	 7.931027654274197e+000
 7.821228256328890e-001	 2.367481233487989e+000	 7.846772696110074e+000
 7.573559133121597e-001	 2.375520035976356e+000	 7.760715945320338e+000
 7.325694115681635e-001	 2.383280397189971e+000	 7.672273859413094e+000
 9.894830771810521e-001	 2.317607317911332e+000	 8.547680598166584e+000
 9.647743706149043e-001	 2.328001429554083e+000	 8.462702504719339e+000
 9.400089851104753e-001	 2.338111017226406e+000	 8.380757715237442e+000
 9.151916261521811e-001	 2.347936130906542e+000	 8.300904325844705e+000
 8.903269767612044e-001	 2.357476919677232e+000	 8.222280670156717e+000
 8.654196950160987e-001	 2.366733630556880e+000	 8.144100753492394e+000
 8.404744116279526e-001	 2.375706607260921e+000	 8.065647490493594e+000
 8.154957275722060e-001	 2.384396288896006e+000	 7.986263840326680e+000
 7.904882117790896e-001	 2.392803208589645e+000	 7.905341950995591e+000
 7.654563988845279e-001	 2.400927992058032e+000	 7.822310440315277e+000
 7.404047870431946e-001	 2.408771356114817e+000	 7.736619955672461e+000
 9.999543377295893e-001	 2.342133528251598e+000	 8.582558824349370e+000
 9.749841498807206e-001	 2.352637636167958e+000	 8.502327683308208e+000
 9.499566832854869e-001	 2.362854209122914e+000	 8.425054912577734e+000
 9.248766932243571e-001	 2.372783297623596e+000	 8.349712241734693e+000
 8.997489122768516e-001	 2.382425052330420e+000	 8.275376622147999e+000
 8.745780478159022e-001	 2.391779722875868e+000	 8.201225597616830e+000
 8.493687795573580e-001	 2.400847656612761e+000	 8.126530256184196e+000
 8.241257571667413e-001	 2.409629297294619e+000	 8.050645863450182e+000
 7.988535979252458e-001	 2.418125183690795e+000	 7.973000296483581e+000
 7.735568844568355e-001	 2.426335948139160e+000	 7.893080414781426e+000
 7.482401625181595e-001	 2.434262315039077e+000	 7.810416520535593e+000
 1.010425598278460e+000	 2.366659738591860e+000	 8.631525060866720e+000
 9.851939291468612e-001	 2.377273842781749e+000	 8.555894754288017e+000
 9.599043814608010e-001	 2.387597401019256e+000	 8.483056900944300e+000
 9.345617602968062e-001	 2.397630464340408e+000	 8.411912387971423e+000
 9.091708477927346e-001	 2.407373184983288e+000	 8.341506728484905e+000
 8.837364006159016e-001	 2.416825815194467e+000	 8.271013686150146e+000
 8.582631474869203e-001	 2.425988705964147e+000	 8.199727879036837e+000
 8.327557867613982e-001	 2.434862305692712e+000	 8.127054834521632e+000
 8.072189840714941e-001	 2.443447158791370e+000	 8.052498622399448e+000
 7.816573700292160e-001	 2.451743904219661e+000	 7.975647212118898e+000
 7.560755379931917e-001	 2.459753273962668e+000	 7.896155717174694e+000
 1.020896858827830e+000	 2.391185948932115e+000	 8.698465054596827e+000
 9.954037084134920e-001	 2.401910049395444e+000	 8.627179367363466e+000
 9.698520796365818e-001	 2.412340592915415e+000	 8.558409081978599e+000
 9.442468273696867e-001	 2.422477631056949e+000	 8.491023086567550e+000
 9.185927833090082e-001	 2.432321317635803e+000	 8.424064435499449e+000
 8.928947534162468e-001	 2.441871907512629e+000	 8.356734940490112e+000
 8.671575154167843e-001	 2.451129755315018e+000	 8.288387365912524e+000
 8.413858163563170e-001	 2.460095314090223e+000	 8.218514829663134e+000
 8.155843702179720e-001	 2.468769133891297e+000	 8.146737545301104e+000
 7.897578556018043e-001	 2.477151860299458e+000	 8.072787061427516e+000
 7.639109134684247e-001	 2.485244232885506e+000	 7.996488172766335e+000
 6.855571587091146e-001	 2.230334643633273e+000	 7.367252871370999e+000
 6.623471141318938e-001	 2.237337161406804e+000	 7.275976737712094e+000
 6.391269560606028e-001	 2.244080678083104e+000	 7.188307118360597e+000
 6.159007346850257e-001	 2.250566098306568e+000	 7.106633636078732e+000
 5.926724590196567e-001	 2.256794405071064e+000	 7.030684339390040e+000
 5.694460951855147e-001	 2.262766658109031e+000	 6.959916671759214e+000
 5.462255647562676e-001	 2.268483992241738e+000	 6.893543625148086e+000
 5.230147431693810e-001	 2.273947615693367e+000	 6.830552963437595e+000
 4.998174582029119e-001	 2.279158808371665e+000	 6.769720162556034e+000
 4.766374885184339e-001	 2.284118920117789e+000	 6.709615739480586e+000
 4.534785622704716e-001	 2.288829368928065e+000	 6.648607660139351e+000
 6.933925341873450e-001	 2.255825602559878e+000	 7.417260527826364e+000
 6.699172171789138e-001	 2.262908153566841e+000	 7.323264425700353e+000
 6.464316710871189e-001	 2.269728743299059e+000	 7.231789653081302e+000
 6.229399923922244e-001	 2.276288286740297e+000	 7.147660152839788e+000
 5.994462359286032e-001	 2.282587778119269e+000	 7.070336060308965e+000
 5.759544131469153e-001	 2.288628289280320e+000	 6.998989969288615e+000
 5.524684904413270e-001	 2.294410968014828e+000	 6.932589813287582e+000
 5.289923875425029e-001	 2.299937036356029e+000	 6.869914089550626e+000
 5.055299759769889e-001	 2.305207788840002e+000	 6.809560251084588e+000
 4.820850775934855e-001	 2.310224590735523e+000	 6.749947008963742e+000
 4.586614631563876e-001	 2.314988876245497e+000	 6.689311305945899e+000
 7.012279096647085e-001	 2.281316561486399e+000	 7.465582263055766e+000
 6.774873202250681e-001	 2.288479145726790e+000	 7.370256044280934e+000
 6.537363861127734e-001	 2.295376808514921e+000	 7.276344396923265e+000
 6.299792500985683e-001	 2.302010475173931e+000	 7.190744780437460e+000
 6.062200128367057e-001	 2.308381151167378e+000	 7.113229288095125e+000
 5.824627311074861e-001	 2.314489920451514e+000	 7.042619771603241e+000
 5.587114161255758e-001	 2.320337943787829e+000	 6.977580495349357e+000
 5.349700319148383e-001	 2.325926457018605e+000	 6.916629003848528e+000
 5.112424937503095e-001	 2.331256769308258e+000	 6.858139565113264e+000
 4.875326666678159e-001	 2.336330261353183e+000	 6.800340007156843e+000
 4.638443640416252e-001	 2.341148383562864e+000	 6.741302784540255e+000
 7.090632851413385e-001	 2.306807520412753e+000	 7.513575336519804e+000
 6.850574232704915e-001	 2.314050137886563e+000	 7.418068569765809e+000
 6.610411011377029e-001	 2.321024873730600e+000	 7.323227334833756e+000
 6.370185078041978e-001	 2.327732663607379e+000	 7.236827353558261e+000
 6.129937897441081e-001	 2.334174524215300e+000	 7.159932144783695e+000
 5.889710490673755e-001	 2.340351551622521e+000	 7.090955421806209e+000
 5.649543418091654e-001	 2.346264919560645e+000	 7.028208141190230e+000
 5.409476762865411e-001	 2.351915877681005e+000	 6.969904619615031e+000
 5.169550115230276e-001	 2.357305749776349e+000	 6.914160589375971e+000
 4.929802557415790e-001	 2.362435931970693e+000	 6.858984089747843e+000
 4.690272649263334e-001	 2.367307890880099e+000	 6.802260112129664e+000
 7.168986606173690e-001	 2.332298479338855e+000	 7.562808550350078e+000
 6.926275263153182e-001	 2.339621130046071e+000	 7.468123079971805e+000
 6.683458161620449e-001	 2.346672938946006e+000	 7.373919301364289e+000
 6.440577655092538e-001	 2.353454852040546e+000	 7.287116720411346e+000
 6.197675666509556e-001	 2.359967897262938e+000	 7.211303851729278e+000
 5.954793670267321e-001	 2.366213182793248e+000	 7.144455177759085e+000
 5.711972674922478e-001	 2.372191895333188e+000	 7.084487655638124e+000
 5.469253206577651e-001	 2.377905298343142e+000	 7.029279507832936e+000
 5.226675292952985e-001	 2.383354730244194e+000	 6.976662410844671e+000
 4.984278448149279e-001	 2.388541602587979e+000	 6.924405920743410e+000
 4.742101658106621e-001	 2.393467398197139e+000	 6.870195139849662e+000
 7.247340360929326e-001	 2.357789438264623e+000	 7.615053154138580e+000
 7.001976293596834e-001	 2.365192122205227e+000	 7.522042065320556e+000
 6.756505311859367e-001	 2.372321004161045e+000	 7.429594441448418e+000
 6.510970232138765e-001	 2.379177040473339e+000	 7.343067832812422e+000
 6.265413435573920e-001	 2.385761270310199e+000	 7.268474088538453e+000
 6.019876849857038e-001	 2.392074813963600e+000	 7.203867687552982e+000
 5.774401931749748e-001	 2.398118871105365e+000	 7.146739829645475e+000
 5.529029650286649e-001	 2.403894719004927e+000	 7.094609194950238e+000
 5.283800470672764e-001	 2.409403710711710e+000	 7.045007746128694e+000
 5.038754338880155e-001	 2.414647273204967e+000	 6.995458124892205e+000
 4.793930666947601e-001	 2.419626905513915e+000	 6.943443739223086e+000
 7.325694115681635e-001	 2.383280397189971e+000	 7.672273859413094e+000
 7.077677324037210e-001	 2.390763114363942e+000	 7.581641216419731e+000
 6.829552462095150e-001	 2.397969069375628e+000	 7.491707398288929e+000
 6.581362809182069e-001	 2.404899228905663e+000	 7.406358906844234e+000
 6.333151204635621e-001	 2.411554643356989e+000	 7.332822414220750e+000
 6.084960029444394e-001	 2.417936445133482e+000	 7.270213520119783e+000
 5.836831188574980e-001	 2.424045846877084e+000	 7.215574840160748e+000
 5.588806093993937e-001	 2.429884139666275e+000	 7.166051502976308e+000
 5.340925648391162e-001	 2.435452691178814e+000	 7.118870004239143e+000
 5.093230229609952e-001	 2.440752943821578e+000	 7.071307967317895e+000
 4.845759675787774e-001	 2.445786412830363e+000	 7.020656004882609e+000
 7.404047870431946e-001	 2.408771356114817e+000	 7.736619955672461e+000
 7.153378354475657e-001	 2.416334106522127e+000	 7.648921298363777e+000
 6.902599612329170e-001	 2.423617134589662e+000	 7.562081025583551e+000
 6.651755386223857e-001	 2.430621417337429e+000	 7.478868648857640e+000
 6.400888973696106e-001	 2.437348016403214e+000	 7.405957745943231e+000
 6.150043209030871e-001	 2.443798076302805e+000	 7.344766746896984e+000
 5.899260445399690e-001	 2.449972822648255e+000	 7.291875795108662e+000
 5.648582537701060e-001	 2.455873560327097e+000	 7.244051928775415e+000
 5.398050826109726e-001	 2.461501671645427e+000	 7.198220382098292e+000
 5.147706120340209e-001	 2.466858614437742e+000	 7.151426058348142e+000
 4.897588684628631e-001	 2.471945920146419e+000	 7.100786473281982e+000
 7.482401625181595e-001	 2.434262315039077e+000	 7.810416520535593e+000
 7.229079384913520e-001	 2.441905098679697e+000	 7.726060105394900e+000
 6.975646762562796e-001	 2.449265199803056e+000	 7.642716265023872e+000
 6.722147963265527e-001	 2.456343605768539e+000	 7.562404040968225e+000
 6.468626742756821e-001	 2.463141389448778e+000	 7.489697891162523e+000
 6.215126388617955e-001	 2.469659707471471e+000	 7.429036570799815e+000
 5.961689702225396e-001	 2.475899798418785e+000	 7.376782320170479e+000
 5.708358981409558e-001	 2.481862980987305e+000	 7.329329059681086e+000
 5.455176003830004e-001	 2.487550652111466e+000	 7.283314990395843e+000
 5.202182011072450e-001	 2.492964285053382e+000	 7.235575081693221e+000
 4.949417693471666e-001	 2.498105427462015e+000	 7.183084356223292e+000
 7.560755379931917e-001	 2.459753273962668e+000	 7.896155717174694e+000
 7.304780415352139e-001	 2.467476090836561e+000	 7.815404490094191e+000
 7.048693912797398e-001	 2.474913265015718e+000	 7.735784848537668e+000
 6.792540540308489e-001	 2.482065794198899e+000	 7.658509986800026e+000
 6.536364511819208e-001	 2.488934762493587e+000	 7.586049129252784e+000
 6.280209568207131e-001	 2.495521338639388e+000	 7.524748999065354e+000
 6.024118959053617e-001	 2.501826774188583e+000	 7.471674184329978e+000
 5.768135425120966e-001	 2.507852401646812e+000	 7.422860022798319e+000
 5.512301181553538e-001	 2.513599632576846e+000	 7.374682007590252e+000
 5.256657901808214e-001	 2.519069955668422e+000	 7.323798544283824e+000
 5.001246702318374e-001	 2.524264934777087e+000	 7.267083788130757e+000
 7.639109134684247e-001	 2.485244232885506e+000	 7.996488172766335e+000
 7.380481445792873e-001	 2.493047082992633e+000	 7.919462461750348e+000
 7.121741063034353e-001	 2.500561330227558e+000	 7.843622060224664e+000
 6.862933117354153e-001	 2.507787982628420e+000	 7.769305809987124e+000
 6.604102280884718e-001	 2.514728135537550e+000	 7.697185839071735e+000
 6.345292747799888e-001	 2.521382969806464e+000	 7.633828556813901e+000
 6.086548215885872e-001	 2.527753749957561e+000	 7.578154961400298e+000
 5.827911868836834e-001	 2.533841822305532e+000	 7.525865965571987e+000
 5.569426359281881e-001	 2.539648613041488e+000	 7.473108860036109e+000
 5.311133792549037e-001	 2.545175626282792e+000	 7.416409546210637e+000
 5.053075711170251e-001	 2.550424442091569e+000	 7.352594086082378e+000
 4.534785622704716e-001	 2.288829368928065e+000	 6.648607660139353e+000
 4.303478228187894e-001	 2.293290988703301e+000	 6.590605591511771e+000
 4.072454120468742e-001	 2.297506054455230e+000	 6.540757736563711e+000
 3.841748921516889e-001	 2.301476178916054e+000	 6.498970800236386e+000
 3.611397700823948e-001	 2.305203035563035e+000	 6.464881722935719e+000
 3.381434964856022e-001	 2.308688356741214e+000	 6.437843393453603e+000
 3.151894647169172e-001	 2.311933931773511e+000	 6.416909706336980e+000
 2.922810099184495e-001	 2.314941605060654e+000	 6.400820594213597e+000
 2.694214081618384e-001	 2.317713274173349e+000	 6.387987634996875e+000
 2.466138756562645e-001	 2.320250887939014e+000	 6.376480799278974e+000
 2.238615680208486e-001	 2.322556444525402e+000	 6.364016865094579e+000
 4.586614631563876e-001	 2.314988876245497e+000	 6.689311305945899e+000
 4.352663576684167e-001	 2.319501488801562e+000	 6.631455934418846e+000
 4.118999046346665e-001	 2.323764729417043e+000	 6.581656629264867e+000
 3.885657069651761e-001	 2.327780229256406e+000	 6.540051643920547e+000
 3.652673116907450e-001	 2.331549680923443e+000	 6.506502514420931e+000
 3.420082088961280e-001	 2.335074836562539e+000	 6.480572837470440e+000
 3.187918307202851e-001	 2.338357505947168e+000	 6.461506419667414e+000
 2.956215504233459e-001	 2.341399554558111e+000	 6.448205491308008e+000
 2.725006815198411e-001	 2.344202901653812e+000	 6.439209644638911e+000
 2.494324769776624e-001	 2.346769518335254e+000	 6.432676118520409e+000
 2.264201284821455e-001	 2.349101425607677e+000	 6.426362009764996e+000
 4.638443640416252e-001	 2.341148383562864e+000	 6.741302784540253e+000
 4.401848925174144e-001	 2.345711988899768e+000	 6.684705102705360e+000
 4.165543972218820e-001	 2.350023404378815e+000	 6.635897893534646e+000
 3.929565217781408e-001	 2.354084279596734e+000	 6.595172962848536e+000
 3.693948532986258e-001	 2.357896326283851e+000	 6.562541435951758e+000
 3.458729213062330e-001	 2.361461316383892e+000	 6.537705133124939e+000
 3.223941967232739e-001	 2.364781080120888e+000	 6.520027336138297e+000
 2.989620909278954e-001	 2.367857504055670e+000	 6.508503706374496e+000
 2.755799548775170e-001	 2.370692529134423e+000	 6.501734078439601e+000
 2.522510782987388e-001	 2.373288148731701e+000	 6.497895811764879e+000
 2.289786889431087e-001	 2.375646406690224e+000	 6.494719337216958e+000
 4.690272649263334e-001	 2.367307890880099e+000	 6.802260112129662e+000
 4.451034273659250e-001	 2.371922488997865e+000	 6.747513934207592e+000
 4.212088898086547e-001	 2.376282079340507e+000	 6.700113145464962e+000
 3.973473365907070e-001	 2.380388329937013e+000	 6.660438316370851e+000
 3.735223949061499e-001	 2.384242971644242e+000	 6.628588514180953e+000
 3.497376337160195e-001	 2.387847796205267e+000	 6.604344761706466e+000
 3.259965627259769e-001	 2.391204654294674e+000	 6.587132900300422e+000
 3.023026314321841e-001	 2.394315453553343e+000	 6.575986689258202e+000
 2.786592282349474e-001	 2.397182156615205e+000	 6.569511933812897e+000
 2.550696796195737e-001	 2.399806779128375e+000	 6.565852388841631e+000
 2.315372494038215e-001	 2.402191387773061e+000	 6.562658135931892e+000
 4.742101658106621e-001	 2.393467398197139e+000	 6.870195139849662e+000
 4.500219622140912e-001	 2.398132989095801e+000	 6.817370334668331e+000
 4.258633823951184e-001	 2.402540754302073e+000	 6.771251850430664e+000
 4.017381514029981e-001	 2.406692380277210e+000	 6.732257463507743e+000
 3.776499365134305e-001	 2.410589617004602e+000	 6.700525929288014e+000
 3.536023461255908e-001	 2.414234276026661e+000	 6.675871962418872e+000
 3.295989287284878e-001	 2.417628228468532e+000	 6.657740627921992e+000
 3.056431719362983e-001	 2.420773403051146e+000	 6.645162051682259e+000
 2.817385015922140e-001	 2.423671784096174e+000	 6.636707315286624e+000
 2.578882809402479e-001	 2.426325409525293e+000	 6.630446351235932e+000
 2.340958098643675e-001	 2.428736368856203e+000	 6.623908600876793e+000
 4.793930666947601e-001	 2.419626905513915e+000	 6.943443739223086e+000
 4.549404970620559e-001	 2.424343489193518e+000	 6.892080873229222e+000
 4.305178749814069e-001	 2.428799429263473e+000	 6.846574178425098e+000
 4.061289662151379e-001	 2.432996430617297e+000	 6.807340345924680e+000
 3.817774781205808e-001	 2.436936262364910e+000	 6.774523011539957e+000
 3.574670585350495e-001	 2.440620755848070e+000	 6.747938646733160e+000
 3.332012947309002e-001	 2.444051802642469e+000	 6.727021860696643e+000
 3.089837124403241e-001	 2.447231352549091e+000	 6.710771103281579e+000
 2.848177749493984e-001	 2.450161411577347e+000	 6.697695711266858e+000
 2.607068822608414e-001	 2.452844039922479e+000	 6.685765187411753e+000
 2.366543703248299e-001	 2.455281349939667e+000	 6.672361543593737e+000
 4.845759675787774e-001	 2.445786412830363e+000	 7.020656004882609e+000
 4.598590319099618e-001	 2.450553989290962e+000	 6.969762385660525e+000
 4.351723675676542e-001	 2.455058104224664e+000	 6.923643860026706e+000
 4.105197810272501e-001	 2.459300480957246e+000	 6.882691065973528e+000
 3.859050197277137e-001	 2.463282907725154e+000	 6.847031228005216e+000
 3.613317709444980e-001	 2.467007235669486e+000	 6.816464297767759e+000
 3.368036607333075e-001	 2.470475376816489e+000	 6.790398499772854e+000
 3.123242529443478e-001	 2.473689302047192e+000	 6.767786358316506e+000
 2.878970483065824e-001	 2.476651039058744e+000	 6.747062230558554e+000
 2.635254835814349e-001	 2.479362670319949e+000	 6.726082313347371e+000
 2.392129307852924e-001	 2.481826331023470e+000	 6.702068028521222e+000
 4.897588684628631e-001	 2.471945920146419e+000	 7.100786473281984e+000
 4.647775667579517e-001	 2.476764489388081e+000	 7.048833584753976e+000
 4.398268601539943e-001	 2.481316779185606e+000	 7.000321042953672e+000
 4.149105958394587e-001	 2.485604531297026e+000	 6.955601860166782e+000
 3.900325613349427e-001	 2.489629553085316e+000	 6.914779160155772e+000
 3.651964833540393e-001	 2.493393715490908e+000	 6.877631855810746e+000
 3.404060267358032e-001	 2.496898950990598e+000	 6.843539719675694e+000
 3.156647934484556e-001	 2.500147251545462e+000	 6.811409015239101e+000
 2.909763216638470e-001	 2.503140666540383e+000	 6.779599801622797e+000
 2.663440849021088e-001	 2.505881300717724e+000	 6.745855962344826e+000
 2.417714912458383e-001	 2.508371312107629e+000	 6.707238941010568e+000
 4.949417693471666e-001	 2.498105427462015e+000	 7.183084356223292e+000
 4.696961016061681e-001	 2.502974989484819e+000	 7.128006677360295e+000
 4.444813527405609e-001	 2.507575454146253e+000	 7.074755149167384e+000
 4.193014106518871e-001	 2.511908581636609e+000	 7.023647068423176e+000
 3.941601029423804e-001	 2.515976198445378e+000	 6.974767473025318e+000
 3.690611957637762e-001	 2.519780195312328e+000	 6.927883590997710e+000
 3.440083927384809e-001	 2.523322525164801e+000	 6.882358664060253e+000
 3.190053339527335e-001	 2.526605201043914e+000	 6.837066411103910e+000
 2.940555950212743e-001	 2.529630294022282e+000	 6.790307337304242e+000
 2.691626862229433e-001	 2.532399931115825e+000	 6.739728027833063e+000
 2.443300517065510e-001	 2.534916293192159e+000	 6.682244492049990e+000
 5.001246702318374e-001	 2.524264934777087e+000	 7.267083788130755e+000
 4.746146364547537e-001	 2.529185489581120e+000	 7.206278987587992e+000
 4.491358453274879e-001	 2.533834129106566e+000	 7.145377732482929e+000
 4.236922254646594e-001	 2.538212631975964e+000	 7.084677099391215e+000
 3.982876445501403e-001	 2.542322843805324e+000	 7.024263876539231e+000
 3.729259081738113e-001	 2.546166675133743e+000	 6.963916964082123e+000
 3.476107587414339e-001	 2.549746099339105e+000	 6.903009124617090e+000
 3.223458744572680e-001	 2.553063150542563e+000	 6.840409452648284e+000
 2.971348683789456e-001	 2.556119921504460e+000	 6.774387867534537e+000
 2.719812875440190e-001	 2.558918561514268e+000	 6.702522862573263e+000
 2.468886121675140e-001	 2.561461274277079e+000	 6.621613664282825e+000
 5.053075711170251e-001	 2.550424442091569e+000	 7.352594086082376e+000
 4.795331713038518e-001	 2.555395989676932e+000	 7.282924585724676e+000
 4.537903379149098e-001	 2.560092804066504e+000	 7.210895336657374e+000
 4.280830402778991e-001	 2.564516682315065e+000	 7.136812392138085e+000
 4.024151861583350e-001	 2.568669489165140e+000	 7.060798079580626e+000
 3.767906205842475e-001	 2.572553154955150e+000	 6.982680476154094e+000
 3.512131247447561e-001	 2.576169673513514e+000	 6.901882204337637e+000
 3.256864149621451e-001	 2.579521100041421e+000	 6.817310025720946e+000
 3.002141417369426e-001	 2.582609548986935e+000	 6.727246642313920e+000
 2.747998888654161e-001	 2.585437191913076e+000	 6.629246037400890e+000
 2.494471726288109e-001	 2.588006255362404e+000	 6.520033603539748e+000
 2.238615680208486e-001	 2.322556444525402e+000	 6.364016865094571e+000
 2.011641876059516e-001	 2.324632283812556e+000	 6.356446463417164e+000
 1.785282247002906e-001	 2.326480135022100e+000	 6.360773466086769e+000
 1.559566963524342e-001	 2.328102134340242e+000	 6.375854522507333e+000
 1.334525552926767e-001	 2.329500459691833e+000	 6.400128078075489e+000
 1.110186895228712e-001	 2.330677328820791e+000	 6.431616395725180e+000
 8.865792196686122e-002	 2.331634997380677e+000	 6.467931558257577e+000
 6.637301018034868e-002	 2.332375757037283e+000	 6.506285654002332e+000
 4.416664611898429e-002	 2.332901933585021e+000	 6.543505299352358e+000
 2.204145596341870e-002	 2.333215885078842e+000	 6.576050603388792e+000
 0.000000000000000e+000	 2.333319999983334e+000	 6.600038607594453e+000
 2.264201284821455e-001	 2.349101425607677e+000	 6.426362009765001e+000
 2.034633349817422e-001	 2.351200990094103e+000	 6.426049216426070e+000
 1.805686609440350e-001	 2.353069960779786e+000	 6.438851678920775e+000
 1.577391579000761e-001	 2.354710498265832e+000	 6.463845381122186e+000
 1.349778123275369e-001	 2.356124805369036e+000	 6.499612806409647e+000
 1.122875452358524e-001	 2.357315125180360e+000	 6.544240310322619e+000
 8.967121181265779e-002	 2.358283739133688e+000	 6.595319991618747e+000
 6.713160113034059e-002	 2.359032965086723e+000	 6.649956287886295e+000
 4.467143591148018e-002	 2.359565155415852e+000	 6.704777468350851e+000
 2.229337235189973e-002	 2.359882695126717e+000	 6.755952143748108e+000
 0.000000000000000e+000	 2.359987999982150e+000	 6.799210835411411e+000
 2.289786889431087e-001	 2.375646406690224e+000	 6.494719337216961e+000
 2.057624823571691e-001	 2.377769696375999e+000	 6.497844332279623e+000
 1.826090971873753e-001	 2.379659786537899e+000	 6.514450110586442e+000
 1.595216194472727e-001	 2.381318862191933e+000	 6.543805019537835e+000
 1.365030693619190e-001	 2.382749151046835e+000	 6.584606258547097e+000
 1.135564009483399e-001	 2.383952921540606e+000	 6.634972178940494e+000
 9.068450165797164e-002	 2.384932480887448e+000	 6.692439629188232e+000
 6.789019207989593e-002	 2.385690173136972e+000	 6.753966597162526e+000
 4.517622570362967e-002	 2.386228377247542e+000	 6.815940342844875e+000
 2.254528874017709e-002	 2.386549505175481e+000	 6.874191157389874e+000
 0.000000000000000e+000	 2.386655999981866e+000	 6.924011801048893e+000
 2.315372494038215e-001	 2.402191387773061e+000	 6.562658135931892e+000
 2.080616297323233e-001	 2.404338402658252e+000	 6.565365436887158e+000
 1.846495334304126e-001	 2.406249612296440e+000	 6.581185458852360e+000
 1.613040809941353e-001	 2.407927226118531e+000	 6.609563235010403e+000
 1.380283263959423e-001	 2.409373496725197e+000	 6.649292388680755e+000
 1.148252566604571e-001	 2.410590717901478e+000	 6.698501901156960e+000
 9.169779150292333e-002	 2.411581222641891e+000	 6.754648502932355e+000
 6.864878302912381e-002	 2.412347381187954e+000	 6.814514967627394e+000
 4.568101549551938e-002	 2.412891599079999e+000	 6.874214524566733e+000
 2.279720512830171e-002	 2.413216315225037e+000	 6.929201543444400e+000
 0.000000000000000e+000	 2.413323999982383e+000	 6.974288555148855e+000
 2.340958098643675e-001	 2.428736368856203e+000	 6.623908600876793e+000
 2.103607771072956e-001	 2.430907108940868e+000	 6.622278136393733e+000
 1.866899696732478e-001	 2.432839438055403e+000	 6.632775816538969e+000
 1.630865425407753e-001	 2.434535590045608e+000	 6.655019139449791e+000
 1.395535834297265e-001	 2.435997842404091e+000	 6.687891054337883e+000
 1.160941123723274e-001	 2.437228514262929e+000	 6.729520701328465e+000
 9.271108134763365e-002	 2.438229964396952e+000	 6.777270385771628e+000
 6.940737397813342e-002	 2.439004589239588e+000	 6.827729096098692e+000
 4.618580528723588e-002	 2.439554820913136e+000	 6.876712805567418e+000
 2.304912151632448e-002	 2.439883125275287e+000	 6.919271730404281e+000
 0.000000000000000e+000	 2.439991999983599e+000	 6.949704621297875e+000
 2.366543703248299e-001	 2.455281349939667e+000	 6.672361543593739e+000
 2.126599244821769e-001	 2.457475815223860e+000	 6.662380454664834e+000
 1.887304059159820e-001	 2.459429263814787e+000	 6.663041862902575e+000
 1.648690040873040e-001	 2.461143953973148e+000	 6.674143145990595e+000
 1.410788404633911e-001	 2.462622188083482e+000	 6.694660854086489e+000
 1.173629680840743e-001	 2.463866310624908e+000	 6.722724887922980e+000
 9.372437119222328e-002	 2.464878706152569e+000	 6.755599557398575e+000
 7.016596492703386e-002	 2.465661797291797e+000	 6.789671861770210e+000
 4.669059507886578e-002	 2.466218042746861e+000	 6.820447258131146e+000
 2.330103790429633e-002	 2.466549935326134e+000	 6.842553111387383e+000
 0.000000000000000e+000	 2.466659999985416e+000	 6.849749916930799e+000
 2.392129307852924e-001	 2.481826331023470e+000	 6.702068028521222e+000
 2.149590718570580e-001	 2.484044521507234e+000	 6.679603172888515e+000
 1.907708421587163e-001	 2.486019089574589e+000	 6.665907927367401e+000
 1.666514656338326e-001	 2.487752317901131e+000	 6.660978791901530e+000
 1.426040974970557e-001	 2.489246533763340e+000	 6.663901758778099e+000
 1.186318237958212e-001	 2.490504106987368e+000	 6.672819356218008e+000
 9.473766103681285e-002	 2.491527447908676e+000	 6.684905255383290e+000
 7.092455587593428e-002	 2.492319005344500e+000	 6.696346816327982e+000
 4.719538487049566e-002	 2.492881264581084e+000	 6.702335867966641e+000
 2.355295429226817e-002	 2.493216745377481e+000	 6.697067937698386e+000
 0.000000000000000e+000	 2.493327999987733e+000	 6.673750037562424e+000
 2.417714912458383e-001	 2.508371312107629e+000	 6.707238941010568e+000
 2.172582192320302e-001	 2.510613227791001e+000	 6.668010078548925e+000
 1.928112784015514e-001	 2.512608915334807e+000	 6.635402935062902e+000
 1.684339271804726e-001	 2.514360681829545e+000	 6.609644409963930e+000
 1.441293545308398e-001	 2.515870879443632e+000	 6.589957551614827e+000
 1.199006795076914e-001	 2.517141903350260e+000	 6.574520853372305e+000
 9.575095088152311e-002	 2.518176189665208e+000	 6.560435834882189e+000
 7.168314682494381e-002	 2.518976213397623e+000	 6.543703321078966e+000
 4.770017466221212e-002	 2.519544486415716e+000	 6.519208744504800e+000
 2.380487068029092e-002	 2.519883555429232e+000	 6.480716710815644e+000
 0.000000000000000e+000	 2.519995999990449e+000	 6.420874951516215e+000
 2.443300517065510e-001	 2.534916293192159e+000	 6.682244492049990e+000
 2.195573666071843e-001	 2.537181934075167e+000	 6.621798130414313e+000
 1.948517146445887e-001	 2.539198741095438e+000	 6.565661242830905e+000
 1.702163887273351e-001	 2.540969045758370e+000	 6.514334659422408e+000
 1.456546115648630e-001	 2.542495225124322e+000	 6.467218091063437e+000
 1.211695352198084e-001	 2.543779699713533e+000	 6.422561023295871e+000
 9.676424072647473e-002	 2.544824931422101e+000	 6.377422658305076e+000
 7.244173777417159e-002	 2.545633421451083e+000	 6.327641356956086e+000
 4.820496445410175e-002	 2.546207708250668e+000	 6.267813939303942e+000
 2.405678706841549e-002	 2.546550365481287e+000	 6.191285109569736e+000
 0.000000000000000e+000	 2.546663999993466e+000	 6.090147148357680e+000
 2.468886121675140e-001	 2.561461274277079e+000	 6.621613664282825e+000
 2.218565139826111e-001	 2.563750640359744e+000	 6.535297545632441e+000
 1.968921508879288e-001	 2.565788566856479e+000	 6.450923373646135e+000
 1.719988502745316e-001	 2.567577409687589e+000	 6.369321926697067e+000
 1.471798685992448e-001	 2.569119570805381e+000	 6.290121409459341e+000
 1.224383909322958e-001	 2.570417496077141e+000	 6.211689247285114e+000
 9.777753057178837e-002	 2.571473673179289e+000	 6.131083734535422e+000
 7.320032872372678e-002	 2.572290629504803e+000	 6.044016031142779e+000
 4.870975424625112e-002	 2.572870930085848e+000	 5.944822900992620e+000
 2.430870345669278e-002	 2.573217175533550e+000	 5.826450486235252e+000
 0.000000000000000e+000	 2.573331999996683e+000	 5.680449280664372e+000
 2.494471726288109e-001	 2.588006255362404e+000	 6.520033603539748e+000
 2.241556613584017e-001	 2.590319346644739e+000	 6.402971814524797e+000
 1.989325871316730e-001	 2.592378392617928e+000	 6.285536656747958e+000
 1.737813118221734e-001	 2.594185773617187e+000	 6.168957605209950e+000
 1.487051256341049e-001	 2.595743916486777e+000	 6.053155659100957e+000
 1.237072466452768e-001	 2.597055292441034e+000	 5.936675295090235e+000
 9.879082041758477e-002	 2.598122414936711e+000	 5.816627125682317e+000
 7.395891967371854e-002	 2.598947837558706e+000	 5.688641802087996e+000
 4.921454403874689e-002	 2.599534151921171e+000	 5.546835592841455e+000
 2.456061984517374e-002	 2.599883985585925e+000	 5.383787962481089e+000
 0.000000000000000e+000	 2.600000000000000e+000	 5.190531335509175e+000
 2.600000000000000e+000	 0.000000000000000e+000	 1.163676479052670e+001
 2.599883985585924e+000	 2.456061984517381e-002	 1.157784282932015e+001
 2.599534151921172e+000	 4.921454403874706e-002	 1.153859378176235e+001
 2.598947837558706e+000	 7.395891967371834e-002	 1.151384462054313e+001
 2.598122414936712e+000	 9.879082041758469e-002	 1.149897761712190e+001
 2.597055292441034e+000	 1.237072466452768e-001	 1.148993046594255e+001
 2.595743916486777e+000	 1.487051256341049e-001	 1.148319323313018e+001
 2.594185773617187e+000	 1.737813118221734e-001	 1.147580220231658e+001
 2.592378392617928e+000	 1.989325871316728e-001	 1.146533072817170e+001
 2.590319346644739e+000	 2.241556613584015e-001	 1.144987723608279e+001
 2.588006255362404e+000	 2.494471726288108e-001	 1.142805053432489e+001
 2.626668000003317e+000	 0.000000000000000e+000	 1.164889767400556e+001
 2.626550795638311e+000	 2.481253623389235e-002	 1.158911093103753e+001
 2.626197373756539e+000	 4.971933383164689e-002	 1.154827787415900e+001
 2.625605045612707e+000	 7.471751062421944e-002	 1.152124542892453e+001
 2.624771156694291e+000	 9.980411026394442e-002	 1.150346420580036e+001
 2.623693088805149e+000	 1.249761023588340e-001	 1.149098671252355e+001
 2.622368262168459e+000	 1.502303826695234e-001	 1.148046211852914e+001
 2.620794137547128e+000	 1.755637733703355e-001	 1.146912765391330e+001
 2.618968218379761e+000	 2.009730233758896e-001	 1.145479676503381e+001
 2.616888052930141e+000	 2.264548087346183e-001	 1.143584417878432e+001
 2.614551236448130e+000	 2.520057330904997e-001	 1.141118805755301e+001
 2.653336000006534e+000	 0.000000000000000e+000	 1.151168200649817e+001
 2.653217605690610e+000	 2.506445262281456e-002	 1.146556970519315e+001
 2.652860595591853e+000	 5.022412362489322e-002	 1.143698436319691e+001
 2.652262253666700e+000	 7.547610157515745e-002	 1.142079504061923e+001
 2.651419898451922e+000	 1.008174001107879e-001	 1.141252349439861e+001
 2.650330885169382e+000	 1.262449580728870e-001	 1.140834027999730e+001
 2.648992607850320e+000	 1.517556397054235e-001	 1.140505712013898e+001
 2.647402501477304e+000	 1.773462349189483e-001	 1.140011563369130e+001
 2.645558044141876e+000	 2.030134596205188e-001	 1.139157255923248e+001
 2.643456759215848e+000	 2.287539561112104e-001	 1.137808163995544e+001
 2.641096217534166e+000	 2.545642935525384e-001	 1.135887236871555e+001
 2.680004000009550e+000	 0.000000000000000e+000	 1.125683422175692e+001
 2.679884415742721e+000	 2.531636901188953e-002	 1.123610224056857e+001
 2.679523817427007e+000	 5.072891341839956e-002	 1.123019488485256e+001
 2.678919461720578e+000	 7.623469252642372e-002	 1.123427690008452e+001
 2.678068640209494e+000	 1.018306899579955e-001	 1.124419700194606e+001
 2.676968681533611e+000	 1.275138137873141e-001	 1.125646835470869e+001
 2.675616953532235e+000	 1.532808967416889e-001	 1.126824852700665e+001
 2.674010865407591e+000	 1.791286964679060e-001	 1.127731887134127e+001
 2.672147869904146e+000	 2.050538958654672e-001	 1.128206326872937e+001
 2.670025465501747e+000	 2.310531034880989e-001	 1.128144616605556e+001
 2.667641198620404e+000	 2.571228540148596e-001	 1.127498981977363e+001
 2.706672000012267e+000	 0.000000000000000e+000	 1.104192332832938e+001
 2.706551225794539e+000	 2.556828540106636e-002	 1.104308890511412e+001
 2.706187039261895e+000	 5.123370321207944e-002	 1.105599344415219e+001
 2.705576669774231e+000	 7.699328347790951e-002	 1.107625966083553e+001
 2.704717381966886e+000	 1.028439798054474e-001	 1.110018136152159e+001
 2.703606477897717e+000	 1.287826695019940e-001	 1.112470346020889e+001
 2.702241299214084e+000	 1.548061537782039e-001	 1.114740161286175e+001
 2.700619229337863e+000	 1.809111580171026e-001	 1.116646141450443e+001
 2.698737695666448e+000	 2.070943321106422e-001	 1.118065709651680e+001
 2.696594171787714e+000	 2.333522508652042e-001	 1.118932964624585e+001
 2.694186179706736e+000	 2.596814144773962e-001	 1.119236425565892e+001
 2.733340000014584e+000	 0.000000000000000e+000	 1.088975585584449e+001
 2.733218035845967e+000	 2.582020179029416e-002	 1.090711974721965e+001
 2.732850261096416e+000	 5.173849300584640e-002	 1.093361624491448e+001
 2.732233877827550e+000	 7.775187442950614e-002	 1.096531016564879e+001
 2.731366123723988e+000	 1.038572696530241e-001	 1.099892021000709e+001
 2.730244274261579e+000	 1.300515252168051e-001	 1.103179857296836e+001
 2.728865644895743e+000	 1.563314108148520e-001	 1.106191032860103e+001
 2.727227593267996e+000	 1.826936195664325e-001	 1.108781253265212e+001
 2.725327521428660e+000	 2.091347683559510e-001	 1.110863297624663e+001
 2.723162878073631e+000	 2.356513982424473e-001	 1.112404850704423e+001
 2.720731160793048e+000	 2.622399749400806e-001	 1.113426281722786e+001
 2.760008000016400e+000	 0.000000000000000e+000	 1.079674961666282e+001
 2.759884845896901e+000	 2.607211817952203e-002	 1.082450480917102e+001
 2.759513482930462e+000	 5.224328279961397e-002	 1.085926633230543e+001
 2.758891085880423e+000	 7.851046538110483e-002	 1.089752506546794e+001
 2.758014865480682e+000	 1.048705595006057e-001	 1.093640415741983e+001
 2.756882070625080e+000	 1.313203809316261e-001	 1.097363829225878e+001
 2.755489990577086e+000	 1.578566678515173e-001	 1.100755290291798e+001
 2.753835957197865e+000	 1.844760811157896e-001	 1.103704327433638e+001
 2.751917347190656e+000	 2.111752046013007e-001	 1.106155346505326e+001
 2.749731584359378e+000	 2.379505456197489e-001	 1.108105495745082e+001
 2.747276141879232e+000	 2.647985354028454e-001	 1.109602492821748e+001
 2.786676000017617e+000	 0.000000000000000e+000	 1.075931155643729e+001
 2.786551655947241e+000	 2.632403456869907e-002	 1.079153762534905e+001
 2.786176704763929e+000	 5.274807259329568e-002	 1.082912719193558e+001
 2.785548293932743e+000	 7.926905633259697e-002	 1.086898088185999e+001
 2.784663607236856e+000	 1.058838493480727e-001	 1.090860548410103e+001
 2.783519866988098e+000	 1.325892366463356e-001	 1.094609294023834e+001
 2.782114336257991e+000	 1.593819248880836e-001	 1.098009947206178e+001
 2.780444321127344e+000	 1.862585426650683e-001	 1.100982478786927e+001
 2.778507172952311e+000	 2.132156408465986e-001	 1.103499129147411e+001
 2.776300290644838e+000	 2.402496929970298e-001	 1.105582319764544e+001
 2.773821122965178e+000	 2.673570958656236e-001	 1.107302543726695e+001
 2.813344000018133e+000	 0.000000000000000e+000	 1.077383826914373e+001
 2.813218465996884e+000	 2.657595095777438e-002	 1.080449625783051e+001
 2.812839926596714e+000	 5.325286238680507e-002	 1.083936422901460e+001
 2.812205501984400e+000	 8.002764728387371e-002	 1.087573585297444e+001
 2.811312348992394e+000	 1.068971391953054e-001	 1.091148027704355e+001
 2.810157663350513e+000	 1.338580923608121e-001	 1.094502091258156e+001
 2.808738681938335e+000	 1.609071819244348e-001	 1.097531456913036e+001
 2.807052685056305e+000	 1.880410042141626e-001	 1.100183087412875e+001
 2.805096998713504e+000	 2.152560770917517e-001	 1.102453189717649e+001
 2.802868996929889e+000	 2.425488403742108e-001	 1.104385187567135e+001
 2.800366104050776e+000	 2.699156563283477e-001	 1.106067691630053e+001
 2.840012000017850e+000	 0.000000000000000e+000	 1.083671648309495e+001
 2.839885276045730e+000	 2.682786734669706e-002	 1.085964427365769e+001
 2.839503148428710e+000	 5.375765218005565e-002	 1.088612616418512e+001
 2.838862710035285e+000	 8.078623823482643e-002	 1.091383167541905e+001
 2.837961090747182e+000	 1.079104290421840e-001	 1.094097044550880e+001
 2.836795459712210e+000	 1.351269480749341e-001	 1.096627089580176e+001
 2.835363027617994e+000	 1.624324389604548e-001	 1.098895947138584e+001
 2.833661048984628e+000	 1.898234657629666e-001	 1.100874039253473e+001
 2.831686824474109e+000	 2.172965133366674e-001	 1.102577583070474e+001
 2.829437703214413e+000	 2.448479877512126e-001	 1.104066639857578e+001
 2.826911085135918e+000	 2.724742167909504e-001	 1.105443181926724e+001
 2.866680000016666e+000	 0.000000000000000e+000	 1.094432351982629e+001
 2.866552086093679e+000	 2.707978373541622e-002	 1.095323166757814e+001
 2.866166370259814e+000	 5.426244197296101e-002	 1.096554635146211e+001
 2.865519918085286e+000	 8.154482918534640e-002	 1.097929514883304e+001
 2.864609832501105e+000	 1.089237188885890e-001	 1.099300562379370e+001
 2.863433256073065e+000	 1.363958037885802e-001	 1.100568395994772e+001
 2.861987373296846e+000	 1.639576959960276e-001	 1.101679441483833e+001
 2.860269412912185e+000	 1.916059273113747e-001	 1.102623952975616e+001
 2.858276650234000e+000	 2.193369495812528e-001	 1.103434100288420e+001
 2.856006409498290e+000	 2.471471351279561e-001	 1.104182110748444e+001
 2.853456066220490e+000	 2.750327772533643e-001	 1.104978451033009e+001
 2.588006255362404e+000	 2.494471726288108e-001	 1.142805053432487e+001
 2.585437191913076e+000	 2.747998888654162e-001	 1.140820369067583e+001
 2.582609548986936e+000	 3.002141417369426e-001	 1.139776238859707e+001
 2.579521100041420e+000	 3.256864149621451e-001	 1.139459040471995e+001
 2.576169673513514e+000	 3.512131247447558e-001	 1.139688270468645e+001
 2.572553154955151e+000	 3.767906205842475e-001	 1.140314186572175e+001
 2.568669489165140e+000	 4.024151861583352e-001	 1.141215355085611e+001
 2.564516682315065e+000	 4.280830402778990e-001	 1.142296137929970e+001
 2.560092804066504e+000	 4.537903379149099e-001	 1.143484155658158e+001
 2.555395989676932e+000	 4.795331713038518e-001	 1.144727764496128e+001
 2.550424442091569e+000	 5.053075711170251e-001	 1.145993586905387e+001
 2.614551236448130e+000	 2.520057330904997e-001	 1.141118805755300e+001
 2.611955822312248e+000	 2.776184901871920e-001	 1.138862700922139e+001
 2.609099176469710e+000	 3.032934150953239e-001	 1.137493910119037e+001
 2.605979049540490e+000	 3.290269554674278e-001	 1.136819213375002e+001
 2.602593247688028e+000	 3.548154907485161e-001	 1.136679616512422e+001
 2.598939634776541e+000	 3.806553329951613e-001	 1.136947612726218e+001
 2.595016134524813e+000	 4.065427277670499e-001	 1.137524342400617e+001
 2.590820732653894e+000	 4.324738550916992e-001	 1.138336688483149e+001
 2.586351479026042e+000	 4.584448305029269e-001	 1.139334346786878e+001
 2.581606489772227e+000	 4.844517061535696e-001	 1.140486912406488e+001
 2.576583949405427e+000	 5.104904720028427e-001	 1.141781024984971e+001
 2.641096217534166e+000	 2.545642935525384e-001	 1.135887236871555e+001
 2.638474452711707e+000	 2.804370915093107e-001	 1.134113587448670e+001
 2.635588803952722e+000	 3.063726884540587e-001	 1.133098422532444e+001
 2.632436999039727e+000	 3.323674959730879e-001	 1.132673893608263e+001
 2.629016821862626e+000	 3.584178567526872e-001	 1.132707465284446e+001
 2.625326114597917e+000	 3.845200454065251e-001	 1.133098764568966e+001
 2.621362779884366e+000	 4.106702693762562e-001	 1.133776321109057e+001
 2.617124782992493e+000	 4.368646699060307e-001	 1.134694238758309e+001
 2.612610153985244e+000	 4.630993230915091e-001	 1.135828841035307e+001
 2.607816989867085e+000	 4.893702410038771e-001	 1.137175334984377e+001
 2.602743456718762e+000	 5.156733728892600e-001	 1.138744539613820e+001
 2.667641198620404e+000	 2.571228540148596e-001	 1.127498981977362e+001
 2.664993083111360e+000	 2.832556928317136e-001	 1.126907277194761e+001
 2.662078431435898e+000	 3.094519618130928e-001	 1.126872043693303e+001
 2.658894948539081e+000	 3.357080364790731e-001	 1.127252498879958e+001
 2.655440396037278e+000	 3.620202227572167e-001	 1.127947841742922e+001
 2.651712594419278e+000	 3.883847578182854e-001	 1.128890053360239e+001
 2.647709425243826e+000	 4.147978109858976e-001	 1.130040184059761e+001
 2.643428833330921e+000	 4.412554847208339e-001	 1.131384567499895e+001
 2.638868828944195e+000	 4.677538156805937e-001	 1.132931007619181e+001
 2.634027489961617e+000	 4.942887758547080e-001	 1.134704986488098e+001
 2.628902964031701e+000	 5.208562737762097e-001	 1.136745942881321e+001
 2.694186179706736e+000	 2.596814144773962e-001	 1.119236425565892e+001
 2.691511713511108e+000	 2.860742941543416e-001	 1.119557503167408e+001
 2.688568058919160e+000	 3.125312351723725e-001	 1.120360238933319e+001
 2.685352898038497e+000	 3.390485769853321e-001	 1.121522522260684e+001
 2.681863970211957e+000	 3.656225887620534e-001	 1.122954895449112e+001
 2.678099074240624e+000	 3.922494702303885e-001	 1.124597917388965e+001
 2.674056070603223e+000	 4.189253525959177e-001	 1.126419396724603e+001
 2.669732883669233e+000	 4.456462995360488e-001	 1.128411475952149e+001
 2.665127503902978e+000	 4.724083082701173e-001	 1.130586511322480e+001
 2.660237990055931e+000	 4.992073107059976e-001	 1.132970829671850e+001
 2.655062471344379e+000	 5.260391746636258e-001	 1.135630961088750e+001
 2.720731160793048e+000	 2.622399749400806e-001	 1.113426281722786e+001
 2.718030343910860e+000	 2.888928954771356e-001	 1.114436388444132e+001
 2.715057686402431e+000	 3.156105085318434e-001	 1.115826196144793e+001
 2.711810847537922e+000	 3.423891174918127e-001	 1.117501973884604e+001
 2.708287544386637e+000	 3.692249547671451e-001	 1.119401036082798e+001
 2.704485554061953e+000	 3.961141826427811e-001	 1.121489191262444e+001
 2.700402715962583e+000	 4.230528942062603e-001	 1.123758066642660e+001
 2.696036934007484e+000	 4.500371143516156e-001	 1.126222288261334e+001
 2.691386178861675e+000	 4.770628008600171e-001	 1.128916495203117e+001
 2.686448490150135e+000	 5.041258455576796e-001	 1.131892165575227e+001
 2.681221978656926e+000	 5.312220755514417e-001	 1.135214231140010e+001
 2.747276141879232e+000	 2.647985354028454e-001	 1.109602492821749e+001
 2.744548974310516e+000	 2.917114968000369e-001	 1.111077486699834e+001
 2.741547313885638e+000	 3.186897818914522e-001	 1.112846033376652e+001
 2.738268797037303e+000	 3.457296579984634e-001	 1.114841854784994e+001
 2.734711118561289e+000	 3.728273207724399e-001	 1.117027951692358e+001
 2.730872033883267e+000	 3.999788950554091e-001	 1.119394154598843e+001
 2.726749361321934e+000	 4.271804358168683e-001	 1.121954557574625e+001
 2.722340984345731e+000	 4.544279291674743e-001	 1.124744812824607e+001
 2.717644853820373e+000	 4.817172934502300e-001	 1.127819262524611e+001
 2.712658990244341e+000	 5.090443804096893e-001	 1.131247883416974e+001
 2.707381485969473e+000	 5.364049764395906e-001	 1.135113018808183e+001
 2.773821122965178e+000	 2.673570958656236e-001	 1.107302543726694e+001
 2.771067604709985e+000	 2.945300981229868e-001	 1.109009343975978e+001
 2.768036941368701e+000	 3.217690552511445e-001	 1.110941347904754e+001
 2.764726746536587e+000	 3.490701985052323e-001	 1.113058604151329e+001
 2.761134692735884e+000	 3.764296867778861e-001	 1.115348511900449e+001
 2.757258513704563e+000	 4.038436074682190e-001	 1.117823492184497e+001
 2.753096006681305e+000	 4.313079774276856e-001	 1.120518549964967e+001
 2.748645034684032e+000	 4.588187439835653e-001	 1.123488702762720e+001
 2.743903528779152e+000	 4.863717860406929e-001	 1.126806250218098e+001
 2.738869490338654e+000	 5.139629152619604e-001	 1.130557857773196e+001
 2.733540993282150e+000	 5.415878773280060e-001	 1.134841426704412e+001
 2.800366104050776e+000	 2.699156563283477e-001	 1.106067691630054e+001
 2.797586235109169e+000	 2.973486994459259e-001	 1.107765702772903e+001
 2.794526568851548e+000	 3.248483286108667e-001	 1.109640399956643e+001
 2.791184696035717e+000	 3.524107390120678e-001	 1.111676823660941e+001
 2.787558266910396e+000	 3.800320527834318e-001	 1.113885272063027e+001
 2.783644993525842e+000	 4.077083198811574e-001	 1.116299112182489e+001
 2.779442652040724e+000	 4.354355190386557e-001	 1.118972490426768e+001
 2.774949085022441e+000	 4.632095587998287e-001	 1.121977916156818e+001
 2.770162203738096e+000	 4.910262786313429e-001	 1.125403690351616e+001
 2.765079990433185e+000	 5.188814501144279e-001	 1.129351150121228e+001
 2.759700500595092e+000	 5.467707782166210e-001	 1.133931698726578e+001
 2.826911085135918e+000	 2.724742167909504e-001	 1.105443181926724e+001
 2.824104865507971e+000	 3.001673007687956e-001	 1.106885697823939e+001
 2.821016196334098e+000	 3.279276019705644e-001	 1.108478285505684e+001
 2.817642645534646e+000	 3.557512795189181e-001	 1.110229424278094e+001
 2.813981841084797e+000	 3.836344187890252e-001	 1.112170590926727e+001
 2.810031473347105e+000	 4.115730322941703e-001	 1.114354231374582e+001
 2.805789297400218e+000	 4.395630606497219e-001	 1.116851641172300e+001
 2.801253135361017e+000	 4.676003736162049e-001	 1.119750726154904e+001
 2.796420878697291e+000	 4.956807712221167e-001	 1.123153612896633e+001
 2.791290490528042e+000	 5.237999849670262e-001	 1.127174077116550e+001
 2.785860007908426e+000	 5.519536791053696e-001	 1.131934756961414e+001
 2.853456066220490e+000	 2.750327772533643e-001	 1.104978451033008e+001
 2.850623495906301e+000	 3.029859020915370e-001	 1.105914039563470e+001
 2.847505823816279e+000	 3.310068753301843e-001	 1.106997097587057e+001
 2.844100595033316e+000	 3.590918200257314e-001	 1.108257762480979e+001
 2.840405415259059e+000	 3.872367847946143e-001	 1.109746738698174e+001
 2.836417953168350e+000	 4.154377447072045e-001	 1.111533451876552e+001
 2.832135942759817e+000	 4.436906022608281e-001	 1.113704122054977e+001
 2.827557185699815e+000	 4.719911884326337e-001	 1.116359724903654e+001
 2.822679553656821e+000	 5.003352638129518e-001	 1.119613808001315e+001
 2.817500990623338e+000	 5.287185198196899e-001	 1.123590127554270e+001
 2.812019515222285e+000	 5.571365799941846e-001	 1.128420069582976e+001
 2.550424442091569e+000	 5.053075711170251e-001	 1.145993586905387e+001
 2.545175626282793e+000	 5.311133792549038e-001	 1.147318416571815e+001
 2.539648613041488e+000	 5.569426359281883e-001	 1.148667715072546e+001
 2.533841822305532e+000	 5.827911868836830e-001	 1.149914198051887e+001
 2.527753749957560e+000	 6.086548215885872e-001	 1.150929481857927e+001
 2.521382969806465e+000	 6.345292747799887e-001	 1.151582519451463e+001
 2.514728135537550e+000	 6.604102280884717e-001	 1.151738359826826e+001
 2.507787982628420e+000	 6.862933117354155e-001	 1.151745901762206e+001
 2.500561330227559e+000	 7.121741063034355e-001	 1.152694240523022e+001
 2.493047082992633e+000	 7.380481445792869e-001	 1.154621725011691e+001
 2.485244232885506e+000	 7.639109134684247e-001	 1.157523894095778e+001
 2.576583949405427e+000	 5.104904720028427e-001	 1.141781024984971e+001
 2.571281296896450e+000	 5.365609683296080e-001	 1.143148557269732e+001
 2.565697593505349e+000	 5.626551537016215e-001	 1.144447611026028e+001
 2.559831242963416e+000	 5.887688312558329e-001	 1.145563511651716e+001
 2.553680725725668e+000	 6.148977472723327e-001	 1.146376674908786e+001
 2.547244600972649e+000	 6.410375927397363e-001	 1.146760713981672e+001
 2.540521508580615e+000	 6.671840049954465e-001	 1.146581204159489e+001
 2.533510171057051e+000	 6.933325694403609e-001	 1.146630508660206e+001
 2.526209395438530e+000	 7.194788213274720e-001	 1.147706776472615e+001
 2.518618075147866e+000	 7.456182476236749e-001	 1.149777545190535e+001
 2.510735191807548e+000	 7.717462889439608e-001	 1.152814486739133e+001
 2.602743456718762e+000	 5.156733728892600e-001	 1.138744539613821e+001
 2.597386967509508e+000	 5.420085574049052e-001	 1.140354667607372e+001
 2.591746573968552e+000	 5.683676714756258e-001	 1.141749566648277e+001
 2.585820663620601e+000	 5.947464756285220e-001	 1.142833904887978e+001
 2.579607701493043e+000	 6.211406729565766e-001	 1.143503442580234e+001
 2.573106232138085e+000	 6.475459106999375e-001	 1.143642780923222e+001
 2.566314881622926e+000	 6.739577819028286e-001	 1.143194443992773e+001
 2.559232359484934e+000	 7.003718271456700e-001	 1.143355556662034e+001
 2.551857460648768e+000	 7.267835363518348e-001	 1.144559016520085e+001
 2.544189067302395e+000	 7.531883506683609e-001	 1.146753879812439e+001
 2.536226150728920e+000	 7.795816644197814e-001	 1.149891201770712e+001
 2.628902964031701e+000	 5.208562737762097e-001	 1.136745942881321e+001
 2.623492638122118e+000	 5.474561464807289e-001	 1.138751362259314e+001
 2.617795554431263e+000	 5.740801892501384e-001	 1.140345555679247e+001
 2.611810084277259e+000	 6.007241200016894e-001	 1.141459408212229e+001
 2.605534677259869e+000	 6.273835986412624e-001	 1.142010690162817e+001
 2.598967863302959e+000	 6.540542286605391e-001	 1.141901417075500e+001
 2.592108254664672e+000	 6.807315588105687e-001	 1.141290853976928e+001
 2.584954547912257e+000	 7.074110848512966e-001	 1.141564719265261e+001
 2.577505525858459e+000	 7.340882513764790e-001	 1.142877704909590e+001
 2.569760059456394e+000	 7.607584537132994e-001	 1.145163536213593e+001
 2.561717109649789e+000	 7.874170398958366e-001	 1.148355766316884e+001
 2.655062471344379e+000	 5.260391746636258e-001	 1.135630961088750e+001
 2.649598308734428e+000	 5.529037355570140e-001	 1.138138219430016e+001
 2.643844534893646e+000	 5.797927070250948e-001	 1.139993660564981e+001
 2.637799504933566e+000	 6.067017643752749e-001	 1.141161410534681e+001
 2.631461653026330e+000	 6.336265243263336e-001	 1.141588043861765e+001
 2.624829494467459e+000	 6.605625466214887e-001	 1.141199522810880e+001
 2.617901627706041e+000	 6.875053357186183e-001	 1.140525414829783e+001
 2.610676736339205e+000	 7.144503425571936e-001	 1.140893803036504e+001
 2.603153591067784e+000	 7.413929664013583e-001	 1.142282604371657e+001
 2.595331051610041e+000	 7.683285567584446e-001	 1.144613237330162e+001
 2.587208068570322e+000	 7.952524153720765e-001	 1.147804732452330e+001
 2.681221978656926e+000	 5.312220755514417e-001	 1.135214231140010e+001
 2.675703979346590e+000	 5.583513246336942e-001	 1.138282240229044e+001
 2.669893515355863e+000	 5.855052248004324e-001	 1.140435051574739e+001
 2.663788925589698e+000	 6.126794087492185e-001	 1.141649204200161e+001
 2.657388628792607e+000	 6.398694500117333e-001	 1.141914438475912e+001
 2.650691125631771e+000	 6.670708645827341e-001	 1.141191048004479e+001
 2.643695000747222e+000	 6.942791126269274e-001	 1.140544784595382e+001
 2.636398924765966e+000	 7.214896002633147e-001	 1.140971192953347e+001
 2.628801656276926e+000	 7.486976814264279e-001	 1.142386971880898e+001
 2.620902043763512e+000	 7.758986598037490e-001	 1.144704131374768e+001
 2.612699027490689e+000	 8.030877908484521e-001	 1.147830024046194e+001
 2.707381485969473e+000	 5.364049764395906e-001	 1.135113018808183e+001
 2.701809649958751e+000	 5.637989137107040e-001	 1.138657538457237e+001
 2.695942495818080e+000	 5.912177425760865e-001	 1.141072472239255e+001
 2.689778346245831e+000	 6.186570531234596e-001	 1.142359851862899e+001
 2.683315604558885e+000	 6.461123756974059e-001	 1.142502555027253e+001
 2.676552756796084e+000	 6.735791825442223e-001	 1.141532714563184e+001
 2.669488373788400e+000	 7.010528895354475e-001	 1.140982388614877e+001
 2.662121113192726e+000	 7.285288579696132e-001	 1.141418303564239e+001
 2.654449721486068e+000	 7.560023964516416e-001	 1.142798040740368e+001
 2.646473035916982e+000	 7.834687628491664e-001	 1.145032308199173e+001
 2.638189986411056e+000	 8.109231663249131e-001	 1.148019490514798e+001
 2.733540993282150e+000	 5.415878773280060e-001	 1.134841426704412e+001
 2.727915320571063e+000	 5.692465027879770e-001	 1.138735104627794e+001
 2.721991476280464e+000	 5.969302603519942e-001	 1.141275987884027e+001
 2.715767766902137e+000	 6.246346974979377e-001	 1.142496498748793e+001
 2.709242580325347e+000	 6.523553013832940e-001	 1.142408899450233e+001
 2.702414387960584e+000	 6.800875005059013e-001	 1.141287478027166e+001
 2.695281746829769e+000	 7.078266664441295e-001	 1.140918055456067e+001
 2.687843301619676e+000	 7.355681156760430e-001	 1.141521568735308e+001
 2.680097786695394e+000	 7.633071114769547e-001	 1.142979601896846e+001
 2.672044028070629e+000	 7.910388658946514e-001	 1.145166594666955e+001
 2.663680945331590e+000	 8.187585418014102e-001	 1.147957467018425e+001
 2.759700500595092e+000	 5.467707782166210e-001	 1.133931698726578e+001
 2.754020991183672e+000	 5.746940918654475e-001	 1.138051683292677e+001
 2.748040456743174e+000	 6.026427781280914e-001	 1.140589083734626e+001
 2.741757187558796e+000	 6.306123418725927e-001	 1.141607547754660e+001
 2.735169556092172e+000	 6.585982270693414e-001	 1.141149728317300e+001
 2.728276019125458e+000	 6.865958184677176e-001	 1.139886981764282e+001
 2.721075119871516e+000	 7.146004433529241e-001	 1.139594612736794e+001
 2.713565490046998e+000	 7.426073733825569e-001	 1.140269072631629e+001
 2.705745851905085e+000	 7.706118265023212e-001	 1.141787993052355e+001
 2.697615020224629e+000	 7.986089689401570e-001	 1.144020083723571e+001
 2.689171904252460e+000	 8.265939172778939e-001	 1.146825337760438e+001
 2.785860007908426e+000	 5.519536791053696e-001	 1.131934756961414e+001
 2.780126661796730e+000	 5.801416809430494e-001	 1.136164034095765e+001
 2.774089437206379e+000	 6.083552959043150e-001	 1.138576460810584e+001
 2.767746608215981e+000	 6.365899862473640e-001	 1.139267482949495e+001
 2.761096531859549e+000	 6.648411527554916e-001	 1.138310895850662e+001
 2.754137650290895e+000	 6.931041364296191e-001	 1.136942198744946e+001
 2.746868492913828e+000	 7.213742202617819e-001	 1.136635252786019e+001
 2.739287678474881e+000	 7.496466310891085e-001	 1.137282216878428e+001
 2.731393917115323e+000	 7.779165415276959e-001	 1.138758473249274e+001
 2.723186012379159e+000	 8.061790719856368e-001	 1.140928764771968e+001
 2.714662863173830e+000	 8.344292927543137e-001	 1.143647435720902e+001
 2.812019515222285e+000	 5.571365799941846e-001	 1.128420069582976e+001
 2.806232332410390e+000	 5.855892700207178e-001	 1.132648748787631e+001
 2.800138417670241e+000	 6.140678136806009e-001	 1.134823802102821e+001
 2.793736028873866e+000	 6.425676306221915e-001	 1.135072778970687e+001
 2.787023507627656e+000	 6.710840784416882e-001	 1.133535469387106e+001
 2.779999281457081e+000	 6.996124543915534e-001	 1.132086915562604e+001
 2.772661865956895e+000	 7.281479971706544e-001	 1.131686602971343e+001
 2.765009866903514e+000	 7.566858887956516e-001	 1.132221769604603e+001
 2.757041982326296e+000	 7.852212565530333e-001	 1.133567147673478e+001
 2.748757004534392e+000	 8.137491750310452e-001	 1.135585174506297e+001
 2.740153822095873e+000	 8.422646682306209e-001	 1.138126268329191e+001
 2.485244232885506e+000	 7.639109134684247e-001	 1.157523894095778e+001
 2.477151860299458e+000	 7.897578556018046e-001	 1.160830475090859e+001
 2.468769133891298e+000	 8.155843702179724e-001	 1.163967427492954e+001
 2.460095314090223e+000	 8.413858163563166e-001	 1.166935045926801e+001
 2.451129755315018e+000	 8.671575154167841e-001	 1.169741459502245e+001
 2.441871907512629e+000	 8.928947534162470e-001	 1.172402866838564e+001
 2.432321317635803e+000	 9.185927833090084e-001	 1.174943812972149e+001
 2.422477631056948e+000	 9.442468273696871e-001	 1.177397503247811e+001
 2.412340592915415e+000	 9.698520796365817e-001	 1.179806148487642e+001
 2.401910049395445e+000	 9.954037084134922e-001	 1.182221334951846e+001
 2.391185948932115e+000	 1.020896858827830e+000	 1.184703093349197e+001
 2.510735191807548e+000	 7.717462889439608e-001	 1.152814486739133e+001
 2.502559816378509e+000	 7.978583411747027e-001	 1.156239161221861e+001
 2.494091108990538e+000	 8.239497563647817e-001	 1.159488177314573e+001
 2.485328322487116e+000	 8.500158459516010e-001	 1.162563429169468e+001
 2.476270804665347e+000	 8.760518833470556e-001	 1.165473068321735e+001
 2.466917999830329e+000	 9.020531062170464e-001	 1.168231774976606e+001
 2.457269450287938e+000	 9.280147188257830e-001	 1.170861080341276e+001
 2.447324797773200e+000	 9.539318944431129e-001	 1.173389734748671e+001
 2.437083784811378e+000	 9.797997778129441e-001	 1.175854115437329e+001
 2.426546256009037e+000	 1.005613487680731e+000	 1.178298666997472e+001
 2.415712159272363e+000	 1.031368119377818e+000	 1.180775196489728e+001
 2.536226150728920e+000	 7.795816644197814e-001	 1.149891201770712e+001
 2.527967772456935e+000	 8.059588267478867e-001	 1.153388534942639e+001
 2.519413084089206e+000	 8.323151425118924e-001	 1.156696014741750e+001
 2.510561330883490e+000	 8.586458755472128e-001	 1.159818454047600e+001
 2.501411854015220e+000	 8.849462512776898e-001	 1.162765366663032e+001
 2.491964092147640e+000	 9.112114590182462e-001	 1.165551279122757e+001
 2.482217582939757e+000	 9.374366543429982e-001	 1.168196103126779e+001
 2.472171964489210e+000	 9.636169615170172e-001	 1.170725562963001e+001
 2.461826976707175e+000	 9.897474759898183e-001	 1.173171671320431e+001
 2.451182462622545e+000	 1.015823266948505e+000	 1.175571826009422e+001
 2.440238369612606e+000	 1.041839379928356e+000	 1.177975426670609e+001
 2.561717109649789e+000	 7.874170398958366e-001	 1.148355766316884e+001
 2.553375728534892e+000	 8.140593123213009e-001	 1.151872649126835e+001
 2.544735059187441e+000	 8.406805286592410e-001	 1.155181305672099e+001
 2.535794339279474e+000	 8.672759051430786e-001	 1.158290686459343e+001
 2.526552903364751e+000	 8.938406192086001e-001	 1.161212898832087e+001
 2.517010184464659e+000	 9.203698118197515e-001	 1.163963563886919e+001
 2.507165715591338e+000	 9.468585898605495e-001	 1.166562244047655e+001
 2.497019131205037e+000	 9.733020285912878e-001	 1.169032935248851e+001
 2.486570168602850e+000	 9.996951741670863e-001	 1.171404616632271e+001
 2.475818669235987e+000	 1.026033046216697e+000	 1.173710587198836e+001
 2.464764579952845e+000	 1.052310640479326e+000	 1.175994512946462e+001
 2.587208068570322e+000	 7.952524153720765e-001	 1.147804732452330e+001
 2.578783684612534e+000	 8.221597978948896e-001	 1.151281276241397e+001
 2.570057034285386e+000	 8.490459148067618e-001	 1.154530986870872e+001
 2.561027347675200e+000	 8.759059347391240e-001	 1.157568068824559e+001
 2.551693952714053e+000	 9.027349871397038e-001	 1.160408343344012e+001
 2.542056276781484e+000	 9.295281646214674e-001	 1.163069655378007e+001
 2.532113848242760e+000	 9.562805253783324e-001	 1.165572361711717e+001
 2.521866297920744e+000	 9.829870956658126e-001	 1.167939893782503e+001
 2.511313360498441e+000	 1.009642872344632e+000	 1.170199387551704e+001
 2.500454875849389e+000	 1.036242825485187e+000	 1.172381255849653e+001
 2.489290790293080e+000	 1.062781901030612e+000	 1.174524717158611e+001
 2.612699027490689e+000	 8.030877908484521e-001	 1.147830024046194e+001
 2.604191640690019e+000	 8.302602834685960e-001	 1.151200496687023e+001
 2.595379009383188e+000	 8.574113009543917e-001	 1.154329201274723e+001
 2.586260356070796e+000	 8.845359643352752e-001	 1.157236607663398e+001
 2.576835002063240e+000	 9.116293550709154e-001	 1.159943257922930e+001
 2.567102369098211e+000	 9.386865174232990e-001	 1.162470228599078e+001
 2.557061980894103e+000	 9.657024608962423e-001	 1.164839685200200e+001
 2.546713464636391e+000	 9.926721627404799e-001	 1.167075521940108e+001
 2.536056552393992e+000	 1.019590570522337e+000	 1.169202706989539e+001
 2.525091082462769e+000	 1.046452604753855e+000	 1.171253944446661e+001
 2.513817000633315e+000	 1.073253161582096e+000	 1.173261021382669e+001
 2.638189986411056e+000	 8.109231663249131e-001	 1.148019490514798e+001
 2.629599596767505e+000	 8.383607690423659e-001	 1.151213294059973e+001
 2.620700984480991e+000	 8.657766871020663e-001	 1.154157939954802e+001
 2.611493364466391e+000	 8.931659939314580e-001	 1.156881067299809e+001
 2.601976051412428e+000	 9.205237230021509e-001	 1.159408829824445e+001
 2.592148461414938e+000	 9.478448702251517e-001	 1.161766419099558e+001
 2.582010113545447e+000	 9.751243964141759e-001	 1.163978691586026e+001
 2.571560631352037e+000	 1.002357229815177e+000	 1.166070892037006e+001
 2.560799744289543e+000	 1.029538268700084e+000	 1.168068249380607e+001
 2.549727289076148e+000	 1.056662384022583e+000	 1.170002084938552e+001
 2.538343210973550e+000	 1.083724422133662e+000	 1.171902310547167e+001
 2.663680945331590e+000	 8.187585418014102e-001	 1.147957467018425e+001
 2.655007552845147e+000	 8.464612546161422e-001	 1.150900156871570e+001
 2.646022959578938e+000	 8.741420732497217e-001	 1.153597690293165e+001
 2.636726372862116e+000	 9.017960235275986e-001	 1.156085669279730e+001
 2.627117100761730e+000	 9.294180909333258e-001	 1.158396631124136e+001
 2.617194553731764e+000	 9.570032230269308e-001	 1.160560638599486e+001
 2.606958246196869e+000	 9.845463319320279e-001	 1.162605986189294e+001
 2.596407798067744e+000	 1.012042296889793e+000	 1.164558515206331e+001
 2.585542936185135e+000	 1.039485966877756e+000	 1.166448952081733e+001
 2.574363495689549e+000	 1.066872163291252e+000	 1.168303526860831e+001
 2.562869421313786e+000	 1.094195682685192e+000	 1.170152550546693e+001
 2.689171904252460e+000	 8.265939172778939e-001	 1.146825337760438e+001
 2.680415508923102e+000	 8.545617401898698e-001	 1.149688671808505e+001
 2.671344934677172e+000	 8.825074593972931e-001	 1.152210622418584e+001
 2.661959381258101e+000	 9.104260531236234e-001	 1.154434797124777e+001
 2.652258150111261e+000	 9.383124588643561e-001	 1.156499378642634e+001
 2.642240646048783e+000	 9.661615758285405e-001	 1.158457394322109e+001
 2.631906378848450e+000	 9.939682674496944e-001	 1.160341185388318e+001
 2.621254964783572e+000	 1.021727363964215e+000	 1.162179455989920e+001
 2.610286128080809e+000	 1.049433665055237e+000	 1.164004015525077e+001
 2.598999702302992e+000	 1.077081942559741e+000	 1.165841633254556e+001
 2.587395631654025e+000	 1.104666943236571e+000	 1.167721962148406e+001
 2.714662863173830e+000	 8.344292927543137e-001	 1.143647435720902e+001
 2.705823465001528e+000	 8.626622257634926e-001	 1.146435349569437e+001
 2.696666909775837e+000	 8.908728455447167e-001	 1.148939230365299e+001
 2.687192389654475e+000	 9.190560827194575e-001	 1.151192231626101e+001
 2.677399199461134e+000	 9.472068267951564e-001	 1.153224574678538e+001
 2.667286738366093e+000	 9.753199286298869e-001	 1.155063851938656e+001
 2.656854511500270e+000	 1.003390202967071e+000	 1.156807801818165e+001
 2.646102131499581e+000	 1.031412431038331e+000	 1.158574772948842e+001
 2.635029319976607e+000	 1.059381363232407e+000	 1.160398384530940e+001
 2.623635908916500e+000	 1.087291721827933e+000	 1.162306374525815e+001
 2.611921841994267e+000	 1.115138203787681e+000	 1.164328190968255e+001
 2.740153822095873e+000	 8.422646682306209e-001	 1.138126268329191e+001
 2.731231421080580e+000	 8.707627113369549e-001	 1.140754811494960e+001
 2.721988884875082e+000	 8.992382316919291e-001	 1.143170374661792e+001
 2.712425398051369e+000	 9.276861123150280e-001	 1.145414403479870e+001
 2.702540248811464e+000	 9.561011947256431e-001	 1.147524652765623e+001
 2.692332830683795e+000	 9.844782814308750e-001	 1.149535505581078e+001
 2.681802644152406e+000	 1.012812138484053e+000	 1.151476869884749e+001
 2.670949298215834e+000	 1.041097498112028e+000	 1.153380880542779e+001
 2.659772511872570e+000	 1.069329061409152e+000	 1.155303768855056e+001
 2.648272115530094e+000	 1.097501501095708e+000	 1.157395420379892e+001
 2.636448052334516e+000	 1.125609464338406e+000	 1.159697473772854e+001
 2.391185948932115e+000	 1.020896858827830e+000	 1.184703093349197e+001
 2.380170018213486e+000	 1.046322846371298e+000	 1.186807142576780e+001
 2.368860828443987e+000	 1.071680609277310e+000	 1.188161571937846e+001
 2.357258643002612e+000	 1.096965242574563e+000	 1.188960585263710e+001
 2.345363831499277e+000	 1.122171828923650e+000	 1.189412936059072e+001
 2.333176870580242e+000	 1.147295441416840e+000	 1.189742169267399e+001
 2.320698344647250e+000	 1.172331146418369e+000	 1.190186818211810e+001
 2.307928946488350e+000	 1.197274006442202e+000	 1.191000546147527e+001
 2.294869477818497e+000	 1.222119083064165e+000	 1.192452221731569e+001
 2.281520849728123e+000	 1.246861439865192e+000	 1.194825917691261e+001
 2.267884083038025e+000	 1.271496145402371e+000	 1.198420822059436e+001
 2.415712159272363e+000	 1.031368119377818e+000	 1.180775196489728e+001
 2.404583238999920e+000	 1.057054899319571e+000	 1.182857459518630e+001
 2.393158051741089e+000	 1.082672754848955e+000	 1.184195170737486e+001
 2.381436863576317e+000	 1.108216730684771e+000	 1.184977477489461e+001
 2.369420047906573e+000	 1.133681859050856e+000	 1.185407548326324e+001
 2.357108086267037e+000	 1.159063162504583e+000	 1.185702909584276e+001
 2.344501569053610e+000	 1.184355656806279e+000	 1.186095738908404e+001
 2.331601196160210e+000	 1.209554353826513e+000	 1.186833104201211e+001
 2.318407777524915e+000	 1.234654264488092e+000	 1.188177136310575e+001
 2.304922233583135e+000	 1.259650401739496e+000	 1.190405123726338e+001
 2.291145595626142e+000	 1.284537783556398e+000	 1.193809517627093e+001
 2.440238369612606e+000	 1.041839379928356e+000	 1.177975426670609e+001
 2.428996459786430e+000	 1.067786952268393e+000	 1.179972596830624e+001
 2.417455275038343e+000	 1.093664900421135e+000	 1.181235261646189e+001
 2.405615084150245e+000	 1.119468218795488e+000	 1.181943883096511e+001
 2.393476264314157e+000	 1.145191889178536e+000	 1.182292189293670e+001
 2.381039301954177e+000	 1.170830883592758e+000	 1.182487617825736e+001
 2.368304793460358e+000	 1.196380167194577e+000	 1.182751718393214e+001
 2.355273445832485e+000	 1.221834701211166e+000	 1.183320502189299e+001
 2.341946077231757e+000	 1.247189445912312e+000	 1.184444725281469e+001
 2.328323617438561e+000	 1.272439363614045e+000	 1.186390093181031e+001
 2.314407108214644e+000	 1.297579421710628e+000	 1.189437373843419e+001
 2.464764579952845e+000	 1.052310640479326e+000	 1.175994512946462e+001
 2.453409680572995e+000	 1.078519005217651e+000	 1.177867061827091e+001
 2.441752498335712e+000	 1.104657045993749e+000	 1.179016905689253e+001
 2.429793304724341e+000	 1.130719706906630e+000	 1.179612172302708e+001
 2.417532480721959e+000	 1.156701919306625e+000	 1.179833276550836e+001
 2.404970517641571e+000	 1.182598604681319e+000	 1.179873483013857e+001
 2.392108017867391e+000	 1.208404677583234e+000	 1.179939430765922e+001
 2.378945695505065e+000	 1.234115048596146e+000	 1.180251606744014e+001
 2.365484376938910e+000	 1.259724627336829e+000	 1.181044753817926e+001
 2.351725001294287e+000	 1.285228325488860e+000	 1.182568199591743e+001
 2.337668620803414e+000	 1.310621059865093e+000	 1.185086092005308e+001
 2.489290790293080e+000	 1.062781901030612e+000	 1.174524717158611e+001
 2.477822901359597e+000	 1.089251058167239e+000	 1.176257363143533e+001
 2.466049721633156e+000	 1.115649191566700e+000	 1.177277796987629e+001
 2.453971525298550e+000	 1.141971195018112e+000	 1.177738135167747e+001
 2.441588697129901e+000	 1.168211949435054e+000	 1.177801580786966e+001
 2.428901733329134e+000	 1.194366325770216e+000	 1.177643118407961e+001
 2.415911242274610e+000	 1.220429187972218e+000	 1.177450174601053e+001
 2.402617945177838e+000	 1.246395395981444e+000	 1.177423229402079e+001
 2.389022676646253e+000	 1.272259808761648e+000	 1.177776363607059e+001
 2.375126385150191e+000	 1.298017287363961e+000	 1.178737726701541e+001
 2.360930133392335e+000	 1.323662698019824e+000	 1.180549910239366e+001
 2.513817000633315e+000	 1.073253161582096e+000	 1.173261021382669e+001
 2.502236122146217e+000	 1.099983111117045e+000	 1.174863280658517e+001
 2.490346944930636e+000	 1.126641337139889e+000	 1.175759607425568e+001
 2.478149745872810e+000	 1.153222683129850e+000	 1.176082393333683e+001
 2.465644913537911e+000	 1.179721979563755e+000	 1.175973696994630e+001
 2.452832949016774e+000	 1.206134046859399e+000	 1.175586084633786e+001
 2.439714466681911e+000	 1.232453698361500e+000	 1.175083440543028e+001
 2.426290194850694e+000	 1.258675743367047e+000	 1.174641731293381e+001
 2.412560976353672e+000	 1.284794990186778e+000	 1.174449707355031e+001
 2.398527769006154e+000	 1.310806249239369e+000	 1.174709525609960e+001
 2.384191645981290e+000	 1.336704336174856e+000	 1.175666383128388e+001
 2.538343210973550e+000	 1.083724422133662e+000	 1.171902310547167e+001
 2.526649342932838e+000	 1.110715164066960e+000	 1.173409128392904e+001
 2.514644168228117e+000	 1.137633482713217e+000	 1.174209322535615e+001
 2.502327966447069e+000	 1.164474171241759e+000	 1.174411801647876e+001
 2.489701129945919e+000	 1.191232009692661e+000	 1.174133504636587e+001
 2.476764164704405e+000	 1.217901767948820e+000	 1.173500401261009e+001
 2.463517691089194e+000	 1.244478208751050e+000	 1.172648467229888e+001
 2.449962444523521e+000	 1.270956090752944e+000	 1.171724616422647e+001
 2.436099276061050e+000	 1.297330171612221e+000	 1.170887572522480e+001
 2.421929152862056e+000	 1.323595211115106e+000	 1.170308662150424e+001
 2.407453158570164e+000	 1.349745974330221e+000	 1.170887650526029e+001
 2.562869421313786e+000	 1.094195682685192e+000	 1.170152550546693e+001
 2.551062563719440e+000	 1.121447217016874e+000	 1.171625010856641e+001
 2.538941391525559e+000	 1.148625628286586e+000	 1.172380569189289e+001
 2.526506187021271e+000	 1.175725659353757e+000	 1.172500840345973e+001
 2.513757346353844e+000	 1.202742039821704e+000	 1.172073617514418e+001
 2.500695380391937e+000	 1.229669489038429e+000	 1.171194047602621e+001
 2.487320915496360e+000	 1.256502719140836e+000	 1.169965786327265e+001
 2.473634694196210e+000	 1.283236438139122e+000	 1.168502114307927e+001
 2.459637575768267e+000	 1.309865353037983e+000	 1.166926995011082e+001
 2.445330536717780e+000	 1.336384172991190e+000	 1.165402828864915e+001
 2.430714671158838e+000	 1.362787612485952e+000	 1.166406385360402e+001
 2.587395631654025e+000	 1.104666943236571e+000	 1.167721962148406e+001
 2.575475784506004e+000	 1.132179269966677e+000	 1.169248073277823e+001
 2.563238614822923e+000	 1.159617773859896e+000	 1.170034935636956e+001
 2.550684407595356e+000	 1.186977147465758e+000	 1.170132998421170e+001
 2.537813562761619e+000	 1.214252069950818e+000	 1.169596824022307e+001
 2.524626596079279e+000	 1.241437210128177e+000	 1.168486453451247e+001
 2.511124139903305e+000	 1.268527229530830e+000	 1.166868757395000e+001
 2.497306943868649e+000	 1.295516785525570e+000	 1.164818752681881e+001
 2.483175875475209e+000	 1.322400534464070e+000	 1.162420863467608e+001
 2.468731920573206e+000	 1.349173134867645e+000	 1.160509006634472e+001
 2.453976183747196e+000	 1.375829250642081e+000	 1.162200509292492e+001
 2.611921841994267e+000	 1.115138203787681e+000	 1.164328190968255e+001
 2.599889005292512e+000	 1.142911322916259e+000	 1.166023746116045e+001
 2.587535838120173e+000	 1.170609919433050e+000	 1.166943284399678e+001
 2.574862628169269e+000	 1.198228635577678e+000	 1.167102148758885e+001
 2.561869779169168e+000	 1.225762100079934e+000	 1.166517518417579e+001
 2.548557811766347e+000	 1.253204931218014e+000	 1.165209980413535e+001
 2.534927364309929e+000	 1.280551739920999e+000	 1.163205093254418e+001
 2.520979193540728e+000	 1.307797132912276e+000	 1.160534920908744e+001
 2.506714175181758e+000	 1.334935715890488e+000	 1.157247762568748e+001
 2.492133304428215e+000	 1.361962096744488e+000	 1.155868369447497e+001
 2.477237696335122e+000	 1.388870888798642e+000	 1.158253658479393e+001
 2.636448052334516e+000	 1.125609464338406e+000	 1.159697473772854e+001
 2.624302226078947e+000	 1.153643375865511e+000	 1.161706984232085e+001
 2.611833061417271e+000	 1.181602065005949e+000	 1.162887058478336e+001
 2.599040848742955e+000	 1.209480123689433e+000	 1.163213915572926e+001
 2.585925995576417e+000	 1.237272130208986e+000	 1.162663123692949e+001
 2.572489027453051e+000	 1.264972652307893e+000	 1.161211394454648e+001
 2.558730588716130e+000	 1.292576250311315e+000	 1.158838376474593e+001
 2.544651443212335e+000	 1.320077480299228e+000	 1.155528424721230e+001
 2.530252474887798e+000	 1.347470897317242e+000	 1.151911553983719e+001
 2.515534688282688e+000	 1.374751058621742e+000	 1.151474192317881e+001
 2.500499208922499e+000	 1.401912526955667e+000	 1.154555230271065e+001
 2.267884083038025e+000	 1.271496145402371e+000	 1.198420822059436e+001
 2.253958198620401e+000	 1.296021946435735e+000	 1.201440652564115e+001
 2.239746463665040e+000	 1.320430225689309e+000	 1.202056948268227e+001
 2.225250231807174e+000	 1.344716083974012e+000	 1.200750393140784e+001
 2.210470966914092e+000	 1.368874639231026e+000	 1.199139155389308e+001
 2.195410242948957e+000	 1.392901029590033e+000	 1.197555495382125e+001
 2.180069743733891e+000	 1.416790416433498e+000	 1.196055182138483e+001
 2.164451262611717e+000	 1.440537987463155e+000	 1.194693303863054e+001
 2.148556702005920e+000	 1.464138959764830e+000	 1.193523927371983e+001
 2.132388072878528e+000	 1.487588582867686e+000	 1.192599713782028e+001
 2.115947494085821e+000	 1.510882141793964e+000	 1.191971492911018e+001
 2.291145595626142e+000	 1.284537783556398e+000	 1.193809517627093e+001
 2.277076874483293e+000	 1.309315143844457e+000	 1.196514062247513e+001
 2.262719370855698e+000	 1.333973776940951e+000	 1.196615803206186e+001
 2.248074452262729e+000	 1.358508733406175e+000	 1.195508557284725e+001
 2.233143597586459e+000	 1.382915081106391e+000	 1.194320997070977e+001
 2.217928396934077e+000	 1.407187908303436e+000	 1.193102641284844e+001
 2.202430551398550e+000	 1.431322326750428e+000	 1.191903345031921e+001
 2.186651872716886e+000	 1.455313474789711e+000	 1.190773000224843e+001
 2.170594282825593e+000	 1.479156520449109e+000	 1.189761185747786e+001
 2.154259813312990e+000	 1.502846664532555e+000	 1.188916769478326e+001
 2.137650604768313e+000	 1.526379143701107e+000	 1.188287464744219e+001
 2.314407108214644e+000	 1.297579421710628e+000	 1.189437373843419e+001
 2.300195550346515e+000	 1.322608341253345e+000	 1.191636511313597e+001
 2.285692278046610e+000	 1.347517328192726e+000	 1.191418821499995e+001
 2.270898672718448e+000	 1.372301382838444e+000	 1.190785723179073e+001
 2.255816228258888e+000	 1.396955522981840e+000	 1.190013174045620e+001
 2.240446550919154e+000	 1.421474787016904e+000	 1.189146483226633e+001
 2.224791359063059e+000	 1.445854237067408e+000	 1.188232126915307e+001
 2.208852482821807e+000	 1.470088962116305e+000	 1.187317438778708e+001
 2.192631863644929e+000	 1.494174081133418e+000	 1.186450245203629e+001
 2.176131553747041e+000	 1.518104746197447e+000	 1.185678447608442e+001
 2.159353715450340e+000	 1.541876145608267e+000	 1.185049554544857e+001
 2.337668620803414e+000	 1.310621059865093e+000	 1.185086092005308e+001
 2.323314226209956e+000	 1.335901538662437e+000	 1.186597729776697e+001
 2.308665185237677e+000	 1.361060879444680e+000	 1.186678029656525e+001
 2.293722893174245e+000	 1.386094032270866e+000	 1.186512220620528e+001
 2.278488858931313e+000	 1.410995964857420e+000	 1.186141380636001e+001
 2.262964704904139e+000	 1.435761665730482e+000	 1.185608956643363e+001
 2.247152166727390e+000	 1.460386147384479e+000	 1.184960501998483e+001
 2.231053092926468e+000	 1.484864449442972e+000	 1.184243351625479e+001
 2.214669444463933e+000	 1.509191641817784e+000	 1.183506236695440e+001
 2.198003294180702e+000	 1.533362827862384e+000	 1.182798841187574e+001
 2.181056826131934e+000	 1.557373147515461e+000	 1.182171303220050e+001
 2.360930133392335e+000	 1.323662698019824e+000	 1.180549910239366e+001
 2.346432902073507e+000	 1.349194736071776e+000	 1.181729666382866e+001
 2.331638092428801e+000	 1.374604430696857e+000	 1.182335640936245e+001
 2.316547113630038e+000	 1.399886681703489e+000	 1.182625031063643e+001
 2.301161489603666e+000	 1.425036406733176e+000	 1.182638261135432e+001
 2.285482858888984e+000	 1.450048544444212e+000	 1.182419187635155e+001
 2.269512974391514e+000	 1.474918057701679e+000	 1.182014821949605e+001
 2.253253703030859e+000	 1.499639936769747e+000	 1.181474985036018e+001
 2.236707025282611e+000	 1.524209202502237e+000	 1.180851895888363e+001
 2.219875034613992e+000	 1.548620909527387e+000	 1.180199696303274e+001
 2.202759936813130e+000	 1.572870149422705e+000	 1.179573915013769e+001
 2.384191645981290e+000	 1.336704336174856e+000	 1.175666383128388e+001
 2.369551577937059e+000	 1.362487933481405e+000	 1.177218727272339e+001
 2.354610999619883e+000	 1.388147981949305e+000	 1.178340187998205e+001
 2.339371334085742e+000	 1.413679331136361e+000	 1.179067790508323e+001
 2.323834120275880e+000	 1.439076848609157e+000	 1.179443390600989e+001
 2.308001012873640e+000	 1.464335423158140e+000	 1.179513453826816e+001
 2.291873782055399e+000	 1.489449968019049e+000	 1.179328758836672e+001
 2.275454313134966e+000	 1.514415424096662e+000	 1.178944026337924e+001
 2.258744606100967e+000	 1.539226763186804e+000	 1.178417475700920e+001
 2.241746775046933e+000	 1.563878991192479e+000	 1.177810311875902e+001
 2.224463047493960e+000	 1.588367151330018e+000	 1.177186145887052e+001
 2.407453158570164e+000	 1.349745974330221e+000	 1.170887650526029e+001
 2.392670253800501e+000	 1.375781130891361e+000	 1.173025219353575e+001
 2.377583906810825e+000	 1.401691533202069e+000	 1.174646544480336e+001
 2.362195554541274e+000	 1.427471980569528e+000	 1.175790787810078e+001
 2.346506750947888e+000	 1.453117290485408e+000	 1.176503252061766e+001
 2.330519166858057e+000	 1.478622301872309e+000	 1.176835142505743e+001
 2.314234589719017e+000	 1.503981878336627e+000	 1.176843246088186e+001
 2.297654923238780e+000	 1.529190911423754e+000	 1.176589529451653e+001
 2.280782186919011e+000	 1.554244323871514e+000	 1.176140658027141e+001
 2.263618515479547e+000	 1.579137072857684e+000	 1.175567439033314e+001
 2.246166158174458e+000	 1.603864153237414e+000	 1.174944191866365e+001
 2.430714671158838e+000	 1.362787612485952e+000	 1.166406385360401e+001
 2.415788929663723e+000	 1.389074328301687e+000	 1.169115459278723e+001
 2.400556814001531e+000	 1.415235084455195e+000	 1.171215941253517e+001
 2.385019774996549e+000	 1.441264630003040e+000	 1.172750958719636e+001
 2.369179381619623e+000	 1.467157732361976e+000	 1.173771210382405e+001
 2.353037320842188e+000	 1.492909180586763e+000	 1.174334706219677e+001
 2.336595397382336e+000	 1.518513788654454e+000	 1.174506417605590e+001
 2.319855533342289e+000	 1.543966398751055e+000	 1.174357839166491e+001
 2.302819767736746e+000	 1.569261884556395e+000	 1.173966464691551e+001
 2.285490255911854e+000	 1.594395154523023e+000	 1.173415180125556e+001
 2.267869268854655e+000	 1.619361155144911e+000	 1.172791577362219e+001
 2.453976183747196e+000	 1.375829250642081e+000	 1.162200509292492e+001
 2.438907605526619e+000	 1.402367525712424e+000	 1.165461807989302e+001
 2.423529721191897e+000	 1.428778635708728e+000	 1.168015977702817e+001
 2.407843995451483e+000	 1.455057279436942e+000	 1.169911875935268e+001
 2.391852012291019e+000	 1.481198174238908e+000	 1.171207483003755e+001
 2.375555474825982e+000	 1.507196059301545e+000	 1.171969616002823e+001
 2.358956205045328e+000	 1.533045698972568e+000	 1.172273545150181e+001
 2.342056143445480e+000	 1.558741886078600e+000	 1.172202514240047e+001
 2.324857348554177e+000	 1.584279445241475e+000	 1.171847167688136e+001
 2.307361996343875e+000	 1.609653236188518e+000	 1.171304887403552e+001
 2.289572379534585e+000	 1.634858157052527e+000	 1.170679043460037e+001
 2.477237696335122e+000	 1.388870888798642e+000	 1.158253658479393e+001
 2.462026281389074e+000	 1.415660723123613e+000	 1.162042699574719e+001
 2.446502628381830e+000	 1.442322186962715e+000	 1.165020628362790e+001
 2.430668215905994e+000	 1.468849928871283e+000	 1.167243735429974e+001
 2.414524642962007e+000	 1.495238616116251e+000	 1.168779107765980e+001
 2.398073628809393e+000	 1.521482938016701e+000	 1.169704312386276e+001
 2.381317012707962e+000	 1.547577609291011e+000	 1.170106974117838e+001
 2.364256753548344e+000	 1.573517373406423e+000	 1.170084249398605e+001
 2.346894929371312e+000	 1.599297005926782e+000	 1.169742198750159e+001
 2.329233736775630e+000	 1.624911317854192e+000	 1.169195061383787e+001
 2.311275490214280e+000	 1.650355158960276e+000	 1.168564436185085e+001
 2.500499208922499e+000	 1.401912526955667e+000	 1.154555230271065e+001
 2.485144957250983e+000	 1.428953920535294e+000	 1.158842664813992e+001
 2.469475535571229e+000	 1.455865738217200e+000	 1.162210245209305e+001
 2.453492436359996e+000	 1.482642578306111e+000	 1.164723339296008e+001
 2.437197273632522e+000	 1.509279057994052e+000	 1.166459908004092e+001
 2.420591782792370e+000	 1.535769816732273e+000	 1.167510154336971e+001
 2.403677820370210e+000	 1.562109519609821e+000	 1.167976057806654e+001
 2.386457363650868e+000	 1.588292860734559e+000	 1.167970796309823e+001
 2.368932510188156e+000	 1.614314566612345e+000	 1.167618058294552e+001
 2.351105477207142e+000	 1.640169399520067e+000	 1.167051248919464e+001
 2.332978600893775e+000	 1.665852160868178e+000	 1.166412594743119e+001
 2.115947494085821e+000	 1.510882141793964e+000	 1.191971492911017e+001
 2.099237191034965e+000	 1.534014959583876e+000	 1.191126561104264e+001
 2.082259493061532e+000	 1.556982398749111e+000	 1.189553442127617e+001
 2.065016834301999e+000	 1.579779865751119e+000	 1.187301619235397e+001
 2.047511753248752e+000	 1.602402814479762e+000	 1.184418072447454e+001
 2.029746891604005e+000	 1.624846749199451e+000	 1.180946694775080e+001
 2.011724993034462e+000	 1.647107227462233e+000	 1.176927687930242e+001
 1.993448901827818e+000	 1.669179862983960e+000	 1.172432265808784e+001
 1.974921561452375e+000	 1.691060328479696e+000	 1.167912963875853e+001
 1.956146013021240e+000	 1.712744358454553e+000	 1.163564679024258e+001
 1.937125393662695e+000	 1.734227751946229e+000	 1.159473096254341e+001
 2.137650604768313e+000	 1.526379143701107e+000	 1.188287464744220e+001
 2.120768905424560e+000	 1.549749233023748e+000	 1.187373498165863e+001
 2.103617068509114e+000	 1.572952247445816e+000	 1.185697675752692e+001
 2.086197553125190e+000	 1.595983546313200e+000	 1.183339566140246e+001
 2.068512923802284e+000	 1.618838536886680e+000	 1.180377068951950e+001
 2.050565849338336e+000	 1.641512677318262e+000	 1.176885738462468e+001
 2.032359101541615e+000	 1.664001479594162e+000	 1.172938083073313e+001
 2.013895553873444e+000	 1.686300512440469e+000	 1.168602845938416e+001
 1.995178179993043e+000	 1.708405404187631e+000	 1.163964481134097e+001
 1.976210052205971e+000	 1.730311845589922e+000	 1.159522795417551e+001
 1.956994339817781e+000	 1.752015592596107e+000	 1.155559772763166e+001
 2.159353715450340e+000	 1.541876145608267e+000	 1.185049554544857e+001
 2.142300619813662e+000	 1.565483506463633e+000	 1.184080697566741e+001
 2.124974643956197e+000	 1.588922096142529e+000	 1.182328209405324e+001
 2.107378271947896e+000	 1.612187226875289e+000	 1.179897568425450e+001
 2.089514094355360e+000	 1.635274259293601e+000	 1.176893352416873e+001
 2.071384807072250e+000	 1.658178605437074e+000	 1.173418473786047e+001
 2.052993210048401e+000	 1.680895731726092e+000	 1.169573386933791e+001
 2.034342205918758e+000	 1.703421161896978e+000	 1.165455273588171e+001
 2.015434798533458e+000	 1.725750479895566e+000	 1.161157212141376e+001
 1.996274091390502e+000	 1.747879332725291e+000	 1.156780023122918e+001
 1.976863285972716e+000	 1.769803433245986e+000	 1.152866839641027e+001
 2.181056826131934e+000	 1.557373147515461e+000	 1.182171303220050e+001
 2.163832334202313e+000	 1.581217779903542e+000	 1.181160333504507e+001
 2.146332219402827e+000	 1.604891944839259e+000	 1.179353877181620e+001
 2.128558990770164e+000	 1.628390907437387e+000	 1.176879284441881e+001
 2.110515264908027e+000	 1.651709981700529e+000	 1.173863710525997e+001
 2.092203764805794e+000	 1.674844533555892e+000	 1.170433266297597e+001
 2.073627318554861e+000	 1.697789983858026e+000	 1.166712137411765e+001
 2.054788857963797e+000	 1.720541811353488e+000	 1.162821678285680e+001
 2.035691417073644e+000	 1.743095555603501e+000	 1.158879487378877e+001
 2.016338130574856e+000	 1.765446819860659e+000	 1.154998470544980e+001
 1.996732232127518e+000	 1.787591273895864e+000	 1.151296120988153e+001
 2.202759936813130e+000	 1.572870149422705e+000	 1.179573915013769e+001
 2.185364048590552e+000	 1.596952053343488e+000	 1.178532268048092e+001
 2.167689794849050e+000	 1.620861793536015e+000	 1.176691286722101e+001
 2.149739709592041e+000	 1.644594587999505e+000	 1.174196288742332e+001
 2.131516435460329e+000	 1.668145704107467e+000	 1.171193042602252e+001
 2.113022722539009e+000	 1.691510461674715e+000	 1.167826837150914e+001
 2.094261427061033e+000	 1.714684235989961e+000	 1.164241516195421e+001
 2.075235510008592e+000	 1.737662460810000e+000	 1.160578484786675e+001
 2.055948035613634e+000	 1.760440631311437e+000	 1.156975694161138e+001
 2.036402169759054e+000	 1.783014306996029e+000	 1.153566612585157e+001
 2.016601178282201e+000	 1.805379114545742e+000	 1.150479189569255e+001
 2.224463047493960e+000	 1.588367151330018e+000	 1.177186145887052e+001
 2.206895762978422e+000	 1.612686326783483e+000	 1.176123927032192e+001
 2.189047370294912e+000	 1.636831642232806e+000	 1.174264679275902e+001
 2.170920428413575e+000	 1.660798268561644e+000	 1.171767913222672e+001
 2.152517606012314e+000	 1.684581426514421e+000	 1.168794178988638e+001
 2.133841680271940e+000	 1.708176389793547e+000	 1.165504058144398e+001
 2.114895535566959e+000	 1.731578488121902e+000	 1.162057117149612e+001
 2.095682162053178e+000	 1.754783110266514e+000	 1.158610829378801e+001
 2.076204654153453e+000	 1.777785707019373e+000	 1.155319473184103e+001
 2.056466208943119e+000	 1.800581794131398e+000	 1.152333013733920e+001
 2.036470124436785e+000	 1.823166955195621e+000	 1.149795976603864e+001
 2.246166158174458e+000	 1.603864153237414e+000	 1.174944191866365e+001
 2.228427477365963e+000	 1.628420600223541e+000	 1.173870176337609e+001
 2.210404945740458e+000	 1.652801490929641e+000	 1.172005790763051e+001
 2.192101147234814e+000	 1.677001949123813e+000	 1.169521090054024e+001
 2.173518776564031e+000	 1.701017148921394e+000	 1.166587703179736e+001
 2.154660638004631e+000	 1.724842317912389e+000	 1.163377750626370e+001
 2.135529644072676e+000	 1.748472740253847e+000	 1.160062719817376e+001
 2.116128814097590e+000	 1.771903759723029e+000	 1.156812306052591e+001
 2.096461272693131e+000	 1.795130782727311e+000	 1.153793226893234e+001
 2.076530248127072e+000	 1.818149281266767e+000	 1.151168018233154e+001
 2.056339070591284e+000	 1.840954795845499e+000	 1.149093820550831e+001
 2.267869268854655e+000	 1.619361155144911e+000	 1.172791577362219e+001
 2.249959191753217e+000	 1.644154873663671e+000	 1.171713198531636e+001
 2.231762521185734e+000	 1.668771339626526e+000	 1.169853713768055e+001
 2.213281866055804e+000	 1.693205629686017e+000	 1.167390196285995e+001
 2.194519947115524e+000	 1.717452871328388e+000	 1.164501776519657e+001
 2.175479595737126e+000	 1.741508246031245e+000	 1.161368488004351e+001
 2.156163752578225e+000	 1.765366992385799e+000	 1.158170067691896e+001
 2.136575466141861e+000	 1.789024409179548e+000	 1.155084718724666e+001
 2.116717891232695e+000	 1.812475858435248e+000	 1.152287844086151e+001
 2.096594287310937e+000	 1.835716768402137e+000	 1.149950759879846e+001
 2.076208016745718e+000	 1.858742636495377e+000	 1.148239397259219e+001
 2.289572379534585e+000	 1.634858157052527e+000	 1.170679043460037e+001
 2.271490906140224e+000	 1.659889147103888e+000	 1.169602369844645e+001
 2.253120096630787e+000	 1.684741188323473e+000	 1.167754760402946e+001
 2.234462584876594e+000	 1.709409310248261e+000	 1.165316900010103e+001
 2.215521117666840e+000	 1.733888593735408e+000	 1.162471965296020e+001
 2.196298553469467e+000	 1.758174174150114e+000	 1.159404401619208e+001
 2.176797861083645e+000	 1.782261244517759e+000	 1.156298650942416e+001
 2.157022118186025e+000	 1.806145058636070e+000	 1.153337839111576e+001
 2.136974509772173e+000	 1.829820934143187e+000	 1.150702431457406e+001
 2.116658326494735e+000	 1.853284255537506e+000	 1.148568865993615e+001
 2.096076962900100e+000	 1.876530477145256e+000	 1.147108173774342e+001
 2.311275490214280e+000	 1.650355158960276e+000	 1.168564436185085e+001
 2.293022620527026e+000	 1.675623420544203e+000	 1.167494137460646e+001
 2.274477672075661e+000	 1.700711037020488e+000	 1.165662325982636e+001
 2.255643303697231e+000	 1.725612990810552e+000	 1.163250007980824e+001
 2.236522288218026e+000	 1.750324316142456e+000	 1.160441070072559e+001
 2.217117511201701e+000	 1.774840102269001e+000	 1.157420989762946e+001
 2.197431969588975e+000	 1.799155496649727e+000	 1.154375493301243e+001
 2.177468770230118e+000	 1.823265708092595e+000	 1.151489169882867e+001
 2.157231128311593e+000	 1.847166009851127e+000	 1.148944051629170e+001
 2.136722365678489e+000	 1.870851742672875e+000	 1.146918169153330e+001
 2.115945909054448e+000	 1.894318317795134e+000	 1.145584092826908e+001
 2.332978600893775e+000	 1.665852160868178e+000	 1.166412594743119e+001
 2.314554334913666e+000	 1.691357693984630e+000	 1.165351897101577e+001
 2.295835247520404e+000	 1.716680885717582e+000	 1.163536753459714e+001
 2.276824022517764e+000	 1.741816671372895e+000	 1.161145314599327e+001
 2.257523458769130e+000	 1.766760038549538e+000	 1.158358957114534e+001
 2.237936468933869e+000	 1.791506030387907e+000	 1.155360929635477e+001
 2.218066078094256e+000	 1.816049748781706e+000	 1.152334942841015e+001
 2.197915422274171e+000	 1.840386357549125e+000	 1.149463712749541e+001
 2.177487746850984e+000	 1.864511085559069e+000	 1.146927467245423e+001
 2.156786404862220e+000	 1.888419229808245e+000	 1.144902426196829e+001
 2.135814855208781e+000	 1.912106158445013e+000	 1.143559265844997e+001
 1.937125393662695e+000	 1.734227751946229e+000	 1.159473096254341e+001
 1.917865842278389e+000	 1.755503199414275e+000	 1.155582047006976e+001
 1.898367848035766e+000	 1.776569877680164e+000	 1.151744987122817e+001
 1.878634825537390e+000	 1.797423798768443e+000	 1.147916861611977e+001
 1.858670277892823e+000	 1.818061049642710e+000	 1.144054926968604e+001
 1.838477794649450e+000	 1.838477794649450e+000	 1.140119440648386e+001
 1.818061049642710e+000	 1.858670277892823e+000	 1.136074351923580e+001
 1.797423798768442e+000	 1.878634825537390e+000	 1.131887990253234e+001
 1.776569877680166e+000	 1.898367848035766e+000	 1.127533747188645e+001
 1.755503199414274e+000	 1.917865842278389e+000	 1.122990747741256e+001
 1.734227751946229e+000	 1.937125393662695e+000	 1.118244507073998e+001
 1.956994339817781e+000	 1.752015592596107e+000	 1.155559772763167e+001
 1.937537244696356e+000	 1.773509260692354e+000	 1.152010374461018e+001
 1.917839261026503e+000	 1.794792018256848e+000	 1.148667559506219e+001
 1.897903838434115e+000	 1.815859836409762e+000	 1.145439499210062e+001
 1.877734515959893e+000	 1.836708761978973e+000	 1.142235601219227e+001
 1.857334919968946e+000	 1.857334919968946e+000	 1.138967320954018e+001
 1.836708761978973e+000	 1.877734515959894e+000	 1.135548977544535e+001
 1.815859836409761e+000	 1.897903838434115e+000	 1.131898570013396e+001
 1.794792018256848e+000	 1.917839261026503e+000	 1.127938589318058e+001
 1.773509260692353e+000	 1.937537244696356e+000	 1.123596821757244e+001
 1.752015592596108e+000	 1.956994339817781e+000	 1.118807139165484e+001
 1.976863285972716e+000	 1.769803433245986e+000	 1.152866839641027e+001
 1.957208647114214e+000	 1.791515321970432e+000	 1.149540128488306e+001
 1.937310674017164e+000	 1.813014158833529e+000	 1.146523247515013e+001
 1.917172851330790e+000	 1.834295874051076e+000	 1.143685203408185e+001
 1.896798754026930e+000	 1.855356474315226e+000	 1.140895342799885e+001
 1.876192045288421e+000	 1.876192045288421e+000	 1.138024273739458e+001
 1.855356474315226e+000	 1.896798754026930e+000	 1.134944794584683e+001
 1.834295874051076e+000	 1.917172851330789e+000	 1.131532825692042e+001
 1.813014158833529e+000	 1.937310674017163e+000	 1.127668339132476e+001
 1.791515321970433e+000	 1.957208647114214e+000	 1.123236281534332e+001
 1.769803433245986e+000	 1.976863285972716e+000	 1.118127485060535e+001
 1.996732232127518e+000	 1.787591273895864e+000	 1.151296120988153e+001
 1.976880049531974e+000	 1.809521383248510e+000	 1.148064075290930e+001
 1.956782087007755e+000	 1.831236299410209e+000	 1.145200058743589e+001
 1.936441864227417e+000	 1.852731911692388e+000	 1.142541270337506e+001
 1.915862992093939e+000	 1.874004186651469e+000	 1.139924526360167e+001
 1.895049170607881e+000	 1.895049170607881e+000	 1.137187280268985e+001
 1.874004186651470e+000	 1.915862992093939e+000	 1.134168652718165e+001
 1.852731911692388e+000	 1.936441864227417e+000	 1.130710466769966e+001
 1.831236299410209e+000	 1.956782087007756e+000	 1.126658283149799e+001
 1.809521383248510e+000	 1.976880049531974e+000	 1.121862430263178e+001
 1.787591273895864e+000	 1.996732232127518e+000	 1.116179023583632e+001
 2.016601178282201e+000	 1.805379114545742e+000	 1.150479189569255e+001
 1.996551451949648e+000	 1.827527444526589e+000	 1.147475506377701e+001
 1.976253499998287e+000	 1.849458439986889e+000	 1.144586961711432e+001
 1.955710877124004e+000	 1.871167949333697e+000	 1.141896251765280e+001
 1.934927230160922e+000	 1.892651898987706e+000	 1.139214945343204e+001
 1.913906295927326e+000	 1.913906295927326e+000	 1.136354781647093e+001
 1.892651898987707e+000	 1.934927230160922e+000	 1.133128789918007e+001
 1.871167949333697e+000	 1.955710877124005e+000	 1.129352416491611e+001
 1.849458439986889e+000	 1.976253499998287e+000	 1.124844653779124e+001
 1.827527444526589e+000	 1.996551451949648e+000	 1.119429165526646e+001
 1.805379114545742e+000	 2.016601178282202e+000	 1.113476456562963e+001
 2.036470124436785e+000	 1.823166955195621e+000	 1.149795976603863e+001
 2.016222854367249e+000	 1.845533505804667e+000	 1.147399101186206e+001
 1.995724912988767e+000	 1.867680580563567e+000	 1.144573305753059e+001
 1.974979890020558e+000	 1.889603986975002e+000	 1.141639365467152e+001
 1.953991468227883e+000	 1.911299611323936e+000	 1.138659220272529e+001
 1.932763421246759e+000	 1.932763421246759e+000	 1.135426091975880e+001
 1.911299611323936e+000	 1.953991468227883e+000	 1.131734256956322e+001
 1.889603986975003e+000	 1.974979890020558e+000	 1.127380253689692e+001
 1.867680580563567e+000	 1.995724912988767e+000	 1.122164093954324e+001
 1.845533505804666e+000	 2.016222854367249e+000	 1.116413382767501e+001
 1.823166955195621e+000	 2.036470124436785e+000	 1.110994070616876e+001
 2.056339070591284e+000	 1.840954795845499e+000	 1.149093820550831e+001
 2.035894256784788e+000	 1.863539567082745e+000	 1.147194690889065e+001
 2.015196325979205e+000	 1.885902721140246e+000	 1.144803418108683e+001
 1.994248902917082e+000	 1.908040024616306e+000	 1.141659919789896e+001
 1.973055706294826e+000	 1.929947323660161e+000	 1.138150221372022e+001
 1.951620546566180e+000	 1.951620546566180e+000	 1.134300825606835e+001
 1.929947323660161e+000	 1.973055706294827e+000	 1.129894355406861e+001
 1.908040024616306e+000	 1.994248902917082e+000	 1.124715667195064e+001
 1.885902721140245e+000	 2.015196325979205e+000	 1.119016690163073e+001
 1.863539567082745e+000	 2.035894256784789e+000	 1.113769077077305e+001
 1.840954795845499e+000	 2.056339070591284e+000	 1.108742929089961e+001
 2.076208016745718e+000	 1.858742636495377e+000	 1.148239397259219e+001
 2.055565659202280e+000	 1.881545628360823e+000	 1.146706103959551e+001
 2.034667738969607e+000	 1.904124861716922e+000	 1.144606733912565e+001
 2.013517915813583e+000	 1.926476062257608e+000	 1.141645746315802e+001
 1.992119944361754e+000	 1.948595035996382e+000	 1.137580504558618e+001
 1.970477671885594e+000	 1.970477671885594e+000	 1.132878337542809e+001
 1.948595035996382e+000	 1.992119944361754e+000	 1.127518088245479e+001
 1.926476062257608e+000	 2.013517915813584e+000	 1.121650178395115e+001
 1.904124861716923e+000	 2.034667738969607e+000	 1.116366650932804e+001
 1.881545628360823e+000	 2.055565659202280e+000	 1.111484849853134e+001
 1.858742636495377e+000	 2.076208016745717e+000	 1.106704836810206e+001
 2.096076962900100e+000	 1.876530477145256e+000	 1.147108173774342e+001
 2.075237061619735e+000	 1.899551689638900e+000	 1.145798088140838e+001
 2.054139151959984e+000	 1.922347002293599e+000	 1.143821594648328e+001
 2.032786928710067e+000	 1.944912099898908e+000	 1.140890475166044e+001
 2.011184182428673e+000	 1.967242748332599e+000	 1.136699135521503e+001
 1.989334797205001e+000	 1.989334797205000e+000	 1.131057176117629e+001
 1.967242748332600e+000	 2.011184182428673e+000	 1.124769427837147e+001
 1.944912099898908e+000	 2.032786928710067e+000	 1.119176027914986e+001
 1.922347002293599e+000	 2.054139151959985e+000	 1.114194365351270e+001
 1.899551689638900e+000	 2.075237061619735e+000	 1.109518795849993e+001
 1.876530477145256e+000	 2.096076962900100e+000	 1.104853879091909e+001
 2.115945909054448e+000	 1.894318317795134e+000	 1.145584092826908e+001
 2.094908464037164e+000	 1.917557750916978e+000	 1.144344080463734e+001
 2.073610564950345e+000	 1.940569142870276e+000	 1.142314160226623e+001
 2.052055941606541e+000	 1.963348137540208e+000	 1.139220199494165e+001
 2.030248420495583e+000	 1.985890460668814e+000	 1.134770506802938e+001
 2.008191922524404e+000	 2.008191922524404e+000	 1.128793882398624e+001
 1.985890460668814e+000	 2.030248420495583e+000	 1.122662475593481e+001
 1.963348137540208e+000	 2.052055941606541e+000	 1.117286420769569e+001
 1.940569142870276e+000	 2.073610564950345e+000	 1.112438014648905e+001
 1.917557750916979e+000	 2.094908464037165e+000	 1.107822724752809e+001
 1.894318317795134e+000	 2.115945909054448e+000	 1.103157127238690e+001
 2.135814855208781e+000	 1.912106158445013e+000	 1.143559265844998e+001
 2.114579866454582e+000	 1.935563812195057e+000	 1.142225877058723e+001
 2.093081977940697e+000	 1.958791283446953e+000	 1.139959019141064e+001
 2.071324954503008e+000	 1.981784175181508e+000	 1.136505250285440e+001
 2.049312658562491e+000	 2.004538173005029e+000	 1.131636556218862e+001
 2.027049047843805e+000	 2.027049047843805e+000	 1.126448978074956e+001
 2.004538173005029e+000	 2.049312658562490e+000	 1.121211300132421e+001
 1.981784175181508e+000	 2.071324954503008e+000	 1.115903319269090e+001
 1.958791283446953e+000	 2.093081977940697e+000	 1.111030837609679e+001
 1.935563812195057e+000	 2.114579866454582e+000	 1.106342864982610e+001
 1.912106158445013e+000	 2.135814855208781e+000	 1.101575350262948e+001
 1.734227751946229e+000	 1.937125393662695e+000	 1.118244507073998e+001
 1.712744358454553e+000	 1.956146013021241e+000	 1.112573253809066e+001
 1.691060328479696e+000	 1.974921561452375e+000	 1.105382738168105e+001
 1.669179862983960e+000	 1.993448901827818e+000	 1.096859949290620e+001
 1.647107227462233e+000	 2.011724993034462e+000	 1.087449996925064e+001
 1.624846749199452e+000	 2.029746891604005e+000	 1.078186372103225e+001
 1.602402814479762e+000	 2.047511753248752e+000	 1.069250790390755e+001
 1.579779865751119e+000	 2.065016834301999e+000	 1.060747825591601e+001
 1.556982398749111e+000	 2.082259493061532e+000	 1.052782454305739e+001
 1.534014959583875e+000	 2.099237191034965e+000	 1.045458931575704e+001
 1.510882141793964e+000	 2.115947494085821e+000	 1.038879713690570e+001
 1.752015592596108e+000	 1.956994339817781e+000	 1.118807139165484e+001
 1.730311845589922e+000	 1.976210052205971e+000	 1.112829689725756e+001
 1.708405404187631e+000	 1.995178179993043e+000	 1.105109042241966e+001
 1.686300512440468e+000	 2.013895553873444e+000	 1.096225373460045e+001
 1.664001479594162e+000	 2.032359101541615e+000	 1.087253926034179e+001
 1.641512677318262e+000	 2.050565849338336e+000	 1.078373009159816e+001
 1.618838536886680e+000	 2.068512923802285e+000	 1.069720668992851e+001
 1.595983546313200e+000	 2.086197553125190e+000	 1.061437077972908e+001
 1.572952247445815e+000	 2.103617068509114e+000	 1.053663220463864e+001
 1.549749233023748e+000	 2.120768905424560e+000	 1.046539617657829e+001
 1.526379143701107e+000	 2.137650604768313e+000	 1.040205102838601e+001
 1.769803433245986e+000	 1.976863285972716e+000	 1.118127485060535e+001
 1.747879332725290e+000	 1.996274091390502e+000	 1.111604717554088e+001
 1.725750479895566e+000	 2.015434798533457e+000	 1.103614683779959e+001
 1.703421161896978e+000	 2.034342205918758e+000	 1.095264647277646e+001
 1.680895731726092e+000	 2.052993210048401e+000	 1.086738064697806e+001
 1.658178605437075e+000	 2.071384807072250e+000	 1.078197298729170e+001
 1.635274259293601e+000	 2.089514094355360e+000	 1.069808761050590e+001
 1.612187226875288e+000	 2.107378271947896e+000	 1.061741421731310e+001
 1.588922096142529e+000	 2.124974643956197e+000	 1.054165347988677e+001
 1.565483506463633e+000	 2.142300619813663e+000	 1.047250284784698e+001
 1.541876145608268e+000	 2.159353715450340e+000	 1.041164289274454e+001
 1.787591273895864e+000	 1.996732232127518e+000	 1.116179023583632e+001
 1.765446819860660e+000	 2.016338130574856e+000	 1.109407561754014e+001
 1.743095555603502e+000	 2.035691417073645e+000	 1.101991893971553e+001
 1.720541811353488e+000	 2.054788857963797e+000	 1.094122751305261e+001
 1.697789983858025e+000	 2.073627318554860e+000	 1.085977826283277e+001
 1.674844533555892e+000	 2.092203764805794e+000	 1.077740958591891e+001
 1.651709981700529e+000	 2.110515264908027e+000	 1.069600483928211e+001
 1.628390907437388e+000	 2.128558990770164e+000	 1.061747600259168e+001
 1.604891944839259e+000	 2.146332219402827e+000	 1.054374765320620e+001
 1.581217779903542e+000	 2.163832334202313e+000	 1.047674138804782e+001
 1.557373147515461e+000	 2.181056826131934e+000	 1.041836082187411e+001
 1.805379114545742e+000	 2.016601178282202e+000	 1.113476456562963e+001
 1.783014306996028e+000	 2.036402169759053e+000	 1.107262308531022e+001
 1.760440631311437e+000	 2.055948035613634e+000	 1.100326603650868e+001
 1.737662460810000e+000	 2.075235510008592e+000	 1.092853573309560e+001
 1.714684235989961e+000	 2.094261427061034e+000	 1.085035845186861e+001
 1.691510461674715e+000	 2.113022722539008e+000	 1.077072649283841e+001
 1.668145704107468e+000	 2.131516435460329e+000	 1.069168027344881e+001
 1.644594587999504e+000	 2.149739709592041e+000	 1.061529060805639e+001
 1.620861793536015e+000	 2.167689794849050e+000	 1.054364132115276e+001
 1.596952053343488e+000	 2.185364048590552e+000	 1.047881233873355e+001
 1.572870149422705e+000	 2.202759936813131e+000	 1.042286339695155e+001
 1.823166955195621e+000	 2.036470124436785e+000	 1.110994070616876e+001
 1.800581794131398e+000	 2.056466208943119e+000	 1.105212409618693e+001
 1.777785707019373e+000	 2.076204654153453e+000	 1.098649831217548e+001
 1.754783110266514e+000	 2.095682162053179e+000	 1.091499306474248e+001
 1.731578488121901e+000	 2.114895535566959e+000	 1.083962660458539e+001
 1.708176389793547e+000	 2.133841680271940e+000	 1.076248642624631e+001
 1.684581426514422e+000	 2.152517606012314e+000	 1.068571000863553e+001
 1.660798268561644e+000	 2.170920428413575e+000	 1.061146575423955e+001
 1.636831642232806e+000	 2.189047370294912e+000	 1.054193428593140e+001
 1.612686326783484e+000	 2.206895762978422e+000	 1.047929025598906e+001
 1.588367151330017e+000	 2.224463047493960e+000	 1.042568481634511e+001
 1.840954795845499e+000	 2.056339070591284e+000	 1.108742929089961e+001
 1.818149281266767e+000	 2.076530248127072e+000	 1.103264812823839e+001
 1.795130782727311e+000	 2.096461272693131e+000	 1.096982113620986e+001
 1.771903759723029e+000	 2.116128814097590e+000	 1.090091146227013e+001
 1.748472740253847e+000	 2.135529644072676e+000	 1.082797403428280e+001
 1.724842317912389e+000	 2.154660638004631e+000	 1.075313494099091e+001
 1.701017148921394e+000	 2.173518776564031e+000	 1.067857085397208e+001
 1.677001949123814e+000	 2.192101147234814e+000	 1.060648866390737e+001
 1.652801490929640e+000	 2.210404945740458e+000	 1.053910550083529e+001
 1.628420600223541e+000	 2.228427477365963e+000	 1.047862930350134e+001
 1.603864153237414e+000	 2.246166158174458e+000	 1.042724009700241e+001
 1.858742636495377e+000	 2.076208016745717e+000	 1.106704836810206e+001
 1.835716768402137e+000	 2.096594287310937e+000	 1.101417313668966e+001
 1.812475858435249e+000	 2.116717891232694e+000	 1.095334210905929e+001
 1.789024409179548e+000	 2.136575466141861e+000	 1.088649991251559e+001
 1.765366992385799e+000	 2.156163752578225e+000	 1.081568489065795e+001
 1.741508246031244e+000	 2.175479595737126e+000	 1.074300718833608e+001
 1.717452871328388e+000	 2.194519947115523e+000	 1.067062688463377e+001
 1.693205629686017e+000	 2.213281866055804e+000	 1.060073235797920e+001
 1.668771339626526e+000	 2.231762521185735e+000	 1.053551906414853e+001
 1.644154873663671e+000	 2.249959191753217e+000	 1.047716890310931e+001
 1.619361155144911e+000	 2.267869268854655e+000	 1.042783034439626e+001
 1.876530477145256e+000	 2.096076962900100e+000	 1.104853879091909e+001
 1.853284255537506e+000	 2.116658326494735e+000	 1.099659262675330e+001
 1.829820934143187e+000	 2.136974509772172e+000	 1.093707815398587e+001
 1.806145058636069e+000	 2.157022118186025e+000	 1.087187148407026e+001
 1.782261244517759e+000	 2.176797861083645e+000	 1.080294310826095e+001
 1.758174174150114e+000	 2.196298553469467e+000	 1.073233470928746e+001
 1.733888593735408e+000	 2.215521117666840e+000	 1.066213602938170e+001
 1.709409310248261e+000	 2.234462584876594e+000	 1.059446199040307e+001
 1.684741188323472e+000	 2.253120096630787e+000	 1.053143025829575e+001
 1.659889147103889e+000	 2.271490906140225e+000	 1.047513943901920e+001
 1.634858157052526e+000	 2.289572379534584e+000	 1.042764808647895e+001
 1.894318317795134e+000	 2.115945909054448e+000	 1.103157127238690e+001
 1.870851742672876e+000	 2.136722365678489e+000	 1.097972277975220e+001
 1.847166009851127e+000	 2.157231128311593e+000	 1.092096265228284e+001
 1.823265708092595e+000	 2.177468770230117e+000	 1.085705041297947e+001
 1.799155496649727e+000	 2.197431969588976e+000	 1.078983938751590e+001
 1.774840102269001e+000	 2.217117511201700e+000	 1.072125225927621e+001
 1.750324316142456e+000	 2.236522288218026e+000	 1.065325669079880e+001
 1.725612990810552e+000	 2.255643303697231e+000	 1.058784121942721e+001
 1.700711037020488e+000	 2.274477672075662e+000	 1.052699163126478e+001
 1.675623420544203e+000	 2.293022620527026e+000	 1.047266801215806e+001
 1.650355158960276e+000	 2.311275490214281e+000	 1.042678266743872e+001
 1.912106158445013e+000	 2.135814855208781e+000	 1.101575350262948e+001
 1.888419229808245e+000	 2.156786404862220e+000	 1.096330962906535e+001
 1.864511085559069e+000	 2.177487746850984e+000	 1.090485261902236e+001
 1.840386357549125e+000	 2.197915422274170e+000	 1.084197922257055e+001
 1.816049748781705e+000	 2.218066078094255e+000	 1.077637820618852e+001
 1.791506030387908e+000	 2.237936468933869e+000	 1.070980466215731e+001
 1.766760038549538e+000	 2.257523458769129e+000	 1.064405439609157e+001
 1.741816671372895e+000	 2.276824022517764e+000	 1.058093861289779e+001
 1.716680885717582e+000	 2.295835247520404e+000	 1.052225911754969e+001
 1.691357693984630e+000	 2.314554334913665e+000	 1.046978424140011e+001
 1.665852160868179e+000	 2.332978600893775e+000	 1.042522569736290e+001
 1.510882141793964e+000	 2.115947494085821e+000	 1.038879713690570e+001
 1.487588582867686e+000	 2.132388072878528e+000	 1.032481968955144e+001
 1.464138959764830e+000	 2.148556702005919e+000	 1.025607398367825e+001
 1.440537987463155e+000	 2.164451262611717e+000	 1.018210428075423e+001
 1.416790416433498e+000	 2.180069743733891e+000	 1.010241243772118e+001
 1.392901029590033e+000	 2.195410242948957e+000	 1.001645331355065e+001
 1.368874639231026e+000	 2.210470966914093e+000	 9.923631086216421e+000
 1.344716083974012e+000	 2.225250231807173e+000	 9.823296527271083e+000
 1.320430225689309e+000	 2.239746463665041e+000	 9.717235875698982e+000
 1.296021946435735e+000	 2.253958198620401e+000	 9.617596302107533e+000
 1.271496145402372e+000	 2.267884083038025e+000	 9.524529533101497e+000
 1.526379143701107e+000	 2.137650604768313e+000	 1.040205102838601e+001
 1.502846664532555e+000	 2.154259813312990e+000	 1.034115496225219e+001
 1.479156520449109e+000	 2.170594282825592e+000	 1.027602088962639e+001
 1.455313474789710e+000	 2.186651872716886e+000	 1.020611217722222e+001
 1.431322326750428e+000	 2.202430551398550e+000	 1.013083789583408e+001
 1.407187908303436e+000	 2.217928396934077e+000	 1.004954793453863e+001
 1.382915081106392e+000	 2.233143597586459e+000	 9.961529107098654e+000
 1.358508733406175e+000	 2.248074452262729e+000	 9.866002301374047e+000
 1.333973776940951e+000	 2.262719370855698e+000	 9.762120712773092e+000
 1.309315143844457e+000	 2.277076874483293e+000	 9.658167660049445e+000
 1.284537783556399e+000	 2.291145595626142e+000	 9.562744474640621e+000
 1.541876145608268e+000	 2.159353715450340e+000	 1.041164289274454e+001
 1.518104746197447e+000	 2.176131553747041e+000	 1.035366421056504e+001
 1.494174081133418e+000	 2.192631863644929e+000	 1.029171141691376e+001
 1.470088962116304e+000	 2.208852482821807e+000	 1.022522992713307e+001
 1.445854237067409e+000	 2.224791359063059e+000	 1.015359933030589e+001
 1.421474787016904e+000	 2.240446550919154e+000	 1.007612804660341e+001
 1.396955522981841e+000	 2.255816228258888e+000	 9.992049062654612e+000
 1.372301382838444e+000	 2.270898672718448e+000	 9.900516799906241e+000
 1.347517328192726e+000	 2.285692278046610e+000	 9.800605160487294e+000
 1.322608341253345e+000	 2.300195550346515e+000	 9.693281635485851e+000
 1.297579421710628e+000	 2.314407108214644e+000	 9.593137367953059e+000
 1.557373147515461e+000	 2.181056826131934e+000	 1.041836082187411e+001
 1.533362827862384e+000	 2.198003294180702e+000	 1.036309970523531e+001
 1.509191641817784e+000	 2.214669444463932e+000	 1.030389230883019e+001
 1.484864449442972e+000	 2.231053092926468e+000	 1.024022723649039e+001
 1.460386147384479e+000	 2.247152166727390e+000	 1.017151605466871e+001
 1.435761665730482e+000	 2.262964704904139e+000	 1.009708732801105e+001
 1.410995964857420e+000	 2.278488858931313e+000	 1.001618182297951e+001
 1.386094032270866e+000	 2.293722893174245e+000	 9.927948939216236e+000
 1.361060879444679e+000	 2.308665185237677e+000	 9.831444417161828e+000
 1.335901538662437e+000	 2.323314226209955e+000	 9.725629358910906e+000
 1.310621059865092e+000	 2.337668620803414e+000	 9.618721314827324e+000
 1.572870149422705e+000	 2.202759936813131e+000	 1.042286339695155e+001
 1.548620909527387e+000	 2.219875034613992e+000	 1.037008609610376e+001
 1.524209202502237e+000	 2.236707025282611e+000	 1.031318361619844e+001
 1.499639936769747e+000	 2.253253703030858e+000	 1.025174718349789e+001
 1.474918057701679e+000	 2.269512974391513e+000	 1.018528005320653e+001
 1.450048544444212e+000	 2.285482858888984e+000	 1.011319075774163e+001
 1.425036406733176e+000	 2.301161489603666e+000	 1.003478761747331e+001
 1.399886681703489e+000	 2.316547113630037e+000	 9.949274578911981e+000
 1.374604430696857e+000	 2.331638092428801e+000	 9.855748433387610e+000
 1.349194736071777e+000	 2.346432902073507e+000	 9.753197456943543e+000
 1.323662698019824e+000	 2.360930133392335e+000	 9.642301044625645e+000
 1.588367151330017e+000	 2.224463047493960e+000	 1.042568481634511e+001
 1.563878991192479e+000	 2.241746775046933e+000	 1.037512514285869e+001
 1.539226763186804e+000	 2.258744606100968e+000	 1.032008308007018e+001
 1.514415424096663e+000	 2.275454313134967e+000	 1.026031029898605e+001
 1.489449968019049e+000	 2.291873782055399e+000	 1.019545980155493e+001
 1.464335423158140e+000	 2.308001012873640e+000	 1.012507821532564e+001
 1.439076848609157e+000	 2.323834120275879e+000	 1.004859944956521e+001
 1.413679331136361e+000	 2.339371334085742e+000	 9.965339783684824e+000
 1.388147981949305e+000	 2.354610999619884e+000	 9.874494446086610e+000
 1.362487933481405e+000	 2.369551577937059e+000	 9.775135728390758e+000
 1.336704336174856e+000	 2.384191645981290e+000	 9.666212666546336e+000
 1.603864153237414e+000	 2.246166158174458e+000	 1.042724009700241e+001
 1.579137072857684e+000	 2.263618515479547e+000	 1.037860053060383e+001
 1.554244323871514e+000	 2.280782186919011e+000	 1.032497060758776e+001
 1.529190911423754e+000	 2.297654923238781e+000	 1.026631874559492e+001
 1.503981878336627e+000	 2.314234589719017e+000	 1.020250418910839e+001
 1.478622301872309e+000	 2.330519166858057e+000	 1.013326818322380e+001
 1.453117290485408e+000	 2.346506750947888e+000	 1.005822661263144e+001
 1.427471980569528e+000	 2.362195554541273e+000	 9.976864183118838e+000
 1.401691533202069e+000	 2.377583906810825e+000	 9.888530209327419e+000
 1.375781130891361e+000	 2.392670253800501e+000	 9.792436058465434e+000
 1.349745974330221e+000	 2.407453158570164e+000	 9.687654285321102e+000
 1.619361155144911e+000	 2.267869268854655e+000	 1.042783034439626e+001
 1.594395154523023e+000	 2.285490255911854e+000	 1.038078276456001e+001
 1.569261884556395e+000	 2.302819767736746e+000	 1.032811283477254e+001
 1.543966398751055e+000	 2.319855533342289e+000	 1.027006058909721e+001
 1.518513788654454e+000	 2.336595397382336e+000	 1.020674653641327e+001
 1.492909180586763e+000	 2.353037320842188e+000	 1.013816154488178e+001
 1.467157732361976e+000	 2.369179381619624e+000	 1.006415830032909e+001
 1.441264630003040e+000	 2.385019774996548e+000	 9.984444422921708e+000
 1.415235084455194e+000	 2.400556814001531e+000	 9.898577312048346e+000
 1.389074328301687e+000	 2.415788929663724e+000	 9.805960774371384e+000
 1.362787612485953e+000	 2.430714671158838e+000	 9.705843474699240e+000
 1.634858157052526e+000	 2.289572379534584e+000	 1.042764808647895e+001
 1.609653236188518e+000	 2.307361996343875e+000	 1.038183413864954e+001
 1.584279445241475e+000	 2.324857348554177e+000	 1.032966777047014e+001
 1.558741886078600e+000	 2.342056143445480e+000	 1.027171415574784e+001
 1.533045698972569e+000	 2.358956205045327e+000	 1.020840870124517e+001
 1.507196059301545e+000	 2.375555474825982e+000	 1.014004547211047e+001
 1.481198174238908e+000	 2.391852012291019e+000	 1.006676730507972e+001
 1.455057279436942e+000	 2.407843995451483e+000	 9.988557701510981e+000
 1.428778635708728e+000	 2.423529721191897e+000	 9.905234576920512e+000
 1.402367525712424e+000	 2.438907605526619e+000	 9.816445927770138e+000
 1.375829250642081e+000	 2.453976183747196e+000	 9.721667459944809e+000
 1.650355158960276e+000	 2.311275490214281e+000	 1.042678266743872e+001
 1.624911317854192e+000	 2.329233736775629e+000	 1.038181377310758e+001
 1.599297005926782e+000	 2.346894929371312e+000	 1.032968951611968e+001
 1.573517373406423e+000	 2.364256753548344e+000	 1.027135247000544e+001
 1.547577609291011e+000	 2.381317012707963e+000	 1.020760526754094e+001
 1.521482938016701e+000	 2.398073628809392e+000	 1.013909739592101e+001
 1.495238616116251e+000	 2.414524642962007e+000	 1.006631379890966e+001
 1.468849928871284e+000	 2.430668215905993e+000	 9.989565386345863e+000
 1.442322186962715e+000	 2.446502628381830e+000	 9.908981535017365e+000
 1.415660723123613e+000	 2.462026281389075e+000	 9.824504647975923e+000
 1.388870888798642e+000	 2.477237696335122e+000	 9.735886822005437e+000
 1.665852160868179e+000	 2.332978600893775e+000	 1.042522569736290e+001
 1.640169399520067e+000	 2.351105477207141e+000	 1.038068271662472e+001
 1.614314566612346e+000	 2.368932510188156e+000	 1.032813305640823e+001
 1.588292860734558e+000	 2.386457363650868e+000	 1.026894776739209e+001
 1.562109519609820e+000	 2.403677820370209e+000	 1.020434781178938e+001
 1.535769816732273e+000	 2.420591782792370e+000	 1.013538905538024e+001
 1.509279057994052e+000	 2.437197273632522e+000	 1.006294919128332e+001
 1.482642578306111e+000	 2.453492436359996e+000	 9.987716704809959e+000
 1.455865738217200e+000	 2.469475535571230e+000	 9.910181971354959e+000
 1.428953920535294e+000	 2.485144957250983e+000	 9.830630561273432e+000
 1.401912526955667e+000	 2.500499208922499e+000	 9.749138807223027e+000
 1.271496145402372e+000	 2.267884083038025e+000	 9.524529533101497e+000
 1.246861439865192e+000	 2.281520849728122e+000	 9.435086111488362e+000
 1.222119083064165e+000	 2.294869477818497e+000	 9.347362205412672e+000
 1.197274006442202e+000	 2.307928946488350e+000	 9.261135653279334e+000
 1.172331146418369e+000	 2.320698344647250e+000	 9.176245454665361e+000
 1.147295441416841e+000	 2.333176870580241e+000	 9.092613060740195e+000
 1.122171828923650e+000	 2.345363831499277e+000	 9.010261085930445e+000
 1.096965242574563e+000	 2.357258643002612e+000	 8.929329292450639e+000
 1.071680609277310e+000	 2.368860828443987e+000	 8.850087726826580e+000
 1.046322846371299e+000	 2.380170018213485e+000	 8.772946915482633e+000
 1.020896858827830e+000	 2.391185948932115e+000	 8.698465054596831e+000
 1.284537783556399e+000	 2.291145595626142e+000	 9.562744474640622e+000
 1.259650401739495e+000	 2.304922233583134e+000	 9.472666491386477e+000
 1.234654264488093e+000	 2.318407777524915e+000	 9.385694302934789e+000
 1.209554353826513e+000	 2.331601196160211e+000	 9.301329915389806e+000
 1.184355656806279e+000	 2.344501569053610e+000	 9.219155630670532e+000
 1.159063162504583e+000	 2.357108086267037e+000	 9.138857757138082e+000
 1.133681859050856e+000	 2.369420047906573e+000	 9.060247510127626e+000
 1.108216730684771e+000	 2.381436863576317e+000	 8.983278941502572e+000
 1.082672754848956e+000	 2.393158051741090e+000	 8.908063766871258e+000
 1.057054899319571e+000	 2.404583238999920e+000	 8.834882989103832e+000
 1.031368119377818e+000	 2.415712159272363e+000	 8.764195246989774e+000
 1.297579421710628e+000	 2.314407108214644e+000	 9.593137367953061e+000
 1.272439363614045e+000	 2.328323617438562e+000	 9.500397648693397e+000
 1.247189445912312e+000	 2.341946077231757e+000	 9.412501736165153e+000
 1.221834701211165e+000	 2.355273445832486e+000	 9.328608507620544e+000
 1.196380167194577e+000	 2.368304793460358e+000	 9.247978194927965e+000
 1.170830883592758e+000	 2.381039301954176e+000	 9.169998767976884e+000
 1.145191889178537e+000	 2.393476264314158e+000	 9.094209260571061e+000
 1.119468218795488e+000	 2.405615084150246e+000	 9.020319864507815e+000
 1.093664900421135e+000	 2.417455275038343e+000	 8.948228649199491e+000
 1.067786952268393e+000	 2.428996459786429e+000	 8.878034796364688e+000
 1.041839379928356e+000	 2.440238369612607e+000	 8.810048271715123e+000
 1.310621059865092e+000	 2.337668620803414e+000	 9.618721314827324e+000
 1.285228325488860e+000	 2.351725001294286e+000	 9.521488476059320e+000
 1.259724627336829e+000	 2.365484376938910e+000	 9.431183141108408e+000
 1.234115048596146e+000	 2.378945695505065e+000	 9.346553732811818e+000
 1.208404677583233e+000	 2.392108017867391e+000	 9.266473076943623e+000
 1.182598604681320e+000	 2.404970517641572e+000	 9.189967718300261e+000
 1.156701919306625e+000	 2.417532480721959e+000	 9.116243915213106e+000
 1.130719706906629e+000	 2.429793304724341e+000	 9.044710123817060e+000
 1.104657045993749e+000	 2.441752498335712e+000	 8.974995817322157e+000
 1.078519005217652e+000	 2.453409680572995e+000	 8.906966520005167e+000
 1.052310640479326e+000	 2.464764579952846e+000	 8.840734970355880e+000
 1.323662698019824e+000	 2.360930133392335e+000	 9.642301044625645e+000
 1.298017287363962e+000	 2.375126385150190e+000	 9.538958801302785e+000
 1.272259808761648e+000	 2.389022676646254e+000	 9.444967236622322e+000
 1.246395395981444e+000	 2.402617945177838e+000	 9.358596822030343e+000
 1.220429187972218e+000	 2.415911242274609e+000	 9.278267537918186e+000
 1.194366325770216e+000	 2.428901733329134e+000	 9.202581389975110e+000
 1.168211949435054e+000	 2.441588697129901e+000	 9.130351322677690e+000
 1.141971195018111e+000	 2.453971525298550e+000	 9.060626325892571e+000
 1.115649191566700e+000	 2.466049721633156e+000	 8.992712566873767e+000
 1.089251058167239e+000	 2.477822901359597e+000	 8.926190416833929e+000
 1.062781901030611e+000	 2.489290790293080e+000	 8.860927278441682e+000
 1.336704336174856e+000	 2.384191645981290e+000	 9.666212666546336e+000
 1.310806249239370e+000	 2.398527769006154e+000	 9.555617722629936e+000
 1.284794990186778e+000	 2.412560976353672e+000	 9.456892051464680e+000
 1.258675743367047e+000	 2.426290194850694e+000	 9.367998058930589e+000
 1.232453698361500e+000	 2.439714466681910e+000	 9.286837199303365e+000
 1.206134046859400e+000	 2.452832949016774e+000	 9.211523662727680e+000
 1.179721979563755e+000	 2.465644913537913e+000	 9.140416465477355e+000
 1.153222683129849e+000	 2.478149745872810e+000	 9.072147417835090e+000
 1.126641337139889e+000	 2.490346944930636e+000	 9.005644788018524e+000
 1.099983111117046e+000	 2.502236122146217e+000	 8.940152520044034e+000
 1.073253161582096e+000	 2.513817000633315e+000	 8.875244903178071e+000
 1.349745974330221e+000	 2.407453158570164e+000	 9.687654285321106e+000
 1.323595211115106e+000	 2.421929152862056e+000	 9.574042015441439e+000
 1.297330171612221e+000	 2.436099276061050e+000	 9.469784214901237e+000
 1.270956090752944e+000	 2.449962444523522e+000	 9.377826959363974e+000
 1.244478208751050e+000	 2.463517691089195e+000	 9.295487117834753e+000
 1.217901767948820e+000	 2.476764164704405e+000	 9.220327492254315e+000
 1.191232009692661e+000	 2.489701129945918e+000	 9.150192350100829e+000
 1.164474171241759e+000	 2.502327966447070e+000	 9.083238499606438e+000
 1.137633482713217e+000	 2.514644168228116e+000	 9.017961711244071e+000
 1.110715164066960e+000	 2.526649342932837e+000	 8.953218331304623e+000
 1.083724422133662e+000	 2.538343210973550e+000	 8.888241975875754e+000
 1.362787612485953e+000	 2.430714671158838e+000	 9.705843474699240e+000
 1.336384172991191e+000	 2.445330536717780e+000	 9.596342495275470e+000
 1.309865353037983e+000	 2.459637575768267e+000	 9.486238306618382e+000
 1.283236438139122e+000	 2.473634694196211e+000	 9.390942502537293e+000
 1.256502719140836e+000	 2.487320915496360e+000	 9.307332903929927e+000
 1.229669489038429e+000	 2.500695380391936e+000	 9.232356922925051e+000
 1.202742039821704e+000	 2.513757346353843e+000	 9.163282922173172e+000
 1.175725659353757e+000	 2.526506187021271e+000	 9.097734650900399e+000
 1.148625628286586e+000	 2.538941391525559e+000	 9.033720656315932e+000
 1.121447217016874e+000	 2.551062563719440e+000	 8.969658503312664e+000
 1.094195682685192e+000	 2.562869421313786e+000	 8.904393680775115e+000
 1.375829250642081e+000	 2.453976183747196e+000	 9.721667459944808e+000
 1.349173134867645e+000	 2.468731920573207e+000	 9.619353476176618e+000
 1.322400534464071e+000	 2.483175875475210e+000	 9.508596262007670e+000
 1.295516785525570e+000	 2.497306943868649e+000	 9.409973410301173e+000
 1.268527229530830e+000	 2.511124139903305e+000	 9.325281880575529e+000
 1.241437210128177e+000	 2.524626596079280e+000	 9.250789132785149e+000
 1.214252069950818e+000	 2.537813562761620e+000	 9.183126005025502e+000
 1.186977147465758e+000	 2.550684407595357e+000	 9.119324771689236e+000
 1.159617773859896e+000	 2.563238614822923e+000	 9.056851784184069e+000
 1.132179269966677e+000	 2.575475784506003e+000	 8.993634513440297e+000
 1.104666943236571e+000	 2.587395631654025e+000	 8.928082861832685e+000
 1.388870888798642e+000	 2.477237696335122e+000	 9.735886822005437e+000
 1.361962096744488e+000	 2.492133304428215e+000	 9.641986235209426e+000
 1.334935715890488e+000	 2.506714175181758e+000	 9.538863008354371e+000
 1.307797132912276e+000	 2.520979193540728e+000	 9.437298471407257e+000
 1.280551739921000e+000	 2.534927364309929e+000	 9.352014280043996e+000
 1.253204931218015e+000	 2.548557811766348e+000	 9.278596508734188e+000
 1.225762100079934e+000	 2.561869779169168e+000	 9.212976260138021e+000
 1.198228635577678e+000	 2.574862628169270e+000	 9.151535435548514e+000
 1.170609919433050e+000	 2.587535838120172e+000	 9.091142851648803e+000
 1.142911322916260e+000	 2.599889005292512e+000	 9.029184329062179e+000
 1.115138203787681e+000	 2.611921841994268e+000	 8.963586608919314e+000
 1.401912526955667e+000	 2.500499208922499e+000	 9.749138807223027e+000
 1.374751058621742e+000	 2.515534688282688e+000	 9.665030862997353e+000
 1.347470897317242e+000	 2.530252474887798e+000	 9.574065330953539e+000
 1.320077480299228e+000	 2.544651443212336e+000	 9.475026907808235e+000
 1.292576250311316e+000	 2.558730588716131e+000	 9.389964475978564e+000
 1.264972652307893e+000	 2.572489027453051e+000	 9.318528749918954e+000
 1.237272130208986e+000	 2.585925995576417e+000	 9.255888168031417e+000
 1.209480123689433e+000	 2.599040848742956e+000	 9.197714754929310e+000
 1.181602065005949e+000	 2.611833061417270e+000	 9.140223968607081e+000
 1.153643375865511e+000	 2.624302226078947e+000	 9.080208065106739e+000
 1.125609464338406e+000	 2.636448052334516e+000	 9.015062824771057e+000
 1.020896858827830e+000	 2.391185948932115e+000	 8.698465054596827e+000
 9.954037084134920e-001	 2.401910049395444e+000	 8.627179367363466e+000
 9.698520796365818e-001	 2.412340592915415e+000	 8.558409081978596e+000
 9.442468273696867e-001	 2.422477631056949e+000	 8.491023086567548e+000
 9.185927833090082e-001	 2.432321317635803e+000	 8.424064435499449e+000
 8.928947534162468e-001	 2.441871907512629e+000	 8.356734940490112e+000
 8.671575154167843e-001	 2.451129755315018e+000	 8.288387365912522e+000
 8.413858163563170e-001	 2.460095314090223e+000	 8.218514829663134e+000
 8.155843702179720e-001	 2.468769133891297e+000	 8.146737545301109e+000
 7.897578556018043e-001	 2.477151860299458e+000	 8.072787061427512e+000
 7.639109134684247e-001	 2.485244232885506e+000	 7.996488172766335e+000
 1.031368119377818e+000	 2.415712159272363e+000	 8.764195246989775e+000
 1.005613487680731e+000	 2.426546256009037e+000	 8.696418166426168e+000
 9.797997778129447e-001	 2.437083784811378e+000	 8.630779528024688e+000
 9.539318944431129e-001	 2.447324797773200e+000	 8.566146844705386e+000
 9.280147188257829e-001	 2.457269450287938e+000	 8.501593667016733e+000
 9.020531062170464e-001	 2.466917999830329e+000	 8.436385068114717e+000
 8.760518833470560e-001	 2.476270804665348e+000	 8.369969377153977e+000
 8.500158459516012e-001	 2.485328322487115e+000	 8.301966858096961e+000
 8.239497563647820e-001	 2.494091108990540e+000	 8.232155478698354e+000
 7.978583411747026e-001	 2.502559816378510e+000	 8.160453936239875e+000
 7.717462889439609e-001	 2.510735191807548e+000	 8.086902126541691e+000
 1.041839379928356e+000	 2.440238369612607e+000	 8.810048271715120e+000
 1.015823266948505e+000	 2.451182462622545e+000	 8.744550219336324e+000
 9.897474759898185e-001	 2.461826976707176e+000	 8.680668259513729e+000
 9.636169615170168e-001	 2.472171964489210e+000	 8.617338016691695e+000
 9.374366543429982e-001	 2.482217582939757e+000	 8.553688874864431e+000
 9.112114590182460e-001	 2.491964092147640e+000	 8.489087676853258e+000
 8.849462512776898e-001	 2.501411854015221e+000	 8.423118470138666e+000
 8.586458755472132e-001	 2.510561330883490e+000	 8.355570403040874e+000
 8.323151425118923e-001	 2.519413084089207e+000	 8.286422446148086e+000
 8.059588267478868e-001	 2.527967772456936e+000	 8.215825116716735e+000
 7.795816644197812e-001	 2.536226150728919e+000	 8.144079405255114e+000
 1.052310640479326e+000	 2.464764579952846e+000	 8.840734970355880e+000
 1.026033046216697e+000	 2.475818669235988e+000	 8.776393175601545e+000
 9.996951741670866e-001	 2.486570168602849e+000	 8.713019389637763e+000
 9.733020285912875e-001	 2.497019131205038e+000	 8.649613035478415e+000
 9.468585898605494e-001	 2.507165715591338e+000	 8.585407683196921e+000
 9.203698118197512e-001	 2.517010184464658e+000	 8.519909457690536e+000
 8.938406192086004e-001	 2.526552903364751e+000	 8.452877436766199e+000
 8.672759051430791e-001	 2.535794339279474e+000	 8.384310704805971e+000
 8.406805286592407e-001	 2.544735059187440e+000	 8.314431952166162e+000
 8.140593123213008e-001	 2.553375728534892e+000	 8.243667809740900e+000
 7.874170398958365e-001	 2.561717109649788e+000	 8.172626131222499e+000
 1.062781901030611e+000	 2.489290790293080e+000	 8.860927278441682e+000
 1.036242825485187e+000	 2.500454875849389e+000	 8.796774877158203e+000
 1.009642872344632e+000	 2.511313360498441e+000	 8.732762118588173e+000
 9.829870956658121e-001	 2.521866297920744e+000	 8.667984811320540e+000
 9.562805253783321e-001	 2.532113848242760e+000	 8.601815164158552e+000
 9.295281646214674e-001	 2.542056276781485e+000	 8.533935093496678e+000
 9.027349871397038e-001	 2.551693952714053e+000	 8.464317174716857e+000
 8.759059347391242e-001	 2.561027347675200e+000	 8.393210794172978e+000
 8.490459148067616e-001	 2.570057034285387e+000	 8.321124552032821e+000
 8.221597978948889e-001	 2.578783684612533e+000	 8.248805117681611e+000
 7.952524153720766e-001	 2.587208068570322e+000	 8.177212764207546e+000
 1.073253161582096e+000	 2.513817000633315e+000	 8.875244903178071e+000
 1.046452604753855e+000	 2.525091082462769e+000	 8.810471368102748e+000
 1.019590570522337e+000	 2.536056552393992e+000	 8.744810537430348e+000
 9.926721627404798e-001	 2.546713464636391e+000	 8.677452219036905e+000
 9.657024608962423e-001	 2.557061980894103e+000	 8.607974191594563e+000
 9.386865174232991e-001	 2.567102369098211e+000	 8.536258439952048e+000
 9.116293550709155e-001	 2.576835002063241e+000	 8.462528653991146e+000
 8.845359643352754e-001	 2.586260356070796e+000	 8.387324200690445e+000
 8.574113009543914e-001	 2.595379009383189e+000	 8.311481255839890e+000
 8.302602834685960e-001	 2.604191640690019e+000	 8.236110090142793e+000
 8.030877908484519e-001	 2.612699027490689e+000	 8.162568750890630e+000
 1.083724422133662e+000	 2.538343210973550e+000	 8.888241975875754e+000
 1.056662384022583e+000	 2.549727289076148e+000	 8.822207231563180e+000
 1.029538268700084e+000	 2.560799744289543e+000	 8.754006012861916e+000
 1.002357229815177e+000	 2.571560631352037e+000	 8.682989517407670e+000
 9.751243964141757e-001	 2.582010113545447e+000	 8.608935715189977e+000
 9.478448702251516e-001	 2.592148461414938e+000	 8.531973616570484e+000
 9.205237230021511e-001	 2.601976051412428e+000	 8.452614784681606e+000
 8.931659939314584e-001	 2.611493364466390e+000	 8.371727554881041e+000
 8.657766871020662e-001	 2.620700984480991e+000	 8.290516820748625e+000
 8.383607690423656e-001	 2.629599596767504e+000	 8.210499659921565e+000
 8.109231663249130e-001	 2.638189986411056e+000	 8.133477056320318e+000
 1.094195682685192e+000	 2.562869421313786e+000	 8.904393680775113e+000
 1.066872163291252e+000	 2.574363495689549e+000	 8.836643157832700e+000
 1.039485966877756e+000	 2.585542936185134e+000	 8.765176852654220e+000
 1.012042296889793e+000	 2.596407798067745e+000	 8.689547981464635e+000
 9.845463319320278e-001	 2.606958246196870e+000	 8.609728960366516e+000
 9.570032230269305e-001	 2.617194553731764e+000	 8.526166013844220e+000
 9.294180909333261e-001	 2.627117100761730e+000	 8.439682192594116e+000
 9.017960235275987e-001	 2.636726372862115e+000	 8.351513091466430e+000
 8.741420732497214e-001	 2.646022959578938e+000	 8.263272938946397e+000
 8.464612546161421e-001	 2.655007552845147e+000	 8.176928470932744e+000
 8.187585418014102e-001	 2.663680945331590e+000	 8.094768585254737e+000
 1.104666943236571e+000	 2.587395631654025e+000	 8.928082861832689e+000
 1.077081942559741e+000	 2.598999702302993e+000	 8.858363477108032e+000
 1.049433665055237e+000	 2.610286128080809e+000	 8.783077920203141e+000
 1.021727363964214e+000	 2.621254964783572e+000	 8.701994701357377e+000
 9.939682674496941e-001	 2.631906378848451e+000	 8.615351558863987e+000
 9.661615758285405e-001	 2.642240646048783e+000	 8.523903222075399e+000
 9.383124588643562e-001	 2.652258150111261e+000	 8.428832908831513e+000
 9.104260531236235e-001	 2.661959381258100e+000	 8.331781060175775e+000
 8.825074593972930e-001	 2.671344934677172e+000	 8.235593986294267e+000
 8.545617401898695e-001	 2.680415508923102e+000	 8.147201870135717e+000
 8.265939172778938e-001	 2.689171904252460e+000	 8.069450237978243e+000
 1.115138203787681e+000	 2.611921841994268e+000	 8.963586608919313e+000
 1.087291721827932e+000	 2.623635908916500e+000	 8.891863659160606e+000
 1.059381363232407e+000	 2.635029319976607e+000	 8.812391571323465e+000
 1.031412431038330e+000	 2.646102131499581e+000	 8.725179744241945e+000
 1.003390202967071e+000	 2.656854511500270e+000	 8.630759614562876e+000
 9.753199286298868e-001	 2.667286738366093e+000	 8.530237612155156e+000
 9.472068267951563e-001	 2.677399199461133e+000	 8.429152912556345e+000
 9.190560827194577e-001	 2.687192389654475e+000	 8.332560622235052e+000
 8.908728455447166e-001	 2.696666909775838e+000	 8.242472510887811e+000
 8.626622257634922e-001	 2.705823465001527e+000	 8.161020277104248e+000
 8.344292927543137e-001	 2.714662863173830e+000	 8.090422290477481e+000
 1.125609464338406e+000	 2.636448052334516e+000	 9.015062824771061e+000
 1.097501501095708e+000	 2.648272115530094e+000	 8.941537782094660e+000
 1.069329061409152e+000	 2.659772511872570e+000	 8.857715998174648e+000
 1.041097498112028e+000	 2.670949298215834e+000	 8.764429676293666e+000
 1.012812138484053e+000	 2.681802644152406e+000	 8.668212897759991e+000
 9.844782814308749e-001	 2.692332830683794e+000	 8.572044897246169e+000
 9.561011947256430e-001	 2.702540248811464e+000	 8.477778601375375e+000
 9.276861123150281e-001	 2.712425398051369e+000	 8.387428190164151e+000
 8.992382316919289e-001	 2.721988884875083e+000	 8.303180675449287e+000
 8.707627113369547e-001	 2.731231421080581e+000	 8.227347544995798e+000
 8.422646682306207e-001	 2.740153822095873e+000	 8.162331491622004e+000
 7.639109134684247e-001	 2.485244232885506e+000	 7.996488172766335e+000
 7.380481445792873e-001	 2.493047082992633e+000	 7.919462461750345e+000
 7.121741063034353e-001	 2.500561330227558e+000	 7.843622060224669e+000
 6.862933117354153e-001	 2.507787982628420e+000	 7.769305809987124e+000
 6.604102280884718e-001	 2.514728135537550e+000	 7.697185839071736e+000
 6.345292747799888e-001	 2.521382969806464e+000	 7.633828556813901e+000
 6.086548215885872e-001	 2.527753749957561e+000	 7.578154961400298e+000
 5.827911868836834e-001	 2.533841822305532e+000	 7.525865965571983e+000
 5.569426359281881e-001	 2.539648613041488e+000	 7.473108860036109e+000
 5.311133792549037e-001	 2.545175626282792e+000	 7.416409546210633e+000
 5.053075711170251e-001	 2.550424442091569e+000	 7.352594086082378e+000
 7.717462889439609e-001	 2.510735191807548e+000	 8.086902126541691e+000
 7.456182476236746e-001	 2.518618075147865e+000	 8.013283655417528e+000
 7.194788213274722e-001	 2.526209395438529e+000	 7.940948132196559e+000
 6.933325694403606e-001	 2.533510171057052e+000	 7.869401799780813e+000
 6.671840049954464e-001	 2.540521508580616e+000	 7.798181210770299e+000
 6.410375927397362e-001	 2.547244600972648e+000	 7.732028173855751e+000
 6.148977472723328e-001	 2.553680725725668e+000	 7.673139339740124e+000
 5.887688312558331e-001	 2.559831242963416e+000	 7.617019820271075e+000
 5.626551537016211e-001	 2.565697593505348e+000	 7.559734757979220e+000
 5.365609683296077e-001	 2.571281296896450e+000	 7.497832194249048e+000
 5.104904720028426e-001	 2.576583949405427e+000	 7.428252299808366e+000
 7.795816644197812e-001	 2.536226150728919e+000	 8.144079405255114e+000
 7.531883506683611e-001	 2.544189067302395e+000	 8.073081625407154e+000
 7.267835363518351e-001	 2.551857460648769e+000	 8.003636034477818e+000
 7.003718271456699e-001	 2.559232359484935e+000	 7.934563803865907e+000
 6.739577819028284e-001	 2.566314881622927e+000	 7.864742526878692e+000
 6.475459106999372e-001	 2.573106232138085e+000	 7.796291509355121e+000
 6.211406729565766e-001	 2.579607701493043e+000	 7.734779196474575e+000
 5.947464756285221e-001	 2.585820663620601e+000	 7.676270183899371e+000
 5.683676714756254e-001	 2.591746573968552e+000	 7.617000964800532e+000
 5.420085574049048e-001	 2.597386967509508e+000	 7.553802910219830e+000
 5.156733728892596e-001	 2.602743456718761e+000	 7.483997957537004e+000
 7.874170398958365e-001	 2.561717109649788e+000	 8.172626131222499e+000
 7.607584537132998e-001	 2.569760059456395e+000	 8.103283026813891e+000
 7.340882513764792e-001	 2.577505525858459e+000	 8.035929128738278e+000
 7.074110848512961e-001	 2.584954547912257e+000	 7.968845287556960e+000
 6.807315588105687e-001	 2.592108254664673e+000	 7.900395967801912e+000
 6.540542286605390e-001	 2.598967863302960e+000	 7.830526236605373e+000
 6.273835986412624e-001	 2.605534677259869e+000	 7.766773919706873e+000
 6.007241200016894e-001	 2.611810084277258e+000	 7.707026834191509e+000
 5.740801892501380e-001	 2.617795554431263e+000	 7.647950686454822e+000
 5.474561464807286e-001	 2.623492638122118e+000	 7.586926369990807e+000
 5.208562737762096e-001	 2.628902964031701e+000	 7.521930839243018e+000
 7.952524153720766e-001	 2.587208068570322e+000	 8.177212764207546e+000
 7.683285567584447e-001	 2.595331051610042e+000	 8.108386258685973e+000
 7.413929664013588e-001	 2.603153591067784e+000	 8.042148341471297e+000
 7.144503425571933e-001	 2.610676736339205e+000	 7.976381658634891e+000
 6.875053357186182e-001	 2.617901627706041e+000	 7.909080887282562e+000
 6.605625466214887e-001	 2.624829494467460e+000	 7.838706757723170e+000
 6.336265243263337e-001	 2.631461653026330e+000	 7.772921672608685e+000
 6.067017643752751e-001	 2.637799504933566e+000	 7.712824935496739e+000
 5.797927070250946e-001	 2.643844534893646e+000	 7.655774050836140e+000
 5.529037355570139e-001	 2.649598308734429e+000	 7.599971009955667e+000
 5.260391746636258e-001	 2.655062471344380e+000	 7.544327026161571e+000
 8.030877908484519e-001	 2.612699027490689e+000	 8.162568750890630e+000
 7.758986598037490e-001	 2.620902043763512e+000	 8.092956691093248e+000
 7.486976814264280e-001	 2.628801656276926e+000	 8.026687974678994e+000
 7.214896002633143e-001	 2.636398924765966e+000	 7.961386660316133e+000
 6.942791126269274e-001	 2.643695000747222e+000	 7.894818628675008e+000
 6.670708645827340e-001	 2.650691125631771e+000	 7.824857441303550e+000
 6.398694500117332e-001	 2.657388628792607e+000	 7.757106126643262e+000
 6.126794087492188e-001	 2.663788925589698e+000	 7.697313612970799e+000
 5.855052248004320e-001	 2.669893515355864e+000	 7.643946006778153e+000
 5.583513246336941e-001	 2.675703979346590e+000	 7.596574593689145e+000
 5.312220755514417e-001	 2.681221978656926e+000	 7.554058519751862e+000
 8.109231663249130e-001	 2.638189986411056e+000	 8.133477056320318e+000
 7.834687628491668e-001	 2.646473035916982e+000	 8.061621771963285e+000
 7.560023964516420e-001	 2.654449721486068e+000	 7.994011392576607e+000
 7.285288579696130e-001	 2.662121113192726e+000	 7.928148635357733e+000
 7.010528895354476e-001	 2.669488373788401e+000	 7.861940717242501e+000
 6.735791825442224e-001	 2.676552756796084e+000	 7.795139689667735e+000
 6.461123756974059e-001	 2.683315604558885e+000	 7.729908944235020e+000
 6.186570531234599e-001	 2.689778346245831e+000	 7.675033678505874e+000
 5.912177425760863e-001	 2.695942495818081e+000	 7.628935155444896e+000
 5.637989137107039e-001	 2.701809649958751e+000	 7.590335166907115e+000
 5.364049764395906e-001	 2.707381485969473e+000	 7.558606652108004e+000
 8.187585418014102e-001	 2.663680945331590e+000	 8.094768585254737e+000
 7.910388658946517e-001	 2.672044028070630e+000	 8.020069435917350e+000
 7.633071114769551e-001	 2.680097786695394e+000	 7.954738841040871e+000
 7.355681156760424e-001	 2.687843301619675e+000	 7.895484158428176e+000
 7.078266664441294e-001	 2.695281746829770e+000	 7.838688796372129e+000
 6.800875005059012e-001	 2.702414387960583e+000	 7.780725419181255e+000
 6.523553013832940e-001	 2.709242580325346e+000	 7.720417627844523e+000
 6.246346974979380e-001	 2.715767766902138e+000	 7.668654669064705e+000
 5.969302603519940e-001	 2.721991476280464e+000	 7.626157968369236e+000
 5.692465027879767e-001	 2.727915320571062e+000	 7.592383544894440e+000
 5.415878773280060e-001	 2.733540993282151e+000	 7.567443170397071e+000
 8.265939172778938e-001	 2.689171904252460e+000	 8.069450237978243e+000
 7.986089689401570e-001	 2.697615020224630e+000	 8.003690309379691e+000
 7.706118265023212e-001	 2.705745851905084e+000	 7.947267414211639e+000
 7.426073733825566e-001	 2.713565490046997e+000	 7.896273554562495e+000
 7.146004433529239e-001	 2.721075119871516e+000	 7.846819962459517e+000
 6.865958184677173e-001	 2.728276019125458e+000	 7.795024171111972e+000
 6.585982270693412e-001	 2.735169556092173e+000	 7.737821762196406e+000
 6.306123418725927e-001	 2.741757187558796e+000	 7.686009255346739e+000
 6.026427781280914e-001	 2.748040456743174e+000	 7.643761894974215e+000
 5.746940918654472e-001	 2.754020991183672e+000	 7.611329376410016e+000
 5.467707782166210e-001	 2.759700500595091e+000	 7.589615671126129e+000
 8.344292927543137e-001	 2.714662863173830e+000	 8.090422290477481e+000
 8.061790719856369e-001	 2.723186012379159e+000	 8.031794111553401e+000
 7.779165415276959e-001	 2.731393917115324e+000	 7.981974791215476e+000
 7.496466310891083e-001	 2.739287678474881e+000	 7.936847227263014e+000
 7.213742202617817e-001	 2.746868492913827e+000	 7.892327786141101e+000
 6.931041364296190e-001	 2.754137650290895e+000	 7.844354946328104e+000
 6.648411527554916e-001	 2.761096531859548e+000	 7.788924234733549e+000
 6.365899862473644e-001	 2.767746608215980e+000	 7.734379356433151e+000
 6.083552959043146e-001	 2.774089437206379e+000	 7.689505285055104e+000
 5.801416809430494e-001	 2.780126661796730e+000	 7.655396037536254e+000
 5.519536791053693e-001	 2.785860007908425e+000	 7.633791962540829e+000
 8.422646682306207e-001	 2.740153822095873e+000	 8.162331491622004e+000
 8.137491750310451e-001	 2.748757004534392e+000	 8.109031576976653e+000
 7.852212565530335e-001	 2.757041982326296e+000	 8.063849492665572e+000
 7.566858887956514e-001	 2.765009866903514e+000	 8.022533496505467e+000
 7.281479971706540e-001	 2.772661865956894e+000	 7.980878235872451e+000
 6.996124543915533e-001	 2.779999281457081e+000	 7.934714968221083e+000
 6.710840784416883e-001	 2.787023507627656e+000	 7.879903546178557e+000
 6.425676306221918e-001	 2.793736028873866e+000	 7.820671643564615e+000
 6.140678136806004e-001	 2.800138417670240e+000	 7.770768961246119e+000
 5.855892700207175e-001	 2.806232332410390e+000	 7.732431000902038e+000
 5.571365799941845e-001	 2.812019515222284e+000	 7.708269319682728e+000
 5.053075711170251e-001	 2.550424442091569e+000	 7.352594086082376e+000
 4.795331713038518e-001	 2.555395989676932e+000	 7.282924585724671e+000
 4.537903379149098e-001	 2.560092804066504e+000	 7.210895336657374e+000
 4.280830402778991e-001	 2.564516682315065e+000	 7.136812392138085e+000
 4.024151861583350e-001	 2.568669489165140e+000	 7.060798079580631e+000
 3.767906205842475e-001	 2.572553154955150e+000	 6.982680476154094e+000
 3.512131247447561e-001	 2.576169673513514e+000	 6.901882204337637e+000
 3.256864149621451e-001	 2.579521100041421e+000	 6.817310025720946e+000
 3.002141417369426e-001	 2.582609548986935e+000	 6.727246642313925e+000
 2.747998888654161e-001	 2.585437191913076e+000	 6.629246037400890e+000
 2.494471726288109e-001	 2.588006255362404e+000	 6.520033603539748e+000
 5.104904720028426e-001	 2.576583949405427e+000	 7.428252299808366e+000
 4.844517061535697e-001	 2.581606489772226e+000	 7.351812011804672e+000
 4.584448305029267e-001	 2.586351479026043e+000	 7.271493788862475e+000
 4.324738550916993e-001	 2.590820732653894e+000	 7.187712825912084e+000
 4.065427277670497e-001	 2.595016134524814e+000	 7.100730993667882e+000
 3.806553329951613e-001	 2.598939634776542e+000	 7.010532377165346e+000
 3.548154907485164e-001	 2.602593247688027e+000	 6.916698101686055e+000
 3.290269554674278e-001	 2.605979049540489e+000	 6.818282040452748e+000
 3.032934150953240e-001	 2.609099176469709e+000	 6.713688924351727e+000
 2.776184901871918e-001	 2.611955822312248e+000	 6.600556291047900e+000
 2.520057330904998e-001	 2.614551236448130e+000	 6.475641620271004e+000
 5.156733728892596e-001	 2.602743456718761e+000	 7.483997957537004e+000
 4.893702410038772e-001	 2.607816989867085e+000	 7.408088937006798e+000
 4.630993230915090e-001	 2.612610153985244e+000	 7.328608736205897e+000
 4.368646699060309e-001	 2.617124782992494e+000	 7.246250382167687e+000
 4.106702693762561e-001	 2.621362779884366e+000	 7.161587105501495e+000
 3.845200454065251e-001	 2.625326114597917e+000	 7.074932793427966e+000
 3.584178567526873e-001	 2.629016821862626e+000	 6.986201698920137e+000
 3.323674959730879e-001	 2.632436999039727e+000	 6.894769123283964e+000
 3.063726884540590e-001	 2.635588803952722e+000	 6.799334709994203e+000
 2.804370915093106e-001	 2.638474452711707e+000	 6.697789898730244e+000
 2.545642935525385e-001	 2.641096217534166e+000	 6.587090991471995e+000
 5.208562737762096e-001	 2.628902964031701e+000	 7.521930839243018e+000
 4.942887758547083e-001	 2.634027489961617e+000	 7.453292528266029e+000
 4.677538156805934e-001	 2.638868828944194e+000	 7.383168223092866e+000
 4.412554847208340e-001	 2.643428833330921e+000	 7.312707840643527e+000
 4.147978109858974e-001	 2.647709425243827e+000	 7.242978488075650e+000
 3.883847578182855e-001	 2.651712594419279e+000	 7.174808624240811e+000
 3.620202227572169e-001	 2.655440396037277e+000	 7.108631447170946e+000
 3.357080364790732e-001	 2.658894948539082e+000	 7.044329355025401e+000
 3.094519618130930e-001	 2.662078431435898e+000	 6.981081242722149e+000
 2.832556928317134e-001	 2.664993083111359e+000	 6.917214301288452e+000
 2.571228540148597e-001	 2.667641198620404e+000	 6.849914115992476e+000
 5.260391746636258e-001	 2.655062471344380e+000	 7.544327026161571e+000
 4.992073107059977e-001	 2.660237990055931e+000	 7.489144816507035e+000
 4.724083082701172e-001	 2.665127503902978e+000	 7.436289993389420e+000
 4.456462995360489e-001	 2.669732883669232e+000	 7.387292712875884e+000
 4.189253525959176e-001	 2.674056070603222e+000	 7.342438305536322e+000
 3.922494702303885e-001	 2.678099074240623e+000	 7.301900874344696e+000
 3.656225887620537e-001	 2.681863970211957e+000	 7.265498964305527e+000
 3.390485769853320e-001	 2.685352898038498e+000	 7.232531042292605e+000
 3.125312351723726e-001	 2.688568058919159e+000	 7.201661765378054e+000
 2.860742941543414e-001	 2.691511713511108e+000	 7.170814481954372e+000
 2.596814144773963e-001	 2.694186179706736e+000	 7.137069225958942e+000
 5.312220755514417e-001	 2.681221978656926e+000	 7.554058519751864e+000
 5.041258455576798e-001	 2.686448490150136e+000	 7.515198130943370e+000
 4.770628008600168e-001	 2.691386178861674e+000	 7.479840911647837e+000
 4.500371143516156e-001	 2.696036934007483e+000	 7.448648766002649e+000
 4.230528942062600e-001	 2.700402715962583e+000	 7.422174797238904e+000
 3.961141826427810e-001	 2.704485554061952e+000	 7.400730367637747e+000
 3.692249547671452e-001	 2.708287544386637e+000	 7.384260926484732e+000
 3.423891174918126e-001	 2.711810847537922e+000	 7.372229709513235e+000
 3.156105085318437e-001	 2.715057686402432e+000	 7.363508433197602e+000
 2.888928954771354e-001	 2.718030343910860e+000	 7.356274135406774e+000
 2.622399749400806e-001	 2.720731160793048e+000	 7.347911349496996e+000
 5.364049764395906e-001	 2.707381485969473e+000	 7.558606652108007e+000
 5.090443804096894e-001	 2.712658990244341e+000	 7.531918023761302e+000
 4.817172934502299e-001	 2.717644853820371e+000	 7.509021658505702e+000
 4.544279291674744e-001	 2.722340984345731e+000	 7.490579324229159e+000
 4.271804358168682e-001	 2.726749361321934e+000	 7.477167349210294e+000
 3.999788950554091e-001	 2.730872033883266e+000	 7.469148635420234e+000
 3.728273207724401e-001	 2.734711118561287e+000	 7.466553599950839e+000
 3.457296579984633e-001	 2.738268797037303e+000	 7.468969057062562e+000
 3.186897818914524e-001	 2.741547313885638e+000	 7.475434076984767e+000
 2.917114968000368e-001	 2.744548974310516e+000	 7.484341890041979e+000
 2.647985354028455e-001	 2.747276141879232e+000	 7.493346945017975e+000
 5.415878773280060e-001	 2.733540993282151e+000	 7.567443170397071e+000
 5.139629152619605e-001	 2.738869490338654e+000	 7.548801878131714e+000
 4.863717860406928e-001	 2.743903528779151e+000	 7.533975478840942e+000
 4.588187439835655e-001	 2.748645034684032e+000	 7.523579099293763e+000
 4.313079774276855e-001	 2.753096006681305e+000	 7.518164088056548e+000
 4.038436074682189e-001	 2.757258513704562e+000	 7.518095778452284e+000
 3.764296867778863e-001	 2.761134692735884e+000	 7.523440341651326e+000
 3.490701985052323e-001	 2.764726746536587e+000	 7.533859645389895e+000
 3.217690552511447e-001	 2.768036941368701e+000	 7.548513061462771e+000
 2.945300981229865e-001	 2.771067604709985e+000	 7.565965202161578e+000
 2.673570958656238e-001	 2.773821122965178e+000	 7.584098611251035e+000
 5.467707782166210e-001	 2.759700500595091e+000	 7.589615671126131e+000
 5.188814501144281e-001	 2.765079990433186e+000	 7.575303562130165e+000
 4.910262786313429e-001	 2.770162203738097e+000	 7.564525106639550e+000
 4.632095587998288e-001	 2.774949085022442e+000	 7.557795164383172e+000
 4.354355190386554e-001	 2.779442652040723e+000	 7.555584570600279e+000
 4.077083198811573e-001	 2.783644993525843e+000	 7.558204492923083e+000
 3.800320527834320e-001	 2.787558266910397e+000	 7.565700042289758e+000
 3.524107390120677e-001	 2.791184696035717e+000	 7.577751950097758e+000
 3.248483286108669e-001	 2.794526568851548e+000	 7.593585155762108e+000
 2.973486994459259e-001	 2.797586235109167e+000	 7.611883190733296e+000
 2.699156563283478e-001	 2.800366104050776e+000	 7.630707295866968e+000
 5.519536791053693e-001	 2.785860007908425e+000	 7.633791962540829e+000
 5.237999849670263e-001	 2.791290490528043e+000	 7.620507055400906e+000
 4.956807712221167e-001	 2.796420878697292e+000	 7.610136378275078e+000
 4.676003736162050e-001	 2.801253135361017e+000	 7.603033478694263e+000
 4.395630606497217e-001	 2.805789297400218e+000	 7.599525506297558e+000
 4.115730322941702e-001	 2.810031473347105e+000	 7.599805057448910e+000
 3.836344187890254e-001	 2.813981841084797e+000	 7.603831439674358e+000
 3.557512795189180e-001	 2.817642645534646e+000	 7.611240058302420e+000
 3.279276019705646e-001	 2.821016196334099e+000	 7.621258664211127e+000
 3.001673007687956e-001	 2.824104865507973e+000	 7.632629248673722e+000
 2.724742167909505e-001	 2.826911085135917e+000	 7.643534427863818e+000
 5.571365799941845e-001	 2.812019515222284e+000	 7.708269319682730e+000
 5.287185198196900e-001	 2.817500990623337e+000	 7.693134674043938e+000
 5.003352638129517e-001	 2.822679553656821e+000	 7.679925508811096e+000
 4.719911884326337e-001	 2.827557185699814e+000	 7.668765292387093e+000
 4.436906022608280e-001	 2.832135942759818e+000	 7.659766363505212e+000
 4.154377447072045e-001	 2.836417953168350e+000	 7.652930208535691e+000
 3.872367847946145e-001	 2.840405415259060e+000	 7.648057326303457e+000
 3.590918200257314e-001	 2.844100595033316e+000	 7.644665266150768e+000
 3.310068753301844e-001	 2.847505823816278e+000	 7.641913466343773e+000
 3.029859020915368e-001	 2.850623495906301e+000	 7.638533572537797e+000
 2.750327772533645e-001	 2.853456066220491e+000	 7.632763978677171e+000
 2.494471726288109e-001	 2.588006255362404e+000	 6.520033603539748e+000
 2.241556613584017e-001	 2.590319346644739e+000	 6.402971814524797e+000
 1.989325871316730e-001	 2.592378392617928e+000	 6.285536656747958e+000
 1.737813118221734e-001	 2.594185773617187e+000	 6.168957605209950e+000
 1.487051256341049e-001	 2.595743916486777e+000	 6.053155659100957e+000
 1.237072466452768e-001	 2.597055292441034e+000	 5.936675295090235e+000
 9.879082041758477e-002	 2.598122414936711e+000	 5.816627125682322e+000
 7.395891967371854e-002	 2.598947837558706e+000	 5.688641802087996e+000
 4.921454403874689e-002	 2.599534151921171e+000	 5.546835592841455e+000
 2.456061984517374e-002	 2.599883985585925e+000	 5.383787962481089e+000
 0.000000000000000e+000	 2.600000000000000e+000	 5.190531335509175e+000
 2.520057330904998e-001	 2.614551236448130e+000	 6.475641620270999e+000
 2.264548087346185e-001	 2.616888052930142e+000	 6.342107548482516e+000
 2.009730233758899e-001	 2.618968218379762e+000	 6.207572215779132e+000
 1.755637733703354e-001	 2.620794137547128e+000	 6.073680807674620e+000
 1.502303826695234e-001	 2.622368262168459e+000	 5.940659683165322e+000
 1.249761023588341e-001	 2.623693088805149e+000	 5.807237779299146e+000
 9.980411026394451e-002	 2.624771156694291e+000	 5.670579616394428e+000
 7.471751062421959e-002	 2.625605045612707e+000	 5.526230491490895e+000
 4.971933383164673e-002	 2.626197373756539e+000	 5.368074331491815e+000
 2.481253623389227e-002	 2.626550795638311e+000	 5.188304562671532e+000
 0.000000000000000e+000	 2.626668000003317e+000	 4.977408205624266e+000
 2.545642935525385e-001	 2.641096217534166e+000	 6.587090991471995e+000
 2.287539561112106e-001	 2.643456759215848e+000	 6.470321354391149e+000
 2.030134596205190e-001	 2.645558044141875e+000	 6.355223834760403e+000
 1.773462349189482e-001	 2.647402501477304e+000	 6.243826986686649e+000
 1.517556397054234e-001	 2.648992607850319e+000	 6.136625717597018e+000
 1.262449580728870e-001	 2.650330885169382e+000	 6.032491467611911e+000
 1.008174001107880e-001	 2.651419898451923e+000	 5.928594928968836e+000
 7.547610157515765e-002	 2.652262253666700e+000	 5.820341944292947e+000
 5.022412362489306e-002	 2.652860595591853e+000	 5.701323098046935e+000
 2.506445262281448e-002	 2.653217605690610e+000	 5.563277392452394e+000
 0.000000000000000e+000	 2.653336000006534e+000	 5.396070242648395e+000
 2.571228540148597e-001	 2.667641198620404e+000	 6.849914115992484e+000
 2.310531034880990e-001	 2.670025465501747e+000	 6.780600080763979e+000
 2.050538958654675e-001	 2.672147869904146e+000	 6.716447123282877e+000
 1.791286964679059e-001	 2.674010865407591e+000	 6.659758525386604e+000
 1.532808967416889e-001	 2.675616953532234e+000	 6.611389739101513e+000
 1.275138137873141e-001	 2.676968681533611e+000	 6.570652958517464e+000
 1.018306899579956e-001	 2.678068640209493e+000	 6.535224725074630e+000
 7.623469252642391e-002	 2.678919461720579e+000	 6.501056205071192e+000
 5.072891341839939e-002	 2.679523817427006e+000	 6.462285829807685e+000
 2.531636901188944e-002	 2.679884415742720e+000	 6.411154040711871e+000
 0.000000000000000e+000	 2.680004000009550e+000	 6.337919898843486e+000
 2.596814144773963e-001	 2.694186179706736e+000	 7.137069225958950e+000
 2.333522508652044e-001	 2.696594171787714e+000	 7.103205849150091e+000
 2.070943321106425e-001	 2.698737695666449e+000	 7.076999273614438e+000
 1.809111580171025e-001	 2.700619229337863e+000	 7.061328311770202e+000
 1.548061537782039e-001	 2.702241299214085e+000	 7.057679894816857e+000
 1.287826695019940e-001	 2.703606477897717e+000	 7.066055371237192e+000
 1.028439798054475e-001	 2.704717381966886e+000	 7.084879405389031e+000
 7.699328347790971e-002	 2.705576669774232e+000	 7.110911082977712e+000
 5.123370321207928e-002	 2.706187039261896e+000	 7.139156887430388e+000
 2.556828540106627e-002	 2.706551225794539e+000	 7.162785268704933e+000
 0.000000000000000e+000	 2.706672000012267e+000	 7.173042551796415e+000
 2.622399749400806e-001	 2.720731160793048e+000	 7.347911349496996e+000
 2.356513982424475e-001	 2.723162878073632e+000	 7.341225582550083e+000
 2.091347683559512e-001	 2.725327521428659e+000	 7.344011060927420e+000
 1.826936195664324e-001	 2.727227593267997e+000	 7.359540320520650e+000
 1.563314108148519e-001	 2.728865644895742e+000	 7.389758081022914e+000
 1.300515252168052e-001	 2.730244274261580e+000	 7.435189965240603e+000
 1.038572696530242e-001	 2.731366123723988e+000	 7.494853334925447e+000
 7.775187442950630e-002	 2.732233877827550e+000	 7.566169815561675e+000
 5.173849300584624e-002	 2.732850261096415e+000	 7.644879145780667e+000
 2.582020179029408e-002	 2.733218035845966e+000	 7.724954050553359e+000
 0.000000000000000e+000	 2.733340000014584e+000	 7.798515872000889e+000
 2.647985354028455e-001	 2.747276141879232e+000	 7.493346945017975e+000
 2.379505456197491e-001	 2.749731584359379e+000	 7.505210739282515e+000
 2.111752046013010e-001	 2.751917347190656e+000	 7.527574856208098e+000
 1.844760811157895e-001	 2.753835957197865e+000	 7.563922164092926e+000
 1.578566678515173e-001	 2.755489990577085e+000	 7.616480067339579e+000
 1.313203809316262e-001	 2.756882070625080e+000	 7.686132373112582e+000
 1.048705595006058e-001	 2.758014865480682e+000	 7.772332738894834e+000
 7.851046538110504e-002	 2.758891085880423e+000	 7.873019236563956e+000
 5.224328279961380e-002	 2.759513482930462e+000	 7.984529638259922e+000
 2.607211817952194e-002	 2.759884845896900e+000	 8.101517099147566e+000
 0.000000000000000e+000	 2.760008000016400e+000	 8.216865956160357e+000
 2.673570958656238e-001	 2.773821122965178e+000	 7.584098611251035e+000
 2.402496929970300e-001	 2.776300290644838e+000	 7.605556065979176e+000
 2.132156408465988e-001	 2.778507172952312e+000	 7.637652889533842e+000
 1.862585426650682e-001	 2.780444321127342e+000	 7.683896789064891e+000
 1.593819248880836e-001	 2.782114336257992e+000	 7.746620824327050e+000
 1.325892366463357e-001	 2.783519866988098e+000	 7.826899181967033e+000
 1.058838493480728e-001	 2.784663607236856e+000	 7.924463941170107e+000
 7.926905633259714e-002	 2.785548293932743e+000	 8.037622326891947e+000
 5.274807259329551e-002	 2.786176704763929e+000	 8.163174023389633e+000
 2.632403456869898e-002	 2.786551655947240e+000	 8.296328197363883e+000
 0.000000000000000e+000	 2.786676000017617e+000	 8.430619933645197e+000
 2.699156563283478e-001	 2.800366104050776e+000	 7.630707295866968e+000
 2.425488403742109e-001	 2.802868996929889e+000	 7.652501354126153e+000
 2.152560770917520e-001	 2.805096998713504e+000	 7.684078596828197e+000
 1.880410042141624e-001	 2.807052685056305e+000	 7.728783458590847e+000
 1.609071819244348e-001	 2.808738681938335e+000	 7.788875190186638e+000
 1.338580923608121e-001	 2.810157663350514e+000	 7.865448335900803e+000
 1.068971391953055e-001	 2.811312348992394e+000	 7.958353556854299e+000
 8.002764728387389e-002	 2.812205501984400e+000	 8.066118254431615e+000
 5.325286238680489e-002	 2.812839926596714e+000	 8.185866531698979e+000
 2.657595095777430e-002	 2.813218465996884e+000	 8.313238114500518e+000
 0.000000000000000e+000	 2.813344000018133e+000	 8.442305917549458e+000
 2.724742167909505e-001	 2.826911085135917e+000	 7.643534427863818e+000
 2.448479877512127e-001	 2.829437703214412e+000	 7.656133132373482e+000
 2.172965133366677e-001	 2.831686824474107e+000	 7.676557914788531e+000
 1.898234657629665e-001	 2.833661048984628e+000	 7.707798695327828e+000
 1.624324389604548e-001	 2.835363027617995e+000	 7.751858509637753e+000
 1.351269480749341e-001	 2.836795459712210e+000	 7.809679521232321e+000
 1.079104290421841e-001	 2.837961090747182e+000	 7.881068676663837e+000
 8.078623823482663e-002	 2.838862710035284e+000	 7.964622412652654e+000
 5.375765218005548e-002	 2.839503148428710e+000	 8.057649915861427e+000
 2.682786734669698e-002	 2.839885276045730e+000	 8.156094527438805e+000
 0.000000000000000e+000	 2.840012000017850e+000	 8.254452958509923e+000
 2.750327772533645e-001	 2.853456066220491e+000	 7.632763978677176e+000
 2.471471351279563e-001	 2.856006409498290e+000	 7.626386298793362e+000
 2.193369495812531e-001	 2.858276650234000e+000	 7.624670527358894e+000
 1.916059273113746e-001	 2.860269412912185e+000	 7.630057187410438e+000
 1.639576959960275e-001	 2.861987373296846e+000	 7.644107246781349e+000
 1.363958037885802e-001	 2.863433256073065e+000	 7.667434535643653e+000
 1.089237188885891e-001	 2.864609832501104e+000	 7.699637043657069e+000
 8.154482918534663e-002	 2.865519918085287e+000	 7.739226458085411e+000
 5.426244197296083e-002	 2.866166370259814e+000	 7.783555403869813e+000
 2.707978373541613e-002	 2.866552086093679e+000	 7.828741946215042e+000
 0.000000000000000e+000	 2.866680000016666e+000	 7.869591001097733e+000
 2.866680000016666e+000	 0.000000000000000e+000	 1.094432351982629e+001
 2.866552086093679e+000	 2.707978373541622e-002	 1.095323166757814e+001
 2.866166370259814e+000	 5.426244197296101e-002	 1.096554635146211e+001
 2.865519918085286e+000	 8.154482918534640e-002	 1.097929514883304e+001
 2.864609832501105e+000	 1.089237188885890e-001	 1.099300562379370e+001
 2.863433256073065e+000	 1.363958037885802e-001	 1.100568395994772e+001
 2.861987373296846e+000	 1.639576959960276e-001	 1.101679441483833e+001
 2.860269412912185e+000	 1.916059273113747e-001	 1.102623952975616e+001
 2.858276650234000e+000	 2.193369495812528e-001	 1.103434100288420e+001
 2.856006409498290e+000	 2.471471351279561e-001	 1.104182110748444e+001
 2.853456066220490e+000	 2.750327772533643e-001	 1.104978451033009e+001
 2.893344000014533e+000	 0.000000000000000e+000	 1.105657655987874e+001
 2.893214896319162e+000	 2.733166233832871e-002	 1.105115382419579e+001
 2.892825592806659e+000	 5.476715605077943e-002	 1.104894040024431e+001
 2.892173127753058e+000	 8.230330635240593e-002	 1.104833360924074e+001
 2.891254577142689e+000	 1.099368567485596e-001	 1.104818720949062e+001
 2.890067056963325e+000	 1.376644691828235e-001	 1.104779007566364e+001
 2.888607725522634e+000	 1.654827242539523e-001	 1.104684596395762e+001
 2.886873785783859e+000	 1.933881215034428e-001	 1.104545429404860e+001
 2.884862487718648e+000	 2.213770797753011e-001	 1.104409184970518e+001
 2.882571130674752e+000	 2.494459376495117e-001	 1.104359527145237e+001
 2.879997065756335e+000	 2.775909539506485e-001	 1.104514418590953e+001
 2.920008000011599e+000	 0.000000000000000e+000	 1.113669251155224e+001
 2.919877706543843e+000	 2.758354094103635e-002	 1.112234733646081e+001
 2.919484815352702e+000	 5.527187012824735e-002	 1.111044093753939e+001
 2.918826337420027e+000	 8.306178351902126e-002	 1.109978031531860e+001
 2.917899321783473e+000	 1.109499946080370e-001	 1.108958323810590e+001
 2.916700857852796e+000	 1.389331345765616e-001	 1.107945703931643e+001
 2.915228077747647e+000	 1.670077525113894e-001	 1.106937878021417e+001
 2.913478158654786e+000	 1.951703156950627e-001	 1.105967670578584e+001
 2.911448325202586e+000	 2.234172099689541e-001	 1.105101288904712e+001
 2.909135851850560e+000	 2.517447401707311e-001	 1.104436692824111e+001
 2.906538065291594e+000	 2.801491306476535e-001	 1.104102053024816e+001
 2.946672000008066e+000	 0.000000000000000e+000	 1.118579438858716e+001
 2.946540516767922e+000	 2.783541954358862e-002	 1.116743304786428e+001
 2.946144037898134e+000	 5.577658420544583e-002	 1.115023083034312e+001
 2.945479547086380e+000	 8.382026068528942e-002	 1.113344163447136e+001
 2.944544066423636e+000	 1.119631324671209e-001	 1.111668217489862e+001
 2.943334658741643e+000	 1.402017999698862e-001	 1.109991097761554e+001
 2.941848429972040e+000	 1.685327807684142e-001	 1.108340903613738e+001
 2.940082531525107e+000	 1.969525098862874e-001	 1.106776205287296e+001
 2.938034162685941e+000	 2.254573401622396e-001	 1.105384415388958e+001
 2.935700573025822e+000	 2.540435426916158e-001	 1.104280293197315e+001
 2.933079064826362e+000	 2.827073073443561e-001	 1.103604563923705e+001
 2.973336000004133e+000	 0.000000000000000e+000	 1.120482630471941e+001
 2.973203326991598e+000	 2.808729814603502e-002	 1.118686344349929e+001
 2.972803260443157e+000	 5.628129828245599e-002	 1.116833558167708e+001
 2.972132756752305e+000	 8.457873785130762e-002	 1.114897797424538e+001
 2.971188811063356e+000	 1.129762703259114e-001	 1.112883829349311e+001
 2.969968459630034e+000	 1.414704653628895e-001	 1.110825591017479e+001
 2.968468782195969e+000	 1.700578090251025e-001	 1.108784314828504e+001
 2.966686904394960e+000	 1.987347040771702e-001	 1.106846843357153e+001
 2.964620000168841e+000	 2.274974703551854e-001	 1.105124121637323e+001
 2.962265294200649e+000	 2.563423452121671e-001	 1.103749851345686e+001
 2.959620064360733e+000	 2.852654840407330e-001	 1.102879287724768e+001
 3.000000000000000e+000	 0.000000000000000e+000	 1.119456142399933e+001
 2.999866137215068e+000	 2.833917674842506e-002	 1.118093036928813e+001
 2.999462482987958e+000	 5.678601235935887e-002	 1.116463084132869e+001
 2.998785966417990e+000	 8.533721501717292e-002	 1.114591110405386e+001
 2.997833555702814e+000	 1.139894081845084e-001	 1.112527882487152e+001
 2.996602260518139e+000	 1.427391307556632e-001	 1.110348073881177e+001
 2.995089134419591e+000	 1.715828372815295e-001	 1.108148461659915e+001
 2.993291277264493e+000	 2.005168982677645e-001	 1.106046345233002e+001
 2.991205837651412e+000	 2.295376005478191e-001	 1.104178174315238e+001
 2.988830015375152e+000	 2.586411477323863e-001	 1.102698369471036e+001
 2.986161063894799e+000	 2.878236607367614e-001	 1.101778314705162e+001
 3.026663999995867e+000	 0.000000000000000e+000	 1.115560949087129e+001
 3.026528947438530e+000	 2.859105535080819e-002	 1.114977234320230e+001
 3.026121705532733e+000	 5.729072643623559e-002	 1.113884951960386e+001
 3.025439176083625e+000	 8.609569218298241e-002	 1.112363108981611e+001
 3.024478300342188e+000	 1.150025460430116e-001	 1.110511072815798e+001
 3.023236061406126e+000	 1.440077961482992e-001	 1.108446586658929e+001
 3.021709486643062e+000	 1.731078655377712e-001	 1.106304050062642e+001
 3.019895650133845e+000	 2.022990924581237e-001	 1.104233055886865e+001
 3.017791675133779e+000	 2.315777307401684e-001	 1.102397169976562e+001
 3.015394736549442e+000	 2.609399502522750e-001	 1.100972935773975e+001
 3.012702063428655e+000	 2.903818374324178e-001	 1.100149081880875e+001
 3.053327999991933e+000	 0.000000000000000e+000	 1.108842396570240e+001
 3.053191757662185e+000	 2.884293395323394e-002	 1.109338148341422e+001
 3.052780928077679e+000	 5.779544051316723e-002	 1.109058852835692e+001
 3.052092385749396e+000	 8.685416934883318e-002	 1.108140286516988e+001
 3.051123044981657e+000	 1.160156839015211e-001	 1.106732710631190e+001
 3.049869862294164e+000	 1.452764615408896e-001	 1.104998946923261e+001
 3.048329838866539e+000	 1.746328937939028e-001	 1.103112755479856e+001
 3.046500023003159e+000	 2.040812866483011e-001	 1.101257505232844e+001
 3.044377512616071e+000	 2.336178609322612e-001	 1.099625122548028e+001
 3.041959457723628e+000	 2.632387527718343e-001	 1.098415298870769e+001
 3.039243062962394e+000	 2.929400141276791e-001	 1.097834933896425e+001
 3.079991999988400e+000	 0.000000000000000e+000	 1.099330878966983e+001
 3.079854567886232e+000	 2.909481255575181e-002	 1.101161007659451e+001
 3.079440150622987e+000	 5.830015459023485e-002	 1.101931517188737e+001
 3.078745595415490e+000	 8.761264651482240e-002	 1.101837246128356e+001
 3.077767789621402e+000	 1.170288217601367e-001	 1.101081328825146e+001
 3.076503663182423e+000	 1.465451269335261e-001	 1.099873343998710e+001
 3.074950191090176e+000	 1.761579220499999e-001	 1.098427804343718e+001
 3.073104395872575e+000	 2.058634808383499e-001	 1.096962977077888e+001
 3.070963350098414e+000	 2.356579911241252e-001	 1.095700019857989e+001
 3.068524178897822e+000	 2.655375552910657e-001	 1.094862411716276e+001
 3.065784062496109e+000	 2.954981908225221e-001	 1.094675653845413e+001
 3.106655999985466e+000	 0.000000000000000e+000	 1.087042480127665e+001
 3.106517378110865e+000	 2.934669115841125e-002	 1.090417680797647e+001
 3.106099373168855e+000	 5.880486866751958e-002	 1.092437320873622e+001
 3.105398805082099e+000	 8.837112368104710e-002	 1.093357291577868e+001
 3.104412534261600e+000	 1.180419596189583e-001	 1.093435259744589e+001
 3.103137464071066e+000	 1.478137923263007e-001	 1.092928902753800e+001
 3.101570543314130e+000	 1.776829503061382e-001	 1.092094525472299e+001
 3.099708768742238e+000	 2.076456750283234e-001	 1.091186048499200e+001
 3.097549187580935e+000	 2.376981213157881e-001	 1.090454351069336e+001
 3.095088900072133e+000	 2.678363578099707e-001	 1.090146946865340e+001
 3.092325062029892e+000	 2.980563675169238e-001	 1.090507965828248e+001
 3.133319999983334e+000	 0.000000000000000e+000	 1.071979582524523e+001
 3.133180188336287e+000	 2.959856976126182e-002	 1.077067267333630e+001
 3.132758595715477e+000	 5.930958274510247e-002	 1.080498860399057e+001
 3.132052014749406e+000	 8.912960084760442e-002	 1.082592987987495e+001
 3.131057278902433e+000	 1.190550974780861e-001	 1.083663182565507e+001
 3.129771264960267e+000	 1.490824577193053e-001	 1.084016218527565e+001
 3.128190895538556e+000	 1.792079785623932e-001	 1.083950873156241e+001
 3.126313141612289e+000	 2.094278692182753e-001	 1.083757101409414e+001
 3.124135025063762e+000	 2.397382515072778e-001	 1.083715606749733e+001
 3.121653621246674e+000	 2.701351603285506e-001	 1.084097784779567e+001
 3.118866061563838e+000	 3.006145442108607e-001	 1.085166010930896e+001
 2.853456066220490e+000	 2.750327772533643e-001	 1.104978451033008e+001
 2.850623495906301e+000	 3.029859020915370e-001	 1.105914039563470e+001
 2.847505823816279e+000	 3.310068753301843e-001	 1.106997097587057e+001
 2.844100595033316e+000	 3.590918200257314e-001	 1.108257762480979e+001
 2.840405415259059e+000	 3.872367847946143e-001	 1.109746738698174e+001
 2.836417953168350e+000	 4.154377447072045e-001	 1.111533451876552e+001
 2.832135942759817e+000	 4.436906022608281e-001	 1.113704122054977e+001
 2.827557185699815e+000	 4.719911884326337e-001	 1.116359724903654e+001
 2.822679553656821e+000	 5.003352638129518e-001	 1.119613808001315e+001
 2.817500990623338e+000	 5.287185198196899e-001	 1.123590127554270e+001
 2.812019515222285e+000	 5.571365799941846e-001	 1.128420069582976e+001
 2.879997065756335e+000	 2.775909539506485e-001	 1.104514418590953e+001
 2.877138148708408e+000	 3.058040806450335e-001	 1.104880457004582e+001
 2.873991478052574e+000	 3.340856868217606e-001	 1.105394275782598e+001
 2.870554576037689e+000	 3.624318594764292e-001	 1.106107932680300e+001
 2.866825026095203e+000	 3.908386104722579e-001	 1.107091455800673e+001
 2.862800475215494e+000	 4.193018774423222e-001	 1.108431199532879e+001
 2.858478636320326e+000	 4.478175247716250e-001	 1.110228130639848e+001
 2.853857290628595e+000	 4.763813446597570e-001	 1.112596010832490e+001
 2.848934290012431e+000	 5.049890582647982e-001	 1.115659440111112e+001
 2.843707559340701e+000	 5.336363169290087e-001	 1.119551723349467e+001
 2.838175098806853e+000	 5.623187034867332e-001	 1.124412521075975e+001
 2.906538065291594e+000	 2.801491306476535e-001	 1.104102053024816e+001
 2.903652801510020e+000	 3.086222591982991e-001	 1.104025663275881e+001
 2.900477132288479e+000	 3.371644983131445e-001	 1.104078447984369e+001
 2.897008557041791e+000	 3.657718989269653e-001	 1.104336595161804e+001
 2.893244636931203e+000	 3.944404361497634e-001	 1.104891502960754e+001
 2.889182997262623e+000	 4.231660101773192e-001	 1.105848354437691e+001
 2.884821329880951e+000	 4.519444472823136e-001	 1.107324634205476e+001
 2.880157395557621e+000	 4.807715008867808e-001	 1.109448550597496e+001
 2.875189026368409e+000	 5.096428527165516e-001	 1.112357324717032e+001
 2.869914128058541e+000	 5.385541140382391e-001	 1.116195305763477e+001
 2.864330682391995e+000	 5.675008269791980e-001	 1.121111870346368e+001
 2.933079064826362e+000	 2.827073073443561e-001	 1.103604563923705e+001
 2.930167454311211e+000	 3.114404377512897e-001	 1.103211861365154e+001
 2.926962786524052e+000	 3.402433098042759e-001	 1.102911896039906e+001
 2.923462538045659e+000	 3.691119383772669e-001	 1.102806804760666e+001
 2.919664247767075e+000	 3.980422618270483e-001	 1.103011007598242e+001
 2.915565519309738e+000	 4.270301429121071e-001	 1.103650019967720e+001
 2.911164023441680e+000	 4.560713697928024e-001	 1.104859219080454e+001
 2.906457500486859e+000	 4.851616571136128e-001	 1.106782525516419e+001
 2.901443762724703e+000	 5.142966471681204e-001	 1.109570958221358e+001
 2.896120696776793e+000	 5.434719111472925e-001	 1.113381019064548e+001
 2.890486265977629e+000	 5.726829504714953e-001	 1.118372861244469e+001
 2.959620064360733e+000	 2.852654840407330e-001	 1.102879287724768e+001
 2.956682107112062e+000	 3.142586163039617e-001	 1.102296705846227e+001
 2.953448440759354e+000	 3.433221212950945e-001	 1.101753744308208e+001
 2.949916519049338e+000	 3.724519778272608e-001	 1.101379910618198e+001
 2.946083858602846e+000	 4.016440875040307e-001	 1.101313898804512e+001
 2.941948041356847e+000	 4.308942756465978e-001	 1.101702658865838e+001
 2.937506717002493e+000	 4.601982923030001e-001	 1.102700433836738e+001
 2.932757605416278e+000	 4.895518133401607e-001	 1.104467722197425e+001
 2.927698499081266e+000	 5.189504416194138e-001	 1.107170120693180e+001
 2.922327265495393e+000	 5.483897082560816e-001	 1.110977000264575e+001
 2.916641849563674e+000	 5.778650739635413e-001	 1.116059965763320e+001
 2.986161063894799e+000	 2.878236607367614e-001	 1.101778314705163e+001
 2.983196759912645e+000	 3.170767948562714e-001	 1.101133913099959e+001
 2.979934094994438e+000	 3.464009327855402e-001	 1.100460548856052e+001
 2.976370500052862e+000	 3.757920172768744e-001	 1.099916119748783e+001
 2.972503469438535e+000	 4.052459131806286e-001	 1.099664440327006e+001
 2.968330563403949e+000	 4.347584083807031e-001	 1.099874590345314e+001
 2.963849410563380e+000	 4.643252148128150e-001	 1.100720244875316e+001
 2.959057710345845e+000	 4.939419695663320e-001	 1.102378940631985e+001
 2.953953235438047e+000	 5.236042360703407e-001	 1.105031230164632e+001
 2.948533834214270e+000	 5.533075053645180e-001	 1.108859672991552e+001
 2.942797433150047e+000	 5.830471974552515e-001	 1.114047610544242e+001
 3.012702063428655e+000	 2.903818374324178e-001	 1.100149081880874e+001
 3.009711412713035e+000	 3.198949734081749e-001	 1.099573837975796e+001
 3.006419749229365e+000	 3.494797442755525e-001	 1.098886853775817e+001
 3.002824481056273e+000	 3.791320567260345e-001	 1.098275028567524e+001
 2.998923080274163e+000	 4.088477388567596e-001	 1.097927732523059e+001
 2.994713085451048e+000	 4.386225411143345e-001	 1.098036457352348e+001
 2.990192104124325e+000	 4.684521373221555e-001	 1.098794463550122e+001
 2.985357815275526e+000	 4.983321257920344e-001	 1.100396375408274e+001
 2.980207971794994e+000	 5.282580305208098e-001	 1.103037671842717e+001
 2.974740402933362e+000	 5.582253024725133e-001	 1.106914018296244e+001
 2.968953016736668e+000	 5.882293209465432e-001	 1.112220382569526e+001
 3.039243062962394e+000	 2.929400141276791e-001	 1.097834933896425e+001
 3.036226065513310e+000	 3.227131519596282e-001	 1.097464018945212e+001
 3.032905403464191e+000	 3.525585557650713e-001	 1.096885716634466e+001
 3.029278462059609e+000	 3.824720961746682e-001	 1.096316124337118e+001
 3.025342691109753e+000	 4.124495645323417e-001	 1.095970185179987e+001
 3.021095607498148e+000	 4.424866738474040e-001	 1.096061665811021e+001
 3.016534797685311e+000	 4.725790598309302e-001	 1.096803146570182e+001
 3.011657920205290e+000	 5.027222820171755e-001	 1.098405971688261e+001
 3.006462708152062e+000	 5.329118249707301e-001	 1.101080103770190e+001
 3.000946971652601e+000	 5.631430995799793e-001	 1.105033823803178e+001
 2.995108600323453e+000	 5.934114444373319e-001	 1.110473215314529e+001
 3.065784062496109e+000	 2.954981908225221e-001	 1.094675653845412e+001
 3.062740718313545e+000	 3.255313305105880e-001	 1.094649693656546e+001
 3.059391057698973e+000	 3.556373672540363e-001	 1.094309204924594e+001
 3.055732443062912e+000	 3.858121356227027e-001	 1.093899258356998e+001
 3.051762301945324e+000	 4.160513902072927e-001	 1.093659962966924e+001
 3.047478129545251e+000	 4.463508065798235e-001	 1.093826797548655e+001
 3.042877491246323e+000	 4.767059823390475e-001	 1.094630971299448e+001
 3.037958025135103e+000	 5.071124382416631e-001	 1.096299757477954e+001
 3.032717444509198e+000	 5.375656194200105e-001	 1.099056740362788e+001
 3.027153540371921e+000	 5.680608966868282e-001	 1.103121912518488e+001
 3.021264183910321e+000	 5.985935679275342e-001	 1.108711556543777e+001
 3.092325062029892e+000	 2.980563675169238e-001	 1.090507965828248e+001
 3.089255371113814e+000	 3.283495090610101e-001	 1.090974286669528e+001
 3.085876711933771e+000	 3.587161787423873e-001	 1.091008865259659e+001
 3.082186424066219e+000	 3.891521750700648e-001	 1.090885092592380e+001
 3.078181912780898e+000	 4.196532158815303e-001	 1.090867405162820e+001
 3.073860651592361e+000	 4.502149393115046e-001	 1.091211998482990e+001
 3.069220184807347e+000	 4.808329048464161e-001	 1.092167587462565e+001
 3.064258130064935e+000	 5.115025944654049e-001	 1.093976153615250e+001
 3.058972180866352e+000	 5.422194138685597e-001	 1.096873615152254e+001
 3.053360109091255e+000	 5.729786937929715e-001	 1.101090352516945e+001
 3.047419767497192e+000	 6.037756914170658e-001	 1.106851518853859e+001
 3.118866061563838e+000	 3.006145442108607e-001	 1.085166010930896e+001
 3.115770023914197e+000	 3.311676876108510e-001	 1.086279871026832e+001
 3.112362366168643e+000	 3.617949902300638e-001	 1.086836166937053e+001
 3.108640405069572e+000	 3.924922145166819e-001	 1.087135521325660e+001
 3.104601523616499e+000	 4.232550415549727e-001	 1.087465421193137e+001
 3.100243173639482e+000	 4.540790720423593e-001	 1.088101343544839e+001
 3.095562878368369e+000	 4.849598273529443e-001	 1.089307946662117e+001
 3.090558234994752e+000	 5.158927506883083e-001	 1.091340262802809e+001
 3.085226917223479e+000	 5.468732083162871e-001	 1.094444823973870e+001
 3.079566677810541e+000	 5.778964908983216e-001	 1.098860648647437e+001
 3.073575351083983e+000	 6.089578149058433e-001	 1.104820013991130e+001
 2.812019515222285e+000	 5.571365799941846e-001	 1.128420069582976e+001
 2.806232332410390e+000	 5.855892700207178e-001	 1.132648748787631e+001
 2.800138417670241e+000	 6.140678136806009e-001	 1.134823802102821e+001
 2.793736028873866e+000	 6.425676306221915e-001	 1.135072778970687e+001
 2.787023507627656e+000	 6.710840784416882e-001	 1.133535469387106e+001
 2.779999281457081e+000	 6.996124543915534e-001	 1.132086915562604e+001
 2.772661865956895e+000	 7.281479971706544e-001	 1.131686602971343e+001
 2.765009866903514e+000	 7.566858887956516e-001	 1.132221769604603e+001
 2.757041982326296e+000	 7.852212565530333e-001	 1.133567147673478e+001
 2.748757004534392e+000	 8.137491750310452e-001	 1.135585174506297e+001
 2.740153822095873e+000	 8.422646682306209e-001	 1.138126268329191e+001
 2.838175098806853e+000	 5.623187034867332e-001	 1.124412521075976e+001
 2.832334087369945e+000	 5.910360420008765e-001	 1.128601264644900e+001
 2.826183490983165e+000	 6.197794746220591e-001	 1.130496511665004e+001
 2.819721551314392e+000	 6.485443783951878e-001	 1.130257913420106e+001
 2.812946594544702e+000	 6.773260677358409e-001	 1.128230441248545e+001
 2.805857033573426e+000	 7.061197961545839e-001	 1.126700528018331e+001
 2.798451370188331e+000	 7.349207580637585e-001	 1.126191041276990e+001
 2.790728197197666e+000	 7.637240906662786e-001	 1.126591634226959e+001
 2.782686200520693e+000	 7.925248759258216e-001	 1.127777820677413e+001
 2.774324161233401e+000	 8.213181426176583e-001	 1.129611220130282e+001
 2.765640957566033e+000	 8.500988684592170e-001	 1.131939867970979e+001
 2.864330682391995e+000	 5.675008269791980e-001	 1.121111870346368e+001
 2.858435842330151e+000	 5.964828139809569e-001	 1.125281769129634e+001
 2.852228564296800e+000	 6.254911355634441e-001	 1.126914241678187e+001
 2.845707073755671e+000	 6.545211261681152e-001	 1.126200730867250e+001
 2.838869681462532e+000	 6.835680570299278e-001	 1.123848095321013e+001
 2.831714785690566e+000	 7.126271379175480e-001	 1.122282217102803e+001
 2.824240874420563e+000	 7.416935189567915e-001	 1.121699025035776e+001
 2.816446527492603e+000	 7.707622925368255e-001	 1.121991799200434e+001
 2.808330418715852e+000	 7.998284952985153e-001	 1.123038097118997e+001
 2.799891317933140e+000	 8.288871102041546e-001	 1.124700032785638e+001
 2.791128093036881e+000	 8.579330686876658e-001	 1.126824620510244e+001
 2.890486265977629e+000	 5.726829504714953e-001	 1.118372861244469e+001
 2.884537597290914e+000	 6.019295859608803e-001	 1.122539209700725e+001
 2.878273637611040e+000	 6.312027965046843e-001	 1.123921453034701e+001
 2.871692596197584e+000	 6.604978739409091e-001	 1.122742223782104e+001
 2.864792768381011e+000	 6.898100463238917e-001	 1.120237547131004e+001
 2.857572537808359e+000	 7.191344796803980e-001	 1.118676873337856e+001
 2.850030378653443e+000	 7.484662798497171e-001	 1.118052079580656e+001
 2.842164857788168e+000	 7.778004944072670e-001	 1.118261180036905e+001
 2.833974636911618e+000	 8.071321146711009e-001	 1.119184936366427e+001
 2.825458474633451e+000	 8.364560777905349e-001	 1.120687170564884e+001
 2.816615228508264e+000	 8.657672689159827e-001	 1.122615141801859e+001
 2.916641849563674e+000	 5.778650739635413e-001	 1.116059965763320e+001
 2.910639352252136e+000	 6.073763579405682e-001	 1.120233947151520e+001
 2.904318710925769e+000	 6.369144574457069e-001	 1.121375576706650e+001
 2.897678118640007e+000	 6.664746217135051e-001	 1.119737777424275e+001
 2.890715855300007e+000	 6.960520356176770e-001	 1.117262484945872e+001
 2.883430289926667e+000	 7.256418214430882e-001	 1.115745120537834e+001
 2.875819882886823e+000	 7.552390407424989e-001	 1.115108546526493e+001
 2.867883188084215e+000	 7.848386962775789e-001	 1.115256516815650e+001
 2.859618855107833e+000	 8.144357340435661e-001	 1.116074059058464e+001
 2.851025631334183e+000	 8.440250453767995e-001	 1.117427821335214e+001
 2.842102363980034e+000	 8.736014691441837e-001	 1.119166481422484e+001
 2.942797433150047e+000	 5.830471974552515e-001	 1.114047610544242e+001
 2.936741107213719e+000	 6.128231299199427e-001	 1.118237910716959e+001
 2.930363784240882e+000	 6.426261183864404e-001	 1.119147096431911e+001
 2.923663641082820e+000	 6.724513694858384e-001	 1.117126205084710e+001
 2.916638942219389e+000	 7.022940249112274e-001	 1.114801015647315e+001
 2.909288042045350e+000	 7.321491632055713e-001	 1.113363090419604e+001
 2.901609387120556e+000	 7.620118016351007e-001	 1.112743287136101e+001
 2.893601518380587e+000	 7.918768981477353e-001	 1.112852006261537e+001
 2.885263073304349e+000	 8.217393534158990e-001	 1.113579507790231e+001
 2.876592788035182e+000	 8.515940129629497e-001	 1.114796291868969e+001
 2.867589499452040e+000	 8.814356693722830e-001	 1.116353540027039e+001
 2.968953016736668e+000	 5.882293209465432e-001	 1.112220382569526e+001
 2.962842862175569e+000	 6.182699018989246e-001	 1.116434734694974e+001
 2.956408857556267e+000	 6.483377793268121e-001	 1.117119615151658e+001
 2.949649163525900e+000	 6.784281172578441e-001	 1.114877609127303e+001
 2.942562029139025e+000	 7.085360142044866e-001	 1.112745498575213e+001
 2.935145794164261e+000	 7.386565049678002e-001	 1.111422187181530e+001
 2.927398891354493e+000	 7.687845625274863e-001	 1.110847377585156e+001
 2.919319848677137e+000	 7.989151000177122e-001	 1.110938927589118e+001
 2.910907291501007e+000	 8.290429727880865e-001	 1.111593203374469e+001
 2.902159944736293e+000	 8.591629805489864e-001	 1.112685494307770e+001
 2.893076634924131e+000	 8.892698696002971e-001	 1.114070485751384e+001
 2.995108600323453e+000	 5.934114444373319e-001	 1.110473215314529e+001
 2.988944617137589e+000	 6.237166738774360e-001	 1.114719877712459e+001
 2.982453930871814e+000	 6.540494402667511e-001	 1.115189906193194e+001
 2.975634685969126e+000	 6.844048650294583e-001	 1.112899173824578e+001
 2.968485116058780e+000	 7.147780034973984e-001	 1.111002368077108e+001
 2.961003546283265e+000	 7.451638467297289e-001	 1.109828842664406e+001
 2.953188395588489e+000	 7.755573234196188e-001	 1.109327796621052e+001
 2.945038178973707e+000	 8.059533018874843e-001	 1.109425262493427e+001
 2.936551509697654e+000	 8.363465921601163e-001	 1.110024496948731e+001
 2.927727101437364e+000	 8.667319481349110e-001	 1.111006430123165e+001
 2.918563770396158e+000	 8.971040698282408e-001	 1.112230169719246e+001
 3.021264183910321e+000	 5.985935679275342e-001	 1.108711556543777e+001
 3.015046372099683e+000	 6.291634458553986e-001	 1.113000725687710e+001
 3.008499004187416e+000	 6.597611012061848e-001	 1.113267950122518e+001
 3.001620208412377e+000	 6.903816128006163e-001	 1.111110902192877e+001
 2.994408202978528e+000	 7.210199927899073e-001	 1.109491945447716e+001
 2.986861298402219e+000	 7.516711884913101e-001	 1.108504262665071e+001
 2.978977899822394e+000	 7.823300843114627e-001	 1.108107106076605e+001
 2.970756509270149e+000	 8.129915037570266e-001	 1.108235309642328e+001
 2.962195727894137e+000	 8.436502115319760e-001	 1.108799718180024e+001
 2.953294258138242e+000	 8.743009157207239e-001	 1.109687671725426e+001
 2.944050905867969e+000	 9.049382700561296e-001	 1.110763540707685e+001
 3.047419767497192e+000	 6.037756914170658e-001	 1.106851518853859e+001
 3.041148127061755e+000	 6.346102178327341e-001	 1.111196679469052e+001
 3.034544077502959e+000	 6.654727621450411e-001	 1.111276958127890e+001
 3.027605730855529e+000	 6.963583605712530e-001	 1.109445582694830e+001
 3.020331289898130e+000	 7.272619820819563e-001	 1.108148240895727e+001
 3.012719050520982e+000	 7.581785302524974e-001	 1.107384164934081e+001
 3.004767404056063e+000	 7.891028452029806e-001	 1.107123124667745e+001
 2.996474839566311e+000	 8.200297056263144e-001	 1.107309294000481e+001
 2.987839946090303e+000	 8.509538309036530e-001	 1.107861719801343e+001
 2.978861414838772e+000	 8.818698833064261e-001	 1.108674841861665e+001
 2.969538041339417e+000	 9.127724702839788e-001	 1.109619059021480e+001
 3.073575351083983e+000	 6.089578149058433e-001	 1.104820013991130e+001
 3.067249882023707e+000	 6.400569898093638e-001	 1.109239228062632e+001
 3.060589150818339e+000	 6.711844230832489e-001	 1.109200388007679e+001
 3.053591253298464e+000	 7.023351083413045e-001	 1.107848643995702e+001
 3.046254376817458e+000	 7.335039713734894e-001	 1.106918746132051e+001
 3.038576802639415e+000	 7.646858720132437e-001	 1.106418509352866e+001
 3.030556908289346e+000	 7.958756060941377e-001	 1.106328595475238e+001
 3.022193169862039e+000	 8.270679074953229e-001	 1.106602971292827e+001
 3.013484164285995e+000	 8.582574502751353e-001	 1.107169418698495e+001
 3.004428571538802e+000	 8.894388508920191e-001	 1.107930090934913e+001
 2.995025176810348e+000	 9.206066705118045e-001	 1.108762109623536e+001
 2.740153822095873e+000	 8.422646682306209e-001	 1.138126268329191e+001
 2.731231421080580e+000	 8.707627113369549e-001	 1.140754811494960e+001
 2.721988884875082e+000	 8.992382316919291e-001	 1.143170374661792e+001
 2.712425398051369e+000	 9.276861123150280e-001	 1.145414403479870e+001
 2.702540248811464e+000	 9.561011947256431e-001	 1.147524652765623e+001
 2.692332830683795e+000	 9.844782814308750e-001	 1.149535505581078e+001
 2.681802644152406e+000	 1.012812138484053e+000	 1.151476869884749e+001
 2.670949298215834e+000	 1.041097498112028e+000	 1.153380880542779e+001
 2.659772511872570e+000	 1.069329061409152e+000	 1.155303768855056e+001
 2.648272115530094e+000	 1.097501501095708e+000	 1.157395420379892e+001
 2.636448052334516e+000	 1.125609464338406e+000	 1.159697473772854e+001
 2.765640957566033e+000	 8.500988684592170e-001	 1.131939867970979e+001
 2.756635566157504e+000	 8.788619818981299e-001	 1.134379073479762e+001
 2.747307061868638e+000	 9.076023630936984e-001	 1.136686699339669e+001
 2.737654621686848e+000	 9.363148474705652e-001	 1.138911135155451e+001
 2.727677527193472e+000	 9.649942285672722e-001	 1.141096337730516e+001
 2.717375166275937e+000	 9.936352605472042e-001	 1.143282167164094e+001
 2.706747034772116e+000	 1.022232660780905e+000	 1.145503465896003e+001
 2.695792738043704e+000	 1.050781112497805e+000	 1.147796067283576e+001
 2.684511992475504e+000	 1.079275267505267e+000	 1.150188175548447e+001
 2.672904626897554e+000	 1.107709748972663e+000	 1.152707473038494e+001
 2.660970583927155e+000	 1.136079154278113e+000	 1.155398227130211e+001
 2.791128093036881e+000	 8.579330686876658e-001	 1.126824620510244e+001
 2.782039711235067e+000	 8.869612524591196e-001	 1.129084494807221e+001
 2.772625238862780e+000	 9.159664944952385e-001	 1.131299234129163e+001
 2.762883845322852e+000	 9.449435826258268e-001	 1.133521059728768e+001
 2.752814805575939e+000	 9.738872624085790e-001	 1.135796955474189e+001
 2.742417501868467e+000	 1.002792239663169e+000	 1.138169023466674e+001
 2.731691425392141e+000	 1.031653183077356e+000	 1.140673734394885e+001
 2.720636177871811e+000	 1.060464726883158e+000	 1.143347299261241e+001
 2.709251473078593e+000	 1.089221473600946e+000	 1.146218096810285e+001
 2.697537138265090e+000	 1.117917996849190e+000	 1.149313058906733e+001
 2.685493115519782e+000	 1.146548844217417e+000	 1.152656606728724e+001
 2.816615228508264e+000	 8.657672689159827e-001	 1.122615141801859e+001
 2.807443856313126e+000	 8.950605230199543e-001	 1.124704360016000e+001
 2.797943415857370e+000	 9.243306258965954e-001	 1.126838777666745e+001
 2.788113068959254e+000	 9.535723177808729e-001	 1.129071369755815e+001
 2.777952083958753e+000	 9.827802962496398e-001	 1.131449012014750e+001
 2.767459837461291e+000	 1.011949218778858e+000	 1.134011417081685e+001
 2.756635816012398e+000	 1.041073705373506e+000	 1.136797751895790e+001
 2.745479617700091e+000	 1.070148341268192e+000	 1.139837014629119e+001
 2.733990953681790e+000	 1.099167679696300e+000	 1.143155841839874e+001
 2.722169649632665e+000	 1.128126244725396e+000	 1.146777022894143e+001
 2.710015647112380e+000	 1.157018534156420e+000	 1.150720067088328e+001
 2.842102363980034e+000	 8.736014691441837e-001	 1.119166481422484e+001
 2.832848001391535e+000	 9.031597935806651e-001	 1.121093157748130e+001
 2.823261592852275e+000	 9.326947572978150e-001	 1.123158097897329e+001
 2.813342292595934e+000	 9.622010529357664e-001	 1.125411987180381e+001
 2.803089362341806e+000	 9.916733300905299e-001	 1.127898497919532e+001
 2.792502173054308e+000	 1.021106197894358e+000	 1.130653415819435e+001
 2.781580206632806e+000	 1.050494227669454e+000	 1.133710576729750e+001
 2.770323057528475e+000	 1.079831955653012e+000	 1.137093376468257e+001
 2.758730434285045e+000	 1.109113885791435e+000	 1.140821804384623e+001
 2.746802161000247e+000	 1.138334492601386e+000	 1.144911180012891e+001
 2.734538178704933e+000	 1.167488224095222e+000	 1.149372730225344e+001
 2.867589499452040e+000	 8.814356693722830e-001	 1.116353540027039e+001
 2.858252146470148e+000	 9.112590641412822e-001	 1.118125924855540e+001
 2.848579769847359e+000	 9.410588886989445e-001	 1.120131200326768e+001
 2.838571516232765e+000	 9.708297880905689e-001	 1.122414753273017e+001
 2.828226640724981e+000	 1.000566363931325e+000	 1.125013997621602e+001
 2.817544508647426e+000	 1.030263177009759e+000	 1.127957679256391e+001
 2.806524597253285e+000	 1.059914749965296e+000	 1.131271190799961e+001
 2.795166497356901e+000	 1.089515570037725e+000	 1.134969127955861e+001
 2.783469914888307e+000	 1.119060091886461e+000	 1.139061610525642e+001
 2.771434672367803e+000	 1.148542740477269e+000	 1.143553226630809e+001
 2.759060710297422e+000	 1.177957914033924e+000	 1.148443620250609e+001
 2.893076634924131e+000	 8.892698696002971e-001	 1.114070485751384e+001
 2.883656291548827e+000	 9.193583347018371e-001	 1.115697591289133e+001
 2.873897946842486e+000	 9.494230201000297e-001	 1.117652598880181e+001
 2.863800739869623e+000	 9.794585232453412e-001	 1.119972623081909e+001
 2.853363919108170e+000	 1.009459397772102e+000	 1.122685805233019e+001
 2.842586844240541e+000	 1.039420156125150e+000	 1.125810785412909e+001
 2.831468987873751e+000	 1.069335272261134e+000	 1.129361452023916e+001
 2.820009937185299e+000	 1.099199184422435e+000	 1.133340460414705e+001
 2.808209395491529e+000	 1.129006297981486e+000	 1.137744900744514e+001
 2.796067183735300e+000	 1.158750988353152e+000	 1.142565435138299e+001
 2.783583241889829e+000	 1.188427603972625e+000	 1.147786895649870e+001
 2.918563770396158e+000	 8.971040698282408e-001	 1.112230169719246e+001
 2.909060436627422e+000	 9.274576052623600e-001	 1.113722325722411e+001
 2.899216123837521e+000	 9.577871515011176e-001	 1.115636589206725e+001
 2.889029963506384e+000	 9.880872584001460e-001	 1.117998864119944e+001
 2.878501197491262e+000	 1.018352431612936e+000	 1.120823782853391e+001
 2.867629179833561e+000	 1.048577135240618e+000	 1.124120652314228e+001
 2.856413378494124e+000	 1.078755794557065e+000	 1.127885056808730e+001
 2.844853377013607e+000	 1.108882798807248e+000	 1.132105893455978e+001
 2.832948876094660e+000	 1.138952504076619e+000	 1.136764126200844e+001
 2.820699695102703e+000	 1.168959236229142e+000	 1.141833364995783e+001
 2.808105773482136e+000	 1.198897293911427e+000	 1.147280473908957e+001
 2.944050905867969e+000	 9.049382700561296e-001	 1.110763540707685e+001
 2.934464581705792e+000	 9.355568758228819e-001	 1.112132881865121e+001
 2.924534300832328e+000	 9.661512829022541e-001	 1.114016524282453e+001
 2.914259187142924e+000	 9.967159935550441e-001	 1.116426259030930e+001
 2.903638475874143e+000	 1.027245465453903e+000	 1.119361693219364e+001
 2.892671515426388e+000	 1.057734114356252e+000	 1.122815588649388e+001
 2.881357769114322e+000	 1.088176316853187e+000	 1.126766511951765e+001
 2.869696816841759e+000	 1.118566413192270e+000	 1.131185166482820e+001
 2.857688356697652e+000	 1.148898710171969e+000	 1.136033358359326e+001
 2.845332206469981e+000	 1.179167484105347e+000	 1.141264589168999e+001
 2.832628305074325e+000	 1.209366983850430e+000	 1.146824673610255e+001
 2.969538041339417e+000	 9.127724702839788e-001	 1.109619059021480e+001
 2.959868726783792e+000	 9.436561463834332e-001	 1.110879945425269e+001
 2.949852477826773e+000	 9.745154143034851e-001	 1.112744092173114e+001
 2.939488410779118e+000	 1.005344728710098e+000	 1.115206311996016e+001
 2.928775754256706e+000	 1.036138499295079e+000	 1.118248285798315e+001
 2.917713851018922e+000	 1.066891093472140e+000	 1.121843351524169e+001
 2.906302159734261e+000	 1.097596839149599e+000	 1.125950115400043e+001
 2.894540256669687e+000	 1.128250027577606e+000	 1.130518140871772e+001
 2.882427837300455e+000	 1.158844916267644e+000	 1.135487111164247e+001
 2.869964717837100e+000	 1.189375731981873e+000	 1.140787435027627e+001
 2.857150836666380e+000	 1.219836673789734e+000	 1.146340872950719e+001
 2.995025176810348e+000	 9.206066705118045e-001	 1.108762109623536e+001
 2.985272871861278e+000	 9.517554169440450e-001	 1.109931481680874e+001
 2.975170654820722e+000	 9.828795457048585e-001	 1.111788595828146e+001
 2.964717634414846e+000	 1.013973463865370e+000	 1.114307195924950e+001
 2.953913032638836e+000	 1.045031533136540e+000	 1.117451968785854e+001
 2.942756186611073e+000	 1.076048072588372e+000	 1.121170210885299e+001
 2.931246550353865e+000	 1.107017361446401e+000	 1.125398945340911e+001
 2.919383696497328e+000	 1.137933641963363e+000	 1.130063712196212e+001
 2.907167317903020e+000	 1.168791122363753e+000	 1.135079175014066e+001
 2.894597229204027e+000	 1.199583979858828e+000	 1.140349738845649e+001
 2.881673368258283e+000	 1.230306363729441e+000	 1.145770183703294e+001
 2.636448052334516e+000	 1.125609464338406e+000	 1.159697473772855e+001
 2.624302226078947e+000	 1.153643375865511e+000	 1.161706984232085e+001
 2.611833061417271e+000	 1.181602065005949e+000	 1.162887058478336e+001
 2.599040848742955e+000	 1.209480123689433e+000	 1.163213915572926e+001
 2.585925995576417e+000	 1.237272130208986e+000	 1.162663123692949e+001
 2.572489027453051e+000	 1.264972652307893e+000	 1.161211394454648e+001
 2.558730588716130e+000	 1.292576250311315e+000	 1.158838376474593e+001
 2.544651443212335e+000	 1.320077480299228e+000	 1.155528424721229e+001
 2.530252474887798e+000	 1.347470897317242e+000	 1.151911553983719e+001
 2.515534688282688e+000	 1.374751058621742e+000	 1.151474192317881e+001
 2.500499208922499e+000	 1.401912526955667e+000	 1.154555230271065e+001
 2.660970583927155e+000	 1.136079154278113e+000	 1.155398227130211e+001
 2.648711785065264e+000	 1.164373819086899e+000	 1.157792087575387e+001
 2.636126640312910e+000	 1.192592561839123e+000	 1.159265730434642e+001
 2.623215442764610e+000	 1.220729924162126e+000	 1.159755719257624e+001
 2.609978603731262e+000	 1.248780433919723e+000	 1.159195537976785e+001
 2.596416653636446e+000	 1.276738608327862e+000	 1.157517622096892e+001
 2.582530242816688e+000	 1.304598957115368e+000	 1.154655396341125e+001
 2.568320142223471e+000	 1.332355985726398e+000	 1.150545293555295e+001
 2.553787244024815e+000	 1.360004198561121e+000	 1.147464316657897e+001
 2.538932562104461e+000	 1.387538102251040e+000	 1.147886067180829e+001
 2.523757232456807e+000	 1.414952208965249e+000	 1.151540152937491e+001
 2.685493115519782e+000	 1.146548844217417e+000	 1.152656606728724e+001
 2.673121344051483e+000	 1.175104262307936e+000	 1.155556966691926e+001
 2.660420219208369e+000	 1.203583058672014e+000	 1.157263192941049e+001
 2.647390036786003e+000	 1.231979724634620e+000	 1.157787163218010e+001
 2.634031211885770e+000	 1.260288737630354e+000	 1.157042790293867e+001
 2.620344279819432e+000	 1.288504564347824e+000	 1.154921688929264e+001
 2.606329896916778e+000	 1.316621663919515e+000	 1.151314857826277e+001
 2.591988841234089e+000	 1.344634491153756e+000	 1.146550409262643e+001
 2.577322013161276e+000	 1.372537499805272e+000	 1.144388678382105e+001
 2.562330435925657e+000	 1.400325145880683e+000	 1.145468882104271e+001
 2.547015255990533e+000	 1.427991890975229e+000	 1.149475270422008e+001
 2.710015647112380e+000	 1.157018534156420e+000	 1.150720067088328e+001
 2.697530903037604e+000	 1.185834705528708e+000	 1.154175870980205e+001
 2.684713798103659e+000	 1.214573555504691e+000	 1.156244749506999e+001
 2.671564630807157e+000	 1.243229525106964e+000	 1.156796736031923e+001
 2.658083820039975e+000	 1.271797041340906e+000	 1.155717312941542e+001
 2.644271906002056e+000	 1.300270520367780e+000	 1.152957641878817e+001
 2.630129551016453e+000	 1.328644370723730e+000	 1.148378658619631e+001
 2.615657540244252e+000	 1.356912996581256e+000	 1.143762372590708e+001
 2.600856782297251e+000	 1.385070801049629e+000	 1.142374115642107e+001
 2.585728309746352e+000	 1.413112189510584e+000	 1.143942200433659e+001
 2.570273279523759e+000	 1.441031572985507e+000	 1.148115248723703e+001
 2.734538178704933e+000	 1.167488224095222e+000	 1.149372730225344e+001
 2.721940462023623e+000	 1.196565148749303e+000	 1.153267323342054e+001
 2.709007376998789e+000	 1.225564052337229e+000	 1.155556683397128e+001
 2.695739224828096e+000	 1.254479325579208e+000	 1.156087551750584e+001
 2.682136428193909e+000	 1.283305345051404e+000	 1.154692750844896e+001
 2.668199532184363e+000	 1.312036476387733e+000	 1.151192145670118e+001
 2.653929205115769e+000	 1.340667077527991e+000	 1.145635819320315e+001
 2.639326239254022e+000	 1.369191502008848e+000	 1.141866385364177e+001
 2.624391551432814e+000	 1.397604102294122e+000	 1.141127072599603e+001
 2.609126183566625e+000	 1.425899233140657e+000	 1.143041642045781e+001
 2.593531303056567e+000	 1.454071254995983e+000	 1.147229689808921e+001
 2.759060710297422e+000	 1.177957914033924e+000	 1.148443620250609e+001
 2.746350021009535e+000	 1.207295591969811e+000	 1.152654403843283e+001
 2.733300955893769e+000	 1.236554549169694e+000	 1.155004051415333e+001
 2.719913818848843e+000	 1.265729126051403e+000	 1.155319837602595e+001
 2.706189036347608e+000	 1.294813648761876e+000	 1.153413707293342e+001
 2.692127158366396e+000	 1.323802432407684e+000	 1.149083243910479e+001
 2.677728859214780e+000	 1.352689784332276e+000	 1.143463185290412e+001
 2.662994938263464e+000	 1.381470007436487e+000	 1.140561877925352e+001
 2.647926320568034e+000	 1.410137403538683e+000	 1.140370501563953e+001
 2.632524057386552e+000	 1.438686276770816e+000	 1.142518458410576e+001
 2.616789326589044e+000	 1.467110937006559e+000	 1.146602749797674e+001
 2.783583241889829e+000	 1.188427603972625e+000	 1.147786895649870e+001
 2.770759579995339e+000	 1.218026035190319e+000	 1.152185763750546e+001
 2.757594534788612e+000	 1.247545046002160e+000	 1.154435845491377e+001
 2.744088412869419e+000	 1.276978926523597e+000	 1.154348682624512e+001
 2.730241644501109e+000	 1.306321952472349e+000	 1.151719407333122e+001
 2.716054784548201e+000	 1.335568388427635e+000	 1.146346469489997e+001
 2.701528513313543e+000	 1.364712491136561e+000	 1.141518445629533e+001
 2.686663637272640e+000	 1.393748512864127e+000	 1.139492098674723e+001
 2.671461089702981e+000	 1.422670704783245e+000	 1.139838811986582e+001
 2.655921931206211e+000	 1.451473320400976e+000	 1.142139127094695e+001
 2.640047350121268e+000	 1.480150619017134e+000	 1.146032774071875e+001
 2.808105773482136e+000	 1.198897293911427e+000	 1.147280473908957e+001
 2.795169138981031e+000	 1.228756478410914e+000	 1.151734167956015e+001
 2.781888113683326e+000	 1.258535542834697e+000	 1.153725299827199e+001
 2.768263006889848e+000	 1.288228726995841e+000	 1.153053328702773e+001
 2.754294252654443e+000	 1.317830256182848e+000	 1.149500551616395e+001
 2.739982410729826e+000	 1.347334344447589e+000	 1.143555590557794e+001
 2.725328167412110e+000	 1.376735197940822e+000	 1.139693356921281e+001
 2.710332336281615e+000	 1.406027018291719e+000	 1.138381267806065e+001
 2.694995858837728e+000	 1.435204006027737e+000	 1.139186321811331e+001
 2.679319805025680e+000	 1.464260364031049e+000	 1.141657988082348e+001
 2.663305373653324e+000	 1.493190301027610e+000	 1.145331948270857e+001
 2.832628305074325e+000	 1.209366983850430e+000	 1.146824673610255e+001
 2.819578697966607e+000	 1.239486921631686e+000	 1.151195056725903e+001
 2.806181692577922e+000	 1.269526039667374e+000	 1.152768381234411e+001
 2.792437600910154e+000	 1.299478527468185e+000	 1.151335598353389e+001
 2.778346860807648e+000	 1.329338559893400e+000	 1.146670068362984e+001
 2.763910036911314e+000	 1.359100300467545e+000	 1.140978643273969e+001
 2.749127821510537e+000	 1.388757904745037e+000	 1.137933698137671e+001
 2.734001035290451e+000	 1.418305523719218e+000	 1.137180461797051e+001
 2.718530627972343e+000	 1.447737307272093e+000	 1.138287303484158e+001
 2.702717678845036e+000	 1.477047407660950e+000	 1.140805074787849e+001
 2.686563397185296e+000	 1.506229983037888e+000	 1.144268595916624e+001
 2.857150836666380e+000	 1.219836673789734e+000	 1.146340872950719e+001
 2.843988256952065e+000	 1.250217364852722e+000	 1.150485125611714e+001
 2.830475271472410e+000	 1.280516536500265e+000	 1.151482298908597e+001
 2.816612194930361e+000	 1.310728327940679e+000	 1.149118342754635e+001
 2.802399468960757e+000	 1.340846863604030e+000	 1.143371875546735e+001
 2.787837663092711e+000	 1.370866256487507e+000	 1.138561957736075e+001
 2.772927475608878e+000	 1.400780611549183e+000	 1.136189264428451e+001
 2.757669734299212e+000	 1.430584029146576e+000	 1.135847807111068e+001
 2.742065397106900e+000	 1.460270608516245e+000	 1.137112946026142e+001
 2.726115552664357e+000	 1.489834451290593e+000	 1.139542801605701e+001
 2.709821420717266e+000	 1.519269665047867e+000	 1.142679773183400e+001
 2.881673368258283e+000	 1.230306363729441e+000	 1.145770183703294e+001
 2.868397815937404e+000	 1.260947808074110e+000	 1.149540922442447e+001
 2.854768850366804e+000	 1.291507033333439e+000	 1.149804032482676e+001
 2.840786788950488e+000	 1.321978128413373e+000	 1.146343908826289e+001
 2.826452077113804e+000	 1.352355167314767e+000	 1.140265466246821e+001
 2.811765289274062e+000	 1.382632212507475e+000	 1.136255793531292e+001
 2.796727129707190e+000	 1.412803318353237e+000	 1.134413580116170e+001
 2.781338433307961e+000	 1.442862534573747e+000	 1.134344804016486e+001
 2.765600166241469e+000	 1.472803909760124e+000	 1.135637306176072e+001
 2.749513426483720e+000	 1.502621494919891e+000	 1.137862225020518e+001
 2.733079444249319e+000	 1.532309347057451e+000	 1.140575542296119e+001
 2.500499208922499e+000	 1.401912526955667e+000	 1.154555230271065e+001
 2.485144957250983e+000	 1.428953920535294e+000	 1.158842664813992e+001
 2.469475535571229e+000	 1.455865738217200e+000	 1.162210245209305e+001
 2.453492436359996e+000	 1.482642578306111e+000	 1.164723339296008e+001
 2.437197273632522e+000	 1.509279057994052e+000	 1.166459908004092e+001
 2.420591782792370e+000	 1.535769816732273e+000	 1.167510154336971e+001
 2.403677820370210e+000	 1.562109519609821e+000	 1.167976057806654e+001
 2.386457363650868e+000	 1.588292860734559e+000	 1.167970796309823e+001
 2.368932510188156e+000	 1.614314566612345e+000	 1.167618058294552e+001
 2.351105477207142e+000	 1.640169399520067e+000	 1.167051248919464e+001
 2.332978600893775e+000	 1.665852160868178e+000	 1.166412594743119e+001
 2.523757232456807e+000	 1.414952208965249e+000	 1.151540152937491e+001
 2.508260165484269e+000	 1.442245124067567e+000	 1.156191553962113e+001
 2.492444996996238e+000	 1.469407258041089e+000	 1.159829482815080e+001
 2.476313233351541e+000	 1.496433158947471e+000	 1.162528352777152e+001
 2.459866503577958e+000	 1.523317393911350e+000	 1.164376977244095e+001
 2.443106559220670e+000	 1.550054552523622e+000	 1.165478182225372e+001
 2.426035274078606e+000	 1.576639250251452e+000	 1.165948295310479e+001
 2.408654643828038e+000	 1.603066131850734e+000	 1.165916513237791e+001
 2.390966785532879e+000	 1.629329874776702e+000	 1.165524151116523e+001
 2.372973937041403e+000	 1.655425192588333e+000	 1.164923777258337e+001
 2.354678456269270e+000	 1.681346838342176e+000	 1.164278238463486e+001
 2.547015255990533e+000	 1.427991890975229e+000	 1.149475270422008e+001
 2.531375373716986e+000	 1.455536327600267e+000	 1.154278851980465e+001
 2.515414458420706e+000	 1.482948777865413e+000	 1.158007549156726e+001
 2.499134030342586e+000	 1.510223739589257e+000	 1.160743188940413e+001
 2.482535733522948e+000	 1.537355729829050e+000	 1.162583706399282e+001
 2.465621335648581e+000	 1.564339288315340e+000	 1.163642721239540e+001
 2.448392727786678e+000	 1.591168980893409e+000	 1.164048981783401e+001
 2.430851924004946e+000	 1.617839402967187e+000	 1.163945678651179e+001
 2.413001060877399e+000	 1.644345182941285e+000	 1.163489631406879e+001
 2.394842396875518e+000	 1.670680985656779e+000	 1.162850352387060e+001
 2.376378311644662e+000	 1.696841515816308e+000	 1.162208992875278e+001
 2.570273279523759e+000	 1.441031572985507e+000	 1.148115248723703e+001
 2.554490581949220e+000	 1.468827531133287e+000	 1.152895048061863e+001
 2.538383919844723e+000	 1.496490297690064e+000	 1.156567327401448e+001
 2.521954827333227e+000	 1.524014320231365e+000	 1.159219747355877e+001
 2.505204963467584e+000	 1.551394065747053e+000	 1.160957690821879e+001
 2.488136112076197e+000	 1.578624024107333e+000	 1.161903804060243e+001
 2.470750181494516e+000	 1.605698711535611e+000	 1.162197396061377e+001
 2.453049204181680e+000	 1.632612674083848e+000	 1.161993698641818e+001
 2.435035336221801e+000	 1.659360491106038e+000	 1.161462990746606e+001
 2.416710856709561e+000	 1.685936778725359e+000	 1.160789591449808e+001
 2.398078167020021e+000	 1.712336193290541e+000	 1.160170727143632e+001
 2.593531303056567e+000	 1.454071254995983e+000	 1.147229689808921e+001
 2.577605790181059e+000	 1.482118734666520e+000	 1.151844391650641e+001
 2.561353381268382e+000	 1.510031817514932e+000	 1.155344379261372e+001
 2.544775624323555e+000	 1.537804900873685e+000	 1.157821617063384e+001
 2.527874193411962e+000	 1.565432401665257e+000	 1.159387317465609e+001
 2.510650888503613e+000	 1.592908759899511e+000	 1.160171446835737e+001
 2.493107635202212e+000	 1.620228442177975e+000	 1.160322080526478e+001
 2.475246484358327e+000	 1.647385945200647e+000	 1.160004609567095e+001
 2.457069611566164e+000	 1.674375799270905e+000	 1.159400802719258e+001
 2.438579316543607e+000	 1.701192571794027e+000	 1.158707728671812e+001
 2.419778022395412e+000	 1.727830870764843e+000	 1.158136544204229e+001
 2.616789326589044e+000	 1.467110937006559e+000	 1.146602749797674e+001
 2.600720998412591e+000	 1.495409938199861e+000	 1.150944555452423e+001
 2.584322842691773e+000	 1.523573337339909e+000	 1.154186647922184e+001
 2.567596421313664e+000	 1.551595481516112e+000	 1.156423814604803e+001
 2.550543423356176e+000	 1.579470737583562e+000	 1.157771533300397e+001
 2.533165664930922e+000	 1.607193495691781e+000	 1.158365443357271e+001
 2.515465088909857e+000	 1.634758172820419e+000	 1.158360656526062e+001
 2.497443764534976e+000	 1.662159216317515e+000	 1.157930910305132e+001
 2.479103886910575e+000	 1.689391107435829e+000	 1.157267567708783e+001
 2.460447776377734e+000	 1.716448364862740e+000	 1.156578468525537e+001
 2.441477877770901e+000	 1.743325548239177e+000	 1.156086638247317e+001
 2.640047350121268e+000	 1.480150619017134e+000	 1.146032774071875e+001
 2.623836206643904e+000	 1.508701141733200e+000	 1.150026312749600e+001
 2.607292304114989e+000	 1.537114857164887e+000	 1.152954172914857e+001
 2.590417218303648e+000	 1.565386062158538e+000	 1.154912531885667e+001
 2.573212653300319e+000	 1.593509073501868e+000	 1.156019621687642e+001
 2.555680441358219e+000	 1.621478231484052e+000	 1.156415165566373e+001
 2.537822542617543e+000	 1.649287903462864e+000	 1.156259644730066e+001
 2.519641044711714e+000	 1.676932487434384e+000	 1.155733398284391e+001
 2.501138162255115e+000	 1.704406415600752e+000	 1.155035560532738e+001
 2.482316236212016e+000	 1.731704157931453e+000	 1.154382841012243e+001
 2.463177733146556e+000	 1.758820225713511e+000	 1.154008153810202e+001
 2.663305373653324e+000	 1.493190301027610e+000	 1.145331948270857e+001
 2.646951414875084e+000	 1.521992345266434e+000	 1.148933228148006e+001
 2.630261765538118e+000	 1.550656376989756e+000	 1.151518816200201e+001
 2.613238015293598e+000	 1.579176642800859e+000	 1.153184893265370e+001
 2.595881883244487e+000	 1.607547409420072e+000	 1.154050986229418e+001
 2.578195217785595e+000	 1.635762967276229e+000	 1.154259370006860e+001
 2.560179996325362e+000	 1.663817634105228e+000	 1.153974290124544e+001
 2.541838324888631e+000	 1.691705758551183e+000	 1.153381009057050e+001
 2.523172437599868e+000	 1.719421723765620e+000	 1.152684680737597e+001
 2.504184696046531e+000	 1.746959951000122e+000	 1.152109058929602e+001
 2.484877588522445e+000	 1.774314903187812e+000	 1.151895046379923e+001
 2.686563397185296e+000	 1.506229983037888e+000	 1.144268595916624e+001
 2.670066623106221e+000	 1.535283548799453e+000	 1.147519319567037e+001
 2.653231226961252e+000	 1.564197896814407e+000	 1.149763998786901e+001
 2.636058812283610e+000	 1.592967223442966e+000	 1.151148721316681e+001
 2.618551113188773e+000	 1.621585745338075e+000	 1.151794941638731e+001
 2.600709994213145e+000	 1.650047703068222e+000	 1.151846009861288e+001
 2.582537450033408e+000	 1.678347364747429e+000	 1.151468391360544e+001
 2.564035605065816e+000	 1.706479029667844e+000	 1.150850659201317e+001
 2.545206712944915e+000	 1.734437031930372e+000	 1.150202305394845e+001
 2.526053155881353e+000	 1.762215744068701e+000	 1.149752377005046e+001
 2.506577443898632e+000	 1.789809580662045e+000	 1.149747944414620e+001
 2.709821420717266e+000	 1.519269665047867e+000	 1.142679773183400e+001
 2.693181831337400e+000	 1.548574752332153e+000	 1.145567240167309e+001
 2.676200688384482e+000	 1.577739416638730e+000	 1.147569108696400e+001
 2.658879609273776e+000	 1.606757804084753e+000	 1.148722310733679e+001
 2.641220343133271e+000	 1.635624081255775e+000	 1.149190511208897e+001
 2.623224770640963e+000	 1.664332438859940e+000	 1.149132052236361e+001
 2.604894903741769e+000	 1.692877095389386e+000	 1.148714134196550e+001
 2.586232885243353e+000	 1.721252300784296e+000	 1.148127092352752e+001
 2.567240988290342e+000	 1.749452340094955e+000	 1.147583144247573e+001
 2.547921615716559e+000	 1.777471537137146e+000	 1.147314952782736e+001
 2.528277299275187e+000	 1.805304258136177e+000	 1.147574012698299e+001
 2.733079444249319e+000	 1.532309347057451e+000	 1.140575542296119e+001
 2.716297039568712e+000	 1.561865955864427e+000	 1.143021434897856e+001
 2.699170149807901e+000	 1.591280936462619e+000	 1.144754330751909e+001
 2.681700406264190e+000	 1.620548384726113e+000	 1.145796480309810e+001
 2.663889573078078e+000	 1.649662417173072e+000	 1.146186230489094e+001
 2.645739547069145e+000	 1.678617174651290e+000	 1.146083300384631e+001
 2.627252357450537e+000	 1.707406826031018e+000	 1.145691928790752e+001
 2.608430165421335e+000	 1.736025571900473e+000	 1.145202728178160e+001
 2.589275263636230e+000	 1.764467648259312e+000	 1.144829097067586e+001
 2.569790075552226e+000	 1.792727330205414e+000	 1.144805709159659e+001
 2.549977154652176e+000	 1.820798935610175e+000	 1.145386816949592e+001
 2.332978600893775e+000	 1.665852160868178e+000	 1.166412594743119e+001
 2.314554334913666e+000	 1.691357693984630e+000	 1.165351897101577e+001
 2.295835247520404e+000	 1.716680885717582e+000	 1.163536753459713e+001
 2.276824022517764e+000	 1.741816671372895e+000	 1.161145314599327e+001
 2.257523458769130e+000	 1.766760038549538e+000	 1.158358957114534e+001
 2.237936468933869e+000	 1.791506030387907e+000	 1.155360929635477e+001
 2.218066078094256e+000	 1.816049748781706e+000	 1.152334942841015e+001
 2.197915422274171e+000	 1.840386357549125e+000	 1.149463712749541e+001
 2.177487746850984e+000	 1.864511085559069e+000	 1.146927467245423e+001
 2.156786404862220e+000	 1.888419229808245e+000	 1.144902426196829e+001
 2.135814855208781e+000	 1.912106158445013e+000	 1.143559265844997e+001
 2.354678456269270e+000	 1.681346838342176e+000	 1.164278238463486e+001
 2.336082819704505e+000	 1.707089607402158e+000	 1.163235473832920e+001
 2.317189619488916e+000	 1.732648339057221e+000	 1.161442650332027e+001
 2.298001564389259e+000	 1.758017921504730e+000	 1.159071982947807e+001
 2.278521479302110e+000	 1.783193295721556e+000	 1.156299205434562e+001
 2.258752303978483e+000	 1.808169458742603e+000	 1.153302154283606e+001
 2.238697091637989e+000	 1.832941466902575e+000	 1.150259292907044e+001
 2.218359007473745e+000	 1.857504439036639e+000	 1.147348186037084e+001
 2.197741327049500e+000	 1.881853559635735e+000	 1.144743934837245e+001
 2.176847434590536e+000	 1.905984081952293e+000	 1.142617583642418e+001
 2.155680821170189e+000	 1.929891331052193e+000	 1.141134509587758e+001
 2.376378311644662e+000	 1.696841515816308e+000	 1.162208992875278e+001
 2.357611304495278e+000	 1.722821520819784e+000	 1.161201981163300e+001
 2.338543991457385e+000	 1.748615792396929e+000	 1.159446038535067e+001
 2.319179106260727e+000	 1.774219171636611e+000	 1.157104459071373e+001
 2.299519499835069e+000	 1.799626552893600e+000	 1.154344287198297e+001
 2.279568139023079e+000	 1.824832887097314e+000	 1.151334841229334e+001
 2.259328105181699e+000	 1.849833185023448e+000	 1.148246173551241e+001
 2.238802592673292e+000	 1.874622520524149e+000	 1.145247477981270e+001
 2.217994907247979e+000	 1.899196033712393e+000	 1.142505455345320e+001
 2.196908464318808e+000	 1.923548934096329e+000	 1.140182648770200e+001
 2.175546787131546e+000	 1.947676503659357e+000	 1.138435760545075e+001
 2.398078167020021e+000	 1.712336193290541e+000	 1.160170727143632e+001
 2.379139789286039e+000	 1.738553434237483e+000	 1.159222135044430e+001
 2.359898363425856e+000	 1.764583245736689e+000	 1.157520555697601e+001
 2.340356648132197e+000	 1.790420421768526e+000	 1.155217486989367e+001
 2.320517520368025e+000	 1.816059810065665e+000	 1.152468350382999e+001
 2.300383974067660e+000	 1.841496315452034e+000	 1.149430955618072e+001
 2.279959118725377e+000	 1.866724903144321e+000	 1.146263898478667e+001
 2.259246177872786e+000	 1.891740602011651e+000	 1.143124902699300e+001
 2.238248487446389e+000	 1.916538507789036e+000	 1.140169117626619e+001
 2.216969494046992e+000	 1.941113786240340e+000	 1.137547383722373e+001
 2.195412753092805e+000	 1.965461676266488e+000	 1.135404478374281e+001
 2.419778022395412e+000	 1.727830870764843e+000	 1.158136544204229e+001
 2.400668274076846e+000	 1.754285347655232e+000	 1.157273568169506e+001
 2.381252735394372e+000	 1.780550699076482e+000	 1.155646489780856e+001
 2.361534190003698e+000	 1.806621671900462e+000	 1.153392242969603e+001
 2.341515540900994e+000	 1.832493067237742e+000	 1.150651803125398e+001
 2.321199809112225e+000	 1.858159743806755e+000	 1.147568594294562e+001
 2.300590132269011e+000	 1.883616621265188e+000	 1.144286825859129e+001
 2.279689763072207e+000	 1.908858683499138e+000	 1.140949770322215e+001
 2.258502067644693e+000	 1.933880981865654e+000	 1.137697994403074e+001
 2.237030523775047e+000	 1.958678638384314e+000	 1.134667556136748e+001
 2.215278719053913e+000	 1.983246848873568e+000	 1.131988181073938e+001
 2.441477877770901e+000	 1.743325548239177e+000	 1.156086638247317e+001
 2.422196758867754e+000	 1.770017261073006e+000	 1.155340688454504e+001
 2.402607107362975e+000	 1.796518152416293e+000	 1.153810635983251e+001
 2.382711731875265e+000	 1.822822922032409e+000	 1.151616188436686e+001
 2.362513561433991e+000	 1.848926324409821e+000	 1.148881160370940e+001
 2.342015644156779e+000	 1.874823172161472e+000	 1.145731824090247e+001
 2.321221145812591e+000	 1.900508339386042e+000	 1.142295186312001e+001
 2.300133348271529e+000	 1.925976764986603e+000	 1.138697202901115e+001
 2.278755647842860e+000	 1.951223455942238e+000	 1.135060944479990e+001
 2.257091553502927e+000	 1.976243490528240e+000	 1.131504726236745e+001
 2.235144685014823e+000	 2.001032021480582e+000	 1.128142566986406e+001
 2.463177733146556e+000	 1.758820225713511e+000	 1.154008153810202e+001
 2.443725243658819e+000	 1.785749174490779e+000	 1.153414538796427e+001
 2.423961479331708e+000	 1.812485605756102e+000	 1.152006154726966e+001
 2.403889273746923e+000	 1.839024172164353e+000	 1.149882923896431e+001
 2.383511581967032e+000	 1.865359581581895e+000	 1.147148891594960e+001
 2.362831479201324e+000	 1.891486600516179e+000	 1.143910521352126e+001
 2.341852159356105e+000	 1.917400057506879e+000	 1.140274912408316e+001
 2.320576933470728e+000	 1.943094846474039e+000	 1.136347952204705e+001
 2.299009228040850e+000	 1.968565930018779e+000	 1.132232417319840e+001
 2.277152583230591e+000	 1.993808342672106e+000	 1.128026036822824e+001
 2.255010650975482e+000	 2.018817194087512e+000	 1.124603034263869e+001
 2.484877588522445e+000	 1.774314903187812e+000	 1.151895046379924e+001
 2.465253728450097e+000	 1.801481087908528e+000	 1.151492658030393e+001
 2.445315851300619e+000	 1.828453059095895e+000	 1.150232430660388e+001
 2.425066815618706e+000	 1.855225422296282e+000	 1.148192043814259e+001
 2.404509602500136e+000	 1.881792838753954e+000	 1.145453269530128e+001
 2.383647314245862e+000	 1.908150028870870e+000	 1.142100212637278e+001
 2.362483172899539e+000	 1.934291775627691e+000	 1.138217469597474e+001
 2.341020518669781e+000	 1.960212927961440e+000	 1.133888219292487e+001
 2.319262808238635e+000	 1.985908404095269e+000	 1.129192259827458e+001
 2.297213612957994e+000	 2.011373194815898e+000	 1.124494137532536e+001
 2.274876616935843e+000	 2.036602366694342e+000	 1.121961305226710e+001
 2.506577443898632e+000	 1.789809580662045e+000	 1.149747944414620e+001
 2.486782213241644e+000	 1.817213001326228e+000	 1.149578943012989e+001
 2.466670223269748e+000	 1.844420512435651e+000	 1.148494932614717e+001
 2.446244357490642e+000	 1.871426672428186e+000	 1.146548992389673e+001
 2.425507623033317e+000	 1.898226095925993e+000	 1.143798219839253e+001
 2.404463149290395e+000	 1.924813457225536e+000	 1.140301916502407e+001
 2.383114186442888e+000	 1.951183493748474e+000	 1.136119688472208e+001
 2.361464103868667e+000	 1.977331009448800e+000	 1.131309475756103e+001
 2.339516388436177e+000	 2.003250878171699e+000	 1.125949543172620e+001
 2.317274642685093e+000	 2.028938046959606e+000	 1.121898347895394e+001
 2.294742582895855e+000	 2.054387539301056e+000	 1.120194941849208e+001
 2.528277299275187e+000	 1.805304258136177e+000	 1.147574012698299e+001
 2.508310698033515e+000	 1.832944914743853e+000	 1.147683511764143e+001
 2.488024595239138e+000	 1.860387965775353e+000	 1.146805074457492e+001
 2.467421899362762e+000	 1.887627922560051e+000	 1.144964920173161e+001
 2.446505643566593e+000	 1.914659353098001e+000	 1.142193171676608e+001
 2.425278984334927e+000	 1.941476885580175e+000	 1.138521986322561e+001
 2.403745199986136e+000	 1.968075211869223e+000	 1.133983598291348e+001
 2.381907689067360e+000	 1.994449090936112e+000	 1.128608286528432e+001
 2.359769968633441e+000	 2.020593352248060e+000	 1.123387743897130e+001
 2.337335672411845e+000	 2.046502899103217e+000	 1.120314565829658e+001
 2.314608548855468e+000	 2.072172711907637e+000	 1.119285285021649e+001
 2.549977154652176e+000	 1.820798935610175e+000	 1.145386816949592e+001
 2.529839182825770e+000	 1.848676828161380e+000	 1.145822567604524e+001
 2.509378967208837e+000	 1.876355419114987e+000	 1.145180076789609e+001
 2.488599441235097e+000	 1.903829172691866e+000	 1.143456541475153e+001
 2.467503664099979e+000	 1.931092610269970e+000	 1.140652909084902e+001
 2.446094819379461e+000	 1.958140313934778e+000	 1.136771954077783e+001
 2.424376213529276e+000	 1.984966929989930e+000	 1.131816261685584e+001
 2.402351274265837e+000	 2.011567172423368e+000	 1.126094433037635e+001
 2.380023548830396e+000	 2.037935826324343e+000	 1.121958732758046e+001
 2.357396702138207e+000	 2.064067751246718e+000	 1.119736345980817e+001
 2.334474514814633e+000	 2.089957884514068e+000	 1.119217295103101e+001
 2.135814855208781e+000	 1.912106158445013e+000	 1.143559265844998e+001
 2.114579866454582e+000	 1.935563812195057e+000	 1.142225877058723e+001
 2.093081977940697e+000	 1.958791283446953e+000	 1.139959019141064e+001
 2.071324954503008e+000	 1.981784175181508e+000	 1.136505250285440e+001
 2.049312658562491e+000	 2.004538173005029e+000	 1.131636556218861e+001
 2.027049047843805e+000	 2.027049047843805e+000	 1.126448978074956e+001
 2.004538173005029e+000	 2.049312658562490e+000	 1.121211300132421e+001
 1.981784175181508e+000	 2.071324954503008e+000	 1.115903319269090e+001
 1.958791283446953e+000	 2.093081977940697e+000	 1.111030837609679e+001
 1.935563812195057e+000	 2.114579866454582e+000	 1.106342864982610e+001
 1.912106158445013e+000	 2.135814855208781e+000	 1.101575350262948e+001
 2.155680821170189e+000	 1.929891331052193e+000	 1.141134509587758e+001
 2.134248318309155e+000	 1.953567172698978e+000	 1.139550979161935e+001
 2.112550470365117e+000	 1.977010690839198e+000	 1.136873303772156e+001
 2.090591077192041e+000	 2.000217447555418e+000	 1.132874672519748e+001
 2.068374037136654e+000	 2.023183088324236e+000	 1.128435568367636e+001
 2.045903344735822e+000	 2.045903344735822e+000	 1.124287870716525e+001
 2.023183088324237e+000	 2.068374037136653e+000	 1.120026263833521e+001
 2.000217447555417e+000	 2.090591077192041e+000	 1.115238719424454e+001
 1.977010690839198e+000	 2.112550470365117e+000	 1.110197829008195e+001
 1.953567172698978e+000	 2.134248318309155e+000	 1.105313675957848e+001
 1.929891331052193e+000	 2.155680821170189e+000	 1.100347990946231e+001
 2.175546787131546e+000	 1.947676503659357e+000	 1.138435760545075e+001
 2.153916770163675e+000	 1.971570533202878e+000	 1.136453371121541e+001
 2.132018962789484e+000	 1.995230098231415e+000	 1.133200883109312e+001
 2.109857199881020e+000	 2.018650719929294e+000	 1.129220386247734e+001
 2.087435415710766e+000	 2.041828003643404e+000	 1.125757987953952e+001
 2.064757641627792e+000	 2.064757641627792e+000	 1.122495505230735e+001
 2.041828003643404e+000	 2.087435415710766e+000	 1.119058552218838e+001
 2.018650719929294e+000	 2.109857199881021e+000	 1.115066415383790e+001
 1.995230098231415e+000	 2.132018962789484e+000	 1.110163054787662e+001
 1.971570533202878e+000	 2.153916770163674e+000	 1.104962322878051e+001
 1.947676503659357e+000	 2.175546787131546e+000	 1.099699998317526e+001
 2.195412753092805e+000	 1.965461676266488e+000	 1.135404478374281e+001
 2.173585222018087e+000	 1.989573893706733e+000	 1.132866492500667e+001
 2.151487455213741e+000	 2.013449505623575e+000	 1.129257087188196e+001
 2.129123322569894e+000	 2.037083992303101e+000	 1.126173922379253e+001
 2.106496794284778e+000	 2.060472918962490e+000	 1.123529717570315e+001
 2.083611938519672e+000	 2.083611938519672e+000	 1.120993029948615e+001
 2.060472918962490e+000	 2.106496794284777e+000	 1.118225422749469e+001
 2.037083992303101e+000	 2.129123322569894e+000	 1.114882566537264e+001
 2.013449505623575e+000	 2.151487455213741e+000	 1.110615357665927e+001
 1.989573893706733e+000	 2.173585222018087e+000	 1.105218608509897e+001
 1.965461676266487e+000	 2.195412753092805e+000	 1.099564181361016e+001
 2.215278719053913e+000	 1.983246848873568e+000	 1.131988181073938e+001
 2.193253673872338e+000	 2.007577254210522e+000	 1.128854894219499e+001
 2.170955947637836e+000	 2.031668913015651e+000	 1.125968482295785e+001
 2.148389445258608e+000	 2.055517264676805e+000	 1.123671968601781e+001
 2.125558172858639e+000	 2.079117834281456e+000	 1.121681747738980e+001
 2.102466235411413e+000	 2.102466235411413e+000	 1.119706698001811e+001
 2.079117834281456e+000	 2.125558172858639e+000	 1.117449223272899e+001
 2.055517264676805e+000	 2.148389445258608e+000	 1.114606318864090e+001
 2.031668913015651e+000	 2.170955947637836e+000	 1.110870654127325e+001
 2.007577254210522e+000	 2.193253673872338e+000	 1.105931664558536e+001
 1.983246848873568e+000	 2.215278719053913e+000	 1.099870430877021e+001
 2.235144685014823e+000	 2.001032021480582e+000	 1.128142566986406e+001
 2.212922125726377e+000	 2.025580614714222e+000	 1.125417104117215e+001
 2.190424440061712e+000	 2.049888320407614e+000	 1.123332041847438e+001
 2.167655567947108e+000	 2.073950537050373e+000	 1.121656059331649e+001
 2.144619551432299e+000	 2.097762749600260e+000	 1.120149967933693e+001
 2.121320532302972e+000	 2.121320532302971e+000	 1.118567679825729e+001
 2.097762749600260e+000	 2.144619551432299e+000	 1.116657207539735e+001
 2.073950537050372e+000	 2.167655567947108e+000	 1.114161687228983e+001
 2.049888320407614e+000	 2.190424440061712e+000	 1.110820418228854e+001
 2.025580614714222e+000	 2.212922125726376e+000	 1.106369911402543e+001
 2.001032021480582e+000	 2.235144685014823e+000	 1.100544938718766e+001
 2.255010650975482e+000	 2.018817194087512e+000	 1.124603034263870e+001
 2.232590577580147e+000	 2.043583975217812e+000	 1.122749749638081e+001
 2.209892932485317e+000	 2.068107727799438e+000	 1.121300568102987e+001
 2.186921690635343e+000	 2.092383809423768e+000	 1.120072391954505e+001
 2.163680930005709e+000	 2.116407664918862e+000	 1.118874982801936e+001
 2.140174829194301e+000	 2.140174829194301e+000	 1.117511881036897e+001
 2.116407664918862e+000	 2.163680930005709e+000	 1.115781356192459e+001
 2.092383809423768e+000	 2.186921690635343e+000	 1.113477380719884e+001
 2.068107727799437e+000	 2.209892932485317e+000	 1.110390619536112e+001
 2.043583975217812e+000	 2.232590577580147e+000	 1.106309427588530e+001
 2.018817194087512e+000	 2.255010650975482e+000	 1.101020847645424e+001
 2.274876616935843e+000	 2.036602366694342e+000	 1.121961305226710e+001
 2.252259029433597e+000	 2.061587335721270e+000	 1.120817639500505e+001
 2.229361424908593e+000	 2.086327135191092e+000	 1.119831260454571e+001
 2.206187813323257e+000	 2.110817081796956e+000	 1.118871647703354e+001
 2.182742308578817e+000	 2.135052580237221e+000	 1.117801933269827e+001
 2.159029126085356e+000	 2.159029126085355e+000	 1.116479765356098e+001
 2.135052580237221e+000	 2.182742308578817e+000	 1.114758202891661e+001
 2.110817081796957e+000	 2.206187813323258e+000	 1.112486633154166e+001
 2.086327135191092e+000	 2.229361424908593e+000	 1.109511704577198e+001
 2.061587335721269e+000	 2.252259029433597e+000	 1.105678266750035e+001
 2.036602366694342e+000	 2.274876616935843e+000	 1.100830309576420e+001
 2.294742582895855e+000	 2.054387539301056e+000	 1.120194941849208e+001
 2.271927481286673e+000	 2.079590696224573e+000	 1.119589684535591e+001
 2.248829917331490e+000	 2.104546542582549e+000	 1.118885541913407e+001
 2.225453936010800e+000	 2.129250354169905e+000	 1.118008816893165e+001
 2.201803687151573e+000	 2.153697495555299e+000	 1.116880322233786e+001
 2.177883422976089e+000	 2.177883422976089e+000	 1.115416182271479e+001
 2.153697495555299e+000	 2.201803687151573e+000	 1.113528665268409e+001
 2.129250354169905e+000	 2.225453936010800e+000	 1.111127038440141e+001
 2.104546542582549e+000	 2.248829917331490e+000	 1.108118437534083e+001
 2.079590696224572e+000	 2.271927481286673e+000	 1.104408742718673e+001
 2.054387539301056e+000	 2.294742582895855e+000	 1.099903452505395e+001
 2.314608548855468e+000	 2.072172711907637e+000	 1.119285285021649e+001
 2.291595933139321e+000	 2.097594056727699e+000	 1.119038730736199e+001
 2.268298409753951e+000	 2.122765949973781e+000	 1.118428889393343e+001
 2.244720058697916e+000	 2.147683626542579e+000	 1.117443028250273e+001
 2.220865065723928e+000	 2.172342410873053e+000	 1.116063844563383e+001
 2.196737719866457e+000	 2.196737719866457e+000	 1.114270199156827e+001
 2.172342410873052e+000	 2.220865065723928e+000	 1.112037880412798e+001
 2.147683626542579e+000	 2.244720058697916e+000	 1.109340390502175e+001
 2.122765949973781e+000	 2.268298409753950e+000	 1.106149745480888e+001
 2.097594056727699e+000	 2.291595933139321e+000	 1.102437280761652e+001
 2.072172711907637e+000	 2.314608548855468e+000	 1.098174453433560e+001
 2.334474514814633e+000	 2.089957884514068e+000	 1.119217295103101e+001
 2.311264384991488e+000	 2.115597417230627e+000	 1.119141395510854e+001
 2.287766902175922e+000	 2.140985357364761e+000	 1.118430667564989e+001
 2.263986181384554e+000	 2.166116898914944e+000	 1.117137382092637e+001
 2.239926444295830e+000	 2.190987326190443e+000	 1.115310221158536e+001
 2.215592016756413e+000	 2.215592016756412e+000	 1.112994937579679e+001
 2.190987326190444e+000	 2.239926444295831e+000	 1.110235044628510e+001
 2.166116898914944e+000	 2.263986181384554e+000	 1.107072527497554e+001
 2.140985357364762e+000	 2.287766902175922e+000	 1.103548567898166e+001
 2.115597417230626e+000	 2.311264384991489e+000	 1.099704273046990e+001
 2.089957884514069e+000	 2.334474514814633e+000	 1.095581400257156e+001
 1.912106158445013e+000	 2.135814855208781e+000	 1.101575350262948e+001
 1.888419229808245e+000	 2.156786404862220e+000	 1.096330962906536e+001
 1.864511085559069e+000	 2.177487746850984e+000	 1.090485261902236e+001
 1.840386357549125e+000	 2.197915422274170e+000	 1.084197922257055e+001
 1.816049748781705e+000	 2.218066078094255e+000	 1.077637820618852e+001
 1.791506030387908e+000	 2.237936468933869e+000	 1.070980466215731e+001
 1.766760038549538e+000	 2.257523458769129e+000	 1.064405439609157e+001
 1.741816671372895e+000	 2.276824022517764e+000	 1.058093861289779e+001
 1.716680885717582e+000	 2.295835247520404e+000	 1.052225911754969e+001
 1.691357693984630e+000	 2.314554334913665e+000	 1.046978424140011e+001
 1.665852160868179e+000	 2.332978600893775e+000	 1.042522569736290e+001
 1.929891331052193e+000	 2.155680821170189e+000	 1.100347990946231e+001
 1.905984081952293e+000	 2.176847434590535e+000	 1.094972912484225e+001
 1.881853559635735e+000	 2.197741327049500e+000	 1.089103094868349e+001
 1.857504439036638e+000	 2.218359007473745e+000	 1.082878933208764e+001
 1.832941466902574e+000	 2.238697091637989e+000	 1.076449799672379e+001
 1.808169458742604e+000	 2.258752303978484e+000	 1.069971347382747e+001
 1.783193295721556e+000	 2.278521479302110e+000	 1.063602823356064e+001
 1.758017921504730e+000	 2.298001564389258e+000	 1.057504413804662e+001
 1.732648339057221e+000	 2.317189619488917e+000	 1.051834644729118e+001
 1.707089607402157e+000	 2.336082819704504e+000	 1.046747860122236e+001
 1.681346838342176e+000	 2.354678456269270e+000	 1.042391799328542e+001
 1.947676503659357e+000	 2.175546787131546e+000	 1.099699998317526e+001
 1.923548934096329e+000	 2.196908464318807e+000	 1.094114648225843e+001
 1.899196033712393e+000	 2.217994907247979e+000	 1.088152405038277e+001
 1.874622520524149e+000	 2.238802592673292e+000	 1.081932933889322e+001
 1.849833185023448e+000	 2.259328105181699e+000	 1.075584679607467e+001
 1.824832887097314e+000	 2.279568139023080e+000	 1.069242037543529e+001
 1.799626552893600e+000	 2.299519499835069e+000	 1.063042534590733e+001
 1.774219171636611e+000	 2.319179106260727e+000	 1.057124045093996e+001
 1.748615792396929e+000	 2.338543991457386e+000	 1.051622065914880e+001
 1.722821520819784e+000	 2.357611304495278e+000	 1.046667074289055e+001
 1.696841515816308e+000	 2.376378311644662e+000	 1.042381991291405e+001
 1.965461676266487e+000	 2.195412753092805e+000	 1.099564181361016e+001
 1.941113786240340e+000	 2.216969494046992e+000	 1.093692165310621e+001
 1.916538507789037e+000	 2.238248487446389e+000	 1.087572641902348e+001
 1.891740602011651e+000	 2.259246177872786e+000	 1.081303196259176e+001
 1.866724903144321e+000	 2.279959118725377e+000	 1.074990023695203e+001
 1.841496315452034e+000	 2.300383974067659e+000	 1.068744960944382e+001
 1.816059810065665e+000	 2.320517520368025e+000	 1.062682528667263e+001
 1.790420421768526e+000	 2.340356648132197e+000	 1.056917011365984e+001
 1.764583245736689e+000	 2.359898363425857e+000	 1.051559600385198e+001
 1.738553434237483e+000	 2.379139789286039e+000	 1.046715625014632e+001
 1.712336193290541e+000	 2.398078167020021e+000	 1.042481895843483e+001
 1.983246848873568e+000	 2.215278719053913e+000	 1.099870430877021e+001
 1.958678638384314e+000	 2.237030523775047e+000	 1.093638147279731e+001
 1.933880981865654e+000	 2.258502067644693e+000	 1.087299520454752e+001
 1.908858683499138e+000	 2.279689763072207e+000	 1.080928806040122e+001
 1.883616621265188e+000	 2.300590132269012e+000	 1.074608728944411e+001
 1.858159743806755e+000	 2.321199809112224e+000	 1.068427367940567e+001
 1.832493067237741e+000	 2.341515540900993e+000	 1.062475052552128e+001
 1.806621671900462e+000	 2.361534190003698e+000	 1.056841299863896e+001
 1.780550699076482e+000	 2.381252735394371e+000	 1.051611818415307e+001
 1.754285347655232e+000	 2.400668274076846e+000	 1.046865605638898e+001
 1.727830870764843e+000	 2.419778022395412e+000	 1.042672164395627e+001
 2.001032021480582e+000	 2.235144685014823e+000	 1.100544938718766e+001
 1.976243490528240e+000	 2.257091553502927e+000	 1.093882668642105e+001
 1.951223455942238e+000	 2.278755647842859e+000	 1.087265710762798e+001
 1.925976764986603e+000	 2.300133348271529e+000	 1.080745339146912e+001
 1.900508339386043e+000	 2.321221145812591e+000	 1.074379689422477e+001
 1.874823172161473e+000	 2.342015644156779e+000	 1.068231985361789e+001
 1.848926324409820e+000	 2.362513561433990e+000	 1.062367282518135e+001
 1.822822922032408e+000	 2.382711731875264e+000	 1.056849254300735e+001
 1.796518152416293e+000	 2.402607107362974e+000	 1.051737049198326e+001
 1.770017261073006e+000	 2.422196758867754e+000	 1.047082247131632e+001
 1.743325548239177e+000	 2.441477877770901e+000	 1.042925941957363e+001
 2.018817194087512e+000	 2.255010650975482e+000	 1.101020847645424e+001
 1.993808342672107e+000	 2.277152583230591e+000	 1.094353902695561e+001
 1.968565930018780e+000	 2.299009228040851e+000	 1.087401532609395e+001
 1.943094846474039e+000	 2.320576933470728e+000	 1.080685543019003e+001
 1.917400057506879e+000	 2.341852159356104e+000	 1.074238464268060e+001
 1.891486600516179e+000	 2.362831479201324e+000	 1.068097671321531e+001
 1.865359581581894e+000	 2.383511581967032e+000	 1.062301965990581e+001
 1.839024172164352e+000	 2.403889273746924e+000	 1.056888204106559e+001
 1.812485605756102e+000	 2.423961479331709e+000	 1.051887997981944e+001
 1.785749174490779e+000	 2.443725243658818e+000	 1.047324523730003e+001
 1.758820225713511e+000	 2.463177733146556e+000	 1.043209462009315e+001
 2.036602366694342e+000	 2.274876616935843e+000	 1.100830309576420e+001
 2.011373194815899e+000	 2.297213612957994e+000	 1.094791524248284e+001
 1.985908404095269e+000	 2.319262808238634e+000	 1.087635654898741e+001
 1.960212927961440e+000	 2.341020518669781e+000	 1.080680022553054e+001
 1.934291775627691e+000	 2.362483172899540e+000	 1.074117950108823e+001
 1.908150028870870e+000	 2.383647314245862e+000	 1.067960074198751e+001
 1.881792838753955e+000	 2.404509602500136e+000	 1.062218067291828e+001
 1.855225422296282e+000	 2.425066815618706e+000	 1.056901097255330e+001
 1.828453059095894e+000	 2.445315851300618e+000	 1.052012366416983e+001
 1.801481087908528e+000	 2.465253728450097e+000	 1.047545761367856e+001
 1.774314903187812e+000	 2.484877588522445e+000	 1.043482643690796e+001
 2.054387539301056e+000	 2.294742582895855e+000	 1.099903452505395e+001
 2.028938046959606e+000	 2.317274642685093e+000	 1.094472860440268e+001
 2.003250878171699e+000	 2.339516388436176e+000	 1.087880049247276e+001
 1.977331009448800e+000	 2.361464103868666e+000	 1.080657930357236e+001
 1.951183493748474e+000	 2.383114186442888e+000	 1.073949057617260e+001
 1.924813457225537e+000	 2.404463149290396e+000	 1.067752295538896e+001
 1.898226095925993e+000	 2.425507623033317e+000	 1.062051417048033e+001
 1.871426672428187e+000	 2.446244357490643e+000	 1.056827136454430e+001
 1.844420512435650e+000	 2.466670223269748e+000	 1.052053475923311e+001
 1.817213001326227e+000	 2.486782213241644e+000	 1.047694248727525e+001
 1.789809580662045e+000	 2.506577443898633e+000	 1.043699691162375e+001
 2.072172711907637e+000	 2.314608548855468e+000	 1.098174453433560e+001
 2.046502899103217e+000	 2.337335672411845e+000	 1.093274480180240e+001
 2.020593352248060e+000	 2.359769968633441e+000	 1.087478619029960e+001
 1.994449090936111e+000	 2.381907689067359e+000	 1.080547661067797e+001
 1.968075211869222e+000	 2.403745199986136e+000	 1.073661391955991e+001
 1.941476885580175e+000	 2.425278984334927e+000	 1.067405556638952e+001
 1.914659353098001e+000	 2.446505643566593e+000	 1.061735365038016e+001
 1.887627922560051e+000	 2.467421899362762e+000	 1.056602418494832e+001
 1.860387965775354e+000	 2.488024595239140e+000	 1.051950893891767e+001
 1.832944914743853e+000	 2.508310698033516e+000	 1.047713850756635e+001
 1.805304258136177e+000	 2.528277299275187e+000	 1.043809695012623e+001
 2.089957884514069e+000	 2.334474514814633e+000	 1.095581400257156e+001
 2.064067751246718e+000	 2.357396702138207e+000	 1.091132342619840e+001
 2.037935826324343e+000	 2.380023548830395e+000	 1.086069079908281e+001
 2.011567172423368e+000	 2.402351274265837e+000	 1.080073181343473e+001
 1.984966929989930e+000	 2.424376213529276e+000	 1.073183936880860e+001
 1.958140313934778e+000	 2.446094819379461e+000	 1.066849868596916e+001
 1.931092610269970e+000	 2.467503664099979e+000	 1.061201436279223e+001
 1.903829172691866e+000	 2.488599441235097e+000	 1.056160576573556e+001
 1.876355419114987e+000	 2.509378967208838e+000	 1.051641062553123e+001
 1.848676828161380e+000	 2.529839182825770e+000	 1.047544624503074e+001
 1.820798935610176e+000	 2.549977154652176e+000	 1.043757235587391e+001
 1.665852160868179e+000	 2.332978600893775e+000	 1.042522569736290e+001
 1.640169399520067e+000	 2.351105477207141e+000	 1.038068271662472e+001
 1.614314566612346e+000	 2.368932510188156e+000	 1.032813305640824e+001
 1.588292860734558e+000	 2.386457363650868e+000	 1.026894776739209e+001
 1.562109519609820e+000	 2.403677820370209e+000	 1.020434781178938e+001
 1.535769816732273e+000	 2.420591782792370e+000	 1.013538905538024e+001
 1.509279057994052e+000	 2.437197273632522e+000	 1.006294919128332e+001
 1.482642578306111e+000	 2.453492436359996e+000	 9.987716704809959e+000
 1.455865738217200e+000	 2.469475535571230e+000	 9.910181971354955e+000
 1.428953920535294e+000	 2.485144957250983e+000	 9.830630561273432e+000
 1.401912526955667e+000	 2.500499208922499e+000	 9.749138807223028e+000
 1.681346838342176e+000	 2.354678456269270e+000	 1.042391799328542e+001
 1.655425192588333e+000	 2.372973937041403e+000	 1.037942739488873e+001
 1.629329874776701e+000	 2.390966785532879e+000	 1.032609630926504e+001
 1.603066131850734e+000	 2.408654643828039e+000	 1.026571949012703e+001
 1.576639250251452e+000	 2.426035274078607e+000	 1.019993121864653e+001
 1.550054552523622e+000	 2.443106559220670e+000	 1.013018842047643e+001
 1.523317393911349e+000	 2.459866503577958e+000	 1.005775584436420e+001
 1.496433158947471e+000	 2.476313233351541e+000	 9.983693421117700e+000
 1.469407258041088e+000	 2.492444996996238e+000	 9.908845903229986e+000
 1.442245124067568e+000	 2.508260165484270e+000	 9.833834866346278e+000
 1.414952208965249e+000	 2.523757232456807e+000	 9.759053134136263e+000
 1.696841515816308e+000	 2.376378311644662e+000	 1.042381991291405e+001
 1.670680985656779e+000	 2.394842396875518e+000	 1.037914324826760e+001
 1.644345182941285e+000	 2.413001060877398e+000	 1.032486142287541e+001
 1.617839402967188e+000	 2.430851924004947e+000	 1.026313453050173e+001
 1.591168980893409e+000	 2.448392727786678e+000	 1.019595131027864e+001
 1.564339288315340e+000	 2.465621335648581e+000	 1.012511041503749e+001
 1.537355729829050e+000	 2.482535733522948e+000	 1.005220387576726e+001
 1.510223739589258e+000	 2.499134030342586e+000	 9.978602890641708e+000
 1.482948777865412e+000	 2.515414458420706e+000	 9.905446047495211e+000
 1.455536327600267e+000	 2.531375373716986e+000	 9.833630068347468e+000
 1.427991890975229e+000	 2.547015255990533e+000	 9.763803143755697e+000
 1.712336193290541e+000	 2.398078167020021e+000	 1.042481895843483e+001
 1.685936778725359e+000	 2.416710856709561e+000	 1.037981614888670e+001
 1.659360491106039e+000	 2.435035336221800e+000	 1.032451571849972e+001
 1.632612674083848e+000	 2.453049204181680e+000	 1.026138677693092e+001
 1.605698711535610e+000	 2.470750181494515e+000	 1.019271566213436e+001
 1.578624024107333e+000	 2.488136112076197e+000	 1.012058538111083e+001
 1.551394065747053e+000	 2.505204963467584e+000	 1.004685738623616e+001
 1.524014320231365e+000	 2.521954827333227e+000	 9.973155825581396e+000
 1.496490297690064e+000	 2.538383919844724e+000	 9.900854384921081e+000
 1.468827531133287e+000	 2.554490581949219e+000	 9.831065817642445e+000
 1.441031572985507e+000	 2.570273279523760e+000	 9.764634236702419e+000
 1.727830870764843e+000	 2.419778022395412e+000	 1.042672164395627e+001
 1.701192571794027e+000	 2.438579316543607e+000	 1.038134459743420e+001
 1.674375799270905e+000	 2.457069611566164e+000	 1.032505287816288e+001
 1.647385945200647e+000	 2.475246484358327e+000	 1.026057029192929e+001
 1.620228442177975e+000	 2.493107635202212e+000	 1.019042588336677e+001
 1.592908759899511e+000	 2.510650888503613e+000	 1.011693156495415e+001
 1.565432401665257e+000	 2.527874193411962e+000	 1.004216222620848e+001
 1.537804900873685e+000	 2.544775624323555e+000	 9.967938471761029e+000
 1.510031817514932e+000	 2.561353381268382e+000	 9.895812115094909e+000
 1.482118734666520e+000	 2.577605790181060e+000	 9.827054531985585e+000
 1.454071254995983e+000	 2.593531303056567e+000	 9.762647954325525e+000
 1.743325548239177e+000	 2.441477877770901e+000	 1.042925941957363e+001
 1.716448364862740e+000	 2.460447776377734e+000	 1.038354554579526e+001
 1.689391107435829e+000	 2.479103886910575e+000	 1.032637866146012e+001
 1.662159216317515e+000	 2.497443764534976e+000	 1.026068492181978e+001
 1.634758172820419e+000	 2.515465088909857e+000	 1.018918312128441e+001
 1.607193495691781e+000	 2.533165664930923e+000	 1.011436052116618e+001
 1.579470737583563e+000	 2.550543423356175e+000	 1.003845130763704e+001
 1.551595481516112e+000	 2.567596421313664e+000	 9.963417839200277e+000
 1.523573337339909e+000	 2.584322842691774e+000	 9.890934819819517e+000
 1.495409938199861e+000	 2.600720998412591e+000	 9.822376509810491e+000
 1.467110937006559e+000	 2.616789326589043e+000	 9.758807061895560e+000
 1.758820225713511e+000	 2.463177733146556e+000	 1.043209462009315e+001
 1.731704157931453e+000	 2.482316236212016e+000	 1.038616023905668e+001
 1.704406415600752e+000	 2.501138162255115e+000	 1.032831663655379e+001
 1.676932487434383e+000	 2.519641044711714e+000	 1.026164191541906e+001
 1.649287903462864e+000	 2.537822542617543e+000	 1.018899356939916e+001
 1.621478231484051e+000	 2.555680441358218e+000	 1.011298251472795e+001
 1.593509073501868e+000	 2.573212653300319e+000	 1.003594990759410e+001
 1.565386062158539e+000	 2.590417218303647e+000	 9.959946917764233e+000
 1.537114857164887e+000	 2.607292304114989e+000	 9.886717604175319e+000
 1.508701141733201e+000	 2.623836206643904e+000	 9.817685012922931e+000
 1.480150619017134e+000	 2.640047350121267e+000	 9.753940591963785e+000
 1.774314903187812e+000	 2.484877588522445e+000	 1.043482643690796e+001
 1.746959951000122e+000	 2.504184696046531e+000	 1.038886007569910e+001
 1.719421723765620e+000	 2.523172437599867e+000	 1.033061392449200e+001
 1.691705758551183e+000	 2.541838324888631e+000	 1.026326955115202e+001
 1.663817634105228e+000	 2.560179996325362e+000	 1.018977397885085e+001
 1.635762967276229e+000	 2.578195217785595e+000	 1.011281192108281e+001
 1.607547409420072e+000	 2.595881883244487e+000	 1.003478096416162e+001
 1.579176642800859e+000	 2.613238015293599e+000	 9.957769878803774e+000
 1.550656376989755e+000	 2.630261765538118e+000	 9.883540216610470e+000
 1.521992345266434e+000	 2.646951414875085e+000	 9.813511320467372e+000
 1.493190301027610e+000	 2.663305373653324e+000	 9.748748850322238e+000
 1.789809580662045e+000	 2.506577443898633e+000	 1.043699691162375e+001
 1.762215744068701e+000	 2.526053155881353e+000	 1.039125248487360e+001
 1.734437031930373e+000	 2.545206712944916e+000	 1.033294695604219e+001
 1.706479029667844e+000	 2.564035605065815e+000	 1.026531877208377e+001
 1.678347364747429e+000	 2.582537450033407e+000	 1.019135717300470e+001
 1.650047703068223e+000	 2.600709994213145e+000	 1.011377262437415e+001
 1.621585745338075e+000	 2.618551113188773e+000	 1.003497036507387e+001
 1.592967223442966e+000	 2.636058812283610e+000	 9.957027263636224e+000
 1.564197896814406e+000	 2.653231226961252e+000	 9.881672149330537e+000
 1.535283548799454e+000	 2.670066623106221e+000	 9.810330021051401e+000
 1.506229983037888e+000	 2.686563397185296e+000	 9.746053637279758e+000
 1.805304258136177e+000	 2.528277299275187e+000	 1.043809695012623e+001
 1.777471537137146e+000	 2.547921615716559e+000	 1.039288681973678e+001
 1.749452340094956e+000	 2.567240988290342e+000	 1.033492724028796e+001
 1.721252300784296e+000	 2.586232885243353e+000	 1.026746882839454e+001
 1.692877095389386e+000	 2.604894903741769e+000	 1.019349756502994e+001
 1.664332438859940e+000	 2.623224770640964e+000	 1.011570341395063e+001
 1.635624081255775e+000	 2.641220343133271e+000	 1.003645222954904e+001
 1.606757804084753e+000	 2.658879609273776e+000	 9.957761159655725e+000
 1.577739416638730e+000	 2.676200688384482e+000	 9.881685643766252e+000
 1.548574752332153e+000	 2.693181831337400e+000	 9.811582223188610e+000
 1.519269665047867e+000	 2.709821420717266e+000	 9.748971175145572e+000
 1.820798935610176e+000	 2.549977154652176e+000	 1.043757235587391e+001
 1.792727330205413e+000	 2.569790075552224e+000	 1.039326026588787e+001
 1.764467648259313e+000	 2.589275263636230e+000	 1.033610714428831e+001
 1.736025571900472e+000	 2.608430165421335e+000	 1.026933292685280e+001
 1.707406826031018e+000	 2.627252357450538e+000	 1.019587667828310e+001
 1.678617174651289e+000	 2.645739547069144e+000	 1.011836337924319e+001
 1.649662417173072e+000	 2.663889573078078e+000	 1.003907418371454e+001
 1.620548384726113e+000	 2.681700406264190e+000	 9.960808494753271e+000
 1.591280936462618e+000	 2.699170149807902e+000	 9.886657301461472e+000
 1.561865955864427e+000	 2.716297039568712e+000	 9.817968691638805e+000
 1.532309347057451e+000	 2.733079444249318e+000	 9.755983328799214e+000
 1.401912526955667e+000	 2.500499208922499e+000	 9.749138807223030e+000
 1.374751058621742e+000	 2.515534688282688e+000	 9.665030862997350e+000
 1.347470897317242e+000	 2.530252474887798e+000	 9.574065330953539e+000
 1.320077480299228e+000	 2.544651443212336e+000	 9.475026907808235e+000
 1.292576250311316e+000	 2.558730588716131e+000	 9.389964475978566e+000
 1.264972652307893e+000	 2.572489027453051e+000	 9.318528749918954e+000
 1.237272130208986e+000	 2.585925995576417e+000	 9.255888168031417e+000
 1.209480123689433e+000	 2.599040848742956e+000	 9.197714754929310e+000
 1.181602065005949e+000	 2.611833061417270e+000	 9.140223968607080e+000
 1.153643375865511e+000	 2.624302226078947e+000	 9.080208065106739e+000
 1.125609464338406e+000	 2.636448052334516e+000	 9.015062824771057e+000
 1.414952208965249e+000	 2.523757232456807e+000	 9.759053134136268e+000
 1.387538102251041e+000	 2.538932562104462e+000	 9.684317583793938e+000
 1.360004198561121e+000	 2.553787244024815e+000	 9.605140951390455e+000
 1.332355985726399e+000	 2.568320142223472e+000	 9.515231543276173e+000
 1.304598957115369e+000	 2.582530242816688e+000	 9.428763159612915e+000
 1.276738608327862e+000	 2.596416653636446e+000	 9.357648934888568e+000
 1.248780433919723e+000	 2.609978603731262e+000	 9.296312791160396e+000
 1.220729924162126e+000	 2.623215442764610e+000	 9.239737401870936e+000
 1.192592561839122e+000	 2.636126640312910e+000	 9.183507904166138e+000
 1.164373819086900e+000	 2.648711785065263e+000	 9.123848653463623e+000
 1.136079154278112e+000	 2.660970583927155e+000	 9.057652851653115e+000
 1.427991890975229e+000	 2.547015255990533e+000	 9.763803143755697e+000
 1.400325145880683e+000	 2.562330435925657e+000	 9.696265126354987e+000
 1.372537499805272e+000	 2.577322013161275e+000	 9.626392225449713e+000
 1.344634491153757e+000	 2.591988841234090e+000	 9.547168784940931e+000
 1.316621663919515e+000	 2.606329896916777e+000	 9.458578172033148e+000
 1.288504564347824e+000	 2.620344279819433e+000	 9.383597579079998e+000
 1.260288737630354e+000	 2.634031211885770e+000	 9.319303433885906e+000
 1.231979724634620e+000	 2.647390036786003e+000	 9.260086370850804e+000
 1.203583058672014e+000	 2.660420219208370e+000	 9.200999919316402e+000
 1.175104262307936e+000	 2.673121344051484e+000	 9.138723010174470e+000
 1.146548844217417e+000	 2.685493115519782e+000	 9.075488528679628e+000
 1.441031572985507e+000	 2.570273279523760e+000	 9.764634236702417e+000
 1.413112189510584e+000	 2.585728309746352e+000	 9.702326554102523e+000
 1.385070801049629e+000	 2.600856782297251e+000	 9.639482368515429e+000
 1.356912996581255e+000	 2.615657540244252e+000	 9.568497720594097e+000
 1.328644370723730e+000	 2.630129551016453e+000	 9.482172009847657e+000
 1.300270520367781e+000	 2.644271906002056e+000	 9.399548512035775e+000
 1.271797041340905e+000	 2.658083820039974e+000	 9.328410673613190e+000
 1.243229525106963e+000	 2.671564630807158e+000	 9.263070618912135e+000
 1.214573555504692e+000	 2.684713798103659e+000	 9.203202263162437e+000
 1.185834705528708e+000	 2.697530903037604e+000	 9.146647125532677e+000
 1.157018534156420e+000	 2.710015647112380e+000	 9.090729055863740e+000
 1.454071254995983e+000	 2.593531303056567e+000	 9.762647954325525e+000
 1.425899233140657e+000	 2.609126183566624e+000	 9.703804508821735e+000
 1.397604102294122e+000	 2.624391551432815e+000	 9.645918029419988e+000
 1.369191502008848e+000	 2.639326239254022e+000	 9.580906266549476e+000
 1.340667077527991e+000	 2.653929205115769e+000	 9.500506848547108e+000
 1.312036476387733e+000	 2.668199532184362e+000	 9.408369275494778e+000
 1.283305345051404e+000	 2.682136428193909e+000	 9.330464954601670e+000
 1.254479325579208e+000	 2.695739224828096e+000	 9.265066181252024e+000
 1.225564052337228e+000	 2.709007376998789e+000	 9.207851288784498e+000
 1.196565148749303e+000	 2.721940462023622e+000	 9.155272469707395e+000
 1.167488224095222e+000	 2.734538178704933e+000	 9.104483368655128e+000
 1.467110937006559e+000	 2.616789326589043e+000	 9.758807061895565e+000
 1.438686276770817e+000	 2.632524057386552e+000	 9.701856274326568e+000
 1.410137403538683e+000	 2.647926320568034e+000	 9.647054330485361e+000
 1.381470007436487e+000	 2.662994938263464e+000	 9.585947594255782e+000
 1.352689784332277e+000	 2.677728859214781e+000	 9.511256331760787e+000
 1.323802432407685e+000	 2.692127158366396e+000	 9.420559572301743e+000
 1.294813648761876e+000	 2.706189036347608e+000	 9.339363199515681e+000
 1.265729126051403e+000	 2.719913818848843e+000	 9.272415660788663e+000
 1.236554549169694e+000	 2.733300955893768e+000	 9.215301072428792e+000
 1.207295591969811e+000	 2.746350021009535e+000	 9.164392705679246e+000
 1.177957914033923e+000	 2.759060710297422e+000	 9.116777325735221e+000
 1.480150619017134e+000	 2.640047350121267e+000	 9.753940591963783e+000
 1.451473320400976e+000	 2.655921931206211e+000	 9.697498790602039e+000
 1.422670704783244e+000	 2.671461089702981e+000	 9.644290382423421e+000
 1.393748512864127e+000	 2.686663637272641e+000	 9.588722162574269e+000
 1.364712491136561e+000	 2.701528513313543e+000	 9.523832567518499e+000
 1.335568388427636e+000	 2.716054784548201e+000	 9.441877971185155e+000
 1.306321952472348e+000	 2.730241644501108e+000	 9.355096208196114e+000
 1.276978926523597e+000	 2.744088412869419e+000	 9.284183010550349e+000
 1.247545046002160e+000	 2.757594534788612e+000	 9.224875823068279e+000
 1.218026035190319e+000	 2.770759579995338e+000	 9.173574165803869e+000
 1.188427603972625e+000	 2.783583241889828e+000	 9.127399189955376e+000
 1.493190301027610e+000	 2.663305373653324e+000	 9.748748850322240e+000
 1.464260364031049e+000	 2.679319805025680e+000	 9.692713882064277e+000
 1.435204006027738e+000	 2.694995858837727e+000	 9.644194860144447e+000
 1.406027018291719e+000	 2.710332336281614e+000	 9.595379958962139e+000
 1.376735197940822e+000	 2.725328167412109e+000	 9.538471310693700e+000
 1.347334344447589e+000	 2.739982410729826e+000	 9.465781760697846e+000
 1.317830256182847e+000	 2.754294252654444e+000	 9.376286814242897e+000
 1.288228726995841e+000	 2.768263006889848e+000	 9.299251375014684e+000
 1.258535542834697e+000	 2.781888113683325e+000	 9.235704267830590e+000
 1.228756478410915e+000	 2.795169138981031e+000	 9.182174657083165e+000
 1.198897293911427e+000	 2.808105773482135e+000	 9.135917445506419e+000
 1.506229983037888e+000	 2.686563397185296e+000	 9.746053637279758e+000
 1.477047407660950e+000	 2.702717678845036e+000	 9.692970288411352e+000
 1.447737307272094e+000	 2.718530627972343e+000	 9.648313721330327e+000
 1.418305523719217e+000	 2.734001035290450e+000	 9.604362452932183e+000
 1.388757904745038e+000	 2.749127821510537e+000	 9.553483126759959e+000
 1.359100300467546e+000	 2.763910036911314e+000	 9.488154218087900e+000
 1.329338559893399e+000	 2.778346860807648e+000	 9.401414736210484e+000
 1.299478527468185e+000	 2.792437600910155e+000	 9.316343721554226e+000
 1.269526039667374e+000	 2.806181692577922e+000	 9.246739339763796e+000
 1.239486921631686e+000	 2.819578697966607e+000	 9.189362185766544e+000
 1.209366983850430e+000	 2.832628305074326e+000	 9.141698537295591e+000
 1.519269665047867e+000	 2.709821420717266e+000	 9.748971175145572e+000
 1.489834451290593e+000	 2.726115552664356e+000	 9.697504531085619e+000
 1.460270608516245e+000	 2.742065397106899e+000	 9.655015397311393e+000
 1.430584029146575e+000	 2.757669734299212e+000	 9.614053778231019e+000
 1.400780611549183e+000	 2.772927475608878e+000	 9.567258128466882e+000
 1.370866256487507e+000	 2.787837663092711e+000	 9.507379150977634e+000
 1.340846863604030e+000	 2.802399468960756e+000	 9.427301931668009e+000
 1.310728327940679e+000	 2.816612194930360e+000	 9.334043396671833e+000
 1.280516536500265e+000	 2.830475271472410e+000	 9.256777789154185e+000
 1.250217364852722e+000	 2.843988256952066e+000	 9.194133606129388e+000
 1.219836673789734e+000	 2.857150836666380e+000	 9.143924537204731e+000
 1.532309347057451e+000	 2.733079444249318e+000	 9.755983328799212e+000
 1.502621494919892e+000	 2.749513426483720e+000	 9.704749424124417e+000
 1.472803909760124e+000	 2.765600166241469e+000	 9.662752477547482e+000
 1.442862534573746e+000	 2.781338433307961e+000	 9.622919243041419e+000
 1.412803318353237e+000	 2.796727129707190e+000	 9.578264753857006e+000
 1.382632212507476e+000	 2.811765289274062e+000	 9.521916060885751e+000
 1.352355167314767e+000	 2.826452077113804e+000	 9.447134217040613e+000
 1.321978128413372e+000	 2.840786788950489e+000	 9.350814611505827e+000
 1.291507033333439e+000	 2.854768850366804e+000	 9.264479722949533e+000
 1.260947808074111e+000	 2.868397815937405e+000	 9.195333197945049e+000
 1.230306363729441e+000	 2.881673368258283e+000	 9.141610741585550e+000
 1.125609464338406e+000	 2.636448052334516e+000	 9.015062824771061e+000
 1.097501501095708e+000	 2.648272115530094e+000	 8.941537782094660e+000
 1.069329061409152e+000	 2.659772511872570e+000	 8.857715998174646e+000
 1.041097498112028e+000	 2.670949298215834e+000	 8.764429676293666e+000
 1.012812138484053e+000	 2.681802644152406e+000	 8.668212897759990e+000
 9.844782814308749e-001	 2.692332830683794e+000	 8.572044897246169e+000
 9.561011947256430e-001	 2.702540248811464e+000	 8.477778601375370e+000
 9.276861123150281e-001	 2.712425398051369e+000	 8.387428190164153e+000
 8.992382316919289e-001	 2.721988884875083e+000	 8.303180675449291e+000
 8.707627113369547e-001	 2.731231421080581e+000	 8.227347544995798e+000
 8.422646682306207e-001	 2.740153822095873e+000	 8.162331491622004e+000
 1.136079154278112e+000	 2.660970583927155e+000	 9.057652851653115e+000
 1.107709748972663e+000	 2.672904626897555e+000	 8.981879534875908e+000
 1.079275267505267e+000	 2.684511992475504e+000	 8.900157641960737e+000
 1.050781112497805e+000	 2.695792738043705e+000	 8.814393921395404e+000
 1.022232660780904e+000	 2.706747034772115e+000	 8.726013926560587e+000
 9.936352605472041e-001	 2.717375166275937e+000	 8.636723796193156e+000
 9.649942285672726e-001	 2.727677527193472e+000	 8.548516544341602e+000
 9.363148474705654e-001	 2.737654621686848e+000	 8.463554663510942e+000
 9.076023630936984e-001	 2.747307061868639e+000	 8.384175223758835e+000
 8.788619818981297e-001	 2.756635566157504e+000	 8.312842752209347e+000
 8.500988684592170e-001	 2.765640957566034e+000	 8.252116045745561e+000
 1.146548844217417e+000	 2.685493115519782e+000	 9.075488528679628e+000
 1.117917996849190e+000	 2.697537138265089e+000	 9.008165901254056e+000
 1.089221473600947e+000	 2.709251473078593e+000	 8.934696187213056e+000
 1.060464726883158e+000	 2.720636177871812e+000	 8.856237581329625e+000
 1.031653183077356e+000	 2.731691425392141e+000	 8.774299881978607e+000
 1.002792239663169e+000	 2.742417501868468e+000	 8.690678992346379e+000
 9.738872624085796e-001	 2.752814805575940e+000	 8.607455968138329e+000
 9.449435826258267e-001	 2.762883845322851e+000	 8.526887732618198e+000
 9.159664944952384e-001	 2.772625238862780e+000	 8.451406261504580e+000
 8.869612524591194e-001	 2.782039711235068e+000	 8.383572707229718e+000
 8.579330686876658e-001	 2.791128093036881e+000	 8.326044435495723e+000
 1.157018534156420e+000	 2.710015647112380e+000	 9.090729055863738e+000
 1.128126244725395e+000	 2.722169649632665e+000	 9.030668167321764e+000
 1.099167679696300e+000	 2.733990953681790e+000	 8.963763043650113e+000
 1.070148341268192e+000	 2.745479617700091e+000	 8.891204599944681e+000
 1.041073705373506e+000	 2.756635816012397e+000	 8.814538735477701e+000
 1.011949218778857e+000	 2.767459837461291e+000	 8.735612689998082e+000
 9.827802962496399e-001	 2.777952083958754e+000	 8.656509227536866e+000
 9.535723177808729e-001	 2.788113068959254e+000	 8.579561166768212e+000
 9.243306258965952e-001	 2.797943415857371e+000	 8.507228893117118e+000
 8.950605230199542e-001	 2.807443856313125e+000	 8.442113903017985e+000
 8.657672689159829e-001	 2.816615228508264e+000	 8.386914575068179e+000
 1.167488224095222e+000	 2.734538178704933e+000	 9.104483368655128e+000
 1.138334492601386e+000	 2.746802161000247e+000	 9.049894548874036e+000
 1.109113885791435e+000	 2.758730434285045e+000	 8.988090304359105e+000
 1.079831955653012e+000	 2.770323057528476e+000	 8.920249052959708e+000
 1.050494227669453e+000	 2.781580206632806e+000	 8.847905576700642e+000
 1.021106197894358e+000	 2.792502173054308e+000	 8.772896106765757e+000
 9.916733300905299e-001	 2.803089362341805e+000	 8.697293404811139e+000
 9.622010529357666e-001	 2.813342292595933e+000	 8.623414049082630e+000
 9.326947572978148e-001	 2.823261592852275e+000	 8.553705278251195e+000
 9.031597935806648e-001	 2.832848001391535e+000	 8.490752751548930e+000
 8.736014691441837e-001	 2.842102363980035e+000	 8.437238245235792e+000
 1.177957914033923e+000	 2.759060710297422e+000	 9.116777325735221e+000
 1.148542740477269e+000	 2.771434672367803e+000	 9.066090074531141e+000
 1.119060091886461e+000	 2.783469914888308e+000	 9.008140411743444e+000
 1.089515570037725e+000	 2.795166497356900e+000	 8.944050137334541e+000
 1.059914749965296e+000	 2.806524597253285e+000	 8.875296625128788e+000
 1.030263177009759e+000	 2.817544508647425e+000	 8.803656673379013e+000
 1.000566363931325e+000	 2.828226640724981e+000	 8.731142414766714e+000
 9.708297880905690e-001	 2.838571516232765e+000	 8.660001958011373e+000
 9.410588886989444e-001	 2.848579769847359e+000	 8.592614912640617e+000
 9.112590641412821e-001	 2.858252146470149e+000	 8.531494989160240e+000
 8.814356693722830e-001	 2.867589499452040e+000	 8.479249650416167e+000
 1.188427603972625e+000	 2.783583241889828e+000	 9.127399189955376e+000
 1.158750988353152e+000	 2.796067183735299e+000	 9.079253483030456e+000
 1.129006297981487e+000	 2.808209395491530e+000	 9.024122059987738e+000
 1.099199184422435e+000	 2.820009937185299e+000	 8.963027089599107e+000
 1.069335272261134e+000	 2.831468987873751e+000	 8.897343177686455e+000
 1.039420156125150e+000	 2.842586844240541e+000	 8.828740018022847e+000
 1.009459397772102e+000	 2.853363919108170e+000	 8.759119061103611e+000
 9.794585232453414e-001	 2.863800739869622e+000	 8.690608108361813e+000
 9.494230201000294e-001	 2.873897946842485e+000	 8.625464876941127e+000
 9.193583347018369e-001	 2.883656291548827e+000	 8.566075058491281e+000
 8.892698696002970e-001	 2.893076634924131e+000	 8.514913961008697e+000
 1.198897293911427e+000	 2.808105773482135e+000	 9.135917445506419e+000
 1.168959236229143e+000	 2.820699695102704e+000	 9.089154042404486e+000
 1.138952504076620e+000	 2.832948876094660e+000	 9.036006024807765e+000
 1.108882798807248e+000	 2.844853377013607e+000	 8.977354037486659e+000
 1.078755794557065e+000	 2.856413378494124e+000	 8.914425496208180e+000
 1.048577135240618e+000	 2.867629179833561e+000	 8.848736071530906e+000
 1.018352431612936e+000	 2.878501197491262e+000	 8.782037137228324e+000
 9.880872584001462e-001	 2.889029963506384e+000	 8.716254454343382e+000
 9.577871515011172e-001	 2.899216123837520e+000	 8.653500055517295e+000
 9.274576052623599e-001	 2.909060436627422e+000	 8.595965468445808e+000
 8.971040698282408e-001	 2.918563770396158e+000	 8.545935841903049e+000
 1.209366983850430e+000	 2.832628305074326e+000	 9.141698537295593e+000
 1.179167484105347e+000	 2.845332206469981e+000	 9.095348295779424e+000
 1.148898710171969e+000	 2.857688356697653e+000	 9.043540924891406e+000
 1.118566413192270e+000	 2.869696816841759e+000	 8.986974788910862e+000
 1.088176316853187e+000	 2.881357769114321e+000	 8.926686638411772e+000
 1.057734114356251e+000	 2.892671515426387e+000	 8.863991957267267e+000
 1.027245465453903e+000	 2.903638475874144e+000	 8.800431758730749e+000
 9.967159935550445e-001	 2.914259187142925e+000	 8.737712756930893e+000
 9.661512829022537e-001	 2.924534300832329e+000	 8.677713326998401e+000
 9.355568758228816e-001	 2.934464581705792e+000	 8.622386133509833e+000
 9.049382700561295e-001	 2.944050905867970e+000	 8.573767967997693e+000
 1.219836673789734e+000	 2.857150836666380e+000	 9.143924537204731e+000
 1.189375731981873e+000	 2.869964717837100e+000	 9.097196738203355e+000
 1.158844916267644e+000	 2.882427837300455e+000	 9.046268919135420e+000
 1.128250027577606e+000	 2.894540256669687e+000	 8.991617562053611e+000
 1.097596839149599e+000	 2.906302159734262e+000	 8.934046235772859e+000
 1.066891093472140e+000	 2.917713851018923e+000	 8.874624834107038e+000
 1.036138499295079e+000	 2.928775754256705e+000	 8.814635776990762e+000
 1.005344728710099e+000	 2.939488410779119e+000	 8.755515617689790e+000
 9.745154143034851e-001	 2.949852477826773e+000	 8.698855728298712e+000
 9.436561463834331e-001	 2.959868726783791e+000	 8.646313693666661e+000
 9.127724702839787e-001	 2.969538041339417e+000	 8.599619527510047e+000
 1.230306363729441e+000	 2.881673368258283e+000	 9.141610741585550e+000
 1.199583979858828e+000	 2.894597229204027e+000	 9.093880428611968e+000
 1.168791122363753e+000	 2.907167317903020e+000	 9.043541343502259e+000
 1.137933641963362e+000	 2.919383696497329e+000	 8.990809660069917e+000
 1.107017361446401e+000	 2.931246550353865e+000	 8.936214221463299e+000
 1.076048072588372e+000	 2.942756186611073e+000	 8.880534695311106e+000
 1.045031533136541e+000	 2.953913032638836e+000	 8.824747236246390e+000
 1.013973463865370e+000	 2.964717634414845e+000	 8.769977585991420e+000
 9.828795457048584e-001	 2.975170654820722e+000	 8.717446593683853e+000
 9.517554169440449e-001	 2.985272871861279e+000	 8.668490816066239e+000
 9.206066705118042e-001	 2.995025176810348e+000	 8.624464713807225e+000
 8.422646682306207e-001	 2.740153822095873e+000	 8.162331491622004e+000
 8.137491750310451e-001	 2.748757004534392e+000	 8.109031576976653e+000
 7.852212565530335e-001	 2.757041982326296e+000	 8.063849492665572e+000
 7.566858887956514e-001	 2.765009866903514e+000	 8.022533496505467e+000
 7.281479971706540e-001	 2.772661865956894e+000	 7.980878235872449e+000
 6.996124543915533e-001	 2.779999281457081e+000	 7.934714968221083e+000
 6.710840784416883e-001	 2.787023507627656e+000	 7.879903546178557e+000
 6.425676306221918e-001	 2.793736028873866e+000	 7.820671643564617e+000
 6.140678136806004e-001	 2.800138417670240e+000	 7.770768961246119e+000
 5.855892700207175e-001	 2.806232332410390e+000	 7.732431000902038e+000
 5.571365799941845e-001	 2.812019515222284e+000	 7.708269319682723e+000
 8.500988684592170e-001	 2.765640957566034e+000	 8.252116045745561e+000
 8.213181426176583e-001	 2.774324161233401e+000	 8.202683737280479e+000
 7.925248759258222e-001	 2.782686200520694e+000	 8.160586564067943e+000
 7.637240906662782e-001	 2.790728197197665e+000	 8.121513341760597e+000
 7.349207580637582e-001	 2.798451370188332e+000	 8.081210789910630e+000
 7.061197961545841e-001	 2.805857033573426e+000	 8.035475334488584e+000
 6.773260677358410e-001	 2.812946594544702e+000	 7.980146809100869e+000
 6.485443783951879e-001	 2.819721551314391e+000	 7.915964493655888e+000
 6.197794746220587e-001	 2.826183490983165e+000	 7.859661954521176e+000
 5.910360420008765e-001	 2.832334087369945e+000	 7.815667671714498e+000
 5.623187034867332e-001	 2.838175098806854e+000	 7.787494174811284e+000
 8.579330686876658e-001	 2.791128093036881e+000	 8.326044435495723e+000
 8.288871102041550e-001	 2.799891317933140e+000	 8.279290135709250e+000
 7.998284952985155e-001	 2.808330418715853e+000	 8.239070178712032e+000
 7.707622925368254e-001	 2.816446527492603e+000	 8.201089690301176e+000
 7.416935189567913e-001	 2.824240874420564e+000	 8.161121716822287e+000
 7.126271379175478e-001	 2.831714785690565e+000	 8.115000615247782e+000
 6.835680570299277e-001	 2.838869681462531e+000	 8.058617491984395e+000
 6.545211261681154e-001	 2.845707073755670e+000	 7.990152318232921e+000
 6.254911355634437e-001	 2.852228564296800e+000	 7.927036783222156e+000
 5.964828139809565e-001	 2.858435842330152e+000	 7.877015162368906e+000
 5.675008269791978e-001	 2.864330682391994e+000	 7.844525529635978e+000
 8.657672689159829e-001	 2.816615228508264e+000	 8.386914575068179e+000
 8.364560777905351e-001	 2.825458474633451e+000	 8.341876856971460e+000
 8.071321146711011e-001	 2.833974636911618e+000	 8.302565417526784e+000
 7.778004944072667e-001	 2.842164857788169e+000	 8.264773265775649e+000
 7.484662798497168e-001	 2.850030378653444e+000	 8.224369743994719e+000
 7.191344796803980e-001	 2.857572537808359e+000	 8.177295521273477e+000
 6.898100463238918e-001	 2.864792768381011e+000	 8.119559802313358e+000
 6.604978739409093e-001	 2.871692596197583e+000	 8.047828015700517e+000
 6.312027965046840e-001	 2.878273637611040e+000	 7.977849748226554e+000
 6.019295859608801e-001	 2.884537597290914e+000	 7.921798631480518e+000
 5.726829504714950e-001	 2.890486265977629e+000	 7.885052674538835e+000
 8.736014691441837e-001	 2.842102363980035e+000	 8.437238245235792e+000
 8.440250453767998e-001	 2.851025631334182e+000	 8.393188592180653e+000
 8.144357340435665e-001	 2.859618855107834e+000	 8.354061292274821e+000
 7.848386962775786e-001	 2.867883188084215e+000	 8.315804709709301e+000
 7.552390407424986e-001	 2.875819882886823e+000	 8.274450238163436e+000
 7.256418214430880e-001	 2.883430289926668e+000	 8.226108924324318e+000
 6.960520356176770e-001	 2.890715855300007e+000	 8.166970490166658e+000
 6.664746217135055e-001	 2.897678118640007e+000	 8.093305163656629e+000
 6.369144574457066e-001	 2.904318710925770e+000	 8.016773760122696e+000
 6.073763579405679e-001	 2.910639352252135e+000	 7.955060053131986e+000
 5.778650739635411e-001	 2.916641849563674e+000	 7.914486020148388e+000
 8.814356693722830e-001	 2.867589499452040e+000	 8.479249650416167e+000
 8.515940129629499e-001	 2.876592788035181e+000	 8.435696387821976e+000
 8.217393534158993e-001	 2.885263073304349e+000	 8.396277735454774e+000
 7.918768981477350e-001	 2.893601518380587e+000	 8.357160857170429e+000
 7.620118016351005e-001	 2.901609387120555e+000	 8.314600807383600e+000
 7.321491632055712e-001	 2.909288042045349e+000	 8.264938821603746e+000
 7.022940249112275e-001	 2.916638942219389e+000	 8.204603206924375e+000
 6.724513694858385e-001	 2.923663641082820e+000	 8.130112445172671e+000
 6.426261183864400e-001	 2.930363784240881e+000	 8.048207248904346e+000
 6.128231299199424e-001	 2.936741107213719e+000	 7.981565761839304e+000
 5.830471974552516e-001	 2.942797433150047e+000	 7.937963372136255e+000
 8.892698696002970e-001	 2.893076634924131e+000	 8.514913961008697e+000
 8.591629805489868e-001	 2.902159944736293e+000	 8.471605388082388e+000
 8.290429727880866e-001	 2.910907291501006e+000	 8.431672590621334e+000
 7.989151000177117e-001	 2.919319848677136e+000	 8.391561019107115e+000
 7.687845625274860e-001	 2.927398891354493e+000	 8.347806915357673e+000
 7.386565049678001e-001	 2.935145794164261e+000	 8.297037317924081e+000
 7.085360142044868e-001	 2.942562029139025e+000	 8.235972886917025e+000
 6.784281172578444e-001	 2.949649163525900e+000	 8.161433129542035e+000
 6.483377793268119e-001	 2.956408857556268e+000	 8.076283107618734e+000
 6.182699018989245e-001	 2.962842862175569e+000	 8.005814037752051e+000
 5.882293209465432e-001	 2.968953016736668e+000	 7.960356253321381e+000
 8.971040698282408e-001	 2.918563770396158e+000	 8.545935841903049e+000
 8.667319481349111e-001	 2.927727101437364e+000	 8.502862570948084e+000
 8.363465921601164e-001	 2.936551509697653e+000	 8.462448603098089e+000
 8.059533018874838e-001	 2.945038178973707e+000	 8.421473270948381e+000
 7.755573234196188e-001	 2.953188395588489e+000	 8.376807507363852e+000
 7.451638467297289e-001	 2.961003546283265e+000	 8.325415624490951e+000
 7.147780034973986e-001	 2.968485116058781e+000	 8.264360150614859e+000
 6.844048650294586e-001	 2.975634685969126e+000	 8.190809273036960e+000
 6.540494402667507e-001	 2.982453930871813e+000	 8.104877667890928e+000
 6.237166738774358e-001	 2.988944617137589e+000	 8.032042729624845e+000
 5.934114444373317e-001	 2.995108600323453e+000	 7.986276270188772e+000
 9.049382700561295e-001	 2.944050905867970e+000	 8.573767967997693e+000
 8.743009157207239e-001	 2.953294258138242e+000	 8.531164478451068e+000
 8.436502115319762e-001	 2.962195727894138e+000	 8.490560411061512e+000
 8.129915037570263e-001	 2.970756509270149e+000	 8.449120747091559e+000
 7.823300843114625e-001	 2.978977899822394e+000	 8.404100647083872e+000
 7.516711884913101e-001	 2.986861298402220e+000	 8.352849073303549e+000
 7.210199927899071e-001	 2.994408202978527e+000	 8.292815728053792e+000
 6.903816128006164e-001	 3.001620208412377e+000	 8.221560821192391e+000
 6.597611012061844e-001	 3.008499004187415e+000	 8.137619705393684e+000
 6.291634458553985e-001	 3.015046372099683e+000	 8.064236913272445e+000
 5.985935679275339e-001	 3.021264183910321e+000	 8.020081521130736e+000
 9.127724702839787e-001	 2.969538041339417e+000	 8.599619527510047e+000
 8.818698833064261e-001	 2.978861414838771e+000	 8.557964941414518e+000
 8.509538309036534e-001	 2.987839946090302e+000	 8.517721536973969e+000
 8.200297056263139e-001	 2.996474839566310e+000	 8.476487940922439e+000
 7.891028452029805e-001	 3.004767404056062e+000	 8.431949163676313e+000
 7.581785302524970e-001	 3.012719050520981e+000	 8.381882146232043e+000
 7.272619820819561e-001	 3.020331289898130e+000	 8.324164901282055e+000
 6.963583605712533e-001	 3.027605730855529e+000	 8.256788725204874e+000
 6.654727621450409e-001	 3.034544077502960e+000	 8.177899473463519e+000
 6.346102178327339e-001	 3.041148127061754e+000	 8.106136583374815e+000
 6.037756914170657e-001	 3.047419767497193e+000	 8.065883043902300e+000
 9.206066705118042e-001	 2.995025176810348e+000	 8.624464713807225e+000
 8.894388508920191e-001	 3.004428571538802e+000	 8.584482799028200e+000
 8.582574502751356e-001	 3.013484164285996e+000	 8.545411379346094e+000
 8.270679074953227e-001	 3.022193169862039e+000	 8.505327010040128e+000
 7.958756060941372e-001	 3.030556908289346e+000	 8.462386308485291e+000
 7.646858720132438e-001	 3.038576802639415e+000	 8.414833517899426e+000
 7.335039713734896e-001	 3.046254376817458e+000	 8.361011964695853e+000
 7.023351083413049e-001	 3.053591253298464e+000	 8.299378847526320e+000
 6.711844230832484e-001	 3.060589150818338e+000	 8.228522781121455e+000
 6.400569898093635e-001	 3.067249882023707e+000	 8.161244376646982e+000
 6.089578149058431e-001	 3.073575351083983e+000	 8.127551299954673e+000
 5.571365799941845e-001	 2.812019515222284e+000	 7.708269319682725e+000
 5.287185198196900e-001	 2.817500990623337e+000	 7.693134674043938e+000
 5.003352638129517e-001	 2.822679553656821e+000	 7.679925508811102e+000
 4.719911884326337e-001	 2.827557185699814e+000	 7.668765292387088e+000
 4.436906022608280e-001	 2.832135942759818e+000	 7.659766363505212e+000
 4.154377447072045e-001	 2.836417953168350e+000	 7.652930208535691e+000
 3.872367847946145e-001	 2.840405415259060e+000	 7.648057326303457e+000
 3.590918200257314e-001	 2.844100595033316e+000	 7.644665266150772e+000
 3.310068753301844e-001	 2.847505823816278e+000	 7.641913466343778e+000
 3.029859020915368e-001	 2.850623495906301e+000	 7.638533572537797e+000
 2.750327772533645e-001	 2.853456066220491e+000	 7.632763978677167e+000
 5.623187034867332e-001	 2.838175098806854e+000	 7.787494174811284e+000
 5.336363169290086e-001	 2.843707559340700e+000	 7.768951632517907e+000
 5.049890582647981e-001	 2.848934290012431e+000	 7.751167981152459e+000
 4.763813446597570e-001	 2.853857290628595e+000	 7.734064274270949e+000
 4.478175247716248e-001	 2.858478636320324e+000	 7.717562516646804e+000
 4.193018774423222e-001	 2.862800475215494e+000	 7.701495210176652e+000
 3.908386104722579e-001	 2.866825026095203e+000	 7.685524662092029e+000
 3.624318594764292e-001	 2.870554576037689e+000	 7.669070517606111e+000
 3.340856868217608e-001	 2.873991478052573e+000	 7.651244025643277e+000
 3.058040806450334e-001	 2.877138148708408e+000	 7.630787604744909e+000
 2.775909539506486e-001	 2.879997065756335e+000	 7.606018345348367e+000
 5.675008269791978e-001	 2.864330682391994e+000	 7.844525529635978e+000
 5.385541140382393e-001	 2.869914128058542e+000	 7.822291429248197e+000
 5.096428527165515e-001	 2.875189026368409e+000	 7.799693511267109e+000
 4.807715008867807e-001	 2.880157395557621e+000	 7.776570160601071e+000
 4.519444472823133e-001	 2.884821329880952e+000	 7.752768790809387e+000
 4.231660101773191e-001	 2.889182997262622e+000	 7.728065392987388e+000
 3.944404361497635e-001	 2.893244636931202e+000	 7.702094033998217e+000
 3.657718989269654e-001	 2.897008557041791e+000	 7.674284635476107e+000
 3.371644983131448e-001	 2.900477132288479e+000	 7.643807416971171e+000
 3.086222591982989e-001	 2.903652801510019e+000	 7.609522451199615e+000
 2.801491306476536e-001	 2.906538065291594e+000	 7.569932855266874e+000
 5.726829504714950e-001	 2.890486265977629e+000	 7.885052674538835e+000
 5.434719111472928e-001	 2.896120696776794e+000	 7.859215630454401e+000
 5.142966471681203e-001	 2.901443762724703e+000	 7.831954581828122e+000
 4.851616571136129e-001	 2.906457500486858e+000	 7.803130560137590e+000
 4.560713697928022e-001	 2.911164023441680e+000	 7.772617461910344e+000
 4.270301429121070e-001	 2.915565519309739e+000	 7.740232395704367e+000
 3.980422618270485e-001	 2.919664247767075e+000	 7.705676177602080e+000
 3.691119383772667e-001	 2.923462538045660e+000	 7.668482168521029e+000
 3.402433098042760e-001	 2.926962786524052e+000	 7.627971704317313e+000
 3.114404377512897e-001	 2.930167454311213e+000	 7.583214440735606e+000
 2.827073073443562e-001	 2.933079064826362e+000	 7.532992018310029e+000
 5.778650739635411e-001	 2.916641849563674e+000	 7.914486020148385e+000
 5.483897082560818e-001	 2.922327265495393e+000	 7.885514286726692e+000
 5.189504416194137e-001	 2.927698499081265e+000	 7.854141605056486e+000
 4.895518133401608e-001	 2.932757605416278e+000	 7.820342424942524e+000
 4.601982923030000e-001	 2.937506717002495e+000	 7.784103405193635e+000
 4.308942756465977e-001	 2.941948041356846e+000	 7.745365416079682e+000
 4.016440875040310e-001	 2.946083858602847e+000	 7.703975901473477e+000
 3.724519778272609e-001	 2.949916519049338e+000	 7.659649648133938e+000
 3.433221212950947e-001	 2.953448440759354e+000	 7.611936073293832e+000
 3.142586163039616e-001	 2.956682107112062e+000	 7.560191219619711e+000
 2.852654840407330e-001	 2.959620064360732e+000	 7.503552737197095e+000
 5.830471974552516e-001	 2.942797433150047e+000	 7.937963372136255e+000
 5.533075053645181e-001	 2.948533834214270e+000	 7.906711061806543e+000
 5.236042360703406e-001	 2.953953235438047e+000	 7.872187055238805e+000
 4.939419695663320e-001	 2.959057710345844e+000	 7.834555322805867e+000
 4.643252148128148e-001	 2.963849410563381e+000	 7.793986629977851e+000
 4.347584083807031e-001	 2.968330563403949e+000	 7.750613116454122e+000
 4.052459131806289e-001	 2.972503469438534e+000	 7.704493458047487e+000
 3.757920172768744e-001	 2.976370500052862e+000	 7.655586504881707e+000
 3.464009327855405e-001	 2.979934094994439e+000	 7.603731359523129e+000
 3.170767948562713e-001	 2.983196759912645e+000	 7.548631943766634e+000
 2.878236607367615e-001	 2.986161063894799e+000	 7.489844201298338e+000
 5.882293209465432e-001	 2.968953016736668e+000	 7.960356253321381e+000
 5.582253024725135e-001	 2.974740402933362e+000	 7.928068414778632e+000
 5.282580305208096e-001	 2.980207971794995e+000	 7.891769658210543e+000
 4.983321257920345e-001	 2.985357815275526e+000	 7.851874768123079e+000
 4.684521373221553e-001	 2.990192104124325e+000	 7.808794872751113e+000
 4.386225411143345e-001	 2.994713085451048e+000	 7.762905586461880e+000
 4.088477388567599e-001	 2.998923080274164e+000	 7.714525969776784e+000
 3.791320567260345e-001	 3.002824481056273e+000	 7.663906038294364e+000
 3.494797442755527e-001	 3.006419749229364e+000	 7.611220628548757e+000
 3.198949734081747e-001	 3.009711412713036e+000	 7.556567521506480e+000
 2.903818374324179e-001	 3.012702063428656e+000	 7.499967831238985e+000
 5.934114444373317e-001	 2.995108600323453e+000	 7.986276270188770e+000
 5.631430995799795e-001	 3.000946971652601e+000	 7.954592832412565e+000
 5.329118249707298e-001	 3.006462708152062e+000	 7.918318634324089e+000
 5.027222820171757e-001	 3.011657920205289e+000	 7.878165607651114e+000
 4.725790598309299e-001	 3.016534797685309e+000	 7.834826245045330e+000
 4.424866738474040e-001	 3.021095607498148e+000	 7.788956359369628e+000
 4.124495645323420e-001	 3.025342691109753e+000	 7.741168907175546e+000
 3.824720961746682e-001	 3.029278462059609e+000	 7.692036436649403e+000
 3.525585557650715e-001	 3.032905403464190e+000	 7.642099804117525e+000
 3.227131519596281e-001	 3.036226065513310e+000	 7.591880903809892e+000
 2.929400141276792e-001	 3.039243062962394e+000	 7.541897271189549e+000
 5.985935679275339e-001	 3.021264183910321e+000	 8.020081521130736e+000
 5.680608966868284e-001	 3.027153540371921e+000	 7.991040108609968e+000
 5.375656194200102e-001	 3.032717444509198e+000	 7.957017991658389e+000
 5.071124382416632e-001	 3.037958025135104e+000	 7.919055457814032e+000
 4.767059823390474e-001	 3.042877491246323e+000	 7.878151932767511e+000
 4.463508065798235e-001	 3.047478129545251e+000	 7.835264478802678e+000
 4.160513902072929e-001	 3.051762301945324e+000	 7.791317615613695e+000
 3.858121356227026e-001	 3.055732443062912e+000	 7.747221843718356e+000
 3.556373672540364e-001	 3.059391057698973e+000	 7.703898341901492e+000
 3.255313305105878e-001	 3.062740718313544e+000	 7.662307419100293e+000
 2.954981908225223e-001	 3.065784062496107e+000	 7.623478425956007e+000
 6.037756914170657e-001	 3.047419767497193e+000	 8.065883043902300e+000
 5.729786937929718e-001	 3.053360109091257e+000	 8.041920668129251e+000
 5.422194138685594e-001	 3.058972180866353e+000	 8.012810866450504e+000
 5.115025944654048e-001	 3.064258130064935e+000	 7.979938190461243e+000
 4.808329048464157e-001	 3.069220184807347e+000	 7.944618943898010e+000
 4.502149393115045e-001	 3.073860651592361e+000	 7.908116612825427e+000
 4.196532158815305e-001	 3.078181912780898e+000	 7.871668887929745e+000
 3.891521750700649e-001	 3.082186424066220e+000	 7.836523469655599e+000
 3.587161787423874e-001	 3.085876711933772e+000	 7.803979945928321e+000
 3.283495090610099e-001	 3.089255371113814e+000	 7.775435149967636e+000
 2.980563675169238e-001	 3.092325062029892e+000	 7.752429540174123e+000
 6.089578149058431e-001	 3.073575351083983e+000	 8.127551299954673e+000
 5.778964908983216e-001	 3.079566677810540e+000	 8.111504931947085e+000
 5.468732083162867e-001	 3.085226917223479e+000	 8.090403907934313e+000
 5.158927506883084e-001	 3.090558234994752e+000	 8.065977464190489e+000
 4.849598273529440e-001	 3.095562878368370e+000	 8.039852901670162e+000
 4.540790720423593e-001	 3.100243173639482e+000	 8.013589212558621e+000
 4.232550415549730e-001	 3.104601523616498e+000	 7.988722580131630e+000
 3.924922145166819e-001	 3.108640405069572e+000	 7.966820743396595e+000
 3.617949902300640e-001	 3.112362366168643e+000	 7.949543325177642e+000
 3.311676876108508e-001	 3.115770023914197e+000	 7.938705349293379e+000
 3.006145442108607e-001	 3.118866061563839e+000	 7.936341317103187e+000
 2.750327772533645e-001	 2.853456066220491e+000	 7.632763978677171e+000
 2.471471351279563e-001	 2.856006409498290e+000	 7.626386298793362e+000
 2.193369495812531e-001	 2.858276650234000e+000	 7.624670527358894e+000
 1.916059273113746e-001	 2.860269412912185e+000	 7.630057187410448e+000
 1.639576959960275e-001	 2.861987373296846e+000	 7.644107246781349e+000
 1.363958037885802e-001	 2.863433256073065e+000	 7.667434535643653e+000
 1.089237188885891e-001	 2.864609832501104e+000	 7.699637043657069e+000
 8.154482918534663e-002	 2.865519918085287e+000	 7.739226458085392e+000
 5.426244197296083e-002	 2.866166370259814e+000	 7.783555403869803e+000
 2.707978373541613e-002	 2.866552086093679e+000	 7.828741946215042e+000
 0.000000000000000e+000	 2.866680000016666e+000	 7.869591001097733e+000
 2.775909539506486e-001	 2.879997065756335e+000	 7.606018345348359e+000
 2.494459376495118e-001	 2.882571130674752e+000	 7.578347585509423e+000
 2.213770797753014e-001	 2.884862487718647e+000	 7.552142330125236e+000
 1.933881215034428e-001	 2.886873785783859e+000	 7.529250099176312e+000
 1.654827242539523e-001	 2.888607725522634e+000	 7.510752020136934e+000
 1.376644691828235e-001	 2.890067056963326e+000	 7.496902394186468e+000
 1.099368567485598e-001	 2.891254577142689e+000	 7.487066327167897e+000
 8.230330635240611e-002	 2.892173127753059e+000	 7.479654735668586e+000
 5.476715605077925e-002	 2.892825592806658e+000	 7.472056146874061e+000
 2.733166233832862e-002	 2.893214896319162e+000	 7.460564818972369e+000
 0.000000000000000e+000	 2.893344000014533e+000	 7.440304805000020e+000
 2.801491306476536e-001	 2.906538065291594e+000	 7.569932855266870e+000
 2.517447401707313e-001	 2.909135851850559e+000	 7.526175371642113e+000
 2.234172099689544e-001	 2.911448325202585e+000	 7.481802487377268e+000
 1.951703156950626e-001	 2.913478158654786e+000	 7.438169784286733e+000
 1.670077525113893e-001	 2.915228077747647e+000	 7.395982377369123e+000
 1.389331345765616e-001	 2.916700857852796e+000	 7.355242253514238e+000
 1.109499946080371e-001	 2.917899321783473e+000	 7.315192816028911e+000
 8.306178351902145e-002	 2.918826337420027e+000	 7.274259891082187e+000
 5.527187012824718e-002	 2.919484815352702e+000	 7.229988569546868e+000
 2.758354094103625e-002	 2.919877706543843e+000	 7.178975374876275e+000
 0.000000000000000e+000	 2.920008000011599e+000	 7.116795355442127e+000
 2.827073073443562e-001	 2.933079064826362e+000	 7.532992018310029e+000
 2.540435426916159e-001	 2.935700573025820e+000	 7.478239777989542e+000
 2.254573401622399e-001	 2.938034162685941e+000	 7.421762159859775e+000
 1.969525098862872e-001	 2.940082531525106e+000	 7.364510093374152e+000
 1.685327807684142e-001	 2.941848429972040e+000	 7.306903068200861e+000
 1.402017999698863e-001	 2.943334658741643e+000	 7.248784916312373e+000
 1.119631324671211e-001	 2.944544066423636e+000	 7.189375894389859e+000
 8.382026068528964e-002	 2.945479547086380e+000	 7.127220264937540e+000
 5.577658420544564e-002	 2.946144037898136e+000	 7.060128701465095e+000
 2.783541954358854e-002	 2.946540516767923e+000	 6.985114969749102e+000
 0.000000000000000e+000	 2.946672000008066e+000	 6.898326457129185e+000
 2.852654840407330e-001	 2.959620064360732e+000	 7.503552737197100e+000
 2.563423452121673e-001	 2.962265294200649e+000	 7.442805375912829e+000
 2.274974703551856e-001	 2.964620000168841e+000	 7.380050084459325e+000
 1.987347040771700e-001	 2.966686904394960e+000	 7.315906450394195e+000
 1.700578090251024e-001	 2.968468782195969e+000	 7.250585088925550e+000
 1.414704653628895e-001	 2.969968459630035e+000	 7.183852587661512e+000
 1.129762703259115e-001	 2.971188811063356e+000	 7.114991797035941e+000
 8.457873785130782e-002	 2.972132756752305e+000	 7.042756603526068e+000
 5.628129828245580e-002	 2.972803260443156e+000	 6.965320459817219e+000
 2.808729814603493e-002	 2.973203326991598e+000	 6.880218082731617e+000
 0.000000000000000e+000	 2.973336000004133e+000	 6.784279862289486e+000
 2.878236607367615e-001	 2.986161063894799e+000	 7.489844201298342e+000
 2.586411477323866e-001	 2.988830015375152e+000	 7.428030793845287e+000
 2.295376005478193e-001	 2.991205837651410e+000	 7.364611878380321e+000
 2.005168982677644e-001	 2.993291277264493e+000	 7.299934825973045e+000
 1.715828372815295e-001	 2.995089134419591e+000	 7.234064283079915e+000
 1.427391307556633e-001	 2.996602260518139e+000	 7.166757047978109e+000
 1.139894081845085e-001	 2.997833555702813e+000	 7.097431286487761e+000
 8.533721501717312e-002	 2.998785966417991e+000	 7.025129159092177e+000
 5.678601235935869e-002	 2.999462482987957e+000	 6.948472079207747e+000
 2.833917674842496e-002	 2.999866137215068e+000	 6.865607969536204e+000
 0.000000000000000e+000	 3.000000000000000e+000	 6.774150029084218e+000
 2.903818374324179e-001	 3.012702063428656e+000	 7.499967831238985e+000
 2.609399502522751e-001	 3.015394736549441e+000	 7.441968377158382e+000
 2.315777307401687e-001	 3.017791675133779e+000	 7.383309402646085e+000
 2.022990924581236e-001	 3.019895650133845e+000	 7.324110779857989e+000
 1.731078655377712e-001	 3.021709486643062e+000	 7.264340025210173e+000
 1.440077961482993e-001	 3.023236061406127e+000	 7.203797927644930e+000
 1.150025460430117e-001	 3.024478300342188e+000	 7.142097455378172e+000
 8.609569218298260e-002	 3.025439176083625e+000	 7.078634944354219e+000
 5.729072643623540e-002	 3.026121705532733e+000	 7.012552730421649e+000
 2.859105535080810e-002	 3.026528947438530e+000	 6.942692545472704e+000
 0.000000000000000e+000	 3.026663999995867e+000	 6.867539157075028e+000
 2.929400141276792e-001	 3.039243062962394e+000	 7.541897271189549e+000
 2.632387527718345e-001	 3.041959457723628e+000	 7.492563898124086e+000
 2.336178609322615e-001	 3.044377512616071e+000	 7.443920181297779e+000
 2.040812866483010e-001	 3.046500023003159e+000	 7.395888568247336e+000
 1.746328937939027e-001	 3.048329838866538e+000	 7.348373982653942e+000
 1.452764615408896e-001	 3.049869862294165e+000	 7.301261077117560e+000
 1.160156839015212e-001	 3.051123044981657e+000	 7.254403646455379e+000
 8.685416934883342e-002	 3.052092385749397e+000	 7.207605131841929e+000
 5.779544051316703e-002	 3.052780928077678e+000	 7.160589316589111e+000
 2.884293395323386e-002	 3.053191757662185e+000	 7.112960484204155e+000
 0.000000000000000e+000	 3.053327999991933e+000	 7.064152482820152e+000
 2.954981908225223e-001	 3.065784062496107e+000	 7.623478425956007e+000
 2.655375552910660e-001	 3.068524178897822e+000	 7.587656312935531e+000
 2.356579911241255e-001	 3.070963350098414e+000	 7.554136872916532e+000
 2.058634808383497e-001	 3.073104395872575e+000	 7.522660312066532e+000
 1.761579220499999e-001	 3.074950191090176e+000	 7.493088950607197e+000
 1.465451269335261e-001	 3.076503663182422e+000	 7.465417026717321e+000
 1.170288217601368e-001	 3.077767789621401e+000	 7.439771483078515e+000
 8.761264651482260e-002	 3.078745595415491e+000	 7.416402589272643e+000
 5.830015459023467e-002	 3.079440150622987e+000	 7.395663436005303e+000
 2.909481255575171e-002	 3.079854567886232e+000	 7.377977519155717e+000
 0.000000000000000e+000	 3.079991999988400e+000	 7.363793819828659e+000
 2.980563675169238e-001	 3.092325062029892e+000	 7.752429540174123e+000
 2.678363578099709e-001	 3.095088900072134e+000	 7.734977562960722e+000
 2.376981213157884e-001	 3.097549187580936e+000	 7.721566791323015e+000
 2.076456750283233e-001	 3.099708768742238e+000	 7.711755222530869e+000
 1.776829503061382e-001	 3.101570543314130e+000	 7.705367756076677e+000
 1.478137923263007e-001	 3.103137464071066e+000	 7.702519530728161e+000
 1.180419596189585e-001	 3.104412534261600e+000	 7.703629003572186e+000
 8.837112368104731e-002	 3.105398805082098e+000	 7.709419542795344e+000
 5.880486866751938e-002	 3.106099373168855e+000	 7.720908501591150e+000
 2.934669115841117e-002	 3.106517378110866e+000	 7.739382935404726e+000
 0.000000000000000e+000	 3.106655999985466e+000	 7.766361328195563e+000
 3.006145442108607e-001	 3.118866061563839e+000	 7.936341317103191e+000
 2.701351603285507e-001	 3.121653621246674e+000	 7.942152417592084e+000
 2.397382515072781e-001	 3.124135025063762e+000	 7.953731472527990e+000
 2.094278692182750e-001	 3.126313141612288e+000	 7.970438880579827e+000
 1.792079785623931e-001	 3.128190895538556e+000	 7.992052226610732e+000
 1.490824577193054e-001	 3.129771264960268e+000	 8.018804190768528e+000
 1.190550974780862e-001	 3.131057278902433e+000	 8.051408893249572e+000
 8.912960084760466e-002	 3.132052014749406e+000	 8.091075360485574e+000
 5.930958274510228e-002	 3.132758595715478e+000	 8.139507007660674e+000
 2.959856976126172e-002	 3.133180188336288e+000	 8.198886240703136e+000
 0.000000000000000e+000	 3.133319999983334e+000	 8.271843500235425e+000
 3.133319999983334e+000	 0.000000000000000e+000	 1.071979582524523e+001
 3.133180188336287e+000	 2.959856976126182e-002	 1.077067267333630e+001
 3.132758595715477e+000	 5.930958274510247e-002	 1.080498860399057e+001
 3.132052014749406e+000	 8.912960084760442e-002	 1.082592987987494e+001
 3.131057278902433e+000	 1.190550974780861e-001	 1.083663182565507e+001
 3.129771264960267e+000	 1.490824577193053e-001	 1.084016218527565e+001
 3.128190895538556e+000	 1.792079785623932e-001	 1.083950873156241e+001
 3.126313141612289e+000	 2.094278692182753e-001	 1.083757101409414e+001
 3.124135025063762e+000	 2.397382515072778e-001	 1.083715606749733e+001
 3.121653621246674e+000	 2.701351603285506e-001	 1.084097784779567e+001
 3.118866061563838e+000	 3.006145442108607e-001	 1.085166010930896e+001
 3.159987999982150e+000	 0.000000000000000e+000	 1.057657672626102e+001
 3.159846998384162e+000	 2.985048614990570e-002	 1.064392360177092e+001
 3.159421817546308e+000	 5.981437253772166e-002	 1.069171218992045e+001
 3.158709222798846e+000	 8.988819179751430e-002	 1.072377816660076e+001
 3.157706020655442e+000	 1.200683873234670e-001	 1.074383426566813e+001
 3.156409061319833e+000	 1.503513134314466e-001	 1.075545479428203e+001
 3.154815241215753e+000	 1.807332355959375e-001	 1.076206485524727e+001
 3.152921505537872e+000	 2.112103307641125e-001	 1.076693415469348e+001
 3.150724850821439e+000	 2.417786877487557e-001	 1.077317520511025e+001
 3.148222327528215e+000	 2.724343077016803e-001	 1.078374567559342e+001
 3.145411042646106e+000	 3.031731046692103e-001	 1.080145458231014e+001
 3.186655999981866e+000	 0.000000000000000e+000	 1.047749348758472e+001
 3.186513808432925e+000	 3.010240253874214e-002	 1.055811583296015e+001
 3.186085039377992e+000	 6.031916233064432e-002	 1.061625413044055e+001
 3.185366430849083e+000	 9.064678274776808e-002	 1.065642018799844e+001
 3.184354762409181e+000	 1.210816771691726e-001	 1.068292774871795e+001
 3.183046857680052e+000	 1.516201691438456e-001	 1.069987831985084e+001
 3.181439586893518e+000	 1.822584926296357e-001	 1.071115218614355e+001
 3.179529869463931e+000	 2.129927923099749e-001	 1.072040447750065e+001
 3.177314676579507e+000	 2.438191239901172e-001	 1.073106608808632e+001
 3.174791033810060e+000	 2.747334550745508e-001	 1.074634918198247e+001
 3.171956023728604e+000	 3.057316651271696e-001	 1.076925695780541e+001
 3.213323999982383e+000	 0.000000000000000e+000	 1.042460209540201e+001
 3.213180618482476e+000	 3.035431892772296e-002	 1.051458584380578e+001
 3.212748261210434e+000	 6.082395212379461e-002	 1.057931317711741e+001
 3.212023638900032e+000	 9.140537369827975e-002	 1.062399499772774e+001
 3.211003504163571e+000	 1.220949670151219e-001	 1.065356569753631e+001
 3.209684654040851e+000	 1.528890248564378e-001	 1.067267046745363e+001
 3.208063932571784e+000	 1.837837496634492e-001	 1.068565829202652e+001
 3.206138233390415e+000	 2.147752538558561e-001	 1.069658049031077e+001
 3.203904502337919e+000	 2.458595602313912e-001	 1.070919458636338e+001
 3.201359740092178e+000	 2.770326024472273e-001	 1.072697322674399e+001
 3.198501004811306e+000	 3.082902255848360e-001	 1.075311779564253e+001
 3.239991999983599e+000	 0.000000000000000e+000	 1.041976356093679e+001
 3.239847428532718e+000	 3.060623531680004e-002	 1.051449416421611e+001
 3.239411483043539e+000	 6.132874191709668e-002	 1.058143139529651e+001
 3.238680846951603e+000	 9.216396464896334e-002	 1.062650440156257e+001
 3.237652245918530e+000	 1.231082568612335e-001	 1.065528384512717e+001
 3.236322450402155e+000	 1.541578805691587e-001	 1.067297087086322e+001
 3.234688278250491e+000	 1.853090066973396e-001	 1.068439228502573e+001
 3.232746597317268e+000	 2.165577154017499e-001	 1.069400179594592e+001
 3.230494328096633e+000	 2.478999964726069e-001	 1.070588708559040e+001
 3.227928446374532e+000	 2.793317498197739e-001	 1.072378241061685e+001
 3.225045985894188e+000	 3.108487860423074e-001	 1.075108636054367e+001
 3.266659999985416e+000	 0.000000000000000e+000	 1.046465187902690e+001
 3.266514238583552e+000	 3.085815170592526e-002	 1.055883277730038e+001
 3.266074704877213e+000	 6.183353171047463e-002	 1.062300103552978e+001
 3.265338055003706e+000	 9.292255559973295e-002	 1.066381932661168e+001
 3.264300987673976e+000	 1.241215467074265e-001	 1.068750612521422e+001
 3.262960246763894e+000	 1.554267362819441e-001	 1.069982652407956e+001
 3.261312623929575e+000	 1.868342637312685e-001	 1.070608981204887e+001
 3.259354961244441e+000	 2.183401769476501e-001	 1.071115365491153e+001
 3.257084153855605e+000	 2.499404327137935e-001	 1.071943463242149e+001
 3.254497152657088e+000	 2.816308971922559e-001	 1.073492481027373e+001
 3.251590966977224e+000	 3.134073464996811e-001	 1.076121395040440e+001
 3.293327999987732e+000	 0.000000000000000e+000	 1.056076160002603e+001
 3.293181048634878e+000	 3.111006809505051e-002	 1.064843216003614e+001
 3.292737926711361e+000	 6.233832150385259e-002	 1.070427107116832e+001
 3.291995263056253e+000	 9.368114655050250e-002	 1.073568588101960e+001
 3.290949729429830e+000	 1.251348365536193e-001	 1.074955027619653e+001
 3.289598043125996e+000	 1.566955919947295e-001	 1.075219694859236e+001
 3.287936969608975e+000	 1.883595207651974e-001	 1.074941780125223e+001
 3.285963325171877e+000	 2.201226384935503e-001	 1.074647132378436e+001
 3.283673979614794e+000	 2.519808689549801e-001	 1.074809687429250e+001
 3.281065858939814e+000	 2.839300445647379e-001	 1.075853552568165e+001
 3.278135948060388e+000	 3.159659069570548e-001	 1.078155705413394e+001
 3.319995999990449e+000	 0.000000000000000e+000	 1.070941503677817e+001
 3.319847858686600e+000	 3.136198448412762e-002	 1.078396798462306e+001
 3.319401148545888e+000	 6.284311129715468e-002	 1.082535342088590e+001
 3.318652471109157e+000	 9.443973750118619e-002	 1.084173112155092e+001
 3.317598471186008e+000	 1.261481263997311e-001	 1.084063317472264e+001
 3.316235839488389e+000	 1.579644477074505e-001	 1.082895911086022e+001
 3.314561315288624e+000	 1.898847777990878e-001	 1.081297897827720e+001
 3.312571689099526e+000	 2.219051000394441e-001	 1.079834418194289e+001
 3.310263805374155e+000	 2.540213051961959e-001	 1.079010580523315e+001
 3.307634565222676e+000	 2.862291919372846e-001	 1.079274005039880e+001
 3.304680929143654e+000	 3.185244674145260e-001	 1.081018034862443e+001
 3.346663999993465e+000	 0.000000000000000e+000	 1.088899903149955e+001
 3.346514668738617e+000	 3.161390087310848e-002	 1.094617738668083e+001
 3.346064370380700e+000	 6.334790109030505e-002	 1.096990001816812e+001
 3.345309679162327e+000	 9.519832845169791e-002	 1.096875568251382e+001
 3.344247212942429e+000	 1.271614162456804e-001	 1.095064134011779e+001
 3.342873635850999e+000	 1.592333034200427e-001	 1.092277765020610e+001
 3.341185660968463e+000	 1.914100348329014e-001	 1.089172660871035e+001
 3.339180053027334e+000	 2.236875615853254e-001	 1.086341157383643e+001
 3.336853631133645e+000	 2.560617414374699e-001	 1.084313993659495e+001
 3.334203271505639e+000	 2.885283393099609e-001	 1.083562872297959e+001
 3.331225910226997e+000	 3.210830278721923e-001	 1.084515954381977e+001
 3.373331999996682e+000	 0.000000000000000e+000	 1.096343769352786e+001
 3.373181478790831e+000	 3.186581726194498e-002	 1.101381497366449e+001
 3.372727592215700e+000	 6.385269088322784e-002	 1.103049235452972e+001
 3.371966887215674e+000	 9.595691940195179e-002	 1.102230157903452e+001
 3.370895954699014e+000	 1.281747060913862e-001	 1.099737270216028e+001
 3.369511432213755e+000	 1.605021591324418e-001	 1.096314864458425e+001
 3.367810006648429e+000	 1.929352918665996e-001	 1.092640172275158e+001
 3.365788416955247e+000	 2.254700231311879e-001	 1.089325240486900e+001
 3.363443456893223e+000	 2.581021776788313e-001	 1.086919055725218e+001
 3.360771977788671e+000	 2.908274866828314e-001	 1.085909947721610e+001
 3.357770891310390e+000	 3.236415883301514e-001	 1.086728304081258e+001
 3.400000000000000e+000	 0.000000000000000e+000	 1.090828888483962e+001
 3.399848288843145e+000	 3.211773365058896e-002	 1.096470176281836e+001
 3.399390814050797e+000	 6.435748067584715e-002	 1.098629948020829e+001
 3.398624095269110e+000	 9.671551035186184e-002	 1.098217964774356e+001
 3.397544696455680e+000	 1.291879959367673e-001	 1.096073130302664e+001
 3.396149228576581e+000	 1.617710148445832e-001	 1.092964844755862e+001
 3.394434352328458e+000	 1.944605489001441e-001	 1.089594537486252e+001
 3.392396780883214e+000	 2.272524846770251e-001	 1.086597404365754e+001
 3.390033282652842e+000	 2.601426139203092e-001	 1.084544376762773e+001
 3.387340684071737e+000	 2.931266340559610e-001	 1.083944352756572e+001
 3.384315872393811e+000	 3.262001487885011e-001	 1.085246724634486e+001
 3.118866061563838e+000	 3.006145442108607e-001	 1.085166010930896e+001
 3.115770023914197e+000	 3.311676876108510e-001	 1.086279871026832e+001
 3.112362366168643e+000	 3.617949902300638e-001	 1.086836166937053e+001
 3.108640405069572e+000	 3.924922145166819e-001	 1.087135521325660e+001
 3.104601523616499e+000	 4.232550415549727e-001	 1.087465421193137e+001
 3.100243173639482e+000	 4.540790720423593e-001	 1.088101343544839e+001
 3.095562878368369e+000	 4.849598273529443e-001	 1.089307946662117e+001
 3.090558234994752e+000	 5.158927506883083e-001	 1.091340262802809e+001
 3.085226917223479e+000	 5.468732083162871e-001	 1.094444823973870e+001
 3.079566677810541e+000	 5.778964908983216e-001	 1.098860648647437e+001
 3.073575351083983e+000	 6.089578149058433e-001	 1.104820013991130e+001
 3.145411042646106e+000	 3.031731046692103e-001	 1.080145458231014e+001
 3.142288654310429e+000	 3.339862889291540e-001	 1.081908159724561e+001
 3.138851993649093e+000	 3.648742635849500e-001	 1.082987888033927e+001
 3.135098354567004e+000	 3.958327550185429e-001	 1.083710862797444e+001
 3.131025097790100e+000	 4.268574075554641e-001	 1.084385858869138e+001
 3.126629653460699e+000	 4.579437844502214e-001	 1.085305777817078e+001
 3.121909523728592e+000	 4.890873689588726e-001	 1.086749304760278e+001
 3.116862285334807e+000	 5.202835654996194e-001	 1.088982582020516e+001
 3.111485592184849e+000	 5.515277009021272e-001	 1.092260826580982e+001
 3.105777177908167e+000	 5.828150257461737e-001	 1.096829814296419e+001
 3.099734858400542e+000	 6.141407157900874e-001	 1.102927150247047e+001
 3.171956023728604e+000	 3.057316651271696e-001	 1.076925695780541e+001
 3.168807284706830e+000	 3.368048902469569e-001	 1.079171567435748e+001
 3.165341621129662e+000	 3.679535369392486e-001	 1.080620464684231e+001
 3.161556304064507e+000	 3.991732955197488e-001	 1.081622014261333e+001
 3.157448671963742e+000	 4.304597735552531e-001	 1.082504021307643e+001
 3.153016133281928e+000	 4.618084968573515e-001	 1.083574523818762e+001
 3.148256169088800e+000	 4.932149105640555e-001	 1.085123953145518e+001
 3.143166335674824e+000	 5.246743803101855e-001	 1.087427327439004e+001
 3.137744267146154e+000	 5.561821934872367e-001	 1.090746400138129e+001
 3.131987678005701e+000	 5.877335605933205e-001	 1.095331681258995e+001
 3.125894365716972e+000	 6.193236166736610e-001	 1.101424245430432e+001
 3.198501004811306e+000	 3.082902255848360e-001	 1.075311779564253e+001
 3.195325915103382e+000	 3.396234915643845e-001	 1.077866213545009e+001
 3.191831248610334e+000	 3.710328102931060e-001	 1.079525429084346e+001
 3.188014253562082e+000	 4.025138360204639e-001	 1.080659820832122e+001
 3.183872246137423e+000	 4.340621395545155e-001	 1.081613512320846e+001
 3.179402613103171e+000	 4.656732092639323e-001	 1.082706932350148e+001
 3.174602814449003e+000	 4.973424521686788e-001	 1.084239519154785e+001
 3.169470386014815e+000	 5.290651951201936e-001	 1.086492474430917e+001
 3.164002942107412e+000	 5.608366860717980e-001	 1.089731484170158e+001
 3.158198178103163e+000	 5.926520954399380e-001	 1.094209318608593e+001
 3.152053873033303e+000	 6.245065175567317e-001	 1.100168219507102e+001
 3.225045985894188e+000	 3.108487860423074e-001	 1.075108636054368e+001
 3.221844545500062e+000	 3.424420928815619e-001	 1.077789940656091e+001
 3.218320876091100e+000	 3.741120836466697e-001	 1.079497827292986e+001
 3.214472203059718e+000	 4.058543765208516e-001	 1.080620361302440e+001
 3.210295820311139e+000	 4.376645055534267e-001	 1.081514809764109e+001
 3.205789092924430e+000	 4.695379216701471e-001	 1.082510780709066e+001
 3.200949459809202e+000	 5.014699937729293e-001	 1.083913512914896e+001
 3.195774436354789e+000	 5.334560099298289e-001	 1.086007233294243e+001
 3.190261617068639e+000	 5.654911786559939e-001	 1.089058493415925e+001
 3.184408678200579e+000	 5.975706302862023e-001	 1.093319391736933e+001
 3.178213380349571e+000	 6.296894184394666e-001	 1.099030583743839e+001
 3.251590966977224e+000	 3.134073464996811e-001	 1.076121395040439e+001
 3.248363175896857e+000	 3.452606941986143e-001	 1.078742607217329e+001
 3.244810503571942e+000	 3.771913570000863e-001	 1.080336472261410e+001
 3.240930152557404e+000	 4.091949170210756e-001	 1.081305161934568e+001
 3.236719394484887e+000	 4.412668715521624e-001	 1.082015440192303e+001
 3.232175572745705e+000	 4.734026340761792e-001	 1.082802408062068e+001
 3.227296105169404e+000	 5.055975353769933e-001	 1.083973423026414e+001
 3.222078486694756e+000	 5.378468247392779e-001	 1.085812104596404e+001
 3.216520292029850e+000	 5.701456712400072e-001	 1.088582331931520e+001
 3.210619178297972e+000	 6.024891651322905e-001	 1.092532134069503e+001
 3.204372887665806e+000	 6.348723193220344e-001	 1.097897368647000e+001
 3.278135948060388e+000	 3.159659069570548e-001	 1.078155705413393e+001
 3.274881806293744e+000	 3.480792955156667e-001	 1.080526364730034e+001
 3.271300131052852e+000	 3.802706303535028e-001	 1.081844182974885e+001
 3.267388102055136e+000	 4.125354575212996e-001	 1.082521397795540e+001
 3.263142968658663e+000	 4.448692375508979e-001	 1.082930142401912e+001
 3.258562052566994e+000	 4.772673464822108e-001	 1.083406840959121e+001
 3.253642750529617e+000	 5.097250769810574e-001	 1.084256803570415e+001
 3.248382537034727e+000	 5.422376395487271e-001	 1.085758926947548e+001
 3.242778966991063e+000	 5.748001638240202e-001	 1.088170400661957e+001
 3.236829678395365e+000	 6.074076999783786e-001	 1.091731313228102e+001
 3.230532394982041e+000	 6.400552202046016e-001	 1.096669047272125e+001
 3.304680929143654e+000	 3.185244674145260e-001	 1.081018034862443e+001
 3.301400436690708e+000	 3.508978968328442e-001	 1.082945920407121e+001
 3.297789758533816e+000	 3.833499037070663e-001	 1.083828010486054e+001
 3.293846051552904e+000	 4.158759980216872e-001	 1.084082082336321e+001
 3.289566542832464e+000	 4.484716035498091e-001	 1.084081020483939e+001
 3.284948532388303e+000	 4.811320588884258e-001	 1.084157909546490e+001
 3.279989395889841e+000	 5.138526185853077e-001	 1.084611352926100e+001
 3.274686587374711e+000	 5.466284543583624e-001	 1.085710917628747e+001
 3.269037641952293e+000	 5.794546564082163e-001	 1.087702598848868e+001
 3.263040178492782e+000	 6.123262348246432e-001	 1.090814191952836e+001
 3.256691902298309e+000	 6.452381210873367e-001	 1.095260454165017e+001
 3.331225910226997e+000	 3.210830278721923e-001	 1.084515954381976e+001
 3.327919067087726e+000	 3.537164981502716e-001	 1.085808786093151e+001
 3.324279386014817e+000	 3.864291770609236e-001	 1.086099451571659e+001
 3.320304001050700e+000	 4.192165385224021e-001	 1.085806245870640e+001
 3.315990117006285e+000	 4.520739695490713e-001	 1.085297686972838e+001
 3.311335012209628e+000	 4.849967712950066e-001	 1.084898354996334e+001
 3.306336041250085e+000	 5.179801601899309e-001	 1.084894984856183e+001
 3.300990637714719e+000	 5.510192691683700e-001	 1.085542706473782e+001
 3.295296316913555e+000	 5.841091489927772e-001	 1.087071319617950e+001
 3.289250678590245e+000	 6.172447696712604e-001	 1.089691484076023e+001
 3.282851409614640e+000	 6.504210219704071e-001	 1.093600700177934e+001
 3.357770891310390e+000	 3.236415883301514e-001	 1.086728304081258e+001
 3.354437697484784e+000	 3.565350994680742e-001	 1.087868686267008e+001
 3.350769013495848e+000	 3.895084504152220e-001	 1.087892134097675e+001
 3.346761950548515e+000	 4.225570790236078e-001	 1.087244585286980e+001
 3.342413691180124e+000	 4.556763355488602e-001	 1.086319548377131e+001
 3.337721492030971e+000	 4.888614837021363e-001	 1.085462464032058e+001
 3.332682686610352e+000	 5.221077017951133e-001	 1.084975892287899e+001
 3.327294688054763e+000	 5.554100839789362e-001	 1.085140363378075e+001
 3.321554991874868e+000	 5.887636415778864e-001	 1.086181440068565e+001
 3.315461178687778e+000	 6.221633045184065e-001	 1.088287305821953e+001
 3.309010916931069e+000	 6.556039228539804e-001	 1.091633083389532e+001
 3.384315872393811e+000	 3.262001487885011e-001	 1.085246724634487e+001
 3.380956327881860e+000	 3.593537007863772e-001	 1.086839144490839e+001
 3.377258640976893e+000	 3.925877237701081e-001	 1.087174181545389e+001
 3.373219900046344e+000	 4.258976195254685e-001	 1.086711115788765e+001
 3.368837265353978e+000	 4.592787015493513e-001	 1.085854216751237e+001
 3.364107971852335e+000	 4.927261961099983e-001	 1.084956859505887e+001
 3.359029331970650e+000	 5.262352434010416e-001	 1.084326214668071e+001
 3.353598738394850e+000	 5.598008987902470e-001	 1.084228570079624e+001
 3.347813666836249e+000	 5.934181341637267e-001	 1.084895344307184e+001
 3.341671678785408e+000	 6.270818393662587e-001	 1.086529854174626e+001
 3.335170424247629e+000	 6.607868237382245e-001	 1.089314900239155e+001
 3.073575351083983e+000	 6.089578149058433e-001	 1.104820013991130e+001
 3.067249882023707e+000	 6.400569898093638e-001	 1.109239228062632e+001
 3.060589150818339e+000	 6.711844230832489e-001	 1.109200388007679e+001
 3.053591253298464e+000	 7.023351083413045e-001	 1.107848643995702e+001
 3.046254376817458e+000	 7.335039713734894e-001	 1.106918746132051e+001
 3.038576802639415e+000	 7.646858720132437e-001	 1.106418509352866e+001
 3.030556908289346e+000	 7.958756060941377e-001	 1.106328595475238e+001
 3.022193169862039e+000	 8.270679074953229e-001	 1.106602971292827e+001
 3.013484164285995e+000	 8.582574502751353e-001	 1.107169418698495e+001
 3.004428571538802e+000	 8.894388508920191e-001	 1.107930090934913e+001
 2.995025176810348e+000	 9.206066705118045e-001	 1.108762109623535e+001
 3.099734858400542e+000	 6.141407157900874e-001	 1.102927150247047e+001
 3.093355552640277e+000	 6.455045788827545e-001	 1.107359250481362e+001
 3.086638131285181e+000	 6.768969408555950e-001	 1.107302575030854e+001
 3.079580673959276e+000	 7.083127527125638e-001	 1.106418027442620e+001
 3.072181352588336e+000	 7.397468970565123e-001	 1.105840490330258e+001
 3.064438433808137e+000	 7.711941899724107e-001	 1.105589262221050e+001
 3.056350281334656e+000	 8.026493830006506e-001	 1.105655438012228e+001
 3.047915358292586e+000	 8.341071651999052e-001	 1.106002416631381e+001
 3.039132229498539e+000	 8.655621652988897e-001	 1.106566455654505e+001
 3.029999563695274e+000	 8.970089539361906e-001	 1.107257266402752e+001
 3.020516135733327e+000	 9.284420459871778e-001	 1.107958643653507e+001
 3.125894365716972e+000	 6.193236166736610e-001	 1.101424245430432e+001
 3.119461223256674e+000	 6.509521679555176e-001	 1.105734373832207e+001
 3.112687111751801e+000	 6.826094586273640e-001	 1.105703490321598e+001
 3.105570094619815e+000	 7.142903970833028e-001	 1.105208697127219e+001
 3.098108328358891e+000	 7.459898227390769e-001	 1.104914092278806e+001
 3.090300064976482e+000	 7.777025079311872e-001	 1.104849083498664e+001
 3.082143654379540e+000	 8.094231599068452e-001	 1.105013936492140e+001
 3.073637546722665e+000	 8.411464229042439e-001	 1.105380338018065e+001
 3.064780294710580e+000	 8.728668803224782e-001	 1.105892000126737e+001
 3.055570555851222e+000	 9.045790569802747e-001	 1.106465298464575e+001
 3.046007094655772e+000	 9.362774214625445e-001	 1.106989938229075e+001
 3.152053873033303e+000	 6.245065175567317e-001	 1.100168219507102e+001
 3.145566893872943e+000	 6.563997570278102e-001	 1.104236037254184e+001
 3.138736092218256e+000	 6.883219763987002e-001	 1.104292055904059e+001
 3.131559515280151e+000	 7.202680414536518e-001	 1.104121463467000e+001
 3.124035304129199e+000	 7.522327484212990e-001	 1.104053312965030e+001
 3.116161696144542e+000	 7.842108258896712e-001	 1.104125703830625e+001
 3.107937027424103e+000	 8.161969368128006e-001	 1.104346772067584e+001
 3.099359735152392e+000	 8.481856806083998e-001	 1.104695314704538e+001
 3.090428359922246e+000	 8.801715953459420e-001	 1.105121448871116e+001
 3.081141548006777e+000	 9.121491600242940e-001	 1.105547297730131e+001
 3.071498053577817e+000	 9.441127969379057e-001	 1.105867696258852e+001
 3.178213380349571e+000	 6.296894184394666e-001	 1.099030583743839e+001
 3.171672564489124e+000	 6.618473460997888e-001	 1.102751121160650e+001
 3.164785072684600e+000	 6.940344941697481e-001	 1.102971416826076e+001
 3.157548935940349e+000	 7.262456858237404e-001	 1.103071790939203e+001
 3.149962279899344e+000	 7.584756741032915e-001	 1.103186887665156e+001
 3.142023327312415e+000	 7.907191438479604e-001	 1.103362037929875e+001
 3.133730400468455e+000	 8.229707137185969e-001	 1.103611909947641e+001
 3.125081923581885e+000	 8.552249383124343e-001	 1.103921201161428e+001
 3.116076425133662e+000	 8.874763103693230e-001	 1.104245357470086e+001
 3.106712540162070e+000	 9.197192630682695e-001	 1.104511311265747e+001
 3.096989012499596e+000	 9.519481724132636e-001	 1.104618230643520e+001
 3.204372887665806e+000	 6.348723193220344e-001	 1.097897368647000e+001
 3.197778235105262e+000	 6.672949351716107e-001	 1.101182712674629e+001
 3.190834053150890e+000	 6.997470119406513e-001	 1.101658684460446e+001
 3.183538356600479e+000	 7.322233301936987e-001	 1.101989497026408e+001
 3.175889255669407e+000	 7.647185997851698e-001	 1.102258181167327e+001
 3.167884958480192e+000	 7.972274618061515e-001	 1.102515796745420e+001
 3.159523773512700e+000	 8.297444906243137e-001	 1.102782169216227e+001
 3.150804112011262e+000	 8.622641960164075e-001	 1.103046655292139e+001
 3.141724490344950e+000	 8.947810253926620e-001	 1.103268927729748e+001
 3.132283532317233e+000	 9.272893661122239e-001	 1.103379770007932e+001
 3.122479971421242e+000	 9.597835478886196e-001	 1.103281872586607e+001
 3.230532394982041e+000	 6.400552202046016e-001	 1.096669047272125e+001
 3.223883905721403e+000	 6.727425242434327e-001	 1.099535783305318e+001
 3.216883033617179e+000	 7.054595297115548e-001	 1.100284676777559e+001
 3.209527777260608e+000	 7.382009745636572e-001	 1.100818448791514e+001
 3.201816231439470e+000	 7.709615254670480e-001	 1.101224841185576e+001
 3.193746589647970e+000	 8.037357797643429e-001	 1.101559098286719e+001
 3.185317146556945e+000	 8.365182675300302e-001	 1.101844791675492e+001
 3.176526300440638e+000	 8.693034537203809e-001	 1.102074665944273e+001
 3.167372555556240e+000	 9.020857404160014e-001	 1.102211494551069e+001
 3.157854524472395e+000	 9.348594691561776e-001	 1.102188935731675e+001
 3.147970930342888e+000	 9.676189233639758e-001	 1.101912379445266e+001
 3.256691902298309e+000	 6.452381210873367e-001	 1.095260454165017e+001
 3.249989576337585e+000	 6.781901133154114e-001	 1.097799910817082e+001
 3.242932014083523e+000	 7.111720474826022e-001	 1.098793655759611e+001
 3.235517197920808e+000	 7.441786189337459e-001	 1.099516257215332e+001
 3.227743207209616e+000	 7.772044511490409e-001	 1.100058450066483e+001
 3.219608220815842e+000	 8.102440977226320e-001	 1.100478077179673e+001
 3.211110519601295e+000	 8.432920444358265e-001	 1.100801009769016e+001
 3.202248488870132e+000	 8.763427114244150e-001	 1.101022079758043e+001
 3.193020620767656e+000	 9.093904554393821e-001	 1.101106012304673e+001
 3.183425516627689e+000	 9.424295722001536e-001	 1.100988347598506e+001
 3.173461889264666e+000	 9.754542988393339e-001	 1.100576342146919e+001
 3.282851409614640e+000	 6.504210219704071e-001	 1.093600700177934e+001
 3.276095246953852e+000	 6.836377023877039e-001	 1.095919490212483e+001
 3.268980994549979e+000	 7.168845652539385e-001	 1.097143062115775e+001
 3.261506618581141e+000	 7.501562633040946e-001	 1.098053969421510e+001
 3.253670182979924e+000	 7.834473768312622e-001	 1.098744174883660e+001
 3.245469851983902e+000	 8.167524156811156e-001	 1.099272493025062e+001
 3.236903892645860e+000	 8.500658213417824e-001	 1.099665613636032e+001
 3.227970677299860e+000	 8.833819691285709e-001	 1.099919127388606e+001
 3.218668685979320e+000	 9.166951704628458e-001	 1.099998540736797e+001
 3.208996508783244e+000	 9.499996752441726e-001	 1.099840268307663e+001
 3.198952848186713e+000	 9.832896743146952e-001	 1.099352592195900e+001
 3.309010916931069e+000	 6.556039228539804e-001	 1.091633083389532e+001
 3.302200917570249e+000	 6.890852914604667e-001	 1.093851503137664e+001
 3.295029975016599e+000	 7.225970830257074e-001	 1.095303247447660e+001
 3.287496039241681e+000	 7.561339076748331e-001	 1.096415758905682e+001
 3.279597158750476e+000	 7.896903025138271e-001	 1.097280416009211e+001
 3.271331483152246e+000	 8.232607336398923e-001	 1.097955337625530e+001
 3.262697265690743e+000	 8.568395982479766e-001	 1.098466517344733e+001
 3.253692865729938e+000	 8.904212268329097e-001	 1.098808949136945e+001
 3.244316751191362e+000	 9.239998854864342e-001	 1.098947730432381e+001
 3.234567500939192e+000	 9.575697782882571e-001	 1.098819129872294e+001
 3.224443807109157e+000	 9.911250497900616e-001	 1.098331608292778e+001
 3.335170424247629e+000	 6.607868237382245e-001	 1.089314900239155e+001
 3.328306588186820e+000	 6.945328805338576e-001	 1.091565289221374e+001
 3.321078955483442e+000	 7.283096007980534e-001	 1.093257204005029e+001
 3.313485459902493e+000	 7.621115520460923e-001	 1.094598613878334e+001
 3.305524134521356e+000	 7.959332281968499e-001	 1.095678454245797e+001
 3.297193114320970e+000	 8.297690515990592e-001	 1.096552441143335e+001
 3.288490638736053e+000	 8.636133751544897e-001	 1.097244324349734e+001
 3.279415054160485e+000	 8.974604845374922e-001	 1.097747120021649e+001
 3.269964816403906e+000	 9.313046005101889e-001	 1.098024307859489e+001
 3.260138493095666e+000	 9.651398813324287e-001	 1.098010979041215e+001
 3.249934766032135e+000	 9.989604252654352e-001	 1.097614922587494e+001
 2.995025176810348e+000	 9.206066705118045e-001	 1.108762109623535e+001
 2.985272871861278e+000	 9.517554169440450e-001	 1.109931481680874e+001
 2.975170654820722e+000	 9.828795457048585e-001	 1.111788595828146e+001
 2.964717634414846e+000	 1.013973463865370e+000	 1.114307195924950e+001
 2.953913032638836e+000	 1.045031533136540e+000	 1.117451968785854e+001
 2.942756186611073e+000	 1.076048072588372e+000	 1.121170210885299e+001
 2.931246550353865e+000	 1.107017361446401e+000	 1.125398945340911e+001
 2.919383696497328e+000	 1.137933641963363e+000	 1.130063712196212e+001
 2.907167317903020e+000	 1.168791122363753e+000	 1.135079175014066e+001
 2.894597229204027e+000	 1.199583979858828e+000	 1.140349738845649e+001
 2.881673368258283e+000	 1.230306363729441e+000	 1.145770183703294e+001
 3.020516135733327e+000	 9.284420459871778e-001	 1.107958643653507e+001
 3.010680827941015e+000	 9.598559025168252e-001	 1.109016343531231e+001
 3.000492629920439e+000	 9.912449318515900e-001	 1.110842778044539e+001
 2.989950642812039e+000	 1.022603493460617e+000	 1.113390422167558e+001
 2.979054081989313e+000	 1.053925901066823e+000	 1.116601098871951e+001
 2.967802278928781e+000	 1.085206425389242e+000	 1.120398695888369e+001
 2.956194683005870e+000	 1.116439296963322e+000	 1.124695585632783e+001
 2.944230863213302e+000	 1.147618709037034e+000	 1.129391630983588e+001
 2.931910509798535e+000	 1.178738820540489e+000	 1.134374806860758e+001
 2.919233435816973e+000	 1.209793759126601e+000	 1.139521827281293e+001
 2.906199578597639e+000	 1.240777624280165e+000	 1.144698782395708e+001
 3.046007094655772e+000	 9.362774214625445e-001	 1.106989938229075e+001
 3.036088784020225e+000	 9.679563880896780e-001	 1.107889162190249e+001
 3.025814605019650e+000	 9.996103179984717e-001	 1.109635302299199e+001
 3.015183651208757e+000	 1.031233523056087e+000	 1.112159127215035e+001
 3.004195131339357e+000	 1.062820268997393e+000	 1.115379200142234e+001
 2.992848371246103e+000	 1.094364778190455e+000	 1.119195554602481e+001
 2.981142815657544e+000	 1.125861232480630e+000	 1.123495474974570e+001
 2.969078029928998e+000	 1.157303776111121e+000	 1.128152697822323e+001
 2.956653701693830e+000	 1.188686518717651e+000	 1.133028043667458e+001
 2.943869642429749e+000	 1.220003538394793e+000	 1.137970047691870e+001
 2.930725788936877e+000	 1.251248884831276e+000	 1.142815594281123e+001
 3.071498053577817e+000	 9.441127969379057e-001	 1.105867696258852e+001
 3.061496740099039e+000	 9.760568736625853e-001	 1.106579824033000e+001
 3.051136580118482e+000	 1.007975704145466e+000	 1.108212541682736e+001
 3.040416659605120e+000	 1.039863552651724e+000	 1.110674465193350e+001
 3.029336180689076e+000	 1.071714636928179e+000	 1.113860498081790e+001
 3.017894463563138e+000	 1.103523130991923e+000	 1.117646379212230e+001
 3.006090948308972e+000	 1.135283167998224e+000	 1.121893878691177e+001
 2.993925196644493e+000	 1.166988843185512e+000	 1.126450175245604e+001
 2.981396893588967e+000	 1.198634216895122e+000	 1.131148493135031e+001
 2.968505849042415e+000	 1.230213317663281e+000	 1.135808730758208e+001
 2.955251999276042e+000	 1.261720145382654e+000	 1.140238086305341e+001
 3.096989012499596e+000	 9.519481724132636e-001	 1.104618230643520e+001
 3.086904696177589e+000	 9.841573592355289e-001	 1.105132439014524e+001
 3.076458555217060e+000	 1.016341090292535e+000	 1.106633568342632e+001
 3.065649668001247e+000	 1.048493582247471e+000	 1.109010998081450e+001
 3.054477230038581e+000	 1.080609004859105e+000	 1.112132202897980e+001
 3.042940555879987e+000	 1.112681483793558e+000	 1.115849317843504e+001
 3.031039080960242e+000	 1.144705103516002e+000	 1.119998187243589e+001
 3.018772363359863e+000	 1.176673910260096e+000	 1.124399021904982e+001
 3.006140085484014e+000	 1.208581915072786e+000	 1.128857035837283e+001
 2.993142055655025e+000	 1.240423096931949e+000	 1.133163066705740e+001
 2.979778209615191e+000	 1.272191405934185e+000	 1.137094185837666e+001
 3.122479971421242e+000	 9.597835478886196e-001	 1.103281872586607e+001
 3.112312652256008e+000	 9.922578448084910e-001	 1.103604709095866e+001
 3.101780530315512e+000	 1.024706476439641e+000	 1.104974105982531e+001
 3.090882676397256e+000	 1.057123611843272e+000	 1.107255977051934e+001
 3.079618279387981e+000	 1.089503372790100e+000	 1.110293743768288e+001
 3.067986648196746e+000	 1.121839836595270e+000	 1.113914259418836e+001
 3.055987213611441e+000	 1.154127039033863e+000	 1.117927049452166e+001
 3.043619530075186e+000	 1.186358977334763e+000	 1.122124971986248e+001
 3.030883277379037e+000	 1.218529613250524e+000	 1.126284848723243e+001
 3.017778262267638e+000	 1.250632876200675e+000	 1.130168070860180e+001
 3.004304419954370e+000	 1.282662666485751e+000	 1.133521186324486e+001
 3.147970930342888e+000	 9.676189233639758e-001	 1.101912379445266e+001
 3.137720608334429e+000	 1.000358330381453e+000	 1.102067296183613e+001
 3.127102505413965e+000	 1.033071862586746e+000	 1.103318700157392e+001
 3.116115684793268e+000	 1.065753641439071e+000	 1.105508623491711e+001
 3.104759328737387e+000	 1.098397740721089e+000	 1.108456002961905e+001
 3.093032740513514e+000	 1.130998189396973e+000	 1.111962018655954e+001
 3.080935346262661e+000	 1.163548974551708e+000	 1.115809506208585e+001
 3.068466696790536e+000	 1.196044044409403e+000	 1.119763615536862e+001
 3.055626469274102e+000	 1.228477311428221e+000	 1.123572430031642e+001
 3.042414468880311e+000	 1.260842655469342e+000	 1.126967551194816e+001
 3.028830630293633e+000	 1.293133927037236e+000	 1.129664655593073e+001
 3.173461889264666e+000	 9.754542988393339e-001	 1.100576342146919e+001
 3.163128564412980e+000	 1.008458815954396e+000	 1.100603189610387e+001
 3.152424480512546e+000	 1.041437248733814e+000	 1.101764966978190e+001
 3.141348693189401e+000	 1.074383671034812e+000	 1.103879409720597e+001
 3.129900378086907e+000	 1.107292108652000e+000	 1.106740549842334e+001
 3.118078832830393e+000	 1.140156542198578e+000	 1.110123521201334e+001
 3.105883478913983e+000	 1.172970910069433e+000	 1.113784124649138e+001
 3.093313863505990e+000	 1.205729111483904e+000	 1.117459479653634e+001
 3.080369661169276e+000	 1.238425009605759e+000	 1.120868625538324e+001
 3.067050675493100e+000	 1.271052434737831e+000	 1.123713077757472e+001
 3.053356840633026e+000	 1.303605187588521e+000	 1.125677346656747e+001
 3.198952848186713e+000	 9.832896743146952e-001	 1.099352592195900e+001
 3.188536520491794e+000	 1.016559301527303e+000	 1.099306068065950e+001
 3.177746455611380e+000	 1.049802634880804e+000	 1.100421646236024e+001
 3.166581701585774e+000	 1.083013700630437e+000	 1.102489339424677e+001
 3.155041427436653e+000	 1.116186476582760e+000	 1.105278874757460e+001
 3.143124925147479e+000	 1.149314894999995e+000	 1.108538988891330e+001
 3.130831611565499e+000	 1.182392845586940e+000	 1.111998132763515e+001
 3.118161030221624e+000	 1.215414178558155e+000	 1.115365110482765e+001
 3.105112853064621e+000	 1.248372707783021e+000	 1.118329656062158e+001
 3.091686882106064e+000	 1.281262214006022e+000	 1.120562953872341e+001
 3.077883050972603e+000	 1.314076448139491e+000	 1.121718110881796e+001
 3.224443807109157e+000	 9.911250497900616e-001	 1.098331608292778e+001
 3.213944476571005e+000	 1.024659787100156e+000	 1.098283808912545e+001
 3.203068430710595e+000	 1.058168021027681e+000	 1.099407925865333e+001
 3.191814709982509e+000	 1.091643730225893e+000	 1.101469227820238e+001
 3.180182476786732e+000	 1.125080844513294e+000	 1.104211622823446e+001
 3.168171017464872e+000	 1.158473247801137e+000	 1.107357125133765e+001
 3.155779744217294e+000	 1.191814781104125e+000	 1.110606554415078e+001
 3.143008196937515e+000	 1.225099245632047e+000	 1.113640155987252e+001
 3.129856044960206e+000	 1.258320405959892e+000	 1.116118146159905e+001
 3.116323088719257e+000	 1.291471993273796e+000	 1.117681189018478e+001
 3.102409261312411e+000	 1.324547708690029e+000	 1.117950813385581e+001
 3.249934766032135e+000	 9.989604252654352e-001	 1.097614922587494e+001
 3.239352432650741e+000	 1.032760272672935e+000	 1.097651444989811e+001
 3.228390405810319e+000	 1.066533407174408e+000	 1.098852766057374e+001
 3.217047718379721e+000	 1.100273759821121e+000	 1.100958981563048e+001
 3.205323526137257e+000	 1.133975212443531e+000	 1.103687827608183e+001
 3.193217109782673e+000	 1.167631600601917e+000	 1.106734300403400e+001
 3.180727876869459e+000	 1.201236716620890e+000	 1.109771344749985e+001
 3.167855363653740e+000	 1.234784312705469e+000	 1.112450449439556e+001
 3.154599236856098e+000	 1.268268104136253e+000	 1.114402153944745e+001
 3.140959295332737e+000	 1.301681772541035e+000	 1.115236473292944e+001
 3.126935471652506e+000	 1.335018969240017e+000	 1.114552558332412e+001
 2.881673368258283e+000	 1.230306363729441e+000	 1.145770183703294e+001
 2.868397815937404e+000	 1.260947808074110e+000	 1.149540922442447e+001
 2.854768850366804e+000	 1.291507033333439e+000	 1.149804032482676e+001
 2.840786788950488e+000	 1.321978128413373e+000	 1.146343908826289e+001
 2.826452077113804e+000	 1.352355167314767e+000	 1.140265466246821e+001
 2.811765289274062e+000	 1.382632212507475e+000	 1.136255793531292e+001
 2.796727129707190e+000	 1.412803318353237e+000	 1.134413580116170e+001
 2.781338433307961e+000	 1.442862534573747e+000	 1.134344804016485e+001
 2.765600166241469e+000	 1.472803909760124e+000	 1.135637306176072e+001
 2.749513426483720e+000	 1.502621494919891e+000	 1.137862225020518e+001
 2.733079444249319e+000	 1.532309347057451e+000	 1.140575542296119e+001
 2.906199578597639e+000	 1.240777624280165e+000	 1.144698782395708e+001
 2.892811036722654e+000	 1.271679861023362e+000	 1.147978496993067e+001
 2.879066073662390e+000	 1.302499178906338e+000	 1.147394795764119e+001
 2.864965009522325e+000	 1.333229616525127e+000	 1.142732116785740e+001
 2.850508293518875e+000	 1.363865197443818e+000	 1.137184548462238e+001
 2.835696504958288e+000	 1.394399933597353e+000	 1.133899821765220e+001
 2.820530354110670e+000	 1.424827828743552e+000	 1.132517584635846e+001
 2.805010682976677e+000	 1.455142881960698e+000	 1.132658663860793e+001
 2.789138465944542e+000	 1.485339091186876e+000	 1.133926419709766e+001
 2.772914810335272e+000	 1.515410456797143e+000	 1.135908201436798e+001
 2.756340956833962e+000	 1.545350985214473e+000	 1.138176918000915e+001
 2.930725788936877e+000	 1.251248884831276e+000	 1.142815594281122e+001
 2.917224257507826e+000	 1.282411913972944e+000	 1.145521871600937e+001
 2.903363296957934e+000	 1.313491324479491e+000	 1.144026562749657e+001
 2.889143230094150e+000	 1.344481104637046e+000	 1.138569638826882e+001
 2.874564509923965e+000	 1.375375227572934e+000	 1.134001162765186e+001
 2.859627720642560e+000	 1.406167654687189e+000	 1.131425789587354e+001
 2.844333578514223e+000	 1.436852339133718e+000	 1.130497900349403e+001
 2.828682932645491e+000	 1.467423229347397e+000	 1.130853776815306e+001
 2.812676765647745e+000	 1.497874272613284e+000	 1.132112955295792e+001
 2.796316194186986e+000	 1.528199418673973e+000	 1.133879703717004e+001
 2.779602469418804e+000	 1.558392623371014e+000	 1.135744617995241e+001
 2.955251999276042e+000	 1.261720145382654e+000	 1.140238086305341e+001
 2.941637478292966e+000	 1.293143966922747e+000	 1.142291347067274e+001
 2.927660520253484e+000	 1.324483470052802e+000	 1.139823454812754e+001
 2.913321450666013e+000	 1.355732592749046e+000	 1.134435072182950e+001
 2.898620726329122e+000	 1.386885257702045e+000	 1.130811926489910e+001
 2.883558936326928e+000	 1.417935375776930e+000	 1.128922853508166e+001
 2.868136802917897e+000	 1.448876849523699e+000	 1.128437530936801e+001
 2.852355182314455e+000	 1.479703576733827e+000	 1.129008287895501e+001
 2.836215065351123e+000	 1.510409454039345e+000	 1.130271476645923e+001
 2.819717578038901e+000	 1.540988380550389e+000	 1.131848971886297e+001
 2.802863982003876e+000	 1.571434261527091e+000	 1.133349793605839e+001
 2.979778209615191e+000	 1.272191405934185e+000	 1.137094185837666e+001
 2.966050699078124e+000	 1.303876019872661e+000	 1.138417263230929e+001
 2.951957743549081e+000	 1.335475615626169e+000	 1.134936027740672e+001
 2.937499671237958e+000	 1.366984080861041e+000	 1.130432117052283e+001
 2.922676942734390e+000	 1.398395287831081e+000	 1.127711945698881e+001
 2.907490152011438e+000	 1.429703096866527e+000	 1.126478831678037e+001
 2.891940027321741e+000	 1.460901359913464e+000	 1.126418284101796e+001
 2.876027431983614e+000	 1.491983924119971e+000	 1.127199258235928e+001
 2.859753365054722e+000	 1.522944635465056e+000	 1.128475545619181e+001
 2.843118961891063e+000	 1.553777342426399e+000	 1.129887296282950e+001
 2.826125494589216e+000	 1.584475899682720e+000	 1.131062668965526e+001
 3.004304419954370e+000	 1.282662666485751e+000	 1.133521186324486e+001
 2.990463919863343e+000	 1.314608072822576e+000	 1.134038844526476e+001
 2.976254966844774e+000	 1.346467761199496e+000	 1.130065092732412e+001
 2.961677891810029e+000	 1.378235568972947e+000	 1.126662699946088e+001
 2.946733159139817e+000	 1.409905317959977e+000	 1.124794770662461e+001
 2.931421367696138e+000	 1.441470817955927e+000	 1.124180157191886e+001
 2.915743251725804e+000	 1.472925870302978e+000	 1.124520724496979e+001
 2.899699681653019e+000	 1.504264271505810e+000	 1.125502619404579e+001
 2.883291664758590e+000	 1.535479816890413e+000	 1.126797679665538e+001
 2.866520345743509e+000	 1.566566304302014e+000	 1.128064979840161e+001
 2.849387007174854e+000	 1.597517537837919e+000	 1.128952509808274e+001
 3.028830630293633e+000	 1.293133927037236e+000	 1.129664655593073e+001
 3.014877140648670e+000	 1.325340125772382e+000	 1.129303048849782e+001
 3.000552190140605e+000	 1.357459906772683e+000	 1.125600771942483e+001
 2.985856112382270e+000	 1.389487057084678e+000	 1.123226955732081e+001
 2.970789375545449e+000	 1.421415348088662e+000	 1.122152356128389e+001
 2.955352583381074e+000	 1.453238539045079e+000	 1.122111836516540e+001
 2.939546476130134e+000	 1.484950380692207e+000	 1.122824132025235e+001
 2.923371931322718e+000	 1.516544618891328e+000	 1.123993133269062e+001
 2.906829964462770e+000	 1.548014998315415e+000	 1.125309314919607e+001
 2.889921729596284e+000	 1.579355266177241e+000	 1.126451306039874e+001
 2.872648519760826e+000	 1.610559175992701e+000	 1.127087597883287e+001
 3.053356840633026e+000	 1.303605187588521e+000	 1.125677346656747e+001
 3.039290361434153e+000	 1.336072178721969e+000	 1.124389444005726e+001
 3.024849413436621e+000	 1.368452052345632e+000	 1.121650576873302e+001
 3.010034332954730e+000	 1.400738545196150e+000	 1.120223195616510e+001
 2.994845591951334e+000	 1.432925378217068e+000	 1.119875026111853e+001
 2.979283799066296e+000	 1.465006260133933e+000	 1.120357412752745e+001
 2.963349700534780e+000	 1.496974891081117e+000	 1.121406465215222e+001
 2.947044180992758e+000	 1.528824966276507e+000	 1.122744357102427e+001
 2.930368264167312e+000	 1.560550179740057e+000	 1.124080774626624e+001
 2.913323113449429e+000	 1.592144228052089e+000	 1.125114512219614e+001
 2.895910032347164e+000	 1.623600814147085e+000	 1.125535210672111e+001
 3.077883050972603e+000	 1.314076448139491e+000	 1.121718110881796e+001
 3.063703582219838e+000	 1.346804231671227e+000	 1.119983909630574e+001
 3.049146636732866e+000	 1.379444197918242e+000	 1.118319952979757e+001
 3.034212553527452e+000	 1.411990033307279e+000	 1.117747879026811e+001
 3.018901808357516e+000	 1.444435408345127e+000	 1.118051442953954e+001
 3.003215014751850e+000	 1.476773981222436e+000	 1.118998933462193e+001
 2.987152924939791e+000	 1.508999401469674e+000	 1.120344329387963e+001
 2.970716430663188e+000	 1.541105313661330e+000	 1.121828613636326e+001
 2.953906563872260e+000	 1.573085361164338e+000	 1.123181242603291e+001
 2.936724497302984e+000	 1.604933189926567e+000	 1.124121767933855e+001
 2.919171544933902e+000	 1.636642452301086e+000	 1.124361606112996e+001
 3.102409261312411e+000	 1.324547708690029e+000	 1.117950813385581e+001
 3.088116803005770e+000	 1.357536284620048e+000	 1.116418377322789e+001
 3.073443860029386e+000	 1.390436343490416e+000	 1.115712259257245e+001
 3.058390774100482e+000	 1.423241521417980e+000	 1.115895589178857e+001
 3.042958024764042e+000	 1.455945438472771e+000	 1.116768580412400e+001
 3.027146230437786e+000	 1.488541702310539e+000	 1.118116922806948e+001
 3.010956149345215e+000	 1.521023911857844e+000	 1.119712949349301e+001
 2.994388680334057e+000	 1.553385661045778e+000	 1.121316965787820e+001
 2.977444863577661e+000	 1.585620542588254e+000	 1.122678741454873e+001
 2.960125881156992e+000	 1.617722151800683e+000	 1.123539158090100e+001
 2.942433057521074e+000	 1.649684090454720e+000	 1.123632012055388e+001
 3.126935471652506e+000	 1.335018969240017e+000	 1.114552558332412e+001
 3.112530023792000e+000	 1.368268337568320e+000	 1.113803819741920e+001
 3.097741083326226e+000	 1.401428489062056e+000	 1.113928750919431e+001
 3.082568994673866e+000	 1.434493009528169e+000	 1.114759012126589e+001
 3.067014241170958e+000	 1.467455468599930e+000	 1.116111700562971e+001
 3.051077446124150e+000	 1.500309423398188e+000	 1.117790357764437e+001
 3.034759373751101e+000	 1.533048422245595e+000	 1.119586146359819e+001
 3.018060930005414e+000	 1.565666008429837e+000	 1.121279195803112e+001
 3.000983163283562e+000	 1.598155724011803e+000	 1.122640115287362e+001
 2.983527265011496e+000	 1.630511113674446e+000	 1.123431670597622e+001
 2.965694570108715e+000	 1.662725728608005e+000	 1.123410620184856e+001
 2.733079444249319e+000	 1.532309347057451e+000	 1.140575542296118e+001
 2.716297039568712e+000	 1.561865955864427e+000	 1.143021434897856e+001
 2.699170149807901e+000	 1.591280936462619e+000	 1.144754330751909e+001
 2.681700406264190e+000	 1.620548384726113e+000	 1.145796480309810e+001
 2.663889573078078e+000	 1.649662417173072e+000	 1.146186230489094e+001
 2.645739547069145e+000	 1.678617174651290e+000	 1.146083300384631e+001
 2.627252357450537e+000	 1.707406826031018e+000	 1.145691928790752e+001
 2.608430165421335e+000	 1.736025571900473e+000	 1.145202728178160e+001
 2.589275263636230e+000	 1.764467648259312e+000	 1.144829097067586e+001
 2.569790075552226e+000	 1.792727330205414e+000	 1.144805709159659e+001
 2.549977154652176e+000	 1.820798935610175e+000	 1.145386816949592e+001
 2.756340956833962e+000	 1.545350985214473e+000	 1.138176918000915e+001
 2.739415715428227e+000	 1.575159153276105e+000	 1.140171210803605e+001
 2.722143056995375e+000	 1.604824487717100e+000	 1.141626157542854e+001
 2.704524626716822e+000	 1.634341034160935e+000	 1.142560247133838e+001
 2.686562203747829e+000	 1.663702859050867e+000	 1.143006073121127e+001
 2.668257701051977e+000	 1.692904053366853e+000	 1.143011764636288e+001
 2.649613165113236e+000	 1.721938736349818e+000	 1.142719695780108e+001
 2.630630775524840e+000	 1.750801059228598e+000	 1.142385105322730e+001
 2.611312844454483e+000	 1.779485208944865e+000	 1.142220985382886e+001
 2.591661815985434e+000	 1.807985411871278e+000	 1.142461878280374e+001
 2.571680265333477e+000	 1.836295937518066e+000	 1.143362627541736e+001
 2.779602469418804e+000	 1.558392623371014e+000	 1.135744617995241e+001
 2.762534391287983e+000	 1.588452350687268e+000	 1.137330574000332e+001
 2.745115964183133e+000	 1.618368038971054e+000	 1.138540783458413e+001
 2.727348847169785e+000	 1.648133683595235e+000	 1.139387288856607e+001
 2.709234834417954e+000	 1.677743300928162e+000	 1.139895817682032e+001
 2.690775855035223e+000	 1.707190932081953e+000	 1.140107284785153e+001
 2.671973972776374e+000	 1.736470646668199e+000	 1.140079327698774e+001
 2.652831385628806e+000	 1.765576546556353e+000	 1.139941377379637e+001
 2.633350425273202e+000	 1.794502769630099e+000	 1.139989252580177e+001
 2.613533556419093e+000	 1.823243493536874e+000	 1.140461127611164e+001
 2.593383376015194e+000	 1.851792939425738e+000	 1.141609783489634e+001
 2.802863982003876e+000	 1.571434261527091e+000	 1.133349793605840e+001
 2.785653067148002e+000	 1.601745548097935e+000	 1.134569634253529e+001
 2.768088871371186e+000	 1.631911590224498e+000	 1.135566187705637e+001
 2.750173067623071e+000	 1.661926333029029e+000	 1.136342417673101e+001
 2.731907465088427e+000	 1.691783742804963e+000	 1.136914455858975e+001
 2.713294009018838e+000	 1.721477810796585e+000	 1.137313182626440e+001
 2.694334780439897e+000	 1.751002556986144e+000	 1.137585846143467e+001
 2.675031995733158e+000	 1.780352033883711e+000	 1.137797709537636e+001
 2.655388006092302e+000	 1.809520330314980e+000	 1.138071504998079e+001
 2.635405296853118e+000	 1.838501575202161e+000	 1.138734132218386e+001
 2.615086486697246e+000	 1.867289941333142e+000	 1.140050963946010e+001
 2.826125494589216e+000	 1.584475899682720e+000	 1.131062668965526e+001
 2.808771743008305e+000	 1.615038745508126e+000	 1.131957605400905e+001
 2.791061778559539e+000	 1.645455141477451e+000	 1.132769530246439e+001
 2.772997288076671e+000	 1.675718982462327e+000	 1.133489746039682e+001
 2.754580095759225e+000	 1.705824184681278e+000	 1.134122108787864e+001
 2.735812163002780e+000	 1.735764689510745e+000	 1.134684693896344e+001
 2.716695588103744e+000	 1.765534467303639e+000	 1.135211506548071e+001
 2.697232605837830e+000	 1.795127521210649e+000	 1.135754225574347e+001
 2.677425586911706e+000	 1.824537890999473e+000	 1.136383969026539e+001
 2.657277037287425e+000	 1.853759656867096e+000	 1.137221019226465e+001
 2.636789597379548e+000	 1.882786943240229e+000	 1.138618320729542e+001
 2.849387007174854e+000	 1.597517537837919e+000	 1.128952509808274e+001
 2.831890418868914e+000	 1.628331942917860e+000	 1.129562780739129e+001
 2.814034685748200e+000	 1.658998692729931e+000	 1.130217132325907e+001
 2.795821508530576e+000	 1.689511631895144e+000	 1.130892670965874e+001
 2.777252726430318e+000	 1.719864626557111e+000	 1.131578344263490e+001
 2.758330316987007e+000	 1.750051568224430e+000	 1.132276699237189e+001
 2.739056395767859e+000	 1.780066377620673e+000	 1.133005691413177e+001
 2.719433215942749e+000	 1.809903008537144e+000	 1.133800533327956e+001
 2.699463167731334e+000	 1.839555451683543e+000	 1.134715570075264e+001
 2.679148777721928e+000	 1.869017738531633e+000	 1.135826168717521e+001
 2.658492708062018e+000	 1.898283945146948e+000	 1.137253201196536e+001
 2.872648519760826e+000	 1.610559175992701e+000	 1.127087597883287e+001
 2.855009094729853e+000	 1.641625140327156e+000	 1.127452513978579e+001
 2.837007592937177e+000	 1.672542243981955e+000	 1.127974462593642e+001
 2.818645728984777e+000	 1.703304281327492e+000	 1.128613863995518e+001
 2.799925357101683e+000	 1.733905068432466e+000	 1.129342169342763e+001
 2.780848470971473e+000	 1.764338446937636e+000	 1.130143718254587e+001
 2.761417203432182e+000	 1.794598287937230e+000	 1.131017654174026e+001
 2.741633826047844e+000	 1.824678495863168e+000	 1.131979885502122e+001
 2.721500748551104e+000	 1.854573012367157e+000	 1.133065079535672e+001
 2.701020518156543e+000	 1.884275820195732e+000	 1.134328675370693e+001
 2.680195818744573e+000	 1.913780947053250e+000	 1.135848901146963e+001
 2.895910032347164e+000	 1.623600814147085e+000	 1.125535210672111e+001
 2.878127770591144e+000	 1.654918337736034e+000	 1.125693205453155e+001
 2.859980500126478e+000	 1.686085795233540e+000	 1.126106128503477e+001
 2.841469949439266e+000	 1.717096930759384e+000	 1.126715266557581e+001
 2.822597987773292e+000	 1.747945510307352e+000	 1.127472028472383e+001
 2.803366624956138e+000	 1.778625325650358e+000	 1.128339909313626e+001
 2.783778011096657e+000	 1.809130198253296e+000	 1.129296519623673e+001
 2.763834436153042e+000	 1.839453983188698e+000	 1.130335667276274e+001
 2.743538329370936e+000	 1.869590573050278e+000	 1.131469478318385e+001
 2.722892258591185e+000	 1.899533901859347e+000	 1.132730542270333e+001
 2.701898929427128e+000	 1.929277948959084e+000	 1.134174066515172e+001
 2.919171544933902e+000	 1.636642452301086e+000	 1.124361606112996e+001
 2.901246446452806e+000	 1.668211535144512e+000	 1.124350293291905e+001
 2.882953407316110e+000	 1.699629346484705e+000	 1.124675872697254e+001
 2.864294169894032e+000	 1.730889580190834e+000	 1.125258090386993e+001
 2.845270618445120e+000	 1.761985952181773e+000	 1.126025806832842e+001
 2.825884778940959e+000	 1.792912204362594e+000	 1.126919074754104e+001
 2.806138818761223e+000	 1.823662108568856e+000	 1.127891290010308e+001
 2.786035046258273e+000	 1.854229470513710e+000	 1.128911402359925e+001
 2.765575910190750e+000	 1.884608133732874e+000	 1.129966171822034e+001
 2.744763999025769e+000	 1.914791983522436e+000	 1.131062455388912e+001
 2.723602040109602e+000	 1.944774950864403e+000	 1.132229507939278e+001
 2.942433057521074e+000	 1.649684090454720e+000	 1.123632012055388e+001
 2.924365122314863e+000	 1.681504732552608e+000	 1.123488249277989e+001
 2.905926314506080e+000	 1.713172897735468e+000	 1.123746574096770e+001
 2.887118390349069e+000	 1.744682229621855e+000	 1.124302822734980e+001
 2.867943249117139e+000	 1.776026394055733e+000	 1.125060838610080e+001
 2.848402932925892e+000	 1.807199083074341e+000	 1.125934671224832e+001
 2.828499626425824e+000	 1.838194018883899e+000	 1.126850856494963e+001
 2.808235656363467e+000	 1.869004957838178e+000	 1.127750764694278e+001
 2.787613491010467e+000	 1.899625694414908e+000	 1.128593001060481e+001
 2.766635739460210e+000	 1.930050065184955e+000	 1.129355843051958e+001
 2.745305150791908e+000	 1.960271952769154e+000	 1.130039697287958e+001
 2.965694570108715e+000	 1.662725728608005e+000	 1.123410620184856e+001
 2.947483798177338e+000	 1.694797929960343e+000	 1.123170579137513e+001
 2.928899221696398e+000	 1.726716448985847e+000	 1.123380253445480e+001
 2.909942610804364e+000	 1.758474879052459e+000	 1.123909236105925e+001
 2.890615879789327e+000	 1.790066835929240e+000	 1.124633919924168e+001
 2.870921086910895e+000	 1.821485961785593e+000	 1.125439824856004e+001
 2.850860434090400e+000	 1.852725929198409e+000	 1.126224015675039e+001
 2.830436266468553e+000	 1.883780445162080e+000	 1.126897595491210e+001
 2.809651071830005e+000	 1.914643255096348e+000	 1.127388259438558e+001
 2.788507479894426e+000	 1.945308146846862e+000	 1.127642891730071e+001
 2.767008261473969e+000	 1.975768954673289e+000	 1.127630188257445e+001
 2.549977154652176e+000	 1.820798935610175e+000	 1.145386816949592e+001
 2.529839182825770e+000	 1.848676828161380e+000	 1.145822567604524e+001
 2.509378967208837e+000	 1.876355419114987e+000	 1.145180076789609e+001
 2.488599441235097e+000	 1.903829172691866e+000	 1.143456541475153e+001
 2.467503664099979e+000	 1.931092610269970e+000	 1.140652909084902e+001
 2.446094819379461e+000	 1.958140313934778e+000	 1.136771954077783e+001
 2.424376213529276e+000	 1.984966929989930e+000	 1.131816261685584e+001
 2.402351274265837e+000	 2.011567172423368e+000	 1.126094433037635e+001
 2.380023548830396e+000	 2.037935826324343e+000	 1.121958732758046e+001
 2.357396702138207e+000	 2.064067751246718e+000	 1.119736345980817e+001
 2.334474514814633e+000	 2.089957884514068e+000	 1.119217295103101e+001
 2.571680265333477e+000	 1.836295937518066e+000	 1.143362627541736e+001
 2.551370897214117e+000	 1.864411101601794e+000	 1.144095060051106e+001
 2.530736542655011e+000	 1.892325267812062e+000	 1.143629830727485e+001
 2.509780160056639e+000	 1.920032853254175e+000	 1.141938009798708e+001
 2.488504834651568e+000	 1.947528332676985e+000	 1.138994377328883e+001
 2.466913777111521e+000	 1.974806242053562e+000	 1.134775436236690e+001
 2.445010322033827e+000	 2.001861182121705e+000	 1.129265397852393e+001
 2.422797926308551e+000	 2.028687821879580e+000	 1.124312204483775e+001
 2.400280167367885e+000	 2.055280902031814e+000	 1.121190583533529e+001
 2.377460741319559e+000	 2.081635238381421e+000	 1.119670063642697e+001
 2.354343460966238e+000	 2.107745725163034e+000	 1.119508146784185e+001
 2.593383376015194e+000	 1.851792939425738e+000	 1.141609783489634e+001
 2.572902611602827e+000	 1.880145375042032e+000	 1.142525724469158e+001
 2.552094118101473e+000	 1.908295116508996e+000	 1.142086966753317e+001
 2.530960878878383e+000	 1.936236533816368e+000	 1.140246250542809e+001
 2.509506005203260e+000	 1.963964055083904e+000	 1.136960244530466e+001
 2.487732734843586e+000	 1.991472170172263e+000	 1.132187477822629e+001
 2.465644430538283e+000	 2.018755434253400e+000	 1.126706206076644e+001
 2.443244578351072e+000	 2.045808471335707e+000	 1.122857427082968e+001
 2.420536785905097e+000	 2.072625977739186e+000	 1.120572440367296e+001
 2.397524780500567e+000	 2.099202725516005e+000	 1.119597778399530e+001
 2.374212407117443e+000	 2.125533565811849e+000	 1.119667216317761e+001
 2.615086486697246e+000	 1.867289941333142e+000	 1.140050963946010e+001
 2.594434325991823e+000	 1.895879648482040e+000	 1.141030353937327e+001
 2.573451693548162e+000	 1.924264965205734e+000	 1.140463512944657e+001
 2.552141597700285e+000	 1.952440214378395e+000	 1.138292499418887e+001
 2.530507175755037e+000	 1.980399777490679e+000	 1.134463776173512e+001
 2.508551692575658e+000	 2.008138098290838e+000	 1.129081830657828e+001
 2.486278539042668e+000	 2.035649686384982e+000	 1.124592084609305e+001
 2.463691230393453e+000	 2.062929120791727e+000	 1.121667028585337e+001
 2.440793404442102e+000	 2.089971053446450e+000	 1.120053095701564e+001
 2.417588819681313e+000	 2.116770212650470e+000	 1.119482305602092e+001
 2.394081353268349e+000	 2.143321406460531e+000	 1.119673300083136e+001
 2.636789597379548e+000	 1.882786943240229e+000	 1.138618320729542e+001
 2.615966040381032e+000	 1.911613921921764e+000	 1.139534176423404e+001
 2.594809268995017e+000	 1.940234813902221e+000	 1.138680771822873e+001
 2.573322316522301e+000	 1.968643894940201e+000	 1.135996990380161e+001
 2.551508346306874e+000	 1.996835499897263e+000	 1.131426851084999e+001
 2.529370650307736e+000	 2.024804026409246e+000	 1.126364245759432e+001
 2.506912647547007e+000	 2.052543938516416e+000	 1.122856215080427e+001
 2.484137882435738e+000	 2.080049770247615e+000	 1.120683245835205e+001
 2.461050022978969e+000	 2.107316129153594e+000	 1.119586124253772e+001
 2.437652858861884e+000	 2.134337699784820e+000	 1.119290650287992e+001
 2.413950299419056e+000	 2.161109247109096e+000	 1.119508731977444e+001
 2.658492708062018e+000	 1.898283945146948e+000	 1.137253201196536e+001
 2.637497754770377e+000	 1.927348195361151e+000	 1.137971564580350e+001
 2.616166844441978e+000	 1.956204662598404e+000	 1.136669021787391e+001
 2.594503035344390e+000	 1.984847575501736e+000	 1.133288653180599e+001
 2.572509516858754e+000	 2.013271222303608e+000	 1.128196596282032e+001
 2.550189608039823e+000	 2.041469954527444e+000	 1.124138217047805e+001
 2.527546756051328e+000	 2.069438190647670e+000	 1.121437273308665e+001
 2.504584534477977e+000	 2.097170419703349e+000	 1.119853375190737e+001
 2.481306641515768e+000	 2.124661204860606e+000	 1.119129657053974e+001
 2.457716898042369e+000	 2.151905186919057e+000	 1.118993807946491e+001
 2.433819245569663e+000	 2.178897087757561e+000	 1.119159213734677e+001
 2.680195818744573e+000	 1.913780947053250e+000	 1.135848901146963e+001
 2.659029469159782e+000	 1.943082468800149e+000	 1.136285753935732e+001
 2.637524419888981e+000	 1.972174511294227e+000	 1.134367227093577e+001
 2.615683754166508e+000	 2.001051256062946e+000	 1.130107446765379e+001
 2.593510687410649e+000	 2.029706944709663e+000	 1.125547180959782e+001
 2.571008565771920e+000	 2.058135882645392e+000	 1.122341770212530e+001
 2.548180864555651e+000	 2.086332442778711e+000	 1.120279166588550e+001
 2.525031186520220e+000	 2.114291069158907e+000	 1.119129529228648e+001
 2.501563260052567e+000	 2.142006280567476e+000	 1.118646160800485e+001
 2.477780937222855e+000	 2.169472674053184e+000	 1.118566569492793e+001
 2.453688191720270e+000	 2.196684928405941e+000	 1.118613648216742e+001
 2.701898929427128e+000	 1.929277948959084e+000	 1.134174066515172e+001
 2.680561183549176e+000	 1.958816742238704e+000	 1.134364154632533e+001
 2.658881995335964e+000	 1.988144359989638e+000	 1.131722755893778e+001
 2.636864472988613e+000	 2.017254936623779e+000	 1.127097347471579e+001
 2.614511857962542e+000	 2.046142667115383e+000	 1.123442530398085e+001
 2.591827523504031e+000	 2.074801810763047e+000	 1.120918235491564e+001
 2.568814973060007e+000	 2.103226694909506e+000	 1.119330777675754e+001
 2.545477838562512e+000	 2.131411718614264e+000	 1.118468399380478e+001
 2.521819878589437e+000	 2.159351356274191e+000	 1.118102222234558e+001
 2.497844976403427e+000	 2.187040161187201e+000	 1.117987330215022e+001
 2.473557137870976e+000	 2.214472769054255e+000	 1.117863975509378e+001
 2.723602040109602e+000	 1.944774950864403e+000	 1.132229507939278e+001
 2.702092897938480e+000	 1.974551015676761e+000	 1.131964636794128e+001
 2.680239570782870e+000	 2.004114208684582e+000	 1.128666041718758e+001
 2.658045191810659e+000	 2.033458617184183e+000	 1.124750222878451e+001
 2.635513028514410e+000	 2.062578389520717e+000	 1.121828128949178e+001
 2.612646481236155e+000	 2.091467738880369e+000	 1.119815983240923e+001
 2.589449081564420e+000	 2.120120947040020e+000	 1.118545715096761e+001
 2.565924490604902e+000	 2.148532368069398e+000	 1.117831024169689e+001
 2.542076497126445e+000	 2.176696431980742e+000	 1.117468337254287e+001
 2.517909015584173e+000	 2.204607648321111e+000	 1.117237902472397e+001
 2.493426084021882e+000	 2.232260609702518e+000	 1.116905011666509e+001
 2.745305150791908e+000	 1.960271952769154e+000	 1.130039697287958e+001
 2.723624612327620e+000	 1.990285289114268e+000	 1.129084967566314e+001
 2.701597146229636e+000	 2.020084057379005e+000	 1.125778746763561e+001
 2.679225910632606e+000	 2.049662297744106e+000	 1.122957713043896e+001
 2.656514199066231e+000	 2.079014111925619e+000	 1.120654477214497e+001
 2.633465438968294e+000	 2.108133666997313e+000	 1.118988166021265e+001
 2.610083190068913e+000	 2.137015199170221e+000	 1.117882069432941e+001
 2.586371142647441e+000	 2.165653017524286e+000	 1.117182562739565e+001
 2.562333115663661e+000	 2.194041507687116e+000	 1.116718704505399e+001
 2.537973054765180e+000	 2.222175135454916e+000	 1.116303331936948e+001
 2.513295030173088e+000	 2.250048450350747e+000	 1.115734289956487e+001
 2.767008261473969e+000	 1.975768954673289e+000	 1.127630188257445e+001
 2.745156326716522e+000	 2.006019562551172e+000	 1.125830682376222e+001
 2.722954721676198e+000	 2.036053906072851e+000	 1.123376679477223e+001
 2.700406629454409e+000	 2.065865978303493e+000	 1.121445666709975e+001
 2.677515369617984e+000	 2.095449834330041e+000	 1.119831383136024e+001
 2.654284396700450e+000	 2.124799595113841e+000	 1.118392466843453e+001
 2.630717298573514e+000	 2.153909451300075e+000	 1.117302175250968e+001
 2.606817794690175e+000	 2.182773666978905e+000	 1.116492073381472e+001
 2.582589734201157e+000	 2.211386583393304e+000	 1.115831023203152e+001
 2.558037093946534e+000	 2.239742622588618e+000	 1.115171717184232e+001
 2.533163976324692e+000	 2.267836290998960e+000	 1.114351904472812e+001
 2.334474514814633e+000	 2.089957884514068e+000	 1.119217295103101e+001
 2.311264384991488e+000	 2.115597417230627e+000	 1.119141395510854e+001
 2.287766902175922e+000	 2.140985357364761e+000	 1.118430667564989e+001
 2.263986181384554e+000	 2.166116898914944e+000	 1.117137382092637e+001
 2.239926444295830e+000	 2.190987326190443e+000	 1.115310221158537e+001
 2.215592016756413e+000	 2.215592016756412e+000	 1.112994937579679e+001
 2.190987326190444e+000	 2.239926444295831e+000	 1.110235044628510e+001
 2.166116898914944e+000	 2.263986181384554e+000	 1.107072527497554e+001
 2.140985357364762e+000	 2.287766902175922e+000	 1.103548567898166e+001
 2.115597417230626e+000	 2.311264384991489e+000	 1.099704273046990e+001
 2.089957884514069e+000	 2.334474514814633e+000	 1.095581400257156e+001
 2.354343460966238e+000	 2.107745725163034e+000	 1.119508146784185e+001
 2.330935787405982e+000	 2.133603478507495e+000	 1.119462198643569e+001
 2.307238315163295e+000	 2.159207497939899e+000	 1.118534600151209e+001
 2.283255194278109e+000	 2.184552936554364e+000	 1.116839390164573e+001
 2.258990682359991e+000	 2.209635038524449e+000	 1.114487933476292e+001
 2.234449142073308e+000	 2.234449142073308e+000	 1.111589514073226e+001
 2.209635038524449e+000	 2.258990682359990e+000	 1.108251958535169e+001
 2.184552936554364e+000	 2.283255194278110e+000	 1.104582280864510e+001
 2.159207497939899e+000	 2.307238315163295e+000	 1.100687339830157e+001
 2.133603478507495e+000	 2.330935787405982e+000	 1.096674499786304e+001
 2.107745725163034e+000	 2.354343460966238e+000	 1.092652285890109e+001
 2.374212407117443e+000	 2.125533565811849e+000	 1.119667216317760e+001
 2.350607189820049e+000	 2.151609539784174e+000	 1.119573749785988e+001
 2.326709728150233e+000	 2.177429638514804e+000	 1.118405503535779e+001
 2.302524207171238e+000	 2.202988974193504e+000	 1.116328003703843e+001
 2.278054920423748e+000	 2.228282750858128e+000	 1.113504825236112e+001
 2.253306267389836e+000	 2.253306267389836e+000	 1.110098140154062e+001
 2.228282750858128e+000	 2.278054920423748e+000	 1.106269296311917e+001
 2.202988974193504e+000	 2.302524207171238e+000	 1.102179417588751e+001
 2.177429638514803e+000	 2.326709728150233e+000	 1.097990016242813e+001
 2.151609539784174e+000	 2.350607189820048e+000	 1.093863608027698e+001
 2.125533565811849e+000	 2.374212407117443e+000	 1.089964320633034e+001
 2.394081353268349e+000	 2.143321406460531e+000	 1.119673300083136e+001
 2.370278592233794e+000	 2.169615601060698e+000	 1.119469996569791e+001
 2.346181141136843e+000	 2.195651779089522e+000	 1.118049176356636e+001
 2.321793220064046e+000	 2.221425011832426e+000	 1.115617839709586e+001
 2.297119158487202e+000	 2.246930463191558e+000	 1.112381569016650e+001
 2.272163392706085e+000	 2.272163392706085e+000	 1.108545053183636e+001
 2.246930463191558e+000	 2.297119158487202e+000	 1.104312643272352e+001
 2.221425011832426e+000	 2.321793220064046e+000	 1.099888929912091e+001
 2.195651779089522e+000	 2.346181141136843e+000	 1.095479332788209e+001
 2.169615601060697e+000	 2.370278592233793e+000	 1.091290692378257e+001
 2.143321406460531e+000	 2.394081353268349e+000	 1.087531854068122e+001
 2.413950299419056e+000	 2.161109247109096e+000	 1.119508731977444e+001
 2.389949994647324e+000	 2.187621662337096e+000	 1.119147803728207e+001
 2.365652554123235e+000	 2.213873919664102e+000	 1.117473826469884e+001
 2.341062232956640e+000	 2.239861049471193e+000	 1.114725519643543e+001
 2.316183396550450e+000	 2.265578175524814e+000	 1.111140530702338e+001
 2.291020518022143e+000	 2.291020518022143e+000	 1.106955956631216e+001
 2.265578175524814e+000	 2.316183396550451e+000	 1.102408897861570e+001
 2.239861049471193e+000	 2.341062232956640e+000	 1.097737034631951e+001
 2.213873919664102e+000	 2.365652554123235e+000	 1.093179215607161e+001
 2.187621662337096e+000	 2.389949994647325e+000	 1.088976048428311e+001
 2.161109247109096e+000	 2.413950299419056e+000	 1.085370481826517e+001
 2.433819245569663e+000	 2.178897087757561e+000	 1.119159213734677e+001
 2.409621397060749e+000	 2.205627723613400e+000	 1.118606812035179e+001
 2.385123967109518e+000	 2.232096060238592e+000	 1.116689954243909e+001
 2.360331245849126e+000	 2.258297087109868e+000	 1.113669573161874e+001
 2.335247634613596e+000	 2.284225887857976e+000	 1.109805690087311e+001
 2.309877643338102e+000	 2.309877643338101e+000	 1.105357954339184e+001
 2.284225887857977e+000	 2.335247634613597e+000	 1.100586216729818e+001
 2.258297087109868e+000	 2.360331245849125e+000	 1.095751126490771e+001
 2.232096060238591e+000	 2.385123967109518e+000	 1.091114740904599e+001
 2.205627723613399e+000	 2.409621397060749e+000	 1.086941136747602e+001
 2.178897087757560e+000	 2.433819245569663e+000	 1.083497012606525e+001
 2.453688191720270e+000	 2.196684928405941e+000	 1.118613648216742e+001
 2.429292799474172e+000	 2.223633784889643e+000	 1.117849299032438e+001
 2.404595380095800e+000	 2.250318200813038e+000	 1.115710236671900e+001
 2.379600258741609e+000	 2.276733124748515e+000	 1.112470341892974e+001
 2.354311872676735e+000	 2.302873600191120e+000	 1.108402560932109e+001
 2.328734768654050e+000	 2.328734768654050e+000	 1.103779483809177e+001
 2.302873600191121e+000	 2.354311872676736e+000	 1.098873958538255e+001
 2.276733124748514e+000	 2.379600258741609e+000	 1.093959730133804e+001
 2.250318200813038e+000	 2.404595380095800e+000	 1.089312093036104e+001
 2.223633784889643e+000	 2.429292799474172e+000	 1.085208545423546e+001
 2.196684928405941e+000	 2.453688191720269e+000	 1.081929433834371e+001
 2.473557137870976e+000	 2.214472769054255e+000	 1.117863975509378e+001
 2.448964201887703e+000	 2.241639846165858e+000	 1.116880041444010e+001
 2.424066793082190e+000	 2.268540341387490e+000	 1.114549412256824e+001
 2.398869271634196e+000	 2.295169162387196e+000	 1.111149883258684e+001
 2.373376110739969e+000	 2.321521312524323e+000	 1.106958110503942e+001
 2.347591893970077e+000	 2.347591893970077e+000	 1.102250248564114e+001
 2.321521312524323e+000	 2.373376110739969e+000	 1.097302626568127e+001
 2.295169162387196e+000	 2.398869271634196e+000	 1.092392450715733e+001
 2.268540341387491e+000	 2.424066793082190e+000	 1.087798521189299e+001
 2.241639846165858e+000	 2.448964201887703e+000	 1.083801951223507e+001
 2.214472769054255e+000	 2.473557137870976e+000	 1.080686876043842e+001
 2.493426084021882e+000	 2.232260609702518e+000	 1.116905011666509e+001
 2.468635604301448e+000	 2.259645907442076e+000	 1.115706179183955e+001
 2.443538206068797e+000	 2.286762481961994e+000	 1.113224166625718e+001
 2.418138284526992e+000	 2.313605200025974e+000	 1.109731874336447e+001
 2.392440348803396e+000	 2.340169024857662e+000	 1.105500678629269e+001
 2.366449019286273e+000	 2.366449019286272e+000	 1.100801149637699e+001
 2.340169024857661e+000	 2.392440348803396e+000	 1.095903810200129e+001
 2.313605200025974e+000	 2.418138284526992e+000	 1.091079923231509e+001
 2.286762481961994e+000	 2.443538206068797e+000	 1.086602294738479e+001
 2.259645907442075e+000	 2.468635604301448e+000	 1.082746079457939e+001
 2.232260609702518e+000	 2.493426084021882e+000	 1.079789576046304e+001
 2.513295030173088e+000	 2.250048450350747e+000	 1.115734289956487e+001
 2.488307006715512e+000	 2.277651968718327e+000	 1.114337080869227e+001
 2.463009619055729e+000	 2.304984622536598e+000	 1.111753018832963e+001
 2.437407297420105e+000	 2.332041237664912e+000	 1.108241515760207e+001
 2.411504586867115e+000	 2.358816737191213e+000	 1.104059896285694e+001
 2.385306144602727e+000	 2.385306144602727e+000	 1.099464216239618e+001
 2.358816737191213e+000	 2.411504586867115e+000	 1.094710125326412e+001
 2.332041237664912e+000	 2.437407297420106e+000	 1.090053760642033e+001
 2.304984622536598e+000	 2.463009619055729e+000	 1.085752657345954e+001
 2.277651968718327e+000	 2.488307006715513e+000	 1.082066662616173e+001
 2.250048450350747e+000	 2.513295030173087e+000	 1.079258838957979e+001
 2.533163976324692e+000	 2.267836290998960e+000	 1.114351904472812e+001
 2.507978409130006e+000	 2.295658029994647e+000	 1.112784210754980e+001
 2.482481032043097e+000	 2.323206763111350e+000	 1.110156208314729e+001
 2.456676310313640e+000	 2.350477275304074e+000	 1.106705435657877e+001
 2.430568824931228e+000	 2.377464449525057e+000	 1.102666603758531e+001
 2.404163269919529e+000	 2.404163269919529e+000	 1.098272535641773e+001
 2.377464449525057e+000	 2.430568824931227e+000	 1.093755153753885e+001
 2.350477275304074e+000	 2.456676310313640e+000	 1.089346500860756e+001
 2.323206763111350e+000	 2.482481032043097e+000	 1.085279779878839e+001
 2.295658029994646e+000	 2.507978409130006e+000	 1.081790397842325e+001
 2.267836290998959e+000	 2.533163976324692e+000	 1.079116999147282e+001
 2.089957884514069e+000	 2.334474514814633e+000	 1.095581400257156e+001
 2.064067751246718e+000	 2.357396702138207e+000	 1.091132342619840e+001
 2.037935826324343e+000	 2.380023548830395e+000	 1.086069079908281e+001
 2.011567172423368e+000	 2.402351274265837e+000	 1.080073181343473e+001
 1.984966929989930e+000	 2.424376213529276e+000	 1.073183936880860e+001
 1.958140313934778e+000	 2.446094819379461e+000	 1.066849868596916e+001
 1.931092610269970e+000	 2.467503664099979e+000	 1.061201436279223e+001
 1.903829172691866e+000	 2.488599441235097e+000	 1.056160576573556e+001
 1.876355419114987e+000	 2.509378967208838e+000	 1.051641062553123e+001
 1.848676828161380e+000	 2.529839182825770e+000	 1.047544624503074e+001
 1.820798935610176e+000	 2.549977154652176e+000	 1.043757235587391e+001
 2.107745725163034e+000	 2.354343460966238e+000	 1.092652285890109e+001
 2.081635238381421e+000	 2.377460741319560e+000	 1.088602988962976e+001
 2.055280902031814e+000	 2.400280167367884e+000	 1.084204923080782e+001
 2.028687821879580e+000	 2.422797926308551e+000	 1.079111435246694e+001
 2.001861182121705e+000	 2.445010322033828e+000	 1.072978674268839e+001
 1.974806242053562e+000	 2.466913777111521e+000	 1.066486505635136e+001
 1.947528332676985e+000	 2.488504834651568e+000	 1.060773548661697e+001
 1.920032853254174e+000	 2.509780160056640e+000	 1.055742093558315e+001
 1.892325267812062e+000	 2.530736542655012e+000	 1.051280083019844e+001
 1.864411101601794e+000	 2.551370897214117e+000	 1.047262448978661e+001
 1.836295937518066e+000	 2.571680265333477e+000	 1.043547200701220e+001
 2.125533565811849e+000	 2.374212407117443e+000	 1.089964320633034e+001
 2.099202725516006e+000	 2.397524780500568e+000	 1.086290512709651e+001
 2.072625977739186e+000	 2.420536785905096e+000	 1.082486225147071e+001
 2.045808471335707e+000	 2.443244578351072e+000	 1.078185281842110e+001
 2.018755434253400e+000	 2.465644430538283e+000	 1.073024329333900e+001
 1.991472170172263e+000	 2.487732734843587e+000	 1.066760558741109e+001
 1.963964055083904e+000	 2.509506005203261e+000	 1.060819593356908e+001
 1.936236533816368e+000	 2.530960878878383e+000	 1.055631491158852e+001
 1.908295116508996e+000	 2.552094118101472e+000	 1.051067913664321e+001
 1.880145375042031e+000	 2.572902611602827e+000	 1.046986476467439e+001
 1.851792939425738e+000	 2.593383376015194e+000	 1.043226610915786e+001
 2.143321406460531e+000	 2.394081353268349e+000	 1.087531854068122e+001
 2.116770212650470e+000	 2.417588819681313e+000	 1.084204800075170e+001
 2.089971053446451e+000	 2.440793404442101e+000	 1.080919749310153e+001
 2.062929120791727e+000	 2.463691230393453e+000	 1.077299490164478e+001
 2.035649686384982e+000	 2.486278539042668e+000	 1.072969725919530e+001
 2.008138098290838e+000	 2.508551692575658e+000	 1.067560495968971e+001
 1.980399777490679e+000	 2.530507175755036e+000	 1.061334348670058e+001
 1.952440214378395e+000	 2.552141597700285e+000	 1.055824766488336e+001
 1.924264965205734e+000	 2.573451693548162e+000	 1.051002095194044e+001
 1.895879648482040e+000	 2.594434325991823e+000	 1.046715982752988e+001
 1.867289941333142e+000	 2.615086486697246e+000	 1.042796534213841e+001
 2.161109247109096e+000	 2.413950299419056e+000	 1.085370481826517e+001
 2.134337699784820e+000	 2.437652858861884e+000	 1.082357016580670e+001
 2.107316129153595e+000	 2.461050022978969e+000	 1.079513523966705e+001
 2.080049770247615e+000	 2.484137882435739e+000	 1.076460039235135e+001
 2.052543938516416e+000	 2.506912647547007e+000	 1.072819676231093e+001
 2.024804026409246e+000	 2.529370650307736e+000	 1.068220116220848e+001
 1.996835499897263e+000	 2.551508346306874e+000	 1.062311288710355e+001
 1.968643894940202e+000	 2.573322316522302e+000	 1.056315879186581e+001
 1.940234813902220e+000	 2.594809268995017e+000	 1.051077385893677e+001
 1.911613921921764e+000	 2.615966040381032e+000	 1.046446714565665e+001
 1.882786943240229e+000	 2.636789597379548e+000	 1.042253771175373e+001
 2.178897087757560e+000	 2.433819245569663e+000	 1.083497012606525e+001
 2.151905186919057e+000	 2.457716898042369e+000	 1.080759577547229e+001
 2.124661204860606e+000	 2.481306641515767e+000	 1.078276818540854e+001
 2.097170419703349e+000	 2.504584534477977e+000	 1.075674100802955e+001
 2.069438190647671e+000	 2.527546756051328e+000	 1.072580103390936e+001
 2.041469954527445e+000	 2.550189608039823e+000	 1.068628364255177e+001
 2.013271222303608e+000	 2.572509516858754e+000	 1.063458752361093e+001
 1.984847575501735e+000	 2.594503035344390e+000	 1.057097495254241e+001
 1.956204662598403e+000	 2.616166844441977e+000	 1.051286491794436e+001
 1.927348195361151e+000	 2.637497754770376e+000	 1.046171605580559e+001
 1.898283945146948e+000	 2.658492708062018e+000	 1.041591556067529e+001
 2.196684928405941e+000	 2.453688191720269e+000	 1.081929433834371e+001
 2.169472674053184e+000	 2.477780937222855e+000	 1.079426117311834e+001
 2.142006280567476e+000	 2.501563260052567e+000	 1.077220118028704e+001
 2.114291069158906e+000	 2.525031186520220e+000	 1.074950020708132e+001
 2.086332442778711e+000	 2.548180864555652e+000	 1.072258030828754e+001
 2.058135882645392e+000	 2.571008565771921e+000	 1.068791564858153e+001
 2.029706944709663e+000	 2.593510687410649e+000	 1.064204763460017e+001
 2.001051256062946e+000	 2.615683754166508e+000	 1.058159916358540e+001
 1.972174511294227e+000	 2.637524419888981e+000	 1.051620794354821e+001
 1.943082468800149e+000	 2.659029469159783e+000	 1.045881489666149e+001
 1.913780947053250e+000	 2.680195818744573e+000	 1.040879260652522e+001
 2.214472769054255e+000	 2.473557137870976e+000	 1.080686876043842e+001
 2.187040161187200e+000	 2.497844976403427e+000	 1.078371457237104e+001
 2.159351356274192e+000	 2.521819878589436e+000	 1.076355096326124e+001
 2.131411718614264e+000	 2.545477838562512e+000	 1.074297298946230e+001
 2.103226694909506e+000	 2.568814973060009e+000	 1.071861570229680e+001
 2.074801810763048e+000	 2.591827523504031e+000	 1.068717039514598e+001
 2.046142667115383e+000	 2.614511857962541e+000	 1.064540003733901e+001
 2.017254936623779e+000	 2.636864472988613e+000	 1.059015377626317e+001
 1.988144359989638e+000	 2.658881995335965e+000	 1.052071075792546e+001
 1.958816742238703e+000	 2.680561183549176e+000	 1.045655158292563e+001
 1.929277948959085e+000	 2.701898929427129e+000	 1.040394122844000e+001
 2.232260609702518e+000	 2.493426084021882e+000	 1.079789576046304e+001
 2.204607648321111e+000	 2.517909015584173e+000	 1.077611572582060e+001
 2.176696431980743e+000	 2.542076497126444e+000	 1.075694588407627e+001
 2.148532368069398e+000	 2.565924490604902e+000	 1.073726568504956e+001
 2.120120947040020e+000	 2.589449081564420e+000	 1.071399908120511e+001
 2.091467738880369e+000	 2.612646481236154e+000	 1.068413101576684e+001
 2.062578389520717e+000	 2.635513028514410e+000	 1.064472305266569e+001
 2.033458617184183e+000	 2.658045191810659e+000	 1.059292802433980e+001
 2.004114208684582e+000	 2.680239570782871e+000	 1.052691157942280e+001
 1.974551015676761e+000	 2.702092897938480e+000	 1.045786320193862e+001
 1.944774950864403e+000	 2.723602040109602e+000	 1.040130176751570e+001
 2.250048450350747e+000	 2.513295030173087e+000	 1.079258838957979e+001
 2.222175135454916e+000	 2.537973054765179e+000	 1.077163558296939e+001
 2.194041507687117e+000	 2.562333115663662e+000	 1.075252561419959e+001
 2.165653017524286e+000	 2.586371142647441e+000	 1.073249573041606e+001
 2.137015199170221e+000	 2.610083190068913e+000	 1.070883291169469e+001
 2.108133666997313e+000	 2.633465438968294e+000	 1.067889049977475e+001
 2.079014111925619e+000	 2.656514199066230e+000	 1.064010392156627e+001
 2.049662297744106e+000	 2.679225910632606e+000	 1.059082439792424e+001
 2.020084057379004e+000	 2.701597146229636e+000	 1.053218251395902e+001
 1.990285289114268e+000	 2.723624612327620e+000	 1.046272688544491e+001
 1.960271952769154e+000	 2.745305150791909e+000	 1.040055999983999e+001
 2.267836290998959e+000	 2.533163976324692e+000	 1.079116999147282e+001
 2.239742622588619e+000	 2.558037093946534e+000	 1.077045593801171e+001
 2.211386583393305e+000	 2.582589734201157e+000	 1.075044084749962e+001
 2.182773666978905e+000	 2.606817794690176e+000	 1.072879143464854e+001
 2.153909451300075e+000	 2.630717298573514e+000	 1.070323010270095e+001
 2.124799595113840e+000	 2.654284396700450e+000	 1.067155161569135e+001
 2.095449834330041e+000	 2.677515369617983e+000	 1.063227597745737e+001
 2.065865978303493e+000	 2.700406629454409e+000	 1.058732807758138e+001
 2.036053906072851e+000	 2.722954721676199e+000	 1.053440696278799e+001
 2.006019562551172e+000	 2.745156326716522e+000	 1.047028436081828e+001
 1.975768954673289e+000	 2.767008261473968e+000	 1.040144237595590e+001
 1.820798935610176e+000	 2.549977154652176e+000	 1.043757235587391e+001
 1.792727330205413e+000	 2.569790075552224e+000	 1.039326026588787e+001
 1.764467648259313e+000	 2.589275263636230e+000	 1.033610714428831e+001
 1.736025571900472e+000	 2.608430165421335e+000	 1.026933292685280e+001
 1.707406826031018e+000	 2.627252357450538e+000	 1.019587667828310e+001
 1.678617174651289e+000	 2.645739547069144e+000	 1.011836337924319e+001
 1.649662417173072e+000	 2.663889573078078e+000	 1.003907418371455e+001
 1.620548384726113e+000	 2.681700406264190e+000	 9.960808494753271e+000
 1.591280936462618e+000	 2.699170149807902e+000	 9.886657301461472e+000
 1.561865955864427e+000	 2.716297039568712e+000	 9.817968691638805e+000
 1.532309347057451e+000	 2.733079444249318e+000	 9.755983328799214e+000
 1.836295937518066e+000	 2.571680265333477e+000	 1.043547200701220e+001
 1.807985411871278e+000	 2.591661815985435e+000	 1.039184334409253e+001
 1.779485208944865e+000	 2.611312844454483e+000	 1.033552087706197e+001
 1.750801059228598e+000	 2.630630775524840e+000	 1.026965796476923e+001
 1.721938736349818e+000	 2.649613165113236e+000	 1.019710963411569e+001
 1.692904053366853e+000	 2.668257701051977e+000	 1.012040648868311e+001
 1.663702859050867e+000	 2.686562203747828e+000	 1.004309014745931e+001
 1.634341034160935e+000	 2.704524626716821e+000	 9.967757014606658e+000
 1.604824487717100e+000	 2.722143056995375e+000	 9.895760112838982e+000
 1.575159153276105e+000	 2.739415715428226e+000	 9.828362261975915e+000
 1.545350985214473e+000	 2.756340956833962e+000	 9.766754481347752e+000
 1.851792939425738e+000	 2.593383376015194e+000	 1.043226610915786e+001
 1.823243493536874e+000	 2.613533556419093e+000	 1.038850950347758e+001
 1.794502769630099e+000	 2.633350425273200e+000	 1.033257965269695e+001
 1.765576546556352e+000	 2.652831385628806e+000	 1.026753422113202e+001
 1.736470646668198e+000	 2.671973972776374e+000	 1.019621384851523e+001
 1.707190932081953e+000	 2.690775855035223e+000	 1.012266856797134e+001
 1.677743300928162e+000	 2.709234834417954e+000	 1.004913847388102e+001
 1.648133683595235e+000	 2.727348847169784e+000	 9.976990103476396e+000
 1.618368038971053e+000	 2.745115964183133e+000	 9.907482805197081e+000
 1.588452350687268e+000	 2.762534391287983e+000	 9.841789298230122e+000
 1.558392623371014e+000	 2.779602469418803e+000	 9.781015175965390e+000
 1.867289941333142e+000	 2.615086486697246e+000	 1.042796534213841e+001
 1.838501575202161e+000	 2.635405296853118e+000	 1.038328310567905e+001
 1.809520330314980e+000	 2.655388006092302e+000	 1.032731441811850e+001
 1.780352033883710e+000	 2.675031995733159e+000	 1.026324738853958e+001
 1.751002556986143e+000	 2.694334780439896e+000	 1.019548210710885e+001
 1.721477810796585e+000	 2.713294009018838e+000	 1.012604169304653e+001
 1.691783742804964e+000	 2.731907465088427e+000	 1.005628859603691e+001
 1.661926333029029e+000	 2.750173067623071e+000	 9.987457675892905e+000
 1.631911590224498e+000	 2.768088871371186e+000	 9.920679075280509e+000
 1.601745548097935e+000	 2.785653067148001e+000	 9.857000099419366e+000
 1.571434261527091e+000	 2.802863982003876e+000	 9.797405938928815e+000
 1.882786943240229e+000	 2.636789597379548e+000	 1.042253771175373e+001
 1.853759656867096e+000	 2.657277037287426e+000	 1.037613875042866e+001
 1.824537890999473e+000	 2.677425586911706e+000	 1.032013797392057e+001
 1.795127521210649e+000	 2.697232605837831e+000	 1.025922794254004e+001
 1.765534467303639e+000	 2.716695588103744e+000	 1.019530429376971e+001
 1.735764689510745e+000	 2.735812163002779e+000	 1.012971365984168e+001
 1.705824184681278e+000	 2.754580095759224e+000	 1.006365081550082e+001
 1.675718982462327e+000	 2.772997288076670e+000	 9.998183994655525e+000
 1.645455141477451e+000	 2.791061778559538e+000	 9.934279306496562e+000
 1.615038745508127e+000	 2.808771743008305e+000	 9.872824061018347e+000
 1.584475899682721e+000	 2.826125494589216e+000	 9.814648830996267e+000
 1.898283945146948e+000	 2.658492708062018e+000	 1.041591556067529e+001
 1.869017738531634e+000	 2.679148777721928e+000	 1.036763533812356e+001
 1.839555451683543e+000	 2.699463167731334e+000	 1.031358510783596e+001
 1.809903008537143e+000	 2.719433215942749e+000	 1.025559860054466e+001
 1.780066377620673e+000	 2.739056395767860e+000	 1.019500157011074e+001
 1.750051568224430e+000	 2.758330316987007e+000	 1.013293934744271e+001
 1.719864626557111e+000	 2.777252726430318e+000	 1.007040470130714e+001
 1.689511631895144e+000	 2.795821508530576e+000	 1.000826492380989e+001
 1.658998692729931e+000	 2.814034685748200e+000	 9.947287922880667e+000
 1.628331942917861e+000	 2.831890418868914e+000	 9.888167120987703e+000
 1.597517537837919e+000	 2.849387007174854e+000	 9.831544977489420e+000
 1.913780947053250e+000	 2.680195818744573e+000	 1.040879260652522e+001
 1.884275820195732e+000	 2.701020518156543e+000	 1.036041542990599e+001
 1.854573012367156e+000	 2.721500748551103e+000	 1.030764787787831e+001
 1.824678495863168e+000	 2.741633826047844e+000	 1.025179722248481e+001
 1.794598287937230e+000	 2.761417203432182e+000	 1.019395704529096e+001
 1.764338446937635e+000	 2.780848470971473e+000	 1.013503770681169e+001
 1.733905068432467e+000	 2.799925357101683e+000	 1.007579620168183e+001
 1.703304281327492e+000	 2.818645728984777e+000	 1.001686515316839e+001
 1.672542243981954e+000	 2.837007592937177e+000	 9.958780717013834e+000
 1.641625140327156e+000	 2.855009094729854e+000	 9.902009182536203e+000
 1.610559175992701e+000	 2.872648519760826e+000	 9.846972078200436e+000
 1.929277948959085e+000	 2.701898929427129e+000	 1.040394122844000e+001
 1.899533901859347e+000	 2.722892258591184e+000	 1.035442063230823e+001
 1.869590573050279e+000	 2.743538329370937e+000	 1.030186389296922e+001
 1.839453983188698e+000	 2.763834436153043e+000	 1.024731839627777e+001
 1.809130198253296e+000	 2.783778011096656e+000	 1.019161259969105e+001
 1.778625325650358e+000	 2.803366624956139e+000	 1.013538871938391e+001
 1.747945510307352e+000	 2.822597987773292e+000	 1.007913472705004e+001
 1.717096930759385e+000	 2.841469949439266e+000	 1.002321539597337e+001
 1.686085795233540e+000	 2.859980500126478e+000	 9.967902153356924e+000
 1.654918337736034e+000	 2.878127770591143e+000	 9.913401514924143e+000
 1.623600814147085e+000	 2.895910032347164e+000	 9.859881898258564e+000
 1.944774950864403e+000	 2.723602040109602e+000	 1.040130176751570e+001
 1.914791983522436e+000	 2.744763999025769e+000	 1.034927120137848e+001
 1.884608133732874e+000	 2.765575910190751e+000	 1.029582219687179e+001
 1.854229470513710e+000	 2.786035046258275e+000	 1.024171008575765e+001
 1.823662108568856e+000	 2.806138818761223e+000	 1.018746567930991e+001
 1.792912204362594e+000	 2.825884778940959e+000	 1.013343032721942e+001
 1.761985952181773e+000	 2.845270618445119e+000	 1.007979020592241e+001
 1.730889580190835e+000	 2.864294169894032e+000	 1.002660956120185e+001
 1.699629346484705e+000	 2.882953407316110e+000	 9.973862648372908e+000
 1.668211535144512e+000	 2.901246446452806e+000	 9.921464133532417e+000
 1.636642452301086e+000	 2.919171544933902e+000	 9.869297741018576e+000
 1.960271952769154e+000	 2.745305150791909e+000	 1.040055999983999e+001
 1.930050065184955e+000	 2.766635739460210e+000	 1.034463347265931e+001
 1.899625694414909e+000	 2.787613491010468e+000	 1.028915973062618e+001
 1.869004957838178e+000	 2.808235656363468e+000	 1.023457025067426e+001
 1.838194018883899e+000	 2.828499626425822e+000	 1.018106606250218e+001
 1.807199083074341e+000	 2.848402932925892e+000	 1.012865533628287e+001
 1.776026394055733e+000	 2.867943249117138e+000	 1.007719011516092e+001
 1.744682229621855e+000	 2.887118390349068e+000	 1.002640190191408e+001
 1.713172897735468e+000	 2.905926314506080e+000	 9.975935828721557e+000
 1.681504732552608e+000	 2.924365122314863e+000	 9.925383160345211e+000
 1.649684090454720e+000	 2.942433057521074e+000	 9.874311903965422e+000
 1.975768954673289e+000	 2.767008261473968e+000	 1.040144237595590e+001
 1.945308146846862e+000	 2.788507479894426e+000	 1.034021612934927e+001
 1.914643255096348e+000	 2.809651071830004e+000	 1.028155776886028e+001
 1.883780445162079e+000	 2.830436266468553e+000	 1.022554344029280e+001
 1.852725929198409e+000	 2.850860434090399e+000	 1.017201260057541e+001
 1.821485961785593e+000	 2.870921086910894e+000	 1.012060829432711e+001
 1.790066835929240e+000	 2.890615879789326e+000	 1.007081648603126e+001
 1.758474879052460e+000	 2.909942610804365e+000	 1.002200414096222e+001
 1.726716448985847e+000	 2.928899221696398e+000	 9.973455768730325e+000
 1.694797929960344e+000	 2.947483798177338e+000	 9.924408165921445e+000
 1.662725728608005e+000	 2.965694570108715e+000	 9.874083118567931e+000
 1.532309347057451e+000	 2.733079444249318e+000	 9.755983328799212e+000
 1.502621494919892e+000	 2.749513426483720e+000	 9.704749424124417e+000
 1.472803909760124e+000	 2.765600166241469e+000	 9.662752477547480e+000
 1.442862534573746e+000	 2.781338433307961e+000	 9.622919243041419e+000
 1.412803318353237e+000	 2.796727129707190e+000	 9.578264753857006e+000
 1.382632212507476e+000	 2.811765289274062e+000	 9.521916060885751e+000
 1.352355167314767e+000	 2.826452077113804e+000	 9.447134217040610e+000
 1.321978128413372e+000	 2.840786788950489e+000	 9.350814611505824e+000
 1.291507033333439e+000	 2.854768850366804e+000	 9.264479722949535e+000
 1.260947808074111e+000	 2.868397815937405e+000	 9.195333197945045e+000
 1.230306363729441e+000	 2.881673368258283e+000	 9.141610741585549e+000
 1.545350985214473e+000	 2.756340956833962e+000	 9.766754481347753e+000
 1.515410456797143e+000	 2.772914810335272e+000	 9.715325387973202e+000
 1.485339091186876e+000	 2.789138465944542e+000	 9.673217060267563e+000
 1.455142881960698e+000	 2.805010682976676e+000	 9.633784537238523e+000
 1.424827828743552e+000	 2.820530354110669e+000	 9.590470846294954e+000
 1.394399933597354e+000	 2.835696504958287e+000	 9.536830617124299e+000
 1.363865197443819e+000	 2.850508293518875e+000	 9.466551847561531e+000
 1.333229616525126e+000	 2.864965009522324e+000	 9.373475904163241e+000
 1.302499178906338e+000	 2.879066073662390e+000	 9.277552443375582e+000
 1.271679861023363e+000	 2.892811036722655e+000	 9.201318045413151e+000
 1.240777624280165e+000	 2.906199578597639e+000	 9.143476509278518e+000
 1.558392623371014e+000	 2.779602469418803e+000	 9.781015175965390e+000
 1.528199418673973e+000	 2.796316194186986e+000	 9.729825674938038e+000
 1.497874272613285e+000	 2.812676765647745e+000	 9.687978954813520e+000
 1.467423229347397e+000	 2.828682932645490e+000	 9.649257748642974e+000
 1.436852339133718e+000	 2.844333578514223e+000	 9.607532732928636e+000
 1.406167654687189e+000	 2.859627720642560e+000	 9.556786038827784e+000
 1.375375227572934e+000	 2.874564509923965e+000	 9.491132815671078e+000
 1.344481104637046e+000	 2.889143230094151e+000	 9.404840796912991e+000
 1.313491324479492e+000	 2.903363296957934e+000	 9.302902683468918e+000
 1.282411913972944e+000	 2.917224257507826e+000	 9.219569965379181e+000
 1.251248884831276e+000	 2.930725788936877e+000	 9.157303178265016e+000
 1.571434261527091e+000	 2.802863982003876e+000	 9.797405938928817e+000
 1.540988380550389e+000	 2.819717578038901e+000	 9.746774576305445e+000
 1.510409454039345e+000	 2.836215065351122e+000	 9.705439103397900e+000
 1.479703576733828e+000	 2.852355182314455e+000	 9.667609415989821e+000
 1.448876849523699e+000	 2.868136802917896e+000	 9.627583593405070e+000
 1.417935375776931e+000	 2.883558936326929e+000	 9.579771329779161e+000
 1.386885257702045e+000	 2.898620726329122e+000	 9.518715312062460e+000
 1.355732592749046e+000	 2.913321450666013e+000	 9.439110494860088e+000
 1.324483470052802e+000	 2.927660520253484e+000	 9.337871847544601e+000
 1.293143966922747e+000	 2.941637478292966e+000	 9.247474724471378e+000
 1.261720145382654e+000	 2.955251999276043e+000	 9.180529175736037e+000
 1.584475899682721e+000	 2.826125494589216e+000	 9.814648830996264e+000
 1.553777342426400e+000	 2.843118961891062e+000	 9.764780372453663e+000
 1.522944635465056e+000	 2.859753365054722e+000	 9.724084917134162e+000
 1.491983924119970e+000	 2.876027431983614e+000	 9.687199039424531e+000
 1.460901359913464e+000	 2.891940027321741e+000	 9.648848062444916e+000
 1.429703096866527e+000	 2.907490152011438e+000	 9.603869433104599e+000
 1.398395287831081e+000	 2.922676942734390e+000	 9.547233932136932e+000
 1.366984080861041e+000	 2.937499671237958e+000	 9.474064669161205e+000
 1.335475615626169e+000	 2.951957743549081e+000	 9.379653833805028e+000
 1.303876019872661e+000	 2.966050699078124e+000	 9.282375724911532e+000
 1.272191405934185e+000	 2.979778209615192e+000	 9.210534757880840e+000
 1.597517537837919e+000	 2.849387007174854e+000	 9.831544977489418e+000
 1.566566304302014e+000	 2.866520345743511e+000	 9.782532938628087e+000
 1.535479816890413e+000	 2.883291664758588e+000	 9.742487948080592e+000
 1.504264271505810e+000	 2.899699681653019e+000	 9.706472809215594e+000
 1.472925870302978e+000	 2.915743251725803e+000	 9.669640005473113e+000
 1.441470817955927e+000	 2.931421367696138e+000	 9.627255043940345e+000
 1.409905317959977e+000	 2.946733159139817e+000	 9.574717515717671e+000
 1.378235568972946e+000	 2.961677891810029e+000	 9.507579823016352e+000
 1.346467761199496e+000	 2.976254966844774e+000	 9.421563545021497e+000
 1.314608072822576e+000	 2.990463919863343e+000	 9.321590804057998e+000
 1.282662666485751e+000	 3.004304419954371e+000	 9.244657745379362e+000
 1.610559175992701e+000	 2.872648519760826e+000	 9.846972078200434e+000
 1.579355266177241e+000	 2.889921729596284e+000	 9.798801333946381e+000
 1.548014998315415e+000	 2.906829964462771e+000	 9.759301548269201e+000
 1.516544618891328e+000	 2.923371931322718e+000	 9.723961325554143e+000
 1.484950380692207e+000	 2.939546476130134e+000	 9.688360289776806e+000
 1.453238539045079e+000	 2.955352583381074e+000	 9.648192422401625e+000
 1.421415348088662e+000	 2.970789375545450e+000	 9.599286992168747e+000
 1.389487057084678e+000	 2.985856112382272e+000	 9.537627026555912e+000
 1.357459906772683e+000	 3.000552190140606e+000	 9.459365297950885e+000
 1.325340125772382e+000	 3.014877140648669e+000	 9.362429056570710e+000
 1.293133927037235e+000	 3.028830630293632e+000	 9.280209287863945e+000
 1.623600814147085e+000	 2.895910032347164e+000	 9.859881898258564e+000
 1.592144228052090e+000	 2.913323113449428e+000	 9.812431374576402e+000
 1.560550179740057e+000	 2.930368264167312e+000	 9.773258516451723e+000
 1.528824966276507e+000	 2.947044180992758e+000	 9.738277309940198e+000
 1.496974891081117e+000	 2.963349700534780e+000	 9.703494551441647e+000
 1.465006260133933e+000	 2.979283799066296e+000	 9.665033206836480e+000
 1.432925378217068e+000	 2.994845591951334e+000	 9.619153230614437e+000
 1.400738545196150e+000	 3.010034332954731e+000	 9.562269794577192e+000
 1.368452052345631e+000	 3.024849413436621e+000	 9.490968900153566e+000
 1.336072178721969e+000	 3.039290361434152e+000	 9.402020372296230e+000
 1.303605187588521e+000	 3.053356840633026e+000	 9.314489655721300e+000
 1.636642452301086e+000	 2.919171544933902e+000	 9.869297741018576e+000
 1.604933189926567e+000	 2.936724497302984e+000	 9.822343191969530e+000
 1.573085361164337e+000	 2.953906563872260e+000	 9.783168733247557e+000
 1.541105313661329e+000	 2.970716430663187e+000	 9.748113308625696e+000
 1.508999401469674e+000	 2.987152924939791e+000	 9.713610958302038e+000
 1.476773981222437e+000	 3.003215014751852e+000	 9.676214227348575e+000
 1.444435408345127e+000	 3.018901808357515e+000	 9.632614894975392e+000
 1.411990033307279e+000	 3.034212553527452e+000	 9.579661973931515e+000
 1.379444197918242e+000	 3.049146636732866e+000	 9.514376955088533e+000
 1.346804231671228e+000	 3.063703582219837e+000	 9.433966297414230e+000
 1.314076448139491e+000	 3.077883050972602e+000	 9.344804057709737e+000
 1.649684090454720e+000	 2.942433057521074e+000	 9.874311903965424e+000
 1.617722151800683e+000	 2.960125881156992e+000	 9.827528776976852e+000
 1.585620542588254e+000	 2.977444863577661e+000	 9.787916785335783e+000
 1.553385661045779e+000	 2.994388680334057e+000	 9.752239388553695e+000
 1.521023911857845e+000	 3.010956149345216e+000	 9.717357969125803e+000
 1.488541702310539e+000	 3.027146230437786e+000	 9.680255319574398e+000
 1.455945438472771e+000	 3.042958024764042e+000	 9.638056303554494e+000
 1.423241521417981e+000	 3.058390774100482e+000	 9.588045640027332e+000
 1.390436343490416e+000	 3.073443860029386e+000	 9.527682786556495e+000
 1.357536284620048e+000	 3.088116803005770e+000	 9.454613924231335e+000
 1.324547708690028e+000	 3.102409261312412e+000	 9.368478482962379e+000
 1.662725728608005e+000	 2.965694570108715e+000	 9.874083118567933e+000
 1.630511113674446e+000	 2.983527265011494e+000	 9.827049510622768e+000
 1.598155724011803e+000	 3.000983163283563e+000	 9.786459579292588e+000
 1.565666008429836e+000	 3.018060930005414e+000	 9.749500826205718e+000
 1.533048422245595e+000	 3.034759373751101e+000	 9.713462089240288e+000
 1.500309423398188e+000	 3.051077446124149e+000	 9.675757138700464e+000
 1.467455468599930e+000	 3.067014241170959e+000	 9.633945292922958e+000
 1.434493009528169e+000	 3.082568994673866e+000	 9.585749001948983e+000
 1.401428489062056e+000	 3.097741083326226e+000	 9.529068376324192e+000
 1.368268337568320e+000	 3.112530023792000e+000	 9.461992665889449e+000
 1.335018969240017e+000	 3.126935471652506e+000	 9.382808720365183e+000
 1.230306363729441e+000	 2.881673368258283e+000	 9.141610741585549e+000
 1.199583979858828e+000	 2.894597229204027e+000	 9.093880428611968e+000
 1.168791122363753e+000	 2.907167317903020e+000	 9.043541343502259e+000
 1.137933641963362e+000	 2.919383696497329e+000	 8.990809660069919e+000
 1.107017361446401e+000	 2.931246550353865e+000	 8.936214221463299e+000
 1.076048072588372e+000	 2.942756186611073e+000	 8.880534695311106e+000
 1.045031533136541e+000	 2.953913032638836e+000	 8.824747236246390e+000
 1.013973463865370e+000	 2.964717634414845e+000	 8.769977585991420e+000
 9.828795457048584e-001	 2.975170654820722e+000	 8.717446593683853e+000
 9.517554169440449e-001	 2.985272871861279e+000	 8.668490816066239e+000
 9.206066705118042e-001	 2.995025176810348e+000	 8.624464713807221e+000
 1.240777624280165e+000	 2.906199578597639e+000	 9.143476509278520e+000
 1.209793759126601e+000	 2.919233435816973e+000	 9.094168970595073e+000
 1.178738820540489e+000	 2.931910509798534e+000	 9.043896995070597e+000
 1.147618709037034e+000	 2.944230863213301e+000	 8.992613612230741e+000
 1.116439296963322e+000	 2.956194683005870e+000	 8.940567260995172e+000
 1.085206425389242e+000	 2.967802278928781e+000	 8.888238817455473e+000
 1.053925901066823e+000	 2.979054081989313e+000	 8.836286707170872e+000
 1.022603493460617e+000	 2.989950642812039e+000	 8.785500018520052e+000
 9.912449318515898e-001	 3.000492629920440e+000	 8.736746260809595e+000
 9.598559025168251e-001	 3.010680827941015e+000	 8.690986826454880e+000
 9.284420459871779e-001	 3.020516135733327e+000	 8.649189443883154e+000
 1.251248884831276e+000	 2.930725788936877e+000	 9.157303178265014e+000
 1.220003538394792e+000	 2.943869642429749e+000	 9.105848324252976e+000
 1.188686518717652e+000	 2.956653701693829e+000	 9.054866007341994e+000
 1.157303776111121e+000	 2.969078029928999e+000	 9.004077812213536e+000
 1.125861232480630e+000	 2.981142815657544e+000	 8.953480896294561e+000
 1.094364778190454e+000	 2.992848371246103e+000	 8.903283777424370e+000
 1.062820268997394e+000	 3.004195131339357e+000	 8.853850817640916e+000
 1.031233523056087e+000	 3.015183651208757e+000	 8.805655305330069e+000
 9.996103179984714e-001	 3.025814605019650e+000	 8.759229295875072e+000
 9.679563880896778e-001	 3.036088784020224e+000	 8.715174511653244e+000
 9.362774214625443e-001	 3.046007094655771e+000	 8.674084300237519e+000
 1.261720145382654e+000	 2.955251999276043e+000	 9.180529175736037e+000
 1.230213317663281e+000	 2.968505849042415e+000	 9.126432915124902e+000
 1.198634216895123e+000	 2.981396893588967e+000	 9.074076219340451e+000
 1.166988843185511e+000	 2.993925196644493e+000	 9.022980478293285e+000
 1.135283167998224e+000	 3.006090948308973e+000	 8.972920006254743e+000
 1.103523130991923e+000	 3.017894463563139e+000	 8.923856475932881e+000
 1.071714636928179e+000	 3.029336180689076e+000	 8.875882696147293e+000
 1.039863552651724e+000	 3.040416659605120e+000	 8.829175620372327e+000
 1.007975704145466e+000	 3.051136580118482e+000	 8.783948123386770e+000
 9.760568736625851e-001	 3.061496740099038e+000	 8.740455896668538e+000
 9.441127969379056e-001	 3.071498053577817e+000	 8.698928202969400e+000
 1.272191405934185e+000	 2.979778209615192e+000	 9.210534757880840e+000
 1.240423096931948e+000	 2.993142055655025e+000	 9.153363932479671e+000
 1.208581915072786e+000	 3.006140085484014e+000	 9.099067534921447e+000
 1.176673910260096e+000	 3.018772363359864e+000	 9.046997647668279e+000
 1.144705103516002e+000	 3.031039080960243e+000	 8.996733575424685e+000
 1.112681483793558e+000	 3.042940555879987e+000	 8.948014811279606e+000
 1.080609004859105e+000	 3.054477230038581e+000	 8.900684031262184e+000
 1.048493582247471e+000	 3.065649668001247e+000	 8.854639988889364e+000
 1.016341090292535e+000	 3.076458555217061e+000	 8.809800089221451e+000
 9.841573592355286e-001	 3.086904696177588e+000	 8.766058823952328e+000
 9.519481724132636e-001	 3.096989012499596e+000	 8.723316643892030e+000
 1.282662666485751e+000	 3.004304419954371e+000	 9.244657745379362e+000
 1.250632876200675e+000	 3.017778262267638e+000	 9.184024033133628e+000
 1.218529613250524e+000	 3.030883277379036e+000	 9.127305646763496e+000
 1.186358977334763e+000	 3.043619530075185e+000	 9.073715972446472e+000
 1.154127039033863e+000	 3.055987213611442e+000	 9.022666613658650e+000
 1.121839836595271e+000	 3.067986648196746e+000	 8.973698774057230e+000
 1.089503372790100e+000	 3.079618279387982e+000	 8.926425392413723e+000
 1.057123611843272e+000	 3.090882676397256e+000	 8.880483884741814e+000
 1.024706476439640e+000	 3.101780530315511e+000	 8.835499251398863e+000
 9.922578448084908e-001	 3.112312652256009e+000	 8.791045252419616e+000
 9.597835478886195e-001	 3.122479971421242e+000	 8.746669409262937e+000
 1.293133927037235e+000	 3.028830630293632e+000	 9.280209287863947e+000
 1.260842655469342e+000	 3.042414468880311e+000	 9.215752079968972e+000
 1.228477311428221e+000	 3.055626469274102e+000	 9.156195799305781e+000
 1.196044044409403e+000	 3.068466696790535e+000	 9.100645557398824e+000
 1.163548974551707e+000	 3.080935346262660e+000	 9.048372118999350e+000
 1.130998189396973e+000	 3.093032740513514e+000	 8.998741585271956e+000
 1.098397740721089e+000	 3.104759328737387e+000	 8.951156593021345e+000
 1.065753641439071e+000	 3.116115684793267e+000	 8.905008867891141e+000
 1.033071862586746e+000	 3.127102505413966e+000	 8.859642866549418e+000
 1.000358330381453e+000	 3.137720608334429e+000	 8.814319589038259e+000
 9.676189233639758e-001	 3.147970930342888e+000	 8.768238329822360e+000
 1.303605187588521e+000	 3.053356840633026e+000	 9.314489655721300e+000
 1.271052434737831e+000	 3.067050675493101e+000	 9.245857913202654e+000
 1.238425009605759e+000	 3.080369661169275e+000	 9.183096588440852e+000
 1.205729111483903e+000	 3.093313863505989e+000	 9.125232837132478e+000
 1.172970910069433e+000	 3.105883478913984e+000	 9.071423081363468e+000
 1.140156542198578e+000	 3.118078832830393e+000	 9.020880875430073e+000
 1.107292108652001e+000	 3.129900378086907e+000	 8.972817093608503e+000
 1.074383671034811e+000	 3.141348693189400e+000	 8.926392259780174e+000
 1.041437248733813e+000	 3.152424480512545e+000	 8.880680730096207e+000
 1.008458815954396e+000	 3.163128564412980e+000	 8.834637051156394e+000
 9.754542988393339e-001	 3.173461889264667e+000	 8.787115056603707e+000
 1.314076448139491e+000	 3.077883050972602e+000	 9.344804057709737e+000
 1.281262214006022e+000	 3.091686882106064e+000	 9.271637152576970e+000
 1.248372707783021e+000	 3.105112853064621e+000	 9.205333795912740e+000
 1.215414178558155e+000	 3.118161030221624e+000	 9.144873490483743e+000
 1.182392845586939e+000	 3.130831611565499e+000	 9.089324524753060e+000
 1.149314894999995e+000	 3.143124925147479e+000	 9.037769902307408e+000
 1.116186476582760e+000	 3.155041427436653e+000	 8.989246442664488e+000
 1.083013700630438e+000	 3.166581701585775e+000	 8.942696854497703e+000
 1.049802634880804e+000	 3.177746455611380e+000	 8.896934467519698e+000
 1.016559301527304e+000	 3.188536520491794e+000	 8.850620201741700e+000
 9.832896743146951e-001	 3.198952848186712e+000	 8.802238861079960e+000
 1.324547708690028e+000	 3.102409261312412e+000	 9.368478482962379e+000
 1.291471993273796e+000	 3.116323088719257e+000	 9.290386028762175e+000
 1.258320405959892e+000	 3.129856044960207e+000	 9.220214256499448e+000
 1.225099245632046e+000	 3.143008196937515e+000	 9.156925390071521e+000
 1.191814781104125e+000	 3.155779744217294e+000	 9.099525585861629e+000
 1.158473247801138e+000	 3.168171017464872e+000	 9.046988805260289e+000
 1.125080844513294e+000	 3.180182476786733e+000	 8.998194753165290e+000
 1.091643730225893e+000	 3.191814709982507e+000	 8.951880663747408e+000
 1.058168021027681e+000	 3.203068430710596e+000	 8.906606593627856e+000
 1.024659787100156e+000	 3.213944476571005e+000	 8.860733769152091e+000
 9.911250497900614e-001	 3.224443807109156e+000	 8.812404458299248e+000
 1.335018969240017e+000	 3.126935471652506e+000	 9.382808720365183e+000
 1.301681772541034e+000	 3.140959295332738e+000	 9.299416242365647e+000
 1.268268104136253e+000	 3.154599236856098e+000	 9.225039756179813e+000
 1.234784312705468e+000	 3.167855363653740e+000	 9.158721585080951e+000
 1.201236716620890e+000	 3.180727876869459e+000	 9.099431627076125e+000
 1.167631600601917e+000	 3.193217109782673e+000	 9.046055894072193e+000
 1.133975212443531e+000	 3.205323526137257e+000	 8.997333212796177e+000
 1.100273759821121e+000	 3.217047718379722e+000	 8.951806693764677e+000
 1.066533407174408e+000	 3.228390405810319e+000	 8.907789601154557e+000
 1.032760272672935e+000	 3.239352432650741e+000	 8.863345136765005e+000
 9.989604252654352e-001	 3.249934766032135e+000	 8.816269851748048e+000
 9.206066705118042e-001	 2.995025176810348e+000	 8.624464713807221e+000
 8.894388508920191e-001	 3.004428571538802e+000	 8.584482799028200e+000
 8.582574502751356e-001	 3.013484164285996e+000	 8.545411379346094e+000
 8.270679074953227e-001	 3.022193169862039e+000	 8.505327010040128e+000
 7.958756060941372e-001	 3.030556908289346e+000	 8.462386308485291e+000
 7.646858720132438e-001	 3.038576802639415e+000	 8.414833517899426e+000
 7.335039713734896e-001	 3.046254376817458e+000	 8.361011964695853e+000
 7.023351083413049e-001	 3.053591253298464e+000	 8.299378847526320e+000
 6.711844230832484e-001	 3.060589150818338e+000	 8.228522781121452e+000
 6.400569898093635e-001	 3.067249882023707e+000	 8.161244376646980e+000
 6.089578149058431e-001	 3.073575351083983e+000	 8.127551299954673e+000
 9.284420459871779e-001	 3.020516135733327e+000	 8.649189443883154e+000
 8.970089539361903e-001	 3.029999563695273e+000	 8.610453374776599e+000
 8.655621652988902e-001	 3.039132229498540e+000	 8.572220757564658e+000
 8.341071651999050e-001	 3.047915358292587e+000	 8.533048141177570e+000
 8.026493830006501e-001	 3.056350281334656e+000	 8.491562940118744e+000
 7.711941899724105e-001	 3.064438433808137e+000	 8.446473190899347e+000
 7.397468970565124e-001	 3.072181352588336e+000	 8.396581521963690e+000
 7.083127527125638e-001	 3.079580673959275e+000	 8.340802734524704e+000
 6.768969408555946e-001	 3.086638131285180e+000	 8.278184375759023e+000
 6.455045788827541e-001	 3.093355552640277e+000	 8.216780323522091e+000
 6.141407157900874e-001	 3.099734858400542e+000	 8.189782265788663e+000
 9.362774214625443e-001	 3.046007094655771e+000	 8.674084300237519e+000
 9.045790569802750e-001	 3.055570555851223e+000	 8.635115012042936e+000
 8.728668803224783e-001	 3.064780294710581e+000	 8.596325785360712e+000
 8.411464229042434e-001	 3.073637546722664e+000	 8.556714299739831e+000
 8.094231599068449e-001	 3.082143654379540e+000	 8.515336676807186e+000
 7.777025079311873e-001	 3.090300064976481e+000	 8.471319686889173e+000
 7.459898227390770e-001	 3.098108328358891e+000	 8.423877508920082e+000
 7.142903970833032e-001	 3.105570094619816e+000	 8.372332398117955e+000
 6.826094586273637e-001	 3.112687111751801e+000	 8.316138598893831e+000
 6.509521679555173e-001	 3.119461223256674e+000	 8.259757224669118e+000
 6.193236166736610e-001	 3.125894365716972e+000	 8.237052621378657e+000
 9.441127969379056e-001	 3.071498053577817e+000	 8.698928202969400e+000
 9.121491600242940e-001	 3.081141548006778e+000	 8.658633727838236e+000
 8.801715953459424e-001	 3.090428359922246e+000	 8.618273234854227e+000
 8.481856806083995e-001	 3.099359735152392e+000	 8.577245140202958e+000
 8.161969368128004e-001	 3.107937027424103e+000	 8.534990481861248e+000
 7.842108258896708e-001	 3.116161696144542e+000	 8.491007843836556e+000
 7.522327484212990e-001	 3.124035304129198e+000	 8.444873194236227e+000
 7.202680414536518e-001	 3.131559515280150e+000	 8.396263946355777e+000
 6.883219763986999e-001	 3.138736092218256e+000	 8.344986533858011e+000
 6.563997570278098e-001	 3.145566893872942e+000	 8.293061123058672e+000
 6.245065175567315e-001	 3.152053873033303e+000	 8.272593372534725e+000
 9.519481724132636e-001	 3.096989012499596e+000	 8.723316643892030e+000
 9.197192630682695e-001	 3.106712540162070e+000	 8.680984242246570e+000
 8.874763103693232e-001	 3.116076425133662e+000	 8.638412575221793e+000
 8.552249383124337e-001	 3.125081923581885e+000	 8.595358848746461e+000
 8.229707137185969e-001	 3.133730400468455e+000	 8.551603496523599e+000
 7.907191438479603e-001	 3.142023327312415e+000	 8.506968099489221e+000
 7.584756741032915e-001	 3.149962279899343e+000	 8.461338601255092e+000
 7.262456858237402e-001	 3.157548935940349e+000	 8.414693080991613e+000
 6.940344941697477e-001	 3.164785072684600e+000	 8.367133325939903e+000
 6.618473460997887e-001	 3.171672564489124e+000	 8.319370185405594e+000
 6.296894184394667e-001	 3.178213380349571e+000	 8.299419715718766e+000
 9.597835478886195e-001	 3.122479971421242e+000	 8.746669409262937e+000
 9.272893661122238e-001	 3.132283532317234e+000	 8.701957152199649e+000
 8.947810253926622e-001	 3.141724490344950e+000	 8.656902604848495e+000
 8.622641960164071e-001	 3.150804112011263e+000	 8.611578241445805e+000
 8.297444906243133e-001	 3.159523773512700e+000	 8.566056612106911e+000
 7.972274618061515e-001	 3.167884958480192e+000	 8.520431545521999e+000
 7.647185997851699e-001	 3.175889255669407e+000	 8.474845052285895e+000
 7.322233301936989e-001	 3.183538356600478e+000	 8.429519140061236e+000
 6.997470119406511e-001	 3.190834053150890e+000	 8.384791731302324e+000
 6.672949351716104e-001	 3.197778235105263e+000	 8.341155861871659e+000
 6.348723193220341e-001	 3.204372887665806e+000	 8.320337737803333e+000
 9.676189233639758e-001	 3.147970930342888e+000	 8.768238329822360e+000
 9.348594691561778e-001	 3.157854524472396e+000	 8.721166127383059e+000
 9.020857404160018e-001	 3.167372555556241e+000	 8.673718101510206e+000
 8.693034537203804e-001	 3.176526300440638e+000	 8.626236877462066e+000
 8.365182675300302e-001	 3.185317146556945e+000	 8.579038055159025e+000
 8.037357797643429e-001	 3.193746589647969e+000	 8.532434993797681e+000
 7.709615254670481e-001	 3.201816231439471e+000	 8.486769725151021e+000
 7.382009745636574e-001	 3.209527777260609e+000	 8.442449153893167e+000
 7.054595297115545e-001	 3.216883033617179e+000	 8.399985681545731e+000
 6.727425242434325e-001	 3.223883905721402e+000	 8.360041377437335e+000
 6.400552202046016e-001	 3.230532394982041e+000	 8.337951138922287e+000
 9.754542988393339e-001	 3.173461889264667e+000	 8.787115056603707e+000
 9.424295722001534e-001	 3.183425516627688e+000	 8.738055127029734e+000
 9.093904554393824e-001	 3.193020620767654e+000	 8.688656489571637e+000
 8.763427114244147e-001	 3.202248488870132e+000	 8.639485186384633e+000
 8.432920444358267e-001	 3.211110519601296e+000	 8.591048984923912e+000
 8.102440977226320e-001	 3.219608220815843e+000	 8.543826054063988e+000
 7.772044511490408e-001	 3.227743207209616e+000	 8.498300221298168e+000
 7.441786189337460e-001	 3.235517197920807e+000	 8.455001913797526e+000
 7.111720474826019e-001	 3.242932014083524e+000	 8.414553863037385e+000
 6.781901133154112e-001	 3.249989576337585e+000	 8.377720638643536e+000
 6.452381210873366e-001	 3.256691902298308e+000	 8.354667977115875e+000
 9.832896743146951e-001	 3.198952848186712e+000	 8.802238861079960e+000
 9.499996752441726e-001	 3.208996508783244e+000	 8.751905636436959e+000
 9.166951704628461e-001	 3.218668685979320e+000	 8.701344523252081e+000
 8.833819691285707e-001	 3.227970677299859e+000	 8.651296608940321e+000
 8.500658213417820e-001	 3.236903892645859e+000	 8.602409102412992e+000
 8.167524156811158e-001	 3.245469851983902e+000	 8.555268222447086e+000
 7.834473768312622e-001	 3.253670182979923e+000	 8.510439144832292e+000
 7.501562633040948e-001	 3.261506618581142e+000	 8.468512052725746e+000
 7.168845652539382e-001	 3.268980994549978e+000	 8.430153310183540e+000
 6.836377023877035e-001	 3.276095246953852e+000	 8.396160763888561e+000
 6.504210219704072e-001	 3.282851409614640e+000	 8.372707433553810e+000
 9.911250497900614e-001	 3.224443807109156e+000	 8.812404458299248e+000
 9.575697782882571e-001	 3.234567500939191e+000	 8.761843922115276e+000
 9.239998854864346e-001	 3.244316751191363e+000	 8.711244985070408e+000
 8.904212268329095e-001	 3.253692865729938e+000	 8.661473750327961e+000
 8.568395982479764e-001	 3.262697265690743e+000	 8.613262270444656e+000
 8.232607336398921e-001	 3.271331483152246e+000	 8.567245980146387e+000
 7.896903025138271e-001	 3.279597158750477e+000	 8.524008691864619e+000
 7.561339076748334e-001	 3.287496039241681e+000	 8.484134137240092e+000
 7.225970830257071e-001	 3.295029975016600e+000	 8.448263011873255e+000
 6.890852914604664e-001	 3.302200917570249e+000	 8.417154464722881e+000
 6.556039228539802e-001	 3.309010916931070e+000	 8.394106597199345e+000
 9.989604252654352e-001	 3.249934766032135e+000	 8.816269851748048e+000
 9.651398813324286e-001	 3.260138493095665e+000	 8.766848304547187e+000
 9.313046005101890e-001	 3.269964816403907e+000	 8.717663398636825e+000
 8.974604845374918e-001	 3.279415054160485e+000	 8.669654545486532e+000
 8.636133751544897e-001	 3.288490638736054e+000	 8.623582144051218e+000
 8.297690515990591e-001	 3.297193114320970e+000	 8.580069901770143e+000
 7.959332281968499e-001	 3.305524134521356e+000	 8.539655249612080e+000
 7.621115520460927e-001	 3.313485459902493e+000	 8.502846770172042e+000
 7.283096007980531e-001	 3.321078955483442e+000	 8.470187530372282e+000
 6.945328805338571e-001	 3.328306588186819e+000	 8.442323193456463e+000
 6.607868237382243e-001	 3.335170424247628e+000	 8.420742897938721e+000
 6.089578149058431e-001	 3.073575351083983e+000	 8.127551299954673e+000
 5.778964908983216e-001	 3.079566677810540e+000	 8.111504931947085e+000
 5.468732083162867e-001	 3.085226917223479e+000	 8.090403907934315e+000
 5.158927506883084e-001	 3.090558234994752e+000	 8.065977464190492e+000
 4.849598273529440e-001	 3.095562878368370e+000	 8.039852901670162e+000
 4.540790720423593e-001	 3.100243173639482e+000	 8.013589212558625e+000
 4.232550415549730e-001	 3.104601523616498e+000	 7.988722580131626e+000
 3.924922145166819e-001	 3.108640405069572e+000	 7.966820743396600e+000
 3.617949902300640e-001	 3.112362366168643e+000	 7.949543325177642e+000
 3.311676876108508e-001	 3.115770023914197e+000	 7.938705349293370e+000
 3.006145442108607e-001	 3.118866061563839e+000	 7.936341317103183e+000
 6.141407157900874e-001	 3.099734858400542e+000	 8.189782265788661e+000
 5.828150257461738e-001	 3.105777177908166e+000	 8.181648101546323e+000
 5.515277009021272e-001	 3.111485592184849e+000	 8.168490923789474e+000
 5.202835654996195e-001	 3.116862285334807e+000	 8.152369516510714e+000
 4.890873689588724e-001	 3.121909523728591e+000	 8.135200110195152e+000
 4.579437844502214e-001	 3.126629653460698e+000	 8.118809555666482e+000
 4.268574075554643e-001	 3.131025097790100e+000	 8.105000664150477e+000
 3.958327550185428e-001	 3.135098354567003e+000	 8.095626495549446e+000
 3.648742635849503e-001	 3.138851993649093e+000	 8.092670492702389e+000
 3.339862889291539e-001	 3.142288654310430e+000	 8.098329496089258e+000
 3.031731046692104e-001	 3.145411042646106e+000	 8.115096828693911e+000
 6.193236166736610e-001	 3.125894365716972e+000	 8.237052621378657e+000
 5.877335605933207e-001	 3.131987678005702e+000	 8.233970606968770e+000
 5.561821934872365e-001	 3.137744267146154e+000	 8.225509833523603e+000
 5.246743803101857e-001	 3.143166335674824e+000	 8.214027719012933e+000
 4.932149105640552e-001	 3.148256169088801e+000	 8.201690953121229e+000
 4.618084968573515e-001	 3.153016133281928e+000	 8.190549651521547e+000
 4.304597735552533e-001	 3.157448671963742e+000	 8.182623981127271e+000
 3.991732955197487e-001	 3.161556304064507e+000	 8.179999818242139e+000
 3.679535369392488e-001	 3.165341621129662e+000	 8.184930126338928e+000
 3.368048902469567e-001	 3.168807284706830e+000	 8.199938887031474e+000
 3.057316651271697e-001	 3.171956023728603e+000	 8.227924584229214e+000
 6.245065175567315e-001	 3.152053873033303e+000	 8.272593372534725e+000
 5.926520954399379e-001	 3.158198178103163e+000	 8.272082400774464e+000
 5.608366860717978e-001	 3.164002942107413e+000	 8.265482600384356e+000
 5.290651951201936e-001	 3.169470386014816e+000	 8.255403128932072e+000
 4.973424521686786e-001	 3.174602814449002e+000	 8.244206311333546e+000
 4.656732092639322e-001	 3.179402613103171e+000	 8.234104284658084e+000
 4.340621395545159e-001	 3.183872246137423e+000	 8.227268430471977e+000
 4.025138360204639e-001	 3.188014253562083e+000	 8.225947925591425e+000
 3.710328102931063e-001	 3.191831248610334e+000	 8.232593876386666e+000
 3.396234915643843e-001	 3.195325915103381e+000	 8.249985659267241e+000
 3.082902255848362e-001	 3.198501004811306e+000	 8.281356268108336e+000
 6.296894184394667e-001	 3.178213380349571e+000	 8.299419715718766e+000
 5.975706302862025e-001	 3.184408678200579e+000	 8.299374296985334e+000
 5.654911786559937e-001	 3.190261617068638e+000	 8.292212626191704e+000
 5.334560099298289e-001	 3.195774436354789e+000	 8.280732490977959e+000
 5.014699937729290e-001	 3.200949459809202e+000	 8.267420423279859e+000
 4.695379216701472e-001	 3.205789092924431e+000	 8.254572423560221e+000
 4.376645055534270e-001	 3.210295820311139e+000	 8.244427800898519e+000
 4.058543765208516e-001	 3.214472203059717e+000	 8.239312217376849e+000
 3.741120836466699e-001	 3.218320876091100e+000	 8.241786169406332e+000
 3.424420928815618e-001	 3.221844545500062e+000	 8.254795307278037e+000
 3.108487860423075e-001	 3.225045985894189e+000	 8.281819184613147e+000
 6.348723193220341e-001	 3.204372887665806e+000	 8.320337737803333e+000
 6.024891651322907e-001	 3.210619178297972e+000	 8.319023549161106e+000
 5.701456712400070e-001	 3.216520292029850e+000	 8.309289320646244e+000
 5.378468247392780e-001	 3.222078486694757e+000	 8.294041901109916e+000
 5.055975353769930e-001	 3.227296105169404e+000	 8.275803736578318e+000
 4.734026340761792e-001	 3.232175572745705e+000	 8.256859343445019e+000
 4.412668715521625e-001	 3.236719394484886e+000	 8.239415237561966e+000
 4.091949170210756e-001	 3.240930152557404e+000	 8.225769153453854e+000
 3.771913570000865e-001	 3.244810503571943e+000	 8.218484542491925e+000
 3.452606941986142e-001	 3.248363175896857e+000	 8.220566519192273e+000
 3.134073464996812e-001	 3.251590966977224e+000	 8.235635628023024e+000
 6.400552202046016e-001	 3.230532394982041e+000	 8.337951138922287e+000
 6.074076999783787e-001	 3.236829678395365e+000	 8.333999455957187e+000
 5.748001638240200e-001	 3.242778966991062e+000	 8.320092701959680e+000
 5.422376395487272e-001	 3.248382537034726e+000	 8.299150505175414e+000
 5.097250769810570e-001	 3.253642750529616e+000	 8.273625797983740e+000
 4.772673464822108e-001	 3.258562052566995e+000	 8.245678791099945e+000
 4.448692375508982e-001	 3.263142968658663e+000	 8.217364755405072e+000
 4.125354575212996e-001	 3.267388102055136e+000	 8.190831179225601e+000
 3.802706303535030e-001	 3.271300131052852e+000	 8.168520034380732e+000
 3.480792955156666e-001	 3.274881806293745e+000	 8.153371076891681e+000
 3.159659069570548e-001	 3.278135948060387e+000	 8.149022324886840e+000
 6.452381210873366e-001	 3.256691902298308e+000	 8.354667977115875e+000
 6.123262348246433e-001	 3.263040178492782e+000	 8.347068992618748e+000
 5.794546564082159e-001	 3.269037641952292e+000	 8.327798027043238e+000
 5.466284543583625e-001	 3.274686587374711e+000	 8.299674230448074e+000
 5.138526185853074e-001	 3.279989395889841e+000	 8.264958179554645e+000
 4.811320588884258e-001	 3.284948532388303e+000	 8.225555189415140e+000
 4.484716035498094e-001	 3.289566542832465e+000	 8.183232796114828e+000
 4.158759980216870e-001	 3.293846051552904e+000	 8.139847699295514e+000
 3.833499037070666e-001	 3.297789758533815e+000	 8.097577630202064e+000
 3.508978968328441e-001	 3.301400436690709e+000	 8.059153816325530e+000
 3.185244674145261e-001	 3.304680929143654e+000	 8.028089944399452e+000
 6.504210219704072e-001	 3.282851409614640e+000	 8.372707433553810e+000
 6.172447696712605e-001	 3.289250678590245e+000	 8.360802466965616e+000
 5.841091489927768e-001	 3.295296316913555e+000	 8.335380449606804e+000
 5.510192691683702e-001	 3.300990637714720e+000	 8.299029548233143e+000
 5.179801601899307e-001	 3.306336041250084e+000	 8.253677438999675e+000
 4.849967712950066e-001	 3.311335012209629e+000	 8.200825879392706e+000
 4.520739695490715e-001	 3.315990117006285e+000	 8.141799826255513e+000
 4.192165385224019e-001	 3.320304001050699e+000	 8.078006096617058e+000
 3.864291770609240e-001	 3.324279386014817e+000	 8.011196756877361e+000
 3.537164981502716e-001	 3.327919067087727e+000	 7.943732644670506e+000
 3.210830278721925e-001	 3.331225910226997e+000	 7.878842673077019e+000
 6.556039228539802e-001	 3.309010916931070e+000	 8.394106597199347e+000
 6.221633045184069e-001	 3.315461178687778e+000	 8.377579198510309e+000
 5.887636415778862e-001	 3.321554991874869e+000	 8.345619704622083e+000
 5.554100839789363e-001	 3.327294688054762e+000	 8.300437265815356e+000
 5.221077017951132e-001	 3.332682686610352e+000	 8.243468112312785e+000
 4.888614837021363e-001	 3.337721492030971e+000	 8.176460188625802e+000
 4.556763355488605e-001	 3.342413691180124e+000	 8.102137801695614e+000
 4.225570790236078e-001	 3.346761950548516e+000	 8.022621398055419e+000
 3.895084504152222e-001	 3.350769013495848e+000	 7.940439956341296e+000
 3.565350994680742e-001	 3.354437697484785e+000	 7.858763992281707e+000
 3.236415883301516e-001	 3.357770891310391e+000	 7.781610648770761e+000
 6.607868237382243e-001	 3.335170424247628e+000	 8.420742897938721e+000
 6.270818393662591e-001	 3.341671678785408e+000	 8.400243966139703e+000
 5.934181341637264e-001	 3.347813666836248e+000	 8.364278088512906e+000
 5.598008987902472e-001	 3.353598738394850e+000	 8.316005024314196e+000
 5.262352434010413e-001	 3.359029331970649e+000	 8.257962013021448e+000
 4.927261961099982e-001	 3.364107971852334e+000	 8.192358430557484e+000
 4.592787015493515e-001	 3.368837265353978e+000	 8.121347928378164e+000
 4.258976195254683e-001	 3.373219900046345e+000	 8.047279734306310e+000
 3.925877237701084e-001	 3.377258640976893e+000	 7.972930784840117e+000
 3.593537007863771e-001	 3.380956327881860e+000	 7.901720333645431e+000
 3.262001487885013e-001	 3.384315872393811e+000	 7.837908641489785e+000
 3.006145442108607e-001	 3.118866061563839e+000	 7.936341317103186e+000
 2.701351603285507e-001	 3.121653621246674e+000	 7.942152417592093e+000
 2.397382515072781e-001	 3.124135025063762e+000	 7.953731472527980e+000
 2.094278692182750e-001	 3.126313141612288e+000	 7.970438880579827e+000
 1.792079785623931e-001	 3.128190895538556e+000	 7.992052226610732e+000
 1.490824577193054e-001	 3.129771264960268e+000	 8.018804190768528e+000
 1.190550974780862e-001	 3.131057278902433e+000	 8.051408893249583e+000
 8.912960084760466e-002	 3.132052014749406e+000	 8.091075360485592e+000
 5.930958274510228e-002	 3.132758595715478e+000	 8.139507007660665e+000
 2.959856976126172e-002	 3.133180188336288e+000	 8.198886240703127e+000
 0.000000000000000e+000	 3.133319999983334e+000	 8.271843500235407e+000
 3.031731046692104e-001	 3.145411042646106e+000	 8.115096828693911e+000
 2.724343077016805e-001	 3.148222327528214e+000	 8.142265012875619e+000
 2.417786877487560e-001	 3.150724850821440e+000	 8.176477081740899e+000
 2.112103307641123e-001	 3.152921505537871e+000	 8.216925300416392e+000
 1.807332355959375e-001	 3.154815241215753e+000	 8.263374592777671e+000
 1.503513134314467e-001	 3.156409061319833e+000	 8.316216046808547e+000
 1.200683873234671e-001	 3.157706020655442e+000	 8.376507483868547e+000
 8.988819179751452e-002	 3.158709222798845e+000	 8.445999686935066e+000
 5.981437253772146e-002	 3.159421817546308e+000	 8.527147106192738e+000
 2.985048614990561e-002	 3.159846998384162e+000	 8.623102082629400e+000
 0.000000000000000e+000	 3.159987999982150e+000	 8.737691866131637e+000
 3.057316651271697e-001	 3.171956023728603e+000	 8.227924584229211e+000
 2.747334550745512e-001	 3.174791033810060e+000	 8.267670966150591e+000
 2.438191239901174e-001	 3.177314676579507e+000	 8.314854439046441e+000
 2.129927923099747e-001	 3.179529869463931e+000	 8.368571223387169e+000
 1.822584926296357e-001	 3.181439586893518e+000	 8.428650529207946e+000
 1.516201691438457e-001	 3.183046857680052e+000	 8.495724665567476e+000
 1.210816771691728e-001	 3.184354762409182e+000	 8.571284777217523e+000
 9.064678274776827e-002	 3.185366430849083e+000	 8.657720708022758e+000
 6.031916233064413e-002	 3.186085039377992e+000	 8.758343728792504e+000
 3.010240253874203e-002	 3.186513808432925e+000	 8.877391104166037e+000
 0.000000000000000e+000	 3.186655999981866e+000	 9.020011726137724e+000
 3.082902255848362e-001	 3.198501004811306e+000	 8.281356268108336e+000
 2.770326024472274e-001	 3.201359740092179e+000	 8.324869631693185e+000
 2.458595602313915e-001	 3.203904502337920e+000	 8.375206020470079e+000
 2.147752538558560e-001	 3.206138233390415e+000	 8.431418469730669e+000
 1.837837496634492e-001	 3.208063932571783e+000	 8.493458574610971e+000
 1.528890248564379e-001	 3.209684654040851e+000	 8.562264274777668e+000
 1.220949670151220e-001	 3.211003504163571e+000	 8.639831761519444e+000
 9.140537369827995e-002	 3.212023638900031e+000	 8.729269906238931e+000
 6.082395212379443e-002	 3.212748261210434e+000	 8.834835862966029e+000
 3.035431892772286e-002	 3.213180618482476e+000	 8.961950749843245e+000
 0.000000000000000e+000	 3.213323999982383e+000	 9.117194585228182e+000
 3.108487860423075e-001	 3.225045985894189e+000	 8.281819184613147e+000
 2.793317498197742e-001	 3.227928446374532e+000	 8.320279424051757e+000
 2.478999964726072e-001	 3.230494328096633e+000	 8.363817532039594e+000
 2.165577154017498e-001	 3.232746597317268e+000	 8.411476769448170e+000
 1.853090066973396e-001	 3.234688278250491e+000	 8.463370148527032e+000
 1.541578805691588e-001	 3.236322450402154e+000	 8.520787028725335e+000
 1.231082568612337e-001	 3.237652245918531e+000	 8.586282258788915e+000
 9.216396464896356e-002	 3.238680846951602e+000	 8.663746158382271e+000
 6.132874191709650e-002	 3.239411483043539e+000	 8.758453902289432e+000
 3.060623531679994e-002	 3.239847428532718e+000	 8.877093138678992e+000
 0.000000000000000e+000	 3.239991999983599e+000	 9.027768961962794e+000
 3.134073464996812e-001	 3.251590966977224e+000	 8.235635628023024e+000
 2.816308971922560e-001	 3.254497152657088e+000	 8.260236751177349e+000
 2.499404327137938e-001	 3.257084153855606e+000	 8.286916430149262e+000
 2.183401769476500e-001	 3.259354961244440e+000	 8.314721879872684e+000
 1.868342637312685e-001	 3.261312623929575e+000	 8.343947261906711e+000
 1.554267362819441e-001	 3.262960246763894e+000	 8.376260293621833e+000
 1.241215467074266e-001	 3.264300987673977e+000	 8.414809752920261e+000
 9.292255559973316e-002	 3.265338055003706e+000	 8.464312060584868e+000
 6.183353171047444e-002	 3.266074704877214e+000	 8.531115409097849e+000
 3.085815170592516e-002	 3.266514238583551e+000	 8.623240191982047e+000
 0.000000000000000e+000	 3.266659999985416e+000	 8.750394795803647e+000
 3.159659069570548e-001	 3.278135948060387e+000	 8.149022324886840e+000
 2.839300445647380e-001	 3.281065858939814e+000	 8.150995029337542e+000
 2.519808689549805e-001	 3.283673979614793e+000	 8.150670534556895e+000
 2.201226384935501e-001	 3.285963325171877e+000	 8.147093808340220e+000
 1.883595207651974e-001	 3.287936969608975e+000	 8.140740347312054e+000
 1.566955919947295e-001	 3.289598043125997e+000	 8.133664069574563e+000
 1.251348365536195e-001	 3.290949729429829e+000	 8.129624374178198e+000
 9.368114655050273e-002	 3.291995263056253e+000	 8.134190432780972e+000
 6.233832150385239e-002	 3.292737926711360e+000	 8.154821083270145e+000
 3.111006809505041e-002	 3.293181048634879e+000	 8.200918997880985e+000
 0.000000000000000e+000	 3.293327999987732e+000	 8.283858126159183e+000
 3.185244674145261e-001	 3.304680929143654e+000	 8.028089944399452e+000
 2.862291919372847e-001	 3.307634565222676e+000	 7.998723775210372e+000
 2.540213051961963e-001	 3.310263805374154e+000	 7.961186728790820e+000
 2.219051000394439e-001	 3.312571689099526e+000	 7.914495134055474e+000
 1.898847777990878e-001	 3.314561315288624e+000	 7.859286202025163e+000
 1.579644477074505e-001	 3.316235839488389e+000	 7.797988541471432e+000
 1.261481263997312e-001	 3.317598471186007e+000	 7.734970031302238e+000
 9.443973750118642e-002	 3.318652471109158e+000	 7.676660992528201e+000
 6.284311129715450e-002	 3.319401148545888e+000	 7.631650925512364e+000
 3.136198448412752e-002	 3.319847858686600e+000	 7.610757399279296e+000
 0.000000000000000e+000	 3.319995999990449e+000	 7.627066027871361e+000
 3.210830278721925e-001	 3.331225910226997e+000	 7.878842673077022e+000
 2.885283393099610e-001	 3.334203271505640e+000	 7.809630399992424e+000
 2.560617414374702e-001	 3.336853631133645e+000	 7.726752090221114e+000
 2.236875615853252e-001	 3.339180053027334e+000	 7.629981215191210e+000
 1.914100348329013e-001	 3.341185660968463e+000	 7.520141456944996e+000
 1.592333034200427e-001	 3.342873635850998e+000	 7.399811268130374e+000
 1.271614162456806e-001	 3.344247212942430e+000	 7.273477243807788e+000
 9.519832845169815e-002	 3.345309679162326e+000	 7.147679391779541e+000
 6.334790109030486e-002	 3.346064370380699e+000	 7.031149136257384e+000
 3.161390087310839e-002	 3.346514668738616e+000	 6.934940802523669e+000
 0.000000000000000e+000	 3.346663999993465e+000	 6.872557274069234e+000
 3.236415883301516e-001	 3.357770891310391e+000	 7.781610648770766e+000
 2.908274866828316e-001	 3.360771977788671e+000	 7.701475369100131e+000
 2.581021776788315e-001	 3.363443456893221e+000	 7.606432731240713e+000
 2.254700231311878e-001	 3.365788416955247e+000	 7.495663919931134e+000
 1.929352918665995e-001	 3.367810006648428e+000	 7.369919789450506e+000
 1.605021591324418e-001	 3.369511432213754e+000	 7.231678993908263e+000
 1.281747060913863e-001	 3.370895954699014e+000	 7.085297494168403e+000
 9.595691940195203e-002	 3.371966887215674e+000	 6.937150418042590e+000
 6.385269088322762e-002	 3.372727592215699e+000	 6.795767157539916e+000
 3.186581726194487e-002	 3.373181478790831e+000	 6.671960492147282e+000
 0.000000000000000e+000	 3.373331999996682e+000	 6.578950462249098e+000
 3.262001487885013e-001	 3.384315872393811e+000	 7.837908641489781e+000
 2.931266340559612e-001	 3.387340684071736e+000	 7.773029111551487e+000
 2.601426139203095e-001	 3.390033282652841e+000	 7.694152678411900e+000
 2.272524846770250e-001	 3.392396780883214e+000	 7.600620543976785e+000
 1.944605489001440e-001	 3.394434352328458e+000	 7.493313478369132e+000
 1.617710148445833e-001	 3.396149228576582e+000	 7.374804888037416e+000
 1.291879959367674e-001	 3.397544696455680e+000	 7.249505710796671e+000
 9.671551035186207e-002	 3.398624095269112e+000	 7.123802173708914e+000
 6.435748067584694e-002	 3.399390814050797e+000	 7.006187348760459e+000
 3.211773365058886e-002	 3.399848288843145e+000	 6.907387338459408e+000
 0.000000000000000e+000	 3.400000000000000e+000	 6.840482849431359e+000
 3.400000000000000e+000	 0.000000000000000e+000	 1.090828888483962e+001
 3.399848288843145e+000	 3.211773365058896e-002	 1.096470176281836e+001
 3.399390814050797e+000	 6.435748067584715e-002	 1.098629948020829e+001
 3.398624095269110e+000	 9.671551035186184e-002	 1.098217964774356e+001
 3.397544696455680e+000	 1.291879959367673e-001	 1.096073130302664e+001
 3.396149228576581e+000	 1.617710148445832e-001	 1.092964844755862e+001
 3.394434352328458e+000	 1.944605489001441e-001	 1.089594537486252e+001
 3.392396780883214e+000	 2.272524846770251e-001	 1.086597404365754e+001
 3.390033282652842e+000	 2.601426139203092e-001	 1.084544376762773e+001
 3.387340684071737e+000	 2.931266340559610e-001	 1.083944352756572e+001
 3.384315872393811e+000	 3.262001487885011e-001	 1.085246724634486e+001
 3.426668000003317e+000	 0.000000000000000e+000	 1.079754370376845e+001
 3.426515098895459e+000	 3.236965003900857e-002	 1.086471264939103e+001
 3.426054035885893e+000	 6.486227046811326e-002	 1.089569926799438e+001
 3.425281303322550e+000	 9.747410130137259e-002	 1.089986998315798e+001
 3.424193438212349e+000	 1.302012857817725e-001	 1.088587740141787e+001
 3.422787024939412e+000	 1.630398705564287e-001	 1.086167275278719e+001
 3.421058698008491e+000	 1.959858059335152e-001	 1.083451991961432e+001
 3.419005144811186e+000	 2.290349462228409e-001	 1.081101131206946e+001
 3.416623108412468e+000	 2.621830501619324e-001	 1.079708586893727e+001
 3.413909390354809e+000	 2.954257814294041e-001	 1.079804949922263e+001
 3.410860853477238e+000	 3.287587092473185e-001	 1.081859831745386e+001
 3.453336000006534e+000	 0.000000000000000e+000	 1.070595661469004e+001
 3.453181908947675e+000	 3.262156642723706e-002	 1.078061960481980e+001
 3.452717257720900e+000	 6.536706026008118e-002	 1.081806644271221e+001
 3.451938511375909e+000	 9.823269225055065e-002	 1.082791608577764e+001
 3.450842179968952e+000	 1.312145756264717e-001	 1.081906874077679e+001
 3.449424821302194e+000	 1.643087262680443e-001	 1.079971712325323e+001
 3.447683043688490e+000	 1.975110629667697e-001	 1.077735908658064e+001
 3.445613508739141e+000	 2.308174077686786e-001	 1.075881188317136e+001
 3.443212934172093e+000	 2.642234864037292e-001	 1.075022834372630e+001
 3.440478096637889e+000	 2.977249288031721e-001	 1.075711529997521e+001
 3.437405834560681e+000	 3.313172697066004e-001	 1.078435461655169e+001
 3.480004000009550e+000	 0.000000000000000e+000	 1.063243589242932e+001
 3.479848718999697e+000	 3.287348281532392e-002	 1.071180371295657e+001
 3.479380479555727e+000	 6.587185005183192e-002	 1.075319311103460e+001
 3.478595719429110e+000	 9.899128319949312e-002	 1.076645956545100e+001
 3.477490921725428e+000	 1.322278654709649e-001	 1.076073534933012e+001
 3.476062617664880e+000	 1.655775819795217e-001	 1.074443952255306e+001
 3.474307389368426e+000	 1.990363199999830e-001	 1.072528905832056e+001
 3.472221872667065e+000	 2.325998693145915e-001	 1.071031137054154e+001
 3.469802759931711e+000	 2.662639226457270e-001	 1.070585853522014e+001
 3.467046802920988e+000	 3.000240761772669e-001	 1.071762354141669e+001
 3.463950815644158e+000	 3.338758301663241e-001	 1.075065895052386e+001
 3.506672000012267e+000	 0.000000000000000e+000	 1.057571904618604e+001
 3.506515529051426e+000	 3.312539920331866e-002	 1.065749560312932e+001
 3.506043701390285e+000	 6.637663984344668e-002	 1.070074068765393e+001
 3.505252927482078e+000	 9.974987414829721e-002	 1.071553057686661e+001
 3.504139663481709e+000	 1.332411553153518e-001	 1.071121453816551e+001
 3.502700414027417e+000	 1.668464376909529e-001	 1.069642346733939e+001
 3.500931735048262e+000	 2.005615770332309e-001	 1.067907940775000e+001
 3.498830236594934e+000	 2.343823308606330e-001	 1.066640622133249e+001
 3.496392585691322e+000	 2.683043588879537e-001	 1.066494171192236e+001
 3.493615509204113e+000	 3.023232235516896e-001	 1.068055154680685e+001
 3.490495796727684e+000	 3.364343906264662e-001	 1.071844536867286e+001
 3.533340000014583e+000	 0.000000000000000e+000	 1.053437926383066e+001
 3.533182339102767e+000	 3.337731559127077e-002	 1.061678171830043e+001
 3.532706923224484e+000	 6.688142963500651e-002	 1.066024592840786e+001
 3.531910135534731e+000	 1.005084650970601e-001	 1.067505355934359e+001
 3.530788405237732e+000	 1.342544451597326e-001	 1.067075629007942e+001
 3.529338210389759e+000	 1.681152934024299e-001	 1.065618300838081e+001
 3.527556080727968e+000	 2.020868340665887e-001	 1.063944761543684e+001
 3.525438600522740e+000	 2.361647924068565e-001	 1.062795771477337e+001
 3.522982411450922e+000	 2.703447951304369e-001	 1.062842449333471e+001
 3.520184215487275e+000	 3.046223709264417e-001	 1.064687415114921e+001
 3.517040777811276e+000	 3.389929510870034e-001	 1.068866128550014e+001
 3.560008000016400e+000	 0.000000000000000e+000	 1.050683156655672e+001
 3.559849149153620e+000	 3.362923197922979e-002	 1.058861030095796e+001
 3.559370145058234e+000	 6.738621942659254e-002	 1.063112669010135e+001
 3.558567343586992e+000	 1.012670560458787e-001	 1.064485271387201e+001
 3.557437146993432e+000	 1.352677350042070e-001	 1.063952839779399e+001
 3.555976006751857e+000	 1.693841491140445e-001	 1.062416747468935e+001
 3.554180426407513e+000	 2.036120911001322e-001	 1.060706336522807e+001
 3.552046964450459e+000	 2.379472539533151e-001	 1.059579575582727e+001
 3.549572237210508e+000	 2.723852313732046e-001	 1.059723808920859e+001
 3.546752921770479e+000	 3.069215183015246e-001	 1.061756633471196e+001
 3.543585758894952e+000	 3.415515115479126e-001	 1.066226945837298e+001
 3.586676000017616e+000	 0.000000000000000e+000	 1.049133868896146e+001
 3.586515959203890e+000	 3.388114836724521e-002	 1.057179711143344e+001
 3.586033366891444e+000	 6.789100921828585e-002	 1.061268743125420e+001
 3.585224551638781e+000	 1.020256469948502e-001	 1.062465723107092e+001
 3.584085888748746e+000	 1.362810248488751e-001	 1.061762136458767e+001
 3.582613803113660e+000	 1.706530048258888e-001	 1.060076599304855e+001
 3.580804772086859e+000	 2.051373481339368e-001	 1.058255262974639e+001
 3.578655328378077e+000	 2.397297155000623e-001	 1.057072247466845e+001
 3.576162062970080e+000	 2.744256676162844e-001	 1.057230136203178e+001
 3.573321628053737e+000	 3.092206656769395e-001	 1.059360569866179e+001
 3.570130739978726e+000	 3.441100720091705e-001	 1.064024982763156e+001
 3.613344000018133e+000	 0.000000000000000e+000	 1.048601669874254e+001
 3.613182769253481e+000	 3.413306475536653e-002	 1.056503089246483e+001
 3.612696588724027e+000	 6.839579901016757e-002	 1.060412446715245e+001
 3.611881759690020e+000	 1.027842379440719e-001	 1.061410628293417e+001
 3.610734630503605e+000	 1.372943146938367e-001	 1.060505307961542e+001
 3.609251599475124e+000	 1.719218605380546e-001	 1.058631179454420e+001
 3.607429117765978e+000	 2.066626051680781e-001	 1.056650155661476e+001
 3.605263692305578e+000	 2.415121770471514e-001	 1.055351564200971e+001
 3.602751888729632e+000	 2.764661038597041e-001	 1.055452372188342e+001
 3.599890334337059e+000	 3.115198130526881e-001	 1.057597479096787e+001
 3.596675721062617e+000	 3.466686324707543e-001	 1.062360122624129e+001
 3.640012000017849e+000	 0.000000000000000e+000	 1.048884036936262e+001
 3.639849579302291e+000	 3.438498114364327e-002	 1.056687859302521e+001
 3.639359810555890e+000	 6.890058880231878e-002	 1.060453099180783e+001
 3.638538967740630e+000	 1.035428288936408e-001	 1.061275379048091e+001
 3.637383372257951e+000	 1.383076045391919e-001	 1.060177327947285e+001
 3.635889395836193e+000	 1.731907162506339e-001	 1.058108631902084e+001
 3.634053463444836e+000	 2.081878622026318e-001	 1.055946016562462e+001
 3.631872056232944e+000	 2.432946385946359e-001	 1.054493190972321e+001
 3.629341714489164e+000	 2.785065401034914e-001	 1.054480786225492e+001
 3.626459040620449e+000	 3.138189604287712e-001	 1.056566329025551e+001
 3.623220702146641e+000	 3.492271929326405e-001	 1.061334296568233e+001
 3.666680000016666e+000	 0.000000000000000e+000	 1.049764831826009e+001
 3.666516389350228e+000	 3.463689753212492e-002	 1.057579036366587e+001
 3.666023032386948e+000	 6.940537859482068e-002	 1.061290187869365e+001
 3.665196175790535e+000	 1.043014198436540e-001	 1.062007297871501e+001
 3.664032114011715e+000	 1.393208943850406e-001	 1.060766780688538e+001
 3.662527192196825e+000	 1.744595719637187e-001	 1.058532312775570e+001
 3.660677809123401e+000	 2.097131192376734e-001	 1.056194586647731e+001
 3.658480420160158e+000	 2.450771001425689e-001	 1.054570988565215e+001
 3.655931540248671e+000	 2.805469763476741e-001	 1.054405234493218e+001
 3.653027746903921e+000	 3.161181078051908e-001	 1.056367005484168e+001
 3.649765683230813e+000	 3.517857533948059e-001	 1.061051630437786e+001
 3.384315872393811e+000	 3.262001487885011e-001	 1.085246724634487e+001
 3.380956327881860e+000	 3.593537007863772e-001	 1.086839144490839e+001
 3.377258640976893e+000	 3.925877237701081e-001	 1.087174181545389e+001
 3.373219900046344e+000	 4.258976195254685e-001	 1.086711115788765e+001
 3.368837265353978e+000	 4.592787015493513e-001	 1.085854216751237e+001
 3.364107971852335e+000	 4.927261961099983e-001	 1.084956859505887e+001
 3.359029331970650e+000	 5.262352434010416e-001	 1.084326214668071e+001
 3.353598738394850e+000	 5.598008987902470e-001	 1.084228570079624e+001
 3.347813666836249e+000	 5.934181341637267e-001	 1.084895344307184e+001
 3.341671678785408e+000	 6.270818393662587e-001	 1.086529854174626e+001
 3.335170424247629e+000	 6.607868237382245e-001	 1.089314900239155e+001
 3.410860853477238e+000	 3.287587092473185e-001	 1.081859831745386e+001
 3.407474958278943e+000	 3.621723021052771e-001	 1.084153771025941e+001
 3.403748268457944e+000	 3.956669971256944e-001	 1.085029482491113e+001
 3.399677849544182e+000	 4.292381600281079e-001	 1.084959090708283e+001
 3.395260839527842e+000	 4.628810675506773e-001	 1.084357272081810e+001
 3.390494451673717e+000	 4.965909085187303e-001	 1.083585107751321e+001
 3.385375977330978e+000	 5.303627850078559e-001	 1.082954506940274e+001
 3.379902788734986e+000	 5.641917136024434e-001	 1.082733261677562e+001
 3.374072341797700e+000	 5.980726267504357e-001	 1.083150796527025e+001
 3.367882178883140e+000	 6.320003742149503e-001	 1.084404679311909e+001
 3.361329931564333e+000	 6.659697246232672e-001	 1.086667960756897e+001
 3.437405834560681e+000	 3.313172697066004e-001	 1.078435461655170e+001
 3.433993588676044e+000	 3.649909034247586e-001	 1.081367348982082e+001
 3.430237895939014e+000	 3.987462704819553e-001	 1.082738097743961e+001
 3.426135799042037e+000	 4.325787005314929e-001	 1.083029267984106e+001
 3.421684413701722e+000	 4.664834335528000e-001	 1.082662681810581e+001
 3.416880931495114e+000	 5.004556209282911e-001	 1.082003999543760e+001
 3.411722622691324e+000	 5.344903266155145e-001	 1.081366861527579e+001
 3.406206839075148e+000	 5.685825284154835e-001	 1.081017659870957e+001
 3.400331016759192e+000	 6.027271193379756e-001	 1.081181007385210e+001
 3.394092678980937e+000	 6.369189090644474e-001	 1.082045973609905e+001
 3.387489438881134e+000	 6.711526255090805e-001	 1.083819406576187e+001
 3.463950815644158e+000	 3.338758301663241e-001	 1.075065895052386e+001
 3.460512219073185e+000	 3.678095047447778e-001	 1.078563613849177e+001
 3.456727523420122e+000	 4.018255438388306e-001	 1.080375647130814e+001
 3.452593748539921e+000	 4.359192410355515e-001	 1.080989818903055e+001
 3.448107987875623e+000	 4.700857995556378e-001	 1.080832081380846e+001
 3.443267411316521e+000	 5.043203333385941e-001	 1.080269799676413e+001
 3.438069268051671e+000	 5.386178682239287e-001	 1.079615596051822e+001
 3.432510889415307e+000	 5.729733432292812e-001	 1.079131821460596e+001
 3.426589691720682e+000	 6.073816119262632e-001	 1.079035725403469e+001
 3.420303179078741e+000	 6.418374439146738e-001	 1.079505398040124e+001
 3.413648946197965e+000	 6.763355263955971e-001	 1.080898009096878e+001
 3.490495796727684e+000	 3.364343906264662e-001	 1.071844536867286e+001
 3.487030849470385e+000	 3.706281060652908e-001	 1.075828973130365e+001
 3.483217150901286e+000	 4.049048171962604e-001	 1.078021784780484e+001
 3.479051698037852e+000	 4.392597815402108e-001	 1.078914129977743e+001
 3.474531562049550e+000	 4.736881655591101e-001	 1.078933325521230e+001
 3.469653891137935e+000	 5.081850457495538e-001	 1.078445824284272e+001
 3.464415913412003e+000	 5.427454098330110e-001	 1.077760744729516e+001
 3.458814939755432e+000	 5.773641580437487e-001	 1.077134023803800e+001
 3.452848366682128e+000	 6.120361045152155e-001	 1.076773268130022e+001
 3.446513679176499e+000	 6.467559787655527e-001	 1.076843381635764e+001
 3.439808453514761e+000	 6.815184272827487e-001	 1.077960017779138e+001
 3.517040777811276e+000	 3.389929510870034e-001	 1.068866128550014e+001
 3.513549479867664e+000	 3.734467073862540e-001	 1.073252649066214e+001
 3.509706778382525e+000	 4.079840905541842e-001	 1.075760273844035e+001
 3.505509647535838e+000	 4.426003220453980e-001	 1.076880811426208e+001
 3.500955136223510e+000	 4.772905315631356e-001	 1.077040432463555e+001
 3.496040370959348e+000	 5.120497581610831e-001	 1.076602322998435e+001
 3.490762558772303e+000	 5.468729514426730e-001	 1.075869880882483e+001
 3.485118990095495e+000	 5.817549728587999e-001	 1.075090530325080e+001
 3.479107041643489e+000	 6.166905971047497e-001	 1.074460233519353e+001
 3.472724179274159e+000	 6.516745136170080e-001	 1.074128781836275e+001
 3.465967960831457e+000	 6.867013281704680e-001	 1.075067183638737e+001
 3.543585758894952e+000	 3.415515115479126e-001	 1.066226945837298e+001
 3.540068110265041e+000	 3.762653087076237e-001	 1.070926808999012e+001
 3.536196405863857e+000	 4.110633639125422e-001	 1.073679050867452e+001
 3.531967597033896e+000	 4.459408625510411e-001	 1.074973697171438e+001
 3.527378710397506e+000	 4.808928975676332e-001	 1.075233521399703e+001
 3.522426850780760e+000	 5.159144705730965e-001	 1.074816355905472e+001
 3.517109204132555e+000	 5.510004930528264e-001	 1.074017935662096e+001
 3.511423040435468e+000	 5.861457876743472e-001	 1.073075353487213e+001
 3.505365716604720e+000	 6.213450896947828e-001	 1.072171209853368e+001
 3.498934679371662e+000	 6.565930484689632e-001	 1.071438544284509e+001
 3.492127468147986e+000	 6.918842290586874e-001	 1.072287870585026e+001
 3.570130739978726e+000	 3.441100720091705e-001	 1.064024982763156e+001
 3.566586740662536e+000	 3.790839100293559e-001	 1.068946684020673e+001
 3.562686033345299e+000	 4.141426372712738e-001	 1.071870280354806e+001
 3.558425546532040e+000	 4.492814030570673e-001	 1.073281836802154e+001
 3.553802284571547e+000	 4.844952635725215e-001	 1.073598743529395e+001
 3.548813330602161e+000	 5.197791829855072e-001	 1.073171665582072e+001
 3.543455849492743e+000	 5.551280346633837e-001	 1.072287013184055e+001
 3.537727090775320e+000	 5.905366024903044e-001	 1.071170015354878e+001
 3.531624391565783e+000	 6.259995822852323e-001	 1.069988484279939e+001
 3.525145179468956e+000	 6.615115833213418e-001	 1.068857362104905e+001
 3.518286975464283e+000	 6.970671299473390e-001	 1.069696908851907e+001
 3.596675721062617e+000	 3.466686324707543e-001	 1.062360122624129e+001
 3.593105371060168e+000	 3.819025113514069e-001	 1.067410676509448e+001
 3.589175660826872e+000	 4.172219106303193e-001	 1.070430400029190e+001
 3.584883496030281e+000	 4.526219435634038e-001	 1.071899479910190e+001
 3.580225858745636e+000	 4.880976295777195e-001	 1.072228207029914e+001
 3.575199810423550e+000	 5.236438953982293e-001	 1.071758544459527e+001
 3.569802494852850e+000	 5.592555762742565e-001	 1.070766202259248e+001
 3.564031141115022e+000	 5.949274173065841e-001	 1.069463305875213e+001
 3.557883066526630e+000	 6.306540748760147e-001	 1.068001750040182e+001
 3.551355679565987e+000	 6.664301181740676e-001	 1.066477334689413e+001
 3.544446482780284e+000	 7.022500308363556e-001	 1.067375448597987e+001
 3.623220702146641e+000	 3.492271929326405e-001	 1.061334296568233e+001
 3.619624001457956e+000	 3.847211126737331e-001	 1.066420457125353e+001
 3.615665288308592e+000	 4.203011839896183e-001	 1.069460157268148e+001
 3.611341445528634e+000	 4.559624840699787e-001	 1.070926053195577e+001
 3.606649432919778e+000	 4.916999955831460e-001	 1.071219896259704e+001
 3.601586290244921e+000	 5.275086078111761e-001	 1.070673697757556e+001
 3.596149140212859e+000	 5.633831178853564e-001	 1.069551384895261e+001
 3.590335191454546e+000	 5.993182321230999e-001	 1.068051038992503e+001
 3.584141741487224e+000	 6.353085674670475e-001	 1.066307812451687e+001
 3.577566179662699e+000	 6.713486530270642e-001	 1.064436699180167e+001
 3.570605990095922e+000	 7.074329317256695e-001	 1.065410813667321e+001
 3.649765683230813e+000	 3.517857533948059e-001	 1.061051630437786e+001
 3.646142631855923e+000	 3.875397139962905e-001	 1.066081051801103e+001
 3.642154915790480e+000	 4.233804573491110e-001	 1.069064637163299e+001
 3.637799395027112e+000	 4.593030245767192e-001	 1.070466130707396e+001
 3.633073007093982e+000	 4.953023615887200e-001	 1.070677585489283e+001
 3.627972770066271e+000	 5.313733202242620e-001	 1.070020102213108e+001
 3.622495785572755e+000	 5.675106594965961e-001	 1.068745041732931e+001
 3.616639241793862e+000	 6.037090469397646e-001	 1.067035806707011e+001
 3.610400416447522e+000	 6.399630600582474e-001	 1.065010293710951e+001
 3.603776679759039e+000	 6.762671878802548e-001	 1.062881399572514e+001
 3.596765497411132e+000	 7.126158326152124e-001	 1.063896355502494e+001
 3.335170424247629e+000	 6.607868237382245e-001	 1.089314900239155e+001
 3.328306588186820e+000	 6.945328805338576e-001	 1.091565289221374e+001
 3.321078955483442e+000	 7.283096007980534e-001	 1.093257204005029e+001
 3.313485459902493e+000	 7.621115520460923e-001	 1.094598613878334e+001
 3.305524134521356e+000	 7.959332281968499e-001	 1.095678454245797e+001
 3.297193114320970e+000	 8.297690515990592e-001	 1.096552441143335e+001
 3.288490638736053e+000	 8.636133751544897e-001	 1.097244324349734e+001
 3.279415054160485e+000	 8.974604845374922e-001	 1.097747120021649e+001
 3.269964816403906e+000	 9.313046005101889e-001	 1.098024307859489e+001
 3.260138493095666e+000	 9.651398813324287e-001	 1.098010979041215e+001
 3.249934766032135e+000	 9.989604252654352e-001	 1.097614922587494e+001
 3.361329931564333e+000	 6.659697246232672e-001	 1.086667960756897e+001
 3.354412258803586e+000	 6.999804696079965e-001	 1.089062070029751e+001
 3.347127935950537e+000	 7.340221185710896e-001	 1.090953294783385e+001
 3.339474880563621e+000	 7.680891964179748e-001	 1.092493559123339e+001
 3.331451110292614e+000	 8.021761538804227e-001	 1.093792498763217e+001
 3.323054745490133e+000	 8.362773695586973e-001	 1.094894812985989e+001
 3.314284011781863e+000	 8.703871520613905e-001	 1.095811357936575e+001
 3.305137242591581e+000	 9.044997422423740e-001	 1.096530506729425e+001
 3.295612881617041e+000	 9.386093155341523e-001	 1.097011595145359e+001
 3.285709485252758e+000	 9.727099843767159e-001	 1.097186155932645e+001
 3.275425724955747e+000	 1.006795800740831e+000	 1.096959075655653e+001
 3.387489438881134e+000	 6.711526255090805e-001	 1.083819406576187e+001
 3.380517929420490e+000	 7.054280586828631e-001	 1.086410110984767e+001
 3.373176916417826e+000	 7.397346363448024e-001	 1.088471196325919e+001
 3.365464301225001e+000	 7.740668407904772e-001	 1.090159086363427e+001
 3.357378086064188e+000	 8.084190795645522e-001	 1.091589733549584e+001
 3.348916376659676e+000	 8.427856875188232e-001	 1.092839029535658e+001
 3.340077384828114e+000	 8.771609289687061e-001	 1.093943412806446e+001
 3.330859431023175e+000	 9.115389999475941e-001	 1.094898896310779e+001
 3.321260946830720e+000	 9.459140305583734e-001	 1.095628305002422e+001
 3.311280477410429e+000	 9.802800874211785e-001	 1.096042200401931e+001
 3.300916683879955e+000	 1.014631176216317e+000	 1.096038089961541e+001
 3.413648946197965e+000	 6.763355263955971e-001	 1.080898009096878e+001
 3.406623600037462e+000	 7.108756477584002e-001	 1.083657847564799e+001
 3.399225896885227e+000	 7.454471541191478e-001	 1.085875211840870e+001
 3.391453721886553e+000	 7.800444851635687e-001	 1.087710171349304e+001
 3.383305061835990e+000	 8.146620052492226e-001	 1.089282036840294e+001
 3.374778007829510e+000	 8.492940054794386e-001	 1.090669703198026e+001
 3.365870757874714e+000	 8.839347058764533e-001	 1.091912189317556e+001
 3.356581619455178e+000	 9.185782576531858e-001	 1.093009394543903e+001
 3.346909012044858e+000	 9.532187455829028e-001	 1.093923091550637e+001
 3.336851469568601e+000	 9.878501904658823e-001	 1.094578175761025e+001
 3.326407642804696e+000	 1.022466551691976e+000	 1.094850952232747e+001
 3.439808453514761e+000	 6.815184272827487e-001	 1.077960017779138e+001
 3.432729270654426e+000	 7.163232368345508e-001	 1.080859439178536e+001
 3.425274877352659e+000	 7.511596718940811e-001	 1.083217723127878e+001
 3.417443142548179e+000	 7.860221295372193e-001	 1.085196564266866e+001
 3.409232037607928e+000	 8.209049309344189e-001	 1.086916606407936e+001
 3.400639638999539e+000	 8.558023234405421e-001	 1.088457714080036e+001
 3.391664130921576e+000	 8.907084827846498e-001	 1.089859440900003e+001
 3.382303807887502e+000	 9.256175153591826e-001	 1.091121715348701e+001
 3.372557077259375e+000	 9.605234606077897e-001	 1.092205764979249e+001
 3.362422461727200e+000	 9.954202935108940e-001	 1.093035300369693e+001
 3.351898601729900e+000	 1.030301927167889e+000	 1.093497284252828e+001
 3.465967960831457e+000	 6.867013281704680e-001	 1.075067183638737e+001
 3.458834941271304e+000	 7.217708259112585e-001	 1.078076067209773e+001
 3.451323857820038e+000	 7.568721896695587e-001	 1.080558368948846e+001
 3.443432563209798e+000	 7.919997739113979e-001	 1.082675480740161e+001
 3.435159013379911e+000	 8.271478566201258e-001	 1.084547449711809e+001
 3.426501270169675e+000	 8.623106414021357e-001	 1.086253174602540e+001
 3.417457503968606e+000	 8.974822596933118e-001	 1.087830798510124e+001
 3.408025996320059e+000	 9.326567730656179e-001	 1.089278319727460e+001
 3.398205142474186e+000	 9.678281756330857e-001	 1.090554442892179e+001
 3.387993453886149e+000	 1.002990396556281e+000	 1.091579693023598e+001
 3.377389560655498e+000	 1.038137302644139e+000	 1.092237208194844e+001
 3.492127468147986e+000	 6.918842290586874e-001	 1.072287870585026e+001
 3.484940611888026e+000	 7.272184149884663e-001	 1.075375761311166e+001
 3.477372838287284e+000	 7.625847074455355e-001	 1.077963843909386e+001
 3.469421983871323e+000	 7.979774182860747e-001	 1.080211372938966e+001
 3.461085989151848e+000	 8.333907823063274e-001	 1.082235965584505e+001
 3.452362901339824e+000	 8.688189593642191e-001	 1.084113718574100e+001
 3.443250877015715e+000	 9.042560366024566e-001	 1.085879520809558e+001
 3.433748184752760e+000	 9.396960307725260e-001	 1.087527584590247e+001
 3.423853207689207e+000	 9.751328906588402e-001	 1.089012218905144e+001
 3.413564446045371e+000	 1.010560499602108e+000	 1.090248049720901e+001
 3.402880519581427e+000	 1.045972678120808e+000	 1.091114916698662e+001
 3.518286975464283e+000	 6.970671299473390e-001	 1.069696908851907e+001
 3.511046282504512e+000	 7.326660040661169e-001	 1.072833226495397e+001
 3.503421818754312e+000	 7.682972252219673e-001	 1.075507698761650e+001
 3.495411404532665e+000	 8.039550626612186e-001	 1.077875702734474e+001
 3.487012964923652e+000	 8.396337079930085e-001	 1.080050689973072e+001
 3.478224532509898e+000	 8.753272773267932e-001	 1.082104219343324e+001
 3.469044250062812e+000	 9.110298135121011e-001	 1.084066184648726e+001
 3.459470373185520e+000	 9.467352884799398e-001	 1.085925261165925e+001
 3.449501272904357e+000	 9.824376056851036e-001	 1.087629595860496e+001
 3.439135438204790e+000	 1.018130602648443e+000	 1.089087048145990e+001
 3.428371478507617e+000	 1.053808053597977e+000	 1.090169579022154e+001
 3.544446482780284e+000	 7.022500308363556e-001	 1.067375448597987e+001
 3.537151953120691e+000	 7.381135931441537e-001	 1.070529670982628e+001
 3.529470799221043e+000	 7.740097429988094e-001	 1.073270142055075e+001
 3.521400825193738e+000	 8.099327070367999e-001	 1.075746716797124e+001
 3.512939940695230e+000	 8.458766336801536e-001	 1.078067044216929e+001
 3.504086163679800e+000	 8.818355952898579e-001	 1.080296511080586e+001
 3.494837623109805e+000	 9.178035904222620e-001	 1.082458379268078e+001
 3.485192561618248e+000	 9.537745461878934e-001	 1.084534142131889e+001
 3.475149338119550e+000	 9.897423207119256e-001	 1.086464125988641e+001
 3.464706430364329e+000	 1.025700705695351e+000	 1.088147735378889e+001
 3.453862437434002e+000	 1.061643429075729e+000	 1.089447371999996e+001
 3.570605990095922e+000	 7.074329317256695e-001	 1.065410813667321e+001
 3.563257623736486e+000	 7.435611822225200e-001	 1.068552634765251e+001
 3.555519779687395e+000	 7.797222607760181e-001	 1.071337843065945e+001
 3.547390245854455e+000	 8.159103514127873e-001	 1.073909223537070e+001
 3.538866916466492e+000	 8.521195593677474e-001	 1.076367085732523e+001
 3.529947794849443e+000	 8.883439132534144e-001	 1.078769113028629e+001
 3.520630996156604e+000	 9.245773673329562e-001	 1.081130404026408e+001
 3.510914750050856e+000	 9.608138038964199e-001	 1.083423732822825e+001
 3.500797403334707e+000	 9.970470357393572e-001	 1.085580055691984e+001
 3.490277422523912e+000	 1.033270808742900e+000	 1.087488745207991e+001
 3.479353396360510e+000	 1.069478804554146e+000	 1.089001072633678e+001
 3.596765497411132e+000	 7.126158326152124e-001	 1.063896355502494e+001
 3.589363294351825e+000	 7.490087713011588e-001	 1.066995818853560e+001
 3.581568760153285e+000	 7.854347785535488e-001	 1.069803735940571e+001
 3.573379666514728e+000	 8.218879957891508e-001	 1.072454371793404e+001
 3.564793892237348e+000	 8.583624850557747e-001	 1.075039260982089e+001
 3.555809426018735e+000	 8.948522312174628e-001	 1.077606956570978e+001
 3.546424369203119e+000	 9.313511442442009e-001	 1.080162969476704e+001
 3.536636938483259e+000	 9.678530616055532e-001	 1.082669926310845e+001
 3.526445468549742e+000	 1.004351750767448e+000	 1.085047974716092e+001
 3.515848414683465e+000	 1.040840911791156e+000	 1.087174991002184e+001
 3.504844355287081e+000	 1.077314180033311e+000	 1.088889656068133e+001
 3.249934766032135e+000	 9.989604252654352e-001	 1.097614922587494e+001
 3.239352432650741e+000	 1.032760272672935e+000	 1.097651444989811e+001
 3.228390405810319e+000	 1.066533407174408e+000	 1.098852766057374e+001
 3.217047718379721e+000	 1.100273759821121e+000	 1.100958981563048e+001
 3.205323526137257e+000	 1.133975212443531e+000	 1.103687827608183e+001
 3.193217109782673e+000	 1.167631600601917e+000	 1.106734300403400e+001
 3.180727876869459e+000	 1.201236716620890e+000	 1.109771344749985e+001
 3.167855363653740e+000	 1.234784312705469e+000	 1.112450449439556e+001
 3.154599236856098e+000	 1.268268104136253e+000	 1.114402153944745e+001
 3.140959295332737e+000	 1.301681772541035e+000	 1.115236473292944e+001
 3.126935471652506e+000	 1.335018969240017e+000	 1.114552558332412e+001
 3.275425724955747e+000	 1.006795800740831e+000	 1.096959075655653e+001
 3.264760388731105e+000	 1.040860758245642e+000	 1.097149211381856e+001
 3.253712380910649e+000	 1.074898793320969e+000	 1.098477197634334e+001
 3.242280726777507e+000	 1.108903789416095e+000	 1.100658165477612e+001
 3.230464575488312e+000	 1.142869580373430e+000	 1.103384084547779e+001
 3.218263202100959e+000	 1.176789953402282e+000	 1.106323518436712e+001
 3.205676009522064e+000	 1.210658652137173e+000	 1.109122297641918e+001
 3.192702530370364e+000	 1.244469379778354e+000	 1.111404083996628e+001
 3.179342428752352e+000	 1.278215802312035e+000	 1.112770831320350e+001
 3.165595501946556e+000	 1.311891551807666e+000	 1.112803149733048e+001
 3.151461681992926e+000	 1.345490229789387e+000	 1.111516361060680e+001
 3.300916683879955e+000	 1.014631176216317e+000	 1.096038089961541e+001
 3.290168344812070e+000	 1.048961243818355e+000	 1.096427864293140e+001
 3.279034356011567e+000	 1.083264179467451e+000	 1.097907385299788e+001
 3.267513735175860e+000	 1.117533819010909e+000	 1.100168558309502e+001
 3.255605624839903e+000	 1.151763948303092e+000	 1.102878736356492e+001
 3.243309294419742e+000	 1.185948306202339e+000	 1.105681500852130e+001
 3.230624142175128e+000	 1.220080587653086e+000	 1.108197314492222e+001
 3.217549697087408e+000	 1.254154446850814e+000	 1.110024048668536e+001
 3.204085620648994e+000	 1.288163500487353e+000	 1.110737390507520e+001
 3.190231708560741e+000	 1.322101331073807e+000	 1.109891137556035e+001
 3.175987892333698e+000	 1.355961490338257e+000	 1.108548437285637e+001
 3.326407642804696e+000	 1.022466551691976e+000	 1.094850952232747e+001
 3.315576300893580e+000	 1.057061729391170e+000	 1.095486497802405e+001
 3.304356331113032e+000	 1.091629565613964e+000	 1.097146180783273e+001
 3.292746743574746e+000	 1.126163848605684e+000	 1.099498499126888e+001
 3.280746674192009e+000	 1.160658316232648e+000	 1.102187345342750e+001
 3.268355386739016e+000	 1.195106659002230e+000	 1.104832781071519e+001
 3.255572274828653e+000	 1.229502523168778e+000	 1.107031665133765e+001
 3.242396863804885e+000	 1.263839513923010e+000	 1.108358137519219e+001
 3.228828812546041e+000	 1.298111198662370e+000	 1.108363964838159e+001
 3.214867915175308e+000	 1.332311110339624e+000	 1.106578755858154e+001
 3.200514102674839e+000	 1.366432750886795e+000	 1.105686139618915e+001
 3.351898601729900e+000	 1.030301927167889e+000	 1.093497284252828e+001
 3.340984256975579e+000	 1.065162214964183e+000	 1.094350265798427e+001
 3.329678306214996e+000	 1.099994951760619e+000	 1.096208105925563e+001
 3.317979751974136e+000	 1.134793878200544e+000	 1.098667236218839e+001
 3.305887723544611e+000	 1.169552684162233e+000	 1.101335481888306e+001
 3.293401479058773e+000	 1.204265011802098e+000	 1.103810864092858e+001
 3.280520407482643e+000	 1.238924458684402e+000	 1.105668424383830e+001
 3.267244030522806e+000	 1.273524580995097e+000	 1.106460658501509e+001
 3.253572004443512e+000	 1.308058896837248e+000	 1.105717791846323e+001
 3.239504121790274e+000	 1.342520889605283e+000	 1.103184082088153e+001
 3.225040313016362e+000	 1.376904011435166e+000	 1.102966570129991e+001
 3.377389560655498e+000	 1.038137302644139e+000	 1.092237208194844e+001
 3.366392213058008e+000	 1.073262700537491e+000	 1.093254625336666e+001
 3.355000281317417e+000	 1.108360337907524e+000	 1.095211520299175e+001
 3.343212760373997e+000	 1.143423907795610e+000	 1.097719848171942e+001
 3.331028772897689e+000	 1.178447052091981e+000	 1.100357780874700e+001
 3.318447571379005e+000	 1.213423364602087e+000	 1.102657240328819e+001
 3.305468540137102e+000	 1.248346394200107e+000	 1.104157445754488e+001
 3.292091197241183e+000	 1.283209648067234e+000	 1.104391369528344e+001
 3.278315196341421e+000	 1.318006595012151e+000	 1.102870114218892e+001
 3.264140328405664e+000	 1.352730668870948e+000	 1.100096358127957e+001
 3.249566523358288e+000	 1.387375271983537e+000	 1.100426495659140e+001
 3.402880519581427e+000	 1.045972678120808e+000	 1.091114916698662e+001
 3.391800169140812e+000	 1.081363186111191e+000	 1.092300229684080e+001
 3.380322256420250e+000	 1.116725724054792e+000	 1.094342931742876e+001
 3.368445768774295e+000	 1.152053937391004e+000	 1.096841407601567e+001
 3.356169822251226e+000	 1.187341420022024e+000	 1.099359313284003e+001
 3.343493663699706e+000	 1.222581717402338e+000	 1.101428891235690e+001
 3.330416672792031e+000	 1.257768329716046e+000	 1.102554342784703e+001
 3.316938363960027e+000	 1.292894715139578e+000	 1.102214421830281e+001
 3.303058388239788e+000	 1.327954293187240e+000	 1.099895087561247e+001
 3.288776535021494e+000	 1.362940448136786e+000	 1.097344794889711e+001
 3.274092733700633e+000	 1.397846532532076e+000	 1.098102268606414e+001
 3.428371478507617e+000	 1.053808053597977e+000	 1.090169579022154e+001
 3.417208125223934e+000	 1.089463671685380e+000	 1.091521502320238e+001
 3.405644231523448e+000	 1.125091110202530e+000	 1.093636851739126e+001
 3.393678777175000e+000	 1.160683966986851e+000	 1.096102143107412e+001
 3.381310871605199e+000	 1.196235787952496e+000	 1.098467689260997e+001
 3.368539756020867e+000	 1.231740070202997e+000	 1.100250880995261e+001
 3.355364805447436e+000	 1.267190265232369e+000	 1.100939921782822e+001
 3.341785530679351e+000	 1.302579782212286e+000	 1.099998036622443e+001
 3.327801580138630e+000	 1.337901991362676e+000	 1.096920850336685e+001
 3.313412741637784e+000	 1.373150227402962e+000	 1.094955689007116e+001
 3.298618944043411e+000	 1.408317793080948e+000	 1.096029752911649e+001
 3.453862437434002e+000	 1.061643429075729e+000	 1.089447371999996e+001
 3.442616081307318e+000	 1.097564157260154e+000	 1.090959794304336e+001
 3.430966206626969e+000	 1.133456496350850e+000	 1.093131932952669e+001
 3.418911785576080e+000	 1.169313996583270e+000	 1.095540171786247e+001
 3.406451920959592e+000	 1.205130155883531e+000	 1.097723321775363e+001
 3.393585848342482e+000	 1.240898423004204e+000	 1.099185859326715e+001
 3.380312938103318e+000	 1.276612200749228e+000	 1.099401632941647e+001
 3.366632697399166e+000	 1.312264849285518e+000	 1.097818060249711e+001
 3.352544772037962e+000	 1.347849689538625e+000	 1.094361669954398e+001
 3.338048948254552e+000	 1.383360006669642e+000	 1.092954265968486e+001
 3.323145154386643e+000	 1.418789053630321e+000	 1.094244254957265e+001
 3.479353396360510e+000	 1.069478804554146e+000	 1.089001072633678e+001
 3.468024037390906e+000	 1.105664642835609e+000	 1.090662952499836e+001
 3.456288181730765e+000	 1.141821882499862e+000	 1.092873142090228e+001
 3.444144793977504e+000	 1.177944026180386e+000	 1.095199669302218e+001
 3.431592970314385e+000	 1.214024523815262e+000	 1.097171720102356e+001
 3.418631940664544e+000	 1.250056775806104e+000	 1.098282825259935e+001
 3.405261070759681e+000	 1.286034136266774e+000	 1.097994530078307e+001
 3.391479864119481e+000	 1.321949916359429e+000	 1.095740570886473e+001
 3.377287963937803e+000	 1.357797387715248e+000	 1.092293434533592e+001
 3.362685154871818e+000	 1.393569785936990e+000	 1.091336150301041e+001
 3.347671364730342e+000	 1.429260314180360e+000	 1.092769775125602e+001
 3.504844355287081e+000	 1.077314180033311e+000	 1.088889656068133e+001
 3.493431993474643e+000	 1.113765128411843e+000	 1.090684893611649e+001
 3.481610156834797e+000	 1.150187268649676e+000	 1.092911312724259e+001
 3.469377802379237e+000	 1.186574055778320e+000	 1.095130404237026e+001
 3.456734019669560e+000	 1.222918891747823e+000	 1.096863645262488e+001
 3.443678032987045e+000	 1.259215128608840e+000	 1.097595624957070e+001
 3.430209203416529e+000	 1.295456071785157e+000	 1.096777667995796e+001
 3.416327030840312e+000	 1.331634983434178e+000	 1.093831981342087e+001
 3.402031155838170e+000	 1.367745085892707e+000	 1.090734729449268e+001
 3.387321361489601e+000	 1.403779565205173e+000	 1.090115613742823e+001
 3.372197575074528e+000	 1.439731574731234e+000	 1.091598332056363e+001
 3.126935471652506e+000	 1.335018969240017e+000	 1.114552558332412e+001
 3.112530023792000e+000	 1.368268337568320e+000	 1.113803819741920e+001
 3.097741083326226e+000	 1.401428489062056e+000	 1.113928750919431e+001
 3.082568994673866e+000	 1.434493009528169e+000	 1.114759012126589e+001
 3.067014241170958e+000	 1.467455468599930e+000	 1.116111700562971e+001
 3.051077446124150e+000	 1.500309423398188e+000	 1.117790357764437e+001
 3.034759373751101e+000	 1.533048422245595e+000	 1.119586146359819e+001
 3.018060930005414e+000	 1.565666008429837e+000	 1.121279195803112e+001
 3.000983163283562e+000	 1.598155724011803e+000	 1.122640115287362e+001
 2.983527265011496e+000	 1.630511113674446e+000	 1.123431670597622e+001
 2.965694570108715e+000	 1.662725728608005e+000	 1.123410620184856e+001
 3.151461681992926e+000	 1.345490229789387e+000	 1.111516361060680e+001
 3.136943244578563e+000	 1.379000390515981e+000	 1.111643583982365e+001
 3.122038306623422e+000	 1.412420634633105e+000	 1.112470004629801e+001
 3.106747215247636e+000	 1.445744497637801e+000	 1.113842495382372e+001
 3.091070457578299e+000	 1.478965498726574e+000	 1.115594246674989e+001
 3.075008661810973e+000	 1.512077144485368e+000	 1.117545779406833e+001
 3.058562598157479e+000	 1.545072932632920e+000	 1.119506133075632e+001
 3.041733179677284e+000	 1.577946355813512e+000	 1.121274229338800e+001
 3.024521462989988e+000	 1.610690905435004e+000	 1.122640409228418e+001
 3.006928648866512e+000	 1.643300075547886e+000	 1.123388140732340e+001
 2.988956082696837e+000	 1.675767366760974e+000	 1.123295891910837e+001
 3.175987892333698e+000	 1.355961490338257e+000	 1.108548437285637e+001
 3.161356465365481e+000	 1.389732443463149e+000	 1.109401066638193e+001
 3.146335529920983e+000	 1.423412780203684e+000	 1.110809450145205e+001
 3.130925435821790e+000	 1.456995985746995e+000	 1.112633892429573e+001
 3.115126673986046e+000	 1.490475528852819e+000	 1.114721709616924e+001
 3.098939877498229e+000	 1.523844865572194e+000	 1.116908248368281e+001
 3.082365822564309e+000	 1.557097443019938e+000	 1.119018087696857e+001
 3.065405429349620e+000	 1.590226703196920e+000	 1.120866423361641e+001
 3.048059762696877e+000	 1.623226086857971e+000	 1.122260633088671e+001
 3.030330032721980e+000	 1.656089037421116e+000	 1.123002019287029e+001
 3.012217595285378e+000	 1.688809004913743e+000	 1.122887724312664e+001
 3.200514102674839e+000	 1.366432750886795e+000	 1.105686139618915e+001
 3.185769686152757e+000	 1.400464496409990e+000	 1.107125090327032e+001
 3.170632753218907e+000	 1.434404925773955e+000	 1.109005292904586e+001
 3.155103656396314e+000	 1.468247473855910e+000	 1.111198759436633e+001
 3.139182890394172e+000	 1.501985558978823e+000	 1.113565019173461e+001
 3.122871093185870e+000	 1.535612586658817e+000	 1.115952145765061e+001
 3.106169046971531e+000	 1.569121953406790e+000	 1.118197975041306e+001
 3.089077679022347e+000	 1.602507050580201e+000	 1.120131513228839e+001
 3.071598062404153e+000	 1.635761268280842e+000	 1.121574533883241e+001
 3.053731416577815e+000	 1.668877999294270e+000	 1.122343360157945e+001
 3.035479107874254e+000	 1.701850643066445e+000	 1.122250827342646e+001
 3.225040313016362e+000	 1.376904011435166e+000	 1.102966570129991e+001
 3.210182906940405e+000	 1.411196549356671e+000	 1.104863797031965e+001
 3.194929976517193e+000	 1.445397071344083e+000	 1.107114708234346e+001
 3.179281876971192e+000	 1.479498961964707e+000	 1.109601352110431e+001
 3.163239106802647e+000	 1.513495589104740e+000	 1.112193611825187e+001
 3.146802308873855e+000	 1.547380307745388e+000	 1.114750242314480e+001
 3.129972271379087e+000	 1.581146463793625e+000	 1.117120106286335e+001
 3.112749928695398e+000	 1.614787397963496e+000	 1.119143609241151e+001
 3.095136362111731e+000	 1.648296449703754e+000	 1.120654331820546e+001
 3.077132800433933e+000	 1.681666961167483e+000	 1.121480856060893e+001
 3.058740620463381e+000	 1.714892281219213e+000	 1.121448780359822e+001
 3.249566523358288e+000	 1.387375271983537e+000	 1.100426495659140e+001
 3.234596127728435e+000	 1.421928602303357e+000	 1.102664583821769e+001
 3.219227199815839e+000	 1.456389216914231e+000	 1.105193795059257e+001
 3.203460097546411e+000	 1.490750450073546e+000	 1.107904595031646e+001
 3.187295323211441e+000	 1.525005619230725e+000	 1.110675413394478e+001
 3.170733524562135e+000	 1.559148028832056e+000	 1.113373692031315e+001
 3.153775495786916e+000	 1.593170974180589e+000	 1.115857141511902e+001
 3.136422178368696e+000	 1.627067745346946e+000	 1.117975205886108e+001
 3.118674661819536e+000	 1.660831631126843e+000	 1.119570734158670e+001
 3.100534184290246e+000	 1.694455923040890e+000	 1.120481854974967e+001
 3.082002133052676e+000	 1.727933919372181e+000	 1.120544049197850e+001
 3.274092733700633e+000	 1.397846532532076e+000	 1.098102268606414e+001
 3.259009348516858e+000	 1.432660655250213e+000	 1.100574043307590e+001
 3.243524423114846e+000	 1.467381362484561e+000	 1.103297533727226e+001
 3.227638318121956e+000	 1.502001938182587e+000	 1.106170054596058e+001
 3.211351539620524e+000	 1.536515649356934e+000	 1.109076824901388e+001
 3.194664740250668e+000	 1.570915749918973e+000	 1.111892028847804e+001
 3.177578720194960e+000	 1.605195484567825e+000	 1.114480094987069e+001
 3.160094428042173e+000	 1.639348092730692e+000	 1.116697193748357e+001
 3.142212961527484e+000	 1.673366812550247e+000	 1.118392951753053e+001
 3.123935568146673e+000	 1.707244884914625e+000	 1.119412379398962e+001
 3.105263645642055e+000	 1.740975557525482e+000	 1.119598006261274e+001
 3.298618944043411e+000	 1.408317793080948e+000	 1.096029752911649e+001
 3.283422569305680e+000	 1.443392708197407e+000	 1.098637908589498e+001
 3.267821646414211e+000	 1.478373508055239e+000	 1.101479747733843e+001
 3.251816538697812e+000	 1.513253426291988e+000	 1.104457915374120e+001
 3.235407756029868e+000	 1.548025679483521e+000	 1.107462711462535e+001
 3.218595955939409e+000	 1.582683471006288e+000	 1.110373166004944e+001
 3.201381944603160e+000	 1.617219994955479e+000	 1.113058343057301e+001
 3.183766677715757e+000	 1.651628440114874e+000	 1.115378873948213e+001
 3.165751261235494e+000	 1.685901993974103e+000	 1.117188718155228e+001
 3.147336952003127e+000	 1.720033846788822e+000	 1.118337148274180e+001
 3.128525158231437e+000	 1.754017195679249e+000	 1.118670953492590e+001
 3.323145154386643e+000	 1.418789053630321e+000	 1.094244254957265e+001
 3.307835790094914e+000	 1.454124761145104e+000	 1.096901002460930e+001
 3.292118869713935e+000	 1.489365653626425e+000	 1.099793069145180e+001
 3.275994759273966e+000	 1.524504914401911e+000	 1.102826959712184e+001
 3.259463972439443e+000	 1.559535709610643e+000	 1.105896394075814e+001
 3.242527171628312e+000	 1.594451192094152e+000	 1.108883398072049e+001
 3.225185169011457e+000	 1.629244505343696e+000	 1.111659634498030e+001
 3.207438927389378e+000	 1.663908787499634e+000	 1.114087974977922e+001
 3.189289560943490e+000	 1.698437175398548e+000	 1.116024311130966e+001
 3.170738335859523e+000	 1.732822808663616e+000	 1.117319601435827e+001
 3.151786670820736e+000	 1.767058833833616e+000	 1.117822148061768e+001
 3.347671364730342e+000	 1.429260314180360e+000	 1.092769775125602e+001
 3.332249010884568e+000	 1.464856814093469e+000	 1.095407190652755e+001
 3.316416093014018e+000	 1.500357799198286e+000	 1.098288907529198e+001
 3.300172979850403e+000	 1.535756402512514e+000	 1.101334550409175e+001
 3.283520188849219e+000	 1.571045739738455e+000	 1.104439644142823e+001
 3.266458387317334e+000	 1.606218913182716e+000	 1.107487405459637e+001
 3.248988393419791e+000	 1.641269015732624e+000	 1.110350103208175e+001
 3.231111177062963e+000	 1.676189134885112e+000	 1.112890671812611e+001
 3.212827860651388e+000	 1.710972356823719e+000	 1.114964576473690e+001
 3.194139719715778e+000	 1.745611770539141e+000	 1.116421926463308e+001
 3.175048183409871e+000	 1.780100471988717e+000	 1.117109830638627e+001
 3.372197575074528e+000	 1.439731574731234e+000	 1.091598332056363e+001
 3.356662231674654e+000	 1.475588867042669e+000	 1.094168543542888e+001
 3.340713316314456e+000	 1.511349944770984e+000	 1.097014152465982e+001
 3.324351200427108e+000	 1.547007890623957e+000	 1.100036616312085e+001
 3.307576405259167e+000	 1.582555769867112e+000	 1.103152680589755e+001
 3.290389603006430e+000	 1.617986634272130e+000	 1.106248261298837e+001
 3.272791617828106e+000	 1.653293526122406e+000	 1.109194283124346e+001
 3.254783426736442e+000	 1.688469482271450e+000	 1.111851607180076e+001
 3.236366160359109e+000	 1.723507538249754e+000	 1.114072953996278e+001
 3.217541103571808e+000	 1.758400732415532e+000	 1.115705087807331e+001
 3.198309695998757e+000	 1.793142110144684e+000	 1.116591256116553e+001
 2.965694570108715e+000	 1.662725728608005e+000	 1.123410620184856e+001
 2.947483798177338e+000	 1.694797929960343e+000	 1.123170579137513e+001
 2.928899221696398e+000	 1.726716448985847e+000	 1.123380253445480e+001
 2.909942610804364e+000	 1.758474879052459e+000	 1.123909236105925e+001
 2.890615879789327e+000	 1.790066835929240e+000	 1.124633919924168e+001
 2.870921086910895e+000	 1.821485961785593e+000	 1.125439824856004e+001
 2.850860434090400e+000	 1.852725929198409e+000	 1.126224015675039e+001
 2.830436266468553e+000	 1.883780445162080e+000	 1.126897595491210e+001
 2.809651071830005e+000	 1.914643255096348e+000	 1.127388259438558e+001
 2.788507479894426e+000	 1.945308146846862e+000	 1.127642891730071e+001
 2.767008261473969e+000	 1.975768954673289e+000	 1.127630188257445e+001
 2.988956082696837e+000	 1.675767366760974e+000	 1.123295891910837e+001
 2.970602474040236e+000	 1.708091127367755e+000	 1.122999416566884e+001
 2.951872128887056e+000	 1.740260000235878e+000	 1.123177438794093e+001
 2.932766831259906e+000	 1.772267528482681e+000	 1.123672828139106e+001
 2.913288510461653e+000	 1.804107277802321e+000	 1.124334023144652e+001
 2.893439240895929e+000	 1.835772840496374e+000	 1.125017491951573e+001
 2.873221241754907e+000	 1.867257839512400e+000	 1.125590292471948e+001
 2.852636876573476e+000	 1.898555932485417e+000	 1.125932716980070e+001
 2.831688652649308e+000	 1.929660815777189e+000	 1.125941004686373e+001
 2.810379220328354e+000	 1.960566228508146e+000	 1.125530104669604e+001
 2.788711372155723e+000	 1.991265956576792e+000	 1.124636470457249e+001
 3.012217595285378e+000	 1.688809004913743e+000	 1.122887724312664e+001
 2.993721149903497e+000	 1.721384324774959e+000	 1.122575043665838e+001
 2.974845036078005e+000	 1.753803551485679e+000	 1.122735063361778e+001
 2.955591051715656e+000	 1.786060177912640e+000	 1.123185244926203e+001
 2.935961141134095e+000	 1.818147719675097e+000	 1.123747439680365e+001
 2.915957394880990e+000	 1.850059719206805e+000	 1.124250484874432e+001
 2.895582049419351e+000	 1.881789749825994e+000	 1.124532908845807e+001
 2.874837486678263e+000	 1.913331419808317e+000	 1.124445729348120e+001
 2.853726233468411e+000	 1.944678376457553e+000	 1.123855327839362e+001
 2.832250960762047e+000	 1.975824310168927e+000	 1.122646381255597e+001
 2.810414482837230e+000	 2.006762958479779e+000	 1.120831384503311e+001
 3.035479107874254e+000	 1.701850643066445e+000	 1.122250827342647e+001
 3.016839825767045e+000	 1.734677522182089e+000	 1.121956793788045e+001
 2.997817943269185e+000	 1.767347102735386e+000	 1.122108602541725e+001
 2.978415272171568e+000	 1.799852827342473e+000	 1.122499570761652e+001
 2.958633771806631e+000	 1.832188161547714e+000	 1.122926274533281e+001
 2.938475548866074e+000	 1.864346597917032e+000	 1.123191282968601e+001
 2.917942857083756e+000	 1.896321660139343e+000	 1.123106011006550e+001
 2.897038096782951e+000	 1.928106907130930e+000	 1.122493674337802e+001
 2.875763814287376e+000	 1.959695937137597e+000	 1.121192328440758e+001
 2.854122701195575e+000	 1.991082391829359e+000	 1.119057972379718e+001
 2.832117593518570e+000	 2.022259960382399e+000	 1.117114623557516e+001
 3.058740620463381e+000	 1.714892281219213e+000	 1.121448780359822e+001
 3.039958501630808e+000	 1.747970719589279e+000	 1.121203115129531e+001
 3.020790850460532e+000	 1.780890653985136e+000	 1.121352858631027e+001
 3.001239492627601e+000	 1.813645476772324e+000	 1.121668395966666e+001
 2.981306402479240e+000	 1.846228603420313e+000	 1.121922285342333e+001
 2.960993702851183e+000	 1.878633476627206e+000	 1.121892132731242e+001
 2.940303664748140e+000	 1.910853570452599e+000	 1.121363595153688e+001
 2.919238706887588e+000	 1.942882394453412e+000	 1.120133495250201e+001
 2.897801395106262e+000	 1.974713497817474e+000	 1.118013028307998e+001
 2.875994441629014e+000	 2.006340473489594e+000	 1.114923041560967e+001
 2.853820704199826e+000	 2.037756962284804e+000	 1.113714436539243e+001
 3.082002133052676e+000	 1.727933919372181e+000	 1.120544049197850e+001
 3.063077177494705e+000	 1.761263916996664e+000	 1.120371588318952e+001
 3.043763757651986e+000	 1.794434205235065e+000	 1.120521980625654e+001
 3.024063713083709e+000	 1.827438126202331e+000	 1.120743840517953e+001
 3.003979033151893e+000	 1.860269045293039e+000	 1.120786911419260e+001
 2.983511856836313e+000	 1.892920355337473e+000	 1.120405083771256e+001
 2.962664472412528e+000	 1.925385480765913e+000	 1.119359551813293e+001
 2.941439316992212e+000	 1.957657881775916e+000	 1.117422091054315e+001
 2.919838975925133e+000	 1.989731058497339e+000	 1.114378436744156e+001
 2.897866182062439e+000	 2.021598555149789e+000	 1.111090683184124e+001
 2.875523814881082e+000	 2.053253964187143e+000	 1.110677592836159e+001
 3.105263645642055e+000	 1.740975557525482e+000	 1.119598006261274e+001
 3.086195853358668e+000	 1.774557114404378e+000	 1.119518947261888e+001
 3.066736664843483e+000	 1.807977756485311e+000	 1.119669487424518e+001
 3.046887933539847e+000	 1.841230775632634e+000	 1.119777581171732e+001
 3.026651663824572e+000	 1.874309487166035e+000	 1.119571306298973e+001
 3.006030010821464e+000	 1.907207234047981e+000	 1.118782028236721e+001
 2.985025280076941e+000	 1.939917391079437e+000	 1.117147713535452e+001
 2.963639927096867e+000	 1.972433369098596e+000	 1.114416373687642e+001
 2.941876556744047e+000	 2.004748619177347e+000	 1.110400020667359e+001
 2.919737922495926e+000	 2.036856636810096e+000	 1.107783493150615e+001
 2.897226925562421e+000	 2.068750966089566e+000	 1.108048211883325e+001
 3.128525158231437e+000	 1.754017195679249e+000	 1.118670953492590e+001
 3.109314529222616e+000	 1.787850311812554e+000	 1.118701103069922e+001
 3.089709572034964e+000	 1.821521307736009e+000	 1.118848294265200e+001
 3.069712153995974e+000	 1.855023425063373e+000	 1.118820881901014e+001
 3.049324294497249e+000	 1.888349929039446e+000	 1.118326373621532e+001
 3.028548164806635e+000	 1.921494112758879e+000	 1.117074743530708e+001
 3.007386087741395e+000	 1.954449301393320e+000	 1.114781905777293e+001
 2.985840537201595e+000	 1.987208856421605e+000	 1.111173328382075e+001
 2.963914137563063e+000	 2.019766179857653e+000	 1.106852477493729e+001
 2.941609662929547e+000	 2.052114718470668e+000	 1.105038209880035e+001
 2.918930036243927e+000	 2.084247967992224e+000	 1.105867805209707e+001
 3.151786670820736e+000	 1.767058833833616e+000	 1.117822148061768e+001
 3.132433205086475e+000	 1.801143509221328e+000	 1.117973170915011e+001
 3.112682479226364e+000	 1.835064858987296e+000	 1.118110742224363e+001
 3.092536374452043e+000	 1.868816074494688e+000	 1.117924627475068e+001
 3.071996925169904e+000	 1.902390370913415e+000	 1.117102806173557e+001
 3.051066318791824e+000	 1.935780991470312e+000	 1.115334938145520e+001
 3.029746895405916e+000	 1.968981211707714e+000	 1.112316000806925e+001
 3.008041147306436e+000	 2.001984343745096e+000	 1.107758622523590e+001
 2.985951718382243e+000	 2.034783740538410e+000	 1.104004364482485e+001
 2.963481403363379e+000	 2.067372800131659e+000	 1.102889134727302e+001
 2.940633146925679e+000	 2.099744969895266e+000	 1.104175320590626e+001
 3.175048183409871e+000	 1.780100471988717e+000	 1.117109830638627e+001
 3.155551880950169e+000	 1.814436706630833e+000	 1.117389499659264e+001
 3.135655386417623e+000	 1.848608410239309e+000	 1.117508630625680e+001
 3.115360594908013e+000	 1.882608723926719e+000	 1.117139360019870e+001
 3.094669555842513e+000	 1.916430812788086e+000	 1.115951127927090e+001
 3.073584472777031e+000	 1.950067870182429e+000	 1.113614300455481e+001
 3.052107703070523e+000	 1.983513122022769e+000	 1.109803974473517e+001
 3.030241757411437e+000	 2.016759831069224e+000	 1.104806423003468e+001
 3.007989299201648e+000	 2.049801301219773e+000	 1.101884014033428e+001
 2.985353143797493e+000	 2.082630881793222e+000	 1.101368170208811e+001
 2.962336257607764e+000	 2.115241971798842e+000	 1.103007188198114e+001
 3.198309695998757e+000	 1.793142110144684e+000	 1.116591256116553e+001
 3.178670556813624e+000	 1.827729904041205e+000	 1.117003704118694e+001
 3.158628293608679e+000	 1.862151961492185e+000	 1.117093252207278e+001
 3.138184815363838e+000	 1.896401373359606e+000	 1.116515318407823e+001
 3.117342186515054e+000	 1.930471254663603e+000	 1.114921738923299e+001
 3.096102626762256e+000	 1.964354748895379e+000	 1.111964550317618e+001
 3.074468510735240e+000	 1.998045032338640e+000	 1.107299965697412e+001
 3.052442367516636e+000	 2.031535318394142e+000	 1.102699364309161e+001
 3.030026880021336e+000	 2.064818861901898e+000	 1.100517486269397e+001
 3.007224884231966e+000	 2.097888963455511e+000	 1.100504860398011e+001
 2.984039368290266e+000	 2.130738973703105e+000	 1.102397368647466e+001
 2.767008261473969e+000	 1.975768954673289e+000	 1.127630188257445e+001
 2.745156326716522e+000	 2.006019562551172e+000	 1.125830682376222e+001
 2.722954721676198e+000	 2.036053906072851e+000	 1.123376679477223e+001
 2.700406629454409e+000	 2.065865978303493e+000	 1.121445666709975e+001
 2.677515369617984e+000	 2.095449834330041e+000	 1.119831383136024e+001
 2.654284396700450e+000	 2.124799595113841e+000	 1.118392466843453e+001
 2.630717298573514e+000	 2.153909451300075e+000	 1.117302175250968e+001
 2.606817794690175e+000	 2.182773666978905e+000	 1.116492073381472e+001
 2.582589734201157e+000	 2.211386583393304e+000	 1.115831023203152e+001
 2.558037093946534e+000	 2.239742622588618e+000	 1.115171717184232e+001
 2.533163976324692e+000	 2.267836290998960e+000	 1.114351904472812e+001
 2.788711372155723e+000	 1.991265956576792e+000	 1.124636470457249e+001
 2.766688041105134e+000	 2.021753835987452e+000	 1.122734639875650e+001
 2.744312297122522e+000	 2.052023754766099e+000	 1.121178443723214e+001
 2.721587348276045e+000	 2.082069658862324e+000	 1.119968269632933e+001
 2.698516540169660e+000	 2.111885556733959e+000	 1.118926989722221e+001
 2.675103354432631e+000	 2.141465523229930e+000	 1.117879322648741e+001
 2.651351407078246e+000	 2.170803703429568e+000	 1.116752281512111e+001
 2.627264446733149e+000	 2.199894316433246e+000	 1.115767019511914e+001
 2.602846352738986e+000	 2.228731659099303e+000	 1.114863488494359e+001
 2.578101133128303e+000	 2.257310109722225e+000	 1.113937274430672e+001
 2.553032922476773e+000	 2.285624131647170e+000	 1.112869077285897e+001
 2.810414482837230e+000	 2.006762958479779e+000	 1.120831384503311e+001
 2.788219755493519e+000	 2.037488109423218e+000	 1.119719280809981e+001
 2.765669872568660e+000	 2.067993603458853e+000	 1.118943796037721e+001
 2.742768067097567e+000	 2.098273339420692e+000	 1.118353266409972e+001
 2.719517710721304e+000	 2.128321279137459e+000	 1.117798408013787e+001
 2.695922312164874e+000	 2.158131451345657e+000	 1.117132863535212e+001
 2.671985515583138e+000	 2.187697955558761e+000	 1.116213736593838e+001
 2.647711098776373e+000	 2.217014965887358e+000	 1.115056711822296e+001
 2.623102971277156e+000	 2.246076734805151e+000	 1.113909867768657e+001
 2.598165172310488e+000	 2.274877596855761e+000	 1.112722038954952e+001
 2.572901868629318e+000	 2.303411972295396e+000	 1.111415745430195e+001
 2.832117593518570e+000	 2.022259960382399e+000	 1.117114623557516e+001
 2.809751469881757e+000	 2.053222382858615e+000	 1.116842356223767e+001
 2.787027448014699e+000	 2.083963452151246e+000	 1.116735373978903e+001
 2.763948785919044e+000	 2.114477019978720e+000	 1.116667527033736e+001
 2.740518881272978e+000	 2.144757001540650e+000	 1.116516111191987e+001
 2.716741269897224e+000	 2.174797379461116e+000	 1.116162391657244e+001
 2.692619624088216e+000	 2.204592207687736e+000	 1.115492112070905e+001
 2.668157750819863e+000	 2.234135615341308e+000	 1.114395985113638e+001
 2.643359589815660e+000	 2.263421810510898e+000	 1.113004764673930e+001
 2.618229211493063e+000	 2.292445083989264e+000	 1.111559026712913e+001
 2.592770814782297e+000	 2.321199812943656e+000	 1.110022891770679e+001
 2.853820704199826e+000	 2.037756962284804e+000	 1.113714436539243e+001
 2.831283184269936e+000	 2.068956656293786e+000	 1.114158725336375e+001
 2.808385023460716e+000	 2.099933300843413e+000	 1.114612781858590e+001
 2.785129504740552e+000	 2.130680700536533e+000	 1.114974768831129e+001
 2.761520051824738e+000	 2.161192723943644e+000	 1.115147321198485e+001
 2.737560227629725e+000	 2.191463307576405e+000	 1.115038049657176e+001
 2.713253732593508e+000	 2.221486459816572e+000	 1.114560027102188e+001
 2.688604402863628e+000	 2.251256264795160e+000	 1.113632254221123e+001
 2.663616208354491e+000	 2.280766886216589e+000	 1.112184065349330e+001
 2.638293250676009e+000	 2.310012571122761e+000	 1.110482495173248e+001
 2.612639760935674e+000	 2.338987653591965e+000	 1.108722721814363e+001
 2.875523814881082e+000	 2.053253964187143e+000	 1.110677592836159e+001
 2.852814898658140e+000	 2.084690929728875e+000	 1.111720402260311e+001
 2.829742598906793e+000	 2.115903149535490e+000	 1.112632645752596e+001
 2.806310223562162e+000	 2.146884381094253e+000	 1.113335618852849e+001
 2.782521222376647e+000	 2.177628446346550e+000	 1.113756077622673e+001
 2.758379185362421e+000	 2.208129235691617e+000	 1.113826724575603e+001
 2.733887841099043e+000	 2.238380711945352e+000	 1.113486675252203e+001
 2.709051054907677e+000	 2.268376914248977e+000	 1.112681901564845e+001
 2.683872826893645e+000	 2.298111961922277e+000	 1.111365648140644e+001
 2.658357289859304e+000	 2.327580058256287e+000	 1.109527819387772e+001
 2.632508707089417e+000	 2.356775494240340e+000	 1.107548545054900e+001
 2.897226925562421e+000	 2.068750966089566e+000	 1.108048211883325e+001
 2.874346613046457e+000	 2.100425203164026e+000	 1.109576604718263e+001
 2.851100174353010e+000	 2.131872998227611e+000	 1.110848670204689e+001
 2.827490942383945e+000	 2.163088061652005e+000	 1.111807677688769e+001
 2.803522392928762e+000	 2.194064168749482e+000	 1.112403307782659e+001
 2.779198143095355e+000	 2.224795163806850e+000	 1.112592123382885e+001
 2.754521949604845e+000	 2.255274964074154e+000	 1.112338019111198e+001
 2.729497706952019e+000	 2.285497563702824e+000	 1.111612645182349e+001
 2.704129445433113e+000	 2.315457037628008e+000	 1.110395801816390e+001
 2.678421329042928e+000	 2.345147545389874e+000	 1.108675800459356e+001
 2.652377653243494e+000	 2.374563334888798e+000	 1.106534656773107e+001
 2.918930036243927e+000	 2.084247967992224e+000	 1.105867805209707e+001
 2.895878327434964e+000	 2.116159476599381e+000	 1.107773804654963e+001
 2.872457749799449e+000	 2.147842846919910e+000	 1.109311696536210e+001
 2.848671661205972e+000	 2.179291742209911e+000	 1.110445584635018e+001
 2.824523563481143e+000	 2.210499891152546e+000	 1.111146897937791e+001
 2.800017100828571e+000	 2.241461091922200e+000	 1.111394849454328e+001
 2.775156058110943e+000	 2.272169216203060e+000	 1.111176871280319e+001
 2.749944358996667e+000	 2.302618213156769e+000	 1.110489021776788e+001
 2.724386063972889e+000	 2.332802113333830e+000	 1.109336360861983e+001
 2.698485368226857e+000	 2.362715032523553e+000	 1.107733289568295e+001
 2.672246599397870e+000	 2.392351175537356e+000	 1.105703850207629e+001
 2.940633146925679e+000	 2.099744969895266e+000	 1.104175320590626e+001
 2.917410041823754e+000	 2.131893750035086e+000	 1.106355780645824e+001
 2.893815325246190e+000	 2.163812695612522e+000	 1.108069762678242e+001
 2.869852380028318e+000	 2.195495422768095e+000	 1.109301084142823e+001
 2.845524734033850e+000	 2.226935613555857e+000	 1.110041765574216e+001
 2.820836058562116e+000	 2.258127020037764e+000	 1.110292479940236e+001
 2.795790166617365e+000	 2.289063468332152e+000	 1.110062976102635e+001
 2.770391011041629e+000	 2.319738862610873e+000	 1.109372472114982e+001
 2.744642682512967e+000	 2.350147189039793e+000	 1.108250014219669e+001
 2.718549407411074e+000	 2.380282519657359e+000	 1.106734797574149e+001
 2.692115545552514e+000	 2.410139016186032e+000	 1.104876444939755e+001
 2.962336257607764e+000	 2.115241971798842e+000	 1.103007188198114e+001
 2.938941756212907e+000	 2.147628023471283e+000	 1.105363672010391e+001
 2.915172900693314e+000	 2.179782544305583e+000	 1.107168164448362e+001
 2.891033098851052e+000	 2.211699103326682e+000	 1.108423093483542e+001
 2.866525904586939e+000	 2.243371335959520e+000	 1.109139932708509e+001
 2.841655016296031e+000	 2.274792948153638e+000	 1.109339643984963e+001
 2.816424275124137e+000	 2.305957720461509e+000	 1.109053092101731e+001
 2.790837663086917e+000	 2.336859512065201e+000	 1.108321427017775e+001
 2.764899301053341e+000	 2.367492264745944e+000	 1.107196429407020e+001
 2.738613446595554e+000	 2.397850006791322e+000	 1.105740815401082e+001
 2.711984491707391e+000	 2.427926856834841e+000	 1.104028496641917e+001
 2.984039368290266e+000	 2.130738973703105e+000	 1.102397368647466e+001
 2.960473470602511e+000	 2.163362296908118e+000	 1.104836034543595e+001
 2.936530476140903e+000	 2.195752392999228e+000	 1.106649518198373e+001
 2.912213817674248e+000	 2.227902783885794e+000	 1.107857771567769e+001
 2.887527075140474e+000	 2.259807058363652e+000	 1.108490600157487e+001
 2.862473974030363e+000	 2.291458876269918e+000	 1.108588101751747e+001
 2.837058383631288e+000	 2.322851972591213e+000	 1.108201075091824e+001
 2.811284315132539e+000	 2.353980161519819e+000	 1.107391393912563e+001
 2.785155919594004e+000	 2.384837340452332e+000	 1.106232341896579e+001
 2.758677485780279e+000	 2.415417493925475e+000	 1.104808904296515e+001
 2.731853437862469e+000	 2.445714697483801e+000	 1.103218012204486e+001
 2.533163976324692e+000	 2.267836290998960e+000	 1.114351904472812e+001
 2.507978409130006e+000	 2.295658029994647e+000	 1.112784210754980e+001
 2.482481032043097e+000	 2.323206763111350e+000	 1.110156208314729e+001
 2.456676310313640e+000	 2.350477275304074e+000	 1.106705435657877e+001
 2.430568824931228e+000	 2.377464449525057e+000	 1.102666603758531e+001
 2.404163269919529e+000	 2.404163269919529e+000	 1.098272535641773e+001
 2.377464449525057e+000	 2.430568824931227e+000	 1.093755153753885e+001
 2.350477275304074e+000	 2.456676310313640e+000	 1.089346500860756e+001
 2.323206763111350e+000	 2.482481032043097e+000	 1.085279779878839e+001
 2.295658029994646e+000	 2.507978409130006e+000	 1.081790397842325e+001
 2.267836290998959e+000	 2.533163976324692e+000	 1.079116999147282e+001
 2.553032922476773e+000	 2.285624131647170e+000	 1.112869077285896e+001
 2.527649811545008e+000	 2.313664091271059e+000	 1.111152300877995e+001
 2.501952445030983e+000	 2.341428903686288e+000	 1.108510169802530e+001
 2.475945323207677e+000	 2.368913312943507e+000	 1.105154926451141e+001
 2.449633062995806e+000	 2.396112161859249e+000	 1.101295152823503e+001
 2.423020395236747e+000	 2.423020395236746e+000	 1.097136842761686e+001
 2.396112161859249e+000	 2.449633062995806e+000	 1.092884525823750e+001
 2.368913312943507e+000	 2.475945323207676e+000	 1.088742427593113e+001
 2.341428903686289e+000	 2.501952445030982e+000	 1.084915650862962e+001
 2.313664091271059e+000	 2.527649811545009e+000	 1.081611361920880e+001
 2.285624131647170e+000	 2.553032922476773e+000	 1.079039966090018e+001
 2.572901868629318e+000	 2.303411972295396e+000	 1.111415745430195e+001
 2.547321213960504e+000	 2.331670152547573e+000	 1.109556050348440e+001
 2.521423858019364e+000	 2.359651044261410e+000	 1.106894428018701e+001
 2.495214336102196e+000	 2.387349350583203e+000	 1.103619206898205e+001
 2.468697301060834e+000	 2.414759874193777e+000	 1.099914212273679e+001
 2.441877520554362e+000	 2.441877520554361e+000	 1.095959973907525e+001
 2.414759874193777e+000	 2.468697301060833e+000	 1.091934989308076e+001
 2.387349350583203e+000	 2.495214336102196e+000	 1.088017026442534e+001
 2.359651044261410e+000	 2.521423858019364e+000	 1.084384449331865e+001
 2.331670152547573e+000	 2.547321213960505e+000	 1.081217549739289e+001
 2.303411972295396e+000	 2.572901868629318e+000	 1.078699868088670e+001
 2.592770814782297e+000	 2.321199812943656e+000	 1.110022891770679e+001
 2.566992616376451e+000	 2.349676213824190e+000	 1.108024344959513e+001
 2.540895271008198e+000	 2.377873184836706e+000	 1.105336047129156e+001
 2.514483348997150e+000	 2.405785388223142e+000	 1.102123761982672e+001
 2.487761539126262e+000	 2.433407586528607e+000	 1.098547896154316e+001
 2.460734645872333e+000	 2.460734645872333e+000	 1.094764845230227e+001
 2.433407586528608e+000	 2.487761539126262e+000	 1.090928399517060e+001
 2.405785388223142e+000	 2.514483348997150e+000	 1.087191192363590e+001
 2.377873184836706e+000	 2.540895271008198e+000	 1.083706173439150e+001
 2.349676213824190e+000	 2.566992616376451e+000	 1.080628089129957e+001
 2.321199812943656e+000	 2.592770814782297e+000	 1.078114952133070e+001
 2.612639760935674e+000	 2.338987653591965e+000	 1.108722721814363e+001
 2.586664018792810e+000	 2.367682275100913e+000	 1.106587284027950e+001
 2.560366683997438e+000	 2.396095325412165e+000	 1.103863294277060e+001
 2.533752361892490e+000	 2.424221425863299e+000	 1.100695267782967e+001
 2.506825777192050e+000	 2.452055298863711e+000	 1.097221496454739e+001
 2.479591771190625e+000	 2.479591771190625e+000	 1.093575536453711e+001
 2.452055298863711e+000	 2.506825777192050e+000	 1.089887759774230e+001
 2.424221425863298e+000	 2.533752361892491e+000	 1.086286951596143e+001
 2.396095325412165e+000	 2.560366683997438e+000	 1.082901934739590e+001
 2.367682275100913e+000	 2.586664018792810e+000	 1.079863202295108e+001
 2.338987653591965e+000	 2.612639760935674e+000	 1.077304539413886e+001
 2.632508707089417e+000	 2.356775494240340e+000	 1.107548545054899e+001
 2.606335421209538e+000	 2.385688336377744e+000	 1.105276067053937e+001
 2.579838096987040e+000	 2.414317465987774e+000	 1.102505531984038e+001
 2.553021374788173e+000	 2.442657463503651e+000	 1.099361489997977e+001
 2.525890015258152e+000	 2.470703011199052e+000	 1.095961388098046e+001
 2.498448896509196e+000	 2.498448896509196e+000	 1.092417202623929e+001
 2.470703011199053e+000	 2.525890015258151e+000	 1.088837140175836e+001
 2.442657463503652e+000	 2.553021374788173e+000	 1.085327387640826e+001
 2.414317465987774e+000	 2.579838096987041e+000	 1.081993891541186e+001
 2.385688336377744e+000	 2.606335421209539e+000	 1.078944146650403e+001
 2.356775494240340e+000	 2.632508707089417e+000	 1.076288973727040e+001
 2.652377653243494e+000	 2.374563334888798e+000	 1.106534656773107e+001
 2.626006823626593e+000	 2.403694397654686e+000	 1.104122880789077e+001
 2.599309509976958e+000	 2.432539606563527e+000	 1.101293110899204e+001
 2.572290387684151e+000	 2.461093501144180e+000	 1.098151182749217e+001
 2.544954253324521e+000	 2.489350723534602e+000	 1.094794934126243e+001
 2.517306021828006e+000	 2.517306021828006e+000	 1.091315985964179e+001
 2.489350723534602e+000	 2.544954253324522e+000	 1.087801596360004e+001
 2.461093501144179e+000	 2.572290387684152e+000	 1.084336567142215e+001
 2.432539606563527e+000	 2.599309509976957e+000	 1.081005182058565e+001
 2.403694397654687e+000	 2.626006823626595e+000	 1.077893155360475e+001
 2.374563334888798e+000	 2.652377653243494e+000	 1.075089569459103e+001
 2.672246599397870e+000	 2.392351175537356e+000	 1.105703850207629e+001
 2.645678226043938e+000	 2.421700458931741e+000	 1.103160786691154e+001
 2.618780922967142e+000	 2.450761747139410e+000	 1.100257262877897e+001
 2.591559400580378e+000	 2.479529538784858e+000	 1.097093987645190e+001
 2.564018491391117e+000	 2.507998435870327e+000	 1.093750391070865e+001
 2.536163147147017e+000	 2.536163147147017e+000	 1.090298927831076e+001
 2.507998435870326e+000	 2.564018491391118e+000	 1.086807088285253e+001
 2.479529538784858e+000	 2.591559400580378e+000	 1.083339465684607e+001
 2.450761747139409e+000	 2.618780922967142e+000	 1.079959857377987e+001
 2.421700458931741e+000	 2.645678226043937e+000	 1.076733377582392e+001
 2.392351175537357e+000	 2.672246599397870e+000	 1.073746829490568e+001
 2.692115545552514e+000	 2.410139016186032e+000	 1.104876444939755e+001
 2.665349628461526e+000	 2.439706520208910e+000	 1.102423608745754e+001
 2.638252335957553e+000	 2.468983887715412e+000	 1.099429994373075e+001
 2.610828413476806e+000	 2.497965576425667e+000	 1.096220333094257e+001
 2.583082729457892e+000	 2.526646148206194e+000	 1.092856814499337e+001
 2.555020272466187e+000	 2.555020272466187e+000	 1.089393880765984e+001
 2.526646148206194e+000	 2.583082729457892e+000	 1.085880399017802e+001
 2.497965576425666e+000	 2.610828413476806e+000	 1.082361893504805e+001
 2.468983887715411e+000	 2.638252335957553e+000	 1.078882814243797e+001
 2.439706520208911e+000	 2.665349628461527e+000	 1.075488818432155e+001
 2.410139016186032e+000	 2.692115545552514e+000	 1.072607803288306e+001
 2.711984491707391e+000	 2.427926856834841e+000	 1.104028496641917e+001
 2.685021030879321e+000	 2.457712581486198e+000	 1.101816005227116e+001
 2.657723748948141e+000	 2.487206028291523e+000	 1.098843980123345e+001
 2.630097426373389e+000	 2.516401614066581e+000	 1.095561333853429e+001
 2.602146967524803e+000	 2.545293860542173e+000	 1.092143964728138e+001
 2.573877397785479e+000	 2.573877397785478e+000	 1.088629420637060e+001
 2.545293860542173e+000	 2.602146967524804e+000	 1.085049053527252e+001
 2.516401614066580e+000	 2.630097426373389e+000	 1.081430421126247e+001
 2.487206028291522e+000	 2.657723748948141e+000	 1.077799727675387e+001
 2.457712581486198e+000	 2.685021030879322e+000	 1.074380118896690e+001
 2.427926856834841e+000	 2.711984491707391e+000	 1.071802518439703e+001
 2.731853437862469e+000	 2.445714697483801e+000	 1.103218012204486e+001
 2.704692433297279e+000	 2.475718642763606e+000	 1.101218128433150e+001
 2.677195161938863e+000	 2.505428168867732e+000	 1.098490616685916e+001
 2.649366439270082e+000	 2.534837651707582e+000	 1.095148690800965e+001
 2.621211205591807e+000	 2.563941572878231e+000	 1.091642212694273e+001
 2.592734523104852e+000	 2.592734523104852e+000	 1.088034758867250e+001
 2.563941572878231e+000	 2.621211205591807e+000	 1.084341237490259e+001
 2.534837651707581e+000	 2.649366439270081e+000	 1.080572304918432e+001
 2.505428168867732e+000	 2.677195161938863e+000	 1.076800606288565e+001
 2.475718642763605e+000	 2.704692433297279e+000	 1.073676644153252e+001
 2.445714697483802e+000	 2.731853437862469e+000	 1.071339524746100e+001
 2.267836290998959e+000	 2.533163976324692e+000	 1.079116999147282e+001
 2.239742622588619e+000	 2.558037093946534e+000	 1.077045593801171e+001
 2.211386583393305e+000	 2.582589734201157e+000	 1.075044084749962e+001
 2.182773666978905e+000	 2.606817794690176e+000	 1.072879143464854e+001
 2.153909451300075e+000	 2.630717298573514e+000	 1.070323010270095e+001
 2.124799595113840e+000	 2.654284396700450e+000	 1.067155161569135e+001
 2.095449834330041e+000	 2.677515369617983e+000	 1.063227597745737e+001
 2.065865978303493e+000	 2.700406629454409e+000	 1.058732807758138e+001
 2.036053906072851e+000	 2.722954721676199e+000	 1.053440696278799e+001
 2.006019562551172e+000	 2.745156326716522e+000	 1.047028436081828e+001
 1.975768954673289e+000	 2.767008261473968e+000	 1.040144237595590e+001
 2.285624131647170e+000	 2.553032922476773e+000	 1.079039966090018e+001
 2.257310109722224e+000	 2.578101133128303e+000	 1.076939708584657e+001
 2.228731659099303e+000	 2.602846352738986e+000	 1.074779807383628e+001
 2.199894316433245e+000	 2.627264446733148e+000	 1.072372898843031e+001
 2.170803703429568e+000	 2.651351407078246e+000	 1.069537826546070e+001
 2.141465523229931e+000	 2.675103354432631e+000	 1.066141101545198e+001
 2.111885556733959e+000	 2.698516540169659e+000	 1.062443836798017e+001
 2.082069658862324e+000	 2.721587348276045e+000	 1.058311088564150e+001
 2.052023754766099e+000	 2.744312297122521e+000	 1.053463800037622e+001
 2.021753835987452e+000	 2.766688041105134e+000	 1.047617902144893e+001
 1.991265956576792e+000	 2.788711372155724e+000	 1.040610996243499e+001
 2.303411972295396e+000	 2.572901868629318e+000	 1.078699868088670e+001
 2.274877596855761e+000	 2.598165172310488e+000	 1.076526196102520e+001
 2.246076734805151e+000	 2.623102971277155e+000	 1.074169797948753e+001
 2.217014965887358e+000	 2.647711098776373e+000	 1.071488271656037e+001
 2.187697955558761e+000	 2.671985515583138e+000	 1.068362232323072e+001
 2.158131451345657e+000	 2.695922312164874e+000	 1.065091371633575e+001
 2.128321279137459e+000	 2.719517710721304e+000	 1.061663425075219e+001
 2.098273339420692e+000	 2.742768067097567e+000	 1.057843428708882e+001
 2.067993603458852e+000	 2.765669872568660e+000	 1.053390059543391e+001
 2.037488109423218e+000	 2.788219755493518e+000	 1.048056693225673e+001
 2.006762958479779e+000	 2.810414482837230e+000	 1.041592472959312e+001
 2.321199812943656e+000	 2.592770814782297e+000	 1.078114952133070e+001
 2.292445083989264e+000	 2.618229211493063e+000	 1.075822242386855e+001
 2.263421810510898e+000	 2.643359589815661e+000	 1.073229869565203e+001
 2.234135615341307e+000	 2.668157750819863e+000	 1.070240662983436e+001
 2.204592207687736e+000	 2.692619624088216e+000	 1.067143756279743e+001
 2.174797379461117e+000	 2.716741269897225e+000	 1.064086627085465e+001
 2.144757001540649e+000	 2.740518881272977e+000	 1.060878676700894e+001
 2.114477019978720e+000	 2.763948785919044e+000	 1.057321658560840e+001
 2.083963452151246e+000	 2.787027448014699e+000	 1.053210694658218e+001
 2.053222382858615e+000	 2.809751469881758e+000	 1.048335312102847e+001
 2.022259960382399e+000	 2.832117593518569e+000	 1.042480491850916e+001
 2.338987653591965e+000	 2.612639760935674e+000	 1.077304539413886e+001
 2.310012571122760e+000	 2.638293250676008e+000	 1.074846090413000e+001
 2.280766886216590e+000	 2.663616208354491e+000	 1.071976880889261e+001
 2.251256264795159e+000	 2.688604402863627e+000	 1.068920877439431e+001
 2.221486459816572e+000	 2.713253732593509e+000	 1.066016190305346e+001
 2.191463307576405e+000	 2.737560227629726e+000	 1.063122495177170e+001
 2.161192723943644e+000	 2.761520051824738e+000	 1.060084911774782e+001
 2.130680700536533e+000	 2.785129504740552e+000	 1.056740649555937e+001
 2.099933300843413e+000	 2.808385023460716e+000	 1.052920005652134e+001
 2.068956656293786e+000	 2.831283184269936e+000	 1.048447384173446e+001
 2.037756962284804e+000	 2.853820704199826e+000	 1.043142328639987e+001
 2.356775494240340e+000	 2.632508707089417e+000	 1.076288973727039e+001
 2.327580058256288e+000	 2.658357289859304e+000	 1.073616995937267e+001
 2.298111961922277e+000	 2.683872826893644e+000	 1.070602577016119e+001
 2.268376914248976e+000	 2.709051054907677e+000	 1.067742740138150e+001
 2.238380711945352e+000	 2.733887841099044e+000	 1.064978110079877e+001
 2.208129235691617e+000	 2.758379185362420e+000	 1.062197431770682e+001
 2.177628446346551e+000	 2.782521222376647e+000	 1.059280312581056e+001
 2.146884381094253e+000	 2.806310223562161e+000	 1.056098174553452e+001
 2.115903149535490e+000	 2.829742598906794e+000	 1.052515237756879e+001
 2.084690929728875e+000	 2.852814898658141e+000	 1.048389526280484e+001
 2.053253964187143e+000	 2.875523814881082e+000	 1.043573888324668e+001
 2.374563334888798e+000	 2.652377653243494e+000	 1.075089569459103e+001
 2.345147545389875e+000	 2.678421329042928e+000	 1.072236711385153e+001
 2.315457037628008e+000	 2.704129445433113e+000	 1.069420260465951e+001
 2.285497563702824e+000	 2.729497706952019e+000	 1.066707401269505e+001
 2.255274964074154e+000	 2.754521949604845e+000	 1.064030740427713e+001
 2.224795163806849e+000	 2.779198143095354e+000	 1.061312572570236e+001
 2.194064168749482e+000	 2.803522392928762e+000	 1.058465778913274e+001
 2.163088061652005e+000	 2.827490942383944e+000	 1.055394767258569e+001
 2.131872998227610e+000	 2.851100174353011e+000	 1.051996444739893e+001
 2.100425203164026e+000	 2.874346613046457e+000	 1.048161214516587e+001
 2.068750966089566e+000	 2.897226925562421e+000	 1.043773987552006e+001
 2.392351175537357e+000	 2.672246599397870e+000	 1.073746829490568e+001
 2.362715032523554e+000	 2.698485368226857e+000	 1.071073968135688e+001
 2.332802113333830e+000	 2.724386063972889e+000	 1.068438955141179e+001
 2.302618213156768e+000	 2.749944358996667e+000	 1.065818480168098e+001
 2.272169216203061e+000	 2.775156058110944e+000	 1.063177801784128e+001
 2.241461091922200e+000	 2.800017100828571e+000	 1.060471583593947e+001
 2.210499891152547e+000	 2.824523563481142e+000	 1.057644782561914e+001
 2.179291742209911e+000	 2.848671661205972e+000	 1.054633580760052e+001
 2.147842846919909e+000	 2.872457749799449e+000	 1.051366351549472e+001
 2.116159476599381e+000	 2.895878327434966e+000	 1.047764651056942e+001
 2.084247967992224e+000	 2.918930036243927e+000	 1.043744225741530e+001
 2.410139016186032e+000	 2.692115545552514e+000	 1.072607803288306e+001
 2.380282519657360e+000	 2.718549407411073e+000	 1.070175760859044e+001
 2.350147189039793e+000	 2.744642682512968e+000	 1.067664297601991e+001
 2.319738862610872e+000	 2.770391011041629e+000	 1.065081907136543e+001
 2.289063468332153e+000	 2.795790166617366e+000	 1.062425355973276e+001
 2.258127020037764e+000	 2.820836058562116e+000	 1.059680510901069e+001
 2.226935613555856e+000	 2.845524734033849e+000	 1.056823221007828e+001
 2.195495422768095e+000	 2.869852380028318e+000	 1.053820245228828e+001
 2.163812695612522e+000	 2.893815325246190e+000	 1.050630216079168e+001
 2.131893750035085e+000	 2.917410041823753e+000	 1.047204630071654e+001
 2.099744969895266e+000	 2.940633146925679e+000	 1.043488855249090e+001
 2.427926856834841e+000	 2.711984491707391e+000	 1.071802518439703e+001
 2.397850006791323e+000	 2.738613446595554e+000	 1.069549367688974e+001
 2.367492264745944e+000	 2.764899301053342e+000	 1.067104051714389e+001
 2.336859512065201e+000	 2.790837663086917e+000	 1.064505764675588e+001
 2.305957720461509e+000	 2.816424275124138e+000	 1.061781651332926e+001
 2.274792948153638e+000	 2.841655016296031e+000	 1.058947629613059e+001
 2.243371335959520e+000	 2.866525904586940e+000	 1.056009270362326e+001
 2.211699103326681e+000	 2.891033098851052e+000	 1.052962724820442e+001
 2.179782544305583e+000	 2.915172900693315e+000	 1.049795690096499e+001
 2.147628023471283e+000	 2.938941756212908e+000	 1.046488402764787e+001
 2.115241971798842e+000	 2.962336257607765e+000	 1.043014650620179e+001
 2.445714697483802e+000	 2.731853437862469e+000	 1.071339524746100e+001
 2.415417493925476e+000	 2.758677485780278e+000	 1.069204012696451e+001
 2.384837340452332e+000	 2.785155919594005e+000	 1.066767945468195e+001
 2.353980161519820e+000	 2.811284315132540e+000	 1.064100128151295e+001
 2.322851972591212e+000	 2.837058383631288e+000	 1.061256967219235e+001
 2.291458876269918e+000	 2.862473974030362e+000	 1.058283292264398e+001
 2.259807058363652e+000	 2.887527075140474e+000	 1.055213237592204e+001
 2.227902783885794e+000	 2.912213817674249e+000	 1.052071173821983e+001
 2.195752392999227e+000	 2.936530476140903e+000	 1.048872679378564e+001
 2.163362296908118e+000	 2.960473470602511e+000	 1.045625541584498e+001
 2.130738973703105e+000	 2.984039368290266e+000	 1.042330776979107e+001
 1.975768954673289e+000	 2.767008261473968e+000	 1.040144237595590e+001
 1.945308146846862e+000	 2.788507479894426e+000	 1.034021612934927e+001
 1.914643255096348e+000	 2.809651071830004e+000	 1.028155776886028e+001
 1.883780445162079e+000	 2.830436266468553e+000	 1.022554344029280e+001
 1.852725929198409e+000	 2.850860434090399e+000	 1.017201260057541e+001
 1.821485961785593e+000	 2.870921086910894e+000	 1.012060829432711e+001
 1.790066835929240e+000	 2.890615879789326e+000	 1.007081648603126e+001
 1.758474879052460e+000	 2.909942610804365e+000	 1.002200414096222e+001
 1.726716448985847e+000	 2.928899221696398e+000	 9.973455768730325e+000
 1.694797929960344e+000	 2.947483798177338e+000	 9.924408165921445e+000
 1.662725728608005e+000	 2.965694570108715e+000	 9.874083118567931e+000
 1.991265956576792e+000	 2.788711372155724e+000	 1.040610996243499e+001
 1.960566228508145e+000	 2.810379220328354e+000	 1.033861570481873e+001
 1.929660815777188e+000	 2.831688652649307e+000	 1.027591809928231e+001
 1.898555932485416e+000	 2.852636876573476e+000	 1.021773260611736e+001
 1.867257839512399e+000	 2.873221241754905e+000	 1.016353167559115e+001
 1.835772840496374e+000	 2.893439240895928e+000	 1.011258782800430e+001
 1.804107277802321e+000	 2.913288510461652e+000	 1.006401569559754e+001
 1.772267528482681e+000	 2.932766831259905e+000	 1.001681270254253e+001
 1.740260000235878e+000	 2.951872128887057e+000	 9.969898081176188e+000
 1.708091127367755e+000	 2.970602474040235e+000	 9.922149946549808e+000
 1.675767366760974e+000	 2.988956082696838e+000	 9.872440177005998e+000
 2.006762958479779e+000	 2.810414482837230e+000	 1.041592472959312e+001
 1.975824310168927e+000	 2.832250960762047e+000	 1.034237101086333e+001
 1.944678376457553e+000	 2.853726233468411e+000	 1.027508713101328e+001
 1.913331419808316e+000	 2.874837486678262e+000	 1.021419454968920e+001
 1.881789749825994e+000	 2.895582049419351e+000	 1.015881878783423e+001
 1.850059719206805e+000	 2.915957394880990e+000	 1.010788214193236e+001
 1.818147719675098e+000	 2.935961141134096e+000	 1.006014850119773e+001
 1.786060177912640e+000	 2.955591051715656e+000	 1.001426668695761e+001
 1.753803551485679e+000	 2.974845036078005e+000	 9.968811996133898e+000
 1.721384324774959e+000	 2.993721149903496e+000	 9.922325655990862e+000
 1.688809004913743e+000	 3.012217595285378e+000	 9.873351924397269e+000
 2.022259960382399e+000	 2.832117593518569e+000	 1.042480491850916e+001
 1.991082391829358e+000	 2.854122701195576e+000	 1.035115953833359e+001
 1.959695937137597e+000	 2.875763814287376e+000	 1.027872193907474e+001
 1.928106907130930e+000	 2.897038096782952e+000	 1.021456708835714e+001
 1.896321660139343e+000	 2.917942857083756e+000	 1.015749269571048e+001
 1.864346597917032e+000	 2.938475548866074e+000	 1.010609019545775e+001
 1.832188161547714e+000	 2.958633771806631e+000	 1.005879240917358e+001
 1.799852827342474e+000	 2.978415272171569e+000	 1.001391960901432e+001
 1.767347102735386e+000	 2.997817943269185e+000	 9.969723646998604e+000
 1.734677522182089e+000	 3.016839825767045e+000	 9.924429841986886e+000
 1.701850643066445e+000	 3.035479107874254e+000	 9.876276344683426e+000
 2.037756962284804e+000	 2.853820704199826e+000	 1.043142328639987e+001
 2.006340473489595e+000	 2.875994441629014e+000	 1.036404266705790e+001
 1.974713497817474e+000	 2.897801395106263e+000	 1.028651356749491e+001
 1.942882394453412e+000	 2.919238706887588e+000	 1.021852459424817e+001
 1.910853570452600e+000	 2.940303664748141e+000	 1.015921122933390e+001
 1.878633476627206e+000	 2.960993702851183e+000	 1.010685246348653e+001
 1.846228603420313e+000	 2.981306402479240e+000	 1.005956880857131e+001
 1.813645476772324e+000	 3.001239492627601e+000	 1.001537115372330e+001
 1.780890653985136e+000	 3.020790850460533e+000	 9.972207543050525e+000
 1.747970719589279e+000	 3.039958501630808e+000	 9.928007550693003e+000
 1.714892281219213e+000	 3.058740620463381e+000	 9.880723959160527e+000
 2.053253964187143e+000	 2.875523814881082e+000	 1.043573888324668e+001
 2.021598555149789e+000	 2.897866182062439e+000	 1.037525921279267e+001
 1.989731058497339e+000	 2.919838975925133e+000	 1.029818319903492e+001
 1.957657881775916e+000	 2.941439316992211e+000	 1.022577433132122e+001
 1.925385480765913e+000	 2.962664472412528e+000	 1.016366779668840e+001
 1.892920355337473e+000	 2.983511856836313e+000	 1.010984761255820e+001
 1.860269045293039e+000	 3.003979033151893e+000	 1.006213981696339e+001
 1.827438126202331e+000	 3.024063713083709e+000	 1.001826419074834e+001
 1.794434205235066e+000	 3.043763757651987e+000	 9.975883750466394e+000
 1.761263916996664e+000	 3.063077177494705e+000	 9.932651671254686e+000
 1.727933919372180e+000	 3.082002133052676e+000	 9.886255330711290e+000
 2.068750966089566e+000	 2.897226925562421e+000	 1.043773987552006e+001
 2.036856636810096e+000	 2.919737922495927e+000	 1.038349811893582e+001
 2.004748619177347e+000	 2.941876556744046e+000	 1.031312237612894e+001
 1.972433369098596e+000	 2.963639927096867e+000	 1.023605277992622e+001
 1.939917391079437e+000	 2.985025280076940e+000	 1.017058787653636e+001
 1.907207234047982e+000	 3.006030010821463e+000	 1.011478916287669e+001
 1.874309487166035e+000	 3.026651663824572e+000	 1.006620511143512e+001
 1.841230775632635e+000	 3.046887933539848e+000	 1.002228177325097e+001
 1.807977756485311e+000	 3.066736664843483e+000	 9.980415057007598e+000
 1.774557114404378e+000	 3.086195853358668e+000	 9.938000263420586e+000
 1.740975557525482e+000	 3.105263645642056e+000	 9.892478550536076e+000
 2.084247967992224e+000	 2.918930036243927e+000	 1.043744225741530e+001
 2.052114718470668e+000	 2.941609662929547e+000	 1.038876969687373e+001
 2.019766179857653e+000	 2.963914137563062e+000	 1.032607113078348e+001
 1.987208856421604e+000	 2.985840537201594e+000	 1.024912194951826e+001
 1.954449301393320e+000	 3.007386087741394e+000	 1.017972549876306e+001
 1.921494112758879e+000	 3.028548164806635e+000	 1.012142213702938e+001
 1.888349929039446e+000	 3.049324294497249e+000	 1.007149874550762e+001
 1.855023425063373e+000	 3.069712153995974e+000	 1.002714412194300e+001
 1.821521307736009e+000	 3.089709572034964e+000	 9.985504121234857e+000
 1.787850311812554e+000	 3.109314529222617e+000	 9.943733869074279e+000
 1.754017195679249e+000	 3.128525158231438e+000	 9.899046708292440e+000
 2.099744969895266e+000	 2.940633146925679e+000	 1.043488855249090e+001
 2.067372800131659e+000	 2.963481403363379e+000	 1.039111137318131e+001
 2.034783740538409e+000	 2.985951718382242e+000	 1.033537981813809e+001
 2.001984343745095e+000	 3.008041147306437e+000	 1.026470515472955e+001
 1.968981211707714e+000	 3.029746895405916e+000	 1.019085971280660e+001
 1.935780991470312e+000	 3.051066318791825e+000	 1.012951969608225e+001
 1.902390370913415e+000	 3.071996925169904e+000	 1.007778595272439e+001
 1.868816074494688e+000	 3.092536374452044e+000	 1.003260559511089e+001
 1.835064858987296e+000	 3.112682479226365e+000	 9.990890607049028e+000
 1.801143509221328e+000	 3.132433205086475e+000	 9.949572808515281e+000
 1.767058833833616e+000	 3.151786670820736e+000	 9.905655346501607e+000
 2.115241971798842e+000	 2.962336257607765e+000	 1.043014650620179e+001
 2.082630881793222e+000	 2.985353143797493e+000	 1.039058642661512e+001
 2.049801301219773e+000	 3.007989299201646e+000	 1.034110815206675e+001
 2.016759831069223e+000	 3.030241757411437e+000	 1.027852445811453e+001
 1.983513122022770e+000	 3.052107703070523e+000	 1.020379104478427e+001
 1.950067870182429e+000	 3.073584472777031e+000	 1.013887976369805e+001
 1.916430812788086e+000	 3.094669555842513e+000	 1.008485993758498e+001
 1.882608723926719e+000	 3.115360594908013e+000	 1.003845164533120e+001
 1.848608410239309e+000	 3.135655386417623e+000	 9.996348304310079e+000
 1.814436706630833e+000	 3.155551880950169e+000	 9.955274462271650e+000
 1.780100471988717e+000	 3.175048183409870e+000	 9.912039900027834e+000
 2.130738973703105e+000	 2.984039368290266e+000	 1.042330776979107e+001
 2.097888963455511e+000	 3.007224884231965e+000	 1.038728271605817e+001
 2.064818861901898e+000	 3.030026880021336e+000	 1.034334105519508e+001
 2.031535318394141e+000	 3.052442367516636e+000	 1.028811523722297e+001
 1.998045032338640e+000	 3.074468510735241e+000	 1.021833794389065e+001
 1.964354748895379e+000	 3.096102626762256e+000	 1.014932163888769e+001
 1.930471254663603e+000	 3.117342186515054e+000	 1.009253865447009e+001
 1.896401373359606e+000	 3.138184815363838e+000	 1.004449576355524e+001
 1.862151961492184e+000	 3.158628293608679e+000	 1.000168223624354e+001
 1.827729904041205e+000	 3.178670556813624e+000	 9.960630539180624e+000
 1.793142110144684e+000	 3.198309695998757e+000	 9.917973121391036e+000
 1.662725728608005e+000	 2.965694570108715e+000	 9.874083118567933e+000
 1.630511113674446e+000	 2.983527265011494e+000	 9.827049510622768e+000
 1.598155724011803e+000	 3.000983163283563e+000	 9.786459579292588e+000
 1.565666008429836e+000	 3.018060930005414e+000	 9.749500826205718e+000
 1.533048422245595e+000	 3.034759373751101e+000	 9.713462089240288e+000
 1.500309423398188e+000	 3.051077446124149e+000	 9.675757138700464e+000
 1.467455468599930e+000	 3.067014241170959e+000	 9.633945292922958e+000
 1.434493009528169e+000	 3.082568994673866e+000	 9.585749001948983e+000
 1.401428489062056e+000	 3.097741083326226e+000	 9.529068376324192e+000
 1.368268337568320e+000	 3.112530023792000e+000	 9.461992665889449e+000
 1.335018969240017e+000	 3.126935471652506e+000	 9.382808720365183e+000
 1.675767366760974e+000	 2.988956082696838e+000	 9.872440177005998e+000
 1.643300075547886e+000	 3.006928648866512e+000	 9.825053266448228e+000
 1.610690905435004e+000	 3.024521462989988e+000	 9.783350536085910e+000
 1.577946355813512e+000	 3.041733179677284e+000	 9.744920650822003e+000
 1.545072932632920e+000	 3.058562598157479e+000	 9.707458029308762e+000
 1.512077144485368e+000	 3.075008661810973e+000	 9.668786616256316e+000
 1.478965498726573e+000	 3.091070457578299e+000	 9.626880510149315e+000
 1.445744497637801e+000	 3.106747215247636e+000	 9.579881394521422e+000
 1.412420634633105e+000	 3.122038306623423e+000	 9.526112750813661e+000
 1.379000390515981e+000	 3.136943244578564e+000	 9.464090860052144e+000
 1.345490229789387e+000	 3.151461681992926e+000	 9.392532628884817e+000
 1.688809004913743e+000	 3.012217595285378e+000	 9.873351924397269e+000
 1.656089037421116e+000	 3.030330032721981e+000	 9.825863874607517e+000
 1.623226086857971e+000	 3.048059762696877e+000	 9.783359425613551e+000
 1.590226703196920e+000	 3.065405429349620e+000	 9.743783800902438e+000
 1.557097443019938e+000	 3.082365822564309e+000	 9.705193809190210e+000
 1.523844865572194e+000	 3.098939877498229e+000	 9.665781895782228e+000
 1.490475528852819e+000	 3.115126673986047e+000	 9.623896874427919e+000
 1.456995985746994e+000	 3.130925435821791e+000	 9.578061287166301e+000
 1.423412780203684e+000	 3.146335529920983e+000	 9.526985371057224e+000
 1.389732443463149e+000	 3.161356465365480e+000	 9.469577641379990e+000
 1.355961490338257e+000	 3.175987892333698e+000	 9.404952130618716e+000
 1.701850643066445e+000	 3.035479107874254e+000	 9.876276344683426e+000
 1.668877999294270e+000	 3.053731416577814e+000	 9.828899415119951e+000
 1.635761268280842e+000	 3.071598062404152e+000	 9.785863814849227e+000
 1.602507050580201e+000	 3.089077679022346e+000	 9.745427663717731e+000
 1.569121953406790e+000	 3.106169046971532e+000	 9.705967948806229e+000
 1.535612586658818e+000	 3.122871093185871e+000	 9.666004958299897e+000
 1.501985558978823e+000	 3.139182890394173e+000	 9.624223209751943e+000
 1.468247473855910e+000	 3.155103656396314e+000	 9.579488819418492e+000
 1.434404925773956e+000	 3.170632753218907e+000	 9.530863292331343e+000
 1.400464496409991e+000	 3.185769686152757e+000	 9.477613745014732e+000
 1.366432750886794e+000	 3.200514102674838e+000	 9.419219603991015e+000
 1.714892281219213e+000	 3.058740620463381e+000	 9.880723959160527e+000
 1.681666961167484e+000	 3.077132800433932e+000	 9.833632389121451e+000
 1.648296449703754e+000	 3.095136362111732e+000	 9.790297318303598e+000
 1.614787397963496e+000	 3.112749928695398e+000	 9.749246997797030e+000
 1.581146463793626e+000	 3.129972271379086e+000	 9.709137316558312e+000
 1.547380307745388e+000	 3.146802308873854e+000	 9.668776721861638e+000
 1.513495589104740e+000	 3.163239106802647e+000	 9.627147436555912e+000
 1.479498961964707e+000	 3.179281876971192e+000	 9.583422918816762e+000
 1.445397071344083e+000	 3.194929976517194e+000	 9.536981544737117e+000
 1.411196549356671e+000	 3.210182906940406e+000	 9.487416527966879e+000
 1.376904011435165e+000	 3.225040313016363e+000	 9.434542123422386e+000
 1.727933919372180e+000	 3.082002133052676e+000	 9.886255330711290e+000
 1.694455923040891e+000	 3.100534184290246e+000	 9.839587380631221e+000
 1.660831631126843e+000	 3.118674661819535e+000	 9.796147418275169e+000
 1.627067745346946e+000	 3.136422178368697e+000	 9.754691913564781e+000
 1.593170974180589e+000	 3.153775495786915e+000	 9.714115273207030e+000
 1.559148028832057e+000	 3.170733524562135e+000	 9.673475352488486e+000
 1.525005619230725e+000	 3.187295323211441e+000	 9.632015054491708e+000
 1.490750450073546e+000	 3.203460097546412e+000	 9.589179961262428e+000
 1.456389216914231e+000	 3.219227199815839e+000	 9.544631977854417e+000
 1.421928602303357e+000	 3.234596127728437e+000	 9.498259005747833e+000
 1.387375271983537e+000	 3.249566523358289e+000	 9.450180696594250e+000
 1.740975557525482e+000	 3.105263645642056e+000	 9.892478550536076e+000
 1.707244884914625e+000	 3.123935568146672e+000	 9.846338700287820e+000
 1.673366812550247e+000	 3.142212961527484e+000	 9.802953266399976e+000
 1.639348092730692e+000	 3.160094428042173e+000	 9.761265834408196e+000
 1.605195484567825e+000	 3.177578720194960e+000	 9.720369795062027e+000
 1.570915749918973e+000	 3.194664740250668e+000	 9.679534552992264e+000
 1.536515649356933e+000	 3.211351539620524e+000	 9.638227601301365e+000
 1.502001938182587e+000	 3.227638318121956e+000	 9.596132405274238e+000
 1.467381362484561e+000	 3.243524423114845e+000	 9.553162076625313e+000
 1.432660655250214e+000	 3.259009348516858e+000	 9.509468857046924e+000
 1.397846532532076e+000	 3.274092733700632e+000	 9.465449466004232e+000
 1.754017195679249e+000	 3.128525158231438e+000	 9.899046708292442e+000
 1.720033846788822e+000	 3.147336952003127e+000	 9.853508011993126e+000
 1.685901993974103e+000	 3.165751261235494e+000	 9.810303467473810e+000
 1.651628440114874e+000	 3.183766677715757e+000	 9.768523439194192e+000
 1.617219994955478e+000	 3.201381944603160e+000	 9.727421577559685e+000
 1.582683471006289e+000	 3.218595955939409e+000	 9.686441830832841e+000
 1.548025679483521e+000	 3.235407756029868e+000	 9.645241089030897e+000
 1.513253426291988e+000	 3.251816538697813e+000	 9.603707401497770e+000
 1.478373508055239e+000	 3.267821646414212e+000	 9.561973749964484e+000
 1.443392708197408e+000	 3.283422569305681e+000	 9.520427398116627e+000
 1.408317793080948e+000	 3.298618944043411e+000	 9.479714876671624e+000
 1.767058833833616e+000	 3.151786670820736e+000	 9.905655346501606e+000
 1.732822808663616e+000	 3.170738335859523e+000	 9.860761943347253e+000
 1.698437175398548e+000	 3.189289560943490e+000	 9.817833846461781e+000
 1.663908787499634e+000	 3.207438927389378e+000	 9.776068587194182e+000
 1.629244505343696e+000	 3.225185169011458e+000	 9.734842120241355e+000
 1.594451192094152e+000	 3.242527171628312e+000	 9.693736746093629e+000
 1.559535709610643e+000	 3.259463972439442e+000	 9.652564418755786e+000
 1.524504914401911e+000	 3.275994759273966e+000	 9.611385378748471e+000
 1.489365653626425e+000	 3.292118869713935e+000	 9.570522093505359e+000
 1.454124761145104e+000	 3.307835790094913e+000	 9.530568528430518e+000
 1.418789053630321e+000	 3.323145154386643e+000	 9.492394811741525e+000
 1.780100471988717e+000	 3.175048183409870e+000	 9.912039900027834e+000
 1.745611770539141e+000	 3.194139719715779e+000	 9.867809680705737e+000
 1.710972356823719e+000	 3.212827860651388e+000	 9.825225199558702e+000
 1.676189134885112e+000	 3.231111177062963e+000	 9.783552226318738e+000
 1.641269015732624e+000	 3.248988393419792e+000	 9.742251794086679e+000
 1.606218913182716e+000	 3.266458387317334e+000	 9.701009140594753e+000
 1.571045739738455e+000	 3.283520188849218e+000	 9.659757774920276e+000
 1.535756402512514e+000	 3.300172979850403e+000	 9.618698607791135e+000
 1.500357799198286e+000	 3.316416093014017e+000	 9.578314127808721e+000
 1.464856814093469e+000	 3.332249010884568e+000	 9.539377649087530e+000
 1.429260314180360e+000	 3.347671364730342e+000	 9.503401881305454e+000
 1.793142110144684e+000	 3.198309695998757e+000	 9.917973121391034e+000
 1.758400732415532e+000	 3.217541103571808e+000	 9.874400549641578e+000
 1.723507538249754e+000	 3.236366160359109e+000	 9.832201030111289e+000
 1.688469482271451e+000	 3.254783426736442e+000	 9.790670285512011e+000
 1.653293526122406e+000	 3.272791617828106e+000	 9.749317892099306e+000
 1.617986634272130e+000	 3.290389603006430e+000	 9.707897349104524e+000
 1.582555769867112e+000	 3.307576405259167e+000	 9.666431000327881e+000
 1.547007890623957e+000	 3.324351200427108e+000	 9.625229743989809e+000
 1.511349944770983e+000	 3.340713316314455e+000	 9.585101617312340e+000
 1.475588867042669e+000	 3.356662231674654e+000	 9.548025160048569e+000
 1.439731574731233e+000	 3.372197575074528e+000	 9.514439660877892e+000
 1.335018969240017e+000	 3.126935471652506e+000	 9.382808720365183e+000
 1.301681772541034e+000	 3.140959295332738e+000	 9.299416242365647e+000
 1.268268104136253e+000	 3.154599236856098e+000	 9.225039756179813e+000
 1.234784312705468e+000	 3.167855363653740e+000	 9.158721585080951e+000
 1.201236716620890e+000	 3.180727876869459e+000	 9.099431627076125e+000
 1.167631600601917e+000	 3.193217109782673e+000	 9.046055894072193e+000
 1.133975212443531e+000	 3.205323526137257e+000	 8.997333212796177e+000
 1.100273759821121e+000	 3.217047718379722e+000	 8.951806693764677e+000
 1.066533407174408e+000	 3.228390405810319e+000	 8.907789601154557e+000
 1.032760272672935e+000	 3.239352432650741e+000	 8.863345136765005e+000
 9.989604252654352e-001	 3.249934766032135e+000	 8.816269851748048e+000
 1.345490229789387e+000	 3.151461681992926e+000	 9.392532628884815e+000
 1.311891551807665e+000	 3.165595501946556e+000	 9.306821455591596e+000
 1.278215802312036e+000	 3.179342428752352e+000	 9.228175644511817e+000
 1.244469379778353e+000	 3.192702530370364e+000	 9.158855074796467e+000
 1.210658652137173e+000	 3.205676009522064e+000	 9.097824514061049e+000
 1.176789953402282e+000	 3.218263202100959e+000	 9.043907141089687e+000
 1.142869580373430e+000	 3.230464575488313e+000	 8.995719942873592e+000
 1.108903789416096e+000	 3.242280726777507e+000	 8.951624849561711e+000
 1.074898793320969e+000	 3.253712380910649e+000	 8.909695211590549e+000
 1.040860758245642e+000	 3.264760388731104e+000	 8.867697097118473e+000
 1.006795800740831e+000	 3.275425724955747e+000	 8.823076234549456e+000
 1.355961490338257e+000	 3.175987892333698e+000	 9.404952130618716e+000
 1.322101331073807e+000	 3.190231708560741e+000	 9.321524634140985e+000
 1.288163500487353e+000	 3.204085620648993e+000	 9.238866370525379e+000
 1.254154446850814e+000	 3.217549697087409e+000	 9.166828080444505e+000
 1.220080587653086e+000	 3.230624142175128e+000	 9.104405778553625e+000
 1.185948306202339e+000	 3.243309294419742e+000	 9.050388957191434e+000
 1.151763948303092e+000	 3.255605624839903e+000	 9.003294621925159e+000
 1.117533819010909e+000	 3.267513735175860e+000	 8.961318087115235e+000
 1.083264179467451e+000	 3.279034356011568e+000	 8.922300105791159e+000
 1.048961243818355e+000	 3.290168344812070e+000	 8.883709775226530e+000
 1.014631176216317e+000	 3.300916683879955e+000	 8.842642536511946e+000
 1.366432750886794e+000	 3.200514102674838e+000	 9.419219603991015e+000
 1.332311110339624e+000	 3.214867915175308e+000	 9.342122317376271e+000
 1.298111198662370e+000	 3.228828812546042e+000	 9.255737118547128e+000
 1.263839513923010e+000	 3.242396863804885e+000	 9.181308052853648e+000
 1.229502523168778e+000	 3.255572274828654e+000	 9.117898747441114e+000
 1.195106659002230e+000	 3.268355386739017e+000	 9.064293859439186e+000
 1.160658316232648e+000	 3.280746674192009e+000	 9.018931691934194e+000
 1.126163848605685e+000	 3.292746743574747e+000	 8.979854646045636e+000
 1.091629565613964e+000	 3.304356331113032e+000	 8.944677051990421e+000
 1.057061729391169e+000	 3.315576300893580e+000	 8.910569782055276e+000
 1.022466551691976e+000	 3.326407642804696e+000	 8.874260918769048e+000
 1.376904011435165e+000	 3.225040313016363e+000	 9.434542123422386e+000
 1.342520889605282e+000	 3.239504121790274e+000	 9.365572859428175e+000
 1.308058896837248e+000	 3.253572004443512e+000	 9.277425721552511e+000
 1.273524580995097e+000	 3.267244030522805e+000	 9.200949369674003e+000
 1.238924458684401e+000	 3.280520407482642e+000	 9.136989867031177e+000
 1.204265011802098e+000	 3.293401479058773e+000	 9.084355666668024e+000
 1.169552684162233e+000	 3.305887723544611e+000	 9.041427134855706e+000
 1.134793878200544e+000	 3.317979751974136e+000	 9.006106656807496e+000
 1.099994951760619e+000	 3.329678306214997e+000	 8.975787220331492e+000
 1.065162214964182e+000	 3.340984256975578e+000	 8.946728510677737e+000
 1.030301927167889e+000	 3.351898601729900e+000	 8.913232925992235e+000
 1.387375271983537e+000	 3.249566523358289e+000	 9.450180696594252e+000
 1.352730668870948e+000	 3.264140328405665e+000	 9.388482859985750e+000
 1.318006595012151e+000	 3.278315196341421e+000	 9.302598131463896e+000
 1.283209648067233e+000	 3.292091197241182e+000	 9.224407986844462e+000
 1.248346394200107e+000	 3.305468540137102e+000	 9.160342542065816e+000
 1.213423364602087e+000	 3.318447571379005e+000	 9.109262532562084e+000
 1.178447052091981e+000	 3.331028772897690e+000	 9.069510706323726e+000
 1.143423907795610e+000	 3.343212760373997e+000	 9.038101685440751e+000
 1.108360337907524e+000	 3.355000281317418e+000	 9.010247720308485e+000
 1.073262700537491e+000	 3.366392213058008e+000	 8.981856886940120e+000
 1.038137302644139e+000	 3.377389560655498e+000	 8.948702976227374e+000
 1.397846532532076e+000	 3.274092733700632e+000	 9.465449466004234e+000
 1.362940448136786e+000	 3.288776535021494e+000	 9.410128699699904e+000
 1.327954293187240e+000	 3.303058388239788e+000	 9.329963846985496e+000
 1.292894715139578e+000	 3.316938363960028e+000	 9.250356045300768e+000
 1.257768329716046e+000	 3.330416672792032e+000	 9.186610928460501e+000
 1.222581717402338e+000	 3.343493663699706e+000	 9.137192257429236e+000
 1.187341420022024e+000	 3.356169822251225e+000	 9.098700340237164e+000
 1.152053937391005e+000	 3.368445768774295e+000	 9.067643077857850e+000
 1.116725724054791e+000	 3.380322256420249e+000	 9.040195943422596e+000
 1.081363186111191e+000	 3.391800169140812e+000	 9.012277874870751e+000
 1.045972678120807e+000	 3.402880519581427e+000	 8.979646528648781e+000
 1.408317793080948e+000	 3.298618944043411e+000	 9.479714876671624e+000
 1.373150227402962e+000	 3.313412741637784e+000	 9.429857663429161e+000
 1.337901991362677e+000	 3.327801580138630e+000	 9.357918932502447e+000
 1.302579782212286e+000	 3.341785530679351e+000	 9.277390193551931e+000
 1.267190265232369e+000	 3.355364805447437e+000	 9.213075198979206e+000
 1.231740070202997e+000	 3.368539756020867e+000	 9.162922695652076e+000
 1.196235787952496e+000	 3.381310871605198e+000	 9.123932480146353e+000
 1.160683966986851e+000	 3.393678777175001e+000	 9.092638643832670e+000
 1.125091110202530e+000	 3.405644231523448e+000	 9.065220339953834e+000
 1.089463671685380e+000	 3.417208125223935e+000	 9.037605164900072e+000
 1.053808053597977e+000	 3.428371478507618e+000	 9.005565227311109e+000
 1.418789053630321e+000	 3.323145154386643e+000	 9.492394811741525e+000
 1.383360006669641e+000	 3.338048948254552e+000	 9.447091350523623e+000
 1.347849689538625e+000	 3.352544772037962e+000	 9.382892907837290e+000
 1.312264849285517e+000	 3.366632697399167e+000	 9.303283731292236e+000
 1.276612200749228e+000	 3.380312938103318e+000	 9.237019773624173e+000
 1.240898423004204e+000	 3.393585848342482e+000	 9.185254441040357e+000
 1.205130155883532e+000	 3.406451920959592e+000	 9.145014789986787e+000
 1.169313996583270e+000	 3.418911785576081e+000	 9.112864828784373e+000
 1.133456496350850e+000	 3.430966206626969e+000	 9.085017724898904e+000
 1.097564157260153e+000	 3.442616081307317e+000	 9.057440254053740e+000
 1.061643429075730e+000	 3.453862437434002e+000	 9.025949583522998e+000
 1.429260314180360e+000	 3.347671364730342e+000	 9.503401881305454e+000
 1.393569785936990e+000	 3.362685154871817e+000	 9.462327135458496e+000
 1.357797387715248e+000	 3.377287963937803e+000	 9.404307343234482e+000
 1.321949916359428e+000	 3.391479864119481e+000	 9.327482199786493e+000
 1.286034136266774e+000	 3.405261070759681e+000	 9.258326609830272e+000
 1.250056775806104e+000	 3.418631940664543e+000	 9.204062836441974e+000
 1.214024523815262e+000	 3.431592970314385e+000	 9.161774547532188e+000
 1.177944026180386e+000	 3.444144793977504e+000	 9.128085481504519e+000
 1.141821882499862e+000	 3.456288181730766e+000	 9.099273015164409e+000
 1.105664642835609e+000	 3.468024037390906e+000	 9.071373587486466e+000
 1.069478804554146e+000	 3.479353396360511e+000	 9.040280091424300e+000
 1.439731574731233e+000	 3.372197575074528e+000	 9.514439660877892e+000
 1.403779565205173e+000	 3.387321361489601e+000	 9.476178526246629e+000
 1.367745085892707e+000	 3.402031155838170e+000	 9.422517521507549e+000
 1.331634983434178e+000	 3.416327030840312e+000	 9.349898100647074e+000
 1.295456071785157e+000	 3.430209203416529e+000	 9.276890637373914e+000
 1.259215128608840e+000	 3.443678032987045e+000	 9.219210454571535e+000
 1.222918891747823e+000	 3.456734019669561e+000	 9.174026861041826e+000
 1.186574055778320e+000	 3.469377802379238e+000	 9.138052927892836e+000
 1.150187268649676e+000	 3.481610156834798e+000	 9.107660333987532e+000
 1.113765128411843e+000	 3.493431993474643e+000	 9.078985667087306e+000
 1.077314180033310e+000	 3.504844355287081e+000	 9.048028313898175e+000
 9.989604252654352e-001	 3.249934766032135e+000	 8.816269851748048e+000
 9.651398813324286e-001	 3.260138493095665e+000	 8.766848304547187e+000
 9.313046005101890e-001	 3.269964816403907e+000	 8.717663398636825e+000
 8.974604845374918e-001	 3.279415054160485e+000	 8.669654545486532e+000
 8.636133751544897e-001	 3.288490638736054e+000	 8.623582144051218e+000
 8.297690515990591e-001	 3.297193114320970e+000	 8.580069901770143e+000
 7.959332281968499e-001	 3.305524134521356e+000	 8.539655249612080e+000
 7.621115520460927e-001	 3.313485459902493e+000	 8.502846770172042e+000
 7.283096007980531e-001	 3.321078955483442e+000	 8.470187530372282e+000
 6.945328805338571e-001	 3.328306588186819e+000	 8.442323193456463e+000
 6.607868237382243e-001	 3.335170424247628e+000	 8.420742897938721e+000
 1.006795800740831e+000	 3.275425724955747e+000	 8.823076234549456e+000
 9.727099843767157e-001	 3.285709485252757e+000	 8.776106885939473e+000
 9.386093155341527e-001	 3.295612881617041e+000	 8.729637925353686e+000
 9.044997422423738e-001	 3.305137242591581e+000	 8.684587861173672e+000
 8.703871520613904e-001	 3.314284011781864e+000	 8.641646663719198e+000
 8.362773695586973e-001	 3.323054745490132e+000	 8.601323389077818e+000
 8.021761538804225e-001	 3.331451110292612e+000	 8.564002454517436e+000
 7.680891964179751e-001	 3.339474880563621e+000	 8.529766762862737e+000
 7.340221185710891e-001	 3.347127935950536e+000	 8.498981688766575e+000
 6.999804696079962e-001	 3.354412258803585e+000	 8.473285846624888e+000
 6.659697246232671e-001	 3.361329931564333e+000	 8.454728567492737e+000
 1.014631176216317e+000	 3.300916683879955e+000	 8.842642536511946e+000
 9.802800874211786e-001	 3.311280477410428e+000	 8.799261076899288e+000
 9.459140305583736e-001	 3.321260946830719e+000	 8.756543715936186e+000
 9.115389999475941e-001	 3.330859431023176e+000	 8.715245047837309e+000
 8.771609289687057e-001	 3.340077384828113e+000	 8.675322750417843e+000
 8.427856875188232e-001	 3.348916376659676e+000	 8.636070326190970e+000
 8.084190795645522e-001	 3.357378086064188e+000	 8.598451177537823e+000
 7.740668407904775e-001	 3.365464301225003e+000	 8.563746863518848e+000
 7.397346363448019e-001	 3.373176916417826e+000	 8.533529878914434e+000
 7.054280586828629e-001	 3.380517929420490e+000	 8.509703489168444e+000
 6.711526255090805e-001	 3.387489438881134e+000	 8.494537778084109e+000
 1.022466551691976e+000	 3.326407642804696e+000	 8.874260918769048e+000
 9.878501904658823e-001	 3.336851469568601e+000	 8.835598890064292e+000
 9.532187455829029e-001	 3.346909012044858e+000	 8.795709080880771e+000
 9.185782576531852e-001	 3.356581619455178e+000	 8.754820761354324e+000
 8.839347058764531e-001	 3.365870757874714e+000	 8.713796753640459e+000
 8.492940054794380e-001	 3.374778007829509e+000	 8.673645507511436e+000
 8.146620052492227e-001	 3.383305061835990e+000	 8.635573288972275e+000
 7.800444851635688e-001	 3.391453721886552e+000	 8.601031677129349e+000
 7.454471541191473e-001	 3.399225896885227e+000	 8.571760632932584e+000
 7.108756477583998e-001	 3.406623600037462e+000	 8.549827416007705e+000
 6.763355263955969e-001	 3.413648946197964e+000	 8.537661634724962e+000
 1.030301927167889e+000	 3.351898601729900e+000	 8.913232925992235e+000
 9.954202935108945e-001	 3.362422461727201e+000	 8.874819734971776e+000
 9.605234606077903e-001	 3.372557077259375e+000	 8.834551784906386e+000
 9.256175153591821e-001	 3.382303807887502e+000	 8.793296366866828e+000
 8.907084827846497e-001	 3.391664130921577e+000	 8.752015835256620e+000
 8.558023234405420e-001	 3.400639638999539e+000	 8.711818598450854e+000
 8.209049309344191e-001	 3.409232037607926e+000	 8.674010767392009e+000
 7.860221295372192e-001	 3.417443142548177e+000	 8.640142959932309e+000
 7.511596718940810e-001	 3.425274877352658e+000	 8.612052547093279e+000
 7.163232368345507e-001	 3.432729270654426e+000	 8.591901640002927e+000
 6.815184272827486e-001	 3.439808453514760e+000	 8.582211125009366e+000
 1.038137302644139e+000	 3.377389560655498e+000	 8.948702976227374e+000
 1.002990396556281e+000	 3.387993453886149e+000	 8.910538011702222e+000
 9.678281756330861e-001	 3.398205142474185e+000	 8.870578137857287e+000
 9.326567730656176e-001	 3.408025996320059e+000	 8.829717956465423e+000
 8.974822596933115e-001	 3.417457503968606e+000	 8.788948136530149e+000
 8.623106414021357e-001	 3.426501270169676e+000	 8.749406780424131e+000
 8.271478566201258e-001	 3.435159013379910e+000	 8.712430535708347e+000
 7.919997739113981e-001	 3.443432563209798e+000	 8.679600701570172e+000
 7.568721896695579e-001	 3.451323857820037e+000	 8.652784639632822e+000
 7.217708259112582e-001	 3.458834941271304e+000	 8.634172811477948e+000
 6.867013281704680e-001	 3.465967960831457e+000	 8.626311773757221e+000
 1.045972678120807e+000	 3.402880519581427e+000	 8.979646528648781e+000
 1.010560499602108e+000	 3.413564446045371e+000	 8.942147973548739e+000
 9.751328906588406e-001	 3.423853207689207e+000	 8.903039340824027e+000
 9.396960307725256e-001	 3.433748184752760e+000	 8.863193803835490e+000
 9.042560366024565e-001	 3.443250877015715e+000	 8.823554636795279e+000
 8.688189593642189e-001	 3.452362901339825e+000	 8.785221925869999e+000
 8.333907823063274e-001	 3.461085989151849e+000	 8.749496131032034e+000
 7.979774182860748e-001	 3.469421983871322e+000	 8.717923481444629e+000
 7.625847074455351e-001	 3.477372838287284e+000	 8.692336530016343e+000
 7.272184149884663e-001	 3.484940611888026e+000	 8.674890214122689e+000
 6.918842290586873e-001	 3.492127468147986e+000	 8.668093777814862e+000
 1.053808053597977e+000	 3.428371478507618e+000	 9.005565227311109e+000
 1.018130602648443e+000	 3.439135438204790e+000	 8.969011022631122e+000
 9.824376056851037e-001	 3.449501272904357e+000	 8.931177053817699e+000
 9.467352884799394e-001	 3.459470373185520e+000	 8.892824191496072e+000
 9.110298135121008e-001	 3.469044250062812e+000	 8.854789966609358e+000
 8.753272773267932e-001	 3.478224532509899e+000	 8.818071274718045e+000
 8.396337079930086e-001	 3.487012964923652e+000	 8.783868231137344e+000
 8.039550626612187e-001	 3.495411404532665e+000	 8.753628834224852e+000
 7.682972252219670e-001	 3.503421818754314e+000	 8.729088634903073e+000
 7.326660040661166e-001	 3.511046282504512e+000	 8.712305785193744e+000
 6.970671299473389e-001	 3.518286975464283e+000	 8.705691846633746e+000
 1.061643429075730e+000	 3.453862437434002e+000	 9.025949583522998e+000
 1.025700705695351e+000	 3.464706430364328e+000	 8.990501482819719e+000
 9.897423207119259e-001	 3.475149338119550e+000	 8.954224409520297e+000
 9.537745461878929e-001	 3.485192561618248e+000	 8.917702327196192e+000
 9.178035904222616e-001	 3.494837623109806e+000	 8.881603209252615e+000
 8.818355952898580e-001	 3.504086163679801e+000	 8.846758105706625e+000
 8.458766336801538e-001	 3.512939940695230e+000	 8.814205182584150e+000
 8.099327070367999e-001	 3.521400825193738e+000	 8.785233624036248e+000
 7.740097429988093e-001	 3.529470799221044e+000	 8.761422379947639e+000
 7.381135931441535e-001	 3.537151953120691e+000	 8.744674158757697e+000
 7.022500308363554e-001	 3.544446482780284e+000	 8.737245073065532e+000
 1.069478804554146e+000	 3.479353396360511e+000	 9.040280091424300e+000
 1.033270808742900e+000	 3.490277422523913e+000	 9.005976903029549e+000
 9.970470357393574e-001	 3.500797403334707e+000	 8.971407004819028e+000
 9.608138038964192e-001	 3.510914750050856e+000	 8.936915243452296e+000
 9.245773673329560e-001	 3.520630996156605e+000	 8.902938691172702e+000
 8.883439132534143e-001	 3.529947794849443e+000	 8.870082402816788e+000
 8.521195593677479e-001	 3.538866916466493e+000	 8.839163530412369e+000
 8.159103514127873e-001	 3.547390245854455e+000	 8.811254426885130e+000
 7.797222607760179e-001	 3.555519779687395e+000	 8.787720426626818e+000
 7.435611822225196e-001	 3.563257623736487e+000	 8.770252730796010e+000
 7.074329317256694e-001	 3.570605990095922e+000	 8.760896832823637e+000
 1.077314180033310e+000	 3.504844355287081e+000	 9.048028313898175e+000
 1.040840911791156e+000	 3.515848414683465e+000	 9.014787048809502e+000
 1.004351750767449e+000	 3.526445468549742e+000	 8.981943871256751e+000
 9.678530616055532e-001	 3.536636938483259e+000	 8.949544681084383e+000
 9.313511442442004e-001	 3.546424369203119e+000	 8.917736761936906e+000
 8.948522312174626e-001	 3.555809426018735e+000	 8.886841517070520e+000
 8.583624850557751e-001	 3.564793892237349e+000	 8.857398549329007e+000
 8.218879957891512e-001	 3.573379666514729e+000	 8.830207920899481e+000
 7.854347785535484e-001	 3.581568760153285e+000	 8.806366913325624e+000
 7.490087713011586e-001	 3.589363294351826e+000	 8.787301745057754e+000
 7.126158326152123e-001	 3.596765497411133e+000	 8.774794711151854e+000
 6.607868237382243e-001	 3.335170424247628e+000	 8.420742897938721e+000
 6.270818393662591e-001	 3.341671678785408e+000	 8.400243966139703e+000
 5.934181341637264e-001	 3.347813666836248e+000	 8.364278088512906e+000
 5.598008987902472e-001	 3.353598738394850e+000	 8.316005024314196e+000
 5.262352434010413e-001	 3.359029331970649e+000	 8.257962013021448e+000
 4.927261961099982e-001	 3.364107971852334e+000	 8.192358430557484e+000
 4.592787015493515e-001	 3.368837265353978e+000	 8.121347928378164e+000
 4.258976195254683e-001	 3.373219900046345e+000	 8.047279734306310e+000
 3.925877237701084e-001	 3.377258640976893e+000	 7.972930784840117e+000
 3.593537007863771e-001	 3.380956327881860e+000	 7.901720333645431e+000
 3.262001487885013e-001	 3.384315872393811e+000	 7.837908641489785e+000
 6.659697246232671e-001	 3.361329931564333e+000	 8.454728567492737e+000
 6.320003742149505e-001	 3.367882178883140e+000	 8.433287879662821e+000
 5.980726267504355e-001	 3.374072341797701e+000	 8.398233575914894e+000
 5.641917136024434e-001	 3.379902788734986e+000	 8.352890257131753e+000
 5.303627850078557e-001	 3.385375977330978e+000	 8.299992922729919e+000
 4.965909085187302e-001	 3.390494451673717e+000	 8.241975928316382e+000
 4.628810675506775e-001	 3.395260839527842e+000	 8.181238882929643e+000
 4.292381600281079e-001	 3.399677849544182e+000	 8.120391297015715e+000
 3.956669971256946e-001	 3.403748268457943e+000	 8.062477778526763e+000
 3.621723021052770e-001	 3.407474958278943e+000	 8.011185544143148e+000
 3.287587092473185e-001	 3.410860853477239e+000	 7.971035967115899e+000
 6.711526255090805e-001	 3.387489438881134e+000	 8.494537778084109e+000
 6.369189090644476e-001	 3.394092678980937e+000	 8.472327157229726e+000
 6.027271193379755e-001	 3.400331016759193e+000	 8.438129015808420e+000
 5.685825284154836e-001	 3.406206839075148e+000	 8.395679149149036e+000
 5.344903266155143e-001	 3.411722622691323e+000	 8.347806609394665e+000
 5.004556209282910e-001	 3.416880931495114e+000	 8.297070846112257e+000
 4.664834335528003e-001	 3.421684413701723e+000	 8.246020728051885e+000
 4.325787005314929e-001	 3.426135799042036e+000	 8.197431897747446e+000
 3.987462704819556e-001	 3.430237895939014e+000	 8.154524390126285e+000
 3.649909034247584e-001	 3.433993588676045e+000	 8.121162410241855e+000
 3.313172697066006e-001	 3.437405834560681e+000	 8.102038113356075e+000
 6.763355263955969e-001	 3.413648946197964e+000	 8.537661634724961e+000
 6.418374439146737e-001	 3.420303179078740e+000	 8.515233988076023e+000
 6.073816119262631e-001	 3.426589691720682e+000	 8.481630184404068e+000
 5.729733432292812e-001	 3.432510889415307e+000	 8.441809191652128e+000
 5.386178682239284e-001	 3.438069268051671e+000	 8.398599113368395e+000
 5.043203333385939e-001	 3.443267411316521e+000	 8.354593466688609e+000
 4.700857995556381e-001	 3.448107987875623e+000	 8.312402650935729e+000
 4.359192410355516e-001	 3.452593748539921e+000	 8.274883324715022e+000
 4.018255438388309e-001	 3.456727523420122e+000	 8.245347762789306e+000
 3.678095047447776e-001	 3.460512219073185e+000	 8.227755221982976e+000
 3.338758301663242e-001	 3.463950815644158e+000	 8.226887286767152e+000
 6.815184272827486e-001	 3.439808453514760e+000	 8.582211125009364e+000
 6.467559787655529e-001	 3.446513679176500e+000	 8.559895509646237e+000
 6.120361045152155e-001	 3.452848366682128e+000	 8.526425117858208e+000
 5.773641580437486e-001	 3.458814939755431e+000	 8.488746884227091e+000
 5.427454098330107e-001	 3.464415913412002e+000	 8.449601794551018e+000
 5.081850457495537e-001	 3.469653891137935e+000	 8.411535398094321e+000
 4.736881655591105e-001	 3.474531562049550e+000	 8.377141000281412e+000
 4.392597815402107e-001	 3.479051698037851e+000	 8.349280333528576e+000
 4.049048171962606e-001	 3.483217150901287e+000	 8.331283924171773e+000
 3.706281060652907e-001	 3.487030849470385e+000	 8.327133325106676e+000
 3.364343906264664e-001	 3.490495796727684e+000	 8.341627318110344e+000
 6.867013281704680e-001	 3.465967960831457e+000	 8.626311773757221e+000
 6.516745136170079e-001	 3.472724179274157e+000	 8.604212633976768e+000
 6.166905971047496e-001	 3.479107041643489e+000	 8.570222907694085e+000
 5.817549728588000e-001	 3.485118990095495e+000	 8.533986430140244e+000
 5.468729514426727e-001	 3.490762558772302e+000	 8.498079865238559e+000
 5.120497581610830e-001	 3.496040370959349e+000	 8.464927888153341e+000
 4.772905315631359e-001	 3.500955136223510e+000	 8.437037333228178e+000
 4.426003220453980e-001	 3.505509647535838e+000	 8.417208384138645e+000
 4.079840905541844e-001	 3.509706778382526e+000	 8.408725177675995e+000
 3.734467073862539e-001	 3.513549479867663e+000	 8.415528137599086e+000
 3.389929510870035e-001	 3.517040777811276e+000	 8.442370281919409e+000
 6.918842290586873e-001	 3.492127468147986e+000	 8.668093777814862e+000
 6.565930484689633e-001	 3.498934679371662e+000	 8.646098916420062e+000
 6.213450896947828e-001	 3.505365716604721e+000	 8.610752548820777e+000
 5.861457876743472e-001	 3.511423040435469e+000	 8.575048495934238e+000
 5.510004930528263e-001	 3.517109204132556e+000	 8.541331000003105e+000
 5.159144705730965e-001	 3.522426850780760e+000	 8.511840229826703e+000
 4.808928975676334e-001	 3.527378710397507e+000	 8.488936567928539e+000
 4.459408625510410e-001	 3.531967597033896e+000	 8.475301498912344e+000
 4.110633639125423e-001	 3.536196405863857e+000	 8.474117630893284e+000
 3.762653087076235e-001	 3.540068110265040e+000	 8.489230319933164e+000
 3.415515115479128e-001	 3.543585758894952e+000	 8.525293286531616e+000
 6.970671299473389e-001	 3.518286975464283e+000	 8.705691846633746e+000
 6.615115833213421e-001	 3.525145179468955e+000	 8.683479464508089e+000
 6.259995822852320e-001	 3.531624391565782e+000	 8.645761837414661e+000
 5.905366024903045e-001	 3.537727090775320e+000	 8.609479031894626e+000
 5.551280346633835e-001	 3.543455849492744e+000	 8.576684018595511e+000
 5.197791829855072e-001	 3.548813330602162e+000	 8.549378252739006e+000
 4.844952635725218e-001	 3.553802284571547e+000	 8.529725236270918e+000
 4.492814030570671e-001	 3.558425546532040e+000	 8.520240235537983e+000
 4.141426372712742e-001	 3.562686033345300e+000	 8.523958854102636e+000
 3.790839100293557e-001	 3.566586740662535e+000	 8.544587091004352e+000
 3.441100720091707e-001	 3.570130739978726e+000	 8.586635425710696e+000
 7.022500308363554e-001	 3.544446482780284e+000	 8.737245073065532e+000
 6.664301181740677e-001	 3.551355679565987e+000	 8.714289884879822e+000
 6.306540748760146e-001	 3.557883066526630e+000	 8.673016316084951e+000
 5.949274173065843e-001	 3.564031141115022e+000	 8.634848150245018e+000
 5.592555762742563e-001	 3.569802494852851e+000	 8.601497638097285e+000
 5.236438953982293e-001	 3.575199810423551e+000	 8.574682896416055e+000
 4.880976295777198e-001	 3.580225858745636e+000	 8.556329831575106e+000
 4.526219435634039e-001	 3.584883496030281e+000	 8.548749768825134e+000
 4.172219106303195e-001	 3.589175660826871e+000	 8.554795662110575e+000
 3.819025113514069e-001	 3.593105371060167e+000	 8.577999682232353e+000
 3.466686324707544e-001	 3.596675721062616e+000	 8.622694883509233e+000
 7.074329317256694e-001	 3.570605990095922e+000	 8.760896832823637e+000
 6.713486530270640e-001	 3.577566179662699e+000	 8.736172812310196e+000
 6.353085674670472e-001	 3.584141741487224e+000	 8.690298263900631e+000
 5.993182321231001e-001	 3.590335191454545e+000	 8.648749058107921e+000
 5.633831178853562e-001	 3.596149140212859e+000	 8.613159290770749e+000
 5.275086078111761e-001	 3.601586290244922e+000	 8.584928861043297e+000
 4.916999955831463e-001	 3.606649432919779e+000	 8.565715246390626e+000
 4.559624840699785e-001	 3.611341445528634e+000	 8.557598075815266e+000
 4.203011839896186e-001	 3.615665288308593e+000	 8.563222013102832e+000
 3.847211126737328e-001	 3.619624001457956e+000	 8.585920922743759e+000
 3.492271929326406e-001	 3.623220702146639e+000	 8.629826184516887e+000
 7.126158326152123e-001	 3.596765497411133e+000	 8.774794711151854e+000
 6.762671878802550e-001	 3.603776679759038e+000	 8.746759768927101e+000
 6.399630600582476e-001	 3.610400416447522e+000	 8.695405728992910e+000
 6.037090469397647e-001	 3.616639241793862e+000	 8.648797042444450e+000
 5.675106594965956e-001	 3.622495785572754e+000	 8.609084004262153e+000
 5.313733202242620e-001	 3.627972770066271e+000	 8.577323331799212e+000
 4.953023615887203e-001	 3.633073007093981e+000	 8.554883295810486e+000
 4.593030245767192e-001	 3.637799395027112e+000	 8.543594218942541e+000
 4.233804573491112e-001	 3.642154915790479e+000	 8.545877018554549e+000
 3.875397139962902e-001	 3.646142631855923e+000	 8.564852948962502e+000
 3.517857533948060e-001	 3.649765683230813e+000	 8.604437582087186e+000
 3.262001487885013e-001	 3.384315872393811e+000	 7.837908641489781e+000
 2.931266340559612e-001	 3.387340684071736e+000	 7.773029111551487e+000
 2.601426139203095e-001	 3.390033282652841e+000	 7.694152678411900e+000
 2.272524846770250e-001	 3.392396780883214e+000	 7.600620543976785e+000
 1.944605489001440e-001	 3.394434352328458e+000	 7.493313478369132e+000
 1.617710148445833e-001	 3.396149228576582e+000	 7.374804888037416e+000
 1.291879959367674e-001	 3.397544696455680e+000	 7.249505710796671e+000
 9.671551035186207e-002	 3.398624095269112e+000	 7.123802173708914e+000
 6.435748067584694e-002	 3.399390814050797e+000	 7.006187348760459e+000
 3.211773365058886e-002	 3.399848288843145e+000	 6.907387338459408e+000
 0.000000000000000e+000	 3.400000000000000e+000	 6.840482849431359e+000
 3.287587092473185e-001	 3.410860853477239e+000	 7.971035967115899e+000
 2.954257814294042e-001	 3.413909390354809e+000	 7.932621259786136e+000
 2.621830501619328e-001	 3.416623108412469e+000	 7.882086682986857e+000
 2.290349462228407e-001	 3.419005144811186e+000	 7.819037997665683e+000
 1.959858059335152e-001	 3.421058698008491e+000	 7.744586322336561e+000
 1.630398705564288e-001	 3.422787024939412e+000	 7.661495401944695e+000
 1.302012857817726e-001	 3.424193438212349e+000	 7.574321199927413e+000
 9.747410130137282e-002	 3.425281303322549e+000	 7.489544911472222e+000
 6.486227046811306e-002	 3.426054035885894e+000	 7.415700386513771e+000
 3.236965003900847e-002	 3.426515098895460e+000	 7.363496839729404e+000
 0.000000000000000e+000	 3.426668000003317e+000	 7.345937641117934e+000
 3.313172697066006e-001	 3.437405834560681e+000	 8.102038113356075e+000
 2.977249288031724e-001	 3.440478096637889e+000	 8.086736191017680e+000
 2.642234864037295e-001	 3.443212934172093e+000	 8.060472978078963e+000
 2.308174077686785e-001	 3.445613508739142e+000	 8.023121600235658e+000
 1.975110629667696e-001	 3.447683043688490e+000	 7.976025430946568e+000
 1.643087262680443e-001	 3.449424821302194e+000	 7.922138883630183e+000
 1.312145756264719e-001	 3.450842179968952e+000	 7.866161063257497e+000
 9.823269225055085e-002	 3.451938511375909e+000	 7.814663440438170e+000
 6.536706026008096e-002	 3.452717257720900e+000	 7.776212592720228e+000
 3.262156642723695e-002	 3.453181908947675e+000	 7.761488937665055e+000
 0.000000000000000e+000	 3.453336000006534e+000	 7.783402288507893e+000
 3.338758301663242e-001	 3.463950815644158e+000	 8.226887286767150e+000
 3.000240761772671e-001	 3.467046802920987e+000	 8.231287585079175e+000
 2.662639226457273e-001	 3.469802759931710e+000	 8.225271404357860e+000
 2.325998693145914e-001	 3.472221872667065e+000	 8.208988272216908e+000
 1.990363199999830e-001	 3.474307389368425e+000	 8.184021737534355e+000
 1.655775819795217e-001	 3.476062617664879e+000	 8.153522977199994e+000
 1.322278654709650e-001	 3.477490921725426e+000	 8.122337840262993e+000
 9.899128319949337e-002	 3.478595719429112e+000	 8.097128560773330e+000
 6.587185005183170e-002	 3.479380479555727e+000	 8.086491242901817e+000
 3.287348281532380e-002	 3.479848718999696e+000	 8.101070092403612e+000
 0.000000000000000e+000	 3.480004000009550e+000	 8.153669264276370e+000
 3.364343906264664e-001	 3.490495796727684e+000	 8.341627318110348e+000
 3.023232235516898e-001	 3.493615509204113e+000	 8.362267128023252e+000
 2.683043588879538e-001	 3.496392585691321e+000	 8.372525464189392e+000
 2.343823308606329e-001	 3.498830236594936e+000	 8.372843734700741e+000
 2.005615770332309e-001	 3.500931735048263e+000	 8.365059805179934e+000
 1.668464376909529e-001	 3.502700414027417e+000	 8.352533679075481e+000
 1.332411553153519e-001	 3.504139663481708e+000	 8.340267237074629e+000
 9.974987414829747e-002	 3.505252927482079e+000	 8.335019338346246e+000
 6.637663984344647e-002	 3.506043701390285e+000	 8.345417448779319e+000
 3.312539920331854e-002	 3.506515529051426e+000	 8.382066822119507e+000
 0.000000000000000e+000	 3.506672000012267e+000	 8.457658144701384e+000
 3.389929510870035e-001	 3.517040777811276e+000	 8.442370281919406e+000
 3.046223709264421e-001	 3.520184215487275e+000	 8.475740746497673e+000
 2.703447951304372e-001	 3.522982411450922e+000	 8.498358214972082e+000
 2.361647924068563e-001	 3.525438600522739e+000	 8.510978109687551e+000
 2.020868340665886e-001	 3.527556080727968e+000	 8.515713185935622e+000
 1.681152934024299e-001	 3.529338210389759e+000	 8.516150511695518e+000
 1.342544451597327e-001	 3.530788405237732e+000	 8.517463173895695e+000
 1.005084650970603e-001	 3.531910135534731e+000	 8.526518088614752e+000
 6.688142963500628e-002	 3.532706923224483e+000	 8.551981144810153e+000
 3.337731559127066e-002	 3.533182339102766e+000	 8.604420761677615e+000
 0.000000000000000e+000	 3.533340000014583e+000	 8.696410813073728e+000
 3.415515115479128e-001	 3.543585758894952e+000	 8.525293286531614e+000
 3.069215183015248e-001	 3.546752921770478e+000	 8.567845028246641e+000
 2.723852313732049e-001	 3.549572237210507e+000	 8.598968361848797e+000
 2.379472539533150e-001	 3.552046964450459e+000	 8.619761730617096e+000
 2.036120911001321e-001	 3.554180426407512e+000	 8.632639998575483e+000
 1.693841491140445e-001	 3.555976006751856e+000	 8.641441921600192e+000
 1.352677350042071e-001	 3.557437146993431e+000	 8.651533060135126e+000
 1.012670560458789e-001	 3.558567343586992e+000	 8.669905589042022e+000
 6.738621942659229e-002	 3.559370145058233e+000	 8.705276301512404e+000
 3.362923197922968e-002	 3.559849149153620e+000	 8.768183943767054e+000
 0.000000000000000e+000	 3.560008000016400e+000	 8.871086878686814e+000
 3.441100720091707e-001	 3.570130739978726e+000	 8.586635425710695e+000
 3.092206656769397e-001	 3.573321628053737e+000	 8.634783819047431e+000
 2.744256676162848e-001	 3.576162062970079e+000	 8.670626539412629e+000
 2.397297155000622e-001	 3.578655328378078e+000	 8.695641152141352e+000
 2.051373481339368e-001	 3.580804772086859e+000	 8.712578713500419e+000
 1.706530048258889e-001	 3.582613803113661e+000	 8.725560890211389e+000
 1.362810248488753e-001	 3.584085888748745e+000	 8.740173285405980e+000
 1.020256469948505e-001	 3.585224551638780e+000	 8.763556508144998e+000
 6.789100921828561e-002	 3.586033366891444e+000	 8.804496353766012e+000
 3.388114836724510e-002	 3.586515959203891e+000	 8.873514290927364e+000
 0.000000000000000e+000	 3.586676000017616e+000	 8.982959300199335e+000
 3.466686324707544e-001	 3.596675721062616e+000	 8.622694883509233e+000
 3.115198130526881e-001	 3.599890334337058e+000	 8.672824986971806e+000
 2.764661038597044e-001	 3.602751888729631e+000	 8.709671772648081e+000
 2.415121770471513e-001	 3.605263692305578e+000	 8.735135348845953e+000
 2.066626051680781e-001	 3.607429117765978e+000	 8.752344134086981e+000
 1.719218605380546e-001	 3.609251599475123e+000	 8.765740746323729e+000
 1.372943146938369e-001	 3.610734630503605e+000	 8.781164915239875e+000
 1.027842379440721e-001	 3.611881759690019e+000	 8.805935039979557e+000
 6.839579901016735e-002	 3.612696588724027e+000	 8.848929832992184e+000
 3.413306475536642e-002	 3.613182769253480e+000	 8.920671307582644e+000
 0.000000000000000e+000	 3.613344000018133e+000	 9.033410202803431e+000
 3.492271929326406e-001	 3.623220702146639e+000	 8.629826184516885e+000
 3.138189604287714e-001	 3.626459040620449e+000	 8.678297345386357e+000
 2.785065401034917e-001	 3.629341714489162e+000	 8.712508107911296e+000
 2.432946385946357e-001	 3.631872056232944e+000	 8.734832093230846e+000
 2.081878622026318e-001	 3.634053463444835e+000	 8.748823564413675e+000
 1.731907162506340e-001	 3.635889395836193e+000	 8.759291169960191e+000
 1.383076045391921e-001	 3.637383372257951e+000	 8.772369581012653e+000
 1.035428288936410e-001	 3.638538967740631e+000	 8.795590733533690e+000
 6.890058880231857e-002	 3.639359810555891e+000	 8.837956192749706e+000
 3.438498114364316e-002	 3.639849579302291e+000	 8.910011961814316e+000
 0.000000000000000e+000	 3.640012000017849e+000	 9.023926879263700e+000
 3.517857533948060e-001	 3.649765683230813e+000	 8.604437582087188e+000
 3.161181078051911e-001	 3.653027746903922e+000	 8.647587726611796e+000
 2.805469763476744e-001	 3.655931540248671e+000	 8.675601405293932e+000
 2.450771001425687e-001	 3.658480420160160e+000	 8.691384503824413e+000
 2.097131192376733e-001	 3.660677809123401e+000	 8.698973153870536e+000
 1.744595719637188e-001	 3.662527192196826e+000	 8.703594377851264e+000
 1.393208943850408e-001	 3.664032114011716e+000	 8.711725554198312e+000
 1.043014198436543e-001	 3.665196175790536e+000	 8.731154507100040e+000
 6.940537859482046e-002	 3.666023032386947e+000	 8.771041817904228e+000
 3.463689753212482e-002	 3.666516389350228e+000	 8.841986747223123e+000
 0.000000000000000e+000	 3.666680000016666e+000	 8.956097965464535e+000
 3.666680000016666e+000	 0.000000000000000e+000	 1.049764831826009e+001
 3.666516389350228e+000	 3.463689753212492e-002	 1.057579036366587e+001
 3.666023032386948e+000	 6.940537859482068e-002	 1.061290187869365e+001
 3.665196175790535e+000	 1.043014198436540e-001	 1.062007297871501e+001
 3.664032114011715e+000	 1.393208943850406e-001	 1.060766780688538e+001
 3.662527192196825e+000	 1.744595719637187e-001	 1.058532312775570e+001
 3.660677809123401e+000	 2.097131192376734e-001	 1.056194586647731e+001
 3.658480420160158e+000	 2.450771001425689e-001	 1.054570988565215e+001
 3.655931540248671e+000	 2.805469763476741e-001	 1.054405234493218e+001
 3.653027746903921e+000	 3.161181078051908e-001	 1.056367005484168e+001
 3.649765683230813e+000	 3.517857533948059e-001	 1.061051630437786e+001
 3.693344000014533e+000	 0.000000000000000e+000	 1.050309462255035e+001
 3.693179199575722e+000	 3.488877613527524e-002	 1.058235495107199e+001
 3.692682254933839e+000	 6.991009267304311e-002	 1.061997233826738e+001
 3.691849385458404e+000	 1.050598970112210e-001	 1.062712033229521e+001
 3.690676858653458e+000	 1.403340322455685e-001	 1.061425408997265e+001
 3.689160993087310e+000	 1.757282373585245e-001	 1.059110705990572e+001
 3.687298161349475e+000	 2.112381474961306e-001	 1.056668621088915e+001
 3.685084793032175e+000	 2.468592943351136e-001	 1.054926610038748e+001
 3.682517377733704e+000	 2.825871065421269e-001	 1.054638213542641e+001
 3.679592468080790e+000	 3.184169103270726e-001	 1.056482344864257e+001
 3.676306682767058e+000	 3.543439300923416e-001	 1.061062588452171e+001
 3.720008000011599e+000	 0.000000000000000e+000	 1.049994969681113e+001
 3.719842009800440e+000	 3.514065473862902e-002	 1.058055659590445e+001
 3.719341477480015e+000	 7.041480675161087e-002	 1.061921029039134e+001
 3.718502595125647e+000	 1.058183741792211e-001	 1.062708145250589e+001
 3.717321603294685e+000	 1.413471701065709e-001	 1.061463538109982e+001
 3.715794793977405e+000	 1.769969027538079e-001	 1.059162686900628e+001
 3.713918513575290e+000	 2.127631757550383e-001	 1.056709319086511e+001
 3.711689165904060e+000	 2.486414885280598e-001	 1.054934550840665e+001
 3.709103215218715e+000	 2.846272367369182e-001	 1.054595905234916e+001
 3.706157189257729e+000	 3.207157128492246e-001	 1.056376251468152e+001
 3.702847682303435e+000	 3.569021067900821e-001	 1.060882716175541e+001
 3.746672000008066e+000	 0.000000000000000e+000	 1.049189599356790e+001
 3.746504820024573e+000	 3.539253334213540e-002	 1.057365996289141e+001
 3.746000700025651e+000	 7.091952083043755e-002	 1.061347986560888e+001
 3.745155804792418e+000	 1.065768513475459e-001	 1.062243927723517e+001
 3.743966347935525e+000	 1.423603079679293e-001	 1.061093502324629e+001
 3.742428594867207e+000	 1.782655681494496e-001	 1.058867032119364e+001
 3.740538865800909e+000	 2.142882040142841e-001	 1.056464559298019e+001
 3.738293538775842e+000	 2.504236827213071e-001	 1.054714724590337e+001
 3.735689052703710e+000	 2.866673669319632e-001	 1.054373478802893e+001
 3.732721910434723e+000	 3.230145153715789e-001	 1.056122672243757e+001
 3.729388681839912e+000	 3.594602834879762e-001	 1.060568574608470e+001
 3.773336000004134e+000	 0.000000000000000e+000	 1.048232243137518e+001
 3.773167630248318e+000	 3.564441194574353e-002	 1.056468571628317e+001
 3.772659922570928e+000	 7.142423490943686e-002	 1.060544719475518e+001
 3.771809014458874e+000	 1.073353285160872e-001	 1.061552119707857e+001
 3.770611092576107e+000	 1.433734458295249e-001	 1.060515970672937e+001
 3.769062395756812e+000	 1.795342335453302e-001	 1.058394386356730e+001
 3.767159218026396e+000	 2.158132322737551e-001	 1.056077266037581e+001
 3.764897911647557e+000	 2.522058769147550e-001	 1.054384913236890e+001
 3.762274890188694e+000	 2.887074971271775e-001	 1.054066441121440e+001
 3.759286631611750e+000	 3.253133178940683e-001	 1.055798009862560e+001
 3.755929681376454e+000	 3.620184601859726e-001	 1.060180950049887e+001
 3.800000000000001e+000	 0.000000000000000e+000	 1.047433469322378e+001
 3.799830440471870e+000	 3.589629054940256e-002	 1.055641962389567e+001
 3.799319145116026e+000	 7.192894898852251e-002	 1.059758835868836e+001
 3.798462224125175e+000	 1.080938056847368e-001	 1.060850589293331e+001
 3.797255837216560e+000	 1.443865836912391e-001	 1.059920523899847e+001
 3.795696196646321e+000	 1.808028989413303e-001	 1.057907737271547e+001
 3.793779570251820e+000	 2.173382605333389e-001	 1.055685786876893e+001
 3.791502284519238e+000	 2.539880711083034e-001	 1.054061052508956e+001
 3.788860727673674e+000	 2.907476273224763e-001	 1.053770835334284e+001
 3.785851352788797e+000	 3.276121204166252e-001	 1.055481240081413e+001
 3.782470680913030e+000	 3.645766368840203e-001	 1.059784895982707e+001
 3.826663999995868e+000	 0.000000000000000e+000	 1.047076509439658e+001
 3.826493250695418e+000	 3.614816915306155e-002	 1.055142128003335e+001
 3.825978367661124e+000	 7.243366306760815e-002	 1.059219700367335e+001
 3.825115433791474e+000	 1.088522828533864e-001	 1.060342988329070e+001
 3.823900581857011e+000	 1.453997215529534e-001	 1.059486206537876e+001
 3.822329997535829e+000	 1.820715643373304e-001	 1.057562869258079e+001
 3.820399922477241e+000	 2.188632887929226e-001	 1.055424252727534e+001
 3.818106657390919e+000	 2.557702653018517e-001	 1.053857503095190e+001
 3.815446565158653e+000	 2.927877575177752e-001	 1.053583428156416e+001
 3.812416073965843e+000	 3.299109229391820e-001	 1.055254020414405e+001
 3.809011680449607e+000	 3.671348135820680e-001	 1.059449768588726e+001
 3.853327999991935e+000	 0.000000000000000e+000	 1.047418204062552e+001
 3.853156060919162e+000	 3.640004775666967e-002	 1.055203246575859e+001
 3.852637590206400e+000	 7.293837714660749e-002	 1.059139163861523e+001
 3.851768643457932e+000	 1.096107600219277e-001	 1.060219379528921e+001
 3.850545326497594e+000	 1.464128594145490e-001	 1.059382055282770e+001
 3.848963798425434e+000	 1.833402297332110e-001	 1.057508797187512e+001
 3.847020274702730e+000	 2.203883170523936e-001	 1.055422921253631e+001
 3.844711030262634e+000	 2.575524594952997e-001	 1.053887308246518e+001
 3.842032402643639e+000	 2.948278877129895e-001	 1.053601886400514e+001
 3.838980795142871e+000	 3.322097254616714e-001	 1.055200790536112e+001
 3.835552679986150e+000	 3.696929902800644e-001	 1.059249256201479e+001
 3.879991999988402e+000	 0.000000000000000e+000	 1.048689909626115e+001
 3.879818871143298e+000	 3.665192636017606e-002	 1.056038516394411e+001
 3.879296812752037e+000	 7.344309122543419e-002	 1.059712262944642e+001
 3.878421853124702e+000	 1.103692371902526e-001	 1.060656837281301e+001
 3.877190071138434e+000	 1.474259972759073e-001	 1.059767604810379e+001
 3.875597599315237e+000	 1.846088951288528e-001	 1.057888181068323e+001
 3.873640626928349e+000	 2.219133453116393e-001	 1.055808504416398e+001
 3.871315403134415e+000	 2.593346536885469e-001	 1.054262438453499e+001
 3.868618240128634e+000	 2.968680179080345e-001	 1.053924943245826e+001
 3.865545516319864e+000	 3.345085279840258e-001	 1.055408864813803e+001
 3.862093679522626e+000	 3.722511669779585e-001	 1.059261402988618e+001
 3.906655999985469e+000	 0.000000000000000e+000	 1.051098368108531e+001
 3.906481681368015e+000	 3.690380496352986e-002	 1.057840924560784e+001
 3.905956035298213e+000	 7.394780530400193e-002	 1.061117890513406e+001
 3.905075062791944e+000	 1.111277143582526e-001	 1.061820023420568e+001
 3.903834815779661e+000	 1.484391351369098e-001	 1.060793372112801e+001
 3.902231400205331e+000	 1.858775605241362e-001	 1.058837722537063e+001
 3.900260979154164e+000	 2.234383735705472e-001	 1.056704480909000e+001
 3.897919776006298e+000	 2.611168478814930e-001	 1.055094023816263e+001
 3.895204077613645e+000	 2.989081481028258e-001	 1.054652554739654e+001
 3.892110237496803e+000	 3.368073305061777e-001	 1.055968517344703e+001
 3.888634679059003e+000	 3.748093436756990e-001	 1.059568627139655e+001
 3.933319999983334e+000	 0.000000000000000e+000	 1.054826541339006e+001
 3.933144491593509e+000	 3.715568356668014e-002	 1.060783984312752e+001
 3.932615257845103e+000	 7.445251938222434e-002	 1.063519438899618e+001
 3.931728272459812e+000	 1.118861915258195e-001	 1.063861739147312e+001
 3.930479560421403e+000	 1.494522729974376e-001	 1.062601320372719e+001
 3.928865201095816e+000	 1.871462259189419e-001	 1.060488544042251e+001
 3.926881331380236e+000	 2.249634018290042e-001	 1.058231394198527e+001
 3.924524148878316e+000	 2.628990420740378e-001	 1.056492574691020e+001
 3.921789915098675e+000	 3.009482782972785e-001	 1.055886046994859e+001
 3.918674958673671e+000	 3.391061330280594e-001	 1.056973059854121e+001
 3.915175678595246e+000	 3.773675203732345e-001	 1.060257733819616e+001
 3.649765683230813e+000	 3.517857533948059e-001	 1.061051630437786e+001
 3.646142631855923e+000	 3.875397139962905e-001	 1.066081051801103e+001
 3.642154915790480e+000	 4.233804573491110e-001	 1.069064637163299e+001
 3.637799395027112e+000	 4.593030245767192e-001	 1.070466130707396e+001
 3.633073007093982e+000	 4.953023615887200e-001	 1.070677585489283e+001
 3.627972770066271e+000	 5.313733202242620e-001	 1.070020102213108e+001
 3.622495785572755e+000	 5.675106594965961e-001	 1.068745041732931e+001
 3.616639241793862e+000	 6.037090469397646e-001	 1.067035806707011e+001
 3.610400416447522e+000	 6.399630600582474e-001	 1.065010293710951e+001
 3.603776679759039e+000	 6.762671878802548e-001	 1.062881399572514e+001
 3.596765497411132e+000	 7.126158326152124e-001	 1.063896355502494e+001
 3.676306682767058e+000	 3.543439300923416e-001	 1.061062588452171e+001
 3.672657284658395e+000	 3.903578925499764e-001	 1.066007501465310e+001
 3.668640570027081e+000	 4.264592688408317e-001	 1.068920959678898e+001
 3.664253376031720e+000	 4.626430640275384e-001	 1.070255732239501e+001
 3.659492617930285e+000	 4.989041872664869e-001	 1.070392376389498e+001
 3.654355292113509e+000	 5.352374529595347e-001	 1.069639528442570e+001
 3.648838479133311e+000	 5.716375820076131e-001	 1.068234649089571e+001
 3.642939346722671e+000	 6.080992031672104e-001	 1.066345322959633e+001
 3.636655152803182e+000	 6.446168545105612e-001	 1.064071218683319e+001
 3.629983248476528e+000	 6.811849849902316e-001	 1.061788211383854e+001
 3.622921080995963e+000	 7.177979561086598e-001	 1.062826657233673e+001
 3.702847682303435e+000	 3.569021067900821e-001	 1.060882716175541e+001
 3.699171937461023e+000	 3.931760711038122e-001	 1.065767731047124e+001
 3.695126224263829e+000	 4.295380803326591e-001	 1.068647835342048e+001
 3.690707357036439e+000	 4.659831034784319e-001	 1.069962106592760e+001
 3.685912228766642e+000	 5.025060129443072e-001	 1.070077197580075e+001
 3.680737814160723e+000	 5.391015856948495e-001	 1.069287158517576e+001
 3.675181172693759e+000	 5.757645045186707e-001	 1.067813692130435e+001
 3.669239451651285e+000	 6.124893593947065e-001	 1.065806946192052e+001
 3.662909889158565e+000	 6.492706489629425e-001	 1.063346954866344e+001
 3.656189817193663e+000	 6.861027821003025e-001	 1.061023492623021e+001
 3.649076664580380e+000	 7.229800796022365e-001	 1.062083526871149e+001
 3.729388681839912e+000	 3.594602834879762e-001	 1.060568574608470e+001
 3.725686590263769e+000	 3.959942496577605e-001	 1.065402944452185e+001
 3.721611878500688e+000	 4.326168918245666e-001	 1.068271322652617e+001
 3.717161338041240e+000	 4.693231429293812e-001	 1.069596703267465e+001
 3.712331839603034e+000	 5.061078386221668e-001	 1.069729761817054e+001
 3.707120336207917e+000	 5.429657184301957e-001	 1.068948186345578e+001
 3.701523866254123e+000	 5.798914270297597e-001	 1.067456417809146e+001
 3.695539556579746e+000	 6.168795156222395e-001	 1.065385909137032e+001
 3.689164625513729e+000	 6.539244434153747e-001	 1.062796019580230e+001
 3.682396385910517e+000	 6.910205792104438e-001	 1.060527699214173e+001
 3.675232248164469e+000	 7.281622030959103e-001	 1.061604102354173e+001
 3.755929681376454e+000	 3.620184601859726e-001	 1.060180950049887e+001
 3.752201243066594e+000	 3.988124282117838e-001	 1.064960055420797e+001
 3.748097532737623e+000	 4.356957033165273e-001	 1.067824454397212e+001
 3.743615319046093e+000	 4.726631823803677e-001	 1.069178995435141e+001
 3.738751450439450e+000	 5.097096643000530e-001	 1.069356645303111e+001
 3.733502858255094e+000	 5.468298511655627e-001	 1.068617305323709e+001
 3.727866559814423e+000	 5.840183495408690e-001	 1.067147011149429e+001
 3.721839661508096e+000	 6.212696718497973e-001	 1.065057630350093e+001
 3.715419361868731e+000	 6.585782378678403e-001	 1.062387179862953e+001
 3.708602954627166e+000	 6.959383763206328e-001	 1.060251408864640e+001
 3.701387831748314e+000	 7.333443265896485e-001	 1.061335863457209e+001
 3.782470680913030e+000	 3.645766368840203e-001	 1.059784895982707e+001
 3.778715895869458e+000	 4.016306067658447e-001	 1.064491657851855e+001
 3.774583186974591e+000	 4.387745148085147e-001	 1.067347138414663e+001
 3.770069300050975e+000	 4.760032218313729e-001	 1.068736313361714e+001
 3.765171061275874e+000	 5.133114899779525e-001	 1.068973056200355e+001
 3.759885380302258e+000	 5.506939839009404e-001	 1.068298414592241e+001
 3.754209253374684e+000	 5.881452720519883e-001	 1.066879242111021e+001
 3.748139766436377e+000	 6.256598280773674e-001	 1.064807304782286e+001
 3.741674098223633e+000	 6.632320323203232e-001	 1.062098990068560e+001
 3.734809523343683e+000	 7.008561734308451e-001	 1.060155030886739e+001
 3.727543415331994e+000	 7.385264500834197e-001	 1.061236314538709e+001
 3.809011680449607e+000	 3.671348135820680e-001	 1.059449768588726e+001
 3.805230548672322e+000	 4.044487853199054e-001	 1.064055991842068e+001
 3.801068841211559e+000	 4.418533263005018e-001	 1.066886056013977e+001
 3.796523281055853e+000	 4.793432612823781e-001	 1.068303677267163e+001
 3.791590672112294e+000	 5.169133156558521e-001	 1.068602604206864e+001
 3.786267902349411e+000	 5.545581166363182e-001	 1.068004327817254e+001
 3.780551946934928e+000	 5.922721945631080e-001	 1.066656116284920e+001
 3.774439871364629e+000	 6.300499843049378e-001	 1.064629499313377e+001
 3.767928834578493e+000	 6.678858267728057e-001	 1.061920881037354e+001
 3.761016092060141e+000	 7.057739705410574e-001	 1.060208522718434e+001
 3.753698998915594e+000	 7.437085735771906e-001	 1.061272674589809e+001
 3.835552679986150e+000	 3.696929902800644e-001	 1.059249256201479e+001
 3.831745201475147e+000	 4.072669638739287e-001	 1.063716905648113e+001
 3.827554495448490e+000	 4.449321377924626e-001	 1.066494558158524e+001
 3.822977262060702e+000	 4.826833007333646e-001	 1.067923629649313e+001
 3.818010282948695e+000	 5.205151413337383e-001	 1.068277071145163e+001
 3.812650424396558e+000	 5.584222493716853e-001	 1.067756484379986e+001
 3.806894640495177e+000	 5.963991170742170e-001	 1.066489529232642e+001
 3.800739976292897e+000	 6.344401405324956e-001	 1.064527753005072e+001
 3.794183570933372e+000	 6.725396212252713e-001	 1.061879088966981e+001
 3.787222660776614e+000	 7.106917676512461e-001	 1.060391112818320e+001
 3.779854582499194e+000	 7.488906970709290e-001	 1.061421574229431e+001
 3.862093679522626e+000	 3.722511669779585e-001	 1.059261402988618e+001
 3.858259854277893e+000	 4.100851424278770e-001	 1.063543813767706e+001
 3.854040149685346e+000	 4.480109492843699e-001	 1.066232559523949e+001
 3.849431243065491e+000	 4.860233401843139e-001	 1.067646067097295e+001
 3.844429893785062e+000	 5.241169670115981e-001	 1.068036182514199e+001
 3.839032946443703e+000	 5.622863821070315e-001	 1.067584662857043e+001
 3.833237334055452e+000	 6.005260395853056e-001	 1.066399924293990e+001
 3.827040081221221e+000	 6.388302967600287e-001	 1.064514181847220e+001
 3.820438307288329e+000	 6.771934156777035e-001	 1.061980941046088e+001
 3.813429229493175e+000	 7.156095647613878e-001	 1.060691029628276e+001
 3.806010166082880e+000	 7.540728205646027e-001	 1.061668759311474e+001
 3.888634679059003e+000	 3.748093436756990e-001	 1.059568627139655e+001
 3.884774507080521e+000	 4.129033209817129e-001	 1.063611651325332e+001
 3.880525803922092e+000	 4.510897607761975e-001	 1.066166430531446e+001
 3.875885224070195e+000	 4.893633796352074e-001	 1.067528071619251e+001
 3.870849504621382e+000	 5.277187926894180e-001	 1.067927379958671e+001
 3.865415468490847e+000	 5.661505148423461e-001	 1.067526696682067e+001
 3.859580027615782e+000	 6.046529620963637e-001	 1.066415953697736e+001
 3.853340186149642e+000	 6.432204529875243e-001	 1.064609087782256e+001
 3.846693043643426e+000	 6.818472101300851e-001	 1.062227977060521e+001
 3.839635798209899e+000	 7.205273618714588e-001	 1.061105236313943e+001
 3.832165749666732e+000	 7.592549440581793e-001	 1.062008800828336e+001
 3.915175678595246e+000	 3.773675203732345e-001	 1.060257733819616e+001
 3.911289159882991e+000	 4.157214995353987e-001	 1.064000824937675e+001
 3.907011458158685e+000	 4.541685722679180e-001	 1.066368887452451e+001
 3.902339205074782e+000	 4.927034190860264e-001	 1.067633741507220e+001
 3.897269115457639e+000	 5.313206183671849e-001	 1.068005594612211e+001
 3.891797990537994e+000	 5.700146475776188e-001	 1.067628191885303e+001
 3.885922721176181e+000	 6.087798846073804e-001	 1.066574142818318e+001
 3.879640291078204e+000	 6.476106092149703e-001	 1.064840571804798e+001
 3.872947779998714e+000	 6.865010045823983e-001	 1.062630005338468e+001
 3.865842366926857e+000	 7.254451589814351e-001	 1.061639171008745e+001
 3.858321333250832e+000	 7.644370675516264e-001	 1.062444810811846e+001
 3.596765497411132e+000	 7.126158326152124e-001	 1.063896355502494e+001
 3.589363294351825e+000	 7.490087713011588e-001	 1.066995818853560e+001
 3.581568760153285e+000	 7.854347785535488e-001	 1.069803735940571e+001
 3.573379666514728e+000	 8.218879957891508e-001	 1.072454371793404e+001
 3.564793892237348e+000	 8.583624850557747e-001	 1.075039260982089e+001
 3.555809426018735e+000	 8.948522312174628e-001	 1.077606956570978e+001
 3.546424369203119e+000	 9.313511442442009e-001	 1.080162969476704e+001
 3.536636938483259e+000	 9.678530616055532e-001	 1.082669926310845e+001
 3.526445468549742e+000	 1.004351750767448e+000	 1.085047974716092e+001
 3.515848414683465e+000	 1.040840911791156e+000	 1.087174991002184e+001
 3.504844355287081e+000	 1.077314180033311e+000	 1.088889656068133e+001
 3.622921080995963e+000	 7.177979561086598e-001	 1.062826657233673e+001
 3.615465049311848e+000	 7.544555432825085e-001	 1.065863407528648e+001
 3.607613833466946e+000	 7.911464394965301e-001	 1.068672634937523e+001
 3.599365188956308e+000	 8.278647435640266e-001	 1.071379757679591e+001
 3.590716979155808e+000	 8.646044743521743e-001	 1.074067298828059e+001
 3.581667178136880e+000	 9.013595729831021e-001	 1.076774528534600e+001
 3.572213873436759e+000	 9.381239051402547e-001	 1.079497294442291e+001
 3.562355268780022e+000	 9.748912634794354e-001	 1.082188069797481e+001
 3.552089686747149e+000	 1.011655370143745e+000	 1.084755604506708e+001
 3.541415571385863e+000	 1.048409879381463e+000	 1.087068316819295e+001
 3.530331490760975e+000	 1.085148380265702e+000	 1.088950535639780e+001
 3.649076664580380e+000	 7.229800796022365e-001	 1.062083526871149e+001
 3.641566804271423e+000	 7.599023152640309e-001	 1.065045554590014e+001
 3.633658906780143e+000	 7.968581004397330e-001	 1.067835434922235e+001
 3.625350711397430e+000	 8.338414913391794e-001	 1.070570507684018e+001
 3.616640066073833e+000	 8.708464636489086e-001	 1.073325217809766e+001
 3.607524930254624e+000	 9.078669147491354e-001	 1.076130643701556e+001
 3.598003377670048e+000	 9.448966660367626e-001	 1.078974210949366e+001
 3.588073599076493e+000	 9.819294653538295e-001	 1.081799622414238e+001
 3.577733904944330e+000	 1.018958989520610e+000	 1.084506473722743e+001
 3.566982728088108e+000	 1.055978846972389e+000	 1.086953174943888e+001
 3.555818626234796e+000	 1.092982580498757e+000	 1.088953655800908e+001
 3.675232248164469e+000	 7.281622030959103e-001	 1.061604102354172e+001
 3.667668559230636e+000	 7.653490872456820e-001	 1.064478061402122e+001
 3.659703980092961e+000	 8.025697613831027e-001	 1.067227413352262e+001
 3.651336233838164e+000	 8.398182391145390e-001	 1.069962251499266e+001
 3.642563152991476e+000	 8.770884529458933e-001	 1.072749941069210e+001
 3.633382682372007e+000	 9.143742565154637e-001	 1.075614526135153e+001
 3.623792881903003e+000	 9.516694269336102e-001	 1.078536318464174e+001
 3.613791929372667e+000	 9.889676672286075e-001	 1.081451700823244e+001
 3.603378123141265e+000	 1.026262608897900e+000	 1.084252688913000e+001
 3.592549884790161e+000	 1.063547814563778e+000	 1.086789410393283e+001
 3.581305761708479e+000	 1.100816780732308e+000	 1.088867203849201e+001
 3.701387831748314e+000	 7.333443265896485e-001	 1.061335863457209e+001
 3.693770314189572e+000	 7.707958592274198e-001	 1.064107165590935e+001
 3.685749053405477e+000	 8.082814223265831e-001	 1.066794290031782e+001
 3.677321756278585e+000	 8.457949868900372e-001	 1.069500981593235e+001
 3.668486239908798e+000	 8.833304422430448e-001	 1.072288592121290e+001
 3.659240434489070e+000	 9.208815982819893e-001	 1.075175357995101e+001
 3.649582386135648e+000	 9.584421878306851e-001	 1.078135855478029e+001
 3.639510259668550e+000	 9.960058691036422e-001	 1.081100668036876e+001
 3.629022341337930e+000	 1.033566228275474e+000	 1.083955876954252e+001
 3.618117041491971e+000	 1.071116782155477e+000	 1.086545121601024e+001
 3.606792897181959e+000	 1.108650980966191e+000	 1.088667027122209e+001
 3.727543415331994e+000	 7.385264500834197e-001	 1.061236314538709e+001
 3.719872069148313e+000	 7.762426312092003e-001	 1.063889199486065e+001
 3.711794126717774e+000	 8.139930832701192e-001	 1.066491862833966e+001
 3.703307278718762e+000	 8.517717346656040e-001	 1.069142667834889e+001
 3.694409326825858e+000	 8.895724315402802e-001	 1.071898090041940e+001
 3.685098186605857e+000	 9.273889400486128e-001	 1.074771856982287e+001
 3.675371890368006e+000	 9.652149487278732e-001	 1.077734260937308e+001
 3.665228589964140e+000	 1.003044070978804e+000	 1.080711680595103e+001
 3.654666559534302e+000	 1.040869847653190e+000	 1.083585982771415e+001
 3.643684198193497e+000	 1.078685749747331e+000	 1.086196184503971e+001
 3.632280032655169e+000	 1.116485181200240e+000	 1.088336148308222e+001
 3.753698998915594e+000	 7.437085735771906e-001	 1.061272674589809e+001
 3.745973824106948e+000	 7.816894031909812e-001	 1.063790256332447e+001
 3.737839200029932e+000	 8.197047442136549e-001	 1.066285651581832e+001
 3.729292801158767e+000	 8.577484824411708e-001	 1.068852880587018e+001
 3.720332413742714e+000	 8.958144208375151e-001	 1.071544753351616e+001
 3.710955938722406e+000	 9.338962818152368e-001	 1.074371862627180e+001
 3.701161394600098e+000	 9.719877096250615e-001	 1.077301744585831e+001
 3.690946920259437e+000	 1.010082272853967e+000	 1.080258244644748e+001
 3.680310777730361e+000	 1.048173467030906e+000	 1.083120812869326e+001
 3.669251354894696e+000	 1.086254717339184e+000	 1.085725785274826e+001
 3.657767168128049e+000	 1.124319381434289e+000	 1.087864289157489e+001
 3.779854582499194e+000	 7.488906970709290e-001	 1.061421574229431e+001
 3.772075579065561e+000	 7.871361751727187e-001	 1.063785863895162e+001
 3.763884273342034e+000	 8.254164051571353e-001	 1.066150549692417e+001
 3.755278323598675e+000	 8.637252302166685e-001	 1.068606421855957e+001
 3.746255500659427e+000	 9.020564101346671e-001	 1.071203912172929e+001
 3.736813690838762e+000	 9.404036235817622e-001	 1.073951930993559e+001
 3.726950898831944e+000	 9.787604705221360e-001	 1.076816865787909e+001
 3.716665250554443e+000	 1.017120474729001e+000	 1.079721349922921e+001
 3.705954995926085e+000	 1.055477086408480e+000	 1.082545587250493e+001
 3.694818511595526e+000	 1.093823684930882e+000	 1.085123961281233e+001
 3.683254303600529e+000	 1.132153581668172e+000	 1.087247402186993e+001
 3.806010166082880e+000	 7.540728205646027e-001	 1.061668759311474e+001
 3.798177334024235e+000	 7.925829471543703e-001	 1.063860665101750e+001
 3.789929346654160e+000	 8.311280661005048e-001	 1.066070483210732e+001
 3.781263846038558e+000	 8.697019779920285e-001	 1.068386964110534e+001
 3.772178587576050e+000	 9.082983994316514e-001	 1.070859528264365e+001
 3.762671442954964e+000	 9.469109653480906e-001	 1.073496937392724e+001
 3.752740403063570e+000	 9.855332314189841e-001	 1.076266120424107e+001
 3.742383580849156e+000	 1.024158676603780e+000	 1.079090823561681e+001
 3.731599214121452e+000	 1.062780705785770e+000	 1.081852499315333e+001
 3.720385668295939e+000	 1.101392652522272e+000	 1.084387149875765e+001
 3.708741439072548e+000	 1.139987781901724e+000	 1.086487209994094e+001
 3.832165749666732e+000	 7.592549440581793e-001	 1.062008800828336e+001
 3.824279088983057e+000	 7.980297191358923e-001	 1.064008105385764e+001
 3.815974419966391e+000	 8.368397270437079e-001	 1.066038076880538e+001
 3.807249368478485e+000	 8.756787257671810e-001	 1.068186696403966e+001
 3.798101674492648e+000	 9.145403887283856e-001	 1.070503822553846e+001
 3.788529195071056e+000	 9.534183071141238e-001	 1.072999686725434e+001
 3.778529907294995e+000	 9.923059923154921e-001	 1.075643535474054e+001
 3.768101911143579e+000	 1.031196878478174e+000	 1.078362143417140e+001
 3.757243432316443e+000	 1.070084325162635e+000	 1.081040283363608e+001
 3.745952824995893e+000	 1.108961620113198e+000	 1.083517744642625e+001
 3.734228574544038e+000	 1.147821982134779e+000	 1.085590751815689e+001
 3.858321333250832e+000	 7.644370675516264e-001	 1.062444810811846e+001
 3.850380843942109e+000	 8.034764911172418e-001	 1.064230126413564e+001
 3.842019493278809e+000	 8.425513879866889e-001	 1.066054326917872e+001
 3.833234890918528e+000	 8.816554735420564e-001	 1.068005977452031e+001
 3.824024761409275e+000	 9.207823780247851e-001	 1.070136909816148e+001
 3.814386947187075e+000	 9.599256488797630e-001	 1.072460531089654e+001
 3.804319411526238e+000	 9.990787532115453e-001	 1.074950270921456e+001
 3.793820241437710e+000	 1.038235080352055e+000	 1.077537938899332e+001
 3.782887650511028e+000	 1.077387944538931e+000	 1.080113789336274e+001
 3.771519981695345e+000	 1.116530587703505e+000	 1.082523658747304e+001
 3.759715710014934e+000	 1.155656182367169e+000	 1.084569936988975e+001
 3.504844355287081e+000	 1.077314180033311e+000	 1.088889656068133e+001
 3.493431993474643e+000	 1.113765128411843e+000	 1.090684893611649e+001
 3.481610156834797e+000	 1.150187268649676e+000	 1.092911312724259e+001
 3.469377802379237e+000	 1.186574055778320e+000	 1.095130404237026e+001
 3.456734019669560e+000	 1.222918891747823e+000	 1.096863645262488e+001
 3.443678032987045e+000	 1.259215128608840e+000	 1.097595624957070e+001
 3.430209203416529e+000	 1.295456071785157e+000	 1.096777667995796e+001
 3.416327030840312e+000	 1.331634983434178e+000	 1.093831981342087e+001
 3.402031155838170e+000	 1.367745085892707e+000	 1.090734729449269e+001
 3.387321361489601e+000	 1.403779565205173e+000	 1.090115613742823e+001
 3.372197575074528e+000	 1.439731574731234e+000	 1.091598332056362e+001
 3.530331490760975e+000	 1.085148380265702e+000	 1.088950535639780e+001
 3.518836138555602e+000	 1.121864398976820e+000	 1.090842855574256e+001
 3.506928333832647e+000	 1.158551400055168e+000	 1.093048694632901e+001
 3.494607026019215e+000	 1.195202790937426e+000	 1.095124635481364e+001
 3.481871298056221e+000	 1.231811925592805e+000	 1.096586130631386e+001
 3.468720368583944e+000	 1.268372107728260e+000	 1.096910557313729e+001
 3.455153594041044e+000	 1.304876594084805e+000	 1.095540784917284e+001
 3.441170470672978e+000	 1.341318597822436e+000	 1.092020249923289e+001
 3.426770636445833e+000	 1.377691291990981e+000	 1.089436872306908e+001
 3.411953872861663e+000	 1.413987813083974e+000	 1.089056583039471e+001
 3.396720106671580e+000	 1.450201264672493e+000	 1.090503236890911e+001
 3.555818626234796e+000	 1.092982580498757e+000	 1.088953655800908e+001
 3.544240283636571e+000	 1.129963669542497e+000	 1.090896612125886e+001
 3.532246510830581e+000	 1.166915531461389e+000	 1.093039171790769e+001
 3.519836249659356e+000	 1.203831526097284e+000	 1.094934460094711e+001
 3.507008576443118e+000	 1.240704959438558e+000	 1.096093369642210e+001
 3.493762704181139e+000	 1.277529086848464e+000	 1.095987533855914e+001
 3.480097984665906e+000	 1.314297116385243e+000	 1.094052828123468e+001
 3.466013910506030e+000	 1.351002212211490e+000	 1.090301486758093e+001
 3.451510117053901e+000	 1.387637498090054e+000	 1.088140494484469e+001
 3.436586384234134e+000	 1.424196060963575e+000	 1.087916043281884e+001
 3.421242638269016e+000	 1.460670954614553e+000	 1.089259334590997e+001
 3.581305761708479e+000	 1.100816780732308e+000	 1.088867203849201e+001
 3.569644428717461e+000	 1.138062940108699e+000	 1.090823656756980e+001
 3.557564687828503e+000	 1.175279662868157e+000	 1.092870134671922e+001
 3.545065473299544e+000	 1.212460261257707e+000	 1.094557824780717e+001
 3.532145854830122e+000	 1.249597993284889e+000	 1.095394590621435e+001
 3.518805039778498e+000	 1.286686065969255e+000	 1.094847853260481e+001
 3.505042375290976e+000	 1.323717638686274e+000	 1.092348015390088e+001
 3.490857350339327e+000	 1.360685826601141e+000	 1.088676065588410e+001
 3.476249597662238e+000	 1.397583704189727e+000	 1.086854598829596e+001
 3.461218895606880e+000	 1.434404308843775e+000	 1.086718422633083e+001
 3.445765169866719e+000	 1.471140644557212e+000	 1.087907355743749e+001
 3.606792897181959e+000	 1.108650980966191e+000	 1.088667027122209e+001
 3.595048573798192e+000	 1.146162210675251e+000	 1.090608502142677e+001
 3.582882864826309e+000	 1.183643794275289e+000	 1.092535320473528e+001
 3.570294696939667e+000	 1.221088996418505e+000	 1.093998322256874e+001
 3.557283133217109e+000	 1.258491027131605e+000	 1.094503942317070e+001
 3.543847375375882e+000	 1.295843045090436e+000	 1.093516987508246e+001
 3.529986765916116e+000	 1.333138160987702e+000	 1.090463972491802e+001
 3.515700790172728e+000	 1.370369440991190e+000	 1.087142308172486e+001
 3.500989078270704e+000	 1.407529910289798e+000	 1.085591521445736e+001
 3.485851406979773e+000	 1.444612556724376e+000	 1.085490926240242e+001
 3.470287701464573e+000	 1.481610334500272e+000	 1.086490228003739e+001
 3.632280032655169e+000	 1.116485181200240e+000	 1.088336148308222e+001
 3.620452718878675e+000	 1.154261481241977e+000	 1.090242188124388e+001
 3.608201041823901e+000	 1.192007925682604e+000	 1.092034314810626e+001
 3.595523920579608e+000	 1.229717731579492e+000	 1.093264687739254e+001
 3.582420411603949e+000	 1.267384060978512e+000	 1.093439986283313e+001
 3.568889710973160e+000	 1.305000024211814e+000	 1.092024071310337e+001
 3.554931156541185e+000	 1.342558683289327e+000	 1.088579335255350e+001
 3.540544230006091e+000	 1.380053055381439e+000	 1.085702131762363e+001
 3.525728558879165e+000	 1.417476116390069e+000	 1.084366669935062e+001
 3.510483918352681e+000	 1.454820804605176e+000	 1.084263282653874e+001
 3.494810233062459e+000	 1.492080024443532e+000	 1.085052831537501e+001
 3.657767168128049e+000	 1.124319381434289e+000	 1.087864289157489e+001
 3.645856863958831e+000	 1.162360751808704e+000	 1.089721797788116e+001
 3.633519218821176e+000	 1.200372057089920e+000	 1.091372061164322e+001
 3.620753144219252e+000	 1.238346466740478e+000	 1.092370302797973e+001
 3.607557689990518e+000	 1.276277094825420e+000	 1.092225196214423e+001
 3.593932046570194e+000	 1.314157003333191e+000	 1.090401398023934e+001
 3.579875547166042e+000	 1.351979205590951e+000	 1.086852435851696e+001
 3.565387669839278e+000	 1.389736669771687e+000	 1.084360785480119e+001
 3.550468039487480e+000	 1.427422322490340e+000	 1.083198266527301e+001
 3.535116429725481e+000	 1.465029052485976e+000	 1.083067494525842e+001
 3.519332764660260e+000	 1.502549714386791e+000	 1.083641758104794e+001
 3.683254303600529e+000	 1.132153581668172e+000	 1.087247402186993e+001
 3.671261009038573e+000	 1.170460022375256e+000	 1.089049981247439e+001
 3.658837395818034e+000	 1.208736188497053e+000	 1.090558377707839e+001
 3.645982367858484e+000	 1.246975201901277e+000	 1.091332706226417e+001
 3.632694968376690e+000	 1.285170128672135e+000	 1.090885463891202e+001
 3.618974382166853e+000	 1.323313982454373e+000	 1.088683921743090e+001
 3.604819937790552e+000	 1.361399727892379e+000	 1.085279960784106e+001
 3.590231109672148e+000	 1.399420284161736e+000	 1.083126591886765e+001
 3.575207520095516e+000	 1.437368528590412e+000	 1.082107095857562e+001
 3.559748941098035e+000	 1.475237300366577e+000	 1.081937593378914e+001
 3.543855296257858e+000	 1.513019404329850e+000	 1.082305073600491e+001
 3.708741439072548e+000	 1.139987781901724e+000	 1.086487209994094e+001
 3.696665154117818e+000	 1.178559292941458e+000	 1.088234486760459e+001
 3.684155572814372e+000	 1.217100319903820e+000	 1.089607481155579e+001
 3.671211591497188e+000	 1.255603937061700e+000	 1.090173111586801e+001
 3.657832246762335e+000	 1.294063162518466e+000	 1.089449611422055e+001
 3.644016717762999e+000	 1.332470961575163e+000	 1.086908765267632e+001
 3.629764328414572e+000	 1.370820250193410e+000	 1.083861854163116e+001
 3.615074549504560e+000	 1.409103898551387e+000	 1.082010693494053e+001
 3.599947000703133e+000	 1.447314734690084e+000	 1.081116257169774e+001
 3.584381452470216e+000	 1.485445548246777e+000	 1.080909398251964e+001
 3.568377827855136e+000	 1.523489094272510e+000	 1.081092083890609e+001
 3.734228574544038e+000	 1.147821982134779e+000	 1.085590751815689e+001
 3.722069299196483e+000	 1.186658563507135e+000	 1.087287698830377e+001
 3.709473749810091e+000	 1.225464451310042e+000	 1.088537517299656e+001
 3.696440815135249e+000	 1.264232672221558e+000	 1.088915931113131e+001
 3.682969525147330e+000	 1.302956196364219e+000	 1.087948909477877e+001
 3.669059053358499e+000	 1.341627940695366e+000	 1.085198125982993e+001
 3.654708719037963e+000	 1.380240772493848e+000	 1.082601109115594e+001
 3.639917989336374e+000	 1.418787512940442e+000	 1.081026803982990e+001
 3.624686481310193e+000	 1.457260940789157e+000	 1.080250920734078e+001
 3.609013963841896e+000	 1.495653796126379e+000	 1.080020278035676e+001
 3.592900359451976e+000	 1.533958784214570e+000	 1.080053103785087e+001
 3.759715710014934e+000	 1.155656182367169e+000	 1.084569936988975e+001
 3.747473444274480e+000	 1.194757834072111e+000	 1.086226182958297e+001
 3.734791926805089e+000	 1.233828582715533e+000	 1.087370097916580e+001
 3.721670038772552e+000	 1.272861407380663e+000	 1.087588305669981e+001
 3.708106803531545e+000	 1.311849230209201e+000	 1.086416601236464e+001
 3.694101388953216e+000	 1.350784919814787e+000	 1.083683233816907e+001
 3.679653109660587e+000	 1.389661294793495e+000	 1.081503519446551e+001
 3.664761429167448e+000	 1.428471127328699e+000	 1.080190963905744e+001
 3.649425961916560e+000	 1.467207146887431e+000	 1.079538088278297e+001
 3.633646475212943e+000	 1.505862044005179e+000	 1.079308917323683e+001
 3.617422891048259e+000	 1.544428474155829e+000	 1.079239228998458e+001
 3.372197575074528e+000	 1.439731574731234e+000	 1.091598332056363e+001
 3.356662231674654e+000	 1.475588867042669e+000	 1.094168543542888e+001
 3.340713316314456e+000	 1.511349944770984e+000	 1.097014152465982e+001
 3.324351200427108e+000	 1.547007890623957e+000	 1.100036616312085e+001
 3.307576405259167e+000	 1.582555769867112e+000	 1.103152680589755e+001
 3.290389603006430e+000	 1.617986634272130e+000	 1.106248261298837e+001
 3.272791617828106e+000	 1.653293526122406e+000	 1.109194283124346e+001
 3.254783426736442e+000	 1.688469482271450e+000	 1.111851607180076e+001
 3.236366160359109e+000	 1.723507538249754e+000	 1.114072953996278e+001
 3.217541103571808e+000	 1.758400732415532e+000	 1.115705087807331e+001
 3.198309695998757e+000	 1.793142110144684e+000	 1.116591256116553e+001
 3.396720106671580e+000	 1.450201264672493e+000	 1.090503236890911e+001
 3.381071790665133e+000	 1.486319310265351e+000	 1.092937323894831e+001
 3.365006895213961e+000	 1.522340441605221e+000	 1.095712080236878e+001
 3.348525794452300e+000	 1.558257691097506e+000	 1.098715860253743e+001
 3.331629013417209e+000	 1.594064073578511e+000	 1.101835339326551e+001
 3.314317229192684e+000	 1.629752590292575e+000	 1.104968842361031e+001
 3.296591271931205e+000	 1.665316232926751e+000	 1.107995703322412e+001
 3.278452125749841e+000	 1.700747987698722e+000	 1.110772357942956e+001
 3.259900929498166e+000	 1.736040839493528e+000	 1.113146215095260e+001
 3.240938977395473e+000	 1.771187776044500e+000	 1.114957916738041e+001
 3.221567719534899e+000	 1.806181792153683e+000	 1.116043867073254e+001
 3.421242638269016e+000	 1.460670954614553e+000	 1.089259334590997e+001
 3.405481349655952e+000	 1.497049753488834e+000	 1.091505434098465e+001
 3.389300474113741e+000	 1.533330938440259e+000	 1.094170597261421e+001
 3.372700388477688e+000	 1.569507491571855e+000	 1.097132862066430e+001
 3.355681621575360e+000	 1.605572377290711e+000	 1.100267975672686e+001
 3.338244855378957e+000	 1.641518546313822e+000	 1.103450380965234e+001
 3.320390926034240e+000	 1.677338939731900e+000	 1.106556472401395e+001
 3.302120824763098e+000	 1.713026493126799e+000	 1.109452115262709e+001
 3.283435698637017e+000	 1.748574140738111e+000	 1.111977236961267e+001
 3.264336851218891e+000	 1.783974819674280e+000	 1.113963302436304e+001
 3.244825743070775e+000	 1.819221474163497e+000	 1.115236580954061e+001
 3.445765169866719e+000	 1.471140644557212e+000	 1.087907355743749e+001
 3.429890908647009e+000	 1.507780196712916e+000	 1.089929044942471e+001
 3.413594053013717e+000	 1.544321435275896e+000	 1.092458755730120e+001
 3.396874982503221e+000	 1.580757292046805e+000	 1.095362368038482e+001
 3.379734229733591e+000	 1.617080681003512e+000	 1.098502787056018e+001
 3.362172481565244e+000	 1.653284502335673e+000	 1.101740937606105e+001
 3.344190580137224e+000	 1.689361646537656e+000	 1.104936871787428e+001
 3.325789523776246e+000	 1.725304998555488e+000	 1.107950162034427e+001
 3.306970467775714e+000	 1.761107441983310e+000	 1.110622026143580e+001
 3.287734725042120e+000	 1.796761863304683e+000	 1.112771980598098e+001
 3.268083766606454e+000	 1.832261156173944e+000	 1.114212911762675e+001
 3.470287701464573e+000	 1.481610334500272e+000	 1.086490228003739e+001
 3.454300467638207e+000	 1.518510639937398e+000	 1.088265971141360e+001
 3.437887631913810e+000	 1.555311932111934e+000	 1.090646774565553e+001
 3.421049576528834e+000	 1.592007092522155e+000	 1.093484573098411e+001
 3.403786837891866e+000	 1.628588984716717e+000	 1.096627446359496e+001
 3.386100107751537e+000	 1.665050458357931e+000	 1.099920620105808e+001
 3.367990234240172e+000	 1.701384353343822e+000	 1.103207585759011e+001
 3.349458222789323e+000	 1.737583503984593e+000	 1.106331342353279e+001
 3.330505236914307e+000	 1.773640743228935e+000	 1.109135402725666e+001
 3.311132598865224e+000	 1.809548906935523e+000	 1.111433791718481e+001
 3.291341790142000e+000	 1.845300838184841e+000	 1.113015843222076e+001
 3.494810233062459e+000	 1.492080024443532e+000	 1.085052831537501e+001
 3.478710026629442e+000	 1.529241083162080e+000	 1.086575434929958e+001
 3.462181210813938e+000	 1.566302428948173e+000	 1.088805808607647e+001
 3.445224170554475e+000	 1.603256892997708e+000	 1.091580209604346e+001
 3.427839446050156e+000	 1.640097288430126e+000	 1.094729964747337e+001
 3.410027733937825e+000	 1.676816414380396e+000	 1.098082477956783e+001
 3.391789888343101e+000	 1.713407060150203e+000	 1.101462361077829e+001
 3.373126921802362e+000	 1.749862009413920e+000	 1.104692692905715e+001
 3.354040006052849e+000	 1.786174044474793e+000	 1.107596410461956e+001
 3.334530472688268e+000	 1.822335950566610e+000	 1.109997835891118e+001
 3.314599813677478e+000	 1.858340520196004e+000	 1.111687859125305e+001
 3.519332764660260e+000	 1.502549714386791e+000	 1.083641758104793e+001
 3.503119585620614e+000	 1.539971526386763e+000	 1.084917832690320e+001
 3.486474789714023e+000	 1.577292925784412e+000	 1.087007720335730e+001
 3.469398764580086e+000	 1.614506693473263e+000	 1.089730321763681e+001
 3.451892054208428e+000	 1.651605592143541e+000	 1.092898339867632e+001
 3.433955360124103e+000	 1.688582370402872e+000	 1.096319291826081e+001
 3.415589542446022e+000	 1.725429766956601e+000	 1.099796650512555e+001
 3.396795620815398e+000	 1.762140514843276e+000	 1.103131120314041e+001
 3.377574775191389e+000	 1.798707345720694e+000	 1.106122051852621e+001
 3.357928346511310e+000	 1.835122994197757e+000	 1.108568999395410e+001
 3.337857837212957e+000	 1.871380202207249e+000	 1.110273423938275e+001
 3.543855296257858e+000	 1.513019404329850e+000	 1.082305073600491e+001
 3.527529144611625e+000	 1.550701969611245e+000	 1.083354504464178e+001
 3.510768368613983e+000	 1.588283422620452e+000	 1.085324854004460e+001
 3.493573358605612e+000	 1.625756493948621e+000	 1.088016042096683e+001
 3.475944662366648e+000	 1.663113895856762e+000	 1.091220332401583e+001
 3.457882986310363e+000	 1.700348326425160e+000	 1.094723348004286e+001
 3.439389196548955e+000	 1.737452473762821e+000	 1.098305222526799e+001
 3.420464319828467e+000	 1.774419020272466e+000	 1.101741892305660e+001
 3.401109544329980e+000	 1.811240646966444e+000	 1.104806534591739e+001
 3.381326220334416e+000	 1.847910037828777e+000	 1.107271155997891e+001
 3.361115860748503e+000	 1.884419884218392e+000	 1.108908334593919e+001
 3.568377827855136e+000	 1.523489094272510e+000	 1.081092083890609e+001
 3.551938703602373e+000	 1.561432412835328e+000	 1.081947506212200e+001
 3.535061947513740e+000	 1.599273919456093e+000	 1.083829812077562e+001
 3.517747952630995e+000	 1.637006294423582e+000	 1.086518369845828e+001
 3.499997270524786e+000	 1.674622199569589e+000	 1.089783244301694e+001
 3.481810612496596e+000	 1.712114282447062e+000	 1.093386214380108e+001
 3.463188850651912e+000	 1.749475180568665e+000	 1.097081932954267e+001
 3.444133018841604e+000	 1.786697525701294e+000	 1.100619234784844e+001
 3.424644313468674e+000	 1.823773948211853e+000	 1.103742598076186e+001
 3.404724094157645e+000	 1.860697081459479e+000	 1.106193764331545e+001
 3.384373884284180e+000	 1.897459566229251e+000	 1.107713520345138e+001
 3.592900359451976e+000	 1.533958784214570e+000	 1.080053103785086e+001
 3.576348262592755e+000	 1.572162856058811e+000	 1.080759384688684e+001
 3.559355526413214e+000	 1.610264416291135e+000	 1.082595233849491e+001
 3.541922546656179e+000	 1.648256094897945e+000	 1.085317951237838e+001
 3.524049878682808e+000	 1.686130503281826e+000	 1.088673698638117e+001
 3.505738238682794e+000	 1.723880238468381e+000	 1.092398517867719e+001
 3.486988504754907e+000	 1.761497887373937e+000	 1.096219498058532e+001
 3.467801717854844e+000	 1.798976031129568e+000	 1.099856098633268e+001
 3.448179082607521e+000	 1.836307249456730e+000	 1.103021633938614e+001
 3.428121967981061e+000	 1.873484125089678e+000	 1.105424924720072e+001
 3.407631907820056e+000	 1.910499248239640e+000	 1.106772120740127e+001
 3.617422891048259e+000	 1.544428474155829e+000	 1.079239228998458e+001
 3.600757821582671e+000	 1.582893299281493e+000	 1.079852954807677e+001
 3.583649105312324e+000	 1.621254913125378e+000	 1.081693576151306e+001
 3.566097140681105e+000	 1.659505895371513e+000	 1.084494861510568e+001
 3.548102486840681e+000	 1.697638806993271e+000	 1.087977420976923e+001
 3.529665864868949e+000	 1.735646194488917e+000	 1.091849723217936e+001
 3.510788158857956e+000	 1.773520594178442e+000	 1.095809268911808e+001
 3.491470416868223e+000	 1.811254536557092e+000	 1.099543927846179e+001
 3.471713851746570e+000	 1.848840550700881e+000	 1.102733446187745e+001
 3.451519841804725e+000	 1.886271168719184e+000	 1.105051129627809e+001
 3.430889931356198e+000	 1.923538930249378e+000	 1.106165707195723e+001
 3.198309695998757e+000	 1.793142110144684e+000	 1.116591256116553e+001
 3.178670556813624e+000	 1.827729904041205e+000	 1.117003704118694e+001
 3.158628293608679e+000	 1.862151961492185e+000	 1.117093252207278e+001
 3.138184815363838e+000	 1.896401373359606e+000	 1.116515318407823e+001
 3.117342186515054e+000	 1.930471254663603e+000	 1.114921738923299e+001
 3.096102626762256e+000	 1.964354748895379e+000	 1.111964550317618e+001
 3.074468510735240e+000	 1.998045032338640e+000	 1.107299965697412e+001
 3.052442367516636e+000	 2.031535318394142e+000	 1.102699364309161e+001
 3.030026880021336e+000	 2.064818861901898e+000	 1.100517486269397e+001
 3.007224884231966e+000	 2.097888963455511e+000	 1.100504860398011e+001
 2.984039368290266e+000	 2.130738973703105e+000	 1.102397368647466e+001
 3.221567719534899e+000	 1.806181792153683e+000	 1.116043867073254e+001
 3.201785765048789e+000	 1.841021107572606e+000	 1.116579645054021e+001
 3.181597755035698e+000	 1.875693481314890e+000	 1.116614567611976e+001
 3.161005612357593e+000	 1.910191953999462e+000	 1.115788863611444e+001
 3.140011416462942e+000	 1.944509590579075e+000	 1.113738364197136e+001
 3.118617403193275e+000	 1.978639484684598e+000	 1.110098447710802e+001
 3.096825964446625e+000	 2.012574762977862e+000	 1.104834800238485e+001
 3.074639647697041e+000	 2.046308589507667e+000	 1.101099346366287e+001
 3.052061155369497e+000	 2.079834170063415e+000	 1.099563012955907e+001
 3.029093344069806e+000	 2.113144756520817e+000	 1.099958751186024e+001
 3.005739223669391e+000	 2.146233651174094e+000	 1.102012642497385e+001
 3.244825743070775e+000	 1.819221474163497e+000	 1.115236580954061e+001
 3.224900973283702e+000	 1.854312311104829e+000	 1.115870231597575e+001
 3.204567216462507e+000	 1.889235001138423e+000	 1.115809990332703e+001
 3.183826409351194e+000	 1.923982534640148e+000	 1.114683021238137e+001
 3.162680646410756e+000	 1.958547926495382e+000	 1.112111387632353e+001
 3.141132179624304e+000	 1.992924220474648e+000	 1.107716162083631e+001
 3.119183418158108e+000	 2.027104493617908e+000	 1.102617377779034e+001
 3.096836927877633e+000	 2.061081860622007e+000	 1.099657371799392e+001
 3.074095430717927e+000	 2.094849478225728e+000	 1.098671264190426e+001
 3.050961803907982e+000	 2.128400549586891e+000	 1.099385819351735e+001
 3.027439079048901e+000	 2.161728328645818e+000	 1.101520842945635e+001
 3.268083766606454e+000	 1.832261156173944e+000	 1.114212911762675e+001
 3.248016181518426e+000	 1.867603514637696e+000	 1.114912107994358e+001
 3.227536677889154e+000	 1.902776520962612e+000	 1.114711874075186e+001
 3.206647206344684e+000	 1.937773115281502e+000	 1.113228356397902e+001
 3.185349876358512e+000	 1.972586262412363e+000	 1.110072005591853e+001
 3.163646956055338e+000	 2.007208956265380e+000	 1.104954534495469e+001
 3.141540871869665e+000	 2.041634224258642e+000	 1.100655771743137e+001
 3.119034208058361e+000	 2.075855131737030e+000	 1.098378445716418e+001
 3.096129706066546e+000	 2.109864786388716e+000	 1.097854266939456e+001
 3.072830263746392e+000	 2.143656342653623e+000	 1.098807123400341e+001
 3.049138934428674e+000	 2.177223006118176e+000	 1.100953991067038e+001
 3.291341790142000e+000	 1.845300838184841e+000	 1.113015843222076e+001
 3.271131389753024e+000	 1.880894718171027e+000	 1.113741760571991e+001
 3.250506139315697e+000	 1.916318040787283e+000	 1.113352730163237e+001
 3.229468003338097e+000	 1.951563695923357e+000	 1.111455851283870e+001
 3.208019106306228e+000	 1.986624598329864e+000	 1.107652035682736e+001
 3.186161732486373e+000	 2.021493692056648e+000	 1.102437999763226e+001
 3.163898325581261e+000	 2.056163954899922e+000	 1.098948432390898e+001
 3.141231488239165e+000	 2.090628402852606e+000	 1.097265838942591e+001
 3.118163981415277e+000	 2.124880094552258e+000	 1.097122143394129e+001
 3.094698723584940e+000	 2.158912135720905e+000	 1.098241592865903e+001
 3.070838789808597e+000	 2.192717683591068e+000	 1.100341702759421e+001
 3.314599813677478e+000	 1.858340520196004e+000	 1.111687859125305e+001
 3.294246597987558e+000	 1.894185921704647e+000	 1.112395546450984e+001
 3.273475600742184e+000	 1.929859560612265e+000	 1.111765257041374e+001
 3.252288800331470e+000	 1.965354276565549e+000	 1.109396937833955e+001
 3.230688336253921e+000	 2.000662934247727e+000	 1.104884779535537e+001
 3.208676508917402e+000	 2.035778427848301e+000	 1.100261267549197e+001
 3.186255779292868e+000	 2.070693685541607e+000	 1.097492209951113e+001
 3.163428768419997e+000	 2.105401673968605e+000	 1.096321114881745e+001
 3.140198256764044e+000	 2.139895402716236e+000	 1.096483147502155e+001
 3.116567183423525e+000	 2.174167928788625e+000	 1.097706076342158e+001
 3.092538645188554e+000	 2.208212361064393e+000	 1.099711250027527e+001
 3.337857837212957e+000	 1.871380202207249e+000	 1.110273423938275e+001
 3.317361806222093e+000	 1.907477125238375e+000	 1.110909724814215e+001
 3.296445062168671e+000	 1.943401080437388e+000	 1.109982372539555e+001
 3.275109597324840e+000	 1.979144857207913e+000	 1.107083533262928e+001
 3.253357566201609e+000	 2.014701270165795e+000	 1.102198682021824e+001
 3.231191285348421e+000	 2.050063163640193e+000	 1.098416991896510e+001
 3.208613233004459e+000	 2.085223416183562e+000	 1.096282376362140e+001
 3.185626048600800e+000	 2.120174945084899e+000	 1.095544158780609e+001
 3.162232532112769e+000	 2.154910710880527e+000	 1.095943703573770e+001
 3.138435643262050e+000	 2.189423721856673e+000	 1.097215391179128e+001
 3.114238500568428e+000	 2.223707038538050e+000	 1.099087623448045e+001
 3.361115860748503e+000	 1.884419884218392e+000	 1.108908334593919e+001
 3.340477014456691e+000	 1.920768328772035e+000	 1.109328529773052e+001
 3.319414523595212e+000	 1.956942600262478e+000	 1.108037248766348e+001
 3.297930394318245e+000	 1.992935437850285e+000	 1.104548078325788e+001
 3.276026796149310e+000	 2.028739606083914e+000	 1.099926307708313e+001
 3.253706061779425e+000	 2.064347899432174e+000	 1.096896314161704e+001
 3.230970686716002e+000	 2.099753146825645e+000	 1.095312649534140e+001
 3.207823328781521e+000	 2.134948216201357e+000	 1.094933209279549e+001
 3.184266807461373e+000	 2.169926019045013e+000	 1.095508446861158e+001
 3.160304103100417e+000	 2.204679514924937e+000	 1.096782374764763e+001
 3.135938355948102e+000	 2.239201716011940e+000	 1.098493595758605e+001
 3.384373884284180e+000	 1.897459566229251e+000	 1.107713520345139e+001
 3.363592222691413e+000	 1.934059532305448e+000	 1.107819498634280e+001
 3.342383985021857e+000	 1.970484120087366e+000	 1.105979420959783e+001
 3.320751191311725e+000	 2.006726018492501e+000	 1.101901802045763e+001
 3.298696026097039e+000	 2.042777942001923e+000	 1.098056725590421e+001
 3.276220838210407e+000	 2.078632635224096e+000	 1.095688884340045e+001
 3.253328140427467e+000	 2.114282877467717e+000	 1.094575220011287e+001
 3.230020608962105e+000	 2.149721487317850e+000	 1.094484892139806e+001
 3.206301082809781e+000	 2.184941327209573e+000	 1.095180266016466e+001
 3.182172562938526e+000	 2.219935307993310e+000	 1.096417937315397e+001
 3.157638211327462e+000	 2.254696393485963e+000	 1.097949786516613e+001
 3.407631907820056e+000	 1.910499248239640e+000	 1.106772120740127e+001
 3.386707430926326e+000	 1.947350735838436e+000	 1.106497312186766e+001
 3.365353446448659e+000	 1.984025639911878e+000	 1.104007964546998e+001
 3.343571988305312e+000	 2.020516599134396e+000	 1.099679186857555e+001
 3.321365256044816e+000	 2.056816277919669e+000	 1.096577518820130e+001
 3.298735614641365e+000	 2.092917371015812e+000	 1.094782884815835e+001
 3.275685594138827e+000	 2.128812608109640e+000	 1.094060779919424e+001
 3.252217889142500e+000	 2.164494758434246e+000	 1.094194256043277e+001
 3.228335358157913e+000	 2.199956635374086e+000	 1.094960347338638e+001
 3.204041022776280e+000	 2.235191101061679e+000	 1.096131116102963e+001
 3.179338066706392e+000	 2.270191070960018e+000	 1.097474727776854e+001
 3.430889931356198e+000	 1.923538930249378e+000	 1.106165707195723e+001
 3.409822639161488e+000	 1.960641939370820e+000	 1.105438930413641e+001
 3.388322907875672e+000	 1.997567159735842e+000	 1.102232377133989e+001
 3.366392785299044e+000	 2.034307179775804e+000	 1.098150928771834e+001
 3.344034485992657e+000	 2.070854613836993e+000	 1.095505940974049e+001
 3.321250391072290e+000	 2.107202106807173e+000	 1.094165056422722e+001
 3.298043047850050e+000	 2.143342338751271e+000	 1.093758554090602e+001
 3.274415169322649e+000	 2.179268029550415e+000	 1.094054810366453e+001
 3.250369633505694e+000	 2.214971943538432e+000	 1.094848220724172e+001
 3.225909482613576e+000	 2.250446894129934e+000	 1.095929131050717e+001
 3.201037922084772e+000	 2.285685748434004e+000	 1.097084930739510e+001
 2.984039368290266e+000	 2.130738973703105e+000	 1.102397368647467e+001
 2.960473470602511e+000	 2.163362296908118e+000	 1.104836034543595e+001
 2.936530476140903e+000	 2.195752392999228e+000	 1.106649518198373e+001
 2.912213817674248e+000	 2.227902783885794e+000	 1.107857771567769e+001
 2.887527075140474e+000	 2.259807058363652e+000	 1.108490600157487e+001
 2.862473974030363e+000	 2.291458876269918e+000	 1.108588101751747e+001
 2.837058383631288e+000	 2.322851972591213e+000	 1.108201075091824e+001
 2.811284315132539e+000	 2.353980161519819e+000	 1.107391393912563e+001
 2.785155919594004e+000	 2.384837340452332e+000	 1.106232341896579e+001
 2.758677485780279e+000	 2.415417493925475e+000	 1.104808904296515e+001
 2.731853437862469e+000	 2.445714697483801e+000	 1.103218012204486e+001
 3.005739223669391e+000	 2.146233651174094e+000	 1.102012642497385e+001
 2.982001955396933e+000	 2.179094210322679e+000	 1.104452535887268e+001
 2.957884848112856e+000	 2.211719846336016e+000	 1.106210487350432e+001
 2.933391359548965e+000	 2.244104034014960e+000	 1.107321902891534e+001
 2.908525095676397e+000	 2.276240315533232e+000	 1.107832766262141e+001
 2.883289809077596e+000	 2.308122304622443e+000	 1.107800078283154e+001
 2.857689397177288e+000	 2.339743690710203e+000	 1.107292264188872e+001
 2.831727900334018e+000	 2.371098243005754e+000	 1.106389544218650e+001
 2.805409499794067e+000	 2.402179814527716e+000	 1.105184262843102e+001
 2.778738515509805e+000	 2.432982346068520e+000	 1.103781172213736e+001
 2.751719403824789e+000	 2.463499870090225e+000	 1.102297665666703e+001
 3.027439079048901e+000	 2.161728328645818e+000	 1.101520842945635e+001
 3.003530440191761e+000	 2.194826123737928e+000	 1.103898341180389e+001
 2.979239220085216e+000	 2.227687299673442e+000	 1.105556735719101e+001
 2.954568901424073e+000	 2.260305284144704e+000	 1.106543867326653e+001
 2.929523116212681e+000	 2.292673572703324e+000	 1.106918747030909e+001
 2.904105644125149e+000	 2.324785732975416e+000	 1.106752002252413e+001
 2.878320410723559e+000	 2.356635408829572e+000	 1.106126289252659e+001
 2.852171485535715e+000	 2.388216324492002e+000	 1.105136666925700e+001
 2.825663079994292e+000	 2.419522288603349e+000	 1.103890927127852e+001
 2.798799545239443e+000	 2.450547198211752e+000	 1.102509876953300e+001
 2.771585369787176e+000	 2.481285042696783e+000	 1.101127568617852e+001
 3.049138934428674e+000	 2.177223006118176e+000	 1.100953991067038e+001
 3.025058924986865e+000	 2.210558037153778e+000	 1.103216422936896e+001
 3.000593592057848e+000	 2.243654753011425e+000	 1.104740324873720e+001
 2.975746443299435e+000	 2.276506534274954e+000	 1.105583010807981e+001
 2.950521136749184e+000	 2.309106829873869e+000	 1.105813427844421e+001
 2.924921479172883e+000	 2.341449161328783e+000	 1.105512615404791e+001
 2.898951424269965e+000	 2.373527126949274e+000	 1.104774129206924e+001
 2.872615070737500e+000	 2.405334405978519e+000	 1.103704424884203e+001
 2.845916660194561e+000	 2.436864762679191e+000	 1.102423196228652e+001
 2.818860574969084e+000	 2.468112050355137e+000	 1.101063663264459e+001
 2.791451335749533e+000	 2.499070215303443e+000	 1.099772805625685e+001
 3.070838789808597e+000	 2.192717683591068e+000	 1.100341702759421e+001
 3.046587409782116e+000	 2.226289950570137e+000	 1.102447074649043e+001
 3.021947964030613e+000	 2.259622206349883e+000	 1.103810417687535e+001
 2.996923985174902e+000	 2.292707784405640e+000	 1.104495612931887e+001
 2.971519157285764e+000	 2.325540087044802e+000	 1.104578509950506e+001
 2.945737314220657e+000	 2.358112589682488e+000	 1.104147405180038e+001
 2.919582437816374e+000	 2.390418845069261e+000	 1.103303483852402e+001
 2.893058655939246e+000	 2.422452487465266e+000	 1.102161220056262e+001
 2.866170240394755e+000	 2.454207236755210e+000	 1.100848729684728e+001
 2.838921604698616e+000	 2.485676902498641e+000	 1.099508071255081e+001
 2.811317301711755e+000	 2.516855387910169e+000	 1.098295489865595e+001
 3.092538645188554e+000	 2.208212361064393e+000	 1.099711250027527e+001
 3.068115894577388e+000	 2.242021863986914e+000	 1.101627985156609e+001
 3.043302336003374e+000	 2.275589659688736e+000	 1.102813363792810e+001
 3.018101527050339e+000	 2.308909034536690e+000	 1.103334981559348e+001
 2.992517177822280e+000	 2.341973344216064e+000	 1.103272612341127e+001
 2.966553149268331e+000	 2.374776018036477e+000	 1.102718712054556e+001
 2.940213451362647e+000	 2.407310563189484e+000	 1.101778884933408e+001
 2.913502241140828e+000	 2.439570568952202e+000	 1.100572306635501e+001
 2.886423820594753e+000	 2.471549710831363e+000	 1.099232098670440e+001
 2.858982634427930e+000	 2.503241754642231e+000	 1.097905648893102e+001
 2.831183267673744e+000	 2.534640560516928e+000	 1.096754873098973e+001
 3.114238500568428e+000	 2.223707038538050e+000	 1.099087623448045e+001
 3.089644379372549e+000	 2.257753777404020e+000	 1.100794313716437e+001
 3.064656707975995e+000	 2.291557113027905e+000	 1.101792785335650e+001
 3.039279068925602e+000	 2.325110284668035e+000	 1.102151547395707e+001
 3.013515198358589e+000	 2.358406601387590e+000	 1.101951373357401e+001
 2.987368984315768e+000	 2.391439446390696e+000	 1.101285836434917e+001
 2.960844464908652e+000	 2.424202281309898e+000	 1.100261806647876e+001
 2.933945826342113e+000	 2.456688650439283e+000	 1.098999903568225e+001
 2.906677400794436e+000	 2.488892184907616e+000	 1.097634898990662e+001
 2.879043664156916e+000	 2.520806606785870e+000	 1.096316064009620e+001
 2.851049233635401e+000	 2.552425733123689e+000	 1.095207455289379e+001
 3.135938355948102e+000	 2.239201716011940e+000	 1.098493595758605e+001
 3.111172864167472e+000	 2.273485690821364e+000	 1.099978765738379e+001
 3.086011079948337e+000	 2.307524566367307e+000	 1.100789663016069e+001
 3.060456610800552e+000	 2.341311534799600e+000	 1.100992958548085e+001
 3.034513218894551e+000	 2.374839858559317e+000	 1.100667552035849e+001
 3.008184819362824e+000	 2.408102874745090e+000	 1.099905145124505e+001
 2.981475478454253e+000	 2.441093999430454e+000	 1.098810775627763e+001
 2.954389411542977e+000	 2.473806731926469e+000	 1.097503306504820e+001
 2.926930980993685e+000	 2.506234658983931e+000	 1.096115863525969e+001
 2.899104693885465e+000	 2.538371458929527e+000	 1.094796215827759e+001
 2.870915199596624e+000	 2.570210905730416e+000	 1.093707093874115e+001
 3.157638211327462e+000	 2.254696393485963e+000	 1.097949786516613e+001
 3.132701348962026e+000	 2.289217604238856e+000	 1.099211669155625e+001
 3.107365451920266e+000	 2.323492019706863e+000	 1.099842422399518e+001
 3.081634152675045e+000	 2.357512784931316e+000	 1.099904175061658e+001
 3.055511239430021e+000	 2.391273115731184e+000	 1.099471129208439e+001
 3.029000654409364e+000	 2.424766303099606e+000	 1.098630177383771e+001
 3.002106491999318e+000	 2.457985717551106e+000	 1.097481480415354e+001
 2.974832996743292e+000	 2.490924813413718e+000	 1.096138999208847e+001
 2.947184561192381e+000	 2.523577133060271e+000	 1.094730974153962e+001
 2.919165723613464e+000	 2.555936311073164e+000	 1.093400346040214e+001
 2.890781165557315e+000	 2.587996078337078e+000	 1.092305112707690e+001
 3.179338066706392e+000	 2.270191070960018e+000	 1.097474727776853e+001
 3.154229833756086e+000	 2.304949517656405e+000	 1.098521051399045e+001
 3.128719823891644e+000	 2.339459473046494e+000	 1.098987020486943e+001
 3.102811694548940e+000	 2.373714035063113e+000	 1.098927563435660e+001
 3.076509259964860e+000	 2.407706372903129e+000	 1.098409408368031e+001
 3.049816489455246e+000	 2.441429731454187e+000	 1.097511750603568e+001
 3.022737505543708e+000	 2.474877435671805e+000	 1.096326880459497e+001
 2.995276581942927e+000	 2.508042894900989e+000	 1.094960764449686e+001
 2.967438141390402e+000	 2.540919607136599e+000	 1.093533573171871e+001
 2.939226753340806e+000	 2.573501163216749e+000	 1.092180149456866e+001
 2.910647131517372e+000	 2.605781250943639e+000	 1.091050410692949e+001
 3.201037922084772e+000	 2.285685748434004e+000	 1.097084930739510e+001
 3.175758318549517e+000	 2.320681431073920e+000	 1.097932716946960e+001
 3.150074195862331e+000	 2.355426926386116e+000	 1.098257032531122e+001
 3.123989236422097e+000	 2.389915285194917e+000	 1.098102991120225e+001
 3.097507280498922e+000	 2.424139630075088e+000	 1.097527116310496e+001
 3.070632324500330e+000	 2.458093159808781e+000	 1.096598065609866e+001
 3.043368519087291e+000	 2.491769153792504e+000	 1.095397314654598e+001
 3.015720167141756e+000	 2.525160976388238e+000	 1.094019794403287e+001
 2.987691721587631e+000	 2.558262081212876e+000	 1.092574474244029e+001
 2.959287783067377e+000	 2.591066015360246e+000	 1.091184884243057e+001
 2.930513097476696e+000	 2.623566423550066e+000	 1.089989570114608e+001
 2.731853437862469e+000	 2.445714697483801e+000	 1.103218012204486e+001
 2.704692433297279e+000	 2.475718642763606e+000	 1.101218128433150e+001
 2.677195161938863e+000	 2.505428168867732e+000	 1.098490616685916e+001
 2.649366439270082e+000	 2.534837651707582e+000	 1.095148690800965e+001
 2.621211205591807e+000	 2.563941572878231e+000	 1.091642212694273e+001
 2.592734523104852e+000	 2.592734523104852e+000	 1.088034758867249e+001
 2.563941572878231e+000	 2.621211205591807e+000	 1.084341237490259e+001
 2.534837651707581e+000	 2.649366439270081e+000	 1.080572304918433e+001
 2.505428168867732e+000	 2.677195161938863e+000	 1.076800606288565e+001
 2.475718642763605e+000	 2.704692433297279e+000	 1.073676644153252e+001
 2.445714697483802e+000	 2.731853437862469e+000	 1.071339524746100e+001
 2.751719403824789e+000	 2.463499870090225e+000	 1.102297665666703e+001
 2.724360885152517e+000	 2.493722003266977e+000	 1.100486997063975e+001
 2.696663654363745e+000	 2.523647576259597e+000	 1.097998694997201e+001
 2.668632561959409e+000	 2.553270924081258e+000	 1.094812723864780e+001
 2.640272584166119e+000	 2.582586488197333e+000	 1.091177316795332e+001
 2.611588819996889e+000	 2.611588819996888e+000	 1.087429404394438e+001
 2.582586488197333e+000	 2.640272584166119e+000	 1.083571223693916e+001
 2.553270924081256e+000	 2.668632561959408e+000	 1.079601048468815e+001
 2.523647576259597e+000	 2.696663654363745e+000	 1.076018391111818e+001
 2.493722003266977e+000	 2.724360885152517e+000	 1.073180621866292e+001
 2.463499870090225e+000	 2.751719403824789e+000	 1.071033636672069e+001
 2.771585369787176e+000	 2.481285042696783e+000	 1.101127568617852e+001
 2.744029337007786e+000	 2.511725363770436e+000	 1.099484992945782e+001
 2.716132146788635e+000	 2.541866983651511e+000	 1.097197627358773e+001
 2.687898684648724e+000	 2.571704196454953e+000	 1.094229861422357e+001
 2.659333962740416e+000	 2.601231403516437e+000	 1.090576483817643e+001
 2.630443116888912e+000	 2.630443116888912e+000	 1.086632802040709e+001
 2.601231403516437e+000	 2.659333962740415e+000	 1.082551943377607e+001
 2.571704196454952e+000	 2.687898684648725e+000	 1.078571394987733e+001
 2.541866983651512e+000	 2.716132146788636e+000	 1.075291942133440e+001
 2.511725363770435e+000	 2.744029337007786e+000	 1.072690224800435e+001
 2.481285042696783e+000	 2.771585369787176e+000	 1.070696049767359e+001
 2.791451335749533e+000	 2.499070215303443e+000	 1.099772805625685e+001
 2.763697788862998e+000	 2.529728724273948e+000	 1.098273401830812e+001
 2.735600639213451e+000	 2.560086391043440e+000	 1.096145663356528e+001
 2.707164807337962e+000	 2.590137468828627e+000	 1.093341769042453e+001
 2.678395341314634e+000	 2.619876318835490e+000	 1.089824965658128e+001
 2.649297413780869e+000	 2.649297413780869e+000	 1.085674993993260e+001
 2.619876318835491e+000	 2.678395341314634e+000	 1.081385893167129e+001
 2.590137468828628e+000	 2.707164807337962e+000	 1.077664192551207e+001
 2.560086391043440e+000	 2.735600639213451e+000	 1.074627860497110e+001
 2.529728724273947e+000	 2.763697788862998e+000	 1.072211552480536e+001
 2.499070215303442e+000	 2.791451335749532e+000	 1.070332573253353e+001
 2.811317301711755e+000	 2.516855387910169e+000	 1.098295489865595e+001
 2.783366240718062e+000	 2.547732084777479e+000	 1.096910675713150e+001
 2.755069131638113e+000	 2.578305798435343e+000	 1.094898332238354e+001
 2.726430930027048e+000	 2.608570741202241e+000	 1.092201713444455e+001
 2.697456719888714e+000	 2.638521234154451e+000	 1.088775390855128e+001
 2.668151710672706e+000	 2.668151710672706e+000	 1.084586739488210e+001
 2.638521234154452e+000	 2.697456719888714e+000	 1.080387815600899e+001
 2.608570741202240e+000	 2.726430930027047e+000	 1.076888188874960e+001
 2.578305798435343e+000	 2.755069131638112e+000	 1.074034131686127e+001
 2.547732084777478e+000	 2.783366240718062e+000	 1.071752127238148e+001
 2.516855387910169e+000	 2.811317301711755e+000	 1.069950480677129e+001
 2.831183267673744e+000	 2.534640560516928e+000	 1.096754873098973e+001
 2.803034692572887e+000	 2.565735445280995e+000	 1.095452539932471e+001
 2.774537624062540e+000	 2.596525205827184e+000	 1.093508547788291e+001
 2.745697052715913e+000	 2.627004013575751e+000	 1.090860435426969e+001
 2.716518098462591e+000	 2.657166149473270e+000	 1.087457370575908e+001
 2.687006007564368e+000	 2.687006007564368e+000	 1.083478557607793e+001
 2.657166149473270e+000	 2.716518098462591e+000	 1.079599013038753e+001
 2.627004013575750e+000	 2.745697052715913e+000	 1.076253292655836e+001
 2.596525205827185e+000	 2.774537624062540e+000	 1.073519941174723e+001
 2.565735445280996e+000	 2.803034692572888e+000	 1.071320711980168e+001
 2.534640560516928e+000	 2.831183267673744e+000	 1.069558330125977e+001
 2.851049233635401e+000	 2.552425733123689e+000	 1.095207455289379e+001
 2.822703144427385e+000	 2.583738805784463e+000	 1.093952100061940e+001
 2.794006116486655e+000	 2.614744613218929e+000	 1.092026713099696e+001
 2.764963175404485e+000	 2.645437285949114e+000	 1.089366253066663e+001
 2.735579477036205e+000	 2.675811064791898e+000	 1.085960321794518e+001
 2.705860304455802e+000	 2.705860304455801e+000	 1.082438970626318e+001
 2.675811064791898e+000	 2.735579477036205e+000	 1.079004989925511e+001
 2.645437285949114e+000	 2.764963175404485e+000	 1.075770387627415e+001
 2.614744613218929e+000	 2.794006116486654e+000	 1.073095490181681e+001
 2.583738805784463e+000	 2.822703144427385e+000	 1.070927128042702e+001
 2.552425733123689e+000	 2.851049233635401e+000	 1.069165784504111e+001
 2.870915199596624e+000	 2.570210905730416e+000	 1.093707093874115e+001
 2.842371596281464e+000	 2.601742166287846e+000	 1.092459948590720e+001
 2.813474608910373e+000	 2.632964020610537e+000	 1.090500825252290e+001
 2.784229298092693e+000	 2.663870558322291e+000	 1.087765164903151e+001
 2.754640855609494e+000	 2.694455980110292e+000	 1.084590277415436e+001
 2.724714601346952e+000	 2.724714601346950e+000	 1.081494961687376e+001
 2.694455980110293e+000	 2.754640855609494e+000	 1.078457346983980e+001
 2.663870558322291e+000	 2.784229298092693e+000	 1.075451146720428e+001
 2.632964020610537e+000	 2.813474608910373e+000	 1.072771811521239e+001
 2.601742166287846e+000	 2.842371596281464e+000	 1.070582073125962e+001
 2.570210905730416e+000	 2.870915199596625e+000	 1.068783431868583e+001
 2.890781165557315e+000	 2.587996078337078e+000	 1.092305112707690e+001
 2.862040048135035e+000	 2.619745526791112e+000	 1.091024271411028e+001
 2.832943101333616e+000	 2.651183428001972e+000	 1.088976579897631e+001
 2.803495420780467e+000	 2.682303830695239e+000	 1.086219919521660e+001
 2.773702234182394e+000	 2.713100895428402e+000	 1.083420289874165e+001
 2.743568898237764e+000	 2.743568898237764e+000	 1.080672011713774e+001
 2.713100895428401e+000	 2.773702234182393e+000	 1.077952289058384e+001
 2.682303830695240e+000	 2.803495420780468e+000	 1.075235321532811e+001
 2.651183428001973e+000	 2.832943101333616e+000	 1.072560585546626e+001
 2.619745526791112e+000	 2.862040048135035e+000	 1.070296939306355e+001
 2.587996078337078e+000	 2.890781165557315e+000	 1.068422605821506e+001
 2.910647131517372e+000	 2.605781250943639e+000	 1.091050410692949e+001
 2.881708499988006e+000	 2.637748887294224e+000	 1.089690954118980e+001
 2.852411593756304e+000	 2.669402835393198e+000	 1.087500910960797e+001
 2.822761543467736e+000	 2.700737103067920e+000	 1.084971799449144e+001
 2.792763612754842e+000	 2.731745810746180e+000	 1.082474454414706e+001
 2.762423195128184e+000	 2.762423195128184e+000	 1.079994115182614e+001
 2.731745810746180e+000	 2.792763612754843e+000	 1.077514136881601e+001
 2.700737103067920e+000	 2.822761543467736e+000	 1.075014759479548e+001
 2.669402835393198e+000	 2.852411593756304e+000	 1.072471892826042e+001
 2.637748887294224e+000	 2.881708499988007e+000	 1.070083631122007e+001
 2.605781250943640e+000	 2.910647131517372e+000	 1.068095205955969e+001
 2.930513097476696e+000	 2.623566423550066e+000	 1.089989570114608e+001
 2.901376951840289e+000	 2.655752247797149e+000	 1.088503688138171e+001
 2.871880086178356e+000	 2.687622242784177e+000	 1.086307058053579e+001
 2.842027666154427e+000	 2.719170375440287e+000	 1.084047943531466e+001
 2.811824991326779e+000	 2.750390726063579e+000	 1.081775374844524e+001
 2.781277492018158e+000	 2.781277492018158e+000	 1.079483795970598e+001
 2.750390726063578e+000	 2.811824991326778e+000	 1.077165751431794e+001
 2.719170375440287e+000	 2.842027666154426e+000	 1.074810581697023e+001
 2.687622242784177e+000	 2.871880086178356e+000	 1.072403135061301e+001
 2.655752247797149e+000	 2.901376951840288e+000	 1.069954383728322e+001
 2.623566423550066e+000	 2.930513097476694e+000	 1.067813518353006e+001
 2.445714697483802e+000	 2.731853437862469e+000	 1.071339524746100e+001
 2.415417493925476e+000	 2.758677485780278e+000	 1.069204012696451e+001
 2.384837340452332e+000	 2.785155919594005e+000	 1.066767945468194e+001
 2.353980161519820e+000	 2.811284315132540e+000	 1.064100128151295e+001
 2.322851972591212e+000	 2.837058383631288e+000	 1.061256967219235e+001
 2.291458876269918e+000	 2.862473974030362e+000	 1.058283292264398e+001
 2.259807058363652e+000	 2.887527075140474e+000	 1.055213237592204e+001
 2.227902783885794e+000	 2.912213817674249e+000	 1.052071173821983e+001
 2.195752392999227e+000	 2.936530476140903e+000	 1.048872679378564e+001
 2.163362296908118e+000	 2.960473470602511e+000	 1.045625541584498e+001
 2.130738973703105e+000	 2.984039368290266e+000	 1.042330776979107e+001
 2.463499870090225e+000	 2.751719403824789e+000	 1.071033636672069e+001
 2.432982346068520e+000	 2.778738515509805e+000	 1.068975401656387e+001
 2.402179814527717e+000	 2.805409499794068e+000	 1.066518507494803e+001
 2.371098243005754e+000	 2.831727900334018e+000	 1.063758584077571e+001
 2.339743690710204e+000	 2.857689397177288e+000	 1.060778500261842e+001
 2.308122304622443e+000	 2.883289809077596e+000	 1.057649191868198e+001
 2.276240315533231e+000	 2.908525095676397e+000	 1.054430552282846e+001
 2.244104034014959e+000	 2.933391359548965e+000	 1.051172375399228e+001
 2.211719846336016e+000	 2.957884848112856e+000	 1.047915340355011e+001
 2.179094210322679e+000	 2.982001955396933e+000	 1.044692027336435e+001
 2.146233651174095e+000	 3.005739223669392e+000	 1.041527953632551e+001
 2.481285042696783e+000	 2.771585369787176e+000	 1.070696049767359e+001
 2.450547198211751e+000	 2.798799545239443e+000	 1.068695056049872e+001
 2.419522288603349e+000	 2.825663079994292e+000	 1.066213682586771e+001
 2.388216324492002e+000	 2.852171485535715e+000	 1.063369957397854e+001
 2.356635408829572e+000	 2.878320410723559e+000	 1.060268785125212e+001
 2.324785732975417e+000	 2.904105644125149e+000	 1.057002791437815e+001
 2.292673572703324e+000	 2.929523116212680e+000	 1.053653232825349e+001
 2.260305284144704e+000	 2.954568901424074e+000	 1.050290961064459e+001
 2.227687299673442e+000	 2.979239220085217e+000	 1.046977431348701e+001
 2.194826123737930e+000	 3.003530440191762e+000	 1.043765742879646e+001
 2.161728328645818e+000	 3.027439079048901e+000	 1.040701700621469e+001
 2.499070215303442e+000	 2.791451335749532e+000	 1.070332573253353e+001
 2.468112050355138e+000	 2.818860574969083e+000	 1.068368612574784e+001
 2.436864762679192e+000	 2.845916660194561e+000	 1.065859072570374e+001
 2.405334405978519e+000	 2.872615070737500e+000	 1.062940034252330e+001
 2.373527126949274e+000	 2.898951424269965e+000	 1.059734091775203e+001
 2.341449161328784e+000	 2.924921479172883e+000	 1.056351223403672e+001
 2.309106829873869e+000	 2.950521136749184e+000	 1.052889730695076e+001
 2.276506534274954e+000	 2.975746443299434e+000	 1.049437234692308e+001
 2.243654753011425e+000	 3.000593592057848e+000	 1.046071717616640e+001
 2.210558037153777e+000	 3.025058924986865e+000	 1.042862598346150e+001
 2.177223006118176e+000	 3.049138934428674e+000	 1.039871829864946e+001
 2.516855387910169e+000	 2.811317301711755e+000	 1.069950480677129e+001
 2.485676902498641e+000	 2.838921604698616e+000	 1.068003218851576e+001
 2.454207236755210e+000	 2.866170240394754e+000	 1.065461840616830e+001
 2.422452487465267e+000	 2.893058655939247e+000	 1.062476213326286e+001
 2.390418845069261e+000	 2.919582437816373e+000	 1.059182351635390e+001
 2.358112589682489e+000	 2.945737314220657e+000	 1.055703325200992e+001
 2.325540087044803e+000	 2.971519157285764e+000	 1.052150237468046e+001
 2.292707784405640e+000	 2.996923985174902e+000	 1.048623263814464e+001
 2.259622206349883e+000	 3.021947964030614e+000	 1.045212737004151e+001
 2.226289950570137e+000	 3.046587409782117e+000	 1.042000267684504e+001
 2.192717683591068e+000	 3.070838789808597e+000	 1.039059887558687e+001
 2.534640560516928e+000	 2.831183267673744e+000	 1.069558330125977e+001
 2.503241754642232e+000	 2.858982634427929e+000	 1.067607356323491e+001
 2.471549710831364e+000	 2.886423820594752e+000	 1.065030537091555e+001
 2.439570568952202e+000	 2.913502241140828e+000	 1.061987334997392e+001
 2.407310563189484e+000	 2.940213451362647e+000	 1.058622990466222e+001
 2.374776018036477e+000	 2.966553149268331e+000	 1.055069476398662e+001
 2.341973344216064e+000	 2.992517177822279e+000	 1.051446526800553e+001
 2.308909034536690e+000	 3.018101527050339e+000	 1.047862727133282e+001
 2.275589659688735e+000	 3.043302336003374e+000	 1.044416653756973e+001
 2.242021863986915e+000	 3.068115894577389e+000	 1.041198049614961e+001
 2.208212361064393e+000	 3.092538645188554e+000	 1.038289023197038e+001
 2.552425733123689e+000	 2.851049233635401e+000	 1.069165784504111e+001
 2.520806606785871e+000	 2.879043664156916e+000	 1.067190663193562e+001
 2.488892184907616e+000	 2.906677400794436e+000	 1.064574925411196e+001
 2.456688650439283e+000	 2.933945826342114e+000	 1.061483510454201e+001
 2.424202281309897e+000	 2.960844464908653e+000	 1.058066761167464e+001
 2.391439446390696e+000	 2.987368984315767e+000	 1.054461435688380e+001
 2.358406601387589e+000	 3.013515198358590e+000	 1.050791796187092e+001
 2.325110284668035e+000	 3.039279068925603e+000	 1.047170761709077e+001
 2.291557113027904e+000	 3.064656707975995e+000	 1.043701111875943e+001
 2.257753777404020e+000	 3.089644379372550e+000	 1.040476727966158e+001
 2.223707038538050e+000	 3.114238500568427e+000	 1.037583857781508e+001
 2.570210905730416e+000	 2.870915199596625e+000	 1.068783431868583e+001
 2.538371458929527e+000	 2.899104693885464e+000	 1.066763757396645e+001
 2.506234658983932e+000	 2.926930980993684e+000	 1.064105807907984e+001
 2.473806731926469e+000	 2.954389411542978e+000	 1.060975950787193e+001
 2.441093999430454e+000	 2.981475478454254e+000	 1.057525576507671e+001
 2.408102874745091e+000	 3.008184819362825e+000	 1.053892177740845e+001
 2.374839858559317e+000	 3.034513218894551e+000	 1.050200508507372e+001
 2.341311534799600e+000	 3.060456610800551e+000	 1.046563809836912e+001
 2.307524566367308e+000	 3.086011079948339e+000	 1.043085088036510e+001
 2.273485690821364e+000	 3.111172864167472e+000	 1.039858431423159e+001
 2.239201716011941e+000	 3.135938355948102e+000	 1.036970351255154e+001
 2.587996078337078e+000	 2.890781165557315e+000	 1.068422605821506e+001
 2.555936311073165e+000	 2.919165723613464e+000	 1.066338059604761e+001
 2.523577133060271e+000	 2.947184561192380e+000	 1.063634851701119e+001
 2.490924813413718e+000	 2.974832996743292e+000	 1.060476796053737e+001
 2.457985717551105e+000	 3.002106491999317e+000	 1.057012341784147e+001
 2.424766303099606e+000	 3.029000654409364e+000	 1.053375729935364e+001
 2.391273115731185e+000	 3.055511239430021e+000	 1.049688233372519e+001
 2.357512784931316e+000	 3.081634152675044e+000	 1.046059465627818e+001
 2.323492019706865e+000	 3.107365451920267e+000	 1.042588744093944e+001
 2.289217604238855e+000	 3.132701348962026e+000	 1.039366492715244e+001
 2.254696393485963e+000	 3.157638211327462e+000	 1.036475669200111e+001
 2.605781250943640e+000	 2.910647131517372e+000	 1.068095205955969e+001
 2.573501163216749e+000	 2.939226753340805e+000	 1.065925616264183e+001
 2.540919607136599e+000	 2.967438141390401e+000	 1.063174414574829e+001
 2.508042894900989e+000	 2.995276581942927e+000	 1.059998944318182e+001
 2.474877435671805e+000	 3.022737505543709e+000	 1.056540787416794e+001
 2.441429731454189e+000	 3.049816489455247e+000	 1.052927008968968e+001
 2.407706372903129e+000	 3.076509259964860e+000	 1.049271488280093e+001
 2.373714035063113e+000	 3.102811694548940e+000	 1.045676321308579e+001
 2.339459473046493e+000	 3.128719823891644e+000	 1.042233279194066e+001
 2.304949517656405e+000	 3.154229833756085e+000	 1.039025307270190e+001
 2.270191070960018e+000	 3.179338066706392e+000	 1.036128048833453e+001
 2.623566423550066e+000	 2.930513097476694e+000	 1.067813518353006e+001
 2.591066015360247e+000	 2.959287783067377e+000	 1.065538922662760e+001
 2.558262081212877e+000	 2.987691721587632e+000	 1.062737370862781e+001
 2.525160976388239e+000	 3.015720167141756e+000	 1.059555880668277e+001
 2.491769153792504e+000	 3.043368519087291e+000	 1.056125301478896e+001
 2.458093159808781e+000	 3.070632324500330e+000	 1.052561657350716e+001
 2.424139630075088e+000	 3.097507280498923e+000	 1.048967579586972e+001
 2.389915285194917e+000	 3.123989236422097e+000	 1.045433813253403e+001
 2.355426926386115e+000	 3.150074195862330e+000	 1.042040781508205e+001
 2.320681431073919e+000	 3.175758318549517e+000	 1.038860191360363e+001
 2.285685748434003e+000	 3.201037922084772e+000	 1.035956664334690e+001
 2.130738973703105e+000	 2.984039368290266e+000	 1.042330776979107e+001
 2.097888963455511e+000	 3.007224884231965e+000	 1.038728271605817e+001
 2.064818861901898e+000	 3.030026880021336e+000	 1.034334105519508e+001
 2.031535318394141e+000	 3.052442367516636e+000	 1.028811523722297e+001
 1.998045032338640e+000	 3.074468510735241e+000	 1.021833794389065e+001
 1.964354748895379e+000	 3.096102626762256e+000	 1.014932163888769e+001
 1.930471254663603e+000	 3.117342186515054e+000	 1.009253865447009e+001
 1.896401373359606e+000	 3.138184815363838e+000	 1.004449576355524e+001
 1.862151961492184e+000	 3.158628293608679e+000	 1.000168223624355e+001
 1.827729904041205e+000	 3.178670556813624e+000	 9.960630539180624e+000
 1.793142110144684e+000	 3.198309695998757e+000	 9.917973121391034e+000
 2.146233651174095e+000	 3.005739223669392e+000	 1.041527953632551e+001
 2.113144756520816e+000	 3.029093344069806e+000	 1.038217303483098e+001
 2.079834170063416e+000	 3.052061155369498e+000	 1.034304174066904e+001
 2.046308589507667e+000	 3.074639647697041e+000	 1.029436696049075e+001
 2.012574762977862e+000	 3.096825964446623e+000	 1.023267432403091e+001
 1.978639484684598e+000	 3.118617403193275e+000	 1.016117484019816e+001
 1.944509590579076e+000	 3.140011416462942e+000	 1.010095791256371e+001
 1.910191953999462e+000	 3.161005612357592e+000	 1.005065617082875e+001
 1.875693481314890e+000	 3.181597755035698e+000	 1.000657849322827e+001
 1.841021107572606e+000	 3.201785765048789e+000	 9.965089517392350e+000
 1.806181792153683e+000	 3.221567719534899e+000	 9.922669169692426e+000
 2.161728328645818e+000	 3.027439079048901e+000	 1.040701700621469e+001
 2.128400549586891e+000	 3.050961803907982e+000	 1.037630895770823e+001
 2.094849478225728e+000	 3.074095430717927e+000	 1.034127998497219e+001
 2.061081860622007e+000	 3.096836927877634e+000	 1.029830009420350e+001
 2.027104493617908e+000	 3.119183418158109e+000	 1.024378417091972e+001
 1.992924220474648e+000	 3.141132179624304e+000	 1.017492265586171e+001
 1.958547926495382e+000	 3.162680646410757e+000	 1.011041836180320e+001
 1.923982534640148e+000	 3.183826409351195e+000	 1.005702221724122e+001
 1.889235001138423e+000	 3.204567216462507e+000	 1.001089545011173e+001
 1.854312311104829e+000	 3.224900973283702e+000	 9.968267843008876e+000
 1.819221474163497e+000	 3.244825743070775e+000	 9.925500056581981e+000
 2.177223006118176e+000	 3.049138934428674e+000	 1.039871829864946e+001
 2.143656342653623e+000	 3.072830263746392e+000	 1.036992974671434e+001
 2.109864786388717e+000	 3.096129706066546e+000	 1.033833172122627e+001
 2.075855131737029e+000	 3.119034208058360e+000	 1.030022177475739e+001
 2.041634224258642e+000	 3.141540871869665e+000	 1.025194254532621e+001
 2.007208956265380e+000	 3.163646956055338e+000	 1.018989812175964e+001
 1.972586262412363e+000	 3.185349876358512e+000	 1.012100442964143e+001
 1.937773115281502e+000	 3.206647206344685e+000	 1.006368944664407e+001
 1.902776520962611e+000	 3.227536677889154e+000	 1.001472765418252e+001
 1.867603514637696e+000	 3.248016181518426e+000	 9.970245682657650e+000
 1.832261156173944e+000	 3.268083766606454e+000	 9.926516972576016e+000
 2.192717683591068e+000	 3.070838789808597e+000	 1.039059887558687e+001
 2.158912135720905e+000	 3.094698723584940e+000	 1.036329164742668e+001
 2.124880094552259e+000	 3.118163981415277e+000	 1.033448961946469e+001
 2.090628402852605e+000	 3.141231488239166e+000	 1.030045575947496e+001
 2.056163954899921e+000	 3.163898325581260e+000	 1.025749798672458e+001
 2.021493692056648e+000	 3.186161732486373e+000	 1.020198629383179e+001
 1.986624598329863e+000	 3.208019106306228e+000	 1.013280631337158e+001
 1.951563695923357e+000	 3.229468003338097e+000	 1.007076298004461e+001
 1.916318040787283e+000	 3.250506139315697e+000	 1.001818315780072e+001
 1.880894718171027e+000	 3.271131389753024e+000	 9.971120758414871e+000
 1.845300838184841e+000	 3.291341790142000e+000	 9.925792839119737e+000
 2.208212361064393e+000	 3.092538645188554e+000	 1.038289023197038e+001
 2.174167928788625e+000	 3.116567183423526e+000	 1.035666666376351e+001
 2.139895402716236e+000	 3.140198256764045e+000	 1.033006194340535e+001
 2.105401673968605e+000	 3.163428768419996e+000	 1.029934136184870e+001
 2.070693685541607e+000	 3.186255779292868e+000	 1.026081469731886e+001
 2.035778427848301e+000	 3.208676508917402e+000	 1.021085406252996e+001
 2.000662934247727e+000	 3.230688336253921e+000	 1.014591105116040e+001
 1.965354276565549e+000	 3.252288800331470e+000	 1.007835462228836e+001
 1.929859560612265e+000	 3.273475600742184e+000	 1.002138078272109e+001
 1.894185921704647e+000	 3.294246597987558e+000	 9.971005759237107e+000
 1.858340520196004e+000	 3.314599813677478e+000	 9.923419855500596e+000
 2.223707038538050e+000	 3.114238500568427e+000	 1.037583857781508e+001
 2.189423721856672e+000	 3.138435643262051e+000	 1.035034132256887e+001
 2.154910710880527e+000	 3.162232532112768e+000	 1.032537139510132e+001
 2.120174945084899e+000	 3.185626048600800e+000	 1.029723237292725e+001
 2.085223416183562e+000	 3.208613233004459e+000	 1.026227153594458e+001
 2.050063163640193e+000	 3.231191285348421e+000	 1.021689840981484e+001
 2.014701270165795e+000	 3.253357566201609e+000	 1.015760258202560e+001
 1.979144857207913e+000	 3.275109597324839e+000	 1.008657995047463e+001
 1.943401080437388e+000	 3.296445062168671e+000	 1.002444736584973e+001
 1.907477125238376e+000	 3.317361806222094e+000	 9.970025733913110e+000
 1.871380202207249e+000	 3.337857837212958e+000	 9.919574471779418e+000
 2.239201716011941e+000	 3.135938355948102e+000	 1.036970351255154e+001
 2.204679514924937e+000	 3.160304103100417e+000	 1.034461542848848e+001
 2.169926019045013e+000	 3.184266807461372e+000	 1.032075394805616e+001
 2.134948216201357e+000	 3.207823328781521e+000	 1.029449596951539e+001
 2.099753146825645e+000	 3.230970686716001e+000	 1.026226099734148e+001
 2.064347899432174e+000	 3.253706061779425e+000	 1.022053035452816e+001
 2.028739606083914e+000	 3.276026796149310e+000	 1.016586564130735e+001
 1.992935437850286e+000	 3.297930394318246e+000	 1.009555538499045e+001
 1.956942600262478e+000	 3.319414523595212e+000	 1.002751498733329e+001
 1.920768328772035e+000	 3.340477014456691e+000	 9.968455607270448e+000
 1.884419884218392e+000	 3.361115860748503e+000	 9.916559149048512e+000
 2.254696393485963e+000	 3.157638211327462e+000	 1.036475669200111e+001
 2.219935307993310e+000	 3.182172562938527e+000	 1.033980080960370e+001
 2.184941327209573e+000	 3.206301082809782e+000	 1.031655766935919e+001
 2.149721487317849e+000	 3.230020608962104e+000	 1.029151160982212e+001
 2.114282877467717e+000	 3.253328140427467e+000	 1.026118817750111e+001
 2.078632635224096e+000	 3.276220838210407e+000	 1.022217398280750e+001
 2.042777942001923e+000	 3.298696026097038e+000	 1.017113577642293e+001
 2.006726018492501e+000	 3.320751191311723e+000	 1.010483861039699e+001
 1.970484120087366e+000	 3.342383985021857e+000	 1.003089541154181e+001
 1.934059532305448e+000	 3.363592222691413e+000	 9.968345165840685e+000
 1.897459566229250e+000	 3.384373884284181e+000	 9.915147239925451e+000
 2.270191070960018e+000	 3.179338066706392e+000	 1.036128048833453e+001
 2.235191101061679e+000	 3.204041022776280e+000	 1.033622005426499e+001
 2.199956635374086e+000	 3.228335358157914e+000	 1.031314153136503e+001
 2.164494758434245e+000	 3.252217889142498e+000	 1.028866991715666e+001
 2.128812608109640e+000	 3.275685594138827e+000	 1.025946972575428e+001
 2.092917371015812e+000	 3.298735614641365e+000	 1.022226546415160e+001
 2.056816277919669e+000	 3.321365256044816e+000	 1.017386130315817e+001
 2.020516599134396e+000	 3.343571988305311e+000	 1.011132340275658e+001
 1.984025639911877e+000	 3.365353446448660e+000	 1.003620069535232e+001
 1.947350735838436e+000	 3.386707430926326e+000	 9.969986079618833e+000
 1.910499248239641e+000	 3.407631907820056e+000	 9.914909282175506e+000
 2.285685748434003e+000	 3.201037922084772e+000	 1.035956664334690e+001
 2.250446894129934e+000	 3.225909482613576e+000	 1.033420523954298e+001
 2.214971943538431e+000	 3.250369633505693e+000	 1.031087421341374e+001
 2.179268029550415e+000	 3.274415169322649e+000	 1.028637155223938e+001
 2.143342338751272e+000	 3.298043047850051e+000	 1.025753278422789e+001
 2.107202106807173e+000	 3.321250391072290e+000	 1.022125205381772e+001
 2.070854613836993e+000	 3.344034485992657e+000	 1.017461115381159e+001
 2.034307179775804e+000	 3.366392785299043e+000	 1.011583970463329e+001
 1.997567159735842e+000	 3.388322907875671e+000	 1.004340640411150e+001
 1.960641939370820e+000	 3.409822639161488e+000	 9.972927143217296e+000
 1.923538930249378e+000	 3.430889931356199e+000	 9.915408808781770e+000
 1.793142110144684e+000	 3.198309695998757e+000	 9.917973121391034e+000
 1.758400732415532e+000	 3.217541103571808e+000	 9.874400549641578e+000
 1.723507538249754e+000	 3.236366160359109e+000	 9.832201030111289e+000
 1.688469482271451e+000	 3.254783426736442e+000	 9.790670285512011e+000
 1.653293526122406e+000	 3.272791617828106e+000	 9.749317892099306e+000
 1.617986634272130e+000	 3.290389603006430e+000	 9.707897349104524e+000
 1.582555769867112e+000	 3.307576405259167e+000	 9.666431000327881e+000
 1.547007890623957e+000	 3.324351200427108e+000	 9.625229743989809e+000
 1.511349944770983e+000	 3.340713316314455e+000	 9.585101617312340e+000
 1.475588867042669e+000	 3.356662231674654e+000	 9.548025160048569e+000
 1.439731574731233e+000	 3.372197575074528e+000	 9.514439660877892e+000
 1.806181792153683e+000	 3.221567719534899e+000	 9.922669169692428e+000
 1.771187776044501e+000	 3.240938977395473e+000	 9.879528977346858e+000
 1.736040839493528e+000	 3.259900929498167e+000	 9.837560694365278e+000
 1.700747987698722e+000	 3.278452125749841e+000	 9.796058692544033e+000
 1.665316232926751e+000	 3.296591271931205e+000	 9.754551733679458e+000
 1.629752590292575e+000	 3.314317229192684e+000	 9.712834263734051e+000
 1.594064073578511e+000	 3.331629013417208e+000	 9.670992272024833e+000
 1.558257691097505e+000	 3.348525794452300e+000	 9.630351202292165e+000
 1.522340441605221e+000	 3.365006895213961e+000	 9.592494052790098e+000
 1.486319310265352e+000	 3.381071790665133e+000	 9.557461950107303e+000
 1.450201264672494e+000	 3.396720106671581e+000	 9.525291715735376e+000
 1.819221474163497e+000	 3.244825743070775e+000	 9.925500056581981e+000
 1.783974819674280e+000	 3.264336851218890e+000	 9.882336138471993e+000
 1.748574140738111e+000	 3.283435698637018e+000	 9.840243061179663e+000
 1.713026493126799e+000	 3.302120824763097e+000	 9.798489290992791e+000
 1.677338939731900e+000	 3.320390926034239e+000	 9.756600367659919e+000
 1.641518546313823e+000	 3.338244855378957e+000	 9.714499389837515e+000
 1.605572377290710e+000	 3.355681621575360e+000	 9.674138202646285e+000
 1.569507491571854e+000	 3.372700388477689e+000	 9.636158350678574e+000
 1.533330938440259e+000	 3.389300474113742e+000	 9.600468758326093e+000
 1.497049753488834e+000	 3.405481349655952e+000	 9.566988017366514e+000
 1.460670954614553e+000	 3.421242638269016e+000	 9.535644744277573e+000
 1.832261156173944e+000	 3.268083766606454e+000	 9.926516972576016e+000
 1.796761863304684e+000	 3.287734725042119e+000	 9.882838003844295e+000
 1.761107441983310e+000	 3.306970467775714e+000	 9.840231889915543e+000
 1.725304998555488e+000	 3.325789523776247e+000	 9.797916874353055e+000
 1.689361646537656e+000	 3.344190580137224e+000	 9.755914398432012e+000
 1.653284502335674e+000	 3.362172481565244e+000	 9.716130480720562e+000
 1.617080681003512e+000	 3.379734229733591e+000	 9.678557451647590e+000
 1.580757292046804e+000	 3.396874982503220e+000	 9.642955875380251e+000
 1.544321435275896e+000	 3.413594053013718e+000	 9.609098844782878e+000
 1.507780196712916e+000	 3.429890908647009e+000	 9.576772300668791e+000
 1.471140644557212e+000	 3.445765169866720e+000	 9.545775431175862e+000
 1.845300838184841e+000	 3.291341790142000e+000	 9.925792839119735e+000
 1.809548906935523e+000	 3.311132598865224e+000	 9.881076310353787e+000
 1.773640743228935e+000	 3.330505236914307e+000	 9.837540313684352e+000
 1.737583503984593e+000	 3.349458222789323e+000	 9.795434113700573e+000
 1.701384353343822e+000	 3.367990234240172e+000	 9.756103238226041e+000
 1.665050458357931e+000	 3.386100107751535e+000	 9.719145927185069e+000
 1.628588984716718e+000	 3.403786837891867e+000	 9.684144512217838e+000
 1.592007092522155e+000	 3.421049576528834e+000	 9.650697487490469e+000
 1.555311932111934e+000	 3.437887631913810e+000	 9.618419803097835e+000
 1.518510639937398e+000	 3.454300467638206e+000	 9.586943216307320e+000
 1.481610334500272e+000	 3.470287701464573e+000	 9.555916741570071e+000
 1.858340520196004e+000	 3.314599813677478e+000	 9.923419855500596e+000
 1.822335950566611e+000	 3.334530472688268e+000	 9.877121847125446e+000
 1.786174044474793e+000	 3.354040006052849e+000	 9.833906524865835e+000
 1.749862009413921e+000	 3.373126921802362e+000	 9.794299387532551e+000
 1.713407060150203e+000	 3.391789888343100e+000	 9.757652772632145e+000
 1.676816414380397e+000	 3.410027733937825e+000	 9.723339217854891e+000
 1.640097288430126e+000	 3.427839446050156e+000	 9.690751785452763e+000
 1.603256892997709e+000	 3.445224170554476e+000	 9.659304354866634e+000
 1.566302428948173e+000	 3.462181210813938e+000	 9.628431939291454e+000
 1.529241083162080e+000	 3.478710026629442e+000	 9.597591076081725e+000
 1.492080024443531e+000	 3.494810233062459e+000	 9.566260334666204e+000
 1.871380202207249e+000	 3.337857837212958e+000	 9.919574471779418e+000
 1.835122994197758e+000	 3.357928346511310e+000	 9.873200421963162e+000
 1.798707345720694e+000	 3.377574775191389e+000	 9.831786697500853e+000
 1.762140514843276e+000	 3.396795620815399e+000	 9.794437769654412e+000
 1.725429766956601e+000	 3.415589542446022e+000	 9.760283248122965e+000
 1.688582370402873e+000	 3.433955360124103e+000	 9.728478299969376e+000
 1.651605592143540e+000	 3.451892054208428e+000	 9.698203980935020e+000
 1.614506693473263e+000	 3.469398764580086e+000	 9.668667544113596e+000
 1.577292925784412e+000	 3.486474789714023e+000	 9.639102785342747e+000
 1.539971526386763e+000	 3.503119585620613e+000	 9.608770478502033e+000
 1.502549714386791e+000	 3.519332764660260e+000	 9.576958947267043e+000
 1.884419884218392e+000	 3.361115860748503e+000	 9.916559149048512e+000
 1.847910037828777e+000	 3.381326220334415e+000	 9.870811310613183e+000
 1.811240646966444e+000	 3.401109544329981e+000	 9.830844548120924e+000
 1.774419020272465e+000	 3.420464319828468e+000	 9.795510962922183e+000
 1.737452473762821e+000	 3.439389196548954e+000	 9.763693844869637e+000
 1.700348326425160e+000	 3.457882986310363e+000	 9.734308097702405e+000
 1.663113895856761e+000	 3.475944662366649e+000	 9.706300581549588e+000
 1.625756493948620e+000	 3.493573358605611e+000	 9.678650441737007e+000
 1.588283422620452e+000	 3.510768368613983e+000	 9.650369487100450e+000
 1.550701969611245e+000	 3.527529144611625e+000	 9.620502674440521e+000
 1.513019404329850e+000	 3.543855296257858e+000	 9.588128748692185e+000
 1.897459566229250e+000	 3.384373884284181e+000	 9.915147239925449e+000
 1.860697081459480e+000	 3.404724094157645e+000	 9.869549946185128e+000
 1.823773948211853e+000	 3.424644313468674e+000	 9.830696839693955e+000
 1.786697525701294e+000	 3.444133018841604e+000	 9.797163953529283e+000
 1.749475180568665e+000	 3.463188850651911e+000	 9.767565241650571e+000
 1.712114282447062e+000	 3.481810612496596e+000	 9.740553013484524e+000
 1.674622199569589e+000	 3.499997270524787e+000	 9.714818290085997e+000
 1.637006294423581e+000	 3.517747952630995e+000	 9.689091155468473e+000
 1.599273919456093e+000	 3.535061947513741e+000	 9.662141170335639e+000
 1.561432412835328e+000	 3.551938703602373e+000	 9.632777908461030e+000
 1.523489094272510e+000	 3.568377827855136e+000	 9.599851668464421e+000
 1.910499248239641e+000	 3.407631907820056e+000	 9.914909282175506e+000
 1.873484125089679e+000	 3.428121967981062e+000	 9.869000705608523e+000
 1.836307249456730e+000	 3.448179082607521e+000	 9.830947871588645e+000
 1.798976031129568e+000	 3.467801717854845e+000	 9.799027632835937e+000
 1.761497887373937e+000	 3.486988504754906e+000	 9.771562165369812e+000
 1.723880238468380e+000	 3.505738238682794e+000	 9.746919413140487e+000
 1.686130503281826e+000	 3.524049878682808e+000	 9.723513458498051e+000
 1.648256094897945e+000	 3.541922546656179e+000	 9.699804896710393e+000
 1.610264416291135e+000	 3.559355526413215e+000	 9.674301285979102e+000
 1.572162856058811e+000	 3.576348262592755e+000	 9.645557736987975e+000
 1.533958784214570e+000	 3.592900359451976e+000	 9.612177698062482e+000
 1.923538930249378e+000	 3.430889931356199e+000	 9.915408808781770e+000
 1.886271168719185e+000	 3.451519841804724e+000	 9.868739683214853e+000
 1.848840550700881e+000	 3.471713851746570e+000	 9.831192166938850e+000
 1.811254536557092e+000	 3.491470416868223e+000	 9.800721404965264e+000
 1.773520594178441e+000	 3.510788158857956e+000	 9.775335925915535e+000
 1.735646194488917e+000	 3.529665864868950e+000	 9.753098095609818e+000
 1.697638806993271e+000	 3.548102486840682e+000	 9.732124500643508e+000
 1.659505895371513e+000	 3.566097140681105e+000	 9.710586344995328e+000
 1.621254913125377e+000	 3.583649105312324e+000	 9.686709935531923e+000
 1.582893299281493e+000	 3.600757821582674e+000	 9.658777324413565e+000
 1.544428474155829e+000	 3.617422891048259e+000	 9.625127167971792e+000
 1.439731574731233e+000	 3.372197575074528e+000	 9.514439660877892e+000
 1.403779565205173e+000	 3.387321361489601e+000	 9.476178526246629e+000
 1.367745085892707e+000	 3.402031155838170e+000	 9.422517521507549e+000
 1.331634983434178e+000	 3.416327030840312e+000	 9.349898100647074e+000
 1.295456071785157e+000	 3.430209203416529e+000	 9.276890637373910e+000
 1.259215128608840e+000	 3.443678032987045e+000	 9.219210454571533e+000
 1.222918891747823e+000	 3.456734019669561e+000	 9.174026861041826e+000
 1.186574055778320e+000	 3.469377802379238e+000	 9.138052927892835e+000
 1.150187268649676e+000	 3.481610156834798e+000	 9.107660333987532e+000
 1.113765128411843e+000	 3.493431993474643e+000	 9.078985667087306e+000
 1.077314180033310e+000	 3.504844355287081e+000	 9.048028313898175e+000
 1.450201264672494e+000	 3.396720106671581e+000	 9.525291715735376e+000
 1.413987813083974e+000	 3.411953872861664e+000	 9.488686073356126e+000
 1.377691291990982e+000	 3.426770636445832e+000	 9.438080377751733e+000
 1.341318597822436e+000	 3.441170470672980e+000	 9.370224714023035e+000
 1.304876594084804e+000	 3.455153594041044e+000	 9.293835006568846e+000
 1.268372107728261e+000	 3.468720368583945e+000	 9.232307920702107e+000
 1.231811925592805e+000	 3.481871298056221e+000	 9.183841256901035e+000
 1.195202790937426e+000	 3.494607026019214e+000	 9.145247467490215e+000
 1.158551400055167e+000	 3.506928333832645e+000	 9.113003603964490e+000
 1.121864398976819e+000	 3.518836138555602e+000	 9.083358419991560e+000
 1.085148380265702e+000	 3.530331490760976e+000	 9.052430669442495e+000
 1.460670954614553e+000	 3.421242638269016e+000	 9.535644744277573e+000
 1.424196060963574e+000	 3.436586384234133e+000	 9.500012270287360e+000
 1.387637498090055e+000	 3.451510117053901e+000	 9.451694221213009e+000
 1.351002212211490e+000	 3.466013910506030e+000	 9.387781192558816e+000
 1.314297116385243e+000	 3.480097984665906e+000	 9.310509488187153e+000
 1.277529086848464e+000	 3.493762704181139e+000	 9.245222910358145e+000
 1.240704959438558e+000	 3.507008576443118e+000	 9.193579460962159e+000
 1.203831526097284e+000	 3.519836249659356e+000	 9.152482094110702e+000
 1.166915531461388e+000	 3.532246510830582e+000	 9.118505903491444e+000
 1.129963669542497e+000	 3.544240283636570e+000	 9.088005973177511e+000
 1.092982580498757e+000	 3.555818626234796e+000	 9.057216013024444e+000
 1.471140644557212e+000	 3.445765169866720e+000	 9.545775431175860e+000
 1.434404308843775e+000	 3.461218895606880e+000	 9.510544318703605e+000
 1.397583704189727e+000	 3.476249597662238e+000	 9.463850221523536e+000
 1.360685826601140e+000	 3.490857350339327e+000	 9.403113888241887e+000
 1.323717638686275e+000	 3.505042375290976e+000	 9.327116012216983e+000
 1.286686065969255e+000	 3.518805039778497e+000	 9.258172606431264e+000
 1.249597993284889e+000	 3.532145854830123e+000	 9.203465431363240e+000
 1.212460261257706e+000	 3.545065473299544e+000	 9.159979777662665e+000
 1.175279662868157e+000	 3.557564687828503e+000	 9.124382266760591e+000
 1.138062940108698e+000	 3.569644428717461e+000	 9.093129390337126e+000
 1.100816780732308e+000	 3.581305761708479e+000	 9.062566406856403e+000
 1.481610334500272e+000	 3.470287701464573e+000	 9.555916741570073e+000
 1.444612556724376e+000	 3.485851406979773e+000	 9.520622476368414e+000
 1.407529910289798e+000	 3.500989078270704e+000	 9.474989623879884e+000
 1.370369440991190e+000	 3.515700790172728e+000	 9.416758979410613e+000
 1.333138160987701e+000	 3.529986765916116e+000	 9.343836448124584e+000
 1.295843045090437e+000	 3.543847375375882e+000	 9.271353866889005e+000
 1.258491027131605e+000	 3.557283133217108e+000	 9.213702264358261e+000
 1.221088996418505e+000	 3.570294696939667e+000	 9.167941825952623e+000
 1.183643794275289e+000	 3.582882864826309e+000	 9.130825014383355e+000
 1.146162210675251e+000	 3.595048573798191e+000	 9.098905733409710e+000
 1.108650980966191e+000	 3.606792897181959e+000	 9.068638403543940e+000
 1.492080024443531e+000	 3.494810233062459e+000	 9.566260334666204e+000
 1.454820804605176e+000	 3.510483918352682e+000	 9.530542469796687e+000
 1.417476116390070e+000	 3.525728558879165e+000	 9.485506155145579e+000
 1.380053055381439e+000	 3.540544230006091e+000	 9.429202377496827e+000
 1.342558683289326e+000	 3.554931156541184e+000	 9.359845373669533e+000
 1.305000024211814e+000	 3.568889710973160e+000	 9.284944379841978e+000
 1.267384060978512e+000	 3.582420411603950e+000	 9.224473483756015e+000
 1.229717731579492e+000	 3.595523920579608e+000	 9.176549293573366e+000
 1.192007925682604e+000	 3.608201041823901e+000	 9.138005267261571e+000
 1.154261481241978e+000	 3.620452718878676e+000	 9.105489667464438e+000
 1.116485181200240e+000	 3.632280032655170e+000	 9.075564728535239e+000
 1.502549714386791e+000	 3.519332764660260e+000	 9.576958947267043e+000
 1.465029052485976e+000	 3.535116429725480e+000	 9.540557873511469e+000
 1.427422322490341e+000	 3.550468039487480e+000	 9.495748393506345e+000
 1.389736669771686e+000	 3.565387669839278e+000	 9.440882082107729e+000
 1.351979205590951e+000	 3.579875547166044e+000	 9.374471758891007e+000
 1.314157003333191e+000	 3.593932046570194e+000	 9.299103774557258e+000
 1.276277094825420e+000	 3.607557689990518e+000	 9.235944284257787e+000
 1.238346466740479e+000	 3.620753144219251e+000	 9.185964342868044e+000
 1.200372057089920e+000	 3.633519218821177e+000	 9.146074410928168e+000
 1.162360751808704e+000	 3.645856863958831e+000	 9.113015014651952e+000
 1.124319381434289e+000	 3.657767168128049e+000	 9.083455910436250e+000
 1.513019404329850e+000	 3.543855296257858e+000	 9.588128748692185e+000
 1.475237300366577e+000	 3.559748941098035e+000	 9.550882457523631e+000
 1.437368528590413e+000	 3.575207520095515e+000	 9.506022103442408e+000
 1.399420284161735e+000	 3.590231109672148e+000	 9.452190498772364e+000
 1.361399727892379e+000	 3.604819937790553e+000	 9.388189219036667e+000
 1.323313982454373e+000	 3.618974382166853e+000	 9.313974690552632e+000
 1.285170128672135e+000	 3.632694968376689e+000	 9.248262730925104e+000
 1.246975201901278e+000	 3.645982367858483e+000	 9.196331559290364e+000
 1.208736188497052e+000	 3.658837395818033e+000	 9.155165512756286e+000
 1.170460022375256e+000	 3.671261009038573e+000	 9.121596259692456e+000
 1.132153581668172e+000	 3.683254303600529e+000	 9.092401861716102e+000
 1.523489094272510e+000	 3.568377827855136e+000	 9.599851668464421e+000
 1.485445548246778e+000	 3.584381452470216e+000	 9.561692504563059e+000
 1.447314734690085e+000	 3.599947000703133e+000	 9.516592537687206e+000
 1.409103898551387e+000	 3.615074549504561e+000	 9.463476721149053e+000
 1.370820250193409e+000	 3.629764328414571e+000	 9.401425803327376e+000
 1.332470961575163e+000	 3.644016717763000e+000	 9.329683806786655e+000
 1.294063162518466e+000	 3.657832246762336e+000	 9.261560916888676e+000
 1.255603937061700e+000	 3.671211591497186e+000	 9.207779223355251e+000
 1.217100319903820e+000	 3.684155572814372e+000	 9.165394694304071e+000
 1.178559292941457e+000	 3.696665154117818e+000	 9.131330009231709e+000
 1.139987781901724e+000	 3.708741439072548e+000	 9.102473412190607e+000
 1.533958784214570e+000	 3.592900359451976e+000	 9.612177698062482e+000
 1.495653796126378e+000	 3.609013963841895e+000	 9.573129098506708e+000
 1.457260940789158e+000	 3.624686481310193e+000	 9.527686707749282e+000
 1.418787512940441e+000	 3.639917989336375e+000	 9.475048779391305e+000
 1.380240772493848e+000	 3.654708719037964e+000	 9.414565896367128e+000
 1.341627940695366e+000	 3.669059053358499e+000	 9.345741593475880e+000
 1.302956196364219e+000	 3.682969525147330e+000	 9.275956081292591e+000
 1.264232672221558e+000	 3.696440815135250e+000	 9.220420541253542e+000
 1.225464451310041e+000	 3.709473749810092e+000	 9.176862460938382e+000
 1.186658563507135e+000	 3.722069299196483e+000	 9.142296407268713e+000
 1.147821982134778e+000	 3.734228574544038e+000	 9.113723797538391e+000
 1.544428474155829e+000	 3.617422891048259e+000	 9.625127167971792e+000
 1.505862044005179e+000	 3.633646475212943e+000	 9.585300385370141e+000
 1.467207146887432e+000	 3.649425961916560e+000	 9.539495624489470e+000
 1.428471127328698e+000	 3.664761429167448e+000	 9.487175856278643e+000
 1.389661294793495e+000	 3.679653109660585e+000	 9.427952406116484e+000
 1.350784919814787e+000	 3.694101388953216e+000	 9.361585121124250e+000
 1.311849230209201e+000	 3.708106803531543e+000	 9.291551689361711e+000
 1.272861407380663e+000	 3.721670038772552e+000	 9.234354836091951e+000
 1.233828582715532e+000	 3.734791926805090e+000	 9.189654990764373e+000
 1.194757834072111e+000	 3.747473444274481e+000	 9.154560508739289e+000
 1.155656182367169e+000	 3.759715710014934e+000	 9.126190104984534e+000
 1.077314180033310e+000	 3.504844355287081e+000	 9.048028313898175e+000
 1.040840911791156e+000	 3.515848414683465e+000	 9.014787048809506e+000
 1.004351750767449e+000	 3.526445468549742e+000	 8.981943871256751e+000
 9.678530616055532e-001	 3.536636938483259e+000	 8.949544681084383e+000
 9.313511442442004e-001	 3.546424369203119e+000	 8.917736761936908e+000
 8.948522312174626e-001	 3.555809426018735e+000	 8.886841517070522e+000
 8.583624850557751e-001	 3.564793892237349e+000	 8.857398549329005e+000
 8.218879957891512e-001	 3.573379666514729e+000	 8.830207920899481e+000
 7.854347785535484e-001	 3.581568760153285e+000	 8.806366913325624e+000
 7.490087713011586e-001	 3.589363294351826e+000	 8.787301745057754e+000
 7.126158326152123e-001	 3.596765497411133e+000	 8.774794711151854e+000
 1.085148380265702e+000	 3.530331490760976e+000	 9.052430669442495e+000
 1.048409879381463e+000	 3.541415571385863e+000	 9.020213342883723e+000
 1.011655370143746e+000	 3.552089686747149e+000	 8.989092843832406e+000
 9.748912634794350e-001	 3.562355268780023e+000	 8.958783087462054e+000
 9.381239051402545e-001	 3.572213873436759e+000	 8.929143381124886e+000
 9.013595729831019e-001	 3.581667178136880e+000	 8.900191125078022e+000
 8.646044743521743e-001	 3.590716979155808e+000	 8.872174293542592e+000
 8.278647435640271e-001	 3.599365188956308e+000	 8.845607021608929e+000
 7.911464394965296e-001	 3.607613833466946e+000	 8.821305230774604e+000
 7.544555432825080e-001	 3.615465049311848e+000	 8.800417060434439e+000
 7.177979561086598e-001	 3.622921080995963e+000	 8.784448600394738e+000
 1.092982580498757e+000	 3.555818626234796e+000	 9.057216013024444e+000
 1.055978846972389e+000	 3.566982728088109e+000	 9.026094301010376e+000
 1.018958989520610e+000	 3.577733904944332e+000	 8.996716032790189e+000
 9.819294653538292e-001	 3.588073599076493e+000	 8.968509230653934e+000
 9.448966660367625e-001	 3.598003377670048e+000	 8.941052887136312e+000
 9.078669147491352e-001	 3.607524930254624e+000	 8.914093987560079e+000
 8.708464636489087e-001	 3.616640066073833e+000	 8.887616038006376e+000
 8.338414913391797e-001	 3.625350711397429e+000	 8.861874234653472e+000
 7.968581004397326e-001	 3.633658906780143e+000	 8.837429780847227e+000
 7.599023152640303e-001	 3.641566804271423e+000	 8.815178856396873e+000
 7.229800796022363e-001	 3.649076664580380e+000	 8.796376766038785e+000
 1.100816780732308e+000	 3.581305761708479e+000	 9.062566406856403e+000
 1.063547814563778e+000	 3.592549884790160e+000	 9.032586305497453e+000
 1.026262608897900e+000	 3.603378123141265e+000	 9.004942013805644e+000
 9.889676672286073e-001	 3.613791929372667e+000	 8.978802903979153e+000
 9.516694269336100e-001	 3.623792881903001e+000	 8.953495563452584e+000
 9.143742565154635e-001	 3.633382682372006e+000	 8.928524458669379e+000
 8.770884529458931e-001	 3.642563152991476e+000	 8.903636657201400e+000
 8.398182391145391e-001	 3.651336233838164e+000	 8.878856326702479e+000
 8.025697613831022e-001	 3.659703980092960e+000	 8.854517561860066e+000
 7.653490872456817e-001	 3.667668559230635e+000	 8.831291707608278e+000
 7.281622030959101e-001	 3.675232248164469e+000	 8.810209738870514e+000
 1.108650980966191e+000	 3.606792897181959e+000	 9.068638403543940e+000
 1.071116782155477e+000	 3.618117041491970e+000	 9.039818598161711e+000
 1.033566228275475e+000	 3.629022341337930e+000	 9.013864069965292e+000
 9.960058691036420e-001	 3.639510259668551e+000	 8.989713497691936e+000
 9.584421878306849e-001	 3.649582386135648e+000	 8.966469740198470e+000
 9.208815982819892e-001	 3.659240434489071e+000	 8.943423499028931e+000
 8.833304422430449e-001	 3.668486239908799e+000	 8.920114345740865e+000
 8.457949868900372e-001	 3.677321756278584e+000	 8.896364296754983e+000
 8.082814223265827e-001	 3.685749053405477e+000	 8.872308960688775e+000
 7.707958592274194e-001	 3.693770314189572e+000	 8.848423023652901e+000
 7.333443265896487e-001	 3.701387831748314e+000	 8.825540667611023e+000
 1.116485181200240e+000	 3.632280032655170e+000	 9.075564728535239e+000
 1.078685749747331e+000	 3.643684198193497e+000	 9.047895024748650e+000
 1.040869847653191e+000	 3.654666559534302e+000	 9.023548487988355e+000
 1.003044070978804e+000	 3.665228589964141e+000	 9.001261813120314e+000
 9.652149487278728e-001	 3.675371890368006e+000	 8.979943616136017e+000
 9.273889400486129e-001	 3.685098186605857e+000	 8.958700487740568e+000
 8.895724315402804e-001	 3.694409326825858e+000	 8.936894402709591e+000
 8.517717346656041e-001	 3.703307278718762e+000	 8.914175115313398e+000
 8.139930832701185e-001	 3.711794126717773e+000	 8.890509429494859e+000
 7.762426312092002e-001	 3.719872069148314e+000	 8.866204646279840e+000
 7.385264500834193e-001	 3.727543415331994e+000	 8.841926819908553e+000
 1.124319381434289e+000	 3.657767168128049e+000	 9.083455910436250e+000
 1.086254717339184e+000	 3.669251354894696e+000	 9.056895726313863e+000
 1.048173467030906e+000	 3.680310777730361e+000	 9.034036292989851e+000
 1.010082272853967e+000	 3.690946920259438e+000	 9.013441823220971e+000
 9.719877096250612e-001	 3.701161394600097e+000	 8.993857027462244e+000
 9.338962818152367e-001	 3.710955938722407e+000	 8.974234982041409e+000
 8.958144208375152e-001	 3.720332413742715e+000	 8.953790964962673e+000
 8.577484824411712e-001	 3.729292801158767e+000	 8.932033414305977e+000
 8.197047442136543e-001	 3.737839200029931e+000	 8.908791115480678e+000
 7.816894031909809e-001	 3.745973824106949e+000	 8.884234402452760e+000
 7.437085735771903e-001	 3.753698998915595e+000	 8.858891042423339e+000
 1.132153581668172e+000	 3.683254303600529e+000	 9.092401861716102e+000
 1.093823684930883e+000	 3.694818511595525e+000	 9.066878780133317e+000
 1.055477086408480e+000	 3.705954995926085e+000	 9.045344932308634e+000
 1.017120474729001e+000	 3.716665250554442e+000	 9.026226358300887e+000
 9.787604705221360e-001	 3.726950898831945e+000	 9.008123165987861e+000
 9.404036235817623e-001	 3.736813690838763e+000	 8.989878427143763e+000
 9.020564101346672e-001	 3.746255500659427e+000	 8.970588691854674e+000
 8.637252302166689e-001	 3.755278323598676e+000	 8.949653130142799e+000
 8.254164051571349e-001	 3.763884273342034e+000	 8.926794445947214e+000
 7.871361751727186e-001	 3.772075579065561e+000	 8.902077615346830e+000
 7.488906970709289e-001	 3.779854582499195e+000	 8.875923181988451e+000
 1.139987781901724e+000	 3.708741439072548e+000	 9.102473412190607e+000
 1.101392652522272e+000	 3.720385668295939e+000	 9.077881792571558e+000
 1.062780705785770e+000	 3.731599214121452e+000	 9.057469910852625e+000
 1.024158676603779e+000	 3.742383580849157e+000	 9.039552341112513e+000
 9.855332314189840e-001	 3.752740403063570e+000	 9.022630249131391e+000
 9.469109653480903e-001	 3.762671442954964e+000	 9.005455818654966e+000
 9.082983994316516e-001	 3.772178587576050e+000	 8.987044403737221e+000
 8.697019779920288e-001	 3.781263846038558e+000	 8.966719102161397e+000
 8.311280661005044e-001	 3.789929346654160e+000	 8.944129670805209e+000
 7.925829471543699e-001	 3.798177334024236e+000	 8.919268575315149e+000
 7.540728205646027e-001	 3.806010166082880e+000	 8.892481469717730e+000
 1.147821982134778e+000	 3.734228574544038e+000	 9.113723797538391e+000
 1.108961620113198e+000	 3.745952824995893e+000	 9.089923446202421e+000
 1.070084325162635e+000	 3.757243432316442e+000	 9.070386380275894e+000
 1.031196878478173e+000	 3.768101911143579e+000	 9.053347880048561e+000
 9.923059923154914e-001	 3.778529907294995e+000	 9.037243144031489e+000
 9.534183071141239e-001	 3.788529195071056e+000	 9.020767319842809e+000
 9.145403887283859e-001	 3.798101674492648e+000	 9.002888676432388e+000
 8.756787257671812e-001	 3.807249368478485e+000	 8.982888628592621e+000
 8.368397270437075e-001	 3.815974419966393e+000	 8.960378364572394e+000
 7.980297191358921e-001	 3.824279088983057e+000	 8.935311972738237e+000
 7.592549440581791e-001	 3.832165749666732e+000	 8.907993869831868e+000
 1.155656182367169e+000	 3.759715710014934e+000	 9.126190104984534e+000
 1.116530587703505e+000	 3.771519981695344e+000	 9.103005003353740e+000
 1.077387944538932e+000	 3.782887650511029e+000	 9.084050684179681e+000
 1.038235080352055e+000	 3.793820241437709e+000	 9.067516250974917e+000
 9.990787532115453e-001	 3.804319411526238e+000	 9.051804947954192e+000
 9.599256488797626e-001	 3.814386947187074e+000	 9.035589835889240e+000
 9.207823780247851e-001	 3.824024761409275e+000	 9.017827393772018e+000
 8.816554735420569e-001	 3.833234890918529e+000	 8.997792982061966e+000
 8.425513879866883e-001	 3.842019493278808e+000	 8.975094889778900e+000
 8.034764911172414e-001	 3.850380843942109e+000	 8.949684294564362e+000
 7.644370675516263e-001	 3.858321333250832e+000	 8.921859394876549e+000
 7.126158326152123e-001	 3.596765497411133e+000	 8.774794711151854e+000
 6.762671878802550e-001	 3.603776679759038e+000	 8.746759768927101e+000
 6.399630600582476e-001	 3.610400416447522e+000	 8.695405728992910e+000
 6.037090469397647e-001	 3.616639241793862e+000	 8.648797042444450e+000
 5.675106594965956e-001	 3.622495785572754e+000	 8.609084004262153e+000
 5.313733202242620e-001	 3.627972770066271e+000	 8.577323331799212e+000
 4.953023615887203e-001	 3.633073007093981e+000	 8.554883295810488e+000
 4.593030245767192e-001	 3.637799395027112e+000	 8.543594218942541e+000
 4.233804573491112e-001	 3.642154915790479e+000	 8.545877018554551e+000
 3.875397139962902e-001	 3.646142631855923e+000	 8.564852948962503e+000
 3.517857533948060e-001	 3.649765683230813e+000	 8.604437582087186e+000
 7.177979561086598e-001	 3.622921080995963e+000	 8.784448600394738e+000
 6.811849849902317e-001	 3.629983248476528e+000	 8.752747552231446e+000
 6.446168545105612e-001	 3.636655152803184e+000	 8.696359753893741e+000
 6.080992031672106e-001	 3.642939346722671e+000	 8.644606446605561e+000
 5.716375820076127e-001	 3.648838479133310e+000	 8.600646739710783e+000
 5.352374529595347e-001	 3.654355292113508e+000	 8.565146057686105e+000
 4.989041872664873e-001	 3.659492617930285e+000	 8.539139491502267e+000
 4.626430640275384e-001	 3.664253376031720e+000	 8.524167210938998e+000
 4.264592688408320e-001	 3.668640570027081e+000	 8.522387659908205e+000
 3.903578925499762e-001	 3.672657284658395e+000	 8.536671880038488e+000
 3.543439300923417e-001	 3.676306682767058e+000	 8.570682181788335e+000
 7.229800796022363e-001	 3.649076664580380e+000	 8.796376766038785e+000
 6.861027821003028e-001	 3.656189817193663e+000	 8.761853062121897e+000
 6.492706489629426e-001	 3.662909889158566e+000	 8.702200334067090e+000
 6.124893593947066e-001	 3.669239451651285e+000	 8.646792034113574e+000
 5.757645045186705e-001	 3.675181172693760e+000	 8.600188363180330e+000
 5.391015856948495e-001	 3.680737814160723e+000	 8.562593215955706e+000
 5.025060129443074e-001	 3.685912228766642e+000	 8.534642378544051e+000
 4.659831034784319e-001	 3.690707357036439e+000	 8.517522844046813e+000
 4.295380803326594e-001	 3.695126224263829e+000	 8.513069653677265e+000
 3.931760711038120e-001	 3.699171937461023e+000	 8.523843806762324e+000
 3.569021067900821e-001	 3.702847682303435e+000	 8.553194646664130e+000
 7.281622030959101e-001	 3.675232248164469e+000	 8.810209738870515e+000
 6.910205792104442e-001	 3.682396385910518e+000	 8.773613761905411e+000
 6.539244434153744e-001	 3.689164625513728e+000	 8.712243496606291e+000
 6.168795156222396e-001	 3.695539556579746e+000	 8.654472058451354e+000
 5.798914270297595e-001	 3.701523866254122e+000	 8.606586642610990e+000
 5.429657184301957e-001	 3.707120336207917e+000	 8.568271222825134e+000
 5.061078386221670e-001	 3.712331839603033e+000	 8.539708156597602e+000
 4.693231429293811e-001	 3.717161338041240e+000	 8.521680337785993e+000
 4.326168918245668e-001	 3.721611878500689e+000	 8.515650621935171e+000
 3.959942496577603e-001	 3.725686590263770e+000	 8.523822273993387e+000
 3.594602834879763e-001	 3.729388681839912e+000	 8.549184040931488e+000
 7.333443265896487e-001	 3.701387831748314e+000	 8.825540667611023e+000
 6.959383763206329e-001	 3.708602954627166e+000	 8.787530421294637e+000
 6.585782378678403e-001	 3.715419361868731e+000	 8.725775850375888e+000
 6.212696718497973e-001	 3.721839661508097e+000	 8.666742512087049e+000
 5.840183495408687e-001	 3.727866559814423e+000	 8.618703864119620e+000
 5.468298511655628e-001	 3.733502858255094e+000	 8.580777566269120e+000
 5.097096643000534e-001	 3.738751450439450e+000	 8.552650582203173e+000
 4.726631823803677e-001	 3.743615319046093e+000	 8.534663045978812e+000
 4.356957033165275e-001	 3.748097532737622e+000	 8.527869154046117e+000
 3.988124282117837e-001	 3.752201243066594e+000	 8.534079047110172e+000
 3.620184601859728e-001	 3.755929681376454e+000	 8.555885487812668e+000
 7.385264500834193e-001	 3.727543415331994e+000	 8.841926819908553e+000
 7.008561734308454e-001	 3.734809523343683e+000	 8.803068486371057e+000
 6.632320323203229e-001	 3.741674098223633e+000	 8.742055264988130e+000
 6.256598280773676e-001	 3.748139766436377e+000	 8.682677764653414e+000
 5.881452720519882e-001	 3.754209253374685e+000	 8.635387354212641e+000
 5.506939839009403e-001	 3.759885380302257e+000	 8.598701143867865e+000
 5.133114899779528e-001	 3.765171061275875e+000	 8.571781060686860e+000
 4.760032218313728e-001	 3.770069300050974e+000	 8.554498247995424e+000
 4.387745148085148e-001	 3.774583186974590e+000	 8.547474249403072e+000
 4.016306067658446e-001	 3.778715895869458e+000	 8.552103165266589e+000
 3.645766368840204e-001	 3.782470680913030e+000	 8.570558799204926e+000
 7.437085735771903e-001	 3.753698998915595e+000	 8.858891042423339e+000
 7.057739705410575e-001	 3.761016092060141e+000	 8.819659413212923e+000
 6.678858267728055e-001	 3.767928834578494e+000	 8.760299573571224e+000
 6.300499843049376e-001	 3.774439871364630e+000	 8.701331179630236e+000
 5.922721945631075e-001	 3.780551946934928e+000	 8.655469990472055e+000
 5.545581166363180e-001	 3.786267902349411e+000	 8.620622600598319e+000
 5.169133156558523e-001	 3.791590672112294e+000	 8.595408750828147e+000
 4.793432612823781e-001	 3.796523281055854e+000	 8.579216966774506e+000
 4.418533263005021e-001	 3.801068841211559e+000	 8.572224802000353e+000
 4.044487853199053e-001	 3.805230548672323e+000	 8.575400052447272e+000
 3.671348135820682e-001	 3.809011680449607e+000	 8.590487179859716e+000
 7.488906970709289e-001	 3.779854582499195e+000	 8.875923181988451e+000
 7.106917676512464e-001	 3.787222660776613e+000	 8.836701966946562e+000
 6.725396212252711e-001	 3.794183570933372e+000	 8.779477928526392e+000
 6.344401405324956e-001	 3.800739976292896e+000	 8.721735710571124e+000
 5.963991170742168e-001	 3.806894640495176e+000	 8.677770701274870e+000
 5.584222493716851e-001	 3.812650424396559e+000	 8.645114666571246e+000
 5.205151413337386e-001	 3.818010282948694e+000	 8.621840681669104e+000
 4.826833007333645e-001	 3.822977262060701e+000	 8.606853812321063e+000
 4.449321377924628e-001	 3.827554495448490e+000	 8.599889124817588e+000
 4.072669638739285e-001	 3.831745201475147e+000	 8.601490683518858e+000
 3.696929902800646e-001	 3.835552679986150e+000	 8.612976002460531e+000
 7.540728205646027e-001	 3.806010166082880e+000	 8.892481469717730e+000
 7.156095647613880e-001	 3.813429229493175e+000	 8.853563487886090e+000
 6.771934156777034e-001	 3.820438307288330e+000	 8.798730846726466e+000
 6.388302967600286e-001	 3.827040081221221e+000	 8.742904477858856e+000
 6.005260395853054e-001	 3.833237334055454e+000	 8.701094955072135e+000
 5.622863821070316e-001	 3.839032946443703e+000	 8.670742494717610e+000
 5.241169670115983e-001	 3.844429893785061e+000	 8.649381880881995e+000
 4.860233401843138e-001	 3.849431243065490e+000	 8.635446849455160e+000
 4.480109492843702e-001	 3.854040149685346e+000	 8.628244512097171e+000
 4.100851424278769e-001	 3.858259854277893e+000	 8.627910802632490e+000
 3.722511669779586e-001	 3.862093679522626e+000	 8.635351650189241e+000
 7.592549440581791e-001	 3.832165749666732e+000	 8.907993869831866e+000
 7.205273618714591e-001	 3.839635798209898e+000	 8.869581126332692e+000
 6.818472101300850e-001	 3.846693043643424e+000	 8.817278491097962e+000
 6.432204529875243e-001	 3.853340186149642e+000	 8.763831326920061e+000
 6.046529620963635e-001	 3.859580027615782e+000	 8.724235239727641e+000
 5.661505148423461e-001	 3.865415468490847e+000	 8.696063998425970e+000
 5.277187926894182e-001	 3.870849504621382e+000	 8.676335514142313e+000
 4.893633796352074e-001	 3.875885224070195e+000	 8.663037488654471e+000
 4.510897607761977e-001	 3.880525803922092e+000	 8.655076837705245e+000
 4.129033209817128e-001	 3.884774507080522e+000	 8.652210191477586e+000
 3.748093436756991e-001	 3.888634679059003e+000	 8.654960423556650e+000
 7.644370675516263e-001	 3.858321333250832e+000	 8.921859394876549e+000
 7.254451589814354e-001	 3.865842366926856e+000	 8.884063047521408e+000
 6.865010045823983e-001	 3.872947779998714e+000	 8.834313133772477e+000
 6.476106092149704e-001	 3.879640291078204e+000	 8.783491368778559e+000
 6.087798846073803e-001	 3.885922721176180e+000	 8.745971532387003e+000
 5.700146475776188e-001	 3.891797990537994e+000	 8.719630189133254e+000
 5.313206183671851e-001	 3.897269115457639e+000	 8.701003034985632e+000
 4.927034190860264e-001	 3.902339205074782e+000	 8.687670398893808e+000
 4.541685722679184e-001	 3.907011458158686e+000	 8.678180187865481e+000
 4.157214995353986e-001	 3.911289159882991e+000	 8.671951985018435e+000
 3.773675203732346e-001	 3.915175678595245e+000	 8.669167508447233e+000
 3.517857533948060e-001	 3.649765683230813e+000	 8.604437582087188e+000
 3.161181078051911e-001	 3.653027746903922e+000	 8.647587726611796e+000
 2.805469763476744e-001	 3.655931540248671e+000	 8.675601405293932e+000
 2.450771001425687e-001	 3.658480420160160e+000	 8.691384503824413e+000
 2.097131192376733e-001	 3.660677809123401e+000	 8.698973153870536e+000
 1.744595719637188e-001	 3.662527192196826e+000	 8.703594377851264e+000
 1.393208943850408e-001	 3.664032114011716e+000	 8.711725554198310e+000
 1.043014198436543e-001	 3.665196175790536e+000	 8.731154507100040e+000
 6.940537859482046e-002	 3.666023032386947e+000	 8.771041817904228e+000
 3.463689753212482e-002	 3.666516389350228e+000	 8.841986747223123e+000
 0.000000000000000e+000	 3.666680000016666e+000	 8.956097965464535e+000
 3.543439300923417e-001	 3.676306682767058e+000	 8.570682181788335e+000
 3.184169103270729e-001	 3.679592468080790e+000	 8.607134587322149e+000
 2.825871065421273e-001	 3.682517377733703e+000	 8.627625668151996e+000
 2.468592943351135e-001	 3.685084793032176e+000	 8.635571193419898e+000
 2.112381474961305e-001	 3.687298161349476e+000	 8.635463088596922e+000
 1.757282373585245e-001	 3.689160993087311e+000	 8.632916152890816e+000
 1.403340322455686e-001	 3.690676858653458e+000	 8.634714578477034e+000
 1.050598970112213e-001	 3.691849385458404e+000	 8.648860172037880e+000
 6.991009267304291e-002	 3.692682254933840e+000	 8.684623958856092e+000
 3.488877613527512e-002	 3.693179199575722e+000	 8.752602628252323e+000
 0.000000000000000e+000	 3.693344000014533e+000	 8.864781073367052e+000
 3.569021067900821e-001	 3.702847682303435e+000	 8.553194646664130e+000
 3.207157128492248e-001	 3.706157189257729e+000	 8.583716227710680e+000
 2.846272367369185e-001	 3.709103215218714e+000	 8.597397467354339e+000
 2.486414885280597e-001	 3.711689165904061e+000	 8.598063592129700e+000
 2.127631757550383e-001	 3.713918513575290e+000	 8.590557224517930e+000
 1.769969027538079e-001	 3.715794793977405e+000	 8.580770461216572e+000
 1.413471701065711e-001	 3.717321603294685e+000	 8.575677787936693e+000
 1.058183741792213e-001	 3.718502595125647e+000	 8.583371831394052e+000
 7.041480675161065e-002	 3.719341477480015e+000	 8.613103714962129e+000
 3.514065473862889e-002	 3.719842009800439e+000	 8.675329549128918e+000
 0.000000000000000e+000	 3.720008000011599e+000	 8.781764367113858e+000
 3.594602834879763e-001	 3.729388681839912e+000	 8.549184040931490e+000
 3.230145153715792e-001	 3.732721910434722e+000	 8.574321083424835e+000
 2.866673669319635e-001	 3.735689052703709e+000	 8.581703176092269e+000
 2.504236827213069e-001	 3.738293538775842e+000	 8.575477011164919e+000
 2.142882040142840e-001	 3.740538865800908e+000	 8.560743006783248e+000
 1.782655681494497e-001	 3.742428594867207e+000	 8.543571990300915e+000
 1.423603079679294e-001	 3.743966347935524e+000	 8.531023808580249e+000
 1.065768513475461e-001	 3.745155804792419e+000	 8.531169969961495e+000
 7.091952083043732e-002	 3.746000700025650e+000	 8.553122173844100e+000
 3.539253334213530e-002	 3.746504820024575e+000	 8.607068334047007e+000
 0.000000000000000e+000	 3.746672000008066e+000	 8.704317465829519e+000
 3.620184601859728e-001	 3.755929681376454e+000	 8.555885487812667e+000
 3.253133178940685e-001	 3.759286631611750e+000	 8.575972738339821e+000
 2.887074971271778e-001	 3.762274890188694e+000	 8.577375301606253e+000
 2.522058769147549e-001	 3.764897911647556e+000	 8.564485914631195e+000
 2.158132322737550e-001	 3.767159218026397e+000	 8.542582217703645e+000
 1.795342335453303e-001	 3.769062395756812e+000	 8.517827241963495e+000
 1.433734458295250e-001	 3.770611092576106e+000	 8.497272972663238e+000
 1.073353285160875e-001	 3.771809014458875e+000	 8.488869200747983e+000
 7.142423490943663e-002	 3.772659922570928e+000	 8.501479611509145e+000
 3.564441194574342e-002	 3.773167630248318e+000	 8.544906794281348e+000
 0.000000000000000e+000	 3.773336000004134e+000	 8.629927604803005e+000
 3.645766368840204e-001	 3.782470680913030e+000	 8.570558799204926e+000
 3.276121204166254e-001	 3.785851352788797e+000	 8.585728085768352e+000
 2.907476273224767e-001	 3.788860727673674e+000	 8.581290122933041e+000
 2.539880711083032e-001	 3.791502284519237e+000	 8.561820986389680e+000
 2.173382605333388e-001	 3.793779570251820e+000	 8.532707432820862e+000
 1.808028989413304e-001	 3.795696196646321e+000	 8.500130345210637e+000
 1.443865836912393e-001	 3.797255837216559e+000	 8.471052463247826e+000
 1.080938056847371e-001	 3.798462224125175e+000	 8.453212723477151e+000
 7.192894898852230e-002	 3.799319145116026e+000	 8.455129254227789e+000
 3.589629054940242e-002	 3.799830440471868e+000	 8.486112789948969e+000
 0.000000000000000e+000	 3.800000000000001e+000	 8.556292000597715e+000
 3.671348135820682e-001	 3.809011680449607e+000	 8.590487179859716e+000
 3.299109229391823e-001	 3.812416073965843e+000	 8.600675582229751e+000
 2.927877575177755e-001	 3.815446565158654e+000	 8.590365441164122e+000
 2.557702653018515e-001	 3.818106657390918e+000	 8.564266331099955e+000
 2.188632887929225e-001	 3.820399922477242e+000	 8.527818634378757e+000
 1.820715643373305e-001	 3.822329997535829e+000	 8.487159051059336e+000
 1.453997215529536e-001	 3.823900581857012e+000	 8.449091666507819e+000
 1.088522828533867e-001	 3.825115433791474e+000	 8.421067017622844e+000
 7.243366306760793e-002	 3.825978367661123e+000	 8.411171302562631e+000
 3.614816915306143e-002	 3.826493250695419e+000	 8.428127582200247e+000
 0.000000000000000e+000	 3.826663999995868e+000	 8.481310535357197e+000
 3.696929902800646e-001	 3.835552679986150e+000	 8.612976002460533e+000
 3.322097254616717e-001	 3.838980795142871e+000	 8.617933589294800e+000
 2.948278877129898e-001	 3.842032402643637e+000	 8.601558436766116e+000
 2.575524594952994e-001	 3.844711030262633e+000	 8.568656802949993e+000
 2.203883170523936e-001	 3.847020274702731e+000	 8.524679974573015e+000
 1.833402297332110e-001	 3.848963798425434e+000	 8.475670900528767e+000
 1.464128594145492e-001	 3.850545326497594e+000	 8.428217721722696e+000
 1.096107600219280e-001	 3.851768643457931e+000	 8.389416758615464e+000
 7.293837714660725e-002	 3.852637590206400e+000	 8.366847204843934e+000
 3.640004775666957e-002	 3.853156060919164e+000	 8.368559461768513e+000
 0.000000000000000e+000	 3.853327999991935e+000	 8.403078744847651e+000
 3.722511669779586e-001	 3.862093679522626e+000	 8.635351650189241e+000
 3.345085279840260e-001	 3.865545516319864e+000	 8.634648799269167e+000
 2.968680179080347e-001	 3.868618240128633e+000	 8.611863628812136e+000
 2.593346536885468e-001	 3.871315403134416e+000	 8.571875455929959e+000
 2.219133453116393e-001	 3.873640626928348e+000	 8.520116681373498e+000
 1.846088951288528e-001	 3.875597599315237e+000	 8.462499557471492e+000
 1.474259972759075e-001	 3.877190071138433e+000	 8.405351259452827e+000
 1.103692371902528e-001	 3.878421853124702e+000	 8.355359946486333e+000
 7.344309122543394e-002	 3.879296812752036e+000	 8.319534168101306e+000
 3.665192636017595e-002	 3.879818871143298e+000	 8.305177640585336e+000
 0.000000000000000e+000	 3.879991999988402e+000	 8.319881095624085e+000
 3.748093436756991e-001	 3.888634679059003e+000	 8.654960423556648e+000
 3.368073305061778e-001	 3.892110237496803e+000	 8.647994740711093e+000
 2.989081481028261e-001	 3.895204077613644e+000	 8.618310931256799e+000
 2.611168478814930e-001	 3.897919776006299e+000	 8.570851109842137e+000
 2.234383735705471e-001	 3.900260979154164e+000	 8.511012100108978e+000
 1.858775605241363e-001	 3.902231400205331e+000	 8.444551298367205e+000
 1.484391351369099e-001	 3.903834815779660e+000	 8.377502318902261e+000
 1.111277143582529e-001	 3.905075062791944e+000	 8.316103236796582e+000
 7.394780530400166e-002	 3.905956035298211e+000	 8.266739895098215e+000
 3.690380496352973e-002	 3.906481681368015e+000	 8.235906393893055e+000
 0.000000000000000e+000	 3.906655999985469e+000	 8.230184537507851e+000
 3.773675203732346e-001	 3.915175678595245e+000	 8.669167508447233e+000
 3.391061330280596e-001	 3.918674958673670e+000	 8.655170359992457e+000
 3.009482782972789e-001	 3.921789915098675e+000	 8.617963801646656e+000
 2.628990420740376e-001	 3.924524148878315e+000	 8.562556026554459e+000
 2.249634018290041e-001	 3.926881331380236e+000	 8.494304864369488e+000
 1.871462259189420e-001	 3.928865201095816e+000	 8.418801651630639e+000
 1.494522729974377e-001	 3.930479560421402e+000	 8.341766435967490e+000
 1.118861915258198e-001	 3.931728272459813e+000	 8.268957464255754e+000
 7.445251938222409e-002	 3.932615257845103e+000	 8.206097536744455e+000
 3.715568356668002e-002	 3.933144491593509e+000	 8.158819440968086e+000
 0.000000000000000e+000	 3.933319999983334e+000	 8.132632318310320e+000
 3.933319999983334e+000	 0.000000000000000e+000	 1.054826541339006e+001
 3.933144491593509e+000	 3.715568356668014e-002	 1.060783984312752e+001
 3.932615257845103e+000	 7.445251938222434e-002	 1.063519438899618e+001
 3.931728272459812e+000	 1.118861915258195e-001	 1.063861739147312e+001
 3.930479560421403e+000	 1.494522729974376e-001	 1.062601320372719e+001
 3.928865201095816e+000	 1.871462259189419e-001	 1.060488544042251e+001
 3.926881331380236e+000	 2.249634018290042e-001	 1.058231394198527e+001
 3.924524148878316e+000	 2.628990420740378e-001	 1.056492574691020e+001
 3.921789915098675e+000	 3.009482782972785e-001	 1.055886046994859e+001
 3.918674958673671e+000	 3.391061330280594e-001	 1.056973059854121e+001
 3.915175678595246e+000	 3.773675203732345e-001	 1.060257733819616e+001
 3.959987999982150e+000	 0.000000000000000e+000	 1.057756865795066e+001
 3.959811301641444e+000	 3.740759995516202e-002	 1.063042308736384e+001
 3.959278479676159e+000	 7.495730917472705e-002	 1.065346205096318e+001
 3.958385480509717e+000	 1.126447824758346e-001	 1.065431345979645e+001
 3.957128302175166e+000	 1.504655628432892e-001	 1.064029040923293e+001
 3.955502997456446e+000	 1.884150816320309e-001	 1.061837321077677e+001
 3.953505677058800e+000	 2.264886588640513e-001	 1.059518444630961e+001
 3.951132512805530e+000	 2.646815036219777e-001	 1.057695733395947e+001
 3.948379740858182e+000	 3.029887145414693e-001	 1.056949780622677e+001
 3.945243664957141e+000	 3.414052804044880e-001	 1.057814082139087e+001
 3.941720659679418e+000	 3.799260808354097e-001	 1.060770155369406e+001
 3.986655999981866e+000	 0.000000000000000e+000	 1.056978169777159e+001
 3.986478111690256e+000	 3.765951634344035e-002	 1.062087170893010e+001
 3.985941701508023e+000	 7.546209896688422e-002	 1.064410040499283e+001
 3.985042688560327e+000	 1.134033734254160e-001	 1.064642239857503e+001
 3.983777043929509e+000	 1.514788526886650e-001	 1.063455185271144e+001
 3.982140793817519e+000	 1.896839373446401e-001	 1.061494321893358e+001
 3.980130022737659e+000	 2.280139158986443e-001	 1.059376426929736e+001
 3.977740876732896e+000	 2.664639651695105e-001	 1.057686170771647e+001
 3.974969566617713e+000	 3.050291507853134e-001	 1.056971976374392e+001
 3.971812371240533e+000	 3.437044277806347e-001	 1.057741229843514e+001
 3.968265640763441e+000	 3.824846412973638e-001	 1.060454908276457e+001
 4.013323999982382e+000	 0.000000000000000e+000	 1.052214493922559e+001
 4.013144921739844e+000	 3.791143273156598e-002	 1.057641538757507e+001
 4.012604923340605e+000	 7.596688875878213e-002	 1.060414636231895e+001
 4.011699896611567e+000	 1.141619643746716e-001	 1.061176433838715e+001
 4.010425785684371e+000	 1.524921425336828e-001	 1.060550043495062e+001
 4.008778590178979e+000	 1.909527930568868e-001	 1.059136146710641e+001
 4.006754368416777e+000	 2.295391729328923e-001	 1.057509798097390e+001
 4.004349240660397e+000	 2.682464267167314e-001	 1.056216900733822e+001
 4.001559392377266e+000	 3.070695870288871e-001	 1.055770324232861e+001
 3.998381077523853e+000	 3.460035751565556e-001	 1.056644549197077e+001
 3.994810621847332e+000	 3.850432017591319e-001	 1.059270065815942e+001
 4.039991999983599e+000	 0.000000000000000e+000	 1.047331720842135e+001
 4.039811731790116e+000	 3.816334911958979e-002	 1.052970476985704e+001
 4.039268145173817e+000	 7.647167855050699e-002	 1.056076063747093e+001
 4.038357104663356e+000	 1.149205553237095e-001	 1.057248843058492e+001
 4.037074527439683e+000	 1.535054323784602e-001	 1.057071601167812e+001
 4.035416386540783e+000	 1.922216487688887e-001	 1.056106786385820e+001
 4.033378714096124e+000	 2.310644299669047e-001	 1.054893452659545e+001
 4.030957604588014e+000	 2.700288882637349e-001	 1.053943881907270e+001
 4.028149218136838e+000	 3.091100232722672e-001	 1.053739855265895e+001
 4.024949783807112e+000	 3.483027225323063e-001	 1.054728540842088e+001
 4.021355602931107e+000	 3.876017622207494e-001	 1.057317962983987e+001
 4.066659999985416e+000	 0.000000000000000e+000	 1.043165636357120e+001
 4.066478541840970e+000	 3.841526550756264e-002	 1.048827184002693e+001
 4.065931367007566e+000	 7.697646834214497e-002	 1.052097337365881e+001
 4.065014312715617e+000	 1.156791462726372e-001	 1.053533172438758e+001
 4.063723269195385e+000	 1.545187222231149e-001	 1.053676043497102e+001
 4.062054182902881e+000	 1.934905044807632e-001	 1.053048957024969e+001
 4.060003059775669e+000	 2.325896870007906e-001	 1.052153659970698e+001
 4.057565968515734e+000	 2.718113498106163e-001	 1.051467414716004e+001
 4.054739043896424e+000	 3.111504595155297e-001	 1.051439430224755e+001
 4.051518490090317e+000	 3.506018699079425e-001	 1.052486916104092e+001
 4.047900584014782e+000	 3.901603226822512e-001	 1.054990723553538e+001
 4.093327999987731e+000	 0.000000000000000e+000	 1.039866047364744e+001
 4.093145351892312e+000	 3.866718189553542e-002	 1.045370245320408e+001
 4.092594588841764e+000	 7.748125813378227e-002	 1.048645650962093e+001
 4.091671520768268e+000	 1.164377372215629e-001	 1.050205092876439e+001
 4.090372010951406e+000	 1.555320120677646e-001	 1.050547420152142e+001
 4.088691979265223e+000	 1.947593601926277e-001	 1.050155016052677e+001
 4.086627405455375e+000	 2.341149440346594e-001	 1.049491035584099e+001
 4.084174332443538e+000	 2.735938113574702e-001	 1.048996338810778e+001
 4.081328869656023e+000	 3.131908957587514e-001	 1.049086088716824e+001
 4.078087196373478e+000	 3.529010172835201e-001	 1.050145979495266e+001
 4.074445565098373e+000	 3.927188831436725e-001	 1.052528058199219e+001
 4.119995999990449e+000	 0.000000000000000e+000	 1.037591014394877e+001
 4.119812161944040e+000	 3.891909828355897e-002	 1.042764623340032e+001
 4.119257810676322e+000	 7.798604792550518e-002	 1.045892792995513e+001
 4.118328728821235e+000	 1.171963281705942e-001	 1.047443181039148e+001
 4.117020752707688e+000	 1.565453019125268e-001	 1.047871090025002e+001
 4.115329775627761e+000	 1.960282159045999e-001	 1.047617124344972e+001
 4.113251751135212e+000	 2.356402010686202e-001	 1.047104581746216e+001
 4.110782696371409e+000	 2.753762729043918e-001	 1.046736550754951e+001
 4.107918695415634e+000	 3.152313320020084e-001	 1.046892682152179e+001
 4.104655902656603e+000	 3.552001646590953e-001	 1.047925599541279e+001
 4.100990546181900e+000	 3.952774436050482e-001	 1.050156910901910e+001
 4.146663999993465e+000	 0.000000000000000e+000	 1.036506586206250e+001
 4.146478971996062e+000	 3.917101467168417e-002	 1.041181420235301e+001
 4.145921032511151e+000	 7.849083771739990e-002	 1.044014938298131e+001
 4.144985936874439e+000	 1.179549191198392e-001	 1.045428740687573e+001
 4.143669494464162e+000	 1.575585917575192e-001	 1.045833572736944e+001
 4.141967571990445e+000	 1.972970716167970e-001	 1.045627128579141e+001
 4.139876096815146e+000	 2.371654581027823e-001	 1.045191601258989e+001
 4.137391060299331e+000	 2.771587344514758e-001	 1.044890950075275e+001
 4.134508521175254e+000	 3.172717682453773e-001	 1.045067852663043e+001
 4.131224608939702e+000	 3.574993120347234e-001	 1.046040306024582e+001
 4.127535527265377e+000	 3.978360040664135e-001	 1.048097837365194e+001
 4.173331999996682e+000	 0.000000000000000e+000	 1.036786544558551e+001
 4.173145782048277e+000	 3.942293105996187e-002	 1.040797649952941e+001
 4.172584254346157e+000	 7.899562750955259e-002	 1.043192447947951e+001
 4.171643144927797e+000	 1.187135100694056e-001	 1.044345631083245e+001
 4.170318236220768e+000	 1.585718816028597e-001	 1.044622406254259e+001
 4.168605368353229e+000	 1.985659273293367e-001	 1.044376448742725e+001
 4.166500442495146e+000	 2.386907151372550e-001	 1.043947615575591e+001
 4.163999424227287e+000	 2.789411959988172e-001	 1.043659388643497e+001
 4.161098346934876e+000	 3.193122044889346e-001	 1.043816014473761e+001
 4.157793315222783e+000	 3.597984594104604e-001	 1.044699304045679e+001
 4.154080508348820e+000	 4.003945645278036e-001	 1.046565052468829e+001
 4.200000000000001e+000	 0.000000000000000e+000	 1.038612158707884e+001
 4.199812592100591e+000	 3.967484744844298e-002	 1.041796018925433e+001
 4.199247476181254e+000	 7.950041730204951e-002	 1.043609676870844e+001
 4.198300352981237e+000	 1.194721010194014e-001	 1.044380102166595e+001
 4.196966977977437e+000	 1.595851714486656e-001	 1.044426010342014e+001
 4.195243164716060e+000	 1.998347830423366e-001	 1.044055970572504e+001
 4.193124788175180e+000	 2.402159721721477e-001	 1.043566286941344e+001
 4.190607788155260e+000	 2.807236575465109e-001	 1.043238623240869e+001
 4.187688172694504e+000	 3.213526407327567e-001	 1.043337337612424e+001
 4.184362021505856e+000	 3.620976067863622e-001	 1.044106489604889e+001
 4.180625489432249e+000	 4.029531249892535e-001	 1.045766478440542e+001
 3.915175678595246e+000	 3.773675203732345e-001	 1.060257733819616e+001
 3.911289159882991e+000	 4.157214995353987e-001	 1.064000824937675e+001
 3.907011458158685e+000	 4.541685722679180e-001	 1.066368887452451e+001
 3.902339205074782e+000	 4.927034190860264e-001	 1.067633741507220e+001
 3.897269115457639e+000	 5.313206183671849e-001	 1.068005594612211e+001
 3.891797990537994e+000	 5.700146475776188e-001	 1.067628191885303e+001
 3.885922721176181e+000	 6.087798846073804e-001	 1.066574142818318e+001
 3.879640291078204e+000	 6.476106092149703e-001	 1.064840571804798e+001
 3.872947779998714e+000	 6.865010045823983e-001	 1.062630005338468e+001
 3.865842366926857e+000	 7.254451589814351e-001	 1.061639171008745e+001
 3.858321333250832e+000	 7.644370675516264e-001	 1.062444810811846e+001
 3.941720659679418e+000	 3.799260808354097e-001	 1.060770155369406e+001
 3.937807790280955e+000	 4.185401008579659e-001	 1.064185845074152e+001
 3.933501085640565e+000	 4.572478456274203e-001	 1.066332169643445e+001
 3.928797154573237e+000	 4.960439595927763e-001	 1.067460794296802e+001
 3.923692689631787e+000	 5.349229843727675e-001	 1.067764768715681e+001
 3.918184470359235e+000	 5.738793599907123e-001	 1.067372949391605e+001
 3.912269366535888e+000	 6.129074262186267e-001	 1.066344554343248e+001
 3.905944341417220e+000	 6.520014240316406e-001	 1.064664003550517e+001
 3.899206454958562e+000	 6.911554971736033e-001	 1.062619237540774e+001
 3.892052867022555e+000	 7.303636938346295e-001	 1.061717917438896e+001
 3.884480840565159e+000	 7.696199684411721e-001	 1.062400960727935e+001
 3.968265640763441e+000	 3.824846412973638e-001	 1.060454908276457e+001
 3.964326420678744e+000	 4.213587021803618e-001	 1.063594110152260e+001
 3.959990713122277e+000	 4.603271189867886e-001	 1.065542922886725e+001
 3.955255104071564e+000	 4.993845000994172e-001	 1.066539031415389e+001
 3.950116263805866e+000	 5.385253503782557e-001	 1.066764710839370e+001
 3.944570950180483e+000	 5.777440724037150e-001	 1.066340471806126e+001
 3.938616011895684e+000	 6.170349678297757e-001	 1.065318791101410e+001
 3.932248391756403e+000	 6.563922388481975e-001	 1.063678087125401e+001
 3.925465129918650e+000	 6.958099897646696e-001	 1.061790009605533e+001
 3.918263367118544e+000	 7.352822286876528e-001	 1.060942887556237e+001
 3.910640347879802e+000	 7.748028693305062e-001	 1.061487853972049e+001
 3.994810621847332e+000	 3.850432017591319e-001	 1.059270065815942e+001
 3.990845051076375e+000	 4.241773035026022e-001	 1.062245227909186e+001
 3.986480340603841e+000	 4.634063923460213e-001	 1.064075166028586e+001
 3.981713053569776e+000	 5.027250406059335e-001	 1.064990041670440e+001
 3.976539837979888e+000	 5.421277163836207e-001	 1.065168039553914e+001
 3.970957430001741e+000	 5.816087848165876e-001	 1.064728185516889e+001
 3.964962657255564e+000	 6.211625094407804e-001	 1.063723199349618e+001
 3.958552442095746e+000	 6.607830536645895e-001	 1.062132548781735e+001
 3.951723804878960e+000	 7.004644823555440e-001	 1.060402650230341e+001
 3.944473867214805e+000	 7.402007635404504e-001	 1.059591206084193e+001
 3.936799855194743e+000	 7.799857702195772e-001	 1.059995122957680e+001
 4.021355602931107e+000	 3.876017622207494e-001	 1.057317962983987e+001
 4.017363681473869e+000	 4.269959048247033e-001	 1.060209417763800e+001
 4.012969968085275e+000	 4.664856657051180e-001	 1.062013120817725e+001
 4.008171003067891e+000	 5.060655811123093e-001	 1.062936242700975e+001
 4.002963412153861e+000	 5.457300823888341e-001	 1.063140521406314e+001
 3.997343909823011e+000	 5.854734972292921e-001	 1.062736746930469e+001
 3.991309302615524e+000	 6.252900510515952e-001	 1.061786247897303e+001
 3.984856492435233e+000	 6.651738684807650e-001	 1.060278113258364e+001
 3.977982479839473e+000	 7.051189749461716e-001	 1.058718880950490e+001
 3.970684367311317e+000	 7.451192983929695e-001	 1.057940946461199e+001
 3.962959362509964e+000	 7.851686711083349e-001	 1.058212931780859e+001
 4.047900584014782e+000	 3.901603226822512e-001	 1.054990723553538e+001
 4.043882311871244e+000	 4.298145061466807e-001	 1.057762386014071e+001
 4.039459595566599e+000	 4.695649390640772e-001	 1.059526898420119e+001
 4.034628952565923e+000	 5.094061216185286e-001	 1.060475884114127e+001
 4.029386986327793e+000	 5.493324483938677e-001	 1.060759069571119e+001
 4.023730389644293e+000	 5.893382096417900e-001	 1.060477711756639e+001
 4.017655947975552e+000	 6.294175926621729e-001	 1.059677326250424e+001
 4.011160542774849e+000	 6.695646832966722e-001	 1.058342066327768e+001
 4.004241154800173e+000	 7.097734675364990e-001	 1.056997804654847e+001
 3.996894867408061e+000	 7.500378332451562e-001	 1.056271109294680e+001
 3.989118869825450e+000	 7.903515719967292e-001	 1.056431945252594e+001
 4.074445565098373e+000	 3.927188831436725e-001	 1.052528058199219e+001
 4.070400942268521e+000	 4.326331074685511e-001	 1.055152558202753e+001
 4.065949223047831e+000	 4.726442124228984e-001	 1.056859542948386e+001
 4.061086902063884e+000	 5.127466621245758e-001	 1.057826084820840e+001
 4.055810560501691e+000	 5.529348143986932e-001	 1.058190797618854e+001
 4.050116869465589e+000	 5.932029220540418e-001	 1.058047448602981e+001
 4.044002593335647e+000	 6.335451342724678e-001	 1.057437867109416e+001
 4.037464593114587e+000	 6.739554981122600e-001	 1.056356369069914e+001
 4.030499829761044e+000	 7.144279601264721e-001	 1.055300638252311e+001
 4.023105367505020e+000	 7.549563680969565e-001	 1.054735543373628e+001
 4.015278377141184e+000	 7.955344728847097e-001	 1.054889092358901e+001
 4.100990546181900e+000	 3.952774436050482e-001	 1.050156910901910e+001
 4.096919572665721e+000	 4.354517087903299e-001	 1.052613168378947e+001
 4.092438850528989e+000	 4.757234857815803e-001	 1.054248905435377e+001
 4.087544851561791e+000	 5.160872026304351e-001	 1.055227559432868e+001
 4.082234134675567e+000	 5.565371804032819e-001	 1.055677446202261e+001
 4.076503349286900e+000	 5.970676344660097e-001	 1.055685565080305e+001
 4.070349238695803e+000	 6.376726758824337e-001	 1.055290697225808e+001
 4.063768643454428e+000	 6.783463129274764e-001	 1.054500023293390e+001
 4.056758504722066e+000	 7.190824527160370e-001	 1.053747572031092e+001
 4.049315867602173e+000	 7.598749029483172e-001	 1.053380697069822e+001
 4.041437884457146e+000	 8.007173737722259e-001	 1.053604724236732e+001
 4.127535527265377e+000	 3.978360040664135e-001	 1.048097837365194e+001
 4.123438203062861e+000	 4.382703101120334e-001	 1.050370111177567e+001
 4.118928478010090e+000	 4.788027591401218e-001	 1.051924663715159e+001
 4.114002801059660e+000	 5.194277431360904e-001	 1.052912130873431e+001
 4.108657708849427e+000	 5.601395464076056e-001	 1.053451258768832e+001
 4.102889829108228e+000	 6.009323468776551e-001	 1.053622910532922e+001
 4.096695884056011e+000	 6.418002174920235e-001	 1.053463364057016e+001
 4.090072693794363e+000	 6.827371277422706e-001	 1.052990306185077e+001
 4.083017179683222e+000	 7.237369453051398e-001	 1.052552929113991e+001
 4.075526367699502e+000	 7.647934377991846e-001	 1.052413779860246e+001
 4.067597391773322e+000	 8.059002746592269e-001	 1.052755946754412e+001
 4.154080508348820e+000	 4.003945645278036e-001	 1.046565052468829e+001
 4.149956833459963e+000	 4.410889114336775e-001	 1.048642022671167e+001
 4.145418105491158e+000	 4.818820324985224e-001	 1.050108435958661e+001
 4.140460750557502e+000	 5.227682836415259e-001	 1.051102875822329e+001
 4.135081283023280e+000	 5.637419124116356e-001	 1.051735158079363e+001
 4.129276308929573e+000	 6.047970592889388e-001	 1.052080548669289e+001
 4.123042529416265e+000	 6.459277591011916e-001	 1.052173271075317e+001
 4.116376744134380e+000	 6.871279425565907e-001	 1.052035203029850e+001
 4.109275854644496e+000	 7.283914378937263e-001	 1.051921433734579e+001
 4.101736867796986e+000	 7.697119726495050e-001	 1.052034322454112e+001
 4.093756899089693e+000	 8.110831755456631e-001	 1.052535144219456e+001
 4.180625489432249e+000	 4.029531249892535e-001	 1.045766478440542e+001
 4.176475463857044e+000	 4.439075127552786e-001	 1.047640361181940e+001
 4.171907732972210e+000	 4.849613058567809e-001	 1.049013893481347e+001
 4.166918700055335e+000	 5.261088241467261e-001	 1.050014268815751e+001
 4.161504857197135e+000	 5.673442784153436e-001	 1.050742920835336e+001
 4.155662788750936e+000	 6.086617716998225e-001	 1.051269961889529e+001
 4.149389174776560e+000	 6.500553007098914e-001	 1.051627910903454e+001
 4.142680794474464e+000	 6.915187573703855e-001	 1.051833581281379e+001
 4.135534529605870e+000	 7.330459304817428e-001	 1.052048403113705e+001
 4.127947367894608e+000	 7.746305074992249e-001	 1.052432247325714e+001
 4.119916406406245e+000	 8.162660764314833e-001	 1.053124978668494e+001
 3.858321333250832e+000	 7.644370675516264e-001	 1.062444810811846e+001
 3.850380843942109e+000	 8.034764911172418e-001	 1.064230126413564e+001
 3.842019493278809e+000	 8.425513879866889e-001	 1.066054326917872e+001
 3.833234890918528e+000	 8.816554735420564e-001	 1.068005977452031e+001
 3.824024761409275e+000	 9.207823780247851e-001	 1.070136909816148e+001
 3.814386947187075e+000	 9.599256488797630e-001	 1.072460531089654e+001
 3.804319411526238e+000	 9.990787532115453e-001	 1.074950270921456e+001
 3.793820241437710e+000	 1.038235080352055e+000	 1.077537938899332e+001
 3.782887650511028e+000	 1.077387944538931e+000	 1.080113789336274e+001
 3.771519981695345e+000	 1.116530587703505e+000	 1.082523658747304e+001
 3.759715710014934e+000	 1.155656182367169e+000	 1.084569936988975e+001
 3.884480840565159e+000	 7.696199684411721e-001	 1.062400960727935e+001
 3.876486514556274e+000	 8.089240801958826e-001	 1.063956873020525e+001
 3.868068473743194e+000	 8.482639057642207e-001	 1.065561600665019e+001
 3.859224311576942e+000	 8.876331179184213e-001	 1.067305389625694e+001
 3.849951737177909e+000	 9.270253037128126e-001	 1.069243197186632e+001
 3.840248578353792e+000	 9.664339668438116e-001	 1.071392800636900e+001
 3.830112784569850e+000	 1.005852530122790e+000	 1.073733035626530e+001
 3.819542429866924e+000	 1.045274338061189e+000	 1.076201977998308e+001
 3.808535715722648e+000	 1.084692659567023e+000	 1.078696612314422e+001
 3.797090973851327e+000	 1.124100690751761e+000	 1.081070034632759e+001
 3.785206668937873e+000	 1.163491557846334e+000	 1.083131988326390e+001
 3.910640347879802e+000	 7.748028693305062e-001	 1.061487853972049e+001
 3.902592185170744e+000	 8.143716692742634e-001	 1.062811594749120e+001
 3.894117454207847e+000	 8.539764235414398e-001	 1.064199312251427e+001
 3.885213732235560e+000	 8.936107622944155e-001	 1.065743780236317e+001
 3.875878712946665e+000	 9.332682294004112e-001	 1.067503859690242e+001
 3.866110209520530e+000	 9.729422848073702e-001	 1.069502391909052e+001
 3.855906157613377e+000	 1.012626307033486e+000	 1.071723896802732e+001
 3.845264618295935e+000	 1.052313595769716e+000	 1.074114132370240e+001
 3.834183780933947e+000	 1.091997374594454e+000	 1.076576222267937e+001
 3.822661966006884e+000	 1.131670793799310e+000	 1.078971021344723e+001
 3.810697627860288e+000	 1.171326933324751e+000	 1.081115649545004e+001
 3.936799855194743e+000	 7.799857702195772e-001	 1.059995122957680e+001
 3.928697855785512e+000	 8.198192583523399e-001	 1.061092329534794e+001
 3.920166434672769e+000	 8.596889413183102e-001	 1.062269999342796e+001
 3.911203152894398e+000	 8.995884066700153e-001	 1.063624379004988e+001
 3.901805688715572e+000	 9.395111550875679e-001	 1.065219115854378e+001
 3.891971840687339e+000	 9.794506027704418e-001	 1.067082919265434e+001
 3.881699530656881e+000	 1.019400083943650e+000	 1.069207063196182e+001
 3.870986806724833e+000	 1.059352853477671e+000	 1.071544497002754e+001
 3.859831846145038e+000	 1.099302089621277e+000	 1.074006043633415e+001
 3.848232958162134e+000	 1.139240896846218e+000	 1.076460269226269e+001
 3.836188586782309e+000	 1.179162308802503e+000	 1.078731825036453e+001
 3.962959362509964e+000	 7.851686711083349e-001	 1.058212931780859e+001
 3.954803526400566e+000	 8.252668474300684e-001	 1.059097257089319e+001
 3.946215415137962e+000	 8.654014590947966e-001	 1.060075978668187e+001
 3.937192573553473e+000	 9.055660510451958e-001	 1.061249862090577e+001
 3.927732664484666e+000	 9.457540807742725e-001	 1.062688331050929e+001
 3.917833471854273e+000	 9.859589207330297e-001	 1.064426880332963e+001
 3.907492903700438e+000	 1.026173860853301e+000	 1.066464359761173e+001
 3.896708995153702e+000	 1.066392111185088e+000	 1.068761643071582e+001
 3.885479911356018e+000	 1.106606804647541e+000	 1.071237839622908e+001
 3.873803950317198e+000	 1.146810999892552e+000	 1.073769678080402e+001
 3.861679545704069e+000	 1.186997684279673e+000	 1.076189630423870e+001
 3.989118869825450e+000	 7.903515719967292e-001	 1.056431945252594e+001
 3.980909197015897e+000	 8.307144365074038e-001	 1.057124655937967e+001
 3.972264395603426e+000	 8.711139768708636e-001	 1.057919288621803e+001
 3.963181994212799e+000	 9.115436954199335e-001	 1.058922277858853e+001
 3.953659640253977e+000	 9.519970064605123e-001	 1.060209924081093e+001
 3.943695103021376e+000	 9.924672386951351e-001	 1.061825541103447e+001
 3.933286276744112e+000	 1.032947637762458e+000	 1.063776498691671e+001
 3.922431183582630e+000	 1.073431368892000e+000	 1.066032453361669e+001
 3.911127976566998e+000	 1.113911519673297e+000	 1.068521519566161e+001
 3.899374942472197e+000	 1.154381102938380e+000	 1.071129174350620e+001
 3.887170504625702e+000	 1.194833059756341e+000	 1.073696137558977e+001
 4.015278377141184e+000	 7.955344728847097e-001	 1.054889092358901e+001
 4.007014867631494e+000	 8.361620255843024e-001	 1.055462021224852e+001
 3.998313376069162e+000	 8.768264946464753e-001	 1.056101627491978e+001
 3.989171414872387e+000	 9.175213397942025e-001	 1.056942968400227e+001
 3.979586616023536e+000	 9.582399321462761e-001	 1.058081269711936e+001
 3.969556734188702e+000	 9.989755566567616e-001	 1.059568817267310e+001
 3.959079649787975e+000	 1.039721414671136e+000	 1.061422570182974e+001
 3.948153372011706e+000	 1.080470626598443e+000	 1.063621954737189e+001
 3.936776041778080e+000	 1.121216234698595e+000	 1.066104943828609e+001
 3.924945934627249e+000	 1.161951205983767e+000	 1.068766486483645e+001
 3.912661463547339e+000	 1.202668435232591e+000	 1.071456118386947e+001
 4.041437884457146e+000	 8.007173737722259e-001	 1.053604724236732e+001
 4.033120538247349e+000	 8.416096146607200e-001	 1.054171536229630e+001
 4.024362356535170e+000	 8.825390124215965e-001	 1.054788212429931e+001
 4.015160835532259e+000	 9.234989841679794e-001	 1.055565040560759e+001
 4.005513591793375e+000	 9.644828578315521e-001	 1.056593213152866e+001
 3.995418365356301e+000	 1.005483874617912e+000	 1.057945151954301e+001
 3.984873022832094e+000	 1.046495191579357e+000	 1.059679897148672e+001
 3.973875560441019e+000	 1.087509884304450e+000	 1.061793147794176e+001
 3.962424106989368e+000	 1.128520949723485e+000	 1.064233726414856e+001
 3.950516926782475e+000	 1.169521309028779e+000	 1.066906918556696e+001
 3.938152422469113e+000	 1.210503810708505e+000	 1.069671787730172e+001
 4.067597391773322e+000	 8.059002746592269e-001	 1.052755946754412e+001
 4.059226208863447e+000	 8.470572037366113e-001	 1.053374854053614e+001
 4.050411337001455e+000	 8.882515301961920e-001	 1.054029891576436e+001
 4.041150256192424e+000	 9.294766285412385e-001	 1.054824931494824e+001
 4.031440567563525e+000	 9.707257835163288e-001	 1.055846178798681e+001
 4.021279996524220e+000	 1.011992192578588e+000	 1.057159366050710e+001
 4.010666395876541e+000	 1.053268968487136e+000	 1.058807605159562e+001
 3.999597748870652e+000	 1.094549142010055e+000	 1.060806833822620e+001
 3.988072172200968e+000	 1.135825664748018e+000	 1.063151035361930e+001
 3.976087918937997e+000	 1.177091412073484e+000	 1.065773122247422e+001
 3.963643381391156e+000	 1.218339186184163e+000	 1.068542545039838e+001
 4.093756899089693e+000	 8.110831755456631e-001	 1.052535144219456e+001
 4.085331879479782e+000	 8.525047928119331e-001	 1.053255330736499e+001
 4.076460317468012e+000	 8.939640479702253e-001	 1.053998617470787e+001
 4.067139676852903e+000	 9.354542729139562e-001	 1.054862058001768e+001
 4.057367543334021e+000	 9.769687092005943e-001	 1.055926333608368e+001
 4.047141627692514e+000	 1.018500510538794e+000	 1.057253013601280e+001
 4.036459768921380e+000	 1.060042745394492e+000	 1.058882314447686e+001
 4.025319937300696e+000	 1.101588399715292e+000	 1.060828766713469e+001
 4.013720237412985e+000	 1.143130379772244e+000	 1.063078434341471e+001
 4.001658911093933e+000	 1.184661515117947e+000	 1.065584718043018e+001
 3.989134340313600e+000	 1.226174561659649e+000	 1.068264715161319e+001
 4.119916406406245e+000	 8.162660764314833e-001	 1.053124978668494e+001
 4.111437550096344e+000	 8.579523818866409e-001	 1.053986569871709e+001
 4.102509297934843e+000	 8.996765657436617e-001	 1.054857211234877e+001
 4.093129097513706e+000	 9.414319172861080e-001	 1.055826717395217e+001
 4.083294519104891e+000	 9.832116348843372e-001	 1.056969691504960e+001
 4.073003258861229e+000	 1.025008828498531e+000	 1.058342849269158e+001
 4.062253141966685e+000	 1.066816522301443e+000	 1.059982706357104e+001
 4.051042125731239e+000	 1.108627657420195e+000	 1.061901456406830e+001
 4.039368302625527e+000	 1.150435094796214e+000	 1.064084089170547e+001
 4.027229903250404e+000	 1.192231618162235e+000	 1.066484254047794e+001
 4.014625299236578e+000	 1.234009937135045e+000	 1.069019912191542e+001
 3.759715710014934e+000	 1.155656182367169e+000	 1.084569936988975e+001
 3.747473444274480e+000	 1.194757834072111e+000	 1.086226182958297e+001
 3.734791926805089e+000	 1.233828582715533e+000	 1.087370097916580e+001
 3.721670038772552e+000	 1.272861407380663e+000	 1.087588305669981e+001
 3.708106803531545e+000	 1.311849230209201e+000	 1.086416601236464e+001
 3.694101388953216e+000	 1.350784919814787e+000	 1.083683233816908e+001
 3.679653109660587e+000	 1.389661294793495e+000	 1.081503519446551e+001
 3.664761429167448e+000	 1.428471127328699e+000	 1.080190963905744e+001
 3.649425961916560e+000	 1.467207146887431e+000	 1.079538088278297e+001
 3.633646475212943e+000	 1.505862044005179e+000	 1.079308917323683e+001
 3.617422891048259e+000	 1.544428474155829e+000	 1.079239228998458e+001
 3.785206668937873e+000	 1.163491557846334e+000	 1.083131988326390e+001
 3.772881400354629e+000	 1.202858319648345e+000	 1.084798563192677e+001
 3.760113901905669e+000	 1.242193968865346e+000	 1.085893532088110e+001
 3.746903047171049e+000	 1.281491436978598e+000	 1.086015500747900e+001
 3.733247852883756e+000	 1.320743598141761e+000	 1.084711191726512e+001
 3.719147481273076e+000	 1.359943272617522e+000	 1.082210634809996e+001
 3.704601242315142e+000	 1.399083230311878e+000	 1.080440141532206e+001
 3.689608595886351e+000	 1.438156194403447e+000	 1.079392951237190e+001
 3.674169153815358e+000	 1.477154845064890e+000	 1.078878638196848e+001
 3.658282681829496e+000	 1.516071823273362e+000	 1.078678764335608e+001
 3.641949101391516e+000	 1.554899734706702e+000	 1.078547075560472e+001
 3.810697627860288e+000	 1.171326933324751e+000	 1.081115649545004e+001
 3.798289356434169e+000	 1.210958805223801e+000	 1.082866566788617e+001
 3.785435877005572e+000	 1.250559355014358e+000	 1.083991567222340e+001
 3.772136055568818e+000	 1.290121466575712e+000	 1.084101331040362e+001
 3.758388902235206e+000	 1.329637966073492e+000	 1.082753644606758e+001
 3.744193573592157e+000	 1.369101625419422e+000	 1.080675575930429e+001
 3.729549374968920e+000	 1.408505165829424e+000	 1.079317350685464e+001
 3.714455762604491e+000	 1.447841261477359e+000	 1.078544484537567e+001
 3.698912345713430e+000	 1.487102543241513e+000	 1.078182917840702e+001
 3.682918888445374e+000	 1.526281602540710e+000	 1.078031186903223e+001
 3.666475311734168e+000	 1.565370995256741e+000	 1.077860566902906e+001
 3.836188586782309e+000	 1.179162308802503e+000	 1.078731825036453e+001
 3.823697312513242e+000	 1.219059290798574e+000	 1.080617580765866e+001
 3.810757852104945e+000	 1.258924741162679e+000	 1.081829505594761e+001
 3.797369063966007e+000	 1.298751496172132e+000	 1.081990583992675e+001
 3.783529951586039e+000	 1.338532334004527e+000	 1.080692614265644e+001
 3.769239665910597e+000	 1.378259978220629e+000	 1.079150817937350e+001
 3.754497507622050e+000	 1.417927101346283e+000	 1.078195967359844e+001
 3.739302929321989e+000	 1.457526328550590e+000	 1.077696362177476e+001
 3.723655537610877e+000	 1.497050241417461e+000	 1.077493663014583e+001
 3.707555095060664e+000	 1.536491381807390e+000	 1.077402857726059e+001
 3.691001522076283e+000	 1.575842255806114e+000	 1.077212350491984e+001
 3.861679545704069e+000	 1.186997684279673e+000	 1.076189630423870e+001
 3.849105268591986e+000	 1.227159776372762e+000	 1.078237164628893e+001
 3.836079827203931e+000	 1.267290127310417e+000	 1.079570730997442e+001
 3.822602072362763e+000	 1.307381525767979e+000	 1.079825988211751e+001
 3.808671000936400e+000	 1.347426701935000e+000	 1.078734150607325e+001
 3.794285758228536e+000	 1.387418331021288e+000	 1.077709615254377e+001
 3.779445640274659e+000	 1.427349036862606e+000	 1.077137396099083e+001
 3.764150096038960e+000	 1.467211395623299e+000	 1.076900002980896e+001
 3.748398729507805e+000	 1.506997939592899e+000	 1.076854212730204e+001
 3.732191301675452e+000	 1.546701161073566e+000	 1.076830982365631e+001
 3.715527732417928e+000	 1.586313516354986e+000	 1.076635483778153e+001
 3.887170504625702e+000	 1.194833059756341e+000	 1.073696137558977e+001
 3.874513224670546e+000	 1.235260261946463e+000	 1.075908763010934e+001
 3.861401802302679e+000	 1.275655513457684e+000	 1.077376390716024e+001
 3.847835080759229e+000	 1.316011555363373e+000	 1.077747866529192e+001
 3.833812050286429e+000	 1.356321069865043e+000	 1.076977528152650e+001
 3.819331850546111e+000	 1.396576683821539e+000	 1.076425546308342e+001
 3.804393772926877e+000	 1.436770972378545e+000	 1.076203440011047e+001
 3.788997262755523e+000	 1.476896462695642e+000	 1.076207246495391e+001
 3.773141921404314e+000	 1.516945637767987e+000	 1.076308296963165e+001
 3.756827508289828e+000	 1.556910940339404e+000	 1.076353076207188e+001
 3.740053942759174e+000	 1.596784776903525e+000	 1.076163202107889e+001
 3.912661463547339e+000	 1.202668435232591e+000	 1.071456118386947e+001
 3.899921180749059e+000	 1.243360747519771e+000	 1.073813417879717e+001
 3.886723777401333e+000	 1.284020899604590e+000	 1.075405077700013e+001
 3.873068089155554e+000	 1.324641584958439e+000	 1.075893789826006e+001
 3.858953099636274e+000	 1.365215437794790e+000	 1.075509914841789e+001
 3.844377942863459e+000	 1.405735036621528e+000	 1.075372345573358e+001
 3.829341905578835e+000	 1.446192907894251e+000	 1.075456117320974e+001
 3.813844429471796e+000	 1.486581529767779e+000	 1.075670155649599e+001
 3.797885113300513e+000	 1.526893335942890e+000	 1.075899827038172e+001
 3.781463714903873e+000	 1.567120719605069e+000	 1.076006744223838e+001
 3.764580153100085e+000	 1.607256037451897e+000	 1.075828689543881e+001
 3.938152422469113e+000	 1.210503810708505e+000	 1.069671787730172e+001
 3.925329136827668e+000	 1.251461233092785e+000	 1.072129480324688e+001
 3.912045752500035e+000	 1.292386285751245e+000	 1.073812512917569e+001
 3.898301097551885e+000	 1.333271614553299e+000	 1.074398231584612e+001
 3.884094148986077e+000	 1.374109805724376e+000	 1.074418374641588e+001
 3.869424035180721e+000	 1.414893389421397e+000	 1.074623737242959e+001
 3.854290038230659e+000	 1.455614843409874e+000	 1.074957479909951e+001
 3.838691596187895e+000	 1.496266596839866e+000	 1.075340821689817e+001
 3.822628305196501e+000	 1.536841034117768e+000	 1.075672688523670e+001
 3.806099921517679e+000	 1.577330498870728e+000	 1.075829463415916e+001
 3.789106363440732e+000	 1.617727298000268e+000	 1.075664852461827e+001
 3.963643381391156e+000	 1.218339186184163e+000	 1.068542545039838e+001
 3.950737092906511e+000	 1.259561718665599e+000	 1.071032321944662e+001
 3.937367727598935e+000	 1.300751671897758e+000	 1.072751227886570e+001
 3.923534105948365e+000	 1.341901644148074e+000	 1.073425313286699e+001
 3.909235198335982e+000	 1.383004173653933e+000	 1.073789719008337e+001
 3.894470127498032e+000	 1.424051742221287e+000	 1.074253270457029e+001
 3.879238170882482e+000	 1.465036778925566e+000	 1.074769433749111e+001
 3.863538762903939e+000	 1.505951663912062e+000	 1.075271171293099e+001
 3.847371497092383e+000	 1.546788732292785e+000	 1.075670536522831e+001
 3.830736128131332e+000	 1.587540278136545e+000	 1.075858367805334e+001
 3.813632573781182e+000	 1.628198558548805e+000	 1.075704095798831e+001
 3.989134340313600e+000	 1.226174561659649e+000	 1.068264715161319e+001
 3.976145048985732e+000	 1.267662204238311e+000	 1.070694045853757e+001
 3.962689702698176e+000	 1.309117058044240e+000	 1.072370247374128e+001
 3.948767114345144e+000	 1.350531673742888e+000	 1.073119022512821e+001
 3.934376247686132e+000	 1.391898541583594e+000	 1.073710359452989e+001
 3.919516219815531e+000	 1.433210095021344e+000	 1.074334156013932e+001
 3.904186303534432e+000	 1.474458714441479e+000	 1.074953561144861e+001
 3.888385929620047e+000	 1.515636730984523e+000	 1.075512775759543e+001
 3.872114688988263e+000	 1.556736430468103e+000	 1.075936593253721e+001
 3.855372334744916e+000	 1.597750057402686e+000	 1.076130035870481e+001
 3.838158784121502e+000	 1.638669819097676e+000	 1.075978101834852e+001
 4.014625299236578e+000	 1.234009937135045e+000	 1.069019912191542e+001
 4.001553005065471e+000	 1.275762689811019e+000	 1.071283185016552e+001
 3.988011677797905e+000	 1.317482444190801e+000	 1.072814772257024e+001
 3.974000122742365e+000	 1.359161703337862e+000	 1.073579859667141e+001
 3.959517297036671e+000	 1.400792909513493e+000	 1.074266161159816e+001
 3.944562312133359e+000	 1.442368447821711e+000	 1.074939104501897e+001
 3.929134436186638e+000	 1.483880649957763e+000	 1.075570944714619e+001
 3.913233096336334e+000	 1.525321798057408e+000	 1.076116662191246e+001
 3.896857880884244e+000	 1.566684128643885e+000	 1.076513447816919e+001
 3.880008541358523e+000	 1.607959836669317e+000	 1.076680280313283e+001
 3.862684994461763e+000	 1.649141079647046e+000	 1.076517611394509e+001
 3.617422891048259e+000	 1.544428474155829e+000	 1.079239228998458e+001
 3.600757821582671e+000	 1.582893299281493e+000	 1.079852954807677e+001
 3.583649105312324e+000	 1.621254913125378e+000	 1.081693576151306e+001
 3.566097140681105e+000	 1.659505895371513e+000	 1.084494861510568e+001
 3.548102486840681e+000	 1.697638806993271e+000	 1.087977420976923e+001
 3.529665864868949e+000	 1.735646194488917e+000	 1.091849723217936e+001
 3.510788158857956e+000	 1.773520594178442e+000	 1.095809268911808e+001
 3.491470416868223e+000	 1.811254536557092e+000	 1.099543927846179e+001
 3.471713851746570e+000	 1.848840550700881e+000	 1.102733446187745e+001
 3.451519841804725e+000	 1.886271168719184e+000	 1.105051129627809e+001
 3.430889931356198e+000	 1.923538930249378e+000	 1.106165707195722e+001
 3.641949101391516e+000	 1.554899734706702e+000	 1.078547075560472e+001
 3.625171042372079e+000	 1.593625352230693e+000	 1.079107075486142e+001
 3.607946328612285e+000	 1.632247058698082e+000	 1.080975524540844e+001
 3.590275361257489e+000	 1.670757383482981e+000	 1.083863515680343e+001
 3.572158703250427e+000	 1.709148837121984e+000	 1.087466920164542e+001
 3.553597080557928e+000	 1.747413915578442e+000	 1.091467398997818e+001
 3.534591383266208e+000	 1.785545104568416e+000	 1.095533578365953e+001
 3.515142666541674e+000	 1.823534883943736e+000	 1.099322396859369e+001
 3.495252151454281e+000	 1.861375732127374e+000	 1.102480631564797e+001
 3.474921225660750e+000	 1.899060130596229e+000	 1.104646609281476e+001
 3.454151443945081e+000	 1.936580568406245e+000	 1.105452108174542e+001
 3.666475311734168e+000	 1.565370995256741e+000	 1.077860566902906e+001
 3.649584263160967e+000	 1.604357405179059e+000	 1.078379027736723e+001
 3.632243551911827e+000	 1.643239204269950e+000	 1.080263771653344e+001
 3.614453581833563e+000	 1.682008871593611e+000	 1.083206338901290e+001
 3.596214919659974e+000	 1.720658867249862e+000	 1.086881082136225e+001
 3.577528296246815e+000	 1.759181636667133e+000	 1.090946165567813e+001
 3.558394607674471e+000	 1.797569614957564e+000	 1.095044735469388e+001
 3.538814916215225e+000	 1.835815231329566e+000	 1.098806270466876e+001
 3.518790451162161e+000	 1.873910913553071e+000	 1.101848119297915e+001
 3.498322609516990e+000	 1.911849092472505e+000	 1.103777232882367e+001
 3.477412956534195e+000	 1.949622206562376e+000	 1.104192096571887e+001
 3.691001522076283e+000	 1.575842255806114e+000	 1.077212350491984e+001
 3.673997483949385e+000	 1.615089458126757e+000	 1.077699318668607e+001
 3.656540775210977e+000	 1.654231349841147e+000	 1.079588369161134e+001
 3.638631802409331e+000	 1.693260359703563e+000	 1.082554578755077e+001
 3.620271136069302e+000	 1.732168897377055e+000	 1.086253965882893e+001
 3.601459511935572e+000	 1.770949357755138e+000	 1.090324470590621e+001
 3.582197832082684e+000	 1.809594125346024e+000	 1.094387113075102e+001
 3.562487165888796e+000	 1.848095578714712e+000	 1.098047339868180e+001
 3.542328750870121e+000	 1.886446094978093e+000	 1.100896566002175e+001
 3.521723993373348e+000	 1.924638054348121e+000	 1.102513920617698e+001
 3.500674469123442e+000	 1.962663844717872e+000	 1.102468202471786e+001
 3.715527732417928e+000	 1.586313516354986e+000	 1.076635483778153e+001
 3.698410704737381e+000	 1.625821511073953e+000	 1.077098695625402e+001
 3.680837998509759e+000	 1.665223495411833e+000	 1.078979399180047e+001
 3.662810022984793e+000	 1.704511847812997e+000	 1.081939265898519e+001
 3.644327352478393e+000	 1.743678927503718e+000	 1.085619131031766e+001
 3.625390727624157e+000	 1.782717078842601e+000	 1.089639947401239e+001
 3.606001056490789e+000	 1.821618635733935e+000	 1.093603924797695e+001
 3.586159415562316e+000	 1.860375926099302e+000	 1.097095864773650e+001
 3.565867050578072e+000	 1.898981276402559e+000	 1.099684699842268e+001
 3.545125377229727e+000	 1.937427016223188e+000	 1.100925245199480e+001
 3.523935981712723e+000	 1.975705482872835e+000	 1.100360170054013e+001
 3.740053942759174e+000	 1.596784776903525e+000	 1.076163202107889e+001
 3.722823925524999e+000	 1.636553564020810e+000	 1.076607906654063e+001
 3.705135221808200e+000	 1.676215640982174e+000	 1.078466728722605e+001
 3.686988243559954e+000	 1.715763335922070e+000	 1.081390963893363e+001
 3.668383568887227e+000	 1.755188957630004e+000	 1.085009384408798e+001
 3.649321943312529e+000	 1.794484799929669e+000	 1.088929159620191e+001
 3.629804280898727e+000	 1.833643146121435e+000	 1.092736968956257e+001
 3.609831665235705e+000	 1.872656273483467e+000	 1.096000317914957e+001
 3.589405350285926e+000	 1.911516457826590e+000	 1.098269066805786e+001
 3.568526761086031e+000	 1.950215978097816e+000	 1.099077181052049e+001
 3.547197494301936e+000	 1.988747121027364e+000	 1.097944710801584e+001
 3.764580153100085e+000	 1.607256037451897e+000	 1.075828689543881e+001
 3.747237146312289e+000	 1.647285616967498e+000	 1.076257463926520e+001
 3.729432445106323e+000	 1.687207786552331e+000	 1.078079767093971e+001
 3.711166464134817e+000	 1.727014824030942e+000	 1.080939521916584e+001
 3.692439785295785e+000	 1.766698987756068e+000	 1.084456529369037e+001
 3.673253159000652e+000	 1.806252521016491e+000	 1.088227348373872e+001
 3.653607505306437e+000	 1.845667656508661e+000	 1.091826374917340e+001
 3.633503914908891e+000	 1.884936620867336e+000	 1.094807131704522e+001
 3.612943649993593e+000	 1.924051639250306e+000	 1.096703778832771e+001
 3.591928144942162e+000	 1.963004939972116e+000	 1.097032855023454e+001
 3.570459006890980e+000	 2.001788759181559e+000	 1.095299304764358e+001
 3.789106363440732e+000	 1.617727298000268e+000	 1.075664852461827e+001
 3.771650367099297e+000	 1.658017669914180e+000	 1.076077409980200e+001
 3.753729668404155e+000	 1.698199932122468e+000	 1.077847226097295e+001
 3.735344684709383e+000	 1.738266312139772e+000	 1.080613830220675e+001
 3.716496001704046e+000	 1.778209017882060e+000	 1.083991117769513e+001
 3.697184374688481e+000	 1.818020242103210e+000	 1.087568182003898e+001
 3.677410729713860e+000	 1.857692166895753e+000	 1.090910351729286e+001
 3.657176164581798e+000	 1.897216968251039e+000	 1.093560446946669e+001
 3.636481949700988e+000	 1.936586820673828e+000	 1.095040263717345e+001
 3.615329528798024e+000	 1.975793901846200e+000	 1.094852298551659e+001
 3.593720519479760e+000	 2.014830397335523e+000	 1.092749770859679e+001
 3.813632573781182e+000	 1.628198558548805e+000	 1.075704095798831e+001
 3.796063587886068e+000	 1.668749722861022e+000	 1.076097086650533e+001
 3.778026891701722e+000	 1.709192077692748e+000	 1.077796882922014e+001
 3.759522905283656e+000	 1.749517800248717e+000	 1.080441578220114e+001
 3.740552218111992e+000	 1.789719048008136e+000	 1.083642204465689e+001
 3.721115590375978e+000	 1.829787963189973e+000	 1.086983508153331e+001
 3.701213954120939e+000	 1.869716677282848e+000	 1.090024938944731e+001
 3.680848414254348e+000	 1.909497315634706e+000	 1.092301863508111e+001
 3.660020249408020e+000	 1.949122002097276e+000	 1.093327016701743e+001
 3.638730912653521e+000	 1.988582863720177e+000	 1.092592201220087e+001
 3.616982032068172e+000	 2.027872035489355e+000	 1.090481232078191e+001
 3.838158784121502e+000	 1.638669819097676e+000	 1.075978101834852e+001
 3.820476808672654e+000	 1.679481775808191e+000	 1.076344906575059e+001
 3.802324114999044e+000	 1.720184223263334e+000	 1.077955345595076e+001
 3.783701125857638e+000	 1.760769288357938e+000	 1.080449015086567e+001
 3.764608434519604e+000	 1.801229078134447e+000	 1.083437104218602e+001
 3.745046806063103e+000	 1.841555684276927e+000	 1.086503108123550e+001
 3.725017178527611e+000	 1.881741187670086e+000	 1.089203759533435e+001
 3.704520663926468e+000	 1.921777663018466e+000	 1.091070192860125e+001
 3.683558549114604e+000	 1.961657183520769e+000	 1.091609353686968e+001
 3.662132296508556e+000	 2.001371825594157e+000	 1.090307711361182e+001
 3.640243544656117e+000	 2.040913673643154e+000	 1.088508940557342e+001
 3.862684994461763e+000	 1.649141079647046e+000	 1.076517611394509e+001
 3.844890029459100e+000	 1.690213828755853e+000	 1.076848127154817e+001
 3.826621338296152e+000	 1.731176368834391e+000	 1.078347820881146e+001
 3.807879346431334e+000	 1.772020776467594e+000	 1.080660712741287e+001
 3.788664650926863e+000	 1.812739108261148e+000	 1.083401150905546e+001
 3.768978021749815e+000	 1.853323405364218e+000	 1.086154453400815e+001
 3.748820402933820e+000	 1.893765698057605e+000	 1.088477774792514e+001
 3.728192913598082e+000	 1.934058010402449e+000	 1.089901212409200e+001
 3.707096848820650e+000	 1.974192364944430e+000	 1.089929165988246e+001
 3.685533680363033e+000	 2.014160787468251e+000	 1.088250758085527e+001
 3.663505057243499e+000	 2.053955311797023e+000	 1.086844314776526e+001
 3.430889931356198e+000	 1.923538930249378e+000	 1.106165707195722e+001
 3.409822639161488e+000	 1.960641939370820e+000	 1.105438930413641e+001
 3.388322907875672e+000	 1.997567159735842e+000	 1.102232377133989e+001
 3.366392785299044e+000	 2.034307179775804e+000	 1.098150928771834e+001
 3.344034485992657e+000	 2.070854613836993e+000	 1.095505940974049e+001
 3.321250391072290e+000	 2.107202106807173e+000	 1.094165056422722e+001
 3.298043047850050e+000	 2.143342338751271e+000	 1.093758554090602e+001
 3.274415169322649e+000	 2.179268029550415e+000	 1.094054810366453e+001
 3.250369633505694e+000	 2.214971943538432e+000	 1.094848220724172e+001
 3.225909482613576e+000	 2.250446894129934e+000	 1.095929131050717e+001
 3.201037922084772e+000	 2.285685748434004e+000	 1.097084930739510e+001
 3.454151443945081e+000	 1.936580568406245e+000	 1.105452108174542e+001
 3.432941315024939e+000	 1.973935136782385e+000	 1.104201447451633e+001
 3.411295815066716e+000	 2.011110710990247e+000	 1.100418131870406e+001
 3.389217005754840e+000	 2.048099829210576e+000	 1.096903358979761e+001
 3.366707116665132e+000	 2.084895055714759e+000	 1.094613011396447e+001
 3.343768545057394e+000	 2.121488985522725e+000	 1.093462462046535e+001
 3.320403855514564e+000	 2.157874249070071e+000	 1.093310748683891e+001
 3.296615779427529e+000	 2.194043516878546e+000	 1.093759396830711e+001
 3.272407214324911e+000	 2.229989504223994e+000	 1.094586198855001e+001
 3.247781223047381e+000	 2.265704975795809e+000	 1.095599374576761e+001
 3.222741032766358e+000	 2.301182750341904e+000	 1.096605134348765e+001
 3.477412956534195e+000	 1.949622206562376e+000	 1.104192096571887e+001
 3.456059990888607e+000	 1.987228334193261e+000	 1.102355991854973e+001
 3.434268722257934e+000	 2.024654262244012e+000	 1.098505905713022e+001
 3.412041226210740e+000	 2.061892478644770e+000	 1.095515352675268e+001
 3.389379747337627e+000	 2.098935497592009e+000	 1.093553843754265e+001
 3.366286699042418e+000	 2.135775864237826e+000	 1.092548175923841e+001
 3.342764663178889e+000	 2.172406159388485e+000	 1.092424709779256e+001
 3.318816389532113e+000	 2.208819004206358e+000	 1.093033024268635e+001
 3.294444795143723e+000	 2.245007064909298e+000	 1.093944348288779e+001
 3.269652963480678e+000	 2.280963057461482e+000	 1.094950697025713e+001
 3.244444143447349e+000	 2.316679752249656e+000	 1.095873433791671e+001
 3.500674469123442e+000	 1.962663844717872e+000	 1.102468202471786e+001
 3.479178666752395e+000	 2.000521531603535e+000	 1.099997001527421e+001
 3.457241629449238e+000	 2.038197813497221e+000	 1.096560783321343e+001
 3.434865446666673e+000	 2.075685128078454e+000	 1.094048221043529e+001
 3.412052378010083e+000	 2.112975939468804e+000	 1.092394056245228e+001
 3.388804853027324e+000	 2.150062742952529e+000	 1.091533514131044e+001
 3.365125470843007e+000	 2.186938069706559e+000	 1.091402288911925e+001
 3.341016999636398e+000	 2.223594491533885e+000	 1.091936479100639e+001
 3.316482375962149e+000	 2.260024625594372e+000	 1.092960588481667e+001
 3.291524703913511e+000	 2.296221139126977e+000	 1.094019190187248e+001
 3.266147254127807e+000	 2.332176754157270e+000	 1.094922940883119e+001
 3.523935981712723e+000	 1.975705482872835e+000	 1.100360170054013e+001
 3.502297342616207e+000	 2.013814729013301e+000	 1.097480532772568e+001
 3.480214536640536e+000	 2.051741364749952e+000	 1.094633689894250e+001
 3.457689667122557e+000	 2.089477777511701e+000	 1.092558490322669e+001
 3.434725008682438e+000	 2.127016381345206e+000	 1.091194368598818e+001
 3.411323007012064e+000	 2.164349621666887e+000	 1.090482032498728e+001
 3.387486278506896e+000	 2.201469980024336e+000	 1.090363450429570e+001
 3.363217609740386e+000	 2.238369978861166e+000	 1.090781784786695e+001
 3.338519956780215e+000	 2.275042186279247e+000	 1.091681269856948e+001
 3.313396444345926e+000	 2.311479220792314e+000	 1.092838465270411e+001
 3.287850364807801e+000	 2.347673756064768e+000	 1.093784433490950e+001
 3.547197494301936e+000	 1.988747121027364e+000	 1.097944710801584e+001
 3.525416018479945e+000	 2.027107926422647e+000	 1.095088381213911e+001
 3.503187443831741e+000	 2.065284916002287e+000	 1.092770996806000e+001
 3.480513887578316e+000	 2.103270426944581e+000	 1.091097984374748e+001
 3.457397639354630e+000	 2.141056823221275e+000	 1.090010690637655e+001
 3.433841160996598e+000	 2.178636500380949e+000	 1.089452408697292e+001
 3.409847086170532e+000	 2.216001890341861e+000	 1.089368372191603e+001
 3.385418219844079e+000	 2.253145466188234e+000	 1.089705691546304e+001
 3.360557537597944e+000	 2.290059746963950e+000	 1.090413230782315e+001
 3.335268184777967e+000	 2.326737302457518e+000	 1.091441423950697e+001
 3.309553475487395e+000	 2.363170757972164e+000	 1.092486445712947e+001
 3.570459006890980e+000	 2.001788759181559e+000	 1.095299304764358e+001
 3.548534694343512e+000	 2.040401123831664e+000	 1.092855757125559e+001
 3.526160351022761e+000	 2.078828467254305e+000	 1.091014597177088e+001
 3.503338108033874e+000	 2.117063076377164e+000	 1.089713907512289e+001
 3.480070270026597e+000	 2.155097265097074e+000	 1.088894210906958e+001
 3.456359314980884e+000	 2.192923379094772e+000	 1.088498535262760e+001
 3.432207893833895e+000	 2.230533800659177e+000	 1.088472419217156e+001
 3.407618829947475e+000	 2.267920953515127e+000	 1.088763856112423e+001
 3.382595118415355e+000	 2.305077307648510e+000	 1.089323174631063e+001
 3.357139925209682e+000	 2.341995384122610e+000	 1.090102855055139e+001
 3.331256586166656e+000	 2.378667759879475e+000	 1.091055358031360e+001
 3.593720519479760e+000	 2.014830397335523e+000	 1.092749770859679e+001
 3.571653370206811e+000	 2.053694321240442e+000	 1.090813642642394e+001
 3.549133258213510e+000	 2.092372018506088e+000	 1.089401981920296e+001
 3.526162328489153e+000	 2.130855725809522e+000	 1.088448927568778e+001
 3.502742900698278e+000	 2.169137706972663e+000	 1.087891485369068e+001
 3.478877468964877e+000	 2.207210257808406e+000	 1.087669612559063e+001
 3.454568701496962e+000	 2.245065710976327e+000	 1.087726239604762e+001
 3.429819440050576e+000	 2.282696440841880e+000	 1.088007226696670e+001
 3.404632699232478e+000	 2.320094868332957e+000	 1.088461253119395e+001
 3.379011665641112e+000	 2.357253465787613e+000	 1.089039638324019e+001
 3.352959696845650e+000	 2.394164761786719e+000	 1.089696094246167e+001
 3.616982032068172e+000	 2.027872035489355e+000	 1.090481232078191e+001
 3.594772046069744e+000	 2.066987518649074e+000	 1.088988860065127e+001
 3.572106165403897e+000	 2.105915569757717e+000	 1.087966316240567e+001
 3.548986548944076e+000	 2.144648375241726e+000	 1.087341259202160e+001
 3.525415531369613e+000	 2.183178148848105e+000	 1.087044526160053e+001
 3.501395622948538e+000	 2.221497136521904e+000	 1.087010241679614e+001
 3.476929509159713e+000	 2.259597621293357e+000	 1.087175860314782e+001
 3.452020050153380e+000	 2.297471928168530e+000	 1.087482140434096e+001
 3.426670280049329e+000	 2.335112429017319e+000	 1.087873047215011e+001
 3.400883406072305e+000	 2.372511547452548e+000	 1.088295583494904e+001
 3.374662807524445e+000	 2.409661763693914e+000	 1.088699547914030e+001
 3.640243544656117e+000	 2.040913673643154e+000	 1.088508940557342e+001
 3.617890721932214e+000	 2.080280716057648e+000	 1.087404140859212e+001
 3.595079072593832e+000	 2.119459121009271e+000	 1.086736516568402e+001
 3.571810769398565e+000	 2.158441024673847e+000	 1.086424747420903e+001
 3.548088162040541e+000	 2.197218590723461e+000	 1.086390890405644e+001
 3.523913776931821e+000	 2.235784015235318e+000	 1.086560517290968e+001
 3.499290316822126e+000	 2.274129531610310e+000	 1.086862782820776e+001
 3.474220660255889e+000	 2.312247415495113e+000	 1.087230420666027e+001
 3.448707860865933e+000	 2.350129989701623e+000	 1.087599664920497e+001
 3.422755146503306e+000	 2.387769629117440e+000	 1.087910095674872e+001
 3.396365918203102e+000	 2.425158765601074e+000	 1.088104407983880e+001
 3.663505057243499e+000	 2.053955311797023e+000	 1.086844314776526e+001
 3.641009397794123e+000	 2.093573913466255e+000	 1.086078195316834e+001
 3.618051979783225e+000	 2.133002672260832e+000	 1.085737327907522e+001
 3.594634989852544e+000	 2.172233674105955e+000	 1.085728951322722e+001
 3.570760792710999e+000	 2.211259032598792e+000	 1.085963769093846e+001
 3.546431930914687e+000	 2.250070893948702e+000	 1.086356120421039e+001
 3.521651124484179e+000	 2.288661441927230e+000	 1.086824078635614e+001
 3.496421270358106e+000	 2.327022902821665e+000	 1.087289474068268e+001
 3.470745441682316e+000	 2.365147550385902e+000	 1.087677838911280e+001
 3.444626886934158e+000	 2.403027710782309e+000	 1.087918272440770e+001
 3.418069028881693e+000	 2.440655767508218e+000	 1.087943225780382e+001
 3.201037922084772e+000	 2.285685748434004e+000	 1.097084930739510e+001
 3.175758318549517e+000	 2.320681431073920e+000	 1.097932716946960e+001
 3.150074195862331e+000	 2.355426926386116e+000	 1.098257032531122e+001
 3.123989236422097e+000	 2.389915285194917e+000	 1.098102991120224e+001
 3.097507280498922e+000	 2.424139630075088e+000	 1.097527116310496e+001
 3.070632324500330e+000	 2.458093159808781e+000	 1.096598065609866e+001
 3.043368519087291e+000	 2.491769153792504e+000	 1.095397314654598e+001
 3.015720167141756e+000	 2.525160976388238e+000	 1.094019794403287e+001
 2.987691721587631e+000	 2.558262081212876e+000	 1.092574474244029e+001
 2.959287783067377e+000	 2.591066015360246e+000	 1.091184884243057e+001
 2.930513097476696e+000	 2.623566423550066e+000	 1.089989570114608e+001
 3.222741032766358e+000	 2.301182750341904e+000	 1.096605134348765e+001
 3.197290032937910e+000	 2.336415704514344e+000	 1.097297356462252e+001
 3.171431771308376e+000	 2.371396775083201e+000	 1.097517548609200e+001
 3.145169955243394e+000	 2.406118965757234e+000	 1.097300289708591e+001
 3.118508451050198e+000	 2.440575352482112e+000	 1.096691145194638e+001
 3.091451282232049e+000	 2.474759087927573e+000	 1.095747450459503e+001
 3.064002627591507e+000	 2.508663405924287e+000	 1.094539054536919e+001
 3.036166819184162e+000	 2.542281625844456e+000	 1.093149016354871e+001
 3.007948340124858e+000	 2.575607156920352e+000	 1.091674246123743e+001
 2.979351822248521e+000	 2.608633502494952e+000	 1.090226084728559e+001
 2.950382043628141e+000	 2.641354264199035e+000	 1.088930814357476e+001
 3.244444143447349e+000	 2.316679752249656e+000	 1.095873433791671e+001
 3.218821747325636e+000	 2.352149977954659e+000	 1.096470773599325e+001
 3.192789346753698e+000	 2.387366623780209e+000	 1.096631965656749e+001
 3.166350674063928e+000	 2.422322646319497e+000	 1.096382177737997e+001
 3.139509621600685e+000	 2.457011074889095e+000	 1.095757188213692e+001
 3.112270239962972e+000	 2.491425016046331e+000	 1.094804228844174e+001
 3.084636736094925e+000	 2.525557658056029e+000	 1.093582787647321e+001
 3.056613471225788e+000	 2.559402275300625e+000	 1.092165363784054e+001
 3.028204958661326e+000	 2.592952232627757e+000	 1.090638166650386e+001
 2.999415861428939e+000	 2.626200989629562e+000	 1.089101751677163e+001
 2.970250989778902e+000	 2.659142104847870e+000	 1.087671585715628e+001
 3.266147254127807e+000	 2.332176754157270e+000	 1.094922940883119e+001
 3.240353461712776e+000	 2.367884251394873e+000	 1.095482894720890e+001
 3.214146922198397e+000	 2.403336472477147e+000	 1.095627702593638e+001
 3.187531392883817e+000	 2.438526326881711e+000	 1.095374206267355e+001
 3.160510792150514e+000	 2.473446797296040e+000	 1.094749529342687e+001
 3.133089197693234e+000	 2.508090944165058e+000	 1.093791979340449e+001
 3.105270844597697e+000	 2.542451910187743e+000	 1.092551909560328e+001
 3.077060123266782e+000	 2.576522924756755e+000	 1.091092532261350e+001
 3.048461577197192e+000	 2.610297308335112e+000	 1.089490674966615e+001
 3.019479900608787e+000	 2.643768476764097e+000	 1.087837472018324e+001
 2.990119935929130e+000	 2.676929945496605e+000	 1.086282098061511e+001
 3.287850364807801e+000	 2.347673756064768e+000	 1.093784433490950e+001
 3.261885176099419e+000	 2.383618524835003e+000	 1.094361465277638e+001
 3.235504497642578e+000	 2.419306321174022e+000	 1.094530132914021e+001
 3.208712111703173e+000	 2.454730007443882e+000	 1.094299999273809e+001
 3.181511962699815e+000	 2.489882519702957e+000	 1.093690627110242e+001
 3.153908155422980e+000	 2.524756872283762e+000	 1.092732540467119e+001
 3.125904953099966e+000	 2.559346162319434e+000	 1.091468145425125e+001
 3.097506775307298e+000	 2.593643574212859e+000	 1.089952601327782e+001
 3.068718195732605e+000	 2.627642384042430e+000	 1.088254633894202e+001
 3.039543939788214e+000	 2.661335963898584e+000	 1.086457281961033e+001
 3.009988882078974e+000	 2.694717786145272e+000	 1.084975129888807e+001
 3.309553475487395e+000	 2.363170757972164e+000	 1.092486445712947e+001
 3.283416890485646e+000	 2.399352798275059e+000	 1.093132138843470e+001
 3.256862073086340e+000	 2.435276169870848e+000	 1.093362673030800e+001
 3.229892830522119e+000	 2.470933688006018e+000	 1.093181341729994e+001
 3.202513133248716e+000	 2.506318242109850e+000	 1.092601202804348e+001
 3.174727113152346e+000	 2.541422800402450e+000	 1.091646099387111e+001
 3.146539061601881e+000	 2.576240414451112e+000	 1.090351639502801e+001
 3.117953427347487e+000	 2.610764223668948e+000	 1.088766125178173e+001
 3.088974814267724e+000	 2.644987459749731e+000	 1.086951422045098e+001
 3.059607978967379e+000	 2.678903451033047e+000	 1.085040467434902e+001
 3.029857828228584e+000	 2.712505626793908e+000	 1.083782394808766e+001
 3.331256586166656e+000	 2.378667759879475e+000	 1.091055358031360e+001
 3.304948604871547e+000	 2.415087071715054e+000	 1.091818566234879e+001
 3.278219648529785e+000	 2.451246018567628e+000	 1.092146870790120e+001
 3.251073549340771e+000	 2.487137368568124e+000	 1.092038267917243e+001
 3.223514303797350e+000	 2.522753964516725e+000	 1.091500328961111e+001
 3.195546070881469e+000	 2.558088728521126e+000	 1.090551280921415e+001
 3.167173170103585e+000	 2.593134666582783e+000	 1.089221045027731e+001
 3.138400079387502e+000	 2.627884873125036e+000	 1.087552223664534e+001
 3.109231432802700e+000	 2.662332535457032e+000	 1.085601026233740e+001
 3.079672018146432e+000	 2.696470938167512e+000	 1.083767745977140e+001
 3.049726774378111e+000	 2.730293467442543e+000	 1.082710374252480e+001
 3.352959696845650e+000	 2.394164761786719e+000	 1.089696094246167e+001
 3.326480319257204e+000	 2.430821345154998e+000	 1.090442484710757e+001
 3.299577223973019e+000	 2.467215867264375e+000	 1.090902494148146e+001
 3.272254268159244e+000	 2.503341049130208e+000	 1.090889149964095e+001
 3.244515474345840e+000	 2.539189686923587e+000	 1.090405518123661e+001
 3.216365028610494e+000	 2.574754656639799e+000	 1.089465236860876e+001
 3.187807278605230e+000	 2.610028918714459e+000	 1.088093614378261e+001
 3.158846731427493e+000	 2.645005522581133e+000	 1.086328673605090e+001
 3.129488051337689e+000	 2.679677611164347e+000	 1.084280821878290e+001
 3.099736057325528e+000	 2.714038425301999e+000	 1.082653914996772e+001
 3.069595720527704e+000	 2.748081308091211e+000	 1.081764372501632e+001
 3.374662807524445e+000	 2.409661763693914e+000	 1.088699547914030e+001
 3.348012033642701e+000	 2.446555618594907e+000	 1.089129982040078e+001
 3.320934799416141e+000	 2.483185715961096e+000	 1.089647620002886e+001
 3.293434986977655e+000	 2.519544729692277e+000	 1.089750786599899e+001
 3.265516644894319e+000	 2.555625409330442e+000	 1.089332811859030e+001
 3.237183986339556e+000	 2.591420584758473e+000	 1.088403735562454e+001
 3.208441387106961e+000	 2.626923170846145e+000	 1.086985289542901e+001
 3.179293383467613e+000	 2.662126172037250e+000	 1.085112000385135e+001
 3.149744669872843e+000	 2.697022686871697e+000	 1.083144319832053e+001
 3.119800096504819e+000	 2.731605912436534e+000	 1.081701445884886e+001
 3.089464666677513e+000	 2.765869148739946e+000	 1.080948537619791e+001
 3.396365918203102e+000	 2.425158765601074e+000	 1.088104407983880e+001
 3.369543748028126e+000	 2.462289892034790e+000	 1.088232088544491e+001
 3.342292374859253e+000	 2.499155564657801e+000	 1.088440044361529e+001
 3.314615705796120e+000	 2.535748410254336e+000	 1.088638492113953e+001
 3.286517815442918e+000	 2.572061131737296e+000	 1.088296870021505e+001
 3.258002944068795e+000	 2.608086512877155e+000	 1.087381251817243e+001
 3.229075495608925e+000	 2.643817422977850e+000	 1.085910792868732e+001
 3.199740035508015e+000	 2.679246821493403e+000	 1.083967204988973e+001
 3.170001288408318e+000	 2.714367762579098e+000	 1.082198418365859e+001
 3.139864135684460e+000	 2.749173399571143e+000	 1.080911718189068e+001
 3.109333612827688e+000	 2.783656989388781e+000	 1.080265882577599e+001
 3.418069028881693e+000	 2.440655767508218e+000	 1.087943225780382e+001
 3.391075462413564e+000	 2.478024165474663e+000	 1.087801235974687e+001
 3.363649950302459e+000	 2.515125413354499e+000	 1.087645337728181e+001
 3.335796424614757e+000	 2.551952090816394e+000	 1.087569478698626e+001
 3.307518985991763e+000	 2.588496854144156e+000	 1.087311060251467e+001
 3.278821901798352e+000	 2.624752440995851e+000	 1.086411056978121e+001
 3.249709604111268e+000	 2.660711675109584e+000	 1.084883718079498e+001
 3.220186687548849e+000	 2.696367470949601e+000	 1.083029099798421e+001
 3.190257906944267e+000	 2.731712838286569e+000	 1.081442160161621e+001
 3.159928174864604e+000	 2.766740886705849e+000	 1.080285041541475e+001
 3.129202558978380e+000	 2.801444830037749e+000	 1.079718306563239e+001
 2.930513097476696e+000	 2.623566423550066e+000	 1.089989570114608e+001
 2.901376951840289e+000	 2.655752247797149e+000	 1.088503688138171e+001
 2.871880086178356e+000	 2.687622242784177e+000	 1.086307058053579e+001
 2.842027666154427e+000	 2.719170375440287e+000	 1.084047943531466e+001
 2.811824991326779e+000	 2.750390726063579e+000	 1.081775374844524e+001
 2.781277492018158e+000	 2.781277492018158e+000	 1.079483795970598e+001
 2.750390726063578e+000	 2.811824991326778e+000	 1.077165751431794e+001
 2.719170375440287e+000	 2.842027666154426e+000	 1.074810581697023e+001
 2.687622242784177e+000	 2.871880086178356e+000	 1.072403135061301e+001
 2.655752247797149e+000	 2.901376951840288e+000	 1.069954383728322e+001
 2.623566423550066e+000	 2.930513097476694e+000	 1.067813518353006e+001
 2.950382043628141e+000	 2.641354264199035e+000	 1.088930814357476e+001
 2.921048354254667e+000	 2.673758309074019e+000	 1.087297531400754e+001
 2.891351499165647e+000	 2.705844383359315e+000	 1.085319247797141e+001
 2.861296679047927e+000	 2.737606413079703e+000	 1.083276384403157e+001
 2.830889229390904e+000	 2.769038438397574e+000	 1.081174243723697e+001
 2.800134617335034e+000	 2.800134617335034e+000	 1.079017615477549e+001
 2.769038438397575e+000	 2.830889229390904e+000	 1.076809389588499e+001
 2.737606413079704e+000	 2.861296679047927e+000	 1.074549173181728e+001
 2.705844383359315e+000	 2.891351499165647e+000	 1.072231924508235e+001
 2.673758309074018e+000	 2.921048354254666e+000	 1.069846616650585e+001
 2.641354264199035e+000	 2.950382043628141e+000	 1.067534612903092e+001
 2.970250989778902e+000	 2.659142104847870e+000	 1.087671585715628e+001
 2.940719756668409e+000	 2.691764370350712e+000	 1.086083921189548e+001
 2.910822912152358e+000	 2.724066523934227e+000	 1.084341534137144e+001
 2.880565691940904e+000	 2.756042450718837e+000	 1.082482325853478e+001
 2.849953467454567e+000	 2.787686150731229e+000	 1.080521187067561e+001
 2.818991742651509e+000	 2.818991742651508e+000	 1.078472575192208e+001
 2.787686150731230e+000	 2.849953467454566e+000	 1.076349047616748e+001
 2.756042450718838e+000	 2.880565691940904e+000	 1.074159798840440e+001
 2.724066523934227e+000	 2.910822912152358e+000	 1.071909214987520e+001
 2.691764370350712e+000	 2.940719756668409e+000	 1.069595459174288e+001
 2.659142104847869e+000	 2.970250989778902e+000	 1.067223001391686e+001
 2.990119935929130e+000	 2.676929945496605e+000	 1.086282098061511e+001
 2.960391159081659e+000	 2.709770431627274e+000	 1.084929062045707e+001
 2.930294325138621e+000	 2.742288664508966e+000	 1.083388207939681e+001
 2.899834704833481e+000	 2.774478488357760e+000	 1.081682169090307e+001
 2.869017705517879e+000	 2.806333863064627e+000	 1.079834764128533e+001
 2.837848867967678e+000	 2.837848867967678e+000	 1.077869459490109e+001
 2.806333863064627e+000	 2.869017705517878e+000	 1.075807821466330e+001
 2.774478488357759e+000	 2.899834704833481e+000	 1.073667971913768e+001
 2.742288664508966e+000	 2.930294325138621e+000	 1.071463061801416e+001
 2.709770431627273e+000	 2.960391159081659e+000	 1.069199776702158e+001
 2.676929945496605e+000	 2.990119935929130e+000	 1.066876888143175e+001
 3.009988882078974e+000	 2.694717786145272e+000	 1.084975129888807e+001
 2.980062561494562e+000	 2.727776492903745e+000	 1.083843877945201e+001
 2.949765738124572e+000	 2.760510805083593e+000	 1.082472228385871e+001
 2.919103717725782e+000	 2.792914525996539e+000	 1.080890936411741e+001
 2.888081943580947e+000	 2.824981575397850e+000	 1.079132107423167e+001
 2.856705993283643e+000	 2.856705993283643e+000	 1.077227577503308e+001
 2.824981575397851e+000	 2.888081943580947e+000	 1.075207282578578e+001
 2.792914525996538e+000	 2.919103717725782e+000	 1.073097631038393e+001
 2.760510805083593e+000	 2.949765738124572e+000	 1.070919894650248e+001
 2.727776492903746e+000	 2.980062561494562e+000	 1.068688632533508e+001
 2.694717786145272e+000	 3.009988882078973e+000	 1.066410162756864e+001
 3.029857828228584e+000	 2.712505626793908e+000	 1.083782394808766e+001
 2.999733963907260e+000	 2.745782554180174e+000	 1.082838027872769e+001
 2.969237151110346e+000	 2.778732945658162e+000	 1.081605242592875e+001
 2.938372730617930e+000	 2.811350563635247e+000	 1.080122290427971e+001
 2.907146181643887e+000	 2.843629287730986e+000	 1.078428941536484e+001
 2.875563118599497e+000	 2.875563118599497e+000	 1.076564781506680e+001
 2.843629287730986e+000	 2.907146181643888e+000	 1.074567495871990e+001
 2.811350563635246e+000	 2.938372730617930e+000	 1.072471157867322e+001
 2.778732945658162e+000	 2.969237151110347e+000	 1.070304534940513e+001
 2.745782554180173e+000	 2.999733963907259e+000	 1.068089429459538e+001
 2.712505626793908e+000	 3.029857828228585e+000	 1.065839068851313e+001
 3.049726774378111e+000	 2.730293467442543e+000	 1.082710374252480e+001
 3.019405366319895e+000	 2.763788615456600e+000	 1.081919925977168e+001
 2.988708564096076e+000	 2.796955086232729e+000	 1.080797605355250e+001
 2.957641743510049e+000	 2.829786601273951e+000	 1.079388553352653e+001
 2.926210419706810e+000	 2.862277000064116e+000	 1.077739601944540e+001
 2.894420243915343e+000	 2.894420243915343e+000	 1.075897485270169e+001
 2.862277000064116e+000	 2.926210419706810e+000	 1.073907037640145e+001
 2.829786601273951e+000	 2.957641743510049e+000	 1.071809394546851e+001
 2.796955086232729e+000	 2.988708564096076e+000	 1.069640212891664e+001
 2.763788615456600e+000	 3.019405366319896e+000	 1.067427926568133e+001
 2.730293467442543e+000	 3.049726774378111e+000	 1.065192053329023e+001
 3.069595720527704e+000	 2.748081308091211e+000	 1.081764372501632e+001
 3.039076768732614e+000	 2.781794676733072e+000	 1.081096761889841e+001
 3.008179977081899e+000	 2.815177226807353e+000	 1.080058399001222e+001
 2.976910756402264e+000	 2.848222638912723e+000	 1.078700726360643e+001
 2.945274657769825e+000	 2.880924712397324e+000	 1.077077053854337e+001
 2.913277369231275e+000	 2.913277369231274e+000	 1.075240682378547e+001
 2.880924712397324e+000	 2.945274657769825e+000	 1.073243013365864e+001
 2.848222638912722e+000	 2.976910756402263e+000	 1.071131661056681e+001
 2.815177226807354e+000	 3.008179977081899e+000	 1.068948584450715e+001
 2.781794676733072e+000	 3.039076768732615e+000	 1.066728255798342e+001
 2.748081308091210e+000	 3.069595720527704e+000	 1.064495882273684e+001
 3.089464666677513e+000	 2.765869148739946e+000	 1.080948537619791e+001
 3.058748171145560e+000	 2.799800738009633e+000	 1.080374521199743e+001
 3.027651390067949e+000	 2.833399367382091e+000	 1.079395453358664e+001
 2.996179769294696e+000	 2.866658676551633e+000	 1.078068509009096e+001
 2.964338895833045e+000	 2.899572424730694e+000	 1.076452911060362e+001
 2.932134494547392e+000	 2.932134494547392e+000	 1.074607964520126e+001
 2.899572424730695e+000	 2.964338895833045e+000	 1.072591075455397e+001
 2.866658676551633e+000	 2.996179769294697e+000	 1.070455772419399e+001
 2.833399367382091e+000	 3.027651390067948e+000	 1.068249748023301e+001
 2.799800738009632e+000	 3.058748171145560e+000	 1.066012938255817e+001
 2.765869148739947e+000	 3.089464666677513e+000	 1.063775656929166e+001
 3.109333612827688e+000	 2.783656989388781e+000	 1.080265882577599e+001
 3.078419573558874e+000	 2.817806799286326e+000	 1.079758006077276e+001
 3.047122803054358e+000	 2.851621507956997e+000	 1.078815365825931e+001
 3.015448782187471e+000	 2.885094714190751e+000	 1.077500318719124e+001
 2.983403133896581e+000	 2.918220137064311e+000	 1.075877454816965e+001
 2.950991619863794e+000	 2.950991619863793e+000	 1.074011539745832e+001
 2.918220137064311e+000	 2.983403133896581e+000	 1.071965440896216e+001
 2.885094714190750e+000	 3.015448782187472e+000	 1.069798055785117e+001
 2.851621507956998e+000	 3.047122803054358e+000	 1.067562261029424e+001
 2.817806799286325e+000	 3.078419573558874e+000	 1.065302900299919e+001
 2.783656989388781e+000	 3.109333612827688e+000	 1.063054829394226e+001
 3.129202558978380e+000	 2.801444830037749e+000	 1.079718306563239e+001
 3.098090975972703e+000	 2.835812860563197e+000	 1.079250856040727e+001
 3.066594216041264e+000	 2.869843648532129e+000	 1.078323521542805e+001
 3.034717795080713e+000	 2.903530751830148e+000	 1.077003310315267e+001
 3.002467371960544e+000	 2.936867849398260e+000	 1.075359652725885e+001
 2.969848745180577e+000	 2.969848745180577e+000	 1.073462250699939e+001
 2.936867849398259e+000	 3.002467371960544e+000	 1.071378908841799e+001
 2.903530751830149e+000	 3.034717795080715e+000	 1.069173367396855e+001
 2.869843648532129e+000	 3.066594216041264e+000	 1.066903156291655e+001
 2.835812860563195e+000	 3.098090975972702e+000	 1.064617489412636e+001
 2.801444830037748e+000	 3.129202558978380e+000	 1.062355218045553e+001
 2.623566423550066e+000	 2.930513097476694e+000	 1.067813518353006e+001
 2.591066015360247e+000	 2.959287783067377e+000	 1.065538922662760e+001
 2.558262081212877e+000	 2.987691721587632e+000	 1.062737370862781e+001
 2.525160976388239e+000	 3.015720167141756e+000	 1.059555880668277e+001
 2.491769153792504e+000	 3.043368519087291e+000	 1.056125301478896e+001
 2.458093159808781e+000	 3.070632324500330e+000	 1.052561657350716e+001
 2.424139630075088e+000	 3.097507280498923e+000	 1.048967579586972e+001
 2.389915285194917e+000	 3.123989236422097e+000	 1.045433813253403e+001
 2.355426926386115e+000	 3.150074195862330e+000	 1.042040781508205e+001
 2.320681431073919e+000	 3.175758318549517e+000	 1.038860191360363e+001
 2.285685748434003e+000	 3.201037922084772e+000	 1.035956664334690e+001
 2.641354264199035e+000	 2.950382043628141e+000	 1.067534612903092e+001
 2.608633502494953e+000	 2.979351822248522e+000	 1.065133230641465e+001
 2.575607156920352e+000	 3.007948340124857e+000	 1.062270227317073e+001
 2.542281625844456e+000	 3.036166819184163e+000	 1.059080751155832e+001
 2.508663405924287e+000	 3.064002627591506e+000	 1.055683341152266e+001
 2.474759087927574e+000	 3.091451282232050e+000	 1.052181374750400e+001
 2.440575352482112e+000	 3.118508451050198e+000	 1.048664608566128e+001
 2.406118965757234e+000	 3.145169955243393e+000	 1.045210795662555e+001
 2.371396775083201e+000	 3.171431771308376e+000	 1.041887362456364e+001
 2.336415704514343e+000	 3.197290032937910e+000	 1.038753128045817e+001
 2.301182750341905e+000	 3.222741032766358e+000	 1.035860048610655e+001
 2.659142104847869e+000	 2.970250989778902e+000	 1.067223001391686e+001
 2.626200989629562e+000	 2.999415861428939e+000	 1.064672228657027e+001
 2.592952232627758e+000	 3.028204958661326e+000	 1.061728616022048e+001
 2.559402275300624e+000	 3.056613471225787e+000	 1.058516151383007e+001
 2.525557658056029e+000	 3.084636736094926e+000	 1.055141714943587e+001
 2.491425016046331e+000	 3.112270239962971e+000	 1.051696634129755e+001
 2.457011074889095e+000	 3.139509621600685e+000	 1.048258335190149e+001
 2.422322646319498e+000	 3.166350674063928e+000	 1.044892074172982e+001
 2.387366623780208e+000	 3.192789346753697e+000	 1.041652729518600e+001
 2.352149977954658e+000	 3.218821747325635e+000	 1.038586638207332e+001
 2.316679752249655e+000	 3.244444143447348e+000	 1.035733457256481e+001
 2.676929945496605e+000	 2.990119935929130e+000	 1.066876888143175e+001
 2.643768476764097e+000	 3.019479900608787e+000	 1.064180797138857e+001
 2.610297308335112e+000	 3.048461577197192e+000	 1.061138898392016e+001
 2.576522924756755e+000	 3.077060123266782e+000	 1.057889647396159e+001
 2.542451910187743e+000	 3.105270844597697e+000	 1.054528883135286e+001
 2.508090944165058e+000	 3.133089197693234e+000	 1.051136444953471e+001
 2.473446797296041e+000	 3.160510792150513e+000	 1.047777937926176e+001
 2.438526326881711e+000	 3.187531392883816e+000	 1.044506580630827e+001
 2.403336472477147e+000	 3.214146922198397e+000	 1.041365116688902e+001
 2.367884251394874e+000	 3.240353461712777e+000	 1.038387771139674e+001
 2.332176754157270e+000	 3.266147254127807e+000	 1.035602232553888e+001
 2.694717786145272e+000	 3.009988882078973e+000	 1.066410162756864e+001
 2.661335963898585e+000	 3.039543939788214e+000	 1.063683238357848e+001
 2.627642384042430e+000	 3.068718195732604e+000	 1.060526913205635e+001
 2.593643574212858e+000	 3.097506775307298e+000	 1.057228355786296e+001
 2.559346162319434e+000	 3.125904953099965e+000	 1.053872947322678e+001
 2.524756872283762e+000	 3.153908155422980e+000	 1.050529566245970e+001
 2.489882519702958e+000	 3.181511962699814e+000	 1.047252470379702e+001
 2.454730007443883e+000	 3.208712111703173e+000	 1.044083264748975e+001
 2.419306321174022e+000	 3.235504497642577e+000	 1.041052935491616e+001
 2.383618524835003e+000	 3.261885176099418e+000	 1.038183930022309e+001
 2.347673756064768e+000	 3.287850364807801e+000	 1.035492263442458e+001
 2.712505626793908e+000	 3.029857828228585e+000	 1.065839068851313e+001
 2.678903451033047e+000	 3.059607978967379e+000	 1.063170950978748e+001
 2.644987459749730e+000	 3.088974814267723e+000	 1.059917813621332e+001
 2.610764223668948e+000	 3.117953427347487e+000	 1.056558784023107e+001
 2.576240414451112e+000	 3.146539061601881e+000	 1.053201493884677e+001
 2.541422800402450e+000	 3.174727113152346e+000	 1.049904352995270e+001
 2.506318242109850e+000	 3.202513133248717e+000	 1.046710710406452e+001
 2.470933688006018e+000	 3.229892830522120e+000	 1.043650945680359e+001
 2.435276169870846e+000	 3.256862073086340e+000	 1.040744628748125e+001
 2.399352798275060e+000	 3.283416890485647e+000	 1.038002727590056e+001
 2.363170757972164e+000	 3.309553475487395e+000	 1.035429842783895e+001
 2.730293467442543e+000	 3.049726774378111e+000	 1.065192053329023e+001
 2.696470938167511e+000	 3.079672018146433e+000	 1.062575568088695e+001
 2.662332535457031e+000	 3.109231432802700e+000	 1.059335903758381e+001
 2.627884873125035e+000	 3.138400079387501e+000	 1.055906670319720e+001
 2.593134666582783e+000	 3.167173170103586e+000	 1.052541436963797e+001
 2.558088728521126e+000	 3.195546070881469e+000	 1.049288602058766e+001
 2.522753964516725e+000	 3.223514303797348e+000	 1.046181008733436e+001
 2.487137368568124e+000	 3.251073549340771e+000	 1.043238163122764e+001
 2.451246018567628e+000	 3.278219648529786e+000	 1.040468523913002e+001
 2.415087071715054e+000	 3.304948604871548e+000	 1.037871841427468e+001
 2.378667759879475e+000	 3.331256586166656e+000	 1.035441524320827e+001
 2.748081308091210e+000	 3.069595720527704e+000	 1.064495882273684e+001
 2.714038425301999e+000	 3.099736057325528e+000	 1.061920109495748e+001
 2.679677611164348e+000	 3.129488051337687e+000	 1.058771939824590e+001
 2.645005522581133e+000	 3.158846731427493e+000	 1.055296823049457e+001
 2.610028918714459e+000	 3.187807278605231e+000	 1.051918860977703e+001
 2.574754656639798e+000	 3.216365028610493e+000	 1.048709397593495e+001
 2.539189686923587e+000	 3.244515474345840e+000	 1.045691137111379e+001
 2.503341049130209e+000	 3.272254268159244e+000	 1.042873027976362e+001
 2.467215867264374e+000	 3.299577223973019e+000	 1.040252685999238e+001
 2.430821345154999e+000	 3.326480319257203e+000	 1.037818868903984e+001
 2.394164761786720e+000	 3.352959696845651e+000	 1.035446242849158e+001
 2.765869148739947e+000	 3.089464666677513e+000	 1.063775656929166e+001
 2.731605912436535e+000	 3.119800096504819e+000	 1.061232226235044e+001
 2.697022686871698e+000	 3.149744669872843e+000	 1.058171923366437e+001
 2.662126172037251e+000	 3.179293383467614e+000	 1.054752959734753e+001
 2.626923170846145e+000	 3.208441387106961e+000	 1.051358862683380e+001
 2.591420584758473e+000	 3.237183986339555e+000	 1.048192956032307e+001
 2.555625409330443e+000	 3.265516644894320e+000	 1.045268136019622e+001
 2.519544729692277e+000	 3.293434986977655e+000	 1.042583072574134e+001
 2.483185715961096e+000	 3.320934799416142e+000	 1.040124770110976e+001
 2.446555618594906e+000	 3.348012033642701e+000	 1.037799526734285e+001
 2.409661763693914e+000	 3.374662807524445e+000	 1.035287696440173e+001
 2.783656989388781e+000	 3.109333612827688e+000	 1.063054829394226e+001
 2.749173399571143e+000	 3.139864135684460e+000	 1.060537870416354e+001
 2.714367762579100e+000	 3.170001288408317e+000	 1.057560310524030e+001
 2.679246821493404e+000	 3.199740035508015e+000	 1.054270744460285e+001
 2.643817422977850e+000	 3.229075495608925e+000	 1.050885392813937e+001
 2.608086512877154e+000	 3.258002944068795e+000	 1.047764470626245e+001
 2.572061131737296e+000	 3.286517815442916e+000	 1.044938161943527e+001
 2.535748410254337e+000	 3.314615705796119e+000	 1.042395100504246e+001
 2.499155564657801e+000	 3.342292374859254e+000	 1.040081143992000e+001
 2.462289892034790e+000	 3.369543748028127e+000	 1.037599696769071e+001
 2.425158765601074e+000	 3.396365918203103e+000	 1.034944492757005e+001
 2.801444830037748e+000	 3.129202558978380e+000	 1.062355218045553e+001
 2.766740886705849e+000	 3.159928174864604e+000	 1.059861310123141e+001
 2.731712838286569e+000	 3.190257906944266e+000	 1.056963601456962e+001
 2.696367470949601e+000	 3.220186687548849e+000	 1.053805466882960e+001
 2.660711675109584e+000	 3.249709604111268e+000	 1.050521097307056e+001
 2.624752440995853e+000	 3.278821901798352e+000	 1.047447955572409e+001
 2.588496854144156e+000	 3.307518985991762e+000	 1.044726334243402e+001
 2.551952090816394e+000	 3.335796424614757e+000	 1.042332386941260e+001
 2.515125413354498e+000	 3.363649950302459e+000	 1.039876524230959e+001
 2.478024165474663e+000	 3.391075462413564e+000	 1.037187783676647e+001
 2.440655767508217e+000	 3.418069028881693e+000	 1.034398298473859e+001
 2.285685748434003e+000	 3.201037922084772e+000	 1.035956664334690e+001
 2.250446894129934e+000	 3.225909482613576e+000	 1.033420523954298e+001
 2.214971943538431e+000	 3.250369633505693e+000	 1.031087421341374e+001
 2.179268029550415e+000	 3.274415169322649e+000	 1.028637155223938e+001
 2.143342338751272e+000	 3.298043047850051e+000	 1.025753278422789e+001
 2.107202106807173e+000	 3.321250391072290e+000	 1.022125205381772e+001
 2.070854613836993e+000	 3.344034485992657e+000	 1.017461115381159e+001
 2.034307179775804e+000	 3.366392785299043e+000	 1.011583970463329e+001
 1.997567159735842e+000	 3.388322907875671e+000	 1.004340640411150e+001
 1.960641939370820e+000	 3.409822639161488e+000	 9.972927143217296e+000
 1.923538930249378e+000	 3.430889931356199e+000	 9.915408808781770e+000
 2.301182750341905e+000	 3.222741032766358e+000	 1.035860048610655e+001
 2.265704975795809e+000	 3.247781223047380e+000	 1.033302261243128e+001
 2.229989504223994e+000	 3.272407214324913e+000	 1.030939276522885e+001
 2.194043516878546e+000	 3.296615779427530e+000	 1.028468359571936e+001
 2.157874249070071e+000	 3.320403855514564e+000	 1.025590351962409e+001
 2.121488985522725e+000	 3.343768545057394e+000	 1.022015497420396e+001
 2.084895055714760e+000	 3.366707116665132e+000	 1.017530755931478e+001
 2.048099829210577e+000	 3.389217005754840e+000	 1.011984192951014e+001
 2.011110710990247e+000	 3.411295815066718e+000	 1.005225607336589e+001
 1.973935136782386e+000	 3.432941315024939e+000	 9.978494334972304e+000
 1.936580568406245e+000	 3.454151443945082e+000	 9.918039781983204e+000
 2.316679752249655e+000	 3.244444143447348e+000	 1.035733457256481e+001
 2.280963057461482e+000	 3.269652963480678e+000	 1.033186630355367e+001
 2.245007064909297e+000	 3.294444795143722e+000	 1.030822880432860e+001
 2.208819004206357e+000	 3.318816389532113e+000	 1.028354113024858e+001
 2.172406159388486e+000	 3.342764663178889e+000	 1.025493223241549e+001
 2.135775864237826e+000	 3.366286699042419e+000	 1.021983703486285e+001
 2.098935497592009e+000	 3.389379747337628e+000	 1.017676249743722e+001
 2.061892478644770e+000	 3.412041226210741e+000	 1.012435893563924e+001
 2.024654262244012e+000	 3.434268722257935e+000	 1.006127546661046e+001
 1.987228334193261e+000	 3.456059990888608e+000	 9.987891384279873e+000
 1.949622206562376e+000	 3.477412956534195e+000	 9.924113551753576e+000
 2.332176754157270e+000	 3.266147254127807e+000	 1.035602232553888e+001
 2.296221139126976e+000	 3.291524703913511e+000	 1.033097246642084e+001
 2.260024625594372e+000	 3.316482375962150e+000	 1.030760646150064e+001
 2.223594491533885e+000	 3.341016999636398e+000	 1.028310931177163e+001
 2.186938069706560e+000	 3.365125470843009e+000	 1.025443305993957e+001
 2.150062742952529e+000	 3.388804853027323e+000	 1.022000666741063e+001
 2.112975939468804e+000	 3.412052378010083e+000	 1.017861848596998e+001
 2.075685128078455e+000	 3.434865446666672e+000	 1.012905174580875e+001
 2.038197813497221e+000	 3.457241629449239e+000	 1.007008388500561e+001
 2.000521531603536e+000	 3.479178666752396e+000	 1.000048628355206e+001
 1.962663844717872e+000	 3.500674469123442e+000	 9.933070493930996e+000
 2.347673756064768e+000	 3.287850364807801e+000	 1.035492263442458e+001
 2.311479220792314e+000	 3.313396444345925e+000	 1.033058466814206e+001
 2.275042186279247e+000	 3.338519956780215e+000	 1.030771888662205e+001
 2.238369978861165e+000	 3.363217609740386e+000	 1.028281363223753e+001
 2.201469980024336e+000	 3.387486278506896e+000	 1.025404396369766e+001
 2.164349621666887e+000	 3.411323007012064e+000	 1.022031950169947e+001
 2.127016381345206e+000	 3.434725008682438e+000	 1.018054224404165e+001
 2.089477777511701e+000	 3.457689667122556e+000	 1.013360527941886e+001
 2.051741364749952e+000	 3.480214536640536e+000	 1.007839193626190e+001
 2.013814729013301e+000	 3.502297342616207e+000	 1.001377536659516e+001
 1.975705482872835e+000	 3.523935981712723e+000	 9.944358453471793e+000
 2.363170757972164e+000	 3.309553475487395e+000	 1.035429842783895e+001
 2.326737302457517e+000	 3.335268184777968e+000	 1.033094452092566e+001
 2.290059746963950e+000	 3.360557537597944e+000	 1.030769211122379e+001
 2.253145466188234e+000	 3.385418219844079e+000	 1.028218666899543e+001
 2.216001890341861e+000	 3.409847086170533e+000	 1.025343996684103e+001
 2.178636500380949e+000	 3.433841160996598e+000	 1.022045504573446e+001
 2.141056823221275e+000	 3.457397639354630e+000	 1.018222429193771e+001
 2.103270426944581e+000	 3.480513887578316e+000	 1.013772797393684e+001
 2.065284916002286e+000	 3.503187443831742e+000	 1.008593324460534e+001
 2.027107926422647e+000	 3.525416018479945e+000	 1.002579360846598e+001
 1.988747121027364e+000	 3.547197494301935e+000	 9.957435445074109e+000
 2.378667759879475e+000	 3.331256586166656e+000	 1.035441524320827e+001
 2.341995384122610e+000	 3.357139925209682e+000	 1.033105894093548e+001
 2.305077307648510e+000	 3.382595118415356e+000	 1.030686934623156e+001
 2.267920953515127e+000	 3.407618829947475e+000	 1.028092814090396e+001
 2.230533800659176e+000	 3.432207893833895e+000	 1.025231943245263e+001
 2.192923379094772e+000	 3.456359314980883e+000	 1.022011627003949e+001
 2.155097265097074e+000	 3.480070270026597e+000	 1.018337854869467e+001
 2.117063076377164e+000	 3.503338108033873e+000	 1.014115140337058e+001
 2.078828467254304e+000	 3.526160351022762e+000	 1.009246409814149e+001
 2.040401123831664e+000	 3.548534694343511e+000	 1.003632941024482e+001
 2.001788759181560e+000	 3.570459006890981e+000	 9.971743503206945e+000
 2.394164761786720e+000	 3.352959696845651e+000	 1.035446242849158e+001
 2.357253465787613e+000	 3.379011665641112e+000	 1.032992778169775e+001
 2.320094868332957e+000	 3.404632699232478e+000	 1.030497940890451e+001
 2.282696440841880e+000	 3.429819440050575e+000	 1.027876038782377e+001
 2.245065710976327e+000	 3.454568701496963e+000	 1.025040364049234e+001
 2.207210257808406e+000	 3.478877468964878e+000	 1.021902919035219e+001
 2.169137706972663e+000	 3.502742900698278e+000	 1.018374192757069e+001
 2.130855725809523e+000	 3.526162328489153e+000	 1.014362989389612e+001
 2.092372018506088e+000	 3.549133258213510e+000	 1.009776309236773e+001
 2.053694321240442e+000	 3.571653370206810e+000	 1.004519282132583e+001
 2.014830397335523e+000	 3.593720519479760e+000	 9.984951526450098e+000
 2.409661763693914e+000	 3.374662807524445e+000	 1.035287696440173e+001
 2.372511547452549e+000	 3.400883406072305e+000	 1.032731253544152e+001
 2.335112429017319e+000	 3.426670280049329e+000	 1.030177286928194e+001
 2.297471928168530e+000	 3.452020050153380e+000	 1.027542794702866e+001
 2.259597621293357e+000	 3.476929509159713e+000	 1.024743636333695e+001
 2.221497136521904e+000	 3.501395622948537e+000	 1.021694244872382e+001
 2.183178148848105e+000	 3.525415531369613e+000	 1.018307392948773e+001
 2.144648375241727e+000	 3.548986548944076e+000	 1.014494013676703e+001
 2.105915569757716e+000	 3.572106165403896e+000	 1.010163077000719e+001
 2.066987518649074e+000	 3.594772046069743e+000	 1.005221521395527e+001
 2.027872035489354e+000	 3.616982032068171e+000	 9.995742402313914e+000
 2.425158765601074e+000	 3.396365918203103e+000	 1.034944492757005e+001
 2.387769629117440e+000	 3.422755146503306e+000	 1.032299545836215e+001
 2.350129989701624e+000	 3.448707860865934e+000	 1.029702163191533e+001
 2.312247415495113e+000	 3.474220660255889e+000	 1.027069712823738e+001
 2.274129531610309e+000	 3.499290316822126e+000	 1.024318343997764e+001
 2.235784015235318e+000	 3.523913776931821e+000	 1.021362689309495e+001
 2.197218590723461e+000	 3.548088162040541e+000	 1.018115623453616e+001
 2.158441024673848e+000	 3.571810769398565e+000	 1.014488079862747e+001
 2.119459121009271e+000	 3.595079072593830e+000	 1.010388925732898e+001
 2.080280716057648e+000	 3.617890721932214e+000	 1.005724895306767e+001
 2.040913673643154e+000	 3.640243544656117e+000	 1.000400580660158e+001
 2.440655767508217e+000	 3.418069028881693e+000	 1.034398298473859e+001
 2.403027710782309e+000	 3.444626886934158e+000	 1.031677916260260e+001
 2.365147550385903e+000	 3.470745441682317e+000	 1.029051851605162e+001
 2.327022902821665e+000	 3.496421270358104e+000	 1.026435558732756e+001
 2.288661441927230e+000	 3.521651124484178e+000	 1.023743234893460e+001
 2.250070893948702e+000	 3.546431930914687e+000	 1.020887515541491e+001
 2.211259032598793e+000	 3.570760792711000e+000	 1.017779229162800e+001
 2.172233674105955e+000	 3.594634989852545e+000	 1.014327212934400e+001
 2.133002672260832e+000	 3.618051979783225e+000	 1.010438189711084e+001
 2.093573913466255e+000	 3.641009397794124e+000	 1.006016706162854e+001
 2.053955311797024e+000	 3.663505057243499e+000	 1.000965131232272e+001
 1.923538930249378e+000	 3.430889931356199e+000	 9.915408808781770e+000
 1.886271168719185e+000	 3.451519841804724e+000	 9.868739683214853e+000
 1.848840550700881e+000	 3.471713851746570e+000	 9.831192166938848e+000
 1.811254536557092e+000	 3.491470416868223e+000	 9.800721404965264e+000
 1.773520594178441e+000	 3.510788158857956e+000	 9.775335925915535e+000
 1.735646194488917e+000	 3.529665864868950e+000	 9.753098095609818e+000
 1.697638806993271e+000	 3.548102486840682e+000	 9.732124500643508e+000
 1.659505895371513e+000	 3.566097140681105e+000	 9.710586344995328e+000
 1.621254913125377e+000	 3.583649105312324e+000	 9.686709935531923e+000
 1.582893299281493e+000	 3.600757821582674e+000	 9.658777324413565e+000
 1.544428474155829e+000	 3.617422891048259e+000	 9.625127167971790e+000
 1.936580568406245e+000	 3.454151443945082e+000	 9.918039781983204e+000
 1.899060130596229e+000	 3.474921225660750e+000	 9.870080270247616e+000
 1.861375732127374e+000	 3.495252151454281e+000	 9.832541287897861e+000
 1.823534883943736e+000	 3.515142666541675e+000	 9.803064704574940e+000
 1.785545104568417e+000	 3.534591383266208e+000	 9.779353999483972e+000
 1.747413915578442e+000	 3.553597080557927e+000	 9.759174674575940e+000
 1.709148837121985e+000	 3.572158703250428e+000	 9.740354603405887e+000
 1.670757383482980e+000	 3.590275361257489e+000	 9.720784403835932e+000
 1.632247058698082e+000	 3.607946328612285e+000	 9.698417915137428e+000
 1.593625352230694e+000	 3.625171042372080e+000	 9.671272851713606e+000
 1.554899734706702e+000	 3.641949101391516e+000	 9.637431696730948e+000
 1.949622206562376e+000	 3.477412956534195e+000	 9.924113551753576e+000
 1.911849092472506e+000	 3.498322609516991e+000	 9.874296265116943e+000
 1.873910913553071e+000	 3.518790451162160e+000	 9.836104726612179e+000
 1.835815231329566e+000	 3.538814916215224e+000	 9.806906246068618e+000
 1.797569614957565e+000	 3.558394607674471e+000	 9.784137649695602e+000
 1.759181636667133e+000	 3.577528296246814e+000	 9.765305555840666e+000
 1.720658867249861e+000	 3.596214919659974e+000	 9.747986595277965e+000
 1.682008871593610e+000	 3.614453581833564e+000	 9.729827669690865e+000
 1.643239204269950e+000	 3.632243551911827e+000	 9.708546333935303e+000
 1.604357405179059e+000	 3.649584263160969e+000	 9.681931378834713e+000
 1.565370995256741e+000	 3.666475311734168e+000	 9.647843681794923e+000
 1.962663844717872e+000	 3.500674469123442e+000	 9.933070493930996e+000
 1.924638054348121e+000	 3.521723993373348e+000	 9.880901180042661e+000
 1.886446094978093e+000	 3.542328750870120e+000	 9.841467198054124e+000
 1.848095578714712e+000	 3.562487165888798e+000	 9.811899456383378e+000
 1.809594125346025e+000	 3.582197832082684e+000	 9.789405970212648e+000
 1.770949357755138e+000	 3.601459511935572e+000	 9.771271901733252e+000
 1.732168897377055e+000	 3.620271136069303e+000	 9.754859556993210e+000
 1.693260359703563e+000	 3.638631802409330e+000	 9.737608438887952e+000
 1.654231349841147e+000	 3.656540775210977e+000	 9.717035447260505e+000
 1.615089458126757e+000	 3.673997483949385e+000	 9.690735307713741e+000
 1.575842255806114e+000	 3.691001522076283e+000	 9.656381300710631e+000
 1.975705482872835e+000	 3.523935981712723e+000	 9.944358453471793e+000
 1.937427016223188e+000	 3.545125377229726e+000	 9.889412638412299e+000
 1.898981276402560e+000	 3.565867050578072e+000	 9.848214165173864e+000
 1.860375926099302e+000	 3.586159415562315e+000	 9.817695172794471e+000
 1.821618635733935e+000	 3.606001056490789e+000	 9.794872183446076e+000
 1.782717078842601e+000	 3.625390727624157e+000	 9.776845807938072e+000
 1.743678927503718e+000	 3.644327352478393e+000	 9.760800423172199e+000
 1.704511847812996e+000	 3.662810022984794e+000	 9.744003927351610e+000
 1.665223495411833e+000	 3.680837998509759e+000	 9.723807669649155e+000
 1.625821511073953e+000	 3.698410704737381e+000	 9.697646641115940e+000
 1.586313516354986e+000	 3.715527732417929e+000	 9.663040002988836e+000
 1.988747121027364e+000	 3.547197494301935e+000	 9.957435445074109e+000
 1.950215978097817e+000	 3.568526761086030e+000	 9.899355041504276e+000
 1.911516457826590e+000	 3.589405350285925e+000	 9.855934470147833e+000
 1.872656273483467e+000	 3.609831665235706e+000	 9.823944236643364e+000
 1.833643146121435e+000	 3.629804280898727e+000	 9.800246194249990e+000
 1.794484799929670e+000	 3.649321943312530e+000	 9.781792814178848e+000
 1.755188957630005e+000	 3.668383568887227e+000	 9.765626446559207e+000
 1.715763335922069e+000	 3.686988243559954e+000	 9.748878684498347e+000
 1.676215640982173e+000	 3.705135221808200e+000	 9.728769934046625e+000
 1.636553564020811e+000	 3.722823925524999e+000	 9.702609282360410e+000
 1.596784776903525e+000	 3.740053942759174e+000	 9.667794745106543e+000
 2.001788759181560e+000	 3.570459006890981e+000	 9.971743503206945e+000
 1.963004939972117e+000	 3.591928144942161e+000	 9.910262226272035e+000
 1.924051639250307e+000	 3.612943649993593e+000	 9.864222954871236e+000
 1.884936620867336e+000	 3.633503914908892e+000	 9.830300074551627e+000
 1.845667656508661e+000	 3.653607505306437e+000	 9.805237129427844e+000
 1.806252521016491e+000	 3.673253159000651e+000	 9.785874399149478e+000
 1.766698987756068e+000	 3.692439785295785e+000	 9.769147645074538e+000
 1.727014824030942e+000	 3.711166464134818e+000	 9.752086988675554e+000
 1.687207786552331e+000	 3.729432445106324e+000	 9.731816031469268e+000
 1.647285616967498e+000	 3.747237146312289e+000	 9.705551314616336e+000
 1.607256037451896e+000	 3.764580153100085e+000	 9.670602204427715e+000
 2.014830397335523e+000	 3.593720519479760e+000	 9.984951526450098e+000
 1.975793901846201e+000	 3.615329528798024e+000	 9.921680114594206e+000
 1.936586820673828e+000	 3.636481949700988e+000	 9.872683071182209e+000
 1.897216968251039e+000	 3.657176164581797e+000	 9.836421267688008e+000
 1.857692166895753e+000	 3.677410729713860e+000	 9.809555863693754e+000
 1.818020242103209e+000	 3.697184374688481e+000	 9.788850460405497e+000
 1.778209017882060e+000	 3.716496001704045e+000	 9.771169232461103e+000
 1.738266312139771e+000	 3.735344684709383e+000	 9.753475224979574e+000
 1.698199932122467e+000	 3.753729668404155e+000	 9.732828932005150e+000
 1.658017669914180e+000	 3.771650367099296e+000	 9.706387260695383e+000
 1.617727298000268e+000	 3.789106363440732e+000	 9.671402972998136e+000
 2.027872035489354e+000	 3.616982032068171e+000	 9.995742402313914e+000
 1.988582863720177e+000	 3.638730912653521e+000	 9.933169354374449e+000
 1.949122002097276e+000	 3.660020249408020e+000	 9.880929481279528e+000
 1.909497315634706e+000	 3.680848414254348e+000	 9.841974109626404e+000
 1.869716677282848e+000	 3.701213954120939e+000	 9.812917532698036e+000
 1.829787963189973e+000	 3.721115590375979e+000	 9.790481779893286e+000
 1.789719048008136e+000	 3.740552218111991e+000	 9.771494033263950e+000
 1.749517800248717e+000	 3.759522905283656e+000	 9.752884246246516e+000
 1.709192077692748e+000	 3.778026891701722e+000	 9.731683087994075e+000
 1.668749722861022e+000	 3.796063587886068e+000	 9.705020324218884e+000
 1.628198558548805e+000	 3.813632573781181e+000	 9.670123732119833e+000
 2.040913673643154e+000	 3.640243544656117e+000	 1.000400580660158e+001
 2.001371825594157e+000	 3.662132296508555e+000	 9.944293371670888e+000
 1.961657183520769e+000	 3.683558549114604e+000	 9.888590648773079e+000
 1.921777663018466e+000	 3.704520663926468e+000	 9.846635153305151e+000
 1.881741187670086e+000	 3.725017178527611e+000	 9.815044033696140e+000
 1.841555684276927e+000	 3.745046806063103e+000	 9.790532475759170e+000
 1.801229078134447e+000	 3.764608434519604e+000	 9.769924882843457e+000
 1.760769288357938e+000	 3.783701125857639e+000	 9.750151717968368e+000
 1.720184223263335e+000	 3.802324114999045e+000	 9.728246720183844e+000
 1.679481775808191e+000	 3.820476808672654e+000	 9.701344612992195e+000
 1.638669819097675e+000	 3.838158784121502e+000	 9.666679408565337e+000
 2.053955311797024e+000	 3.663505057243499e+000	 1.000965131232272e+001
 2.014160787468252e+000	 3.685533680363033e+000	 9.953211461295828e+000
 1.974192364944430e+000	 3.707096848820648e+000	 9.895311420782887e+000
 1.934058010402449e+000	 3.728192913598081e+000	 9.850093747571911e+000
 1.893765698057606e+000	 3.748820402933820e+000	 9.815666514409838e+000
 1.853323405364218e+000	 3.768978021749815e+000	 9.788772441048661e+000
 1.812739108261148e+000	 3.788664650926862e+000	 9.766267013087150e+000
 1.772020776467593e+000	 3.807879346431334e+000	 9.745114447848918e+000
 1.731176368834391e+000	 3.826621338296152e+000	 9.722384087619572e+000
 1.690213828755852e+000	 3.844890029459100e+000	 9.695247345377574e+000
 1.649141079647045e+000	 3.862684994461763e+000	 9.660975313247356e+000
 1.544428474155829e+000	 3.617422891048259e+000	 9.625127167971790e+000
 1.505862044005179e+000	 3.633646475212943e+000	 9.585300385370140e+000
 1.467207146887432e+000	 3.649425961916560e+000	 9.539495624489470e+000
 1.428471127328698e+000	 3.664761429167448e+000	 9.487175856278643e+000
 1.389661294793495e+000	 3.679653109660585e+000	 9.427952406116484e+000
 1.350784919814787e+000	 3.694101388953216e+000	 9.361585121124250e+000
 1.311849230209201e+000	 3.708106803531543e+000	 9.291551689361711e+000
 1.272861407380663e+000	 3.721670038772552e+000	 9.234354836091951e+000
 1.233828582715532e+000	 3.734791926805090e+000	 9.189654990764376e+000
 1.194757834072111e+000	 3.747473444274481e+000	 9.154560508739291e+000
 1.155656182367169e+000	 3.759715710014934e+000	 9.126190104984534e+000
 1.554899734706702e+000	 3.641949101391516e+000	 9.637431696730948e+000
 1.516071823273362e+000	 3.658282681829495e+000	 9.596955381018521e+000
 1.477154845064890e+000	 3.674169153815358e+000	 9.550894336909975e+000
 1.438156194403447e+000	 3.689608595886352e+000	 9.498955363033847e+000
 1.399083230311878e+000	 3.704601242315142e+000	 9.440988600084582e+000
 1.359943272617522e+000	 3.719147481273074e+000	 9.376987276432148e+000
 1.320743598141761e+000	 3.733247852883756e+000	 9.308215929351233e+000
 1.281491436978598e+000	 3.746903047171049e+000	 9.249860006043749e+000
 1.242193968865346e+000	 3.760113901905669e+000	 9.204481180836261e+000
 1.202858319648345e+000	 3.772881400354630e+000	 9.169269305258284e+000
 1.163491557846333e+000	 3.785206668937872e+000	 9.141450103262802e+000
 1.565370995256741e+000	 3.666475311734168e+000	 9.647843681794923e+000
 1.526281602540710e+000	 3.682918888445374e+000	 9.606821939447897e+000
 1.487102543241513e+000	 3.698912345713429e+000	 9.560682351984346e+000
 1.447841261477359e+000	 3.714455762604492e+000	 9.509342600655710e+000
 1.408505165829424e+000	 3.729549374968920e+000	 9.452857139535771e+000
 1.369101625419422e+000	 3.744193573592156e+000	 9.391416581075562e+000
 1.329637966073492e+000	 3.758388902235207e+000	 9.325435797318830e+000
 1.290121466575712e+000	 3.772136055568817e+000	 9.266724316567633e+000
 1.250559355014358e+000	 3.785435877005572e+000	 9.221440880422428e+000
 1.210958805223801e+000	 3.798289356434168e+000	 9.186830710582056e+000
 1.171326933324751e+000	 3.810697627860288e+000	 9.160202198664075e+000
 1.575842255806114e+000	 3.691001522076283e+000	 9.656381300710631e+000
 1.536491381807390e+000	 3.707555095060664e+000	 9.614939013156189e+000
 1.497050241417462e+000	 3.723655537610877e+000	 9.568896628555162e+000
 1.457526328550590e+000	 3.739302929321990e+000	 9.518350511862474e+000
 1.417927101346283e+000	 3.754497507622050e+000	 9.463525673439602e+000
 1.378259978220630e+000	 3.769239665910598e+000	 9.404774854633539e+000
 1.338532334004527e+000	 3.783529951586039e+000	 9.342578102575232e+000
 1.298751496172133e+000	 3.797369063966007e+000	 9.284315924732981e+000
 1.258924741162678e+000	 3.810757852104945e+000	 9.239712663523614e+000
 1.219059290798574e+000	 3.823697312513241e+000	 9.206209863533045e+000
 1.179162308802503e+000	 3.836188586782309e+000	 9.181175991223844e+000
 1.586313516354986e+000	 3.715527732417929e+000	 9.663040002988836e+000
 1.546701161073566e+000	 3.732191301675452e+000	 9.621320966871242e+000
 1.506997939592899e+000	 3.748398729507804e+000	 9.575548363527680e+000
 1.467211395623298e+000	 3.764150096038961e+000	 9.525965779354706e+000
 1.427349036862606e+000	 3.779445640274658e+000	 9.472935758362823e+000
 1.387418331021288e+000	 3.794285758228537e+000	 9.416938646288516e+000
 1.347426701935000e+000	 3.808671000936399e+000	 9.358572006094517e+000
 1.307381525767979e+000	 3.822602072362762e+000	 9.302011891782291e+000
 1.267290127310417e+000	 3.836079827203932e+000	 9.258488581361956e+000
 1.227159776372762e+000	 3.849105268591987e+000	 9.226389976595275e+000
 1.186997684279672e+000	 3.861679545704069e+000	 9.203123781809333e+000
 1.596784776903525e+000	 3.740053942759174e+000	 9.667794745106543e+000
 1.556910940339404e+000	 3.756827508289827e+000	 9.625959735149648e+000
 1.516945637767987e+000	 3.773141921404314e+000	 9.580625052726738e+000
 1.476896462695642e+000	 3.788997262755524e+000	 9.532150771298886e+000
 1.436770972378545e+000	 3.804393772926877e+000	 9.481004670662586e+000
 1.396576683821540e+000	 3.819331850546112e+000	 9.427760896531693e+000
 1.356321069865043e+000	 3.833812050286429e+000	 9.373099278265338e+000
 1.316011555363373e+000	 3.847835080759229e+000	 9.319198601344361e+000
 1.275655513457684e+000	 3.861401802302679e+000	 9.276974520537099e+000
 1.235260261946462e+000	 3.874513224670545e+000	 9.246372608855502e+000
 1.194833059756341e+000	 3.887170504625702e+000	 9.224820735609981e+000
 1.607256037451896e+000	 3.764580153100085e+000	 9.670602204427715e+000
 1.567120719605069e+000	 3.781463714903873e+000	 9.628826958768945e+000
 1.526893335942890e+000	 3.797885113300513e+000	 9.584092531215935e+000
 1.486581529767779e+000	 3.813844429471796e+000	 9.536845467713683e+000
 1.446192907894250e+000	 3.829341905578835e+000	 9.487627201771502e+000
 1.405735036621528e+000	 3.844377942863460e+000	 9.437072584876022e+000
 1.365215437794790e+000	 3.858953099636274e+000	 9.385909166527169e+000
 1.324641584958439e+000	 3.873068089155554e+000	 9.335272171569317e+000
 1.284020899604590e+000	 3.886723777401333e+000	 9.294390560056101e+000
 1.243360747519771e+000	 3.899921180749059e+000	 9.265177943399831e+000
 1.202668435232591e+000	 3.912661463547339e+000	 9.245065056270821e+000
 1.617727298000268e+000	 3.789106363440732e+000	 9.671402972998136e+000
 1.577330498870728e+000	 3.806099921517680e+000	 9.629876100874316e+000
 1.536841034117768e+000	 3.822628305196501e+000	 9.585896994009161e+000
 1.496266596839867e+000	 3.838691596187896e+000	 9.539969368623554e+000
 1.455614843409874e+000	 3.854290038230659e+000	 9.492677437340374e+000
 1.414893389421396e+000	 3.869424035180721e+000	 9.444684364210509e+000
 1.374109805724376e+000	 3.884094148986077e+000	 9.396731565690164e+000
 1.333271614553298e+000	 3.898301097551884e+000	 9.349638861460683e+000
 1.292386285751244e+000	 3.912045752500035e+000	 9.309971327288219e+000
 1.251461233092784e+000	 3.925329136827668e+000	 9.281845068964678e+000
 1.210503810708504e+000	 3.938152422469113e+000	 9.262678170185879e+000
 1.628198558548805e+000	 3.813632573781181e+000	 9.670123732119833e+000
 1.587540278136545e+000	 3.830736128131332e+000	 9.629044543790943e+000
 1.546788732292785e+000	 3.847371497092383e+000	 9.585966998057783e+000
 1.505951663912061e+000	 3.863538762903940e+000	 9.541423384801128e+000
 1.465036778925567e+000	 3.879238170882482e+000	 9.496010520965873e+000
 1.424051742221288e+000	 3.894470127498032e+000	 9.450388182397202e+000
 1.383004173653933e+000	 3.909235198335982e+000	 9.405278482944377e+000
 1.341901644148074e+000	 3.923534105948366e+000	 9.361466201091975e+000
 1.300751671897757e+000	 3.937367727598935e+000	 9.322966352892772e+000
 1.259561718665599e+000	 3.950737092906512e+000	 9.295432265649582e+000
 1.218339186184163e+000	 3.963643381391156e+000	 9.276504920494357e+000
 1.638669819097675e+000	 3.838158784121502e+000	 9.666679408565337e+000
 1.597750057402686e+000	 3.855372334744917e+000	 9.626255667367188e+000
 1.556736430468104e+000	 3.872114688988262e+000	 9.584215446350720e+000
 1.515636730984523e+000	 3.888385929620046e+000	 9.541091711876701e+000
 1.474458714441479e+000	 3.904186303534432e+000	 9.497464403191932e+000
 1.433210095021344e+000	 3.919516219815531e+000	 9.453958891681694e+000
 1.391898541583594e+000	 3.934376247686132e+000	 9.411245493833777e+000
 1.350531673742887e+000	 3.948767114345144e+000	 9.370040037447117e+000
 1.309117058044239e+000	 3.962689702698176e+000	 9.332640424765495e+000
 1.267662204238311e+000	 3.976145048985732e+000	 9.305017294510597e+000
 1.226174561659649e+000	 3.989134340313600e+000	 9.285413770345116e+000
 1.649141079647045e+000	 3.862684994461763e+000	 9.660975313247356e+000
 1.607959836669317e+000	 3.880008541358522e+000	 9.621420909669379e+000
 1.566684128643885e+000	 3.896857880884244e+000	 9.580541554922357e+000
 1.525321798057408e+000	 3.913233096336334e+000	 9.538843688554332e+000
 1.483880649957763e+000	 3.929134436186638e+000	 9.496861576440073e+000
 1.442368447821710e+000	 3.944562312133359e+000	 9.455155846458736e+000
 1.400792909513493e+000	 3.959517297036671e+000	 9.414313189596122e+000
 1.359161703337863e+000	 3.974000122742366e+000	 9.374947225149603e+000
 1.317482444190801e+000	 3.988011677797904e+000	 9.338273941047069e+000
 1.275762689811018e+000	 4.001553005065471e+000	 9.309702951154542e+000
 1.234009937135045e+000	 4.014625299236578e+000	 9.288975007046151e+000
 1.155656182367169e+000	 3.759715710014934e+000	 9.126190104984534e+000
 1.116530587703505e+000	 3.771519981695344e+000	 9.103005003353738e+000
 1.077387944538932e+000	 3.782887650511029e+000	 9.084050684179680e+000
 1.038235080352055e+000	 3.793820241437709e+000	 9.067516250974915e+000
 9.990787532115453e-001	 3.804319411526238e+000	 9.051804947954192e+000
 9.599256488797626e-001	 3.814386947187074e+000	 9.035589835889240e+000
 9.207823780247851e-001	 3.824024761409275e+000	 9.017827393772018e+000
 8.816554735420569e-001	 3.833234890918529e+000	 8.997792982061966e+000
 8.425513879866883e-001	 3.842019493278808e+000	 8.975094889778900e+000
 8.034764911172414e-001	 3.850380843942109e+000	 8.949684294564362e+000
 7.644370675516263e-001	 3.858321333250832e+000	 8.921859394876549e+000
 1.163491557846333e+000	 3.785206668937872e+000	 9.141450103262802e+000
 1.124100690751761e+000	 3.797090973851327e+000	 9.119114744038059e+000
 1.084692659567023e+000	 3.808535715722647e+000	 9.100829847856581e+000
 1.045274338061189e+000	 3.819542429866925e+000	 9.084759940961229e+000
 1.005852530122790e+000	 3.830112784569851e+000	 9.069299972316520e+000
 9.664339668438114e-001	 3.840248578353792e+000	 9.053126638146637e+000
 9.270253037128128e-001	 3.849951737177909e+000	 9.035211841906726e+000
 8.876331179184214e-001	 3.859224311576942e+000	 9.014853546192136e+000
 8.482639057642203e-001	 3.868068473743193e+000	 8.991686933308282e+000
 8.089240801958820e-001	 3.876486514556273e+000	 8.965690935233813e+000
 7.696199684411721e-001	 3.884480840565159e+000	 8.937188803587793e+000
 1.171326933324751e+000	 3.810697627860288e+000	 9.160202198664075e+000
 1.131670793799310e+000	 3.822661966006884e+000	 9.139225606295469e+000
 1.091997374594454e+000	 3.834183780933947e+000	 9.121958396124644e+000
 1.052313595769715e+000	 3.845264618295934e+000	 9.106550878697767e+000
 1.012626307033486e+000	 3.855906157613378e+000	 9.091406248156796e+000
 9.729422848073700e-001	 3.866110209520529e+000	 9.075212638586036e+000
 9.332682294004113e-001	 3.875878712946665e+000	 9.056985661659580e+000
 8.936107622944156e-001	 3.885213732235561e+000	 9.036064788476432e+000
 8.539764235414393e-001	 3.894117454207846e+000	 9.012136191690663e+000
 8.143716692742630e-001	 3.902592185170743e+000	 8.985232585531707e+000
 7.748028693305061e-001	 3.910640347879802e+000	 8.955729946935861e+000
 1.179162308802503e+000	 3.836188586782309e+000	 9.181175991223844e+000
 1.139240896846218e+000	 3.848232958162135e+000	 9.161829915814609e+000
 1.099302089621277e+000	 3.859831846145037e+000	 9.145709688514026e+000
 1.059352853477670e+000	 3.870986806724833e+000	 9.130963170491732e+000
 1.019400083943650e+000	 3.881699530656881e+000	 9.116013436748492e+000
 9.794506027704419e-001	 3.891971840687340e+000	 9.099588515917672e+000
 9.395111550875679e-001	 3.901805688715573e+000	 9.080758449027572e+000
 8.995884066700155e-001	 3.911203152894399e+000	 9.058931110772072e+000
 8.596889413183100e-001	 3.920166434672770e+000	 9.033869398399462e+000
 8.198192583523397e-001	 3.928697855785512e+000	 9.005687491994847e+000
 7.799857702195771e-001	 3.936799855194743e+000	 8.974843430661027e+000
 1.186997684279672e+000	 3.861679545704069e+000	 9.203123781809333e+000
 1.146810999892553e+000	 3.873803950317198e+000	 9.185446878237631e+000
 1.106606804647542e+000	 3.885479911356019e+000	 9.170387230498779e+000
 1.066392111185087e+000	 3.896708995153701e+000	 9.156103453243357e+000
 1.026173860853301e+000	 3.907492903700438e+000	 9.141055097418144e+000
 9.859589207330294e-001	 3.917833471854272e+000	 9.124029744208878e+000
 9.457540807742724e-001	 3.927732664484666e+000	 9.104174551685111e+000
 9.055660510451961e-001	 3.937192573553473e+000	 9.080990892753210e+000
 8.654014590947963e-001	 3.946215415137962e+000	 9.054345803431676e+000
 8.252668474300681e-001	 3.954803526400567e+000	 9.024464313259266e+000
 7.851686711083348e-001	 3.962959362509964e+000	 8.991917570685427e+000
 1.194833059756341e+000	 3.887170504625702e+000	 9.224820735609981e+000
 1.154381102938380e+000	 3.899374942472197e+000	 9.208622625944681e+000
 1.113911519673297e+000	 3.911127976566997e+000	 9.194324612959846e+000
 1.073431368892000e+000	 3.922431183582631e+000	 9.180110736423172e+000
 1.032947637762457e+000	 3.933286276744112e+000	 9.164495156895226e+000
 9.924672386951353e-001	 3.943695103021376e+000	 9.146346271269694e+000
 9.519970064605124e-001	 3.953659640253977e+000	 9.124912682179556e+000
 9.115436954199336e-001	 3.963181994212798e+000	 9.099816051628432e+000
 8.711139768708629e-001	 3.972264395603426e+000	 9.071056691738210e+000
 8.307144365074037e-001	 3.980909197015899e+000	 9.039001609872647e+000
 7.903515719967293e-001	 3.989118869825450e+000	 9.004367867452988e+000
 1.202668435232591e+000	 3.912661463547339e+000	 9.245065056270821e+000
 1.161951205983767e+000	 3.924945934627250e+000	 9.229930281620806e+000
 1.121216234698595e+000	 3.936776041778079e+000	 9.215885473885999e+000
 1.080470626598442e+000	 3.948153372011706e+000	 9.201156271055623e+000
 1.039721414671136e+000	 3.959079649787976e+000	 9.184331150864113e+000
 9.989755566567614e-001	 3.969556734188701e+000	 9.164382231508922e+000
 9.582399321462762e-001	 3.979586616023536e+000	 9.140685568290142e+000
 9.175213397942027e-001	 3.989171414872387e+000	 9.113011641020375e+000
 8.768264946464748e-001	 3.998313376069162e+000	 9.081524942119977e+000
 8.361620255843021e-001	 4.007014867631495e+000	 9.047244368451322e+000
 7.955344728847096e-001	 4.015278377141183e+000	 9.011953384083695e+000
 1.210503810708504e+000	 3.938152422469113e+000	 9.262678170185879e+000
 1.169521309028779e+000	 3.950516926782475e+000	 9.247970037844414e+000
 1.128520949723485e+000	 3.962424106989368e+000	 9.233463481305261e+000
 1.087509884304450e+000	 3.973875560441019e+000	 9.217443444485483e+000
 1.046495191579356e+000	 3.984873022832095e+000	 9.198594039512425e+000
 1.005483874617912e+000	 3.995418365356301e+000	 9.176015691698792e+000
 9.644828578315521e-001	 4.005513591793374e+000	 9.149489674548061e+000
 9.234989841679795e-001	 4.015160835532258e+000	 9.120261050268001e+000
 8.825390124215962e-001	 4.024362356535170e+000	 9.088908681386972e+000
 8.416096146607194e-001	 4.033120538247348e+000	 9.056044500719358e+000
 8.007173737722254e-001	 4.041437884457145e+000	 9.022451224248387e+000
 1.218339186184163e+000	 3.963643381391156e+000	 9.276504920494357e+000
 1.177091412073484e+000	 3.976087918937997e+000	 9.261369251976442e+000
 1.135825664748019e+000	 3.988072172200968e+000	 9.245482336490543e+000
 1.094549142010054e+000	 3.999597748870652e+000	 9.227207699766082e+000
 1.053268968487136e+000	 4.010666395876541e+000	 9.206114944317914e+000
 1.011992192578588e+000	 4.021279996524220e+000	 9.182607878817962e+000
 9.707257835163287e-001	 4.031440567563524e+000	 9.156653407611412e+000
 9.294766285412390e-001	 4.041150256192425e+000	 9.128445385061779e+000
 8.882515301961914e-001	 4.050411337001454e+000	 9.098371805116994e+000
 8.470572037366110e-001	 4.059226208863447e+000	 9.067001684662902e+000
 8.059002746592268e-001	 4.067597391773322e+000	 9.035064848211194e+000
 1.226174561659649e+000	 3.989134340313600e+000	 9.285413770345116e+000
 1.184661515117946e+000	 4.001658911093932e+000	 9.268793516497293e+000
 1.143130379772245e+000	 4.013720237412986e+000	 9.251336341529580e+000
 1.101588399715292e+000	 4.025319937300696e+000	 9.232553185612892e+000
 1.060042745394492e+000	 4.036459768921380e+000	 9.211895566918926e+000
 1.018500510538793e+000	 4.047141627692513e+000	 9.189078129135822e+000
 9.769687092005943e-001	 4.057367543334020e+000	 9.164050828305934e+000
 9.354542729139564e-001	 4.067139676852902e+000	 9.136982091856133e+000
 8.939640479702249e-001	 4.076460317468011e+000	 9.108226928000116e+000
 8.525047928119328e-001	 4.085331879479782e+000	 9.078312413998219e+000
 8.110831755456627e-001	 4.093756899089693e+000	 9.047917613351787e+000
 1.234009937135045e+000	 4.014625299236578e+000	 9.288975007046151e+000
 1.192231618162235e+000	 4.027229903250403e+000	 9.271992015627134e+000
 1.150435094796215e+000	 4.039368302625527e+000	 9.254733037096553e+000
 1.108627657420195e+000	 4.051042125731239e+000	 9.236360052016050e+000
 1.066816522301443e+000	 4.062253141966685e+000	 9.216319323433018e+000
 1.025008828498531e+000	 4.073003258861230e+000	 9.194313443128383e+000
 9.832116348843374e-001	 4.083294519104892e+000	 9.170273689710127e+000
 9.414319172861082e-001	 4.093129097513706e+000	 9.144341744321194e+000
 8.996765657436613e-001	 4.102509297934844e+000	 9.116839364630895e+000
 8.579523818866406e-001	 4.111437550096344e+000	 9.088252644010947e+000
 8.162660764314832e-001	 4.119916406406245e+000	 9.059212004035894e+000
 7.644370675516263e-001	 3.858321333250832e+000	 8.921859394876549e+000
 7.254451589814354e-001	 3.865842366926856e+000	 8.884063047521410e+000
 6.865010045823983e-001	 3.872947779998714e+000	 8.834313133772479e+000
 6.476106092149704e-001	 3.879640291078204e+000	 8.783491368778559e+000
 6.087798846073803e-001	 3.885922721176180e+000	 8.745971532387003e+000
 5.700146475776188e-001	 3.891797990537994e+000	 8.719630189133254e+000
 5.313206183671851e-001	 3.897269115457639e+000	 8.701003034985632e+000
 4.927034190860264e-001	 3.902339205074782e+000	 8.687670398893808e+000
 4.541685722679184e-001	 3.907011458158686e+000	 8.678180187865481e+000
 4.157214995353986e-001	 3.911289159882991e+000	 8.671951985018435e+000
 3.773675203732346e-001	 3.915175678595245e+000	 8.669167508447233e+000
 7.696199684411721e-001	 3.884480840565159e+000	 8.937188803587793e+000
 7.303636938346297e-001	 3.892052867022554e+000	 8.899832876926299e+000
 6.911554971736030e-001	 3.899206454958563e+000	 8.852338756595305e+000
 6.520014240316410e-001	 3.905944341417220e+000	 8.804050111782829e+000
 6.129074262186264e-001	 3.912269366535887e+000	 8.768309095382184e+000
 5.738793599907122e-001	 3.918184470359234e+000	 8.743494972169438e+000
 5.349229843727678e-001	 3.923692689631786e+000	 8.725794235435858e+000
 4.960439595927762e-001	 3.928797154573237e+000	 8.712517189563128e+000
 4.572478456274206e-001	 3.933501085640565e+000	 8.701992728499855e+000
 4.185401008579657e-001	 3.937807790280956e+000	 8.693444368942053e+000
 3.799260808354098e-001	 3.941720659679418e+000	 8.686853012539389e+000
 7.748028693305061e-001	 3.910640347879802e+000	 8.955729946935861e+000
 7.352822286876530e-001	 3.918263367118544e+000	 8.918424396598216e+000
 6.958099897646695e-001	 3.925465129918650e+000	 8.872683115446499e+000
 6.563922388481979e-001	 3.932248391756403e+000	 8.826655498975923e+000
 6.170349678297755e-001	 3.938616011895684e+000	 8.792427923695467e+000
 5.777440724037148e-001	 3.944570950180484e+000	 8.769111786980760e+000
 5.385253503782560e-001	 3.950116263805866e+000	 8.752773776901371e+000
 4.993845000994172e-001	 3.955255104071564e+000	 8.740688219389542e+000
 4.603271189867887e-001	 3.959990713122276e+000	 8.731201799995191e+000
 4.213587021803617e-001	 3.964326420678744e+000	 8.723579672763439e+000
 3.824846412973639e-001	 3.968265640763441e+000	 8.717838707410277e+000
 7.799857702195771e-001	 3.936799855194743e+000	 8.974843430661027e+000
 7.402007635404505e-001	 3.944473867214804e+000	 8.937214689665808e+000
 7.004644823555437e-001	 3.951723804878959e+000	 8.892776780220279e+000
 6.607830536645897e-001	 3.958552442095747e+000	 8.848767843625298e+000
 6.211625094407802e-001	 3.964962657255565e+000	 8.815886099903153e+000
 5.816087848165875e-001	 3.970957430001741e+000	 8.794149152485325e+000
 5.421277163836210e-001	 3.976539837979888e+000	 8.779743740731670e+000
 5.027250406059334e-001	 3.981713053569776e+000	 8.770152854532746e+000
 4.634063923460216e-001	 3.986480340603840e+000	 8.763988445615871e+000
 4.241773035026020e-001	 3.990845051076375e+000	 8.760805690320172e+000
 3.850432017591321e-001	 3.994810621847332e+000	 8.760904842523718e+000
 7.851686711083348e-001	 3.962959362509964e+000	 8.991917570685427e+000
 7.451192983929696e-001	 3.970684367311316e+000	 8.953605254733148e+000
 7.051189749461714e-001	 3.977982479839472e+000	 8.910070863257687e+000
 6.651738684807651e-001	 3.984856492435232e+000	 8.867869297427024e+000
 6.252900510515949e-001	 3.991309302615523e+000	 8.836262311974922e+000
 5.854734972292921e-001	 3.997343909823010e+000	 8.816292822978765e+000
 5.457300823888345e-001	 4.002963412153861e+000	 8.804571986908508e+000
 5.060655811123092e-001	 4.008171003067890e+000	 8.799138123305671e+000
 4.664856657051182e-001	 4.012969968085276e+000	 8.798618959635810e+000
 4.269959048247031e-001	 4.017363681473869e+000	 8.802408625611307e+000
 3.876017622207496e-001	 4.021355602931107e+000	 8.810528037470739e+000
 7.903515719967293e-001	 3.989118869825450e+000	 9.004367867452988e+000
 7.500378332451563e-001	 3.996894867408061e+000	 8.965021479762466e+000
 7.097734675364987e-001	 4.004241154800174e+000	 8.922211449660484e+000
 6.695646832966722e-001	 4.011160542774849e+000	 8.882610429674250e+000
 6.294175926621726e-001	 4.017655947975553e+000	 8.853881610428358e+000
 5.893382096417900e-001	 4.023730389644293e+000	 8.837593654790268e+000
 5.493324483938681e-001	 4.029386986327793e+000	 8.830205544295227e+000
 5.094061216185285e-001	 4.034628952565923e+000	 8.829373781065131e+000
 4.695649390640774e-001	 4.039459595566599e+000	 8.833748495339535e+000
 4.298145061466805e-001	 4.043882311871244e+000	 8.842767279513797e+000
 3.901603226822515e-001	 4.047900584014783e+000	 8.856464607969116e+000
 7.955344728847096e-001	 4.015278377141183e+000	 9.011953384083695e+000
 7.549563680969569e-001	 4.023105367505020e+000	 8.974234661972982e+000
 7.144279601264719e-001	 4.030499829761045e+000	 8.935289115690042e+000
 6.739554981122601e-001	 4.037464593114587e+000	 8.900199012016341e+000
 6.335451342724675e-001	 4.044002593335647e+000	 8.875189644191012e+000
 5.932029220540419e-001	 4.050116869465589e+000	 8.862170564171088e+000
 5.529348143986934e-001	 4.055810560501691e+000	 8.857860894261037e+000
 5.127466621245758e-001	 4.061086902063884e+000	 8.860052926852134e+000
 4.726442124228987e-001	 4.065949223047830e+000	 8.867494956840044e+000
 4.326331074685508e-001	 4.070400942268520e+000	 8.879688635671270e+000
 3.927188831436725e-001	 4.074445565098373e+000	 8.896702129747588e+000
 8.007173737722254e-001	 4.041437884457145e+000	 9.022451224248387e+000
 7.598749029483174e-001	 4.049315867602173e+000	 8.987263950669325e+000
 7.190824527160368e-001	 4.056758504722065e+000	 8.951856402512282e+000
 6.783463129274767e-001	 4.063768643454428e+000	 8.920626617174451e+000
 6.376726758824334e-001	 4.070349238695802e+000	 8.898672772054971e+000
 5.970676344660097e-001	 4.076503349286900e+000	 8.887936907884898e+000
 5.565371804032823e-001	 4.082234134675567e+000	 8.885449431521503e+000
 5.160872026304350e-001	 4.087544851561791e+000	 8.889158115707293e+000
 4.757234857815805e-001	 4.092438850528989e+000	 8.897927962735899e+000
 4.354517087903297e-001	 4.096919572665722e+000	 8.911342420744569e+000
 3.952774436050484e-001	 4.100990546181900e+000	 8.929520618111129e+000
 8.059002746592268e-001	 4.067597391773322e+000	 9.035064848211194e+000
 7.647934377991849e-001	 4.075526367699502e+000	 9.002192837269904e+000
 7.237369453051394e-001	 4.083017179683221e+000	 8.969867354679492e+000
 6.827371277422707e-001	 4.090072693794364e+000	 8.941832259609303e+000
 6.418002174920232e-001	 4.096695884056009e+000	 8.922236184511803e+000
 6.009323468776550e-001	 4.102889829108227e+000	 8.912823954094575e+000
 5.601395464076058e-001	 4.108657708849426e+000	 8.910949754252268e+000
 5.194277431360902e-001	 4.114002801059661e+000	 8.914733665795609e+000
 4.788027591401222e-001	 4.118928478010091e+000	 8.923173040754531e+000
 4.382703101120333e-001	 4.123438203062862e+000	 8.935947940193284e+000
 3.978360040664137e-001	 4.127535527265377e+000	 8.953242798615733e+000
 8.110831755456627e-001	 4.093756899089693e+000	 9.047917613351787e+000
 7.697119726495051e-001	 4.101736867796985e+000	 9.017089480408213e+000
 7.283914378937261e-001	 4.109275854644495e+000	 8.987353930121731e+000
 6.871279425565910e-001	 4.116376744134380e+000	 8.961830243528681e+000
 6.459277591011915e-001	 4.123042529416265e+000	 8.943860724615901e+000
 6.047970592889386e-001	 4.129276308929572e+000	 8.934833957963811e+000
 5.637419124116360e-001	 4.135081283023280e+000	 8.932406513685791e+000
 5.227682836415258e-001	 4.140460750557502e+000	 8.934884681214195e+000
 4.818820324985227e-001	 4.145418105491159e+000	 8.941410839585352e+000
 4.410889114336774e-001	 4.149956833459963e+000	 8.951773493432357e+000
 4.003945645278038e-001	 4.154080508348820e+000	 8.966233738337877e+000
 8.162660764314832e-001	 4.119916406406245e+000	 9.059212004035894e+000
 7.746305074992251e-001	 4.127947367894609e+000	 9.030100129731705e+000
 7.330459304817425e-001	 4.135534529605869e+000	 9.002424410308874e+000
 6.915187573703857e-001	 4.142680794474465e+000	 8.978708707800113e+000
 6.500553007098910e-001	 4.149389174776561e+000	 8.961601472167430e+000
 6.086617716998224e-001	 4.155662788750935e+000	 8.952038879664915e+000
 5.673442784153442e-001	 4.161504857197135e+000	 8.947929284210819e+000
 5.261088241467260e-001	 4.166918700055335e+000	 8.947776090951631e+000
 4.849613058567812e-001	 4.171907732972209e+000	 8.950876351969715e+000
 4.439075127552784e-001	 4.176475463857045e+000	 8.957135794825021e+000
 4.029531249892538e-001	 4.180625489432248e+000	 8.966900477051139e+000
 3.773675203732346e-001	 3.915175678595245e+000	 8.669167508447233e+000
 3.391061330280596e-001	 3.918674958673670e+000	 8.655170359992457e+000
 3.009482782972789e-001	 3.921789915098675e+000	 8.617963801646656e+000
 2.628990420740376e-001	 3.924524148878315e+000	 8.562556026554459e+000
 2.249634018290041e-001	 3.926881331380236e+000	 8.494304864369488e+000
 1.871462259189420e-001	 3.928865201095816e+000	 8.418801651630639e+000
 1.494522729974377e-001	 3.930479560421402e+000	 8.341766435967490e+000
 1.118861915258198e-001	 3.931728272459813e+000	 8.268957464255754e+000
 7.445251938222409e-002	 3.932615257845103e+000	 8.206097536744455e+000
 3.715568356668002e-002	 3.933144491593509e+000	 8.158819440968086e+000
 0.000000000000000e+000	 3.933319999983334e+000	 8.132632318310321e+000
 3.799260808354098e-001	 3.941720659679418e+000	 8.686853012539389e+000
 3.414052804044881e-001	 3.945243664957141e+000	 8.668405050689223e+000
 3.029887145414698e-001	 3.948379740858184e+000	 8.627214172674455e+000
 2.646815036219775e-001	 3.951132512805529e+000	 8.568398189695023e+000
 2.264886588640513e-001	 3.953505677058801e+000	 8.497312927696447e+000
 1.884150816320309e-001	 3.955502997456446e+000	 8.419412905224348e+000
 1.504655628432893e-001	 3.957128302175167e+000	 8.340124975087536e+000
 1.126447824758348e-001	 3.958385480509716e+000	 8.264738019151324e+000
 7.495730917472680e-002	 3.959278479676159e+000	 8.198311397665012e+000
 3.740759995516190e-002	 3.959811301641445e+000	 8.145604466693035e+000
 0.000000000000000e+000	 3.959987999982150e+000	 8.111029095968405e+000
 3.824846412973639e-001	 3.968265640763441e+000	 8.717838707410277e+000
 3.437044277806350e-001	 3.971812371240532e+000	 8.701250794852383e+000
 3.050291507853137e-001	 3.974969566617713e+000	 8.664182562769170e+000
 2.664639651695104e-001	 3.977740876732895e+000	 8.611944652227116e+000
 2.280139158986443e-001	 3.980130022737658e+000	 8.549967714402960e+000
 1.896839373446401e-001	 3.982140793817518e+000	 8.483638593155540e+000
 1.514788526886652e-001	 3.983777043929510e+000	 8.418151182600374e+000
 1.134033734254162e-001	 3.985042688560327e+000	 8.358375193335967e+000
 7.546209896688400e-002	 3.985941701508024e+000	 8.308745652499553e+000
 3.765951634344023e-002	 3.986478111690256e+000	 8.273175554605400e+000
 0.000000000000000e+000	 3.986655999981866e+000	 8.254993677897755e+000
 3.850432017591321e-001	 3.994810621847332e+000	 8.760904842523718e+000
 3.460035751565559e-001	 3.998381077523853e+000	 8.752887193414418e+000
 3.070695870288875e-001	 4.001559392377267e+000	 8.728457822287076e+000
 2.682464267167312e-001	 4.004349240660396e+000	 8.692739253127124e+000
 2.295391729328923e-001	 4.006754368416778e+000	 8.650989428131286e+000
 1.909527930568868e-001	 4.008778590178979e+000	 8.608419013300683e+000
 1.524921425336830e-001	 4.010425785684370e+000	 8.570013034964916e+000
 1.141619643746719e-001	 4.011699896611567e+000	 8.540403309641114e+000
 7.596688875878188e-002	 4.012604923340605e+000	 8.523748512850849e+000
 3.791143273156587e-002	 4.013144921739845e+000	 8.523621171390930e+000
 0.000000000000000e+000	 4.013323999982382e+000	 8.542900926606313e+000
 3.876017622207496e-001	 4.021355602931107e+000	 8.810528037470739e+000
 3.483027225323065e-001	 4.024949783807112e+000	 8.812278283279547e+000
 3.091100232722676e-001	 4.028149218136837e+000	 8.800114996504018e+000
 2.700288882637348e-001	 4.030957604588014e+000	 8.779275748694325e+000
 2.310644299669047e-001	 4.033378714096125e+000	 8.755036864959493e+000
 1.922216487688887e-001	 4.035416386540782e+000	 8.732571346706036e+000
 1.535054323784604e-001	 4.037074527439684e+000	 8.716815935145647e+000
 1.149205553237097e-001	 4.038357104663355e+000	 8.712346441789691e+000
 7.647167855050675e-002	 4.039268145173817e+000	 8.723260533760278e+000
 3.816334911958967e-002	 4.039811731790116e+000	 8.753067225819478e+000
 0.000000000000000e+000	 4.039991999983599e+000	 8.804582398287637e+000
 3.901603226822515e-001	 4.047900584014783e+000	 8.856464607969116e+000
 3.506018699079427e-001	 4.051518490090317e+000	 8.865180830353271e+000
 3.111504595155301e-001	 4.054739043896424e+000	 8.862345237100065e+000
 2.718113498106161e-001	 4.057565968515733e+000	 8.853079424680599e+000
 2.325896870007905e-001	 4.060003059775668e+000	 8.842528777889310e+000
 1.934905044807632e-001	 4.062054182902880e+000	 8.835723975776883e+000
 1.545187222231151e-001	 4.063723269195385e+000	 8.837451509723863e+000
 1.156791462726375e-001	 4.065014312715616e+000	 8.852132296807532e+000
 7.697646834214469e-002	 4.065931367007567e+000	 8.883707537952555e+000
 3.841526550756252e-002	 4.066478541840969e+000	 8.935531039151098e+000
 0.000000000000000e+000	 4.066659999985416e+000	 9.010267285760074e+000
 3.927188831436725e-001	 4.074445565098373e+000	 8.896702129747590e+000
 3.529010172835206e-001	 4.078087196373478e+000	 8.909906049414225e+000
 3.131908957587517e-001	 4.081328869656023e+000	 8.913608381807435e+000
 2.735938113574701e-001	 4.084174332443537e+000	 8.912705863767236e+000
 2.341149440346593e-001	 4.086627405455375e+000	 8.912105942836501e+000
 1.947593601926277e-001	 4.088691979265223e+000	 8.916592307662963e+000
 1.555320120677647e-001	 4.090372010951406e+000	 8.930699278006010e+000
 1.164377372215631e-001	 4.091671520768268e+000	 8.958594092964315e+000
 7.748125813378200e-002	 4.092594588841764e+000	 9.003966207317195e+000
 3.866718189553529e-002	 4.093145351892309e+000	 9.069922779609529e+000
 0.000000000000000e+000	 4.093327999987731e+000	 9.158889612020388e+000
 3.952774436050484e-001	 4.100990546181900e+000	 8.929520618111129e+000
 3.552001646590955e-001	 4.104655902656603e+000	 8.944843135305586e+000
 3.152313320020088e-001	 4.107918695415634e+000	 8.952392125577777e+000
 2.753762729043917e-001	 4.110782696371410e+000	 8.956730372192725e+000
 2.356402010686201e-001	 4.113251751135212e+000	 8.962420213193111e+000
 1.960282159045999e-001	 4.115329775627761e+000	 8.973893548987824e+000
 1.565453019125270e-001	 4.117020752707689e+000	 8.995330532404875e+000
 1.171963281705945e-001	 4.118328728821235e+000	 9.030545933778214e+000
 7.798604792550493e-002	 4.119257810676323e+000	 9.082882250080715e+000
 3.891909828355884e-002	 4.119812161944039e+000	 9.155108706013808e+000
 0.000000000000000e+000	 4.119995999990449e+000	 9.249325376296255e+000
 3.978360040664137e-001	 4.127535527265377e+000	 8.953242798615733e+000
 3.574993120347237e-001	 4.131224608939702e+000	 8.968416741899651e+000
 3.172717682453777e-001	 4.134508521175254e+000	 8.977212103104929e+000
 2.771587344514757e-001	 4.137391060299332e+000	 8.983748284536926e+000
 2.371654581027822e-001	 4.139876096815146e+000	 8.992135045610310e+000
 1.972970716167970e-001	 4.141967571990445e+000	 9.006347452085574e+000
 1.575585917575194e-001	 4.143669494464162e+000	 9.030109305305306e+000
 1.179549191198395e-001	 4.144985936874437e+000	 9.066783996413493e+000
 7.849083771739961e-002	 4.145921032511149e+000	 9.119271812375050e+000
 3.917101467168404e-002	 4.146478971996061e+000	 9.189912804898141e+000
 0.000000000000000e+000	 4.146663999993465e+000	 9.280394419858412e+000
 4.003945645278038e-001	 4.154080508348820e+000	 8.966233738337877e+000
 3.597984594104606e-001	 4.157793315222784e+000	 8.979086833851584e+000
 3.193122044889351e-001	 4.161098346934876e+000	 8.986611958386805e+000
 2.789411959988171e-001	 4.163999424227288e+000	 8.992375249061210e+000
 2.386907151372550e-001	 4.166500442495146e+000	 8.999925999738245e+000
 1.985659273293368e-001	 4.168605368353228e+000	 9.012677028413783e+000
 1.585718816028598e-001	 4.170318236220767e+000	 9.033793296083958e+000
 1.187135100694059e-001	 4.171643144927797e+000	 9.066087672909056e+000
 7.899562750955232e-002	 4.172584254346155e+000	 9.111922834952672e+000
 3.942293105996174e-002	 4.173145782048278e+000	 9.173118364677988e+000
 0.000000000000000e+000	 4.173331999996682e+000	 9.250862220295366e+000
 4.029531249892538e-001	 4.180625489432248e+000	 8.966900477051139e+000
 3.620976067863624e-001	 4.184362021505855e+000	 8.975348532110504e+000
 3.213526407327571e-001	 4.187688172694503e+000	 8.979163401902387e+000
 2.807236575465107e-001	 4.190607788155261e+000	 8.981247494470900e+000
 2.402159721721477e-001	 4.193124788175180e+000	 8.984481213079913e+000
 1.998347830423366e-001	 4.195243164716059e+000	 8.991609230601434e+000
 1.595851714486658e-001	 4.196966977977436e+000	 9.005134760055856e+000
 1.194721010194017e-001	 4.198300352981236e+000	 9.027220666336739e+000
 7.950041730204928e-002	 4.199247476181253e+000	 9.059596357488031e+000
 3.967484744844285e-002	 4.199812592100591e+000	 9.103469489657764e+000
 0.000000000000000e+000	 4.200000000000001e+000	 9.159441617432050e+000
 4.200000000000001e+000	 0.000000000000000e+000	 1.038612158707884e+001
 4.199812592100591e+000	 3.967484744844298e-002	 1.041796018925433e+001
 4.199247476181254e+000	 7.950041730204951e-002	 1.043609676870844e+001
 4.198300352981237e+000	 1.194721010194014e-001	 1.044380102166595e+001
 4.196966977977437e+000	 1.595851714486656e-001	 1.044426010342014e+001
 4.195243164716060e+000	 1.998347830423366e-001	 1.044055970572504e+001
 4.193124788175180e+000	 2.402159721721477e-001	 1.043566286941344e+001
 4.190607788155260e+000	 2.807236575465109e-001	 1.043238623240869e+001
 4.187688172694504e+000	 3.213526407327567e-001	 1.043337337612424e+001
 4.184362021505856e+000	 3.620976067863622e-001	 1.044106489604889e+001
 4.180625489432249e+000	 4.029531249892535e-001	 1.045766478440542e+001
 4.226668000003317e+000	 0.000000000000000e+000	 1.041119036869147e+001
 4.226479402152905e+000	 3.992676383716136e-002	 1.043476584283579e+001
 4.225910698016349e+000	 8.000520709494818e-002	 1.044703884640624e+001
 4.224957561034674e+000	 1.202306919698985e-001	 1.045081453592704e+001
 4.223615719734106e+000	 1.605984612950158e-001	 1.044882725616128e+001
 4.221880961078891e+000	 2.011036387558750e-001	 1.044372317686755e+001
 4.219749133855213e+000	 2.417412292075336e-001	 1.043804081765238e+001
 4.217216152083234e+000	 2.825061190946210e-001	 1.043418915722712e+001
 4.214277998454134e+000	 3.233930769768958e-001	 1.043442298430070e+001
 4.210930727788929e+000	 3.643967541624678e-001	 1.044081510793214e+001
 4.207170470515677e+000	 4.055116854507894e-001	 1.045522500493757e+001
 4.253336000006533e+000	 0.000000000000000e+000	 1.043271349457664e+001
 4.253146212205121e+000	 4.017868022608315e-002	 1.044962584574756e+001
 4.252573919851357e+000	 8.050999688819119e-002	 1.045731452801196e+001
 4.251614769088036e+000	 1.209892829208253e-001	 1.045815315142859e+001
 4.250264461490711e+000	 1.616117511418325e-001	 1.045445643098611e+001
 4.248518757441675e+000	 2.023724944698755e-001	 1.044846439302801e+001
 4.246373479535218e+000	 2.432664862433427e-001	 1.044232463233258e+001
 4.243824516011197e+000	 2.842885806430889e-001	 1.043807231257094e+001
 4.240867824213766e+000	 3.254335132213078e-001	 1.043760756178709e+001
 4.237499434072025e+000	 3.666959015387498e-001	 1.044266987284511e+001
 4.233715451599139e+000	 4.080702459124010e-001	 1.045480907615808e+001
 4.280004000009551e+000	 0.000000000000000e+000	 1.045008757316864e+001
 4.279813022257142e+000	 4.043059661515750e-002	 1.046184529539008e+001
 4.279237141686183e+000	 8.101478668169247e-002	 1.046616045720355e+001
 4.278271977141237e+000	 1.217478738720743e-001	 1.046500766311930e+001
 4.276913203247188e+000	 1.626250409889992e-001	 1.046031462767330e+001
 4.275156553804367e+000	 2.036413501842226e-001	 1.045394796159069e+001
 4.272997825215164e+000	 2.447917432794693e-001	 1.044769718133247e+001
 4.270432879939135e+000	 2.860710421918251e-001	 1.044325663144933e+001
 4.267457649973411e+000	 3.274739494659243e-001	 1.044220496598709e+001
 4.264068140355160e+000	 3.689950489151640e-001	 1.044598179112320e+001
 4.260260432682666e+000	 4.106288063740697e-001	 1.045586102608750e+001
 4.306672000012267e+000	 0.000000000000000e+000	 1.046284022271082e+001
 4.306479832308872e+000	 4.068251300433352e-002	 1.047084463043867e+001
 4.305900363520743e+000	 8.151957647536590e-002	 1.047291349741071e+001
 4.304929185194208e+000	 1.225064648235383e-001	 1.047065452193472e+001
 4.303561945003476e+000	 1.636383308363991e-001	 1.046564050439672e+001
 4.301794350166916e+000	 2.049102058988005e-001	 1.045939672297288e+001
 4.299622170895022e+000	 2.463170003158075e-001	 1.045338671610601e+001
 4.297041243867040e+000	 2.878535037407402e-001	 1.044899615817554e+001
 4.294047475733072e+000	 3.295143857106775e-001	 1.044751446941204e+001
 4.290636846638357e+000	 3.712941962916665e-001	 1.045011375459140e+001
 4.286805413766293e+000	 4.131873668357764e-001	 1.045782461733591e+001
 4.333340000014584e+000	 0.000000000000000e+000	 1.047062603999030e+001
 4.333146642360213e+000	 4.093442939356041e-002	 1.047615577666882e+001
 4.332563585354944e+000	 8.202436626912543e-002	 1.047700707637214e+001
 4.331586393246865e+000	 1.232650557751097e-001	 1.047445239924256e+001
 4.330210686759509e+000	 1.646516206839158e-001	 1.046974118269001e+001
 4.328432146529278e+000	 2.061790616134940e-001	 1.046408881616907e+001
 4.326246516574763e+000	 2.478422573522515e-001	 1.045866421725250e+001
 4.323649607794899e+000	 2.896359652897447e-001	 1.045457569275288e+001
 4.320637301492754e+000	 3.315548219554990e-001	 1.045285472097283e+001
 4.317205552921638e+000	 3.735933436682132e-001	 1.045443724211055e+001
 4.313350394850049e+000	 4.157459272975019e-001	 1.046014199346583e+001
 4.360008000016401e+000	 0.000000000000000e+000	 1.047322271701582e+001
 4.359813452411068e+000	 4.118634578278727e-002	 1.047741843447668e+001
 4.359226807188694e+000	 8.252915606288491e-002	 1.047796766584393e+001
 4.358243601299131e+000	 1.240236467266810e-001	 1.047583887961648e+001
 4.356859428515223e+000	 1.656649105314324e-001	 1.047198917364976e+001
 4.355069942891405e+000	 2.074479173281874e-001	 1.046735485819339e+001
 4.352870862254358e+000	 2.493675143886955e-001	 1.046284084641068e+001
 4.350257971722702e+000	 2.914184268387492e-001	 1.045930853379207e+001
 4.347227127252464e+000	 3.335952582003203e-001	 1.045756179780960e+001
 4.343774259205020e+000	 3.758924910447598e-001	 1.045833069748137e+001
 4.339895375933968e+000	 4.183044877592276e-001	 1.046225239936556e+001
 4.386676000017618e+000	 0.000000000000000e+000	 1.047052729934326e+001
 4.386480262461337e+000	 4.143826217196327e-002	 1.047437650206364e+001
 4.385890029021907e+000	 8.303394585655828e-002	 1.047541139070811e+001
 4.384900809350929e+000	 1.247822376781449e-001	 1.047432727647584e+001
 4.383508170270558e+000	 1.666782003788322e-001	 1.047181942021724e+001
 4.381707739253251e+000	 2.087167730427653e-001	 1.046857523257336e+001
 4.379495207933779e+000	 2.508927714250337e-001	 1.046526549995249e+001
 4.376866335650435e+000	 2.932008883876641e-001	 1.046253431576784e+001
 4.373816953012211e+000	 3.356356944450734e-001	 1.046098734380611e+001
 4.370342965488526e+000	 3.781916384212622e-001	 1.046117798620239e+001
 4.366440357018084e+000	 4.208630482209341e-001	 1.046359097248360e+001
 4.413344000018133e+000	 0.000000000000000e+000	 1.046255258005742e+001
 4.413147072510928e+000	 4.169017856103756e-002	 1.046687462854832e+001
 4.412553250854495e+000	 8.353873565005951e-002	 1.046904076200734e+001
 4.411558017402181e+000	 1.255408286293939e-001	 1.046950356539483e+001
 4.410156912025450e+000	 1.676914902259988e-001	 1.046872645062859e+001
 4.408345535614768e+000	 2.099856287571122e-001	 1.046717748228256e+001
 4.406119553612993e+000	 2.524180284611601e-001	 1.046532246017082e+001
 4.403474699578092e+000	 2.949833499364003e-001	 1.046361693662402e+001
 4.400406778771991e+000	 3.376761306896900e-001	 1.046249679112201e+001
 4.396911671772176e+000	 3.804907857976765e-001	 1.046236692774495e+001
 4.392985338102428e+000	 4.234216086826028e-001	 1.046358760192664e+001
 4.440012000017850e+000	 0.000000000000000e+000	 1.044942362370612e+001
 4.439813882559738e+000	 4.194209494995928e-002	 1.045485489154174e+001
 4.439216472686361e+000	 8.404352544330236e-002	 1.045864152869587e+001
 4.438215225452806e+000	 1.262994195803206e-001	 1.046102343013355e+001
 4.436805653779830e+000	 1.687047800728155e-001	 1.046226163836015e+001
 4.434983331975912e+000	 2.112544844711125e-001	 1.046263380272094e+001
 4.432743899291975e+000	 2.539432854969692e-001	 1.046242913986165e+001
 4.430083063505655e+000	 2.967658114848681e-001	 1.046194257192816e+001
 4.426996604531820e+000	 3.397165669341018e-001	 1.046146766125290e+001
 4.423480378055991e+000	 3.827899331739585e-001	 1.046128790017139e+001
 4.419530319187035e+000	 4.259801691442145e-001	 1.046166585256774e+001
 4.466680000016666e+000	 0.000000000000000e+000	 1.043137441475612e+001
 4.466480692607678e+000	 4.219401133867761e-002	 1.043835359398522e+001
 4.465879694517425e+000	 8.454831523620093e-002	 1.044407964314516e+001
 4.464872433502731e+000	 1.270580105308174e-001	 1.044860941668030e+001
 4.463454395533637e+000	 1.697180699191653e-001	 1.045203056411744e+001
 4.461621128336632e+000	 2.125233401846509e-001	 1.045445863056137e+001
 4.459368244970698e+000	 2.554685425323549e-001	 1.045603391639764e+001
 4.456691427433116e+000	 2.985482730329781e-001	 1.045691777195894e+001
 4.453586430291698e+000	 3.417570031782408e-001	 1.045728794229375e+001
 4.450049084339993e+000	 3.850890805500641e-001	 1.045733251407206e+001
 4.446075300271936e+000	 4.285387296057503e-001	 1.045724195144753e+001
 4.180625489432249e+000	 4.029531249892535e-001	 1.045766478440542e+001
 4.176475463857044e+000	 4.439075127552786e-001	 1.047640361181940e+001
 4.171907732972210e+000	 4.849613058567809e-001	 1.049013893481347e+001
 4.166918700055335e+000	 5.261088241467261e-001	 1.050014268815751e+001
 4.161504857197135e+000	 5.673442784153436e-001	 1.050742920835336e+001
 4.155662788750936e+000	 6.086617716998225e-001	 1.051269961889529e+001
 4.149389174776560e+000	 6.500553007098914e-001	 1.051627910903454e+001
 4.142680794474464e+000	 6.915187573703855e-001	 1.051833581281379e+001
 4.135534529605870e+000	 7.330459304817428e-001	 1.052048403113705e+001
 4.127947367894608e+000	 7.746305074992249e-001	 1.052432247325714e+001
 4.119916406406245e+000	 8.162660764314833e-001	 1.053124978668494e+001
 4.207170470515677e+000	 4.055116854507894e-001	 1.045522500493757e+001
 4.202994094254132e+000	 4.467261140768506e-001	 1.047179330216954e+001
 4.198397360453264e+000	 4.880405792149010e-001	 1.048442104053154e+001
 4.193376649553178e+000	 5.294493646516859e-001	 1.049427642542681e+001
 4.187928431371006e+000	 5.709466444187180e-001	 1.050229927942874e+001
 4.182049268572324e+000	 6.125264841102887e-001	 1.050914773837955e+001
 4.175735820136896e+000	 6.541828423181010e-001	 1.051513784874216e+001
 4.168984844814609e+000	 6.959095721836307e-001	 1.052028020425439e+001
 4.161793204567331e+000	 7.377004230691650e-001	 1.052533974302798e+001
 4.154157867992349e+000	 7.795490423483209e-001	 1.053161542688066e+001
 4.146075913722957e+000	 8.214489773166679e-001	 1.054030235632201e+001
 4.233715451599139e+000	 4.080702459124010e-001	 1.045480907615808e+001
 4.229512724651258e+000	 4.495447153984008e-001	 1.046905699753419e+001
 4.224886987934366e+000	 4.911198525729065e-001	 1.048032522067179e+001
 4.219834599051070e+000	 5.327899051564446e-001	 1.048969184311379e+001
 4.214352005544933e+000	 5.745490104218120e-001	 1.049803520372216e+001
 4.208435748393774e+000	 6.163911965204039e-001	 1.050598299945297e+001
 4.202082465497299e+000	 6.583103839258993e-001	 1.051385432164586e+001
 4.195288895154834e+000	 7.003003869964145e-001	 1.052138931708482e+001
 4.188051879528886e+000	 7.423549156560877e-001	 1.052865472721760e+001
 4.180368368090208e+000	 7.844675771968940e-001	 1.053673307822737e+001
 4.172235421039816e+000	 8.266318782013202e-001	 1.054663288746561e+001
 4.260260432682666e+000	 4.106288063740697e-001	 1.045586102608750e+001
 4.256031355048466e+000	 4.523633167199346e-001	 1.046773751326955e+001
 4.251376615415561e+000	 4.941991259308262e-001	 1.047749128078561e+001
 4.246292548549062e+000	 5.361304456610526e-001	 1.048612289657980e+001
 4.240775579718958e+000	 5.781513764246955e-001	 1.049446114100383e+001
 4.234822228215323e+000	 6.202559089302560e-001	 1.050311465911138e+001
 4.228429110857804e+000	 6.624379255333882e-001	 1.051241656175113e+001
 4.221592945495160e+000	 7.046912018088519e-001	 1.052171939186099e+001
 4.214310554490549e+000	 7.470094082426364e-001	 1.053058355969858e+001
 4.206578868188181e+000	 7.893861120450735e-001	 1.053991953417793e+001
 4.198394928356806e+000	 8.318147790855721e-001	 1.055056581583360e+001
 4.286805413766293e+000	 4.131873668357764e-001	 1.045782461733591e+001
 4.282549985445800e+000	 4.551819180414574e-001	 1.046736760263248e+001
 4.277866242896896e+000	 4.972783992886886e-001	 1.047554011038973e+001
 4.272750498047201e+000	 5.394709861655601e-001	 1.048327669257748e+001
 4.267199153893132e+000	 5.817537424274391e-001	 1.049136736725133e+001
 4.261208708037016e+000	 6.241206213399325e-001	 1.050041192628835e+001
 4.254775756218444e+000	 6.665654671406718e-001	 1.051076723275384e+001
 4.247896995835610e+000	 7.090820166210586e-001	 1.052128351146016e+001
 4.240569229452331e+000	 7.516639008289350e-001	 1.053123195185083e+001
 4.232789368286272e+000	 7.943046468929923e-001	 1.054136498891753e+001
 4.224554435673913e+000	 8.369976799695581e-001	 1.055236727032901e+001
 4.313350394850049e+000	 4.157459272975019e-001	 1.046014199346583e+001
 4.309068615843296e+000	 4.580005193629748e-001	 1.046746896347750e+001
 4.304355870378412e+000	 5.003576726465224e-001	 1.047407305270866e+001
 4.299208447545528e+000	 5.428115266700171e-001	 1.048083322410760e+001
 4.293622728067492e+000	 5.853561084301129e-001	 1.048851037602019e+001
 4.287595187858888e+000	 6.279853337495214e-001	 1.049770443044350e+001
 4.281122401579249e+000	 6.706930087478523e-001	 1.050878962722157e+001
 4.274201046176213e+000	 7.134728314331501e-001	 1.052005193421474e+001
 4.266827904414244e+000	 7.563183934151092e-001	 1.053065735829573e+001
 4.258999868384476e+000	 7.992231817407798e-001	 1.054120660206184e+001
 4.250713942991122e+000	 8.421805808534110e-001	 1.055224621658739e+001
 4.339895375933968e+000	 4.183044877592276e-001	 1.046225239936556e+001
 4.335587246240998e+000	 4.608191206844922e-001	 1.046755131069410e+001
 4.330845497860159e+000	 5.034369460043562e-001	 1.047267133220017e+001
 4.325666397044096e+000	 5.461520671744742e-001	 1.047844515542347e+001
 4.320046302242091e+000	 5.889584744327863e-001	 1.048561302265656e+001
 4.313981667680984e+000	 6.318500461591105e-001	 1.049478272602534e+001
 4.307469046940256e+000	 6.748205503550326e-001	 1.050631275674982e+001
 4.300505096516986e+000	 7.178636462452411e-001	 1.051795245004024e+001
 4.293086579376300e+000	 7.609728860012833e-001	 1.052886960183669e+001
 4.285210368482795e+000	 8.041417165885675e-001	 1.053952938832861e+001
 4.276873450308417e+000	 8.473634817372634e-001	 1.055035560690458e+001
 4.366440357018084e+000	 4.208630482209341e-001	 1.046359097248360e+001
 4.362105876638948e+000	 4.636377220060151e-001	 1.046711151158624e+001
 4.357335125342182e+000	 5.065162193622186e-001	 1.047089553740431e+001
 4.352124346542950e+000	 5.494926076789815e-001	 1.047573765504827e+001
 4.346469876416969e+000	 5.925608404355300e-001	 1.048236470952837e+001
 4.340368147503342e+000	 6.357147585687870e-001	 1.049139883128186e+001
 4.333815692301494e+000	 6.789480919623160e-001	 1.050313936634644e+001
 4.326809146857958e+000	 7.222544610574481e-001	 1.051487075857880e+001
 4.319345254338513e+000	 7.656273785875819e-001	 1.052583151475859e+001
 4.311420868581225e+000	 8.090602514364861e-001	 1.053636711826398e+001
 4.303032957625782e+000	 8.525463826212496e-001	 1.054679353627331e+001
 4.392985338102428e+000	 4.234216086826028e-001	 1.046358760192664e+001
 4.388624507037182e+000	 4.664563233275488e-001	 1.046563278153171e+001
 4.383824752824527e+000	 5.095954927201384e-001	 1.046828515677630e+001
 4.378582296042137e+000	 5.528331481835895e-001	 1.047230827477497e+001
 4.372893450592175e+000	 5.961632064384138e-001	 1.047842161054033e+001
 4.366754627326002e+000	 6.395794709786391e-001	 1.048726679996600e+001
 4.360162337663001e+000	 6.830756335698054e-001	 1.049903581391498e+001
 4.353113197199151e+000	 7.266452758698855e-001	 1.051065086842733e+001
 4.345603929300892e+000	 7.702818711741306e-001	 1.052145959579457e+001
 4.337631368679769e+000	 8.139787862846662e-001	 1.053170322955579e+001
 4.329192464943203e+000	 8.577292835055018e-001	 1.054160440427028e+001
 4.419530319187035e+000	 4.259801691442145e-001	 1.046166585256774e+001
 4.415143137435748e+000	 4.692749246490990e-001	 1.046258393738709e+001
 4.410314380307235e+000	 5.126747660781439e-001	 1.046435816527494e+001
 4.405040245541704e+000	 5.561736886883483e-001	 1.046772687271491e+001
 4.399317024767751e+000	 5.997655724415077e-001	 1.047340693328056e+001
 4.393141107149004e+000	 6.434441833887548e-001	 1.048206332455310e+001
 4.386508983024807e+000	 6.872031751776035e-001	 1.049373222112251e+001
 4.379417247540587e+000	 7.310360906826693e-001	 1.050509551656382e+001
 4.371862604263452e+000	 7.749363637610534e-001	 1.051562468210141e+001
 4.363841868778422e+000	 8.188973211332392e-001	 1.052547174848911e+001
 4.355351972260665e+000	 8.629121843901541e-001	 1.053478008254808e+001
 4.446075300271936e+000	 4.285387296057503e-001	 1.045724195144753e+001
 4.441661767834682e+000	 4.720935259706711e-001	 1.045741870622423e+001
 4.436804007790361e+000	 5.157540394362641e-001	 1.045861065958560e+001
 4.431498195041699e+000	 5.595142291933083e-001	 1.046153557855433e+001
 4.425740598943744e+000	 6.033679384448822e-001	 1.046691121722652e+001
 4.419527586972393e+000	 6.473088957992210e-001	 1.047542836965337e+001
 4.412855628386947e+000	 6.913307167858135e-001	 1.048692266220090e+001
 4.405721297882294e+000	 7.354269054959151e-001	 1.049796660712775e+001
 4.398121279226208e+000	 7.795908563484759e-001	 1.050815263561635e+001
 4.390052368877188e+000	 8.238158559823358e-001	 1.051755822111995e+001
 4.381511479578153e+000	 8.680950852753392e-001	 1.052626108769762e+001
 4.119916406406245e+000	 8.162660764314833e-001	 1.053124978668494e+001
 4.111437550096344e+000	 8.579523818866409e-001	 1.053986569871709e+001
 4.102509297934843e+000	 8.996765657436617e-001	 1.054857211234877e+001
 4.093129097513706e+000	 9.414319172861080e-001	 1.055826717395217e+001
 4.083294519104891e+000	 9.832116348843372e-001	 1.056969691504960e+001
 4.073003258861229e+000	 1.025008828498531e+000	 1.058342849269158e+001
 4.062253141966685e+000	 1.066816522301443e+000	 1.059982706357104e+001
 4.051042125731239e+000	 1.108627657420195e+000	 1.061901456406830e+001
 4.039368302625527e+000	 1.150435094796214e+000	 1.064084089170547e+001
 4.027229903250404e+000	 1.192231618162235e+000	 1.066484254047794e+001
 4.014625299236578e+000	 1.234009937135045e+000	 1.069019912191542e+001
 4.146075913722957e+000	 8.214489773166679e-001	 1.054030235632201e+001
 4.137543220713117e+000	 8.633999709607193e-001	 1.055021975171426e+001
 4.128558278401947e+000	 9.053890835164926e-001	 1.056006361144577e+001
 4.119118518174838e+000	 9.474095616576926e-001	 1.057066220115643e+001
 4.109221494876151e+000	 9.894545605675654e-001	 1.058270277227807e+001
 4.098864890030392e+000	 1.031517146457817e+000	 1.059670543680760e+001
 4.088046515012491e+000	 1.073590299208018e+000	 1.061299952116540e+001
 4.076764314162331e+000	 1.115666915124804e+000	 1.063168424302481e+001
 4.065016367838656e+000	 1.157739809819977e+000	 1.065259911428305e+001
 4.052800895407486e+000	 1.199801721206408e+000	 1.067528317725538e+001
 4.040116258160177e+000	 1.241845312610418e+000	 1.069893175323061e+001
 4.172235421039816e+000	 8.266318782013202e-001	 1.054663288746561e+001
 4.163648891330076e+000	 8.688475600342713e-001	 1.055734086189647e+001
 4.154607258869276e+000	 9.111016012888170e-001	 1.056779026515488e+001
 4.145107938836247e+000	 9.533872060288049e-001	 1.057874862347359e+001
 4.135148470647740e+000	 9.956974862503657e-001	 1.059085386005418e+001
 4.124726521199935e+000	 1.038025464416730e+000	 1.060458881697048e+001
 4.113839888058725e+000	 1.080364076114282e+000	 1.062025727534172e+001
 4.102486502593892e+000	 1.122706172829172e+000	 1.063794635572939e+001
 4.090664433052283e+000	 1.165044524843574e+000	 1.065749636020270e+001
 4.078371887565092e+000	 1.207371824250492e+000	 1.067846062132223e+001
 4.065607217084311e+000	 1.249680688085785e+000	 1.070006253682230e+001
 4.198394928356806e+000	 8.318147790855721e-001	 1.055056581583360e+001
 4.189754561947186e+000	 8.742951491074279e-001	 1.056163281987834e+001
 4.180656239336789e+000	 9.168141190607618e-001	 1.057224253775773e+001
 4.171097359497876e+000	 9.593648503995625e-001	 1.058311058449783e+001
 4.161075446419581e+000	 1.001940411932846e+000	 1.059483465985229e+001
 4.150588152369765e+000	 1.044533782375364e+000	 1.060786973626884e+001
 4.139633261105279e+000	 1.087137853020315e+000	 1.062250391626530e+001
 4.128208691025804e+000	 1.129745430533360e+000	 1.063882241433562e+001
 4.116312498266289e+000	 1.172349239867047e+000	 1.065667703785291e+001
 4.103942879723094e+000	 1.214941927294513e+000	 1.067564666916575e+001
 4.091098176008842e+000	 1.257516063561146e+000	 1.069499464812127e+001
 4.224554435673913e+000	 8.369976799695581e-001	 1.055236727032901e+001
 4.215860232564423e+000	 8.797427381803210e-001	 1.056343714838408e+001
 4.206705219804441e+000	 9.225266368324538e-001	 1.057384487369573e+001
 4.197086780159656e+000	 9.653424947700836e-001	 1.058426265202659e+001
 4.187002422191599e+000	 1.008183337615112e+000	 1.059525670320033e+001
 4.176449783539792e+000	 1.051042100333811e+000	 1.060726313985050e+001
 4.165426634152051e+000	 1.093911629926192e+000	 1.062056381918011e+001
 4.153930879457953e+000	 1.136784688237429e+000	 1.063525179251243e+001
 4.141960563480546e+000	 1.179653954890438e+000	 1.065120060911906e+001
 4.129513871881355e+000	 1.222512030338490e+000	 1.066802545966249e+001
 4.116589134933640e+000	 1.265351439036504e+000	 1.068504097143053e+001
 4.250713942991122e+000	 8.421805808534110e-001	 1.055224621658739e+001
 4.241965903181751e+000	 8.851903272530826e-001	 1.056303451258060e+001
 4.232754200272183e+000	 9.282391546040192e-001	 1.057295738226376e+001
 4.223076200821531e+000	 9.713201391404873e-001	 1.058265178438017e+001
 4.212929397963710e+000	 1.014426263297271e+000	 1.059266007109672e+001
 4.202311414709921e+000	 1.057550418292166e+000	 1.060341036499867e+001
 4.191220007198933e+000	 1.100685406831993e+000	 1.061518499586355e+001
 4.179653067890218e+000	 1.143823945941438e+000	 1.062809488412568e+001
 4.167608628694930e+000	 1.186958669913788e+000	 1.064204506074328e+001
 4.155084864039748e+000	 1.230082133382446e+000	 1.065669726315755e+001
 4.142080093858573e+000	 1.273186814511861e+000	 1.067142821133942e+001
 4.276873450308417e+000	 8.473634817372634e-001	 1.055035560690458e+001
 4.268071573799144e+000	 8.906379163258444e-001	 1.056064613176448e+001
 4.258803180739969e+000	 9.339516723755845e-001	 1.056987751853265e+001
 4.249065621483434e+000	 9.772977835108906e-001	 1.057865928772840e+001
 4.238856373735842e+000	 1.020669188979430e+000	 1.058751879345404e+001
 4.228173045880061e+000	 1.064058736250520e+000	 1.059688167148803e+001
 4.217013380245823e+000	 1.107459183737793e+000	 1.060704192086217e+001
 4.205375256322487e+000	 1.150863203645447e+000	 1.061813623111290e+001
 4.193256693909314e+000	 1.194263384937138e+000	 1.063011033920519e+001
 4.180655856198142e+000	 1.237652236426401e+000	 1.064268222830854e+001
 4.167571052783504e+000	 1.281022189987216e+000	 1.065530095606555e+001
 4.303032957625782e+000	 8.525463826212496e-001	 1.054679353627331e+001
 4.294177244416570e+000	 8.960855053987377e-001	 1.055643519234508e+001
 4.284852161207753e+000	 9.396641901472765e-001	 1.056484176066114e+001
 4.275055042145304e+000	 9.832754278814120e-001	 1.057260276480769e+001
 4.264783349507913e+000	 1.026912114661696e+000	 1.058023810981360e+001
 4.254034677050120e+000	 1.070567054208968e+000	 1.058817875306029e+001
 4.242806753292610e+000	 1.114232960643671e+000	 1.059673833358143e+001
 4.231097444754642e+000	 1.157902461349516e+000	 1.060608762186300e+001
 4.218904759123573e+000	 1.201568099960529e+000	 1.061622175067537e+001
 4.206226848356404e+000	 1.245222339470378e+000	 1.062692408849119e+001
 4.193062011708302e+000	 1.288857565462575e+000	 1.063772569477016e+001
 4.329192464943203e+000	 8.577292835055018e-001	 1.054160440427028e+001
 4.320282915033995e+000	 9.015330944718943e-001	 1.055050826206952e+001
 4.310901141675489e+000	 9.453767079192216e-001	 1.055802728375022e+001
 4.301044462807080e+000	 9.892530722521699e-001	 1.056473805539227e+001
 4.290710325279849e+000	 1.033155040344177e+000	 1.057116016381558e+001
 4.279896308220005e+000	 1.077075372167601e+000	 1.057773723081755e+001
 4.268600126339194e+000	 1.121006737549704e+000	 1.058481001725082e+001
 4.256819633186567e+000	 1.164941719053704e+000	 1.059259116134790e+001
 4.244552824337582e+000	 1.208872814984002e+000	 1.060113332751931e+001
 4.231797840514404e+000	 1.252792442514398e+000	 1.061029382947739e+001
 4.218552970632834e+000	 1.296692940937936e+000	 1.061969479079396e+001
 4.355351972260665e+000	 8.629121843901541e-001	 1.053478008254808e+001
 4.346388585651393e+000	 9.069806835454463e-001	 1.054291670543677e+001
 4.336950122143130e+000	 9.510892256915464e-001	 1.054955363038504e+001
 4.327033883468699e+000	 9.952307166232823e-001	 1.055526116886671e+001
 4.316637301051570e+000	 1.039397966026977e+000	 1.056056528605967e+001
 4.305757939389625e+000	 1.083583690126515e+000	 1.056592912929404e+001
 4.294393499385466e+000	 1.127780514455969e+000	 1.057172755573697e+001
 4.282541821618144e+000	 1.171980976758072e+000	 1.057822231419414e+001
 4.270200889551217e+000	 1.216177530007600e+000	 1.058553116275795e+001
 4.257368832672011e+000	 1.260362545558484e+000	 1.059359332001335e+001
 4.244043929556965e+000	 1.304528316413302e+000	 1.060213041266614e+001
 4.381511479578153e+000	 8.680950852753392e-001	 1.052626108769762e+001
 4.372494256268734e+000	 9.124282726195251e-001	 1.053365810025190e+001
 4.362999102610631e+000	 9.568017434643775e-001	 1.053948437800329e+001
 4.353023304130100e+000	 1.001208360994867e+000	 1.054431020922973e+001
 4.342564276822998e+000	 1.045640891710206e+000	 1.054867418327880e+001
 4.331619570558887e+000	 1.090092008085801e+000	 1.055306533592996e+001
 4.320186872431323e+000	 1.134554291362543e+000	 1.055789906913000e+001
 4.308264010049258e+000	 1.179020234462681e+000	 1.056349292182502e+001
 4.295848954764352e+000	 1.223482245031362e+000	 1.057003671382409e+001
 4.282939824829096e+000	 1.267932648602656e+000	 1.057755890684887e+001
 4.269534888480566e+000	 1.312363691888676e+000	 1.058588842465176e+001
 4.014625299236578e+000	 1.234009937135045e+000	 1.069019912191542e+001
 4.001553005065471e+000	 1.275762689811019e+000	 1.071283185016552e+001
 3.988011677797905e+000	 1.317482444190801e+000	 1.072814772257024e+001
 3.974000122742365e+000	 1.359161703337862e+000	 1.073579859667141e+001
 3.959517297036671e+000	 1.400792909513493e+000	 1.074266161159816e+001
 3.944562312133359e+000	 1.442368447821711e+000	 1.074939104501897e+001
 3.929134436186638e+000	 1.483880649957763e+000	 1.075570944714619e+001
 3.913233096336334e+000	 1.525321798057408e+000	 1.076116662191246e+001
 3.896857880884244e+000	 1.566684128643885e+000	 1.076513447816919e+001
 3.880008541358523e+000	 1.607959836669317e+000	 1.076680280313283e+001
 3.862684994461763e+000	 1.649141079647046e+000	 1.076517611394509e+001
 4.040116258160177e+000	 1.241845312610418e+000	 1.069893175323061e+001
 4.026960961145822e+000	 1.283863175383798e+000	 1.071950651143897e+001
 4.013333652898217e+000	 1.325847830337527e+000	 1.073259097093301e+001
 3.999233131140133e+000	 1.367791732933090e+000	 1.073959816851666e+001
 3.984658346387703e+000	 1.409687277443729e+000	 1.074620927226280e+001
 3.969608404451609e+000	 1.451526800622489e+000	 1.075253019058231e+001
 3.954082568839193e+000	 1.493302585474527e+000	 1.075836277283666e+001
 3.938080263052889e+000	 1.535006865130829e+000	 1.076335168580624e+001
 3.921601072780403e+000	 1.576631826820246e+000	 1.076697867279907e+001
 3.904644747972214e+000	 1.618169615936556e+000	 1.076855769947433e+001
 3.887211204802014e+000	 1.659612340197034e+000	 1.076723114921643e+001
 4.065607217084311e+000	 1.249680688085785e+000	 1.070006253682230e+001
 4.052368917226699e+000	 1.291963660956650e+000	 1.071843497068407e+001
 4.038655627999037e+000	 1.334213216484404e+000	 1.072939639669085e+001
 4.024466139538371e+000	 1.376421762528545e+000	 1.073562579012631e+001
 4.009799395739160e+000	 1.418581645374264e+000	 1.074108357139330e+001
 3.994654496770230e+000	 1.460685153423632e+000	 1.074633390684259e+001
 3.979030701492055e+000	 1.502724520991713e+000	 1.075138878598961e+001
 3.962927429769677e+000	 1.544691932204722e+000	 1.075593024466118e+001
 3.946344264676717e+000	 1.586579524997117e+000	 1.075952519111288e+001
 3.929280954585979e+000	 1.628379395204330e+000	 1.076158349725898e+001
 3.911737415142254e+000	 1.670083600747572e+000	 1.076135348287362e+001
 4.091098176008842e+000	 1.257516063561146e+000	 1.069499464812127e+001
 4.077776873307970e+000	 1.300064146529557e+000	 1.071112955654690e+001
 4.063977603100237e+000	 1.342578602631396e+000	 1.072034742104431e+001
 4.049699147936962e+000	 1.385051792124171e+000	 1.072594850237794e+001
 4.034940445090934e+000	 1.427476013305023e+000	 1.073035575553007e+001
 4.019700589089125e+000	 1.469843506225049e+000	 1.073418799010317e+001
 4.003978834145141e+000	 1.512146456509219e+000	 1.073796766723841e+001
 3.987774596486632e+000	 1.554376999278973e+000	 1.074193612330816e+001
 3.971087456573137e+000	 1.596527223174379e+000	 1.074562623374273e+001
 3.953917161199784e+000	 1.638589174472521e+000	 1.074850445096139e+001
 3.936263625482468e+000	 1.680554861298542e+000	 1.074989393470728e+001
 4.116589134933640e+000	 1.265351439036504e+000	 1.068504097143053e+001
 4.103184829389506e+000	 1.308164632102501e+000	 1.069901036726028e+001
 4.089299578201687e+000	 1.350943988778463e+000	 1.070691902415235e+001
 4.074932156335789e+000	 1.393681821719911e+000	 1.071197536766739e+001
 4.060081494442918e+000	 1.436370381235934e+000	 1.071566559514307e+001
 4.044746681408201e+000	 1.479001859026653e+000	 1.071862300726319e+001
 4.028926966798368e+000	 1.521568392026945e+000	 1.072139651447163e+001
 4.012621763203688e+000	 1.564062066353473e+000	 1.072443613389291e+001
 3.995830648469615e+000	 1.606474921351917e+000	 1.072805900073555e+001
 3.978553367813597e+000	 1.648798953741010e+000	 1.073187195554942e+001
 3.960789835822633e+000	 1.691026121849827e+000	 1.073513374706765e+001
 4.142080093858573e+000	 1.273186814511861e+000	 1.067142821133942e+001
 4.128592785471174e+000	 1.316265117675463e+000	 1.068340968898106e+001
 4.114621553303264e+000	 1.359309374925568e+000	 1.069038528400444e+001
 4.100165164734732e+000	 1.402311851315711e+000	 1.069505657558195e+001
 4.085222543795005e+000	 1.445264749166923e+000	 1.069839321459600e+001
 4.069792773727361e+000	 1.488160211828356e+000	 1.070102604017239e+001
 4.053875099451659e+000	 1.530990327544788e+000	 1.070351022266892e+001
 4.037468929920784e+000	 1.573747133428113e+000	 1.070631069948225e+001
 4.020573840366099e+000	 1.616422619529614e+000	 1.070978654838881e+001
 4.003189574427382e+000	 1.659008733009677e+000	 1.071417428594832e+001
 3.985316046162736e+000	 1.701497382401312e+000	 1.071928409166346e+001
 4.167571052783504e+000	 1.281022189987216e+000	 1.065530095606555e+001
 4.154000741552841e+000	 1.324365603248425e+000	 1.066557636085965e+001
 4.139943528404841e+000	 1.367674761072674e+000	 1.067196548724315e+001
 4.125398173133672e+000	 1.410941880911511e+000	 1.067648578453765e+001
 4.110363593147087e+000	 1.454159117097919e+000	 1.067986159544462e+001
 4.094838866046510e+000	 1.497318564630069e+000	 1.068270454615290e+001
 4.078823232104933e+000	 1.540412263062650e+000	 1.068555612120017e+001
 4.062316096637851e+000	 1.583432200502780e+000	 1.068887302454931e+001
 4.045317032262542e+000	 1.626370317707352e+000	 1.069301144338286e+001
 4.027825781041109e+000	 1.669218512278404e+000	 1.069821019962728e+001
 4.009842256502755e+000	 1.711968642952877e+000	 1.070457277916336e+001
 4.193062011708302e+000	 1.288857565462575e+000	 1.063772569477016e+001
 4.179408697634375e+000	 1.332466088821368e+000	 1.064668008910859e+001
 4.165265503506290e+000	 1.376040147219743e+000	 1.065282608206325e+001
 4.150631181532491e+000	 1.419571910507259e+000	 1.065750216576314e+001
 4.135504642499055e+000	 1.463053485028845e+000	 1.066133867769152e+001
 4.119884958365555e+000	 1.506476917431703e+000	 1.066491147140588e+001
 4.103771364758109e+000	 1.549834198580428e+000	 1.066872863289833e+001
 4.087163263354824e+000	 1.593117267577364e+000	 1.067321575417979e+001
 4.070060224158895e+000	 1.636318015885015e+000	 1.067870007980751e+001
 4.052461987654741e+000	 1.679428291547071e+000	 1.068539350887608e+001
 4.034368466842676e+000	 1.722439903504408e+000	 1.069337443996823e+001
 4.218552970632834e+000	 1.296692940937936e+000	 1.061969479079396e+001
 4.204816653715645e+000	 1.340566574394276e+000	 1.062783145229310e+001
 4.190587478607484e+000	 1.384405533366737e+000	 1.063408257874658e+001
 4.175864189931072e+000	 1.428201940102895e+000	 1.063929239264134e+001
 4.160645691850804e+000	 1.471947852959630e+000	 1.064403940535647e+001
 4.144931050684400e+000	 1.515635270233172e+000	 1.064884732035197e+001
 4.128719497411106e+000	 1.559256134098022e+000	 1.065417133485966e+001
 4.112010430071639e+000	 1.602802334651755e+000	 1.066038331407806e+001
 4.094803416055106e+000	 1.646265714062486e+000	 1.066775581354128e+001
 4.077098194268249e+000	 1.689638070815560e+000	 1.067644492971036e+001
 4.058894677182479e+000	 1.732911164055787e+000	 1.068647196383251e+001
 4.244043929556965e+000	 1.304528316413302e+000	 1.060213041266614e+001
 4.230224609796522e+000	 1.348667059967129e+000	 1.061004030989256e+001
 4.215909453708299e+000	 1.392770919513618e+000	 1.061680140003430e+001
 4.201097198329294e+000	 1.436831969698365e+000	 1.062299257770682e+001
 4.185786741202223e+000	 1.480842220890200e+000	 1.062912771870363e+001
 4.169977143002949e+000	 1.524793623034385e+000	 1.063566217180628e+001
 4.153667630063845e+000	 1.568678069615330e+000	 1.064297896742591e+001
 4.136857596788231e+000	 1.612487401725842e+000	 1.065137388138542e+001
 4.119546607951128e+000	 1.656213412239648e+000	 1.066103932707682e+001
 4.101734400881598e+000	 1.699847850083750e+000	 1.067204705358841e+001
 4.083420887522148e+000	 1.743382424606897e+000	 1.068432963239559e+001
 4.269534888480566e+000	 1.312363691888676e+000	 1.058588842465176e+001
 4.255632565876872e+000	 1.356767545539909e+000	 1.059421684777793e+001
 4.241231428808608e+000	 1.401136305660351e+000	 1.060200168343272e+001
 4.226330206727042e+000	 1.445461999293613e+000	 1.060969015948608e+001
 4.210927790553208e+000	 1.489736588820483e+000	 1.061771849535499e+001
 4.195023235321111e+000	 1.533951975835254e+000	 1.062645764421017e+001
 4.178615762716243e+000	 1.578100005132252e+000	 1.063619939351380e+001
 4.161704763504535e+000	 1.622172468799514e+000	 1.064714130824747e+001
 4.144289799846913e+000	 1.666161110416385e+000	 1.065937048765666e+001
 4.126370607494755e+000	 1.710057629351524e+000	 1.067284611066125e+001
 4.107947097861664e+000	 1.753853685157622e+000	 1.068738075007324e+001
 3.862684994461763e+000	 1.649141079647046e+000	 1.076517611394509e+001
 3.844890029459100e+000	 1.690213828755853e+000	 1.076848127154817e+001
 3.826621338296152e+000	 1.731176368834391e+000	 1.078347820881146e+001
 3.807879346431334e+000	 1.772020776467594e+000	 1.080660712741287e+001
 3.788664650926863e+000	 1.812739108261148e+000	 1.083401150905546e+001
 3.768978021749815e+000	 1.853323405364218e+000	 1.086154453400815e+001
 3.748820402933820e+000	 1.893765698057605e+000	 1.088477774792514e+001
 3.728192913598082e+000	 1.934058010402449e+000	 1.089901212409200e+001
 3.707096848820650e+000	 1.974192364944430e+000	 1.089929165988246e+001
 3.685533680363033e+000	 2.014160787468251e+000	 1.088250758085527e+001
 3.663505057243499e+000	 2.053955311797023e+000	 1.086844314776526e+001
 3.887211204802014e+000	 1.659612340197034e+000	 1.076723114921643e+001
 3.869303250245444e+000	 1.700945881704125e+000	 1.077063751093969e+001
 3.850918561593066e+000	 1.742168514406036e+000	 1.078489435636435e+001
 3.832057567004748e+000	 1.783272264577802e+000	 1.080650031138001e+001
 3.812720867333758e+000	 1.824249138388355e+000	 1.083164587125565e+001
 3.792909237436087e+000	 1.865091126451960e+000	 1.085621905653707e+001
 3.772623627339523e+000	 1.905790208445514e+000	 1.087581337718308e+001
 3.751865163269136e+000	 1.946338357786760e+000	 1.088573826165410e+001
 3.730635148526093e+000	 1.986727546368357e+000	 1.088103209920244e+001
 3.708935064216884e+000	 2.026949749342556e+000	 1.086370992863193e+001
 3.686766569830242e+000	 2.066996949951050e+000	 1.085309224525921e+001
 3.911737415142254e+000	 1.670083600747572e+000	 1.076135348287362e+001
 3.893716471031692e+000	 1.711677934652946e+000	 1.076572491746313e+001
 3.875215784889801e+000	 1.753160659978216e+000	 1.078003488665497e+001
 3.856235787577899e+000	 1.794523752688520e+000	 1.080083993032922e+001
 3.836777083740312e+000	 1.835759168516035e+000	 1.082437871455786e+001
 3.816840453121951e+000	 1.876858847540135e+000	 1.084657690035153e+001
 3.796426851744760e+000	 1.917814718833813e+000	 1.086305437837858e+001
 3.775537412939671e+000	 1.958618705171413e+000	 1.086913503622891e+001
 3.754173448230980e+000	 1.999262727792576e+000	 1.085985921624415e+001
 3.732336448070155e+000	 2.039738711217104e+000	 1.084501155436141e+001
 3.710028082416403e+000	 2.080038588105279e+000	 1.083750138558129e+001
 3.936263625482468e+000	 1.680554861298542e+000	 1.074989393470728e+001
 3.918129691817839e+000	 1.722409987602205e+000	 1.075581260513521e+001
 3.899513008186363e+000	 1.764152805550830e+000	 1.077071573864461e+001
 3.880414008150813e+000	 1.805775240799661e+000	 1.079121763590247e+001
 3.860833300146564e+000	 1.847269198644123e+000	 1.081360661804965e+001
 3.840771668807452e+000	 1.888626568628696e+000	 1.083384908153144e+001
 3.820230076149580e+000	 1.929839229222470e+000	 1.084759597443547e+001
 3.799209662609751e+000	 1.970899052556393e+000	 1.085019187107696e+001
 3.777711747935383e+000	 2.011797909217094e+000	 1.083789544832663e+001
 3.755737831922926e+000	 2.052527673091919e+000	 1.082685197297895e+001
 3.733289595002064e+000	 2.093080226259743e+000	 1.082209016419225e+001
 3.960789835822633e+000	 1.691026121849827e+000	 1.073513374706765e+001
 3.942542912603886e+000	 1.733142040551793e+000	 1.074290363170856e+001
 3.923810231482769e+000	 1.775144951123781e+000	 1.075868966270207e+001
 3.904592228723509e+000	 1.817026728911143e+000	 1.077916411585382e+001
 3.884889516552546e+000	 1.858779228772551e+000	 1.080066678978266e+001
 3.864702884492635e+000	 1.900394289717593e+000	 1.081920821777344e+001
 3.844033300554041e+000	 1.941863739611454e+000	 1.083047535450241e+001
 3.822881912279439e+000	 1.983179399941691e+000	 1.082983992486319e+001
 3.801250047639373e+000	 2.024333090641914e+000	 1.081725296481091e+001
 3.779139215775277e+000	 2.065316634967020e+000	 1.080962396865508e+001
 3.756551107587308e+000	 2.106121864414475e+000	 1.080723203265016e+001
 3.985316046162736e+000	 1.701497382401312e+000	 1.071928409166346e+001
 3.966956133389826e+000	 1.743874093501599e+000	 1.072893425174190e+001
 3.948107454779023e+000	 1.786137096696969e+000	 1.074564524127240e+001
 3.928770449296013e+000	 1.828278217022881e+000	 1.076614790380516e+001
 3.908945732958295e+000	 1.870289258901252e+000	 1.078683568724613e+001
 3.888634100177546e+000	 1.912162010806776e+000	 1.080376698133630e+001
 3.867836524958197e+000	 1.953888250000736e+000	 1.081266998122667e+001
 3.846554161948798e+000	 1.995459747327294e+000	 1.080895027519790e+001
 3.824788347343020e+000	 2.036868272067042e+000	 1.079833013275554e+001
 3.802540599627279e+000	 2.078105596842430e+000	 1.079367454822704e+001
 3.779812620172218e+000	 2.119163502569507e+000	 1.079325526472987e+001
 4.009842256502755e+000	 1.711968642952877e+000	 1.070457277916336e+001
 3.991369354175657e+000	 1.754606146451514e+000	 1.071577313689682e+001
 3.972404678075141e+000	 1.797129242270298e+000	 1.073320588300020e+001
 3.952948669868348e+000	 1.839529705134791e+000	 1.075357416791607e+001
 3.933001949363844e+000	 1.881799289030159e+000	 1.077332762144531e+001
 3.912565315862232e+000	 1.923929731896198e+000	 1.078857653951358e+001
 3.891639749362105e+000	 1.965912760390285e+000	 1.079509588871166e+001
 3.870226411617892e+000	 2.007740094713190e+000	 1.078875455373696e+001
 3.848326647046395e+000	 2.049403453492485e+000	 1.078147428904841e+001
 3.825941983479015e+000	 2.090894558718166e+000	 1.077930589021093e+001
 3.803074132756878e+000	 2.132205140724873e+000	 1.078044391824417e+001
 4.034368466842676e+000	 1.722439903504408e+000	 1.069337443996823e+001
 4.015782574961378e+000	 1.765338199401428e+000	 1.070542529561991e+001
 3.996701901371128e+000	 1.808121387843667e+000	 1.072292879143760e+001
 3.977126890440536e+000	 1.850781193246789e+000	 1.074278347936483e+001
 3.957058165769226e+000	 1.893309319159202e+000	 1.076129334528203e+001
 3.936496531546734e+000	 1.935697452985806e+000	 1.077462498316471e+001
 3.915442973765818e+000	 1.977937270780072e+000	 1.077860597155478e+001
 3.893898661286784e+000	 2.020020442099369e+000	 1.077139572545724e+001
 3.871864946749569e+000	 2.061938634918248e+000	 1.076698765099599e+001
 3.849343367330560e+000	 2.103683520594251e+000	 1.076677628958363e+001
 3.826335645341370e+000	 2.145246778880603e+000	 1.076903879274980e+001
 4.058894677182479e+000	 1.732911164055787e+000	 1.068647196383251e+001
 4.040195795746983e+000	 1.776070252351231e+000	 1.069968102182254e+001
 4.020999124666998e+000	 1.819113533416977e+000	 1.071663375092298e+001
 4.001305111012599e+000	 1.862032681358789e+000	 1.073505236170715e+001
 3.981114382174480e+000	 1.904819349288316e+000	 1.075181862690156e+001
 3.960427747231099e+000	 1.947465174075554e+000	 1.076283574380892e+001
 3.939246198169390e+000	 1.989961781170066e+000	 1.076398826534289e+001
 3.917570910955537e+000	 2.032300789485816e+000	 1.075735451736047e+001
 3.895403246452611e+000	 2.074473816344336e+000	 1.075512826147259e+001
 3.872744751181992e+000	 2.116472482470704e+000	 1.075630109851266e+001
 3.849597157925777e+000	 2.158288417036733e+000	 1.075923838331217e+001
 4.083420887522148e+000	 1.743382424606897e+000	 1.068432963239559e+001
 4.064609016532470e+000	 1.786802305300813e+000	 1.069886966167882e+001
 4.045296347962761e+000	 1.830105678990131e+000	 1.071549237082767e+001
 4.025483331584564e+000	 1.873284169470709e+000	 1.073202542203442e+001
 4.005170598579635e+000	 1.916329379417432e+000	 1.074594897546089e+001
 3.984358962915372e+000	 1.959232895165391e+000	 1.075406599976370e+001
 3.963049422572877e+000	 2.001986291560236e+000	 1.075198619080232e+001
 3.941243160624216e+000	 2.044581136872523e+000	 1.074691273379314e+001
 3.918941546155594e+000	 2.087008997770753e+000	 1.074611092942057e+001
 3.896146135033390e+000	 2.129261444347548e+000	 1.074805366320466e+001
 3.872858670510183e+000	 2.171330055193294e+000	 1.075119983049464e+001
 4.107947097861664e+000	 1.753853685157622e+000	 1.068738075007324e+001
 4.089022237317836e+000	 1.797534358250065e+000	 1.070320329367795e+001
 4.069593571258428e+000	 1.841097824563030e+000	 1.071953027879213e+001
 4.049661552156451e+000	 1.884535657582464e+000	 1.073429268047745e+001
 4.029226814984733e+000	 1.927839409546484e+000	 1.074509026185437e+001
 4.008290178599602e+000	 1.971000616255271e+000	 1.074916760997598e+001
 3.986852646976334e+000	 2.014010801950552e+000	 1.074421023194150e+001
 3.964915410292882e+000	 2.056861484259474e+000	 1.074030809635993e+001
 3.942479845858591e+000	 2.099544179197508e+000	 1.074010816589605e+001
 3.919547518884828e+000	 2.142050406224803e+000	 1.074216625703482e+001
 3.896120183094670e+000	 2.184371693350319e+000	 1.074503986672998e+001
 3.663505057243499e+000	 2.053955311797023e+000	 1.086844314776526e+001
 3.641009397794123e+000	 2.093573913466255e+000	 1.086078195316834e+001
 3.618051979783225e+000	 2.133002672260832e+000	 1.085737327907522e+001
 3.594634989852544e+000	 2.172233674105955e+000	 1.085728951322722e+001
 3.570760792710999e+000	 2.211259032598792e+000	 1.085963769093846e+001
 3.546431930914687e+000	 2.250070893948702e+000	 1.086356120421039e+001
 3.521651124484179e+000	 2.288661441927230e+000	 1.086824078635614e+001
 3.496421270358106e+000	 2.327022902821665e+000	 1.087289474068268e+001
 3.470745441682316e+000	 2.365147550385902e+000	 1.087677838911280e+001
 3.444626886934158e+000	 2.403027710782309e+000	 1.087918272440770e+001
 3.418069028881693e+000	 2.440655767508218e+000	 1.087943225780382e+001
 3.686766569830242e+000	 2.066996949951050e+000	 1.085309224525921e+001
 3.664128073655406e+000	 2.106867110874977e+000	 1.084841849226135e+001
 3.641024886972017e+000	 2.146546223512473e+000	 1.084797892293487e+001
 3.617459210305964e+000	 2.186026323538118e+000	 1.085072794885115e+001
 3.593433423380952e+000	 2.225299474474158e+000	 1.085565492856176e+001
 3.568950084897113e+000	 2.264357772662105e+000	 1.086178622230293e+001
 3.544011932145869e+000	 2.303193352244160e+000	 1.086818649075111e+001
 3.518621880460040e+000	 2.341798390148221e+000	 1.087395920398041e+001
 3.492783022498507e+000	 2.380165111070182e+000	 1.087824633442043e+001
 3.466498627364912e+000	 2.418285792447179e+000	 1.088022721572772e+001
 3.439772139560280e+000	 2.456152769415361e+000	 1.087911655799239e+001
 3.710028082416403e+000	 2.080038588105279e+000	 1.083750138558129e+001
 3.687246749516120e+000	 2.120160308283865e+000	 1.083545368220022e+001
 3.663997794160270e+000	 2.160089774764248e+000	 1.083762415450004e+001
 3.640283430758890e+000	 2.199818972970387e+000	 1.084286617516979e+001
 3.616106054050469e+000	 2.239339916349607e+000	 1.085006831446007e+001
 3.591468238879172e+000	 2.278644651375573e+000	 1.085815671844654e+001
 3.566372739807267e+000	 2.317725262561141e+000	 1.086609669833010e+001
 3.540822490561769e+000	 2.356573877474814e+000	 1.087289349450180e+001
 3.514820603314580e+000	 2.395182671754490e+000	 1.087759218707204e+001
 3.488370367795640e+000	 2.433543874112070e+000	 1.087927673302764e+001
 3.461475250238931e+000	 2.471649771322522e+000	 1.087706811905906e+001
 3.733289595002064e+000	 2.093080226259743e+000	 1.082209016419225e+001
 3.710365425376351e+000	 2.133453505692957e+000	 1.082230149114670e+001
 3.686970701348076e+000	 2.173633326016202e+000	 1.082671679975130e+001
 3.663107651211413e+000	 2.213611622402809e+000	 1.083410489367034e+001
 3.638778684719642e+000	 2.253380358225186e+000	 1.084326998179909e+001
 3.613986392860958e+000	 2.292931530089150e+000	 1.085305435891348e+001
 3.588733547468467e+000	 2.332257172878211e+000	 1.086234026274155e+001
 3.563023100663378e+000	 2.371349364801481e+000	 1.087005086872886e+001
 3.536858184130617e+000	 2.410200232438856e+000	 1.087515039208194e+001
 3.510242108226416e+000	 2.448801955777007e+000	 1.087664327549813e+001
 3.483178360917712e+000	 2.487146773229715e+000	 1.087357245025437e+001
 3.756551107587308e+000	 2.106121864414475e+000	 1.080723203265016e+001
 3.733484101236188e+000	 2.146746703102298e+000	 1.080933002049251e+001
 3.709943608535523e+000	 2.187176877268379e+000	 1.081561914610043e+001
 3.685931871663629e+000	 2.227404271835431e+000	 1.082479965246411e+001
 3.661451315388570e+000	 2.267420800100942e+000	 1.083560735864868e+001
 3.636504546842562e+000	 2.307218408802882e+000	 1.084681662251922e+001
 3.611094355129560e+000	 2.346789083195411e+000	 1.085724244362246e+001
 3.585223710764961e+000	 2.386124852128256e+000	 1.086574166500873e+001
 3.558895764946704e+000	 2.425217793123311e+000	 1.087121324143885e+001
 3.532113848657316e+000	 2.464060037442009e+000	 1.087259755062158e+001
 3.504881471596689e+000	 2.502643775136960e+000	 1.086887473379159e+001
 3.779812620172218e+000	 2.119163502569507e+000	 1.079325526472987e+001
 3.756602777095718e+000	 2.160039900511925e+000	 1.079686249213859e+001
 3.732916515722703e+000	 2.200720428520828e+000	 1.080464894805577e+001
 3.708756092115631e+000	 2.241196921268303e+000	 1.081526186725201e+001
 3.684123946057342e+000	 2.281461241976923e+000	 1.082738420085470e+001
 3.659022700824080e+000	 2.321505287516809e+000	 1.083973784170095e+001
 3.633455162790639e+000	 2.361320993512781e+000	 1.085108595188516e+001
 3.607424320866600e+000	 2.400900339455173e+000	 1.086023434875527e+001
 3.580933345762922e+000	 2.440235353807876e+000	 1.086603191463821e+001
 3.553985589088418e+000	 2.479318119107103e+000	 1.086737000516684e+001
 3.526584582275933e+000	 2.518140777044271e+000	 1.086318084115808e+001
 3.803074132756878e+000	 2.132205140724873e+000	 1.078044391824417e+001
 3.779721452955027e+000	 2.173333097921881e+000	 1.078517823125109e+001
 3.755889422909708e+000	 2.214263979773591e+000	 1.079408042820487e+001
 3.731580312567512e+000	 2.254989570701472e+000	 1.080575983752389e+001
 3.706796576726056e+000	 2.295501683853173e+000	 1.081886162014569e+001
 3.681540854805605e+000	 2.335792166230978e+000	 1.083207023892912e+001
 3.655815970451795e+000	 2.375852903830360e+000	 1.084411199054017e+001
 3.629624930968386e+000	 2.415675826782265e+000	 1.085375655350428e+001
 3.602970926579353e+000	 2.455252914492587e+000	 1.085981751551175e+001
 3.575857329519796e+000	 2.494576200772307e+000	 1.086115185306038e+001
 3.548287692955508e+000	 2.533637778951668e+000	 1.085665834702612e+001
 3.826335645341370e+000	 2.145246778880603e+000	 1.076903879274980e+001
 3.802840128814207e+000	 2.186626295332207e+000	 1.077451364468663e+001
 3.778862330096631e+000	 2.227807531026718e+000	 1.078414527371388e+001
 3.754404533019363e+000	 2.268782220134982e+000	 1.079651975819385e+001
 3.729469207394803e+000	 2.309542125729742e+000	 1.081025910767784e+001
 3.704059008787232e+000	 2.350079044945431e+000	 1.082402495864990e+001
 3.678176778113120e+000	 2.390384814148187e+000	 1.083652129124405e+001
 3.651825541070408e+000	 2.430451314109565e+000	 1.084649611799929e+001
 3.625008507396081e+000	 2.470270475177468e+000	 1.085274210551236e+001
 3.597729069951527e+000	 2.509834282437646e+000	 1.085409610026647e+001
 3.569990803635482e+000	 2.549134780859165e+000	 1.084943754086556e+001
 3.849597157925777e+000	 2.158288417036733e+000	 1.075923838331217e+001
 3.825958804673342e+000	 2.199919492742945e+000	 1.076506319527019e+001
 3.801835237283558e+000	 2.241351082280251e+000	 1.077503362853323e+001
 3.777228753471282e+000	 2.282574869568885e+000	 1.078772672686522e+001
 3.752141838063679e+000	 2.323582567606674e+000	 1.080175555321073e+001
 3.726577162769054e+000	 2.364365923660214e+000	 1.081577309494797e+001
 3.700537585774705e+000	 2.404916724466300e+000	 1.082847514675395e+001
 3.674026151172752e+000	 2.445226801437110e+000	 1.083860211947549e+001
 3.647046088213190e+000	 2.485288035862547e+000	 1.084493973360381e+001
 3.619600810383686e+000	 2.525092364103141e+000	 1.084631856680296e+001
 3.591693914315921e+000	 2.564631782766781e+000	 1.084161243635507e+001
 3.872858670510183e+000	 2.171330055193294e+000	 1.075119983049464e+001
 3.849077480532519e+000	 2.213212690154133e+000	 1.075698037209972e+001
 3.824808144470582e+000	 2.254894633534237e+000	 1.076689508148982e+001
 3.800052973923359e+000	 2.296367519003227e+000	 1.077952574690845e+001
 3.774814468732779e+000	 2.337623009484017e+000	 1.079349026009788e+001
 3.749095316751165e+000	 2.378652802375369e+000	 1.080744671510962e+001
 3.722898393436643e+000	 2.419448634784743e+000	 1.082009643946037e+001
 3.696226761275508e+000	 2.460002288764933e+000	 1.083018590330174e+001
 3.669083669030763e+000	 2.500305596547855e+000	 1.083650746289855e+001
 3.641472550816348e+000	 2.540350445768814e+000	 1.083789890601321e+001
 3.613397024996892e+000	 2.580128784674530e+000	 1.083324177868505e+001
 3.896120183094670e+000	 2.184371693350319e+000	 1.074503986672998e+001
 3.872196156391829e+000	 2.226505887565815e+000	 1.075037865704376e+001
 3.847781051657800e+000	 2.268438184788724e+000	 1.075983965043843e+001
 3.822877194375688e+000	 2.310160168438054e+000	 1.077202272652744e+001
 3.797487099402197e+000	 2.351663451361818e+000	 1.078556395626693e+001
 3.771613470733660e+000	 2.392939681090943e+000	 1.079913987925724e+001
 3.745259201099025e+000	 2.433980545103553e+000	 1.081147066616236e+001
 3.718427371378763e+000	 2.474777776093069e+000	 1.082132210913298e+001
 3.691121249848879e+000	 2.515323157233418e+000	 1.082750639417883e+001
 3.663344291249592e+000	 2.555608527434690e+000	 1.082888162120864e+001
 3.635100135678463e+000	 2.595625786582434e+000	 1.082435004983985e+001
 3.418069028881693e+000	 2.440655767508218e+000	 1.087943225780382e+001
 3.391075462413564e+000	 2.478024165474663e+000	 1.087801235974687e+001
 3.363649950302459e+000	 2.515125413354499e+000	 1.087645337728181e+001
 3.335796424614757e+000	 2.551952090816394e+000	 1.087569478698626e+001
 3.307518985991763e+000	 2.588496854144156e+000	 1.087311060251467e+001
 3.278821901798352e+000	 2.624752440995851e+000	 1.086411056978121e+001
 3.249709604111268e+000	 2.660711675109584e+000	 1.084883718079498e+001
 3.220186687548849e+000	 2.696367470949601e+000	 1.083029099798421e+001
 3.190257906944267e+000	 2.731712838286569e+000	 1.081442160161621e+001
 3.159928174864604e+000	 2.766740886705849e+000	 1.080285041541475e+001
 3.129202558978380e+000	 2.801444830037749e+000	 1.079718306563239e+001
 3.439772139560280e+000	 2.456152769415361e+000	 1.087911655799239e+001
 3.412607176799093e+000	 2.493758438914534e+000	 1.087536035695268e+001
 3.385007525745849e+000	 2.531095262051197e+000	 1.087052007379580e+001
 3.356977143433667e+000	 2.568155771378457e+000	 1.086553204991977e+001
 3.328520156540966e+000	 2.604932576551026e+000	 1.086123343417873e+001
 3.299640859528343e+000	 2.641418369114569e+000	 1.085271717497703e+001
 3.270343712614111e+000	 2.677605927241352e+000	 1.083748960619744e+001
 3.240633339590238e+000	 2.713488120405851e+000	 1.082132929024421e+001
 3.210514525480813e+000	 2.749057913994119e+000	 1.080735623340648e+001
 3.179992214045370e+000	 2.784308373840670e+000	 1.079709904044414e+001
 3.149071505129704e+000	 2.819232670686875e+000	 1.079217691505505e+001
 3.461475250238931e+000	 2.471649771322522e+000	 1.087706811905906e+001
 3.434138891184774e+000	 2.509492712354418e+000	 1.087136427222785e+001
 3.406365101189477e+000	 2.547065110747905e+000	 1.086372153103344e+001
 3.378157862252897e+000	 2.584359451940527e+000	 1.085504782611359e+001
 3.349521327090561e+000	 2.621368298957909e+000	 1.084627515474287e+001
 3.320459817258791e+000	 2.658084297233306e+000	 1.083743859317878e+001
 3.290977821117469e+000	 2.694500179373152e+000	 1.082429344380446e+001
 3.261079991632188e+000	 2.730608769862155e+000	 1.081108028465591e+001
 3.230771144017953e+000	 2.766402989701747e+000	 1.079939240251370e+001
 3.200056253226749e+000	 2.801875860975600e+000	 1.079074749903387e+001
 3.168940451281643e+000	 2.837020511336151e+000	 1.078675650307385e+001
 3.483178360917712e+000	 2.487146773229715e+000	 1.087357245025437e+001
 3.455670605570664e+000	 2.525226985794328e+000	 1.086628245447881e+001
 3.427722676633387e+000	 2.563034959444631e+000	 1.085629216750152e+001
 3.399338581072477e+000	 2.600563132502615e+000	 1.084445622644241e+001
 3.370522497640568e+000	 2.637804021364807e+000	 1.083165285645425e+001
 3.341278774989704e+000	 2.674750225352066e+000	 1.081893506748802e+001
 3.311611929621332e+000	 2.711394431504984e+000	 1.080933597593428e+001
 3.281526643674674e+000	 2.747729419318505e+000	 1.079952338624677e+001
 3.251027762555652e+000	 2.783748065409441e+000	 1.079051062842266e+001
 3.220120292408699e+000	 2.819443348110628e+000	 1.078378257437326e+001
 3.188809397434150e+000	 2.854808351985561e+000	 1.078092050347026e+001
 3.504881471596689e+000	 2.502643775136960e+000	 1.086887473379159e+001
 3.477202319956819e+000	 2.540961259234274e+000	 1.086033390746712e+001
 3.449080252077624e+000	 2.579004808141385e+000	 1.084842795693882e+001
 3.420519299892435e+000	 2.616766813064722e+000	 1.083393372445802e+001
 3.391523668190996e+000	 2.654239743771722e+000	 1.081765138272293e+001
 3.362097732721078e+000	 2.691416153470843e+000	 1.080185007353575e+001
 3.332246038125687e+000	 2.728288683636842e+000	 1.079259029281610e+001
 3.301973295717675e+000	 2.764850068774896e+000	 1.078662817628868e+001
 3.271284381093876e+000	 2.801093141117198e+000	 1.078068151439295e+001
 3.240184331591173e+000	 2.837010835245739e+000	 1.077618089019775e+001
 3.208678343587173e+000	 2.872596192635086e+000	 1.077465702931104e+001
 3.526584582275933e+000	 2.518140777044271e+000	 1.086318084115808e+001
 3.498734034343295e+000	 2.556695532674269e+000	 1.085369928889451e+001
 3.470437827522229e+000	 2.594974656838175e+000	 1.084028741063482e+001
 3.441700018712804e+000	 2.632970493626855e+000	 1.082362012272881e+001
 3.412524838741869e+000	 2.670675466178660e+000	 1.080442944630976e+001
 3.382916690452920e+000	 2.708082081589644e+000	 1.078724290996605e+001
 3.352880146630525e+000	 2.745182935768729e+000	 1.077615697705594e+001
 3.322419947761166e+000	 2.781970718231322e+000	 1.077235468307604e+001
 3.291540999632590e+000	 2.818438216825004e+000	 1.076986600117637e+001
 3.260248370774131e+000	 2.854578322380924e+000	 1.076790915086314e+001
 3.228547289740663e+000	 2.890384033284712e+000	 1.076794386316088e+001
 3.548287692955508e+000	 2.533637778951668e+000	 1.085665834702612e+001
 3.520265748730149e+000	 2.572429806114325e+000	 1.084652190785941e+001
 3.491795402967247e+000	 2.610944505535007e+000	 1.083199255883006e+001
 3.462880737533611e+000	 2.649174174189020e+000	 1.081361951889752e+001
 3.433526009293199e+000	 2.687111188585622e+000	 1.079282731735986e+001
 3.403735648185229e+000	 2.724748009708466e+000	 1.077503584001329e+001
 3.373514255135836e+000	 2.762077187900637e+000	 1.076256264406803e+001
 3.342866599805126e+000	 2.799091367687780e+000	 1.075716425090466e+001
 3.311797618171760e+000	 2.835783292532855e+000	 1.075801562210044e+001
 3.280312409957527e+000	 2.872145809516171e+000	 1.075892438272646e+001
 3.248416235894569e+000	 2.908171873934421e+000	 1.076074868838402e+001
 3.569990803635482e+000	 2.549134780859165e+000	 1.084943754086556e+001
 3.541797463117435e+000	 2.588164079554456e+000	 1.083890872075428e+001
 3.513152978412721e+000	 2.626914354231893e+000	 1.082362993123716e+001
 3.484061456354890e+000	 2.665377854751221e+000	 1.080400127146865e+001
 3.454527179845004e+000	 2.703546910992610e+000	 1.078309503723650e+001
 3.424554605918008e+000	 2.741413937827308e+000	 1.076511844102837e+001
 3.394148363641605e+000	 2.778971440032568e+000	 1.075169317015492e+001
 3.363313251849526e+000	 2.816212017144263e+000	 1.074446400592350e+001
 3.332054236711354e+000	 2.853128368240739e+000	 1.074507275946070e+001
 3.300376449141319e+000	 2.889713296651466e+000	 1.074917417677745e+001
 3.268285182048842e+000	 2.925959714584197e+000	 1.075302932148829e+001
 3.591693914315921e+000	 2.564631782766781e+000	 1.084161243635507e+001
 3.563329177505210e+000	 2.603898352994673e+000	 1.083093132566975e+001
 3.534510553858697e+000	 2.642884202928837e+000	 1.081525153671996e+001
 3.505242175176668e+000	 2.681581535313464e+000	 1.079518073148718e+001
 3.475528350397301e+000	 2.719982633399626e+000	 1.077510416773556e+001
 3.445373563651263e+000	 2.758079865946172e+000	 1.075734925240836e+001
 3.414782472147824e+000	 2.795865692164516e+000	 1.074339769871804e+001
 3.383759903894348e+000	 2.833332666600768e+000	 1.073476133416649e+001
 3.352310855251333e+000	 2.870473443948652e+000	 1.073296114632905e+001
 3.320440488325464e+000	 2.907280783786796e+000	 1.073859693246789e+001
 3.288154128203432e+000	 2.943747555234022e+000	 1.074473394546784e+001
 3.613397024996892e+000	 2.580128784674530e+000	 1.083324177868505e+001
 3.584860891893530e+000	 2.619632626434988e+000	 1.082262695536809e+001
 3.555868129305216e+000	 2.658854051625854e+000	 1.080687584216579e+001
 3.526422893998978e+000	 2.697785215875753e+000	 1.078758938060635e+001
 3.496529520950103e+000	 2.736418355806673e+000	 1.076869621601990e+001
 3.466192521384992e+000	 2.774745794065057e+000	 1.075155742415855e+001
 3.435416580654481e+000	 2.812759944296481e+000	 1.073749649092830e+001
 3.404206555939567e+000	 2.850453316057287e+000	 1.072787142729749e+001
 3.372567473791665e+000	 2.887818519656581e+000	 1.072405349707731e+001
 3.340504527509917e+000	 2.924848270922151e+000	 1.072740421429180e+001
 3.308023074358290e+000	 2.961535395883882e+000	 1.073580134410220e+001
 3.635100135678463e+000	 2.595625786582434e+000	 1.082435004983985e+001
 3.606392606282453e+000	 2.635366899875415e+000	 1.081399946888618e+001
 3.577225704752324e+000	 2.674823900322948e+000	 1.079858093889285e+001
 3.547603612821848e+000	 2.713988896438097e+000	 1.078105816796546e+001
 3.517530691503431e+000	 2.752854078213755e+000	 1.076368429013551e+001
 3.487011479119200e+000	 2.791411722183962e+000	 1.074754436606032e+001
 3.456050689161567e+000	 2.829654196428459e+000	 1.073378256903992e+001
 3.424653207985159e+000	 2.867573965513815e+000	 1.072358257287185e+001
 3.392824092332316e+000	 2.905163595364521e+000	 1.071814598637927e+001
 3.360568566694637e+000	 2.942415758057519e+000	 1.071866896469249e+001
 3.327892020513366e+000	 2.979323236533758e+000	 1.072616113717199e+001
 3.129202558978380e+000	 2.801444830037749e+000	 1.079718306563239e+001
 3.098090975972703e+000	 2.835812860563197e+000	 1.079250856040727e+001
 3.066594216041264e+000	 2.869843648532129e+000	 1.078323521542805e+001
 3.034717795080713e+000	 2.903530751830148e+000	 1.077003310315267e+001
 3.002467371960544e+000	 2.936867849398260e+000	 1.075359652725885e+001
 2.969848745180577e+000	 2.969848745180577e+000	 1.073462250699939e+001
 2.936867849398259e+000	 3.002467371960544e+000	 1.071378908841799e+001
 2.903530751830149e+000	 3.034717795080715e+000	 1.069173367396855e+001
 2.869843648532129e+000	 3.066594216041264e+000	 1.066903156291655e+001
 2.835812860563195e+000	 3.098090975972702e+000	 1.064617489412636e+001
 2.801444830037748e+000	 3.129202558978380e+000	 1.062355218045553e+001
 3.149071505129704e+000	 2.819232670686875e+000	 1.079217691505505e+001
 3.117762378387155e+000	 2.853818921840275e+000	 1.078781888507056e+001
 3.086065629028769e+000	 2.888065789107530e+000	 1.077859867954059e+001
 3.053986807974516e+000	 2.921966789469875e+000	 1.076524097721171e+001
 3.021531610025019e+000	 2.955515561732601e+000	 1.074849669586334e+001
 2.988705870497814e+000	 2.988705870497813e+000	 1.072912048887973e+001
 2.955515561732601e+000	 3.021531610025019e+000	 1.070784805702367e+001
 2.921966789469875e+000	 3.053986807974516e+000	 1.068537347511092e+001
 2.888065789107531e+000	 3.086065629028768e+000	 1.066232673417784e+001
 2.853818921840275e+000	 3.117762378387155e+000	 1.063925169895373e+001
 2.819232670686875e+000	 3.149071505129704e+000	 1.061658467799530e+001
 3.168940451281643e+000	 2.837020511336151e+000	 1.078675650307385e+001
 3.137433780802209e+000	 2.871824983117554e+000	 1.078279591906085e+001
 3.105537042016849e+000	 2.906287929683184e+000	 1.077364068599580e+001
 3.073255820868855e+000	 2.940402827109916e+000	 1.076009127913703e+001
 3.040595848089982e+000	 2.974163274067317e+000	 1.074297658852737e+001
 3.007562995815484e+000	 3.007562995815484e+000	 1.072313035452180e+001
 2.974163274067317e+000	 3.040595848089982e+000	 1.070136740621079e+001
 2.940402827109914e+000	 3.073255820868856e+000	 1.067845991094906e+001
 2.906287929683185e+000	 3.105537042016849e+000	 1.065511384415477e+001
 2.871824983117554e+000	 3.137433780802210e+000	 1.063194588775705e+001
 2.837020511336150e+000	 3.168940451281644e+000	 1.060946096314271e+001
 3.188809397434150e+000	 2.854808351985561e+000	 1.078092050347026e+001
 3.157105183217814e+000	 2.889831044395010e+000	 1.077745409125977e+001
 3.125008455005451e+000	 2.924510070259066e+000	 1.076839300508150e+001
 3.092524833763677e+000	 2.958838864750235e+000	 1.075463440696240e+001
 3.059660086155382e+000	 2.992810986402366e+000	 1.073710621916079e+001
 3.026420121133540e+000	 3.026420121133540e+000	 1.071674242469459e+001
 2.992810986402366e+000	 3.059660086155382e+000	 1.069445815779487e+001
 2.958838864750234e+000	 3.092524833763677e+000	 1.067112480136814e+001
 2.924510070259066e+000	 3.125008455005450e+000	 1.064754530956914e+001
 2.889831044395010e+000	 3.157105183217814e+000	 1.062442997279432e+001
 2.854808351985561e+000	 3.188809397434150e+000	 1.060237283980336e+001
 3.208678343587173e+000	 2.872596192635086e+000	 1.077465702931104e+001
 3.176776585633916e+000	 2.907837105672620e+000	 1.077179675906666e+001
 3.144479867994520e+000	 2.942732210835146e+000	 1.076287577684579e+001
 3.111793846658930e+000	 2.977274902390801e+000	 1.074890853447208e+001
 3.078724324221172e+000	 3.011458698737709e+000	 1.073094276101408e+001
 3.045277246451941e+000	 3.045277246451941e+000	 1.071003355363211e+001
 3.011458698737709e+000	 3.078724324221171e+000	 1.068721724470061e+001
 2.977274902390800e+000	 3.111793846658930e+000	 1.066348527153049e+001
 2.942732210835144e+000	 3.144479867994519e+000	 1.063975827610265e+001
 2.907837105672620e+000	 3.176776585633916e+000	 1.061686066142597e+001
 2.872596192635086e+000	 3.208678343587173e+000	 1.059549582845487e+001
 3.228547289740663e+000	 2.890384033284712e+000	 1.076794386316088e+001
 3.196447988050458e+000	 2.925843166950362e+000	 1.076581643118668e+001
 3.163951280984001e+000	 2.960954351411395e+000	 1.075709772715277e+001
 3.131062859554559e+000	 2.995710940031576e+000	 1.074293982098092e+001
 3.097788562287297e+000	 3.030106411073305e+000	 1.072453075040324e+001
 3.064134371770637e+000	 3.064134371770636e+000	 1.070306732668870e+001
 3.030106411073305e+000	 3.097788562287298e+000	 1.067972770229820e+001
 2.995710940031576e+000	 3.131062859554560e+000	 1.065564393640972e+001
 2.960954351411395e+000	 3.163951280984001e+000	 1.063187479541175e+001
 2.925843166950362e+000	 3.196447988050459e+000	 1.060937902466084e+001
 2.890384033284712e+000	 3.228547289740663e+000	 1.058898932504251e+001
 3.248416235894569e+000	 2.908171873934421e+000	 1.076074868838402e+001
 3.216119390467393e+000	 2.943849228228216e+000	 1.075949499118427e+001
 3.183422693973840e+000	 2.979176491987786e+000	 1.075105638414016e+001
 3.150331872450513e+000	 3.014146977672529e+000	 1.073674262112243e+001
 3.116852800353711e+000	 3.048754123409113e+000	 1.071790229003005e+001
 3.082991497089581e+000	 3.082991497089581e+000	 1.069589425716830e+001
 3.048754123409115e+000	 3.116852800353711e+000	 1.067205885849469e+001
 3.014146977672528e+000	 3.150331872450513e+000	 1.064768908367340e+001
 2.979176491987786e+000	 3.183422693973840e+000	 1.062400200010821e+001
 2.943849228228216e+000	 3.216119390467392e+000	 1.060211066331872e+001
 2.908171873934421e+000	 3.248416235894569e+000	 1.058299675718652e+001
 3.268285182048842e+000	 2.925959714584197e+000	 1.075302932148829e+001
 3.235790792884662e+000	 2.961855289506158e+000	 1.075280392176962e+001
 3.202894106963983e+000	 2.997398632564291e+000	 1.074473829506130e+001
 3.169600885346736e+000	 3.032583015313622e+000	 1.073031969464464e+001
 3.135917038420363e+000	 3.067401835745095e+000	 1.071107725191497e+001
 3.101848622408732e+000	 3.101848622408731e+000	 1.068855198236327e+001
 3.067401835745095e+000	 3.135917038420363e+000	 1.066426652263353e+001
 3.032583015313622e+000	 3.169600885346737e+000	 1.063969485498483e+001
 2.997398632564291e+000	 3.202894106963983e+000	 1.061623227679191e+001
 2.961855289506158e+000	 3.235790792884662e+000	 1.059516587191089e+001
 2.925959714584196e+000	 3.268285182048841e+000	 1.057764573781560e+001
 3.288154128203432e+000	 2.943747555234022e+000	 1.074473394546784e+001
 3.255462195302213e+000	 2.979861350784167e+000	 1.074570452978685e+001
 3.222365519954375e+000	 3.015620773140882e+000	 1.073811924349544e+001
 3.188869898243178e+000	 3.051019052954823e+000	 1.072366241621337e+001
 3.154981276487200e+000	 3.086049548081208e+000	 1.070406347995912e+001
 3.120705747728039e+000	 3.120705747728038e+000	 1.068106545883602e+001
 3.086049548081208e+000	 3.154981276487199e+000	 1.065639317325263e+001
 3.051019052954824e+000	 3.188869898243179e+000	 1.063172142579070e+001
 3.015620773140882e+000	 3.222365519954374e+000	 1.060864343721815e+001
 2.979861350784166e+000	 3.255462195302214e+000	 1.058863980033503e+001
 2.943747555234023e+000	 3.288154128203432e+000	 1.057304821633534e+001
 3.308023074358290e+000	 2.961535395883882e+000	 1.073580134410220e+001
 3.275133597719994e+000	 2.997867412062219e+000	 1.073814817187447e+001
 3.241836932944962e+000	 3.033842913717531e+000	 1.073116446691078e+001
 3.208138911139784e+000	 3.069455090596099e+000	 1.071675098522259e+001
 3.174045514554174e+000	 3.104697260417412e+000	 1.069685699215084e+001
 3.139562873047459e+000	 3.139562873047459e+000	 1.067344715697525e+001
 3.104697260417412e+000	 3.174045514554175e+000	 1.064846814474890e+001
 3.069455090596098e+000	 3.208138911139783e+000	 1.062381518365840e+001
 3.033842913717530e+000	 3.241836932944962e+000	 1.060129888767830e+001
 2.997867412062220e+000	 3.275133597719995e+000	 1.058261261347641e+001
 2.961535395883882e+000	 3.308023074358290e+000	 1.056930062743536e+001
 3.327892020513366e+000	 2.979323236533758e+000	 1.072616113717199e+001
 3.294805000137952e+000	 3.015873473340294e+000	 1.073007648077019e+001
 3.261308345935689e+000	 3.052065054294208e+000	 1.072382887456563e+001
 3.227407924036499e+000	 3.087891128237413e+000	 1.070955463561164e+001
 3.193109752621236e+000	 3.123344972753669e+000	 1.068944218243166e+001
 3.158419998366947e+000	 3.158419998366946e+000	 1.066569725485721e+001
 3.123344972753669e+000	 3.193109752621236e+000	 1.064050781299513e+001
 3.087891128237412e+000	 3.227407924036499e+000	 1.061600890522330e+001
 3.052065054294209e+000	 3.261308345935690e+000	 1.059424779666789e+001
 3.015873473340295e+000	 3.294805000137951e+000	 1.057714964880301e+001
 2.979323236533757e+000	 3.327892020513365e+000	 1.056648403763362e+001
 2.801444830037748e+000	 3.129202558978380e+000	 1.062355218045553e+001
 2.766740886705849e+000	 3.159928174864604e+000	 1.059861310123141e+001
 2.731712838286569e+000	 3.190257906944266e+000	 1.056963601456962e+001
 2.696367470949601e+000	 3.220186687548849e+000	 1.053805466882960e+001
 2.660711675109584e+000	 3.249709604111268e+000	 1.050521097307056e+001
 2.624752440995853e+000	 3.278821901798352e+000	 1.047447955572409e+001
 2.588496854144156e+000	 3.307518985991762e+000	 1.044726334243402e+001
 2.551952090816394e+000	 3.335796424614757e+000	 1.042332386941260e+001
 2.515125413354498e+000	 3.363649950302459e+000	 1.039876524230959e+001
 2.478024165474663e+000	 3.391075462413564e+000	 1.037187783676647e+001
 2.440655767508217e+000	 3.418069028881693e+000	 1.034398298473859e+001
 2.819232670686875e+000	 3.149071505129704e+000	 1.061658467799530e+001
 2.784308373840670e+000	 3.179992214045370e+000	 1.059203020359842e+001
 2.749057913994120e+000	 3.210514525480813e+000	 1.056405643421214e+001
 2.713488120405852e+000	 3.240633339590237e+000	 1.053403861824345e+001
 2.677605927241350e+000	 3.270343712614112e+000	 1.050319833065581e+001
 2.641418369114568e+000	 3.299640859528343e+000	 1.047343501982317e+001
 2.604932576551026e+000	 3.328520156540966e+000	 1.044760478032263e+001
 2.568155771378458e+000	 3.356977143433668e+000	 1.042310096209980e+001
 2.531095262051196e+000	 3.385007525745849e+000	 1.039590113885567e+001
 2.493758438914534e+000	 3.412607176799092e+000	 1.036714007599656e+001
 2.456152769415361e+000	 3.439772139560280e+000	 1.033807999188010e+001
 2.837020511336150e+000	 3.168940451281644e+000	 1.060946096314271e+001
 2.801875860975600e+000	 3.200056253226749e+000	 1.058562876165489e+001
 2.766402989701746e+000	 3.230771144017952e+000	 1.055909090882278e+001
 2.730608769862155e+000	 3.261079991632188e+000	 1.053114443312351e+001
 2.694500179373152e+000	 3.290977821117469e+000	 1.050292458616886e+001
 2.658084297233307e+000	 3.320459817258793e+000	 1.047548120401488e+001
 2.621368298957908e+000	 3.349521327090561e+000	 1.045039042695300e+001
 2.584359451940528e+000	 3.378157862252897e+000	 1.042297915787002e+001
 2.547065110747905e+000	 3.406365101189477e+000	 1.039354996478090e+001
 2.509492712354418e+000	 3.434138891184774e+000	 1.036326272490825e+001
 2.471649771322522e+000	 3.461475250238931e+000	 1.033329856219442e+001
 2.854808351985561e+000	 3.188809397434150e+000	 1.060237283980336e+001
 2.819443348110627e+000	 3.220120292408698e+000	 1.057961733102812e+001
 2.783748065409441e+000	 3.251027762555651e+000	 1.055496094895745e+001
 2.747729419318505e+000	 3.281526643674674e+000	 1.052960320202682e+001
 2.711394431504983e+000	 3.311611929621332e+000	 1.050457311079793e+001
 2.674750225352066e+000	 3.341278774989703e+000	 1.048038374049657e+001
 2.637804021364806e+000	 3.370522497640566e+000	 1.045278948113706e+001
 2.600563132502615e+000	 3.399338581072477e+000	 1.042280960225070e+001
 2.563034959444631e+000	 3.427722676633387e+000	 1.039155069319854e+001
 2.525226985794328e+000	 3.455670605570664e+000	 1.036006988993615e+001
 2.487146773229715e+000	 3.483178360917711e+000	 1.032944559812535e+001
 2.872596192635086e+000	 3.208678343587173e+000	 1.059549582845487e+001
 2.837010835245739e+000	 3.240184331591172e+000	 1.057418780890705e+001
 2.801093141117197e+000	 3.271284381093875e+000	 1.055187117132622e+001
 2.764850068774895e+000	 3.301973295717676e+000	 1.052962901812534e+001
 2.728288683636842e+000	 3.332246038125688e+000	 1.050836464068442e+001
 2.691416153470845e+000	 3.362097732721078e+000	 1.048445888191715e+001
 2.654239743771723e+000	 3.391523668190996e+000	 1.045457299754256e+001
 2.616766813064722e+000	 3.420519299892435e+000	 1.042246114780946e+001
 2.579004808141385e+000	 3.449080252077623e+000	 1.038976061634183e+001
 2.540961259234273e+000	 3.477202319956819e+000	 1.035740467667111e+001
 2.502643775136960e+000	 3.504881471596689e+000	 1.032634774014954e+001
 2.890384033284712e+000	 3.228547289740663e+000	 1.058898932504251e+001
 2.854578322380925e+000	 3.260248370774131e+000	 1.056951558078073e+001
 2.818438216825004e+000	 3.291540999632588e+000	 1.055000942991953e+001
 2.781970718231322e+000	 3.322419947761167e+000	 1.053141909159473e+001
 2.745182935768730e+000	 3.352880146630527e+000	 1.051240455631143e+001
 2.708082081589644e+000	 3.382916690452919e+000	 1.048675544989150e+001
 2.670675466178660e+000	 3.412524838741869e+000	 1.045561900781460e+001
 2.632970493626855e+000	 3.441700018712804e+000	 1.042181995696304e+001
 2.594974656838174e+000	 3.470437827522229e+000	 1.038805493057089e+001
 2.556695532674268e+000	 3.498734034343295e+000	 1.035512875616070e+001
 2.518140777044271e+000	 3.526584582275933e+000	 1.032385091376593e+001
 2.908171873934421e+000	 3.248416235894569e+000	 1.058299675718652e+001
 2.872145809516170e+000	 3.280312409957526e+000	 1.056575966427880e+001
 2.835783292532855e+000	 3.311797618171761e+000	 1.054954694415830e+001
 2.799091367687780e+000	 3.342866599805125e+000	 1.053463404109484e+001
 2.762077187900638e+000	 3.373514255135836e+000	 1.051420638134036e+001
 2.724748009708466e+000	 3.403735648185227e+000	 1.048726094970378e+001
 2.687111188585623e+000	 3.433526009293199e+000	 1.045547750303334e+001
 2.649174174189020e+000	 3.462880737533612e+000	 1.042078910304022e+001
 2.610944505535007e+000	 3.491795402967248e+000	 1.038632632013068e+001
 2.572429806114326e+000	 3.520265748730149e+000	 1.035312193051646e+001
 2.533637778951669e+000	 3.548287692955509e+000	 1.032181987639673e+001
 2.925959714584196e+000	 3.268285182048841e+000	 1.057764573781560e+001
 2.889713296651465e+000	 3.300376449141319e+000	 1.056306285023716e+001
 2.853128368240741e+000	 3.332054236711353e+000	 1.055063842419480e+001
 2.816212017144263e+000	 3.363313251849527e+000	 1.053583147404806e+001
 2.778971440032567e+000	 3.394148363641605e+000	 1.051377275397355e+001
 2.741413937827308e+000	 3.424554605918009e+000	 1.048597896416885e+001
 2.703546910992609e+000	 3.454527179845005e+000	 1.045397835950168e+001
 2.665377854751221e+000	 3.484061456354890e+000	 1.041928816967273e+001
 2.626914354231892e+000	 3.513152978412723e+000	 1.038448453971281e+001
 2.588164079554456e+000	 3.541797463117435e+000	 1.035128169785761e+001
 2.549134780859165e+000	 3.569990803635482e+000	 1.032013776420367e+001
 2.943747555234023e+000	 3.288154128203432e+000	 1.057304821633534e+001
 2.907280783786796e+000	 3.320440488325464e+000	 1.056155184110626e+001
 2.870473443948652e+000	 3.352310855251332e+000	 1.055130074060247e+001
 2.833332666600767e+000	 3.383759903894349e+000	 1.053437123365671e+001
 2.795865692164516e+000	 3.414782472147824e+000	 1.051112718765569e+001
 2.758079865946173e+000	 3.445373563651262e+000	 1.048292831850184e+001
 2.719982633399626e+000	 3.475528350397300e+000	 1.045113281962502e+001
 2.681581535313463e+000	 3.505242175176668e+000	 1.041708230871239e+001
 2.642884202928838e+000	 3.534510553858697e+000	 1.038245599587211e+001
 2.603898352994673e+000	 3.563329177505211e+000	 1.034952281661945e+001
 2.564631782766780e+000	 3.591693914315921e+000	 1.031870563882300e+001
 2.961535395883882e+000	 3.308023074358290e+000	 1.056930062743536e+001
 2.924848270922151e+000	 3.340504527509917e+000	 1.056102832447727e+001
 2.887818519656582e+000	 3.372567473791665e+000	 1.054892101731776e+001
 2.850453316057286e+000	 3.404206555939566e+000	 1.053029212557917e+001
 2.812759944296481e+000	 3.435416580654481e+000	 1.050630724888588e+001
 2.774745794065056e+000	 3.466192521384992e+000	 1.047814224297364e+001
 2.736418355806673e+000	 3.496529520950103e+000	 1.044696699418712e+001
 2.697785215875753e+000	 3.526422893998977e+000	 1.041393028323559e+001
 2.658854051625854e+000	 3.555868129305217e+000	 1.038018332734598e+001
 2.619632626434987e+000	 3.584860891893531e+000	 1.034777686925283e+001
 2.580128784674530e+000	 3.613397024996892e+000	 1.031744203402295e+001
 2.979323236533757e+000	 3.327892020513365e+000	 1.056648403763362e+001
 2.942415758057520e+000	 3.360568566694637e+000	 1.055807605590508e+001
 2.905163595364522e+000	 3.392824092332316e+000	 1.054353972196384e+001
 2.867573965513814e+000	 3.424653207985159e+000	 1.052364594999480e+001
 2.829654196428458e+000	 3.456050689161565e+000	 1.049936372535724e+001
 2.791411722183963e+000	 3.487011479119200e+000	 1.047166753344509e+001
 2.752854078213755e+000	 3.517530691503430e+000	 1.044152101435888e+001
 2.713988896438097e+000	 3.547603612821848e+000	 1.040986176675160e+001
 2.674823900322948e+000	 3.577225704752323e+000	 1.037758740004228e+001
 2.635366899875414e+000	 3.606392606282453e+000	 1.034599182534038e+001
 2.595625786582433e+000	 3.635100135678463e+000	 1.031628250228649e+001
 2.440655767508217e+000	 3.418069028881693e+000	 1.034398298473859e+001
 2.403027710782309e+000	 3.444626886934158e+000	 1.031677916260260e+001
 2.365147550385903e+000	 3.470745441682317e+000	 1.029051851605162e+001
 2.327022902821665e+000	 3.496421270358104e+000	 1.026435558732756e+001
 2.288661441927230e+000	 3.521651124484178e+000	 1.023743234893460e+001
 2.250070893948702e+000	 3.546431930914687e+000	 1.020887515541491e+001
 2.211259032598793e+000	 3.570760792711000e+000	 1.017779229162800e+001
 2.172233674105955e+000	 3.594634989852545e+000	 1.014327212934400e+001
 2.133002672260832e+000	 3.618051979783225e+000	 1.010438189711084e+001
 2.093573913466255e+000	 3.641009397794124e+000	 1.006016706162854e+001
 2.053955311797024e+000	 3.663505057243499e+000	 1.000965131232272e+001
 2.456152769415361e+000	 3.439772139560280e+000	 1.033807999188010e+001
 2.418285792447178e+000	 3.466498627364912e+000	 1.031026886327347e+001
 2.380165111070181e+000	 3.492783022498506e+000	 1.028383192028430e+001
 2.341798390148221e+000	 3.518621880460040e+000	 1.025790006922755e+001
 2.303193352244160e+000	 3.544011932145869e+000	 1.023159151016904e+001
 2.264357772662105e+000	 3.568950084897113e+000	 1.020400862114630e+001
 2.225299474474157e+000	 3.593433423380952e+000	 1.017423546915611e+001
 2.186026323538119e+000	 3.617459210305963e+000	 1.014133595982094e+001
 2.146546223512473e+000	 3.641024886972018e+000	 1.010435263048844e+001
 2.106867110874978e+000	 3.664128073655407e+000	 1.006230608449144e+001
 2.066996949951050e+000	 3.686766569830242e+000	 1.001419505746418e+001
 2.471649771322522e+000	 3.461475250238931e+000	 1.033329856219442e+001
 2.433543874112069e+000	 3.488370367795640e+000	 1.030504083925462e+001
 2.395182671754490e+000	 3.514820603314579e+000	 1.027849734079740e+001
 2.356573877474814e+000	 3.540822490561769e+000	 1.025278871751579e+001
 2.317725262561141e+000	 3.566372739807267e+000	 1.022702285377269e+001
 2.278644651375573e+000	 3.591468238879172e+000	 1.020029165462619e+001
 2.239339916349607e+000	 3.616106054050469e+000	 1.017166849132710e+001
 2.199818972970387e+000	 3.640283430758890e+000	 1.014020631735328e+001
 2.160089774764248e+000	 3.663997794160270e+000	 1.010493645956891e+001
 2.120160308283865e+000	 3.687246749516119e+000	 1.006486808175715e+001
 2.080038588105280e+000	 3.710028082416403e+000	 1.001898831064147e+001
 2.487146773229715e+000	 3.483178360917711e+000	 1.032944559812535e+001
 2.448801955777006e+000	 3.510242108226416e+000	 1.030088495723645e+001
 2.410200232438857e+000	 3.536858184130617e+000	 1.027428983319923e+001
 2.371349364801481e+000	 3.563023100663378e+000	 1.024878367653087e+001
 2.332257172878211e+000	 3.588733547468468e+000	 1.022347718115332e+001
 2.292931530089150e+000	 3.613986392860957e+000	 1.019746494486692e+001
 2.253380358225186e+000	 3.638778684719643e+000	 1.016982282148828e+001
 2.213611622402809e+000	 3.663107651211413e+000	 1.013960597692187e+001
 2.173633326016202e+000	 3.686970701348076e+000	 1.010584765362389e+001
 2.133453505692958e+000	 3.710365425376351e+000	 1.006755864025442e+001
 2.093080226259744e+000	 3.733289595002065e+000	 1.002372743586561e+001
 2.502643775136960e+000	 3.504881471596689e+000	 1.032634774014954e+001
 2.464060037442010e+000	 3.532113848657317e+000	 1.029761155702862e+001
 2.425217793123311e+000	 3.558895764946705e+000	 1.027100560570541e+001
 2.386124852128256e+000	 3.585223710764960e+000	 1.024566887397462e+001
 2.346789083195411e+000	 3.611094355129560e+000	 1.022072766582671e+001
 2.307218408802882e+000	 3.636504546842562e+000	 1.019529210628896e+001
 2.267420800100942e+000	 3.661451315388569e+000	 1.016845337265754e+001
 2.227404271835432e+000	 3.685931871663630e+000	 1.013928166464339e+001
 2.187176877268379e+000	 3.709943608535522e+000	 1.010682491779921e+001
 2.146746703102297e+000	 3.733484101236188e+000	 1.007010825659362e+001
 2.106121864414475e+000	 3.756551107587308e+000	 1.002813417572524e+001
 2.518140777044271e+000	 3.526584582275933e+000	 1.032385091376593e+001
 2.479318119107102e+000	 3.553985589088418e+000	 1.029505098057385e+001
 2.440235353807877e+000	 3.580933345762920e+000	 1.026846153311036e+001
 2.400900339455172e+000	 3.607424320866600e+000	 1.024324952256058e+001
 2.361320993512781e+000	 3.633455162790639e+000	 1.021856934524261e+001
 2.321505287516809e+000	 3.659022700824079e+000	 1.019355916300408e+001
 2.281461241976922e+000	 3.684123946057341e+000	 1.016733798631830e+001
 2.241196921268304e+000	 3.708756092115631e+000	 1.013900353290514e+001
 2.200720428520828e+000	 3.732916515722704e+000	 1.010763086618768e+001
 2.160039900511925e+000	 3.756602777095718e+000	 1.007227180954402e+001
 2.119163502569507e+000	 3.779812620172219e+000	 1.003195512420099e+001
 2.533637778951669e+000	 3.548287692955509e+000	 1.032181987639673e+001
 2.494576200772307e+000	 3.575857329519796e+000	 1.029305310145514e+001
 2.455252914492587e+000	 3.602970926579353e+000	 1.026649467175390e+001
 2.415675826782263e+000	 3.629624930968387e+000	 1.024135162308587e+001
 2.375852903830360e+000	 3.655815970451795e+000	 1.021681861439799e+001
 2.335792166230977e+000	 3.681540854805605e+000	 1.019207403519255e+001
 2.295501683853174e+000	 3.706796576726056e+000	 1.016627691356742e+001
 2.254989570701472e+000	 3.731580312567512e+000	 1.013856463807074e+001
 2.214263979773591e+000	 3.755889422909708e+000	 1.010805149765852e+001
 2.173333097921881e+000	 3.779721452955029e+000	 1.007382803532912e+001
 2.132205140724873e+000	 3.803074132756878e+000	 1.003496120254296e+001
 2.549134780859165e+000	 3.569990803635482e+000	 1.032013776420367e+001
 2.509834282437646e+000	 3.597729069951527e+000	 1.029148685487570e+001
 2.470270475177469e+000	 3.625008507396082e+000	 1.026496177544031e+001
 2.430451314109564e+000	 3.651825541070408e+000	 1.023982146886603e+001
 2.390384814148186e+000	 3.678176778113120e+000	 1.021531272116163e+001
 2.350079044945431e+000	 3.704059008787232e+000	 1.019066602748573e+001
 2.309542125729742e+000	 3.729469207394803e+000	 1.016509229851565e+001
 2.268782220134983e+000	 3.754404533019364e+000	 1.013778042064732e+001
 2.227807531026718e+000	 3.778862330096631e+000	 1.010789567432625e+001
 2.186626295332208e+000	 3.802840128814207e+000	 1.007457900571608e+001
 2.145246778880603e+000	 3.826335645341369e+000	 1.003694713808191e+001
 2.564631782766780e+000	 3.591693914315921e+000	 1.031870563882300e+001
 2.525092364103141e+000	 3.619600810383686e+000	 1.029023976809164e+001
 2.485288035862548e+000	 3.647046088213191e+000	 1.026373881226995e+001
 2.445226801437110e+000	 3.674026151172752e+000	 1.023852515147509e+001
 2.404916724466301e+000	 3.700537585774706e+000	 1.021390926323725e+001
 2.364365923660214e+000	 3.726577162769055e+000	 1.018918531926906e+001
 2.323582567606674e+000	 3.752141838063679e+000	 1.016362766384559e+001
 2.282574869568885e+000	 3.777228753471282e+000	 1.013648818781008e+001
 2.241351082280251e+000	 3.801835237283559e+000	 1.010699460254702e+001
 2.199919492742944e+000	 3.825958804673341e+000	 1.007434960878086e+001
 2.158288417036733e+000	 3.849597157925777e+000	 1.003773094584921e+001
 2.580128784674530e+000	 3.613397024996892e+000	 1.031744203402295e+001
 2.540350445768814e+000	 3.641472550816348e+000	 1.028921749127816e+001
 2.500305596547855e+000	 3.669083669030762e+000	 1.026272048234465e+001
 2.460002288764932e+000	 3.696226761275509e+000	 1.023734806773595e+001
 2.419448634784743e+000	 3.722898393436643e+000	 1.021248568669676e+001
 2.378652802375369e+000	 3.749095316751165e+000	 1.018750245682449e+001
 2.337623009484017e+000	 3.774814468732779e+000	 1.016174739843643e+001
 2.296367519003227e+000	 3.800052973923358e+000	 1.013454659818516e+001
 2.254894633534237e+000	 3.824808144470584e+000	 1.010520131633667e+001
 2.213212690154133e+000	 3.849077480532520e+000	 1.007298703223672e+001
 2.171330055193294e+000	 3.872858670510183e+000	 1.003715341288806e+001
 2.595625786582433e+000	 3.635100135678463e+000	 1.031628250228649e+001
 2.555608527434690e+000	 3.663344291249593e+000	 1.028834332881133e+001
 2.515323157233419e+000	 3.691121249848880e+000	 1.026181973631074e+001
 2.474777776093069e+000	 3.718427371378763e+000	 1.023619442790905e+001
 2.433980545103553e+000	 3.745259201099026e+000	 1.021093878601763e+001
 2.392939681090943e+000	 3.771613470733660e+000	 1.018550784723588e+001
 2.351663451361818e+000	 3.797487099402197e+000	 1.015933624696887e+001
 2.310160168438054e+000	 3.822877194375687e+000	 1.013183514879631e+001
 2.268438184788723e+000	 3.847781051657798e+000	 1.010239016310879e+001
 2.226505887565815e+000	 3.872196156391829e+000	 1.007036024921882e+001
 2.184371693350319e+000	 3.896120183094671e+000	 1.003507758514318e+001
 2.053955311797024e+000	 3.663505057243499e+000	 1.000965131232272e+001
 2.014160787468252e+000	 3.685533680363033e+000	 9.953211461295828e+000
 1.974192364944430e+000	 3.707096848820648e+000	 9.895311420782887e+000
 1.934058010402449e+000	 3.728192913598081e+000	 9.850093747571911e+000
 1.893765698057606e+000	 3.748820402933820e+000	 9.815666514409838e+000
 1.853323405364218e+000	 3.768978021749815e+000	 9.788772441048661e+000
 1.812739108261148e+000	 3.788664650926862e+000	 9.766267013087150e+000
 1.772020776467593e+000	 3.807879346431334e+000	 9.745114447848918e+000
 1.731176368834391e+000	 3.826621338296152e+000	 9.722384087619572e+000
 1.690213828755852e+000	 3.844890029459100e+000	 9.695247345377574e+000
 1.649141079647045e+000	 3.862684994461763e+000	 9.660975313247356e+000
 2.066996949951050e+000	 3.686766569830242e+000	 1.001419505746418e+001
 2.026949749342556e+000	 3.708935064216883e+000	 9.960655233439098e+000
 1.986727546368358e+000	 3.730635148526094e+000	 9.902887536864970e+000
 1.946338357786760e+000	 3.751865163269136e+000	 9.854558856251872e+000
 1.905790208445515e+000	 3.772623627339524e+000	 9.817448027436104e+000
 1.865091126451960e+000	 3.792909237436087e+000	 9.788341359355215e+000
 1.824249138388354e+000	 3.812720867333757e+000	 9.764140434055364e+000
 1.783272264577802e+000	 3.832057567004748e+000	 9.741857132636264e+000
 1.742168514406036e+000	 3.850918561593067e+000	 9.718609146626934e+000
 1.700945881704125e+000	 3.869303250245444e+000	 9.691616107525485e+000
 1.659612340197034e+000	 3.887211204802014e+000	 9.658196451488626e+000
 2.080038588105280e+000	 3.710028082416403e+000	 1.001898831064147e+001
 2.039738711217104e+000	 3.732336448070155e+000	 9.968208434922644e+000
 1.999262727792577e+000	 3.754173448230980e+000	 9.912861623076111e+000
 1.958618705171412e+000	 3.775537412939670e+000	 9.861918400243114e+000
 1.917814718833813e+000	 3.796426851744760e+000	 9.822650573505651e+000
 1.876858847540136e+000	 3.816840453121951e+000	 9.791886228267183e+000
 1.835759168516035e+000	 3.836777083740311e+000	 9.766569672589554e+000
 1.794523752688518e+000	 3.856235787577900e+000	 9.743755494937439e+000
 1.753160659978216e+000	 3.875215784889800e+000	 9.720603170794218e+000
 1.711677934652947e+000	 3.893716471031692e+000	 9.694372358707229e+000
 1.670083600747572e+000	 3.911737415142255e+000	 9.662419009695217e+000
 2.093080226259744e+000	 3.733289595002065e+000	 1.002372743586561e+001
 2.052527673091920e+000	 3.755737831922926e+000	 9.975547299946349e+000
 2.011797909217094e+000	 3.777711747935385e+000	 9.923680821864600e+000
 1.970899052556393e+000	 3.799209662609751e+000	 9.871416416105818e+000
 1.929839229222469e+000	 3.820230076149579e+000	 9.830436647462824e+000
 1.888626568628697e+000	 3.840771668807451e+000	 9.798467935188908e+000
 1.847269198644123e+000	 3.860833300146565e+000	 9.772494311022879e+000
 1.805775240799660e+000	 3.880414008150812e+000	 9.749608488827688e+000
 1.764152805550830e+000	 3.899513008186364e+000	 9.727005541323733e+000
 1.722409987602206e+000	 3.918129691817841e+000	 9.701977343211727e+000
 1.680554861298542e+000	 3.936263625482468e+000	 9.671907911763983e+000
 2.106121864414475e+000	 3.756551107587308e+000	 1.002813417572524e+001
 2.065316634967021e+000	 3.779139215775277e+000	 9.982374158154412e+000
 2.024333090641914e+000	 3.801250047639374e+000	 9.933810553760305e+000
 1.983179399941691e+000	 3.822881912279439e+000	 9.882332142532812e+000
 1.941863739611455e+000	 3.844033300554042e+000	 9.840002981523590e+000
 1.900394289717594e+000	 3.864702884492636e+000	 9.807181127147210e+000
 1.858779228772551e+000	 3.884889516552547e+000	 9.780887710821281e+000
 1.817026728911142e+000	 3.904592228723509e+000	 9.758249373800899e+000
 1.775144951123781e+000	 3.923810231482768e+000	 9.736490986643158e+000
 1.733142040551793e+000	 3.942542912603885e+000	 9.712929217819214e+000
 1.691026121849827e+000	 3.960789835822633e+000	 9.684967089905456e+000
 2.119163502569507e+000	 3.779812620172219e+000	 1.003195512420099e+001
 2.078105596842430e+000	 3.802540599627279e+000	 9.988416901160813e+000
 2.036868272067042e+000	 3.824788347343020e+000	 9.942936365517609e+000
 1.995459747327293e+000	 3.846554161948798e+000	 9.893982131097594e+000
 1.953888250000736e+000	 3.867836524958197e+000	 9.850582516566449e+000
 1.912162010806777e+000	 3.888634100177547e+000	 9.817156027429389e+000
 1.870289258901252e+000	 3.908945732958296e+000	 9.790758659605370e+000
 1.828278217022880e+000	 3.928770449296013e+000	 9.768547177454941e+000
 1.786137096696969e+000	 3.948107454779024e+000	 9.747770846286436e+000
 1.743874093501599e+000	 3.966956133389826e+000	 9.725764102670203e+000
 1.701497382401312e+000	 3.985316046162736e+000	 9.699940308563162e+000
 2.132205140724873e+000	 3.803074132756878e+000	 1.003496120254296e+001
 2.090894558718166e+000	 3.825941983479015e+000	 9.993428452555763e+000
 2.049403453492485e+000	 3.848326647046395e+000	 9.950773545647929e+000
 2.007740094713190e+000	 3.870226411617892e+000	 9.905422356413732e+000
 1.965912760390286e+000	 3.891639749362105e+000	 9.861446381476851e+000
 1.923929731896198e+000	 3.912565315862232e+000	 9.827560262902376e+000
 1.881799289030159e+000	 3.933001949363844e+000	 9.801153032029967e+000
 1.839529705134790e+000	 3.952948669868349e+000	 9.779408175757583e+000
 1.797129242270298e+000	 3.972404678075140e+000	 9.759594356620866e+000
 1.754606146451515e+000	 3.991369354175658e+000	 9.739057158786640e+000
 1.711968642952877e+000	 4.009842256502755e+000	 9.715002974171199e+000
 2.145246778880603e+000	 3.826335645341369e+000	 1.003694713808191e+001
 2.103683520594251e+000	 3.849343367330560e+000	 9.997186241244418e+000
 2.061938634918248e+000	 3.871864946749569e+000	 9.957063041907537e+000
 2.020020442099368e+000	 3.893898661286785e+000	 9.915067597488253e+000
 1.977937270780072e+000	 3.915442973765817e+000	 9.871905880201995e+000
 1.935697452985807e+000	 3.936496531546734e+000	 9.837600701558591e+000
 1.893309319159202e+000	 3.957058165769227e+000	 9.811155463931732e+000
 1.850781193246788e+000	 3.977126890440536e+000	 9.789777390144693e+000
 1.808121387843667e+000	 3.996701901371128e+000	 9.770749957491168e+000
 1.765338199401428e+000	 4.015782574961377e+000	 9.750867169916486e+000
 1.722439903504408e+000	 4.034368466842676e+000	 9.726978213882495e+000
 2.158288417036733e+000	 3.849597157925777e+000	 1.003773094584921e+001
 2.116472482470704e+000	 3.872744751181992e+000	 9.999491677977325e+000
 2.074473816344336e+000	 3.895403246452611e+000	 9.961570919895458e+000
 2.032300789485816e+000	 3.917570910955538e+000	 9.922519943462445e+000
 1.989961781170066e+000	 3.939246198169390e+000	 9.881314486190444e+000
 1.947465174075554e+000	 3.960427747231099e+000	 9.846525299855808e+000
 1.904819349288316e+000	 3.981114382174480e+000	 9.819891039183645e+000
 1.862032681358789e+000	 4.001305111012600e+000	 9.798635773378159e+000
 1.819113533416977e+000	 4.020999124666999e+000	 9.779064734368355e+000
 1.776070252351231e+000	 4.040195795746982e+000	 9.758343546767071e+000
 1.732911164055787e+000	 4.058894677182480e+000	 9.734779863971641e+000
 2.171330055193294e+000	 3.872858670510183e+000	 1.003715341288806e+001
 2.129261444347548e+000	 3.896146135033388e+000	 1.000016963493842e+001
 2.087008997770753e+000	 3.918941546155594e+000	 9.964087825561776e+000
 2.044581136872522e+000	 3.941243160624216e+000	 9.927517421701019e+000
 2.001986291560236e+000	 3.963049422572876e+000	 9.889054227345866e+000
 1.959232895165393e+000	 3.984358962915372e+000	 9.853624959439344e+000
 1.916329379417432e+000	 4.005170598579635e+000	 9.826459632133632e+000
 1.873284169470709e+000	 4.025483331584564e+000	 9.803542455971147e+000
 1.830105678990131e+000	 4.045296347962762e+000	 9.782294055100666e+000
 1.786802305300814e+000	 4.064609016532470e+000	 9.760947088931308e+000
 1.743382424606897e+000	 4.083420887522147e+000	 9.737875597333440e+000
 2.184371693350319e+000	 3.896120183094671e+000	 1.003507758514318e+001
 2.142050406224803e+000	 3.919547518884829e+000	 9.999067928262475e+000
 2.099544179197507e+000	 3.942479845858591e+000	 9.964428451462913e+000
 2.056861484259474e+000	 3.964915410292883e+000	 9.929823623993343e+000
 2.014010801950552e+000	 3.986852646976335e+000	 9.893892387642474e+000
 1.971000616255271e+000	 4.008290178599602e+000	 9.858064638973096e+000
 1.927839409546484e+000	 4.029226814984732e+000	 9.828336471940091e+000
 1.884535657582464e+000	 4.049661552156452e+000	 9.803004911930765e+000
 1.841097824563030e+000	 4.069593571258429e+000	 9.780241308890453e+000
 1.797534358250065e+000	 4.089022237317836e+000	 9.758349272371719e+000
 1.753853685157622e+000	 4.107947097861665e+000	 9.735761635601124e+000
 1.649141079647045e+000	 3.862684994461763e+000	 9.660975313247356e+000
 1.607959836669317e+000	 3.880008541358522e+000	 9.621420909669379e+000
 1.566684128643885e+000	 3.896857880884244e+000	 9.580541554922357e+000
 1.525321798057408e+000	 3.913233096336334e+000	 9.538843688554332e+000
 1.483880649957763e+000	 3.929134436186638e+000	 9.496861576440073e+000
 1.442368447821710e+000	 3.944562312133359e+000	 9.455155846458736e+000
 1.400792909513493e+000	 3.959517297036671e+000	 9.414313189596122e+000
 1.359161703337863e+000	 3.974000122742366e+000	 9.374947225149603e+000
 1.317482444190801e+000	 3.988011677797904e+000	 9.338273941047069e+000
 1.275762689811018e+000	 4.001553005065471e+000	 9.309702951154542e+000
 1.234009937135045e+000	 4.014625299236578e+000	 9.288975007046151e+000
 1.659612340197034e+000	 3.887211204802014e+000	 9.658196451488626e+000
 1.618169615936555e+000	 3.904644747972214e+000	 9.619928303268274e+000
 1.576631826820247e+000	 3.921601072780403e+000	 9.580438906128961e+000
 1.535006865130829e+000	 3.938080263052890e+000	 9.540184356318582e+000
 1.493302585474527e+000	 3.954082568839195e+000	 9.499629767988353e+000
 1.451526800622489e+000	 3.969608404451610e+000	 9.459247892207301e+000
 1.409687277443730e+000	 3.984658346387703e+000	 9.419519015969900e+000
 1.367791732933090e+000	 3.999233131140132e+000	 9.380932139028790e+000
 1.325847830337527e+000	 4.013333652898218e+000	 9.344357167665427e+000
 1.283863175383798e+000	 4.026960961145822e+000	 9.315007677585873e+000
 1.241845312610418e+000	 4.040116258160178e+000	 9.293917332903963e+000
 1.670083600747572e+000	 3.911737415142255e+000	 9.662419009695217e+000
 1.628379395204329e+000	 3.929280954585979e+000	 9.625928411337352e+000
 1.586579524997117e+000	 3.946344264676716e+000	 9.588071901060662e+000
 1.544691932204722e+000	 3.962927429769678e+000	 9.549234614395443e+000
 1.502724520991713e+000	 3.979030701492055e+000	 9.509794132973797e+000
 1.460685153423631e+000	 3.994654496770230e+000	 9.470119152290190e+000
 1.418581645374264e+000	 4.009799395739160e+000	 9.430574059396017e+000
 1.376421762528546e+000	 4.024466139538372e+000	 9.391992107773223e+000
 1.334213216484404e+000	 4.038655627999038e+000	 9.355761995665274e+000
 1.291963660956650e+000	 4.052368917226700e+000	 9.325746123508772e+000
 1.249680688085785e+000	 4.065607217084311e+000	 9.304004741737810e+000
 1.680554861298542e+000	 3.936263625482468e+000	 9.671907911763983e+000
 1.638589174472520e+000	 3.953917161199783e+000	 9.637499123467640e+000
 1.596527223174380e+000	 3.971087456573137e+000	 9.601368260844019e+000
 1.554376999278973e+000	 3.987774596486632e+000	 9.563809292114543e+000
 1.512146456509218e+000	 4.003978834145139e+000	 9.525077709930832e+000
 1.469843506225049e+000	 4.019700589089125e+000	 9.485312110615173e+000
 1.427476013305023e+000	 4.034940445090934e+000	 9.445519520078676e+000
 1.385051792124171e+000	 4.049699147936963e+000	 9.407001305142362e+000
 1.342578602631395e+000	 4.063977603100238e+000	 9.371106909978066e+000
 1.300064146529557e+000	 4.077776873307971e+000	 9.340526479162664e+000
 1.257516063561146e+000	 4.091098176008841e+000	 9.317926564308857e+000
 1.691026121849827e+000	 3.960789835822633e+000	 9.684967089905456e+000
 1.648798953741009e+000	 3.978553367813596e+000	 9.652759298761845e+000
 1.606474921351918e+000	 3.995830648469615e+000	 9.618297834612305e+000
 1.564062066353473e+000	 4.012621763203689e+000	 9.581550444750450e+000
 1.521568392026944e+000	 4.028926966798368e+000	 9.542652557595346e+000
 1.479001859026653e+000	 4.044746681408201e+000	 9.502725467633471e+000
 1.436370381235935e+000	 4.060081494442918e+000	 9.462972117132228e+000
 1.393681821719912e+000	 4.074932156335789e+000	 9.424639666407336e+000
 1.350943988778462e+000	 4.089299578201687e+000	 9.389014483888037e+000
 1.308164632102501e+000	 4.103184829389508e+000	 9.358030360862051e+000
 1.265351439036504e+000	 4.116589134933640e+000	 9.334444075338928e+000
 1.701497382401312e+000	 3.985316046162736e+000	 9.699940308563162e+000
 1.659008733009677e+000	 4.003189574427382e+000	 9.669848670644690e+000
 1.616422619529614e+000	 4.020573840366099e+000	 9.636200469491318e+000
 1.573747133428113e+000	 4.037468929920784e+000	 9.599475479438290e+000
 1.530990327544788e+000	 4.053875099451660e+000	 9.560730729731176e+000
 1.488160211828356e+000	 4.069792773727361e+000	 9.521071271698054e+000
 1.445264749166924e+000	 4.085222543795005e+000	 9.481644955689976e+000
 1.402311851315711e+000	 4.100165164734731e+000	 9.443637363819674e+000
 1.359309374925568e+000	 4.114621553303265e+000	 9.408266899517452e+000
 1.316265117675463e+000	 4.128592785471173e+000	 9.377009428778733e+000
 1.273186814511861e+000	 4.142080093858573e+000	 9.352387350798878e+000
 1.711968642952877e+000	 4.009842256502755e+000	 9.715002974171199e+000
 1.669218512278404e+000	 4.027825781041109e+000	 9.685665362799046e+000
 1.626370317707353e+000	 4.045317032262544e+000	 9.652433866252611e+000
 1.583432200502779e+000	 4.062316096637850e+000	 9.616259790564667e+000
 1.540412263062650e+000	 4.078823232104933e+000	 9.578143571195861e+000
 1.497318564630068e+000	 4.094838866046509e+000	 9.539129489215840e+000
 1.454159117097919e+000	 4.110363593147087e+000	 9.500300538274678e+000
 1.410941880911512e+000	 4.125398173133672e+000	 9.462773439859333e+000
 1.367674761072674e+000	 4.139943528404842e+000	 9.427693807189923e+000
 1.324365603248425e+000	 4.154000741552840e+000	 9.396282046603176e+000
 1.281022189987216e+000	 4.167571052783504e+000	 9.370652163106323e+000
 1.722439903504408e+000	 4.034368466842676e+000	 9.726978213882495e+000
 1.679428291547071e+000	 4.052461987654741e+000	 9.698374325421186e+000
 1.636318015885016e+000	 4.070060224158895e+000	 9.666042279960310e+000
 1.593117267577364e+000	 4.087163263354825e+000	 9.630863936661266e+000
 1.549834198580428e+000	 4.103771364758110e+000	 9.593768512706227e+000
 1.506476917431703e+000	 4.119884958365555e+000	 9.555727386429632e+000
 1.463053485028845e+000	 4.135504642499055e+000	 9.517749039561403e+000
 1.419571910507259e+000	 4.150631181532491e+000	 9.480874135269854e+000
 1.376040147219742e+000	 4.165265503506291e+000	 9.446170731797613e+000
 1.332466088821368e+000	 4.179408697634375e+000	 9.414729981302500e+000
 1.288857565462575e+000	 4.193062011708301e+000	 9.388196912619410e+000
 1.732911164055787e+000	 4.058894677182480e+000	 9.734779863971639e+000
 1.689638070815559e+000	 4.077098194268250e+000	 9.707236568150449e+000
 1.646265714062487e+000	 4.094803416055106e+000	 9.676141730996363e+000
 1.602802334651755e+000	 4.112010430071640e+000	 9.642290817876100e+000
 1.559256134098022e+000	 4.128719497411107e+000	 9.606527356842225e+000
 1.515635270233171e+000	 4.144931050684400e+000	 9.569737819604224e+000
 1.471947852959630e+000	 4.160645691850804e+000	 9.532846624863250e+000
 1.428201940102896e+000	 4.175864189931072e+000	 9.496811259975619e+000
 1.384405533366737e+000	 4.190587478607486e+000	 9.462617520277338e+000
 1.340566574394276e+000	 4.204816653715645e+000	 9.431274868709817e+000
 1.296692940937935e+000	 4.218552970632833e+000	 9.404039593891552e+000
 1.743382424606897e+000	 4.083420887522147e+000	 9.737875597333440e+000
 1.699847850083750e+000	 4.101734400881598e+000	 9.711547422221173e+000
 1.656213412239648e+000	 4.119546607951128e+000	 9.681886131450053e+000
 1.612487401725841e+000	 4.136857596788231e+000	 9.649584020838049e+000
 1.568678069615330e+000	 4.153667630063846e+000	 9.615384604873491e+000
 1.524793623034385e+000	 4.169977143002951e+000	 9.580077567011101e+000
 1.480842220890201e+000	 4.185786741202223e+000	 9.544493810501834e+000
 1.436831969698366e+000	 4.201097198329295e+000	 9.509500605078360e+000
 1.392770919513618e+000	 4.215909453708301e+000	 9.475996828467174e+000
 1.348667059967129e+000	 4.230224609796522e+000	 9.444908305283626e+000
 1.304528316413302e+000	 4.244043929556965e+000	 9.417254795225585e+000
 1.753853685157622e+000	 4.107947097861665e+000	 9.735761635601124e+000
 1.710057629351524e+000	 4.126370607494756e+000	 9.710635022001615e+000
 1.666161110416385e+000	 4.144289799846914e+000	 9.682465705869014e+000
 1.622172468799514e+000	 4.161704763504537e+000	 9.651826200853998e+000
 1.578100005132252e+000	 4.178615762716244e+000	 9.619345822702151e+000
 1.533951975835255e+000	 4.195023235321111e+000	 9.585705700964228e+000
 1.489736588820484e+000	 4.210927790553209e+000	 9.551633864311762e+000
 1.445461999293614e+000	 4.226330206727043e+000	 9.517900394216019e+000
 1.401136305660350e+000	 4.241231428808610e+000	 9.485312645697814e+000
 1.356767545539909e+000	 4.255632565876874e+000	 9.454710537734940e+000
 1.312363691888676e+000	 4.269534888480566e+000	 9.426970730135896e+000
 1.234009937135045e+000	 4.014625299236578e+000	 9.288975007046151e+000
 1.192231618162235e+000	 4.027229903250403e+000	 9.271992015627134e+000
 1.150435094796215e+000	 4.039368302625527e+000	 9.254733037096553e+000
 1.108627657420195e+000	 4.051042125731239e+000	 9.236360052016050e+000
 1.066816522301443e+000	 4.062253141966685e+000	 9.216319323433018e+000
 1.025008828498531e+000	 4.073003258861230e+000	 9.194313443128383e+000
 9.832116348843374e-001	 4.083294519104892e+000	 9.170273689710127e+000
 9.414319172861082e-001	 4.093129097513706e+000	 9.144341744321194e+000
 8.996765657436613e-001	 4.102509297934844e+000	 9.116839364630895e+000
 8.579523818866406e-001	 4.111437550096344e+000	 9.088252644010947e+000
 8.162660764314832e-001	 4.119916406406245e+000	 9.059212004035894e+000
 1.241845312610418e+000	 4.040116258160178e+000	 9.293917332903963e+000
 1.199801721206407e+000	 4.052800895407485e+000	 9.276779413891470e+000
 1.157739809819977e+000	 4.065016367838656e+000	 9.259555195444884e+000
 1.115666915124803e+000	 4.076764314162330e+000	 9.241409550065248e+000
 1.073590299208018e+000	 4.088046515012492e+000	 9.221785468210781e+000
 1.031517146457816e+000	 4.098864890030392e+000	 9.200375929620654e+000
 9.894545605675654e-001	 4.109221494876151e+000	 9.177096394269146e+000
 9.474095616576930e-001	 4.119118518174838e+000	 9.152065265736376e+000
 9.053890835164922e-001	 4.128558278401947e+000	 9.125574880773476e+000
 8.633999709607189e-001	 4.137543220713116e+000	 9.098074695975010e+000
 8.214489773166679e-001	 4.146075913722957e+000	 9.070151315668763e+000
 1.249680688085785e+000	 4.065607217084311e+000	 9.304004741737810e+000
 1.207371824250493e+000	 4.078371887565093e+000	 9.286305129452563e+000
 1.165044524843574e+000	 4.090664433052284e+000	 9.268697603867798e+000
 1.122706172829171e+000	 4.102486502593892e+000	 9.250359124137694e+000
 1.080364076114282e+000	 4.113839888058725e+000	 9.230738310153296e+000
 1.038025464416730e+000	 4.124726521199935e+000	 9.209527162272194e+000
 9.956974862503660e-001	 4.135148470647740e+000	 9.186633661481514e+000
 9.533872060288052e-001	 4.145107938836248e+000	 9.162161159689495e+000
 9.111016012888167e-001	 4.154607258869276e+000	 9.136380476817100e+000
 8.688475600342709e-001	 4.163648891330075e+000	 9.109712163968471e+000
 8.266318782013200e-001	 4.172235421039815e+000	 9.082706543416391e+000
 1.257516063561146e+000	 4.091098176008841e+000	 9.317926564308857e+000
 1.214941927294513e+000	 4.103942879723094e+000	 9.299355361259325e+000
 1.172349239867047e+000	 4.116312498266290e+000	 9.281039080938436e+000
 1.129745430533360e+000	 4.128208691025804e+000	 9.262175763241309e+000
 1.087137853020315e+000	 4.139633261105280e+000	 9.242228382467774e+000
 1.044533782375364e+000	 4.150588152369766e+000	 9.220896440144163e+000
 1.001940411932846e+000	 4.161075446419583e+000	 9.198088657155118e+000
 9.593648503995628e-001	 4.171097359497876e+000	 9.173901451680431e+000
 9.168141190607614e-001	 4.180656239336790e+000	 9.148591963970073e+000
 8.742951491074273e-001	 4.189754561947185e+000	 9.122559528508948e+000
 8.318147790855720e-001	 4.198394928356807e+000	 9.096325707276618e+000
 1.265351439036504e+000	 4.116589134933640e+000	 9.334444075338928e+000
 1.222512030338491e+000	 4.129513871881357e+000	 9.314786219452996e+000
 1.179653954890438e+000	 4.141960563480546e+000	 9.295526249006370e+000
 1.136784688237429e+000	 4.153930879457952e+000	 9.275892065512510e+000
 1.093911629926192e+000	 4.165426634152051e+000	 9.255369533754504e+000
 1.051042100333811e+000	 4.176449783539791e+000	 9.233673973779954e+000
 1.008183337615112e+000	 4.187002422191599e+000	 9.210722933715354e+000
 9.653424947700844e-001	 4.197086780159657e+000	 9.186613899457290e+000
 9.225266368324533e-001	 4.206705219804441e+000	 9.161598092810346e+000
 8.797427381803207e-001	 4.215860232564423e+000	 9.136061270383443e+000
 8.369976799695581e-001	 4.224554435673913e+000	 9.110503735380130e+000
 1.273186814511861e+000	 4.142080093858573e+000	 9.352387350798878e+000
 1.230082133382446e+000	 4.155084864039749e+000	 9.331520832468682e+000
 1.186958669913788e+000	 4.167608628694931e+000	 9.311170886093237e+000
 1.143823945941437e+000	 4.179653067890219e+000	 9.290603829629875e+000
 1.100685406831993e+000	 4.191220007198934e+000	 9.269336753418331e+000
 1.057550418292166e+000	 4.202311414709921e+000	 9.247108938865443e+000
 1.014426263297271e+000	 4.212929397963709e+000	 9.223855211632611e+000
 9.713201391404875e-001	 4.223076200821530e+000	 9.199680485116508e+000
 9.282391546040187e-001	 4.232754200272183e+000	 9.174839255154762e+000
 8.851903272530822e-001	 4.241965903181751e+000	 9.149710775765003e+000
 8.421805808534109e-001	 4.250713942991122e+000	 9.124781565676768e+000
 1.281022189987216e+000	 4.167571052783504e+000	 9.370652163106323e+000
 1.237652236426401e+000	 4.180655856198142e+000	 9.348546487611738e+000
 1.194263384937138e+000	 4.193256693909315e+000	 9.327047306917814e+000
 1.150863203645446e+000	 4.205375256322486e+000	 9.305467671101077e+000
 1.107459183737793e+000	 4.217013380245822e+000	 9.283364017788180e+000
 1.064058736250520e+000	 4.228173045880061e+000	 9.260507546521630e+000
 1.020669188979431e+000	 4.238856373735842e+000	 9.236857518539669e+000
 9.772977835108908e-001	 4.249065621483434e+000	 9.212535915956686e+000
 9.339516723755841e-001	 4.258803180739971e+000	 9.187806190880924e+000
 8.906379163258440e-001	 4.268071573799145e+000	 9.163049242572306e+000
 8.473634817372634e-001	 4.276873450308417e+000	 9.138745245247900e+000
 1.288857565462575e+000	 4.193062011708301e+000	 9.388196912619410e+000
 1.245222339470378e+000	 4.206226848356404e+000	 9.364911803684748e+000
 1.201568099960529e+000	 4.218904759123572e+000	 9.342289771811156e+000
 1.157902461349515e+000	 4.231097444754642e+000	 9.319698662365235e+000
 1.114232960643671e+000	 4.242806753292610e+000	 9.296742156062711e+000
 1.070567054208968e+000	 4.254034677050119e+000	 9.273231129521921e+000
 1.026912114661696e+000	 4.264783349507912e+000	 9.249156928454907e+000
 9.832754278814122e-001	 4.275055042145304e+000	 9.224666133713502e+000
 9.396641901472760e-001	 4.284852161207754e+000	 9.200038699490779e+000
 8.960855053987374e-001	 4.294177244416569e+000	 9.175664588019496e+000
 8.525463826212494e-001	 4.303032957625782e+000	 9.152025027345129e+000
 1.296692940937935e+000	 4.218552970632833e+000	 9.404039593891552e+000
 1.252792442514398e+000	 4.231797840514404e+000	 9.379723934309444e+000
 1.208872814984002e+000	 4.244552824337582e+000	 9.356089922341823e+000
 1.164941719053704e+000	 4.256819633186568e+000	 9.332567995702611e+000
 1.121006737549704e+000	 4.268600126339194e+000	 9.308816735243914e+000
 1.077075372167601e+000	 4.279896308220005e+000	 9.284694243760225e+000
 1.033155040344177e+000	 4.290710325279848e+000	 9.260231420763498e+000
 9.892530722521703e-001	 4.301044462807081e+000	 9.235606831821016e+000
 9.453767079192210e-001	 4.310901141675489e+000	 9.211124356215112e+000
 9.015330944718941e-001	 4.320282915033996e+000	 9.187190357305845e+000
 8.577292835055019e-001	 4.329192464943204e+000	 9.164294466251910e+000
 1.304528316413302e+000	 4.244043929556965e+000	 9.417254795225585e+000
 1.260362545558484e+000	 4.257368832672012e+000	 9.392145800652902e+000
 1.216177530007600e+000	 4.270200889551218e+000	 9.367694242528577e+000
 1.171980976758072e+000	 4.282541821618144e+000	 9.343400667993356e+000
 1.127780514455968e+000	 4.294393499385465e+000	 9.318985963260079e+000
 1.083583690126515e+000	 4.305757939389624e+000	 9.294362784328927e+000
 1.039397966026977e+000	 4.316637301051570e+000	 9.269608862909387e+000
 9.952307166232824e-001	 4.327033883468700e+000	 9.244941980361952e+000
 9.510892256915459e-001	 4.336950122143130e+000	 9.220697232468201e+000
 9.069806835454459e-001	 4.346388585651395e+000	 9.197304633397060e+000
 8.629121843901538e-001	 4.355351972260665e+000	 9.175269510059223e+000
 1.312363691888676e+000	 4.269534888480566e+000	 9.426970730135896e+000
 1.267932648602657e+000	 4.282939824829096e+000	 9.401393352329359e+000
 1.223482245031363e+000	 4.295848954764352e+000	 9.376401544570886e+000
 1.179020234462681e+000	 4.308264010049258e+000	 9.351573186411793e+000
 1.134554291362543e+000	 4.320186872431324e+000	 9.326698609518051e+000
 1.090092008085801e+000	 4.331619570558885e+000	 9.301752115595841e+000
 1.045640891710206e+000	 4.342564276822999e+000	 9.276865344450613e+000
 1.001208360994867e+000	 4.353023304130099e+000	 9.252302358385606e+000
 9.568017434643769e-001	 4.362999102610631e+000	 9.228436620470509e+000
 9.124282726195250e-001	 4.372494256268735e+000	 9.205728947852830e+000
 8.680950852753391e-001	 4.381511479578151e+000	 9.184707591442699e+000
 8.162660764314832e-001	 4.119916406406245e+000	 9.059212004035894e+000
 7.746305074992251e-001	 4.127947367894609e+000	 9.030100129731705e+000
 7.330459304817425e-001	 4.135534529605869e+000	 9.002424410308874e+000
 6.915187573703857e-001	 4.142680794474465e+000	 8.978708707800113e+000
 6.500553007098910e-001	 4.149389174776561e+000	 8.961601472167430e+000
 6.086617716998224e-001	 4.155662788750935e+000	 8.952038879664915e+000
 5.673442784153442e-001	 4.161504857197135e+000	 8.947929284210819e+000
 5.261088241467260e-001	 4.166918700055335e+000	 8.947776090951631e+000
 4.849613058567812e-001	 4.171907732972209e+000	 8.950876351969715e+000
 4.439075127552784e-001	 4.176475463857045e+000	 8.957135794825021e+000
 4.029531249892538e-001	 4.180625489432248e+000	 8.966900477051139e+000
 8.214489773166679e-001	 4.146075913722957e+000	 9.070151315668763e+000
 7.795490423483210e-001	 4.154157867992348e+000	 9.042449265719736e+000
 7.377004230691648e-001	 4.161793204567332e+000	 9.016404645193303e+000
 6.959095721836308e-001	 4.168984844814609e+000	 8.993983316514798e+000
 6.541828423181006e-001	 4.175735820136897e+000	 8.977233495313865e+000
 6.125264841102887e-001	 4.182049268572325e+000	 8.966606068761944e+000
 5.709466444187183e-001	 4.187928431371006e+000	 8.960193721485783e+000
 5.294493646516858e-001	 4.193376649553176e+000	 8.956712240265700e+000
 4.880405792149012e-001	 4.198397360453264e+000	 8.955626988095812e+000
 4.467261140768504e-001	 4.202994094254131e+000	 8.956973334362274e+000
 4.055116854507895e-001	 4.207170470515678e+000	 8.961193901518392e+000
 8.266318782013200e-001	 4.172235421039815e+000	 9.082706543416391e+000
 7.844675771968939e-001	 4.180368368090208e+000	 9.056206570872186e+000
 7.423549156560875e-001	 4.188051879528887e+000	 9.031538847099224e+000
 7.003003869964146e-001	 4.195288895154834e+000	 9.010156741574713e+000
 6.583103839258989e-001	 4.202082465497299e+000	 8.993586221838068e+000
 6.163911965204039e-001	 4.208435748393775e+000	 8.981815675803627e+000
 5.745490104218124e-001	 4.214352005544932e+000	 8.973042177140611e+000
 5.327899051564446e-001	 4.219834599051070e+000	 8.966213287778576e+000
 4.911198525729068e-001	 4.224886987934367e+000	 8.960980085363586e+000
 4.495447153984006e-001	 4.229512724651258e+000	 8.957523419267009e+000
 4.080702459124012e-001	 4.233715451599140e+000	 8.956397167688111e+000
 8.318147790855720e-001	 4.198394928356807e+000	 9.096325707276618e+000
 7.893861120450737e-001	 4.206578868188181e+000	 9.070876663805432e+000
 7.470094082426360e-001	 4.214310554490548e+000	 9.047399024468890e+000
 7.046912018088520e-001	 4.221592945495159e+000	 9.026878490651704e+000
 6.624379255333880e-001	 4.228429110857804e+000	 9.010375960570967e+000
 6.202559089302560e-001	 4.234822228215323e+000	 8.997480381070472e+000
 5.781513764246962e-001	 4.240775579718960e+000	 8.986397415291433e+000
 5.361304456610525e-001	 4.246292548549063e+000	 8.976322354221660e+000
 4.941991259308264e-001	 4.251376615415562e+000	 8.967105924494433e+000
 4.523633167199344e-001	 4.256031355048466e+000	 8.959086813246799e+000
 4.106288063740699e-001	 4.260260432682666e+000	 8.952941372215642e+000
 8.369976799695581e-001	 4.224554435673913e+000	 9.110503735380130e+000
 7.943046468929925e-001	 4.232789368286273e+000	 9.086007618077936e+000
 7.516639008289349e-001	 4.240569229452331e+000	 9.063596630814747e+000
 7.090820166210586e-001	 4.247896995835609e+000	 9.043832964597607e+000
 6.665654671406717e-001	 4.254775756218443e+000	 9.027352010637102e+000
 6.241206213399322e-001	 4.261208708037015e+000	 9.013439542876720e+000
 5.817537424274395e-001	 4.267199153893132e+000	 9.000202541354902e+000
 5.394709861655601e-001	 4.272750498047199e+000	 8.987096474212692e+000
 4.972783992886888e-001	 4.277866242896895e+000	 8.974182115733958e+000
 4.551819180414574e-001	 4.282549985445801e+000	 8.961964802252222e+000
 4.131873668357766e-001	 4.286805413766293e+000	 8.951251038466742e+000
 8.421805808534109e-001	 4.250713942991122e+000	 9.124781565676768e+000
 7.992231817407802e-001	 4.258999868384477e+000	 9.101190259836802e+000
 7.563183934151089e-001	 4.266827904414242e+000	 9.079782063473404e+000
 7.134728314331503e-001	 4.274201046176213e+000	 9.060739161769625e+000
 6.706930087478520e-001	 4.281122401579249e+000	 9.044307334225151e+000
 6.279853337495213e-001	 4.287595187858888e+000	 9.029559194985355e+000
 5.853561084301131e-001	 4.293622728067493e+000	 9.014421200466693e+000
 5.428115266700170e-001	 4.299208447545529e+000	 8.998607004936298e+000
 5.003576726465228e-001	 4.304355870378412e+000	 8.982394225461205e+000
 4.580005193629747e-001	 4.309068615843296e+000	 8.966460045098643e+000
 4.157459272975020e-001	 4.313350394850049e+000	 8.951745195665787e+000
 8.473634817372634e-001	 4.276873450308417e+000	 9.138745245247900e+000
 8.041417165885678e-001	 4.285210368482794e+000	 9.116057459335652e+000
 7.609728860012828e-001	 4.293086579376300e+000	 9.095644152125692e+000
 7.178636462452411e-001	 4.300505096516986e+000	 9.077350367684939e+000
 6.748205503550323e-001	 4.307469046940256e+000	 9.061075487296966e+000
 6.318500461591106e-001	 4.313981667680984e+000	 9.045732019576827e+000
 5.889584744327866e-001	 4.320046302242091e+000	 9.029037746150559e+000
 5.461520671744742e-001	 4.325666397044096e+000	 9.010939999524387e+000
 5.034369460043564e-001	 4.330845497860159e+000	 8.991936361721304e+000
 4.608191206844920e-001	 4.335587246240998e+000	 8.972877377029480e+000
 4.183044877592277e-001	 4.339895375933969e+000	 8.954838404818936e+000
 8.525463826212494e-001	 4.303032957625782e+000	 9.152025027345129e+000
 8.090602514364863e-001	 4.311420868581226e+000	 9.130283416585201e+000
 7.656273785875816e-001	 4.319345254338512e+000	 9.110909637518207e+000
 7.222544610574481e-001	 4.326809146857958e+000	 9.093453830628649e+000
 6.789480919623159e-001	 4.333815692301495e+000	 9.077511603749034e+000
 6.357147585687870e-001	 4.340368147503342e+000	 9.061877296812533e+000
 5.925608404355304e-001	 4.346469876416972e+000	 9.044057380503560e+000
 5.494926076789813e-001	 4.352124346542950e+000	 9.024196546638247e+000
 5.065162193622189e-001	 4.357335125342182e+000	 9.003011720428789e+000
 4.636377220060149e-001	 4.362105876638947e+000	 8.981524568223650e+000
 4.208630482209342e-001	 4.366440357018083e+000	 8.960941733679011e+000
 8.577292835055019e-001	 4.329192464943204e+000	 9.164294466251910e+000
 8.139787862846666e-001	 4.337631368679769e+000	 9.143582941384373e+000
 7.702818711741304e-001	 4.345603929300893e+000	 9.125342640800612e+000
 7.266452758698856e-001	 4.353113197199152e+000	 9.108870423809441e+000
 6.830756335698049e-001	 4.360162337663001e+000	 9.093500164116257e+000
 6.395794709786391e-001	 4.366754627326000e+000	 9.077940831982611e+000
 5.961632064384143e-001	 4.372893450592176e+000	 9.059506267102712e+000
 5.528331481835894e-001	 4.378582296042136e+000	 9.038493077682496e+000
 5.095954927201386e-001	 4.383824752824525e+000	 9.015833093905926e+000
 4.664563233275486e-001	 4.388624507037183e+000	 8.992713039153129e+000
 4.234216086826029e-001	 4.392985338102428e+000	 8.970463682906493e+000
 8.629121843901538e-001	 4.355351972260665e+000	 9.175269510059223e+000
 8.188973211332394e-001	 4.363841868778422e+000	 9.155710727968117e+000
 7.749363637610531e-001	 4.371862604263454e+000	 9.138744123873103e+000
 7.310360906826695e-001	 4.379417247540587e+000	 9.123454294628226e+000
 6.872031751776031e-001	 4.386508983024806e+000	 9.108954846230377e+000
 6.434441833887548e-001	 4.393141107149004e+000	 9.093894861180852e+000
 5.997655724415082e-001	 4.399317024767751e+000	 9.075431617779673e+000
 5.561736886883482e-001	 4.405040245541704e+000	 9.053961643011167e+000
 5.126747660781442e-001	 4.410314380307236e+000	 9.030623343339391e+000
 4.692749246490988e-001	 4.415143137435748e+000	 9.006758534604508e+000
 4.259801691442147e-001	 4.419530319187034e+000	 8.983811065479404e+000
 8.680950852753391e-001	 4.381511479578151e+000	 9.184707591442699e+000
 8.238158559823361e-001	 4.390052368877189e+000	 9.166460624496963e+000
 7.795908563484760e-001	 4.398121279226209e+000	 9.150951341119805e+000
 7.354269054959154e-001	 4.405721297882294e+000	 9.137092501598406e+000
 6.913307167858134e-001	 4.412855628386947e+000	 9.123818349694016e+000
 6.473088957992209e-001	 4.419527586972392e+000	 9.109737936403965e+000
 6.033679384448826e-001	 4.425740598943745e+000	 9.091901754356012e+000
 5.595142291933083e-001	 4.431498195041700e+000	 9.070750158422753e+000
 5.157540394362644e-001	 4.436804007790360e+000	 9.047615836663381e+000
 4.720935259706708e-001	 4.441661767834681e+000	 9.023981758092894e+000
 4.285387296057504e-001	 4.446075300271935e+000	 9.001389841305510e+000
 4.029531249892538e-001	 4.180625489432248e+000	 8.966900477051139e+000
 3.620976067863624e-001	 4.184362021505855e+000	 8.975348532110504e+000
 3.213526407327571e-001	 4.187688172694503e+000	 8.979163401902387e+000
 2.807236575465107e-001	 4.190607788155261e+000	 8.981247494470900e+000
 2.402159721721477e-001	 4.193124788175180e+000	 8.984481213079913e+000
 1.998347830423366e-001	 4.195243164716059e+000	 8.991609230601434e+000
 1.595851714486658e-001	 4.196966977977436e+000	 9.005134760055856e+000
 1.194721010194017e-001	 4.198300352981236e+000	 9.027220666336739e+000
 7.950041730204928e-002	 4.199247476181253e+000	 9.059596357488031e+000
 3.967484744844285e-002	 4.199812592100591e+000	 9.103469489657764e+000
 0.000000000000000e+000	 4.200000000000001e+000	 9.159441617432050e+000
 4.055116854507895e-001	 4.207170470515678e+000	 8.961193901518392e+000
 3.643967541624681e-001	 4.210930727788929e+000	 8.964309357189359e+000
 3.233930769768961e-001	 4.214277998454132e+000	 8.963354988174395e+000
 2.825061190946209e-001	 4.217216152083235e+000	 8.960562203345132e+000
 2.417412292075336e-001	 4.219749133855214e+000	 8.958135576260032e+000
 2.011036387558750e-001	 4.221880961078892e+000	 8.958145409722231e+000
 1.605984612950160e-001	 4.223615719734105e+000	 8.962428019878377e+000
 1.202306919698988e-001	 4.224957561034674e+000	 8.972492532462484e+000
 8.000520709494793e-002	 4.225910698016350e+000	 8.989433083229050e+000
 3.992676383716123e-002	 4.226479402152904e+000	 9.013845416458961e+000
 0.000000000000000e+000	 4.226668000003317e+000	 9.045746978912563e+000
 4.080702459124012e-001	 4.233715451599140e+000	 8.956397167688111e+000
 3.666959015387499e-001	 4.237499434072024e+000	 8.954439443151204e+000
 3.254335132213082e-001	 4.240867824213765e+000	 8.949065732637196e+000
 2.842885806430887e-001	 4.243824516011196e+000	 8.941929620192692e+000
 2.432664862433427e-001	 4.246373479535219e+000	 8.934651683626692e+000
 2.023724944698756e-001	 4.248518757441675e+000	 8.928718628560601e+000
 1.616117511418327e-001	 4.250264461490711e+000	 8.925389849555740e+000
 1.209892829208255e-001	 4.251614769088035e+000	 8.925610156819985e+000
 8.050999688819097e-002	 4.252573919851358e+000	 8.929927512756256e+000
 4.017868022608303e-002	 4.253146212205121e+000	 8.938414730771418e+000
 0.000000000000000e+000	 4.253336000006533e+000	 8.950594198394777e+000
 4.106288063740699e-001	 4.260260432682666e+000	 8.952941372215642e+000
 3.689950489151643e-001	 4.264068140355160e+000	 8.946292840919002e+000
 3.274739494659248e-001	 4.267457649973411e+000	 8.936957047455016e+000
 2.860710421918249e-001	 4.270432879939134e+000	 8.926098112619227e+000
 2.447917432794692e-001	 4.272997825215163e+000	 8.914839738670542e+000
 2.036413501842226e-001	 4.275156553804367e+000	 8.904171207717239e+000
 1.626250409889994e-001	 4.276913203247188e+000	 8.894860497941876e+000
 1.217478738720746e-001	 4.278271977141238e+000	 8.887373200342406e+000
 8.101478668169221e-002	 4.279237141686184e+000	 8.881796030994760e+000
 4.043059661515737e-002	 4.279813022257143e+000	 8.877763848531124e+000
 0.000000000000000e+000	 4.280004000009551e+000	 8.874389202548676e+000
 4.131873668357766e-001	 4.286805413766293e+000	 8.951251038466742e+000
 3.712941962916668e-001	 4.290636846638357e+000	 8.940409672940003e+000
 3.295143857106780e-001	 4.294047475733071e+000	 8.927668858002987e+000
 2.878535037407400e-001	 4.297041243867040e+000	 8.913786774768257e+000
 2.463170003158075e-001	 4.299622170895022e+000	 8.899472632425384e+000
 2.049102058988005e-001	 4.301794350166915e+000	 8.885299841584530e+000
 1.636383308363993e-001	 4.303561945003477e+000	 8.871625978498429e+000
 1.225064648235386e-001	 4.304929185194208e+000	 8.858518165266627e+000
 8.151957647536566e-002	 4.305900363520745e+000	 8.845682610249492e+000
 4.068251300433339e-002	 4.306479832308872e+000	 8.832397174388087e+000
 0.000000000000000e+000	 4.306672000012267e+000	 8.817445951774449e+000
 4.157459272975020e-001	 4.313350394850049e+000	 8.951745195665787e+000
 3.735933436682135e-001	 4.317205552921639e+000	 8.937317440957417e+000
 3.315548219554992e-001	 4.320637301492754e+000	 8.921821134143274e+000
 2.896359652897446e-001	 4.323649607794899e+000	 8.905687174353256e+000
 2.478422573522515e-001	 4.326246516574762e+000	 8.889287895925428e+000
 2.061790616134940e-001	 4.328432146529279e+000	 8.872857743360118e+000
 1.646516206839160e-001	 4.330210686759509e+000	 8.856420391516444e+000
 1.232650557751100e-001	 4.331586393246865e+000	 8.839720876783900e+000
 8.202436626912517e-002	 4.332563585354943e+000	 8.822161431136392e+000
 4.093442939356026e-002	 4.333146642360212e+000	 8.802739839458754e+000
 0.000000000000000e+000	 4.333340000014584e+000	 8.779989270070164e+000
 4.183044877592277e-001	 4.339895375933969e+000	 8.954838404818936e+000
 3.758924910447601e-001	 4.343774259205020e+000	 8.937532274335418e+000
 3.335952582003206e-001	 4.347227127252465e+000	 8.920015355928051e+000
 2.914184268387489e-001	 4.350257971722702e+000	 8.902465028150735e+000
 2.493675143886955e-001	 4.352870862254359e+000	 8.884989575375844e+000
 2.074479173281874e-001	 4.355069942891405e+000	 8.867556707309603e+000
 1.656649105314326e-001	 4.356859428515224e+000	 8.849928158458564e+000
 1.240236467266813e-001	 4.358243601299131e+000	 8.831598872081012e+000
 8.252915606288463e-002	 4.359226807188695e+000	 8.811739406627243e+000
 4.118634578278713e-002	 4.359813452411068e+000	 8.789140338426096e+000
 0.000000000000000e+000	 4.360008000016401e+000	 8.762157571046458e+000
 4.208630482209342e-001	 4.366440357018083e+000	 8.960941733679011e+000
 3.781916384212626e-001	 4.370342965488527e+000	 8.941560121465431e+000
 3.356356944450737e-001	 4.373816953012210e+000	 8.922835916520683e+000
 2.932008883876640e-001	 4.376866335650436e+000	 8.904761808998408e+000
 2.508927714250336e-001	 4.379495207933778e+000	 8.887250033327698e+000
 2.087167730427654e-001	 4.381707739253252e+000	 8.870069091798198e+000
 1.666782003788324e-001	 4.383508170270559e+000	 8.852786172161931e+000
 1.247822376781452e-001	 4.384900809350929e+000	 8.834713700712509e+000
 8.303394585655800e-002	 4.385890029021907e+000	 8.814858613331786e+000
 4.143826217196314e-002	 4.386480262461337e+000	 8.791873070270919e+000
 0.000000000000000e+000	 4.386676000017618e+000	 8.764005484507253e+000
 4.234216086826029e-001	 4.392985338102428e+000	 8.970463682906493e+000
 3.804907857976769e-001	 4.396911671772176e+000	 8.949897886663692e+000
 3.376761306896904e-001	 4.400406778771993e+000	 8.930851464989416e+000
 2.949833499364001e-001	 4.403474699578090e+000	 8.913196287195735e+000
 2.524180284611601e-001	 4.406119553612994e+000	 8.896711678985483e+000
 2.099856287571123e-001	 4.408345535614769e+000	 8.881029726443872e+000
 1.676914902259990e-001	 4.410156912025449e+000	 8.865585866460334e+000
 1.255408286293942e-001	 4.411558017402181e+000	 8.849573140055083e+000
 8.353873565005922e-002	 4.412553250854495e+000	 8.831898633939979e+000
 4.169017856103743e-002	 4.413147072510928e+000	 8.811140786710071e+000
 0.000000000000000e+000	 4.413344000018133e+000	 8.785506387802611e+000
 4.259801691442147e-001	 4.419530319187034e+000	 8.983811065479404e+000
 3.827899331739587e-001	 4.423480378055990e+000	 8.963034514850047e+000
 3.397165669341023e-001	 4.426996604531820e+000	 8.944616191502712e+000
 2.967658114848678e-001	 4.430083063505653e+000	 8.928366009064915e+000
 2.539432854969691e-001	 4.432743899291976e+000	 8.913988630627983e+000
 2.112544844711126e-001	 4.434983331975912e+000	 8.901037746581464e+000
 1.687047800728156e-001	 4.436805653779828e+000	 8.888875208613976e+000
 1.262994195803208e-001	 4.438215225452806e+000	 8.876633329413831e+000
 8.404352544330211e-002	 4.439216472686363e+000	 8.863178814560664e+000
 4.194209494995915e-002	 4.439813882559738e+000	 8.847076952222476e+000
 0.000000000000000e+000	 4.440012000017850e+000	 8.826554845957480e+000
 4.285387296057504e-001	 4.446075300271935e+000	 9.001389841305510e+000
 3.850890805500643e-001	 4.450049084339991e+000	 8.981452026191446e+000
 3.417570031782413e-001	 4.453586430291698e+000	 8.964671057333060e+000
 2.985482730329779e-001	 4.456691427433116e+000	 8.950848715298614e+000
 2.554685425323549e-001	 4.459368244970696e+000	 8.939668312979089e+000
 2.125233401846509e-001	 4.461621128336633e+000	 8.930658358076173e+000
 1.697180699191656e-001	 4.463454395533640e+000	 8.923160617772320e+000
 1.270580105308178e-001	 4.464872433502731e+000	 8.916300826180761e+000
 8.454831523620064e-002	 4.465879694517425e+000	 8.908960440512312e+000
 4.219401133867746e-002	 4.466480692607675e+000	 8.899748019357707e+000
 0.000000000000000e+000	 4.466680000016666e+000	 8.886968964388830e+000
 4.466680000016666e+000	 0.000000000000000e+000	 1.043137441475612e+001
 4.466480692607678e+000	 4.219401133867761e-002	 1.043835359398522e+001
 4.465879694517425e+000	 8.454831523620093e-002	 1.044407964314516e+001
 4.464872433502731e+000	 1.270580105308174e-001	 1.044860941668030e+001
 4.463454395533637e+000	 1.697180699191653e-001	 1.045203056411744e+001
 4.461621128336632e+000	 2.125233401846509e-001	 1.045445863056137e+001
 4.459368244970698e+000	 2.554685425323549e-001	 1.045603391639764e+001
 4.456691427433116e+000	 2.985482730329781e-001	 1.045691777195894e+001
 4.453586430291698e+000	 3.417570031782408e-001	 1.045728794229375e+001
 4.450049084339993e+000	 3.850890805500641e-001	 1.045733251407206e+001
 4.446075300271936e+000	 4.285387296057503e-001	 1.045724195144753e+001
 4.493344001125478e+000	 0.000000000000000e+000	 1.041204889166856e+001
 4.493143503944068e+000	 4.244588995207979e-002	 1.042034581133634e+001
 4.492538918175068e+000	 8.505302933503604e-002	 1.042774326193486e+001
 4.491525644281115e+000	 1.278164877294522e-001	 1.043414508022586e+001
 4.490099141285576e+000	 1.707312078212957e-001	 1.043949352818739e+001
 4.488254930336908e+000	 2.137920056316579e-001	 1.044376800991579e+001
 4.485988598306077e+000	 2.569935708536612e-001	 1.044698382109971e+001
 4.483295801413886e+000	 3.003304672990532e-001	 1.044919060651706e+001
 4.480172268884857e+000	 3.437971334569228e-001	 1.045047013750413e+001
 4.476613806624296e+000	 3.873878831668750e-001	 1.045093295514266e+001
 4.472616300914868e+000	 4.310969064089002e-001	 1.045071335641746e+001
 4.520008008899155e+000	 0.000000000000000e+000	 1.039496675898327e+001
 4.519806321945047e+000	 4.269776862821971e-002	 1.040387153675541e+001
 4.519198148496463e+000	 8.555774355965612e-002	 1.041224866320077e+001
 4.518178861721835e+000	 1.285749651172135e-001	 1.041987927528016e+001
 4.516743893697841e+000	 1.717443459761730e-001	 1.042658722253150e+001
 4.514888738994899e+000	 2.150606713952958e-001	 1.043223934410256e+001
 4.512608958295947e+000	 2.585185995557294e-001	 1.043674606866367e+001
 4.509900182045277e+000	 3.021126620102522e-001	 1.044006201297448e+001
 4.506758114124131e+000	 3.458372642453049e-001	 1.044218618839156e+001
 4.503178535549549e+000	 3.896866863581595e-001	 1.044316135519981e+001
 4.499157308192905e+000	 4.336550838514770e-001	 1.044307199277251e+001
 4.546672030003566e+000	 0.000000000000000e+000	 1.038034455575422e+001
 4.546469153276179e+000	 4.294964743008928e-002	 1.038920561682145e+001
 4.545857392146254e+000	 8.606245803627632e-002	 1.039791903156261e+001
 4.544832092488003e+000	 1.293334428837648e-001	 1.040617313830402e+001
 4.543388659431392e+000	 1.727574846371274e-001	 1.041369983606090e+001
 4.541522560968784e+000	 2.163293377927727e-001	 1.042027636552488e+001
 4.539229331595075e+000	 2.600436290198506e-001	 1.042572772074122e+001
 4.536504575978026e+000	 3.038948576121461e-001	 1.042992936821726e+001
 4.533343972655578e+000	 3.478773960534280e-001	 1.043280988063271e+001
 4.529743277756488e+000	 3.919854906986114e-001	 1.043435301961396e+001
 4.525698328740825e+000	 4.362132625730023e-001	 1.043459872665888e+001
 4.573336071104578e+000	 0.000000000000000e+000	 1.036850298885296e+001
 4.573132004603027e+000	 4.320152642068042e-002	 1.037670594786087e+001
 4.572516655789086e+000	 8.656717289111188e-002	 1.038514115428221e+001
 4.571485343242733e+000	 1.300919212187695e-001	 1.039343363992297e+001
 4.570033445147191e+000	 1.737706240574890e-001	 1.040124930627414e+001
 4.568156402916756e+000	 2.175980051412970e-001	 1.040829815333187e+001
 4.565849724858240e+000	 2.615686596273152e-001	 1.041433846498476e+001
 4.563108989862871e+000	 3.056770545503059e-001	 1.041918162934393e+001
 4.559929851125256e+000	 3.499175293913336e-001	 1.042269719963256e+001
 4.556308039885856e+000	 3.942842967629248e-001	 1.042481772513450e+001
 4.552239369193409e+000	 4.387714432129977e-001	 1.042554280271173e+001
 4.600000138868055e+000	 0.000000000000000e+000	 1.035986392506990e+001
 4.599794882591152e+000	 4.345340566298505e-002	 1.036681079418050e+001
 4.599175946089608e+000	 8.707188825037808e-002	 1.037436305821748e+001
 4.598138620649134e+000	 1.308504003118912e-001	 1.038211153279279e+001
 4.596678257506200e+000	 1.747837644905879e-001	 1.038968156980651e+001
 4.594790271496990e+000	 2.188666737580766e-001	 1.039673767798271e+001
 4.592470144740218e+000	 2.630936917594146e-001	 1.040298944449716e+001
 4.589713430350549e+000	 3.074592532703026e-001	 1.040819843839080e+001
 4.586515756179225e+000	 3.519576647690627e-001	 1.041218570041393e+001
 4.582872828578392e+000	 3.965831051257931e-001	 1.041483934431149e+001
 4.578780436185433e+000	 4.413296264109848e-001	 1.041612171183843e+001
 4.626664239959867e+000	 0.000000000000000e+000	 1.035494748774740e+001
 4.626457793906115e+000	 4.370528521999508e-002	 1.036003619968956e+001
 4.625835269712468e+000	 8.757660424029021e-002	 1.036609172975630e+001
 4.624791931370330e+000	 1.316088803527934e-001	 1.037269937278134e+001
 4.623323103169381e+000	 1.757969061897542e-001	 1.037946887738630e+001
 4.621424173367672e+000	 2.201353439603201e-001	 1.038604040207431e+001
 4.619090597895790e+000	 2.646187257974394e-001	 1.039209213617622e+001
 4.616317904091795e+000	 3.092414542177068e-001	 1.039734926936626e+001
 4.613101694463548e+000	 3.539978026966565e-001	 1.040159391402207e+001
 4.609437650474842e+000	 3.988819163619110e-001	 1.040467550143921e+001
 4.605321536351673e+000	 4.438878128064857e-001	 1.040652108633775e+001
 4.653328381045878e+000	 0.000000000000000e+000	 1.035436925374758e+001
 4.653120745213482e+000	 4.395716515470247e-002	 1.035697348915858e+001
 4.652494633322307e+000	 8.808132098706338e-002	 1.036089091439476e+001
 4.651445282069430e+000	 1.323673615311397e-001	 1.036572961051722e+001
 4.649967988797696e+000	 1.768100494083182e-001	 1.037110817060617e+001
 4.648058115186988e+000	 2.214040160652356e-001	 1.037666293516670e+001
 4.645711090979728e+000	 2.661437621226807e-001	 1.038205727598298e+001
 4.642922417737346e+000	 3.110236578380899e-001	 1.038699261588770e+001
 4.639687672624278e+000	 3.560379436841560e-001	 1.039122078897154e+001
 4.636002512215940e+000	 4.011807310459719e-001	 1.039455725874932e+001
 4.631862676326912e+000	 4.464460030390216e-001	 1.039689462125158e+001
 4.679992568791956e+000	 0.000000000000000e+000	 1.035889944953538e+001
 4.679783743178811e+000	 4.420904553009910e-002	 1.035851022730406e+001
 4.679154043583775e+000	 8.858603861691294e-002	 1.035970440618521e+001
 4.678098679409549e+000	 1.331258440365935e-001	 1.036212844801962e+001
 4.676612921052107e+000	 1.778231943996098e-001	 1.036543711957684e+001
 4.674692103613120e+000	 2.226726903900312e-001	 1.036930109017612e+001
 4.672331630646809e+000	 2.676688011164292e-001	 1.037341509379379e+001
 4.669526977937935e+000	 3.128058645770228e-001	 1.037750671778035e+001
 4.666273697307479e+000	 3.580780882416026e-001	 1.038134516632904e+001
 4.662567420442431e+000	 4.034795497526699e-001	 1.038468883163944e+001
 4.658403862745927e+000	 4.490041977481146e-001	 1.038736402089622e+001
 4.706656809863968e+000	 0.000000000000000e+000	 1.036795339646393e+001
 4.706446794467666e+000	 4.446092640917691e-002	 1.036521432776474e+001
 4.705813507161521e+000	 8.909075725605414e-002	 1.036409200206887e+001
 4.704752130053802e+000	 1.338843280588184e-001	 1.036427270353960e+001
 4.703257906593572e+000	 1.788363414169591e-001	 1.036545002627960e+001
 4.701326145304251e+000	 2.239413672519153e-001	 1.036733221180205e+001
 4.698952223551813e+000	 2.691938431599761e-001	 1.036965003562878e+001
 4.696131591344302e+000	 3.145880748800765e-001	 1.037216530713404e+001
 4.692859775159207e+000	 3.601182368790375e-001	 1.037468005207766e+001
 4.689132381795057e+000	 4.057783730566991e-001	 1.037704645247411e+001
 4.684945102243493e+000	 4.515623975732859e-001	 1.037917762346318e+001
 4.733321110927780e+000	 0.000000000000000e+000	 1.037798253547934e+001
 4.733109905745614e+000	 4.471280785492782e-002	 1.037410958844613e+001
 4.732473030720188e+000	 8.959547703070217e-002	 1.037163775087739e+001
 4.731405640665302e+000	 1.346428137874779e-001	 1.037031829349145e+001
 4.729902952083056e+000	 1.798494907136964e-001	 1.036990762189101e+001
 4.727960246918567e+000	 2.252100469680961e-001	 1.037017427367022e+001
 4.725572876349514e+000	 2.707188886346120e-001	 1.037090644816732e+001
 4.722736264607185e+000	 3.163702891928218e-001	 1.037192013514097e+001
 4.719445912825525e+000	 3.621583901065016e-001	 1.037306791429179e+001
 4.715697402914556e+000	 4.080772015327532e-001	 1.037424850307560e+001
 4.711486401454396e+000	 4.541206031540578e-001	 1.037541713559955e+001
 4.446075300271936e+000	 4.285387296057503e-001	 1.045724195144753e+001
 4.441661767834682e+000	 4.720935259706711e-001	 1.045741870622423e+001
 4.436804007790361e+000	 5.157540394362641e-001	 1.045861065958560e+001
 4.431498195041699e+000	 5.595142291933083e-001	 1.046153557855433e+001
 4.425740598943744e+000	 6.033679384448822e-001	 1.046691121722652e+001
 4.419527586972393e+000	 6.473088957992210e-001	 1.047542836965337e+001
 4.412855628386947e+000	 6.913307167858135e-001	 1.048692266220090e+001
 4.405721297882294e+000	 7.354269054959151e-001	 1.049796660712775e+001
 4.398121279226208e+000	 7.795908563484759e-001	 1.050815263561635e+001
 4.390052368877188e+000	 8.238158559823358e-001	 1.051755822111995e+001
 4.381511479578153e+000	 8.680950852753392e-001	 1.052626108769762e+001
 4.472616300914868e+000	 4.310969064089002e-001	 1.045071335641746e+001
 4.468176421743035e+000	 4.749117046406274e-001	 1.045053237920009e+001
 4.463289663131958e+000	 5.188328510548873e-001	 1.045146032247690e+001
 4.457952177150323e+000	 5.628542687816454e-001	 1.045419568167694e+001
 4.452160210882960e+000	 6.069697642707739e-001	 1.045945712676128e+001
 4.445910110121298e+000	 6.511730286932238e-001	 1.046796020049878e+001
 4.439198323047760e+000	 6.954576394661729e-001	 1.047929985627559e+001
 4.432021403909766e+000	 7.398170619033307e-001	 1.049006828916571e+001
 4.424376016678721e+000	 7.842446509914089e-001	 1.049996164068188e+001
 4.416258938689485e+000	 8.287336532936123e-001	 1.050899489221958e+001
 4.407667064255488e+000	 8.732772089808063e-001	 1.051719112663437e+001
 4.499157308192905e+000	 4.336550838514770e-001	 1.044307199277251e+001
 4.494691082279964e+000	 4.777298840151175e-001	 1.044285696822295e+001
 4.489775325094918e+000	 5.219116634433038e-001	 1.044380517866715e+001
 4.484406165872398e+000	 5.661943092051770e-001	 1.044659380309384e+001
 4.478579829427026e+000	 6.105715909973927e-001	 1.045193902021084e+001
 4.472292639865749e+000	 6.550371625536072e-001	 1.046057652006922e+001
 4.465541024294119e+000	 6.995845631786763e-001	 1.047182734466979e+001
 4.458321516512072e+000	 7.442072194087523e-001	 1.048242332422701e+001
 4.450630760694662e+000	 7.888984467982982e-001	 1.049213747361946e+001
 4.442465515053096e+000	 8.336514518348713e-001	 1.050093177297613e+001
 4.433822655471317e+000	 8.784593339823469e-001	 1.050878304875678e+001
 4.525698328740825e+000	 4.362132625730023e-001	 1.043459872665888e+001
 4.521205756073643e+000	 4.805480647986484e-001	 1.043461510083674e+001
 4.516261000300145e+000	 5.249904773711638e-001	 1.043581793536441e+001
 4.510860167820908e+000	 5.695343512988462e-001	 1.043885981070309e+001
 4.504999461180328e+000	 6.141734195251155e-001	 1.044444968131939e+001
 4.498675182800866e+000	 6.589012983463134e-001	 1.045333737436902e+001
 4.491883738711193e+000	 7.037114889549527e-001	 1.046454738218374e+001
 4.484621642263761e+000	 7.485973791096093e-001	 1.047505844108497e+001
 4.476885517837253e+000	 7.935522449324756e-001	 1.048469020300178e+001
 4.468672104519222e+000	 8.385692528354408e-001	 1.049336076464641e+001
 4.459978259764122e+000	 8.836414615753685e-001	 1.050100866480180e+001
 4.552239369193409e+000	 4.387714432129977e-001	 1.042554280271173e+001
 4.547720449752237e+000	 4.833662476957265e-001	 1.042599299584484e+001
 4.542746695368543e+000	 5.280692936081171e-001	 1.042763107333987e+001
 4.537314189608826e+000	 5.728743958975963e-001	 1.043108046920504e+001
 4.531419112747249e+000	 6.177752507543191e-001	 1.043703682335054e+001
 4.525057745521771e+000	 6.627654370372837e-001	 1.044625664688547e+001
 4.518226472884162e+000	 7.078384178266318e-001	 1.045745657506960e+001
 4.510921787739378e+000	 7.529875421033310e-001	 1.046795253251576e+001
 4.503140294669723e+000	 7.982060465572731e-001	 1.047758049061587e+001
 4.494878713639076e+000	 8.434870575246495e-001	 1.048622339943413e+001
 4.486133883672388e+000	 8.888235930552790e-001	 1.049378905297842e+001
 4.578780436185433e+000	 4.413296264109848e-001	 1.041612171183843e+001
 4.574235169943915e+000	 4.861844334108586e-001	 1.041714057168419e+001
 4.569232416921015e+000	 5.311481129238141e-001	 1.041933720161473e+001
 4.563768237849136e+000	 5.762144438363704e-001	 1.042330004628080e+001
 4.557838790732178e+000	 6.213770855853804e-001	 1.042970395136493e+001
 4.551440334623584e+000	 6.666295795924608e-001	 1.043930318097419e+001
 4.544569233398201e+000	 7.119653508253427e-001	 1.045050648616623e+001
 4.537221959513468e+000	 7.573777094873466e-001	 1.046103743905642e+001
 4.529395097755288e+000	 8.028598528360238e-001	 1.047072055336068e+001
 4.521085348963855e+000	 8.484048671318256e-001	 1.047941197974462e+001
 4.512289533734597e+000	 8.940057297174857e-001	 1.048699587448566e+001
 4.605321536351673e+000	 4.438878128064857e-001	 1.040652108633775e+001
 4.600749923276847e+000	 4.890026226485517e-001	 1.040817157845328e+001
 4.595718171578466e+000	 5.342269360879051e-001	 1.041098943231555e+001
 4.590222319154813e+000	 5.795544959501117e-001	 1.041552093565527e+001
 4.584258501739503e+000	 6.249789249186765e-001	 1.042241123830375e+001
 4.577822956701428e+000	 6.704937269777870e-001	 1.043238712747927e+001
 4.570912026838485e+000	 7.160922889827146e-001	 1.044360424831085e+001
 4.563522164160577e+000	 7.617678823590853e-001	 1.045419873858429e+001
 4.555649933657178e+000	 8.075136649320591e-001	 1.046397512872908e+001
 4.547292017044766e+000	 8.533226828862969e-001	 1.047277071900979e+001
 4.538445216489230e+000	 8.991878728573967e-001	 1.048045268881268e+001
 4.631862676326912e+000	 4.464460030390216e-001	 1.039689462125158e+001
 4.627264716379196e+000	 4.918208161133120e-001	 1.039916375263914e+001
 4.622203965961801e+000	 5.373057638700399e-001	 1.040260177488479e+001
 4.616676440138840e+000	 5.828945530737638e-001	 1.040770429636478e+001
 4.610678252373610e+000	 6.285807696545841e-001	 1.041507641432381e+001
 4.604205618350422e+000	 6.743578801592035e-001	 1.042537894122386e+001
 4.597254859790193e+000	 7.202192333303771e-001	 1.043661318569294e+001
 4.589822408255249e+000	 7.661580618159762e-001	 1.044727654148214e+001
 4.581904808938610e+000	 8.121674840087109e-001	 1.045716244372996e+001
 4.573498724433014e+000	 8.582405060173919e-001	 1.046609688402117e+001
 4.564600938474771e+000	 9.043700237704185e-001	 1.047393626883214e+001
 4.658403862745927e+000	 4.490041977481146e-001	 1.038736402089622e+001
 4.653779555879138e+000	 4.946390145096463e-001	 1.039015899363303e+001
 4.648689806691922e+000	 5.403845970398687e-001	 1.039414954887104e+001
 4.643130607414196e+000	 5.862346160422692e-001	 1.039977070758122e+001
 4.637098049238887e+000	 6.321826206934798e-001	 1.040757566885555e+001
 4.630588326165689e+000	 6.782220401026525e-001	 1.041812577331552e+001
 4.623597738838499e+000	 7.243461848999591e-001	 1.042935344283029e+001
 4.616122698372031e+000	 7.705482489554486e-001	 1.044006629116461e+001
 4.608159730162813e+000	 8.168213112293123e-001	 1.045005518711281e+001
 4.599705477679802e+000	 8.631583377544388e-001	 1.045914193871204e+001
 4.590756706229706e+000	 9.095521837519599e-001	 1.046717791569769e+001
 4.684945102243493e+000	 4.515623975732859e-001	 1.037917762346318e+001
 4.680294448404837e+000	 4.974572185420616e-001	 1.038177668671606e+001
 4.675175700389737e+000	 5.434634363670420e-001	 1.038579260621210e+001
 4.669584827593855e+000	 5.895746856905717e-001	 1.039162453834674e+001
 4.663517898939720e+000	 6.357844789357413e-001	 1.039974456488012e+001
 4.656971086742348e+000	 6.820862077740765e-001	 1.041043417866834e+001
 4.649940670568578e+000	 7.284731447230901e-001	 1.042160262086290e+001
 4.642423041085466e+000	 7.749384448749320e-001	 1.043231956975245e+001
 4.634414703893005e+000	 8.214751477571947e-001	 1.044238148476415e+001
 4.625912283336335e+000	 8.680761793267663e-001	 1.045161268933286e+001
 4.616912526292515e+000	 9.147343540974277e-001	 1.045986477355673e+001
 4.711486401454396e+000	 4.541206031540578e-001	 1.037541713559955e+001
 4.706809400584461e+000	 5.002754289150643e-001	 1.037718521473698e+001
 4.701661653676148e+000	 5.465422826212096e-001	 1.038038350286529e+001
 4.696039107290806e+000	 5.929147628536142e-001	 1.038540583036838e+001
 4.689937808080498e+000	 6.393863452817449e-001	 1.039273867840891e+001
 4.683353906675524e+000	 6.859503841394172e-001	 1.040270184365838e+001
 4.676283661565610e+000	 7.326001138313998e-001	 1.041328365648576e+001
 4.668723442970103e+000	 7.793286506718558e-001	 1.042375230243543e+001
 4.660669736692414e+000	 8.261289947556906e-001	 1.043382587815117e+001
 4.652119147953820e+000	 8.729940319637025e-001	 1.044317243096731e+001
 4.643068405201682e+000	 9.199165361022299e-001	 1.045164114408937e+001
 4.381511479578153e+000	 8.680950852753392e-001	 1.052626108769762e+001
 4.372494256268734e+000	 9.124282726195251e-001	 1.053365810025190e+001
 4.362999102610631e+000	 9.568017434643775e-001	 1.053948437800329e+001
 4.353023304130100e+000	 1.001208360994867e+000	 1.054431020922973e+001
 4.342564276822998e+000	 1.045640891710206e+000	 1.054867418327880e+001
 4.331619570558887e+000	 1.090092008085801e+000	 1.055306533592996e+001
 4.320186872431323e+000	 1.134554291362543e+000	 1.055789906913000e+001
 4.308264010049258e+000	 1.179020234462681e+000	 1.056349292182502e+001
 4.295848954764352e+000	 1.223482245031362e+000	 1.057003671382409e+001
 4.282939824829096e+000	 1.267932648602656e+000	 1.057755890684887e+001
 4.269534888480566e+000	 1.312363691888676e+000	 1.058588842465176e+001
 4.407667064255488e+000	 8.732772089808063e-001	 1.051719112663437e+001
 4.398596012318690e+000	 9.178750448236624e-001	 1.052398764350569e+001
 4.389044177011387e+000	 9.625134046409613e-001	 1.052918725109221e+001
 4.379008827655715e+000	 1.007185109014209e+000	 1.053336092893833e+001
 4.368487364822227e+000	 1.051882881261982e+000	 1.053705992077344e+001
 4.357477323754350e+000	 1.096599350117776e+000	 1.054079860645989e+001
 4.345976377738679e+000	 1.141327052535939e+000	 1.054503179454541e+001
 4.333982341416010e+000	 1.186058436624959e+000	 1.055013121551098e+001
 4.321493174027922e+000	 1.230785864707158e+000	 1.055635675208074e+001
 4.308506982593759e+000	 1.275501616503612e+000	 1.056382379308572e+001
 4.295022025012785e+000	 1.320197892442914e+000	 1.057246601401459e+001
 4.433822655471317e+000	 8.784593339823469e-001	 1.050878304875678e+001
 4.424697774893605e+000	 9.233218183900277e-001	 1.051517635190210e+001
 4.415089257922868e+000	 9.682250672459721e-001	 1.051998190393531e+001
 4.404994357677095e+000	 1.013161858528212e+000	 1.052376634787425e+001
 4.394410459301542e+000	 1.058124872374679e+000	 1.052708819679993e+001
 4.383335083413516e+000	 1.103106693776948e+000	 1.053047904665841e+001
 4.371765889492628e+000	 1.148099815402816e+000	 1.053442471733136e+001
 4.359700679211524e+000	 1.193096640547001e+000	 1.053934134922528e+001
 4.347137399701697e+000	 1.238089486208987e+000	 1.054554803162490e+001
 4.334074146749346e+000	 1.283070586296851e+000	 1.055323523397157e+001
 4.320509167915921e+000	 1.328032094955653e+000	 1.056242863771838e+001
 4.459978259764122e+000	 8.836414615753685e-001	 1.050100866480180e+001
 4.450799550518535e+000	 9.287685946801909e-001	 1.050717184505152e+001
 4.441134351855977e+000	 9.739367327072045e-001	 1.051178555943874e+001
 4.430979900690285e+000	 1.019138611030946e+000	 1.051540726246641e+001
 4.420333566741421e+000	 1.064366866608685e+000	 1.051859530265951e+001
 4.409192856000539e+000	 1.109614040690050e+000	 1.052189157467540e+001
 4.397555414140287e+000	 1.154872581656271e+000	 1.052580351040293e+001
 4.385419029865138e+000	 1.200134847988272e+000	 1.053078139895233e+001
 4.372781638196507e+000	 1.245393111362680e+000	 1.053719218154412e+001
 4.359641323687431e+000	 1.290639559874549e+000	 1.054528904850567e+001
 4.345996323561553e+000	 1.335866301385387e+000	 1.055517436155448e+001
 4.486133883672388e+000	 8.888235930552790e-001	 1.049378905297842e+001
 4.476901345718530e+000	 9.342153750557224e-001	 1.049987127415824e+001
 4.467179465321620e+000	 9.796484024524531e-001	 1.050446588863758e+001
 4.456965463191335e+000	 1.025115368016482e+000	 1.050811560848821e+001
 4.446256693622319e+000	 1.070608865524384e+000	 1.051137169381032e+001
 4.435050647979574e+000	 1.116121392483815e+000	 1.051477803168668e+001
 4.423344958128768e+000	 1.161645352989399e+000	 1.051885409927339e+001
 4.411137399806195e+000	 1.207173060708235e+000	 1.052407356947382e+001
 4.398425895923182e+000	 1.252696741994063e+000	 1.053083935714052e+001
 4.385208519799599e+000	 1.298208539128881e+000	 1.053945447387086e+001
 4.371483498321260e+000	 1.343700513690607e+000	 1.055005085322014e+001
 4.512289533734597e+000	 8.940057297174857e-001	 1.048699587448566e+001
 4.503003167018644e+000	 9.396621608781911e-001	 1.049312281125022e+001
 4.493224604830710e+000	 9.853600779095113e-001	 1.049784266963550e+001
 4.482951051676290e+000	 1.031092130978891e+000	 1.050167745757681e+001
 4.472179846424698e+000	 1.076850870682165e+000	 1.050516397528408e+001
 4.460908465814776e+000	 1.122628750784973e+000	 1.050883932355251e+001
 4.449134527905187e+000	 1.168418131095294e+000	 1.051322495495623e+001
 4.436855795464037e+000	 1.214211280466358e+000	 1.051880663325104e+001
 4.424070179292549e+000	 1.260000379928967e+000	 1.052601081925959e+001
 4.410775741477422e+000	 1.305777525952022e+000	 1.053517687940096e+001
 4.396970698566631e+000	 1.351534733829807e+000	 1.054640393793670e+001
 4.538445216489230e+000	 8.991878728573967e-001	 1.048045268881268e+001
 4.529105020943929e+000	 9.451089535091676e-001	 1.048672713667235e+001
 4.519269776894151e+000	 9.910717605061750e-001	 1.049168944359903e+001
 4.508936672641196e+000	 1.037068901412242e+000	 1.049583452506108e+001
 4.498103031629028e+000	 1.083092883642414e+000	 1.049967688266524e+001
 4.486766315970298e+000	 1.129136117220259e+000	 1.050373755775419e+001
 4.474924129916655e+000	 1.175190917667052e+000	 1.050852938216637e+001
 4.462574223268007e+000	 1.221249509022102e+000	 1.051453836493036e+001
 4.449714494715444e+000	 1.267304026993219e+000	 1.052220150986735e+001
 4.436342995112481e+000	 1.313346522236146e+000	 1.053188047771972e+001
 4.422457930669241e+000	 1.359368963761479e+000	 1.054358186007238e+001
 4.564600938474771e+000	 9.043700237704185e-001	 1.047393626883214e+001
 4.555206914019435e+000	 9.505557543102214e-001	 1.048043892491634e+001
 4.545314988022852e+000	 9.967834516702375e-001	 1.048573516792997e+001
 4.534922332582100e+000	 1.043045680810607e+000	 1.049028598686680e+001
 4.524026255715766e+000	 1.089334905965518e+000	 1.049457525881988e+001
 4.512624204910296e+000	 1.135643493416402e+000	 1.049909817580962e+001
 4.500713770610291e+000	 1.181963714397768e+000	 1.050434780302228e+001
 4.488292689647441e+000	 1.228287748134932e+000	 1.051079797166306e+001
 4.475358848602695e+000	 1.274607685012647e+000	 1.051888262404404e+001
 4.461910287096350e+000	 1.320915529873429e+000	 1.052897103318491e+001
 4.447945201000673e+000	 1.367203205444115e+000	 1.054092855071521e+001
 4.590756706229706e+000	 9.095521837519599e-001	 1.046717791569769e+001
 4.581308852770215e+000	 9.560025646429226e-001	 1.047396832885819e+001
 4.571360244727722e+000	 1.002495152829494e+000	 1.047966586673500e+001
 4.560908037995049e+000	 1.049022470668055e+000	 1.048469029289201e+001
 4.549949525165379e+000	 1.095576939211864e+000	 1.048948602655408e+001
 4.538482139098918e+000	 1.142150881000136e+000	 1.049451208136027e+001
 4.526503456433209e+000	 1.188736522980538e+000	 1.050023003644309e+001
 4.514011201031685e+000	 1.235325999564314e+000	 1.050708851942283e+001
 4.501003247365126e+000	 1.281911355813081e+000	 1.051550417855562e+001
 4.487477623820609e+000	 1.328484550756046e+000	 1.052583856776593e+001
 4.473432515932508e+000	 1.375037460836209e+000	 1.053778411906608e+001
 4.616912526292515e+000	 9.147343540974277e-001	 1.045986477355673e+001
 4.607410843721322e+000	 9.614493858688408e-001	 1.046698246247139e+001
 4.597405553519670e+000	 1.008206865411738e+000	 1.047312627870625e+001
 4.586893795376091e+000	 1.054999272478657e+000	 1.047866697700145e+001
 4.575872846458330e+000	 1.101818984941837e+000	 1.048400015737374e+001
 4.564340125000325e+000	 1.148658281598193e+000	 1.048953776411395e+001
 4.552293193832522e+000	 1.195509345108456e+000	 1.049569757342590e+001
 4.539729763850074e+000	 1.242364265069712e+000	 1.050288935549681e+001
 4.526647697413574e+000	 1.289215041220347e+000	 1.051149757715868e+001
 4.513045011676836e+000	 1.336053586776172e+000	 1.052185766005162e+001
 4.498919881836328e+000	 1.382871731896253e+000	 1.053348534245168e+001
 4.643068405201682e+000	 9.199165361022299e-001	 1.045164114408937e+001
 4.633512893397807e+000	 9.668962193495462e-001	 1.045910688208152e+001
 4.623450920909602e+000	 1.013918590844765e+000	 1.046572145334328e+001
 4.612879611221273e+000	 1.060976087736484e+000	 1.047179846378260e+001
 4.601796226075082e+000	 1.108061044715826e+000	 1.047767463651105e+001
 4.590198169078671e+000	 1.155165696837305e+000	 1.048370341982030e+001
 4.578082989255348e+000	 1.202282182474619e+000	 1.049024584838188e+001
 4.565448384531957e+000	 1.249402546410591e+000	 1.049765852731902e+001
 4.552292205158868e+000	 1.296518743060276e+000	 1.050627817278759e+001
 4.538612457056609e+000	 1.343622639825983e+000	 1.051637261921470e+001
 4.524407305083716e+000	 1.390706020582740e+000	 1.052736615501555e+001
 4.269534888480566e+000	 1.312363691888676e+000	 1.058588842465176e+001
 4.255632565876872e+000	 1.356767545539909e+000	 1.059421684777793e+001
 4.241231428808608e+000	 1.401136305660351e+000	 1.060200168343272e+001
 4.226330206727042e+000	 1.445461999293613e+000	 1.060969015948608e+001
 4.210927790553208e+000	 1.489736588820483e+000	 1.061771849535499e+001
 4.195023235321111e+000	 1.533951975835254e+000	 1.062645764421017e+001
 4.178615762716243e+000	 1.578100005132252e+000	 1.063619939351380e+001
 4.161704763504535e+000	 1.622172468799514e+000	 1.064714130824747e+001
 4.144289799846913e+000	 1.666161110416385e+000	 1.065937048765666e+001
 4.126370607494755e+000	 1.710057629351524e+000	 1.067284611066125e+001
 4.107947097861664e+000	 1.753853685157622e+000	 1.068738075007324e+001
 4.295022025012785e+000	 1.320197892442914e+000	 1.057246601401459e+001
 4.281036712012197e+000	 1.364866816437977e+000	 1.058160819385042e+001
 4.266549606856836e+000	 1.409500437410215e+000	 1.059065691577625e+001
 4.251559431413378e+000	 1.454090734808399e+000	 1.059999694574780e+001
 4.236065069982165e+000	 1.498629623032470e+000	 1.060998568009608e+001
 4.220065571956186e+000	 1.543108955333008e+000	 1.062090791661379e+001
 4.203560154374750e+000	 1.587520527821554e+000	 1.063296185120663e+001
 4.186548204366940e+000	 1.631856083588732e+000	 1.064624390580283e+001
 4.169029281479970e+000	 1.676107316926896e+000	 1.066073235584802e+001
 4.151003119887775e+000	 1.720265877653798e+000	 1.067626972999430e+001
 4.132469630475130e+000	 1.764323375533540e+000	 1.069254395956792e+001
 4.320509167915921e+000	 1.328032094955653e+000	 1.056242863771838e+001
 4.306440864497702e+000	 1.372966089360724e+000	 1.057241674237991e+001
 4.291867791233776e+000	 1.417864571250883e+000	 1.058260450809040e+001
 4.276788662406223e+000	 1.462719472480056e+000	 1.059333892969981e+001
 4.261202355694691e+000	 1.507522659467327e+000	 1.060490902865542e+001
 4.245107914851145e+000	 1.552265937119550e+000	 1.061752568876492e+001
 4.228504552268713e+000	 1.596941052865475e+000	 1.063130757213197e+001
 4.211391651439615e+000	 1.641539700798301e+000	 1.064626585208316e+001
 4.193768769297368e+000	 1.686053525923383e+000	 1.066228772871026e+001
 4.175635638438451e+000	 1.730474128507555e+000	 1.067911869689229e+001
 4.156992169218810e+000	 1.774793068526321e+000	 1.069634354162102e+001
 4.345996323561553e+000	 1.335866301385387e+000	 1.055517436155448e+001
 4.331845029684224e+000	 1.381065366332917e+000	 1.056595567306408e+001
 4.317185988268775e+000	 1.426228709273348e+000	 1.057712842026277e+001
 4.302017906012684e+000	 1.471348214465735e+000	 1.058899241892140e+001
 4.286339653974895e+000	 1.516415700348281e+000	 1.060177856245774e+001
 4.270150270266356e+000	 1.561422923484098e+000	 1.061563584013670e+001
 4.253448962634001e+000	 1.606361582619120e+000	 1.063061719596435e+001
 4.236235110933194e+000	 1.651223322849098e+000	 1.064666418751457e+001
 4.218508269483743e+000	 1.695999739892365e+000	 1.066359040740322e+001
 4.200268169304669e+000	 1.740682384464818e+000	 1.068106363432136e+001
 4.181514720223089e+000	 1.785262766753336e+000	 1.069858668548454e+001
 4.371483498321260e+000	 1.343700513690607e+000	 1.055005085322014e+001
 4.357249213922601e+000	 1.389164649379327e+000	 1.056153397448628e+001
 4.342504204291177e+000	 1.434592853568603e+000	 1.057350953260175e+001
 4.327247168539863e+000	 1.479976962922586e+000	 1.058623125796201e+001
 4.311476971106893e+000	 1.525308747898565e+000	 1.059988196055735e+001
 4.295192644462189e+000	 1.570579916715873e+000	 1.061456053208501e+001
 4.278393391706491e+000	 1.615782119437594e+000	 1.063026777199784e+001
 4.261078589058305e+000	 1.660906952161998e+000	 1.064689099367951e+001
 4.243247788223721e+000	 1.705945961320360e+000	 1.066418737034107e+001
 4.224900718644309e+000	 1.750890648077604e+000	 1.068176598438714e+001
 4.206037289618354e+000	 1.795732472831950e+000	 1.069906854893148e+001
 4.396970698566631e+000	 1.351534733829807e+000	 1.054640393793670e+001
 4.382653423563671e+000	 1.397263940524723e+000	 1.055845693622111e+001
 4.367822445630329e+000	 1.442957006227640e+000	 1.057102614931776e+001
 4.352476456294863e+000	 1.488605720007758e+000	 1.058432735824496e+001
 4.336614313374794e+000	 1.534201804341407e+000	 1.059850513086297e+001
 4.320235043699010e+000	 1.579736919104094e+000	 1.061361983512905e+001
 4.303337845722058e+000	 1.625202665676005e+000	 1.062963345703887e+001
 4.285922092025571e+000	 1.670590591157880e+000	 1.064639417618417e+001
 4.267987331701934e+000	 1.715892192693890e+000	 1.066361965518812e+001
 4.249533292615256e+000	 1.761098921897935e+000	 1.068087900338922e+001
 4.230559883534988e+000	 1.806202189379531e+000	 1.069757338006158e+001
 4.422457930669241e+000	 1.359368963761479e+000	 1.054358186007238e+001
 4.408057664958273e+000	 1.405363241793874e+000	 1.055602664045730e+001
 4.393140718615578e+000	 1.451321169341453e+000	 1.056895450209782e+001
 4.377705775584789e+000	 1.497234487878403e+000	 1.058255122813049e+001
 4.361751687062711e+000	 1.543094871900039e+000	 1.059693278108070e+001
 4.345277474237193e+000	 1.588893932937980e+000	 1.061213235500591e+001
 4.328282330916576e+000	 1.634623223689457e+000	 1.062808621062891e+001
 4.310765626045626e+000	 1.680274242257618e+000	 1.064461824291659e+001
 4.292726906103013e+000	 1.725838436499470e+000	 1.066142323381621e+001
 4.274165897375392e+000	 1.771307208477830e+000	 1.067804874692349e+001
 4.255082508103374e+000	 1.816671919013446e+000	 1.069387562576146e+001
 4.447945201000673e+000	 1.367203205444115e+000	 1.054092855071521e+001
 4.433461944457242e+000	 1.413462555211549e+000	 1.055354245316111e+001
 4.418459029576267e+000	 1.459685345001031e+000	 1.056656925377368e+001
 4.402935132716746e+000	 1.505863268691669e+000	 1.058017250313608e+001
 4.386889098454756e+000	 1.551987952797688e+000	 1.059444898939151e+001
 4.370319942337102e+000	 1.598050960506750e+000	 1.060941585755336e+001
 4.353226853525914e+000	 1.644043795833055e+000	 1.062499648770977e+001
 4.335609197329095e+000	 1.689957907882090e+000	 1.064100507788688e+001
 4.317466517611591e+000	 1.735784695223622e+000	 1.065712988051269e+001
 4.298798539082598e+000	 1.781515510369310e+000	 1.067291504543812e+001
 4.279605169453902e+000	 1.827141664351063e+000	 1.068774102736263e+001
 4.473432515932508e+000	 1.375037460836209e+000	 1.053778411906608e+001
 4.458866268411421e+000	 1.421561882802518e+000	 1.055030151480234e+001
 4.443777384841743e+000	 1.468049535297369e+000	 1.056314400208417e+001
 4.428164533997837e+000	 1.514492064604708e+000	 1.057646047631255e+001
 4.412026553835039e+000	 1.560881049257587e+000	 1.059033777487888e+001
 4.395362454259105e+000	 1.607208004099624e+000	 1.060478789247318e+001
 4.378171419785953e+000	 1.653464384461907e+000	 1.061973392883964e+001
 4.360452812086606e+000	 1.699641590452172e+000	 1.063499471083177e+001
 4.342206172412295e+000	 1.745730971352862e+000	 1.065026803371512e+001
 4.323431223894759e+000	 1.791723830124395e+000	 1.066511247063179e+001
 4.304127873716955e+000	 1.837611428009748e+000	 1.067892770401588e+001
 4.498919881836328e+000	 1.382871731896253e+000	 1.053348534245168e+001
 4.484270643171641e+000	 1.429661226591549e+000	 1.054559923066452e+001
 4.469095790741352e+000	 1.476413742321459e+000	 1.055795178353242e+001
 4.453393985735166e+000	 1.523120877774670e+000	 1.057068462877464e+001
 4.437164059487675e+000	 1.569774163502965e+000	 1.058388366772173e+001
 4.420405016263574e+000	 1.616365066005822e+000	 1.059756641602522e+001
 4.403116035932563e+000	 1.662884991931116e+000	 1.061166804806320e+001
 4.385296476528788e+000	 1.709325292388740e+000	 1.062602608275845e+001
 4.366945876689758e+000	 1.755677267373712e+000	 1.064036365153648e+001
 4.348063957969758e+000	 1.801932170295104e+000	 1.065427129306515e+001
 4.328650627022915e+000	 1.848081212606869e+000	 1.066718722427712e+001
 4.524407305083716e+000	 1.390706020582740e+000	 1.052736615501555e+001
 4.509675075088746e+000	 1.437760588603412e+000	 1.053872976075999e+001
 4.494414253604441e+000	 1.484777968164294e+000	 1.055026557733903e+001
 4.478623494235841e+000	 1.531749710358706e+000	 1.056211516038489e+001
 4.462301621696776e+000	 1.578667297757051e+000	 1.057437227916749e+001
 4.445447634610877e+000	 1.625522148514563e+000	 1.058707041270031e+001
 4.428060708201621e+000	 1.672305620595791e+000	 1.060016891853441e+001
 4.410140196866269e+000	 1.719009016112672e+000	 1.061353780759457e+001
 4.391685636628613e+000	 1.765623585772688e+000	 1.062694106133333e+001
 4.372696747465477e+000	 1.812140533433459e+000	 1.064001843133933e+001
 4.353173435502172e+000	 1.858551020759794e+000	 1.065226566637839e+001
 4.107947097861664e+000	 1.753853685157622e+000	 1.068738075007324e+001
 4.089022237317836e+000	 1.797534358250065e+000	 1.070320329367795e+001
 4.069593571258428e+000	 1.841097824563030e+000	 1.071953027879213e+001
 4.049661552156451e+000	 1.884535657582464e+000	 1.073429268047745e+001
 4.029226814984733e+000	 1.927839409546484e+000	 1.074509026185437e+001
 4.008290178599602e+000	 1.971000616255271e+000	 1.074916760997598e+001
 3.986852646976334e+000	 2.014010801950552e+000	 1.074421023194150e+001
 3.964915410292882e+000	 2.056861484259474e+000	 1.074030809635993e+001
 3.942479845858591e+000	 2.099544179197508e+000	 1.074010816589605e+001
 3.919547518884828e+000	 2.142050406224803e+000	 1.074216625703482e+001
 3.896120183094670e+000	 2.184371693350319e+000	 1.074503986672998e+001
 4.132469630475130e+000	 1.764323375533540e+000	 1.069254395956792e+001
 4.113431797320074e+000	 1.808264801918528e+000	 1.070918287305023e+001
 4.093887151164926e+000	 1.852088321854113e+000	 1.072494680512721e+001
 4.073836147183756e+000	 1.895785458523871e+000	 1.073786498763728e+001
 4.053279424139898e+000	 1.939347713736705e+000	 1.074565172954880e+001
 4.032217805777887e+000	 1.982766572765458e+000	 1.074568207246881e+001
 4.010652302066275e+000	 2.026033509255521e+000	 1.073826796110138e+001
 3.988584110287832e+000	 2.069139990198221e+000	 1.073464468610140e+001
 3.966014615973810e+000	 2.112077480963578e+000	 1.073448738939092e+001
 3.942945393679174e+000	 2.154837450386865e+000	 1.073632609643240e+001
 3.919378207595922e+000	 2.197411375903190e+000	 1.073880475729569e+001
 4.156992169218810e+000	 1.774793068526321e+000	 1.069634354162102e+001
 4.137841363424330e+000	 1.818995248269089e+000	 1.071314949932605e+001
 4.118180737144486e+000	 1.863078821892374e+000	 1.072798141289142e+001
 4.098010748254415e+000	 1.907035262277361e+000	 1.073895893493844e+001
 4.077332039307959e+000	 1.950856020803727e+000	 1.074390112615138e+001
 4.056145438937857e+000	 1.994532532216958e+000	 1.074030172856821e+001
 4.034451963105935e+000	 2.038056219566090e+000	 1.073188642232054e+001
 4.012252816199793e+000	 2.081418499206607e+000	 1.072763862450386e+001
 3.989549391972591e+000	 2.124610785863070e+000	 1.072710675196010e+001
 3.966343274322895e+000	 2.167624497745854e+000	 1.072867795732534e+001
 3.942636237911626e+000	 2.210451061716201e+000	 1.073093279608026e+001
 4.181514720223089e+000	 1.785262766753336e+000	 1.069858668548454e+001
 4.162250941732745e+000	 1.829725699984286e+000	 1.071504228855669e+001
 4.142474335270258e+000	 1.874069327425340e+000	 1.072867645605570e+001
 4.122185361411839e+000	 1.918285071655267e+000	 1.073769155567435e+001
 4.101384666501830e+000	 1.962364333624481e+000	 1.074000176822167e+001
 4.080073084061181e+000	 2.006298497551087e+000	 1.073336605071907e+001
 4.058251636045005e+000	 2.050078935887735e+000	 1.072519110710305e+001
 4.035921533945723e+000	 2.093697014354039e+000	 1.072049838299569e+001
 4.013084179738415e+000	 2.137144097029069e+000	 1.071893340424973e+001
 3.989741166665249e+000	 2.180411551498271e+000	 1.071997061581160e+001
 3.965894279856078e+000	 2.223490754048992e+000	 1.072206193456770e+001
 4.206037289618354e+000	 1.795732472831950e+000	 1.069906854893148e+001
 4.186660538347462e+000	 1.840456159746657e+000	 1.071478554525462e+001
 4.166767951615396e+000	 1.885059841200544e+000	 1.072705732307471e+001
 4.146359992699433e+000	 1.929534889469920e+000	 1.073416138148519e+001
 4.125437311734429e+000	 1.973872655075903e+000	 1.073409754358999e+001
 4.104000747129545e+000	 2.018064471709167e+000	 1.072576935766128e+001
 4.082051326833178e+000	 2.062101661225940e+000	 1.071811039001262e+001
 4.059590269442583e+000	 2.105975538709923e+000	 1.071328460698303e+001
 4.036618985154762e+000	 2.149677417594655e+000	 1.071102976529573e+001
 4.013139076555490e+000	 2.193198614840611e+000	 1.071102531357323e+001
 3.989152339243564e+000	 2.236530456161203e+000	 1.071277866438788e+001
 4.230559883534988e+000	 1.806202189379531e+000	 1.069757338006158e+001
 4.211070159370624e+000	 1.851186630238740e+000	 1.071229000812785e+001
 4.191061592253049e+000	 1.896050365965515e+000	 1.072313378744719e+001
 4.170534648160610e+000	 1.940784718533653e+000	 1.072844987869494e+001
 4.149489981018677e+000	 1.985380988034921e+000	 1.072631441449543e+001
 4.127928434124628e+000	 2.029830457632516e+000	 1.071755756935897e+001
 4.105851041420148e+000	 2.074124398586184e+000	 1.071057823803797e+001
 4.083259028607333e+000	 2.118254075343664e+000	 1.070592097342392e+001
 4.060153814105110e+000	 2.162210750692910e+000	 1.070339641202610e+001
 4.036537009842877e+000	 2.205985690969373e+000	 1.070276404373161e+001
 4.012410421888376e+000	 2.249570171312477e+000	 1.070372866372494e+001
 4.255082508103374e+000	 1.816671919013446e+000	 1.069387562576146e+001
 4.235479810904371e+000	 1.861917114143071e+000	 1.070745407916652e+001
 4.215355263256366e+000	 1.907040904467783e+000	 1.071690133897726e+001
 4.194709333838777e+000	 1.952034561658800e+000	 1.072062286334657e+001
 4.173542680367494e+000	 1.996889335378473e+000	 1.071676189806115e+001
 4.151856151028107e+000	 2.041596458262454e+000	 1.070865452672430e+001
 4.129650785755607e+000	 2.086147150973949e+000	 1.070253469831631e+001
 4.106927817356930e+000	 2.130532627324669e+000	 1.069833787148690e+001
 4.083688672472943e+000	 2.174744099456915e+000	 1.069592851195700e+001
 4.059934972376665e+000	 2.218772783081055e+000	 1.069512509461293e+001
 4.035668533604805e+000	 2.262609902762454e+000	 1.069569644909848e+001
 4.279605169453902e+000	 1.827141664351063e+000	 1.068774102736263e+001
 4.259889499050845e+000	 1.872647614142192e+000	 1.070016503675767e+001
 4.239648970698495e+000	 1.918031459454879e+000	 1.070834249652003e+001
 4.218884055777344e+000	 1.963284421657692e+000	 1.071073189579883e+001
 4.197595415793796e+000	 2.008397699983488e+000	 1.070572682683379e+001
 4.175783903821666e+000	 2.053362476540301e+000	 1.069899055597281e+001
 4.153450565789250e+000	 2.098169921394717e+000	 1.069392636342639e+001
 4.130596641608336e+000	 2.142811197722343e+000	 1.069047284947319e+001
 4.107223566141736e+000	 2.187277467019753e+000	 1.068852955284642e+001
 4.083332970006111e+000	 2.231559894372153e+000	 1.068795319705725e+001
 4.058926680207141e+000	 2.275649653770777e+000	 1.068855393822813e+001
 4.304127873716955e+000	 1.837611428009748e+000	 1.067892770401588e+001
 4.284299229912194e+000	 1.883378132918639e+000	 1.069030023347361e+001
 4.263942720652592e+000	 1.929022033674333e+000	 1.069742810295894e+001
 4.243058820019718e+000	 1.974534301342661e+000	 1.069881565570925e+001
 4.221648193310499e+000	 2.019906084726900e+000	 1.069370543674501e+001
 4.199711698486983e+000	 2.065128515407376e+000	 1.068850291417165e+001
 4.177250387470769e+000	 2.110192712853969e+000	 1.068470681515064e+001
 4.154265507278509e+000	 2.155089789606091e+000	 1.068227104069653e+001
 4.130758500994972e+000	 2.199810856514507e+000	 1.068111173479697e+001
 4.106731008580471e+000	 2.244347028039165e+000	 1.068110344662243e+001
 4.082184867509671e+000	 2.288689427597086e+000	 1.068207528899942e+001
 4.328650627022915e+000	 1.848081212606869e+000	 1.066718722427712e+001
 4.308709009590553e+000	 1.894108673154950e+000	 1.067772827915066e+001
 4.288236519191803e+000	 1.940012629873676e+000	 1.068411860312856e+001
 4.267233632609309e+000	 1.985784203526040e+000	 1.068490129819088e+001
 4.245701018930528e+000	 2.031414492485641e+000	 1.068063011691424e+001
 4.223639541005738e+000	 2.076894577804998e+000	 1.067713621419870e+001
 4.201050256749856e+000	 2.122215528357184e+000	 1.067483704756520e+001
 4.177934420284409e+000	 2.167368406045322e+000	 1.067368556916060e+001
 4.154293482916130e+000	 2.212344271074256e+000	 1.067359634317181e+001
 4.130129093949002e+000	 2.257134187278590e+000	 1.067444162859956e+001
 4.105443101326692e+000	 2.301729227501026e+000	 1.067604745659913e+001
 4.353173435502172e+000	 1.858551020759794e+000	 1.065226566637839e+001
 4.333118844188068e+000	 1.904839237533664e+000	 1.066231020984696e+001
 4.312530372389279e+000	 1.951003250800439e+000	 1.066836530536471e+001
 4.291408499589530e+000	 1.997034131020163e+000	 1.066900579189520e+001
 4.269753898666800e+000	 2.042922926136646e+000	 1.066641280801919e+001
 4.247567437359612e+000	 2.088660666674489e+000	 1.066484282992960e+001
 4.224850179576209e+000	 2.134238370909848e+000	 1.066428587027772e+001
 4.201603386542995e+000	 2.179647050109439e+000	 1.066467793583495e+001
 4.177828517788692e+000	 2.224877713832085e+000	 1.066591410308463e+001
 4.153527231960959e+000	 2.269921375286926e+000	 1.066784452609605e+001
 4.128701387472490e+000	 2.314769056742235e+000	 1.067027044078817e+001
 3.896120183094670e+000	 2.184371693350319e+000	 1.074503986672998e+001
 3.872196156391829e+000	 2.226505887565815e+000	 1.075037865704376e+001
 3.847781051657800e+000	 2.268438184788724e+000	 1.075983965043843e+001
 3.822877194375688e+000	 2.310160168438054e+000	 1.077202272652744e+001
 3.797487099402197e+000	 2.351663451361818e+000	 1.078556395626693e+001
 3.771613470733660e+000	 2.392939681090943e+000	 1.079913987925724e+001
 3.745259201099025e+000	 2.433980545103553e+000	 1.081147066616236e+001
 3.718427371378763e+000	 2.474777776093069e+000	 1.082132210913298e+001
 3.691121249848879e+000	 2.515323157233418e+000	 1.082750639417883e+001
 3.663344291249592e+000	 2.555608527434690e+000	 1.082888162120864e+001
 3.635100135678463e+000	 2.595625786582434e+000	 1.082435004983985e+001
 3.919378207595922e+000	 2.197411375903190e+000	 1.073880475729569e+001
 3.895311365586440e+000	 2.239797091651857e+000	 1.074367812890421e+001
 3.870750514038508e+000	 2.281979705176810e+000	 1.075265611264178e+001
 3.845697992317274e+000	 2.323950749653989e+000	 1.076435870983618e+001
 3.820156330291953e+000	 2.365701787864013e+000	 1.077744267721632e+001
 3.794128248100461e+000	 2.407224417477454e+000	 1.079060599036722e+001
 3.767616655739987e+000	 2.448510276350555e+000	 1.080259114241769e+001
 3.740624652482406e+000	 2.489551047824762e+000	 1.081218721794633e+001
 3.713155526113802e+000	 2.530338466023375e+000	 1.081823069360570e+001
 3.685212751997570e+000	 2.570864321138577e+000	 1.081960492922226e+001
 3.656799991960951e+000	 2.611120464702003e+000	 1.081523832602642e+001
 3.942636237911626e+000	 2.210451061716201e+000	 1.073093279608026e+001
 3.918426580559851e+000	 2.253088299060945e+000	 1.073561348584602e+001
 3.893719982161631e+000	 2.295521228950526e+000	 1.074437898508674e+001
 3.868518795964158e+000	 2.337741334317804e+000	 1.075586037170647e+001
 3.842825566849163e+000	 2.379740127875997e+000	 1.076872698508988e+001
 3.816643031096151e+000	 2.421509157435315e+000	 1.078169110588195e+001
 3.789974115970546e+000	 2.463040011230107e+000	 1.079351141774734e+001
 3.762821939135638e+000	 2.504324323249834e+000	 1.080299518802541e+001
 3.735189807887587e+000	 2.545353778567168e+000	 1.080899911618210e+001
 3.707081218212969e+000	 2.586120118656368e+000	 1.081042881172285e+001
 3.678499853668706e+000	 2.626615146695153e+000	 1.080623687666046e+001
 3.965894279856078e+000	 2.223490754048992e+000	 1.072206193456770e+001
 3.941541807090636e+000	 2.266379513115587e+000	 1.072670631246517e+001
 3.916689461769292e+000	 2.309062759494951e+000	 1.073542589358383e+001
 3.891339611021287e+000	 2.351531925876843e+000	 1.074685370505946e+001
 3.865494814740869e+000	 2.393778474907056e+000	 1.075966348093537e+001
 3.839157825349139e+000	 2.435793904535413e+000	 1.077257458892636e+001
 3.812331587379767e+000	 2.477569753374350e+000	 1.078435568249562e+001
 3.785019236887463e+000	 2.519097606061324e+000	 1.079382701191601e+001
 3.757224100678466e+000	 2.560369098618346e+000	 1.079986134046333e+001
 3.728949695362553e+000	 2.601375923801743e+000	 1.080138342517553e+001
 3.700199726226330e+000	 2.642109836435286e+000	 1.079736803559810e+001
 3.989152339243564e+000	 2.236530456161203e+000	 1.071277866438788e+001
 3.964657050957377e+000	 2.279670737138295e+000	 1.071742988026781e+001
 3.939658958603628e+000	 2.322604300195173e+000	 1.072616903152163e+001
 3.914160443193614e+000	 2.365322527778455e+000	 1.073762188027031e+001
 3.888164079634114e+000	 2.407816832466474e+000	 1.075045827809420e+001
 3.861672636487839e+000	 2.450078662348639e+000	 1.076339737094585e+001
 3.834689075556711e+000	 2.492099506415425e+000	 1.077521146924639e+001
 3.807216551286875e+000	 2.533870899952260e+000	 1.078472851341454e+001
 3.779258409994675e+000	 2.575384429930460e+000	 1.079083307806339e+001
 3.750818188913088e+000	 2.616631740388381e+000	 1.079246587193050e+001
 3.721899615058423e+000	 2.657604537795814e+000	 1.078862170516973e+001
 4.012410421888376e+000	 2.249570171312477e+000	 1.070372866372494e+001
 3.987772317938652e+000	 2.292961974451581e+000	 1.070821044929780e+001
 3.962628478406766e+000	 2.336145854436272e+000	 1.071693640964775e+001
 3.936981298186090e+000	 2.379113143469984e+000	 1.072840644934756e+001
 3.910833367195940e+000	 2.421855204063538e+000	 1.074127816702125e+001
 3.884187470140660e+000	 2.464363434445877e+000	 1.075426308340133e+001
 3.857046586090441e+000	 2.506629273985478e+000	 1.076613075761745e+001
 3.829413887882881e+000	 2.548644208615681e+000	 1.077571143167183e+001
 3.801292741344446e+000	 2.590399776257064e+000	 1.078189714326164e+001
 3.772686704331336e+000	 2.631887572229962e+000	 1.078364126150444e+001
 3.743599525589591e+000	 2.673099254650146e+000	 1.077998651981089e+001
 4.035668533604805e+000	 2.262609902762454e+000	 1.069569644909848e+001
 4.010887613813039e+000	 2.306253228377955e+000	 1.069951015390681e+001
 3.985598026920840e+000	 2.349687425603333e+000	 1.070801309278905e+001
 3.959802181703660e+000	 2.392903776398775e+000	 1.071940853908388e+001
 3.933502683093391e+000	 2.435893593207532e+000	 1.073225177085483e+001
 3.906702331936014e+000	 2.478648224398017e+000	 1.074523918173949e+001
 3.879404124570022e+000	 2.521159059716648e+000	 1.075713107260122e+001
 3.851611252224484e+000	 2.563417535744618e+000	 1.076675449985974e+001
 3.823327100236012e+000	 2.605415141351707e+000	 1.077300451793283e+001
 3.794555247084062e+000	 2.647143423140168e+000	 1.077484376769120e+001
 3.765299463244429e+000	 2.688593990871691e+000	 1.077161647675402e+001
 4.058926680207141e+000	 2.275649653770777e+000	 1.068855393822813e+001
 4.034002944359119e+000	 2.319544502239928e+000	 1.069198709562128e+001
 4.008567609887977e+000	 2.363229017081439e+000	 1.069969162345380e+001
 3.982623099451280e+000	 2.406694430012176e+000	 1.071079003362268e+001
 3.956172032993508e+000	 2.449932003407742e+000	 1.072347069211046e+001
 3.929217227502315e+000	 2.492933035775949e+000	 1.073635806195117e+001
 3.901761696584512e+000	 2.535688867241081e+000	 1.074819657671331e+001
 3.873808649860681e+000	 2.578190885032107e+000	 1.075780451862101e+001
 3.845361492177609e+000	 2.620430528967939e+000	 1.076407541199138e+001
 3.816423822638035e+000	 2.662399296932676e+000	 1.076597768167277e+001
 3.786999433447542e+000	 2.704088750333855e+000	 1.076337187332370e+001
 4.082184867509671e+000	 2.288689427597086e+000	 1.068207528899942e+001
 4.057118315355471e+000	 2.332835799360011e+000	 1.068546084342403e+001
 4.031537233050311e+000	 2.376770632255675e+000	 1.069251632022787e+001
 4.005444057133899e+000	 2.420485107757529e+000	 1.070269413208387e+001
 3.978841422563335e+000	 2.463970438173453e+000	 1.071499065085524e+001
 3.951732162467971e+000	 2.507217872150561e+000	 1.072761817001631e+001
 3.924119307722977e+000	 2.550218700190915e+000	 1.073927915619941e+001
 3.896006086340478e+000	 2.592964260171184e+000	 1.074877742451389e+001
 3.867395922677467e+000	 2.635445942859313e+000	 1.075500031953205e+001
 3.838292436460014e+000	 2.677655197421170e+000	 1.075696860522725e+001
 3.808699441623531e+000	 2.719583536910049e+000	 1.075502476938547e+001
 4.105443101326692e+000	 2.301729227501026e+000	 1.067604745659913e+001
 4.080233732580672e+000	 2.346127123060713e+000	 1.067963210241640e+001
 4.054506902149972e+000	 2.390312274511121e+000	 1.068628787163213e+001
 4.028265060456468e+000	 2.434275813082186e+000	 1.069554456999603e+001
 4.001510857469911e+000	 2.478008901013949e+000	 1.070683407284696e+001
 3.974247142461394e+000	 2.521502737092740e+000	 1.071898510452105e+001
 3.946476963574480e+000	 2.564748562198295e+000	 1.073029950153924e+001
 3.918203567212872e+000	 2.607737664854879e+000	 1.073955935365391e+001
 3.889430397243821e+000	 2.650461386779379e+000	 1.074564107084175e+001
 3.860161094016767e+000	 2.692911128419327e+000	 1.074775632610293e+001
 3.830399493196997e+000	 2.735078354473679e+000	 1.074632797185158e+001
 4.128701387472490e+000	 2.314769056742235e+000	 1.067027044078817e+001
 4.103349201813303e+000	 2.359418476664549e+000	 1.067421680014523e+001
 4.077476622929091e+000	 2.403853947232864e+000	 1.068064624222788e+001
 4.051086115123939e+000	 2.448066549433488e+000	 1.068916188483978e+001
 4.024180343380284e+000	 2.492047395438518e+000	 1.069927463119709e+001
 3.996762173110999e+000	 2.535787634173376e+000	 1.071039271271982e+001
 3.968834669728083e+000	 2.579278456895365e+000	 1.072114818247690e+001
 3.940401098026868e+000	 2.622511102776230e+000	 1.073000770074600e+001
 3.911464921384907e+000	 2.665476864481691e+000	 1.073583188044911e+001
 3.882029800775059e+000	 2.708167093740830e+000	 1.073808541388695e+001
 3.852099593592544e+000	 2.750573206898158e+000	 1.073701675047518e+001
 3.635100135678463e+000	 2.595625786582434e+000	 1.082435004983985e+001
 3.606392606282453e+000	 2.635366899875415e+000	 1.081399946888618e+001
 3.577225704752324e+000	 2.674823900322948e+000	 1.079858093889285e+001
 3.547603612821848e+000	 2.713988896438097e+000	 1.078105816796546e+001
 3.517530691503431e+000	 2.752854078213755e+000	 1.076368429013551e+001
 3.487011479119200e+000	 2.791411722183962e+000	 1.074754436606032e+001
 3.456050689161567e+000	 2.829654196428459e+000	 1.073378256903992e+001
 3.424653207985159e+000	 2.867573965513815e+000	 1.072358257287185e+001
 3.392824092332316e+000	 2.905163595364521e+000	 1.071814598637927e+001
 3.360568566694637e+000	 2.942415758057519e+000	 1.071866896469249e+001
 3.327892020513366e+000	 2.979323236533758e+000	 1.072616113717199e+001
 3.656799991960951e+000	 2.611120464702003e+000	 1.081523832602642e+001
 3.627921091973301e+000	 2.651098813948400e+000	 1.080523095334177e+001
 3.598580077613613e+000	 2.690791354327859e+000	 1.079084877988646e+001
 3.568781155578661e+000	 2.730190147244944e+000	 1.077522083583580e+001
 3.538528712914067e+000	 2.769287336070452e+000	 1.075945206995681e+001
 3.507827315033624e+000	 2.808075151232928e+000	 1.074444251129922e+001
 3.476681703567104e+000	 2.846545915253110e+000	 1.073115697050759e+001
 3.445096794038395e+000	 2.884692047714543e+000	 1.072060522073655e+001
 3.413077673376231e+000	 2.922506070163753e+000	 1.071382012517241e+001
 3.380629597259997e+000	 2.959980610933397e+000	 1.071183384427120e+001
 3.347757987303395e+000	 2.997108409881948e+000	 1.071565227774396e+001
 3.678499853668706e+000	 2.626615146695153e+000	 1.080623687666046e+001
 3.649449583046558e+000	 2.666830731954233e+000	 1.079654531335097e+001
 3.619934455813749e+000	 2.706758812324470e+000	 1.078369039104849e+001
 3.589958703630073e+000	 2.746391402101920e+000	 1.076978110769616e+001
 3.559526739574368e+000	 2.785720598035260e+000	 1.075546372426664e+001
 3.528643156152110e+000	 2.824738584447534e+000	 1.074147321426228e+001
 3.497312723130439e+000	 2.863437638300464e+000	 1.072861546089920e+001
 3.465540385202507e+000	 2.901810134194557e+000	 1.071774718367134e+001
 3.433331259483469e+000	 2.939848549298364e+000	 1.070975370702168e+001
 3.400690632840491e+000	 2.977545468200245e+000	 1.070552470741626e+001
 3.367623959059742e+000	 3.014893587676185e+000	 1.070592809799034e+001
 3.700199726226330e+000	 2.642109836435286e+000	 1.079736803559810e+001
 3.670978084883970e+000	 2.682562657825637e+000	 1.078821827185983e+001
 3.641288844690951e+000	 2.722726278304399e+000	 1.077699896024780e+001
 3.611136262270088e+000	 2.762592665059089e+000	 1.076463309720762e+001
 3.580524776733460e+000	 2.802153868216250e+000	 1.075161464001809e+001
 3.549459007678244e+000	 2.841402025993399e+000	 1.073853305313754e+001
 3.517943753008951e+000	 2.880329369793212e+000	 1.072605531526007e+001
 3.485983986588032e+000	 2.918928229233141e+000	 1.071490554435659e+001
 3.453584855717059e+000	 2.957191037103733e+000	 1.070584235576810e+001
 3.420751678451020e+000	 2.995110334249034e+000	 1.069963409298815e+001
 3.387489940748560e+000	 3.032678774362513e+000	 1.069703209463352e+001
 3.721899615058423e+000	 2.657604537795814e+000	 1.078862170516973e+001
 3.692506602867291e+000	 2.698294595495337e+000	 1.078040312989876e+001
 3.662643249583429e+000	 2.738693756259258e+000	 1.077064122809006e+001
 3.632313836792711e+000	 2.778793940166521e+000	 1.075964503340721e+001
 3.601522829640472e+000	 2.818587150721498e+000	 1.074777478773145e+001
 3.570274874815602e+000	 2.858065480036140e+000	 1.073549357106110e+001
 3.538574798360021e+000	 2.897221113954047e+000	 1.072334907630193e+001
 3.506427603305496e+000	 2.936046337109576e+000	 1.071195288584403e+001
 3.473838467140046e+000	 2.974533537915240e+000	 1.070195736745362e+001
 3.440812739106494e+000	 3.012675213470732e+000	 1.069403033261615e+001
 3.407355937335999e+000	 3.050463974386978e+000	 1.068882762535029e+001
 3.743599525589591e+000	 2.673099254650146e+000	 1.077998651981089e+001
 3.714035142378266e+000	 2.714026548896057e+000	 1.077294046291632e+001
 3.683997675829406e+000	 2.754661250180662e+000	 1.076445923796276e+001
 3.653491432491949e+000	 2.794995231474284e+000	 1.075466101704133e+001
 3.622520903544523e+000	 2.835020449659075e+000	 1.074379048247219e+001
 3.591090762767767e+000	 2.874728950741376e+000	 1.073220303983038e+001
 3.559205864341032e+000	 2.914112875005660e+000	 1.072034631868189e+001
 3.526871240465430e+000	 2.953164462103145e+000	 1.070873905397619e+001
 3.494092098815462e+000	 2.991876056068264e+000	 1.069794746820672e+001
 3.460873819821821e+000	 3.030240110256312e+000	 1.068855930113174e+001
 3.427221953788212e+000	 3.068249192195625e+000	 1.068115565978915e+001
 3.765299463244429e+000	 2.688593990871691e+000	 1.077161647675402e+001
 3.735563708798650e+000	 2.729758521960522e+000	 1.076564721587996e+001
 3.705352128767096e+000	 2.770628764060227e+000	 1.075827208238238e+001
 3.674669054661810e+000	 2.811196543032450e+000	 1.074950277325892e+001
 3.643519003694747e+000	 2.851453769137058e+000	 1.073948614123419e+001
 3.611906676738323e+000	 2.891392442274725e+000	 1.072848822006478e+001
 3.579836956109366e+000	 2.931004657170744e+000	 1.071687540977578e+001
 3.547314903178364e+000	 2.970282608493129e+000	 1.070509291636196e+001
 3.514345755806345e+000	 3.009218595898184e+000	 1.069364056876841e+001
 3.480934925611909e+000	 3.047805028996744e+000	 1.068304616375828e+001
 3.447087995071351e+000	 3.086034432234503e+000	 1.067383651630880e+001
 3.786999433447542e+000	 2.704088750333855e+000	 1.076337187332370e+001
 3.757092307510190e+000	 2.745490518621454e+000	 1.075831843826840e+001
 3.726706613734713e+000	 2.786596301889565e+000	 1.075187764580298e+001
 3.695846708596300e+000	 2.827397878891083e+000	 1.074397140082173e+001
 3.664517135340263e+000	 2.867887113263518e+000	 1.073466603688381e+001
 3.632722621930851e+000	 2.908055958801806e+000	 1.072415611796724e+001
 3.600468078822399e+000	 2.947896464671987e+000	 1.071274526709820e+001
 3.567758596554828e+000	 2.987400780558812e+000	 1.070082411805755e+001
 3.534599443175730e+000	 3.026561161740376e+000	 1.068884551580475e+001
 3.500996061491667e+000	 3.065369974082997e+000	 1.067729712019933e+001
 3.466954066151565e+000	 3.103819698949656e+000	 1.066667159576538e+001
 3.808699441623531e+000	 2.719583536910049e+000	 1.075502476938547e+001
 3.778620943894639e+000	 2.761222542811580e+000	 1.075072901560526e+001
 3.748061136070473e+000	 2.802563867660294e+000	 1.074505434403903e+001
 3.717024399589421e+000	 2.843599243100253e+000	 1.073784911798223e+001
 3.685515303730202e+000	 2.884320486146530e+000	 1.072911604881371e+001
 3.653538603548932e+000	 2.924719504488238e+000	 1.071899573883476e+001
 3.621099237637516e+000	 2.964788301732086e+000	 1.070774711251485e+001
 3.588202325705353e+000	 3.004518982579476e+000	 1.069572483409672e+001
 3.554853165986656e+000	 3.043903757930221e+000	 1.068335384014653e+001
 3.521057232475999e+000	 3.082934949906039e+000	 1.067110114576102e+001
 3.486820171995006e+000	 3.121604996787129e+000	 1.065944511247849e+001
 3.830399493196997e+000	 2.735078354473679e+000	 1.074632797185158e+001
 3.800149623333742e+000	 2.776954598463621e+000	 1.074263539768320e+001
 3.769415701112595e+000	 2.818531465364028e+000	 1.073756286044904e+001
 3.738202132935184e+000	 2.859800639710028e+000	 1.073090100517392e+001
 3.706513514113687e+000	 2.900753891894165e+000	 1.072260541044974e+001
 3.674354626796148e+000	 2.941383083499638e+000	 1.071277983745912e+001
 3.641730437712097e+000	 2.981680172573729e+000	 1.070165622338739e+001
 3.608646095740468e+000	 3.021637218834404e+000	 1.068957151900785e+001
 3.575106929302158e+000	 3.061246388803097e+000	 1.067694150209049e+001
 3.541118443579816e+000	 3.100499960856845e+000	 1.066423172963880e+001
 3.506686317567826e+000	 3.139390330192968e+000	 1.065192582250069e+001
 3.852099593592544e+000	 2.750573206898158e+000	 1.073701675047518e+001
 3.821678351209255e+000	 2.792686689510306e+000	 1.073377732362143e+001
 3.790770314199296e+000	 2.834499098992382e+000	 1.072914787902040e+001
 3.759379913927593e+000	 2.876002072770478e+000	 1.072287674465258e+001
 3.727511771739844e+000	 2.917187334614500e+000	 1.071488845374789e+001
 3.695170696876085e+000	 2.958046700001626e+000	 1.070526666555374e+001
 3.662361684203526e+000	 2.998572081419612e+000	 1.069423368078482e+001
 3.629089911770705e+000	 3.038755493602876e+000	 1.068212665344989e+001
 3.595360738185273e+000	 3.078589058694386e+000	 1.066937063389132e+001
 3.561179699818027e+000	 3.118065011326384e+000	 1.065644861049392e+001
 3.526552507836178e+000	 3.157175703613221e+000	 1.064386874930952e+001
 3.327892020513366e+000	 2.979323236533758e+000	 1.072616113717199e+001
 3.294805000137952e+000	 3.015873473340294e+000	 1.073007648077019e+001
 3.261308345935689e+000	 3.052065054294208e+000	 1.072382887456563e+001
 3.227407924036499e+000	 3.087891128237413e+000	 1.070955463561164e+001
 3.193109752621236e+000	 3.123344972753669e+000	 1.068944218243166e+001
 3.158419998366947e+000	 3.158419998366946e+000	 1.066569725485721e+001
 3.123344972753669e+000	 3.193109752621236e+000	 1.064050781299513e+001
 3.087891128237412e+000	 3.227407924036499e+000	 1.061600890522330e+001
 3.052065054294209e+000	 3.261308345935690e+000	 1.059424779666789e+001
 3.015873473340295e+000	 3.294805000137951e+000	 1.057714964880301e+001
 2.979323236533757e+000	 3.327892020513365e+000	 1.056648403763362e+001
 3.347757987303395e+000	 2.997108409881948e+000	 1.071565227774396e+001
 3.314473452812669e+000	 3.033876834594318e+000	 1.072039688866161e+001
 3.280776839171726e+000	 3.070284462445565e+000	 1.071528524531049e+001
 3.246674047528561e+000	 3.106324401379362e+000	 1.070158336608020e+001
 3.212171131989779e+000	 3.141989888849766e+000	 1.068171392473286e+001
 3.177274296044633e+000	 3.177274296044633e+000	 1.065811880466888e+001
 3.141989888849765e+000	 3.212171131989779e+000	 1.063322226735217e+001
 3.106324401379361e+000	 3.246674047528561e+000	 1.060939408306256e+001
 3.070284462445565e+000	 3.280776839171725e+000	 1.058891292744063e+001
 3.033876834594319e+000	 3.314473452812669e+000	 1.057393034647745e+001
 2.997108409881948e+000	 3.347757987303394e+000	 1.056518379354409e+001
 3.367623959059742e+000	 3.014893587676185e+000	 1.070592809799034e+001
 3.334141910404290e+000	 3.051880200348930e+000	 1.070810389992162e+001
 3.300245337274650e+000	 3.088503875151511e+000	 1.070477377795536e+001
 3.265940175836902e+000	 3.124757679129364e+000	 1.069239590707274e+001
 3.231232516123408e+000	 3.160634809606826e+000	 1.067359510445190e+001
 3.196128598435629e+000	 3.196128598435629e+000	 1.065102076053810e+001
 3.160634809606826e+000	 3.231232516123408e+000	 1.062730464463209e+001
 3.124757679129364e+000	 3.265940175836902e+000	 1.060502230237866e+001
 3.088503875151512e+000	 3.300245337274650e+000	 1.058665472456737e+001
 3.051880200348930e+000	 3.334141910404290e+000	 1.057454637608872e+001
 3.014893587676185e+000	 3.367623959059741e+000	 1.056384258474895e+001
 3.387489940748560e+000	 3.032678774362513e+000	 1.069703209463352e+001
 3.353810377829602e+000	 3.069883575104714e+000	 1.069536557332049e+001
 3.319713845111269e+000	 3.106723296966643e+000	 1.069233698246912e+001
 3.285206313777744e+000	 3.143190966095471e+000	 1.068202046980718e+001
 3.250293909787164e+000	 3.179279739685799e+000	 1.066509760487486e+001
 3.214982910253217e+000	 3.214982910253217e+000	 1.064439729120035e+001
 3.179279739685799e+000	 3.250293909787164e+000	 1.062273065782056e+001
 3.143190966095470e+000	 3.285206313777744e+000	 1.060285072561187e+001
 3.106723296966643e+000	 3.319713845111268e+000	 1.058741235065524e+001
 3.069883575104714e+000	 3.353810377829601e+000	 1.057643412321641e+001
 3.032678774362512e+000	 3.387489940748560e+000	 1.056222489875970e+001
 3.407355937335999e+000	 3.050463974386978e+000	 1.068882762535029e+001
 3.373478860005382e+000	 3.087886963362258e+000	 1.068388275170438e+001
 3.339182367548385e+000	 3.124942732445551e+000	 1.067817413417949e+001
 3.304472466167311e+000	 3.161624266885730e+000	 1.067047304322458e+001
 3.269355317746096e+000	 3.197924683747635e+000	 1.065622107986743e+001
 3.233837236210685e+000	 3.233837236210685e+000	 1.063823036505862e+001
 3.197924683747635e+000	 3.269355317746097e+000	 1.061946387682747e+001
 3.161624266885730e+000	 3.304472466167311e+000	 1.060282444948713e+001
 3.124942732445551e+000	 3.339182367548385e+000	 1.059091039921915e+001
 3.087886963362259e+000	 3.373478860005382e+000	 1.057744344942874e+001
 3.050463974386978e+000	 3.407355937335999e+000	 1.056028320809230e+001
 3.427221953788212e+000	 3.068249192195625e+000	 1.068115565978915e+001
 3.393147361848419e+000	 3.105890369622151e+000	 1.067348848103230e+001
 3.358650909452801e+000	 3.143162186142826e+000	 1.066487733355637e+001
 3.323738637821821e+000	 3.180057586108190e+000	 1.065775766472427e+001
 3.288416744765252e+000	 3.216569646453285e+000	 1.064695319521402e+001
 3.252691581021320e+000	 3.252691581021320e+000	 1.063248996070278e+001
 3.216569646453285e+000	 3.288416744765251e+000	 1.061745590717219e+001
 3.180057586108189e+000	 3.323738637821821e+000	 1.060487665126202e+001
 3.143162186142825e+000	 3.358650909452801e+000	 1.059393640569233e+001
 3.105890369622150e+000	 3.393147361848419e+000	 1.057755509351425e+001
 3.068249192195627e+000	 3.427221953788212e+000	 1.055798186964301e+001
 3.447087995071351e+000	 3.086034432234503e+000	 1.067383651630880e+001
 3.412815888275492e+000	 3.123893798384978e+000	 1.066399519214990e+001
 3.378119475691321e+000	 3.161381662613056e+000	 1.065316495343796e+001
 3.343004833557501e+000	 3.198490928370902e+000	 1.064429960565977e+001
 3.307478195609674e+000	 3.235214632463700e+000	 1.063726986821003e+001
 3.271545949398408e+000	 3.271545949398408e+000	 1.062713427613963e+001
 3.235214632463700e+000	 3.307478195609674e+000	 1.061664656786582e+001
 3.198490928370902e+000	 3.343004833557501e+000	 1.060839439323461e+001
 3.161381662613058e+000	 3.378119475691321e+000	 1.059541116001988e+001
 3.123893798384977e+000	 3.412815888275493e+000	 1.057676041407197e+001
 3.086034432234504e+000	 3.447087995071351e+000	 1.055529621432097e+001
 3.466954066151565e+000	 3.103819698949656e+000	 1.066667159576538e+001
 3.432484444203388e+000	 3.141897254151326e+000	 1.065519642055035e+001
 3.397588071130751e+000	 3.179601166410839e+000	 1.064281924000453e+001
 3.362271058190569e+000	 3.216924298281913e+000	 1.063255753711717e+001
 3.326539675044415e+000	 3.253859646439833e+000	 1.062713550557714e+001
 3.290400346055237e+000	 3.290400346055237e+000	 1.062210993678495e+001
 3.253859646439832e+000	 3.326539675044415e+000	 1.061696406852161e+001
 3.216924298281913e+000	 3.362271058190569e+000	 1.061017971166923e+001
 3.179601166410840e+000	 3.397588071130752e+000	 1.059535250541858e+001
 3.141897254151326e+000	 3.432484444203388e+000	 1.057506050054899e+001
 3.103819698949656e+000	 3.466954066151564e+000	 1.055221163791085e+001
 3.486820171995006e+000	 3.121604996787129e+000	 1.065944511247849e+001
 3.452153034548887e+000	 3.159900741421783e+000	 1.064686852351925e+001
 3.417056700637892e+000	 3.197820702090761e+000	 1.063360525224601e+001
 3.381537316537248e+000	 3.235357700449275e+000	 1.062271128936272e+001
 3.345601187834515e+000	 3.272504693042630e+000	 1.061715072490499e+001
 3.309254775705090e+000	 3.309254775705090e+000	 1.061735220226660e+001
 3.272504693042630e+000	 3.345601187834515e+000	 1.061750458564351e+001
 3.235357700449274e+000	 3.381537316537249e+000	 1.060975222326102e+001
 3.197820702090761e+000	 3.417056700637892e+000	 1.059378684105997e+001
 3.159900741421783e+000	 3.452153034548888e+000	 1.057246528501164e+001
 3.121604996787129e+000	 3.486820171995005e+000	 1.054872269311012e+001
 3.506686317567826e+000	 3.139390330192968e+000	 1.065192582250069e+001
 3.471821664228771e+000	 3.177904264696934e+000	 1.063877239477956e+001
 3.436525369079552e+000	 3.216040274207416e+000	 1.062527255912341e+001
 3.400803613413762e+000	 3.253791139481034e+000	 1.061449619251479e+001
 3.364662738745025e+000	 3.291149776933046e+000	 1.060942249204200e+001
 3.328109243061256e+000	 3.328109243061256e+000	 1.061278517208515e+001
 3.291149776933045e+000	 3.364662738745025e+000	 1.061537796699153e+001
 3.253791139481035e+000	 3.400803613413763e+000	 1.060716281411808e+001
 3.216040274207415e+000	 3.436525369079551e+000	 1.059074825540778e+001
 3.177904264696934e+000	 3.471821664228771e+000	 1.056899265461457e+001
 3.139390330192968e+000	 3.506686317567826e+000	 1.054483218268776e+001
 3.526552507836178e+000	 3.157175703613221e+000	 1.064386874930952e+001
 3.491490338159828e+000	 3.195907828477368e+000	 1.063065517674825e+001
 3.455994081322530e+000	 3.234259887315395e+000	 1.061755693459609e+001
 3.420069953636332e+000	 3.272224619985245e+000	 1.060763370576589e+001
 3.383724332540992e+000	 3.309794902772032e+000	 1.060385580111290e+001
 3.346963752837024e+000	 3.346963752837023e+000	 1.060810286455160e+001
 3.309794902772032e+000	 3.383724332540992e+000	 1.061040720271717e+001
 3.272224619985245e+000	 3.420069953636333e+000	 1.060246898674219e+001
 3.234259887315396e+000	 3.455994081322531e+000	 1.058627765979477e+001
 3.195907828477369e+000	 3.491490338159829e+000	 1.056466756473352e+001
 3.157175703613221e+000	 3.526552507836178e+000	 1.054055025371334e+001
 2.979323236533757e+000	 3.327892020513365e+000	 1.056648403763362e+001
 2.942415758057520e+000	 3.360568566694637e+000	 1.055807605590508e+001
 2.905163595364522e+000	 3.392824092332316e+000	 1.054353972196384e+001
 2.867573965513814e+000	 3.424653207985159e+000	 1.052364594999480e+001
 2.829654196428458e+000	 3.456050689161565e+000	 1.049936372535724e+001
 2.791411722183963e+000	 3.487011479119200e+000	 1.047166753344509e+001
 2.752854078213755e+000	 3.517530691503430e+000	 1.044152101435888e+001
 2.713988896438097e+000	 3.547603612821848e+000	 1.040986176675160e+001
 2.674823900322948e+000	 3.577225704752323e+000	 1.037758740004228e+001
 2.635366899875414e+000	 3.606392606282453e+000	 1.034599182534038e+001
 2.595625786582433e+000	 3.635100135678463e+000	 1.031628250228649e+001
 2.997108409881948e+000	 3.347757987303394e+000	 1.056518379354409e+001
 2.959980610933398e+000	 3.380629597259997e+000	 1.055357027635881e+001
 2.922506070163753e+000	 3.413077673376230e+000	 1.053694741995841e+001
 2.884692047714542e+000	 3.445096794038394e+000	 1.051607428391321e+001
 2.846545915253110e+000	 3.476681703567104e+000	 1.049172801579003e+001
 2.808075151232929e+000	 3.507827315033624e+000	 1.046468626893894e+001
 2.769287336070453e+000	 3.538528712914067e+000	 1.043571071668129e+001
 2.730190147244945e+000	 3.568781155578661e+000	 1.040553177812232e+001
 2.690791354327859e+000	 3.598580077613613e+000	 1.037483465710090e+001
 2.651098813948400e+000	 3.627921091973301e+000	 1.034434894967710e+001
 2.611120464702003e+000	 3.656799991960951e+000	 1.031530043972622e+001
 3.014893587676185e+000	 3.367623959059741e+000	 1.056384258474895e+001
 2.977545468200246e+000	 3.400690632840491e+000	 1.054927415557813e+001
 2.939848549298365e+000	 3.433331259483467e+000	 1.053082963055096e+001
 2.901810134194557e+000	 3.465540385202508e+000	 1.050910702900040e+001
 2.863437638300464e+000	 3.497312723130438e+000	 1.048471769596940e+001
 2.824738584447536e+000	 3.528643156152111e+000	 1.045826845639299e+001
 2.785720598035260e+000	 3.559526739574368e+000	 1.043034492752528e+001
 2.746391402101920e+000	 3.589958703630074e+000	 1.040149610792540e+001
 2.706758812324470e+000	 3.619934455813751e+000	 1.037222034701194e+001
 2.666830731954233e+000	 3.649449583046558e+000	 1.034295278426436e+001
 2.626615146695152e+000	 3.678499853668705e+000	 1.031450455298791e+001
 3.032678774362512e+000	 3.387489940748560e+000	 1.056222489875970e+001
 2.995110334249033e+000	 3.420751678451020e+000	 1.054511300935633e+001
 2.957191037103733e+000	 3.453584855717059e+000	 1.052510126591555e+001
 2.918928229233141e+000	 3.485983986588032e+000	 1.050265221248574e+001
 2.880329369793212e+000	 3.517943753008950e+000	 1.047823697636839e+001
 2.841402025993399e+000	 3.549459007678244e+000	 1.045231709517224e+001
 2.802153868216250e+000	 3.580524776733461e+000	 1.042532756631496e+001
 2.762592665059089e+000	 3.611136262270088e+000	 1.039766124057636e+001
 2.722726278304399e+000	 3.641288844690951e+000	 1.036965466638908e+001
 2.682562657825637e+000	 3.670978084883970e+000	 1.034157547599060e+001
 2.642109836435286e+000	 3.700199726226330e+000	 1.031376015024427e+001
 3.050463974386978e+000	 3.407355937335999e+000	 1.056028320809230e+001
 3.012675213470734e+000	 3.440812739106494e+000	 1.054102532683561e+001
 2.974533537915240e+000	 3.473838467140046e+000	 1.051969074532719e+001
 2.936046337109576e+000	 3.506427603305496e+000	 1.049663167086827e+001
 2.897221113954047e+000	 3.538574798360020e+000	 1.047220415907720e+001
 2.858065480036139e+000	 3.570274874815601e+000	 1.044674955031318e+001
 2.818587150721498e+000	 3.601522829640471e+000	 1.042057719518333e+001
 2.778793940166522e+000	 3.632313836792711e+000	 1.039394859422901e+001
 2.738693756259257e+000	 3.662643249583430e+000	 1.036706306133313e+001
 2.698294595495338e+000	 3.692506602867291e+000	 1.034004500417575e+001
 2.657604537795815e+000	 3.721899615058424e+000	 1.031295049998375e+001
 3.068249192195627e+000	 3.427221953788212e+000	 1.055798186964301e+001
 3.030240110256312e+000	 3.460873819821820e+000	 1.053696184060284e+001
 2.991876056068266e+000	 3.494092098815463e+000	 1.051453905066011e+001
 2.953164462103144e+000	 3.526871240465430e+000	 1.049098009417381e+001
 2.914112875005661e+000	 3.559205864341033e+000	 1.046655067387622e+001
 2.874728950741376e+000	 3.591090762767767e+000	 1.044149658316543e+001
 2.835020449659075e+000	 3.622520903544523e+000	 1.041602604662698e+001
 2.794995231474285e+000	 3.653491432491950e+000	 1.039029354757524e+001
 2.754661250180662e+000	 3.683997675829406e+000	 1.036438525519255e+001
 2.714026548896058e+000	 3.714035142378267e+000	 1.033830614695503e+001
 2.673099254650146e+000	 3.743599525589590e+000	 1.031196890462945e+001
 3.086034432234504e+000	 3.447087995071351e+000	 1.055529621432097e+001
 3.047805028996744e+000	 3.480934925611909e+000	 1.053288459848959e+001
 3.009218595898184e+000	 3.514345755806345e+000	 1.050959878391790e+001
 2.970282608493129e+000	 3.547314903178364e+000	 1.048564407249410e+001
 2.931004657170742e+000	 3.579836956109365e+000	 1.046122011677412e+001
 2.891392442274725e+000	 3.611906676738323e+000	 1.043650138462547e+001
 2.851453769137057e+000	 3.643519003694747e+000	 1.041161905383470e+001
 2.811196543032450e+000	 3.674669054661810e+000	 1.038664446936641e+001
 2.770628764060226e+000	 3.705352128767094e+000	 1.036157427907051e+001
 2.729758521960522e+000	 3.735563708798650e+000	 1.033631734604651e+001
 2.688593990871690e+000	 3.765299463244428e+000	 1.031068351775823e+001
 3.103819698949656e+000	 3.466954066151564e+000	 1.055221163791085e+001
 3.065369974082997e+000	 3.500996061491667e+000	 1.052876603700195e+001
 3.026561161740377e+000	 3.534599443175730e+000	 1.050483322670814e+001
 2.987400780558812e+000	 3.567758596554827e+000	 1.048058114471043e+001
 2.947896464671988e+000	 3.600468078822398e+000	 1.045616729090600e+001
 2.908055958801806e+000	 3.632722621930851e+000	 1.043171861085238e+001
 2.867887113263519e+000	 3.664517135340264e+000	 1.040731288357678e+001
 2.827397878891083e+000	 3.695846708596299e+000	 1.038296175054137e+001
 2.786596301889565e+000	 3.726706613734713e+000	 1.035859550496237e+001
 2.745490518621454e+000	 3.757092307510191e+000	 1.033404974237072e+001
 2.704088750333855e+000	 3.786999433447542e+000	 1.030905395445133e+001
 3.121604996787129e+000	 3.486820171995005e+000	 1.054872269311012e+001
 3.082934949906041e+000	 3.521057232476000e+000	 1.052458805630871e+001
 3.043903757930221e+000	 3.554853165986655e+000	 1.050021540157762e+001
 3.004518982579476e+000	 3.588202325705353e+000	 1.047575884930796e+001
 2.964788301732086e+000	 3.621099237637516e+000	 1.045135724969104e+001
 2.924719504488238e+000	 3.653538603548932e+000	 1.042711342136007e+001
 2.884320486146530e+000	 3.685515303730201e+000	 1.040307497154633e+001
 2.843599243100252e+000	 3.717024399589421e+000	 1.037921683885063e+001
 2.802563867660294e+000	 3.748061136070473e+000	 1.035542568141221e+001
 2.761222542811580e+000	 3.778620943894639e+000	 1.033148621420146e+001
 2.719583536910048e+000	 3.808699441623531e+000	 1.030706957955179e+001
 3.139390330192968e+000	 3.506686317567826e+000	 1.054483218268776e+001
 3.100499960856846e+000	 3.541118443579816e+000	 1.052034109671952e+001
 3.061246388803097e+000	 3.575106929302157e+000	 1.049572713512740e+001
 3.021637218834404e+000	 3.608646095740469e+000	 1.047115377719117e+001
 2.981680172573729e+000	 3.641730437712096e+000	 1.044676434215306e+001
 2.941383083499637e+000	 3.674354626796148e+000	 1.042266051938477e+001
 2.900753891894165e+000	 3.706513514113686e+000	 1.039888256004849e+001
 2.859800639710027e+000	 3.738202132935184e+000	 1.037539127587104e+001
 2.818531465364027e+000	 3.769415701112596e+000	 1.035205197158193e+001
 2.776954598463622e+000	 3.800149623333742e+000	 1.032862041774036e+001
 2.735078354473680e+000	 3.830399493196998e+000	 1.030473095027926e+001
 3.157175703613221e+000	 3.526552507836178e+000	 1.054055025371334e+001
 3.118065011326384e+000	 3.561179699818027e+000	 1.051602321658726e+001
 3.078589058694385e+000	 3.595360738185272e+000	 1.049135812283057e+001
 3.038755493602876e+000	 3.629089911770705e+000	 1.046675062641445e+001
 2.998572081419611e+000	 3.662361684203525e+000	 1.044237126031186e+001
 2.958046700001627e+000	 3.695170696876085e+000	 1.041834319443135e+001
 2.917187334614500e+000	 3.727511771739845e+000	 1.039472173793814e+001
 2.876002072770478e+000	 3.759379913927594e+000	 1.037147573630962e+001
 2.834499098992381e+000	 3.790770314199297e+000	 1.034847099363089e+001
 2.792686689510306e+000	 3.821678351209255e+000	 1.032545583001321e+001
 2.750573206898158e+000	 3.852099593592544e+000	 1.030204886281205e+001
 2.595625786582433e+000	 3.635100135678463e+000	 1.031628250228649e+001
 2.555608527434690e+000	 3.663344291249593e+000	 1.028834332881133e+001
 2.515323157233419e+000	 3.691121249848880e+000	 1.026181973631074e+001
 2.474777776093069e+000	 3.718427371378763e+000	 1.023619442790905e+001
 2.433980545103553e+000	 3.745259201099026e+000	 1.021093878601763e+001
 2.392939681090943e+000	 3.771613470733660e+000	 1.018550784723588e+001
 2.351663451361818e+000	 3.797487099402197e+000	 1.015933624696887e+001
 2.310160168438054e+000	 3.822877194375687e+000	 1.013183514879631e+001
 2.268438184788723e+000	 3.847781051657798e+000	 1.010239016310879e+001
 2.226505887565815e+000	 3.872196156391829e+000	 1.007036024921882e+001
 2.184371693350319e+000	 3.896120183094671e+000	 1.003507758514318e+001
 2.611120464702003e+000	 3.656799991960951e+000	 1.031530043972622e+001
 2.570864321138576e+000	 3.685212751997569e+000	 1.028767291195843e+001
 2.530338466023376e+000	 3.713155526113802e+000	 1.026115996031346e+001
 2.489551047824762e+000	 3.740624652482407e+000	 1.023532958883255e+001
 2.448510276350555e+000	 3.767616655739987e+000	 1.020973836186128e+001
 2.407224417477455e+000	 3.794128248100461e+000	 1.018392605060807e+001
 2.365701787864013e+000	 3.820156330291954e+000	 1.015741129678679e+001
 2.323950749653989e+000	 3.845697992317275e+000	 1.012968830889637e+001
 2.281979705176810e+000	 3.870750514038510e+000	 1.010022459572788e+001
 2.239797091651857e+000	 3.895311365586440e+000	 1.006845973094359e+001
 2.197411375903191e+000	 3.919378207595922e+000	 1.003380513214155e+001
 2.626615146695152e+000	 3.678499853668705e+000	 1.031450455298791e+001
 2.586120118656368e+000	 3.707081218212970e+000	 1.028720535452592e+001
 2.545353778567168e+000	 3.735189807887587e+000	 1.026080812581686e+001
 2.504324323249834e+000	 3.762821939135639e+000	 1.023495482292955e+001
 2.463040011230107e+000	 3.789974115970545e+000	 1.020927499102087e+001
 2.421509157435315e+000	 3.816643031096151e+000	 1.018338010246543e+001
 2.379740127875997e+000	 3.842825566849163e+000	 1.015685896240070e+001
 2.337741334317804e+000	 3.868518795964159e+000	 1.012927419769132e+001
 2.295521228950525e+000	 3.893719982161630e+000	 1.010015983389147e+001
 2.253088299060944e+000	 3.918426580559851e+000	 1.006901995358740e+001
 2.210451061716201e+000	 3.942636237911626e+000	 1.003532841863274e+001
 2.642109836435286e+000	 3.700199726226330e+000	 1.031376015024427e+001
 2.601375923801742e+000	 3.728949695362553e+000	 1.028680655021384e+001
 2.560369098618346e+000	 3.757224100678466e+000	 1.026062081726102e+001
 2.519097606061323e+000	 3.785019236887461e+000	 1.023490763474114e+001
 2.477569753374350e+000	 3.812331587379766e+000	 1.020935745250439e+001
 2.435793904535414e+000	 3.839157825349139e+000	 1.018364053627139e+001
 2.393778474907056e+000	 3.865494814740869e+000	 1.015740213776783e+001
 2.351531925876844e+000	 3.891339611021289e+000	 1.013025880200433e+001
 2.309062759494951e+000	 3.916689461769292e+000	 1.010179581618382e+001
 2.266379513115586e+000	 3.941541807090635e+000	 1.007156579305364e+001
 2.223490754048992e+000	 3.965894279856078e+000	 1.003908837019733e+001
 2.657604537795815e+000	 3.721899615058424e+000	 1.031295049998375e+001
 2.616631740388380e+000	 3.750818188913088e+000	 1.028636067442107e+001
 2.575384429930460e+000	 3.779258409994674e+000	 1.026047346504729e+001
 2.533870899952260e+000	 3.807216551286875e+000	 1.023504517788591e+001
 2.492099506415425e+000	 3.834689075556711e+000	 1.020981521195182e+001
 2.450078662348638e+000	 3.861672636487839e+000	 1.018449983931382e+001
 2.407816832466474e+000	 3.888164079634114e+000	 1.015878716232123e+001
 2.365322527778456e+000	 3.914160443193614e+000	 1.013233326469484e+001
 2.322604300195172e+000	 3.939658958603628e+000	 1.010475956078198e+001
 2.279670737138295e+000	 3.964657050957376e+000	 1.007565133512554e+001
 2.236530456161203e+000	 3.989152339243565e+000	 1.004455745270616e+001
 2.673099254650146e+000	 3.743599525589590e+000	 1.031196890462945e+001
 2.631887572229961e+000	 3.772686704331335e+000	 1.028576964504028e+001
 2.590399776257064e+000	 3.801292741344445e+000	 1.026025979501920e+001
 2.548644208615680e+000	 3.829413887882882e+000	 1.023524368770239e+001
 2.506629273985478e+000	 3.857046586090442e+000	 1.021049783203276e+001
 2.464363434445877e+000	 3.884187470140660e+000	 1.018577183557228e+001
 2.421855204063538e+000	 3.910833367195940e+000	 1.016078317114456e+001
 2.379113143469984e+000	 3.936981298186089e+000	 1.013521319710429e+001
 2.336145854436271e+000	 3.962628478406766e+000	 1.010870443526438e+001
 2.292961974451582e+000	 3.987772317938653e+000	 1.008085909786050e+001
 2.249570171312477e+000	 4.012410421888376e+000	 1.005088783391759e+001
 2.688593990871690e+000	 3.765299463244428e+000	 1.031068351775823e+001
 2.647143423140168e+000	 3.794555247084063e+000	 1.028495258616528e+001
 2.605415141351708e+000	 3.823327100236014e+000	 1.025989128120116e+001
 2.563417535744618e+000	 3.851611252224485e+000	 1.023539791771168e+001
 2.521159059716648e+000	 3.879404124570021e+000	 1.021127438743922e+001
 2.478648224398018e+000	 3.906702331936015e+000	 1.018729107416377e+001
 2.435893593207532e+000	 3.933502683093391e+000	 1.016318145191262e+001
 2.392903776398776e+000	 3.959802181703660e+000	 1.013863799965464e+001
 2.349687425603333e+000	 3.985598026920839e+000	 1.011330943615442e+001
 2.306253228377954e+000	 4.010887613813039e+000	 1.008653467059560e+001
 2.262609902762454e+000	 4.035668533604806e+000	 1.005597969010299e+001
 2.704088750333855e+000	 3.786999433447542e+000	 1.030905395445133e+001
 2.662399296932676e+000	 3.816423822638034e+000	 1.028384529459257e+001
 2.620430528967939e+000	 3.845361492177609e+000	 1.025929660166301e+001
 2.578190885032107e+000	 3.873808649860682e+000	 1.023542057974553e+001
 2.535688867241081e+000	 3.901761696584513e+000	 1.021203288428788e+001
 2.492933035775950e+000	 3.929217227502316e+000	 1.018891222314204e+001
 2.449932003407742e+000	 3.956172032993508e+000	 1.016579480832535e+001
 2.406694430012176e+000	 3.982623099451280e+000	 1.014237019027194e+001
 2.363229017081439e+000	 4.008567609887977e+000	 1.011811830415947e+001
 2.319544502239928e+000	 4.034002944359120e+000	 1.009070756757289e+001
 2.275649653770777e+000	 4.058926680207140e+000	 1.005963117246188e+001
 2.719583536910048e+000	 3.808699441623531e+000	 1.030706957955179e+001
 2.677655197421170e+000	 3.838292436460014e+000	 1.028239877333162e+001
 2.635445942859313e+000	 3.867395922677467e+000	 1.025842109738441e+001
 2.592964260171184e+000	 3.896006086340477e+000	 1.023524178759252e+001
 2.550218700190915e+000	 3.924119307722978e+000	 1.021267968375446e+001
 2.507217872150561e+000	 3.951732162467970e+000	 1.019050946843539e+001
 2.463970438173452e+000	 3.978841422563334e+000	 1.016845692977490e+001
 2.420485107757531e+000	 4.005444057133899e+000	 1.014613165359448e+001
 2.376770632255675e+000	 4.031537233050311e+000	 1.012131157834641e+001
 2.332835799360011e+000	 4.057118315355471e+000	 1.009316227758230e+001
 2.288689427597086e+000	 4.082184867509672e+000	 1.006191885885563e+001
 2.735078354473680e+000	 3.830399493196998e+000	 1.030473095027926e+001
 2.692911128419328e+000	 3.860161094016767e+000	 1.028059492432332e+001
 2.650461386779380e+000	 3.889430397243821e+000	 1.025722623399828e+001
 2.607737664854879e+000	 3.918203567212871e+000	 1.023480850402086e+001
 2.564748562198296e+000	 3.946476963574480e+000	 1.021313892977088e+001
 2.521502737092740e+000	 3.974247142461395e+000	 1.019197591771763e+001
 2.478008901013948e+000	 4.001510857469911e+000	 1.017101703861149e+001
 2.434275813082186e+000	 4.028265060456468e+000	 1.014832266563913e+001
 2.390312274511121e+000	 4.054506902149972e+000	 1.012259390435189e+001
 2.346127123060713e+000	 4.080233732580672e+000	 1.009402905433624e+001
 2.301729227501026e+000	 4.105443101326692e+000	 1.006290897828271e+001
 2.750573206898158e+000	 3.852099593592544e+000	 1.030204886281205e+001
 2.708167093740830e+000	 3.882029800775059e+000	 1.027844741877941e+001
 2.665476864481691e+000	 3.911464921384907e+000	 1.025568906629797e+001
 2.622511102776230e+000	 3.940401098026868e+000	 1.023408399104320e+001
 2.579278456895366e+000	 3.968834669728083e+000	 1.021335198062313e+001
 2.535787634173377e+000	 3.996762173110999e+000	 1.019322300901609e+001
 2.492047395438517e+000	 4.024180343380285e+000	 1.017222186023033e+001
 2.448066549433489e+000	 4.051086115123940e+000	 1.014848377201813e+001
 2.403853947232864e+000	 4.077476622929091e+000	 1.012213976191882e+001
 2.359418476664550e+000	 4.103349201813303e+000	 1.009342601137220e+001
 2.314769056742236e+000	 4.128701387472491e+000	 1.006265728246095e+001
 2.184371693350319e+000	 3.896120183094671e+000	 1.003507758514318e+001
 2.142050406224803e+000	 3.919547518884829e+000	 9.999067928262475e+000
 2.099544179197507e+000	 3.942479845858591e+000	 9.964428451462913e+000
 2.056861484259474e+000	 3.964915410292883e+000	 9.929823623993343e+000
 2.014010801950552e+000	 3.986852646976335e+000	 9.893892387642474e+000
 1.971000616255271e+000	 4.008290178599602e+000	 9.858064638973096e+000
 1.927839409546484e+000	 4.029226814984732e+000	 9.828336471940091e+000
 1.884535657582464e+000	 4.049661552156452e+000	 9.803004911930765e+000
 1.841097824563030e+000	 4.069593571258429e+000	 9.780241308890453e+000
 1.797534358250065e+000	 4.089022237317836e+000	 9.758349272371719e+000
 1.753853685157622e+000	 4.107947097861665e+000	 9.735761635601124e+000
 2.197411375903191e+000	 3.919378207595922e+000	 1.003380513214155e+001
 2.154837450386865e+000	 3.942945393679175e+000	 9.998765863146083e+000
 2.112077480963578e+000	 3.966014615973811e+000	 9.965402552063418e+000
 2.069139990198221e+000	 3.988584110287832e+000	 9.932424691036323e+000
 2.026033509255522e+000	 4.010652302066275e+000	 9.898226995170806e+000
 1.982766572765459e+000	 4.032217805777887e+000	 9.860927943050450e+000
 1.939347713736705e+000	 4.053279424139899e+000	 9.828258996894675e+000
 1.895785458523871e+000	 4.073836147183757e+000	 9.800668304881620e+000
 1.852088321854113e+000	 4.093887151164926e+000	 9.776405928211654e+000
 1.808264801918528e+000	 4.113431797320074e+000	 9.753842117310592e+000
 1.764323375533540e+000	 4.132469630475131e+000	 9.731464384060667e+000
 2.210451061716201e+000	 3.942636237911626e+000	 1.003532841863274e+001
 2.167624497745855e+000	 3.966343274322894e+000	 1.000148981186604e+001
 2.124610785863071e+000	 3.989549391972592e+000	 9.969448090403388e+000
 2.081418499206607e+000	 4.012252816199792e+000	 9.937579843543384e+000
 2.038056219566090e+000	 4.034451963105934e+000	 9.903021546004377e+000
 1.994532532216958e+000	 4.056145438937855e+000	 9.864991836768400e+000
 1.950856020803727e+000	 4.077332039307960e+000	 9.829733490430286e+000
 1.907035262277360e+000	 4.098010748254415e+000	 9.800061564712786e+000
 1.863078821892374e+000	 4.118180737144485e+000	 9.774300968868133e+000
 1.818995248269089e+000	 4.137841363424329e+000	 9.750886327140874e+000
 1.774793068526321e+000	 4.156992169218810e+000	 9.728359156965695e+000
 2.223490754048992e+000	 3.965894279856078e+000	 1.003908837019733e+001
 2.180411551498271e+000	 3.989741166665249e+000	 1.000660184603978e+001
 2.137144097029070e+000	 4.013084179738415e+000	 9.975462400233605e+000
 2.093697014354038e+000	 4.035921533945723e+000	 9.942799259846723e+000
 2.050078935887736e+000	 4.058251636045005e+000	 9.907792378077939e+000
 2.006298497551088e+000	 4.080073084061181e+000	 9.869927842172565e+000
 1.962364333624481e+000	 4.101384666501830e+000	 9.832554065879384e+000
 1.918285071655266e+000	 4.122185361411838e+000	 9.801011008219376e+000
 1.874069327425340e+000	 4.142474335270259e+000	 9.773806437826549e+000
 1.829725699984286e+000	 4.162250941732745e+000	 9.749437090531385e+000
 1.785262766753336e+000	 4.181514720223090e+000	 9.726497804614297e+000
 2.236530456161203e+000	 3.989152339243565e+000	 1.004455745270616e+001
 2.193198614840611e+000	 4.013139076555489e+000	 1.001309671093074e+001
 2.149677417594655e+000	 4.036618985154762e+000	 9.981087262507637e+000
 2.105975538709923e+000	 4.059590269442583e+000	 9.947719950440598e+000
 2.062101661225939e+000	 4.082051326833177e+000	 9.912513378258847e+000
 2.018064471709168e+000	 4.104000747129544e+000	 9.875022158940453e+000
 1.973872655075903e+000	 4.125437311734431e+000	 9.836531412509721e+000
 1.929534889469919e+000	 4.146359992699434e+000	 9.803359093321708e+000
 1.885059841200544e+000	 4.166767951615396e+000	 9.774817558361789e+000
 1.840456159746657e+000	 4.186660538347462e+000	 9.749463392087606e+000
 1.795732472831950e+000	 4.206037289618354e+000	 9.725944052342978e+000
 2.249570171312477e+000	 4.012410421888376e+000	 1.005088783391759e+001
 2.205985690969373e+000	 4.036537009842877e+000	 1.001874650875520e+001
 2.162210750692910e+000	 4.060153814105111e+000	 9.986039858215587e+000
 2.118254075343664e+000	 4.083259028607333e+000	 9.952314838308656e+000
 2.074124398586184e+000	 4.105851041420147e+000	 9.917153283564295e+000
 2.029830457632516e+000	 4.127928434124628e+000	 9.880168659599670e+000
 1.985380988034921e+000	 4.149489981018679e+000	 9.841491460105708e+000
 1.940784718533653e+000	 4.170534648160611e+000	 9.806963148490933e+000
 1.896050365965514e+000	 4.191061592253049e+000	 9.777243578461260e+000
 1.851186630238740e+000	 4.211070159370624e+000	 9.750946913841998e+000
 1.806202189379531e+000	 4.230559883534988e+000	 9.726772509172273e+000
 2.262609902762454e+000	 4.035668533604806e+000	 1.005597969010299e+001
 2.218772783081055e+000	 4.059934972376666e+000	 1.002332100506319e+001
 2.174744099456915e+000	 4.083688672472943e+000	 9.990310806840382e+000
 2.130532627324668e+000	 4.106927817356930e+000	 9.956550925954128e+000
 2.086147150973949e+000	 4.129650785755607e+000	 9.921675361093623e+000
 2.041596458262454e+000	 4.151856151028106e+000	 9.885346895513933e+000
 1.996889335378473e+000	 4.173542680367493e+000	 9.847274060596190e+000
 1.952034561658799e+000	 4.194709333838777e+000	 9.811694118141359e+000
 1.907040904467783e+000	 4.215355263256366e+000	 9.781006593624653e+000
 1.861917114143072e+000	 4.235479810904370e+000	 9.753880949075716e+000
 1.816671919013446e+000	 4.255082508103376e+000	 9.729067686225259e+000
 2.275649653770777e+000	 4.058926680207140e+000	 1.005963117246188e+001
 2.231559894372153e+000	 4.083332970006111e+000	 1.002684580631790e+001
 2.187277467019754e+000	 4.107223566141736e+000	 9.993883658946938e+000
 2.142811197722343e+000	 4.130596641608336e+000	 9.960389007963943e+000
 2.098169921394717e+000	 4.153450565789250e+000	 9.926037104901466e+000
 2.053362476540301e+000	 4.175783903821666e+000	 9.890530651367543e+000
 2.008397699983487e+000	 4.197595415793795e+000	 9.853596338881477e+000
 1.963284421657691e+000	 4.218884055777343e+000	 9.817435323340860e+000
 1.918031459454879e+000	 4.239648970698496e+000	 9.786040383474091e+000
 1.872647614142193e+000	 4.259889499050847e+000	 9.758269327969805e+000
 1.827141664351063e+000	 4.279605169453904e+000	 9.732923024520526e+000
 2.288689427597086e+000	 4.082184867509672e+000	 1.006191885885563e+001
 2.244347028039166e+000	 4.106731008580471e+000	 1.002933796203481e+001
 2.199810856514507e+000	 4.130758500994972e+000	 9.996734652423628e+000
 2.155089789606092e+000	 4.154265507278510e+000	 9.963783399486008e+000
 2.110192712853969e+000	 4.177250387470769e+000	 9.930189949132746e+000
 2.065128515407376e+000	 4.199711698486983e+000	 9.895687655478737e+000
 2.019906084726899e+000	 4.221648193310500e+000	 9.860033882995969e+000
 1.974534301342661e+000	 4.243058820019718e+000	 9.824081237219801e+000
 1.929022033674333e+000	 4.263942720652591e+000	 9.792289261615931e+000
 1.883378132918639e+000	 4.284299229912193e+000	 9.764125354606533e+000
 1.837611428009748e+000	 4.304127873716954e+000	 9.738439931758666e+000
 2.301729227501026e+000	 4.105443101326692e+000	 1.006290897828271e+001
 2.257134187278591e+000	 4.130129093949001e+000	 1.003080577443383e+001
 2.212344271074256e+000	 4.154293482916130e+000	 9.998832483241886e+000
 2.167368406045321e+000	 4.177934420284410e+000	 9.966681679985038e+000
 2.122215528357185e+000	 4.201050256749856e+000	 9.934078996771200e+000
 2.076894577804999e+000	 4.223639541005737e+000	 9.900779305632977e+000
 2.031414492485641e+000	 4.245701018930528e+000	 9.866562976327600e+000
 1.985784203526040e+000	 4.267233632609310e+000	 9.831536274486906e+000
 1.940012629873676e+000	 4.288236519191803e+000	 9.799706938220261e+000
 1.894108673154950e+000	 4.308709009590554e+000	 9.771470754863191e+000
 1.848081212606869e+000	 4.328650627022916e+000	 9.745726827738604e+000
 2.314769056742236e+000	 4.128701387472491e+000	 1.006265728246095e+001
 2.269921375286927e+000	 4.153527231960959e+000	 1.003124862089756e+001
 2.224877713832085e+000	 4.177828517788692e+000	 1.000013809015827e+001
 2.179647050109438e+000	 4.201603386542996e+000	 9.969024451671462e+000
 2.134238370909848e+000	 4.224850179576209e+000	 9.937642763382243e+000
 2.088660666674489e+000	 4.247567437359611e+000	 9.905760409820333e+000
 2.042922926136646e+000	 4.269753898666801e+000	 9.873173208801646e+000
 1.997034131020162e+000	 4.291408499589529e+000	 9.839713594486835e+000
 1.951003250800438e+000	 4.312530372389278e+000	 9.808255394808342e+000
 1.904839237533663e+000	 4.333118844188068e+000	 9.780334634760919e+000
 1.858551020759794e+000	 4.353173435502171e+000	 9.754898198056033e+000
 1.753853685157622e+000	 4.107947097861665e+000	 9.735761635601124e+000
 1.710057629351524e+000	 4.126370607494756e+000	 9.710635022001615e+000
 1.666161110416385e+000	 4.144289799846914e+000	 9.682465705869014e+000
 1.622172468799514e+000	 4.161704763504537e+000	 9.651826200853996e+000
 1.578100005132252e+000	 4.178615762716244e+000	 9.619345822702151e+000
 1.533951975835255e+000	 4.195023235321111e+000	 9.585705700964226e+000
 1.489736588820484e+000	 4.210927790553209e+000	 9.551633864311762e+000
 1.445461999293614e+000	 4.226330206727043e+000	 9.517900394216019e+000
 1.401136305660350e+000	 4.241231428808610e+000	 9.485312645697817e+000
 1.356767545539909e+000	 4.255632565876874e+000	 9.454710537734940e+000
 1.312363691888676e+000	 4.269534888480566e+000	 9.426970730135897e+000
 1.764323375533540e+000	 4.132469630475131e+000	 9.731464384060667e+000
 1.720265877653797e+000	 4.151003119887775e+000	 9.707224049960349e+000
 1.676107316926896e+000	 4.169029281479971e+000	 9.680297074040144e+000
 1.631856083588732e+000	 4.186548204366939e+000	 9.651134074310461e+000
 1.587520527821553e+000	 4.203560154374750e+000	 9.620248605244209e+000
 1.543108955333008e+000	 4.220065571956186e+000	 9.588212234886454e+000
 1.498629623032470e+000	 4.236065069982164e+000	 9.555649666512366e+000
 1.454090734808400e+000	 4.251559431413378e+000	 9.523233899016168e+000
 1.409500437410214e+000	 4.266549606856837e+000	 9.491681424478035e+000
 1.364866816437977e+000	 4.281036712012199e+000	 9.461747465543832e+000
 1.320197892442914e+000	 4.295022025012785e+000	 9.434216028340588e+000
 1.774793068526321e+000	 4.156992169218810e+000	 9.728359156965695e+000
 1.730474128507555e+000	 4.175635638438452e+000	 9.704565718959954e+000
 1.686053525923382e+000	 4.193768769297368e+000	 9.678470433817017e+000
 1.641539700798301e+000	 4.211391651439615e+000	 9.650414165488435e+000
 1.596941052865475e+000	 4.228504552268712e+000	 9.620805554922608e+000
 1.552265937119550e+000	 4.245107914851144e+000	 9.590116178276276e+000
 1.507522659467327e+000	 4.261202355694691e+000	 9.558875721411914e+000
 1.462719472480057e+000	 4.276788662406223e+000	 9.527667164189717e+000
 1.417864571250882e+000	 4.291867791233776e+000	 9.497121972649293e+000
 1.372966089360723e+000	 4.306440864497702e+000	 9.467915301683378e+000
 1.328032094955653e+000	 4.320509167915921e+000	 9.440759364505146e+000
 1.785262766753336e+000	 4.181514720223090e+000	 9.726497804614297e+000
 1.740682384464818e+000	 4.200268169304669e+000	 9.702811295642317e+000
 1.695999739892365e+000	 4.218508269483743e+000	 9.677220369340576e+000
 1.651223322849097e+000	 4.236235110933195e+000	 9.649968125187172e+000
 1.606361582619119e+000	 4.253448962634002e+000	 9.621369007503033e+000
 1.561422923484098e+000	 4.270150270266356e+000	 9.591804060790889e+000
 1.516415700348281e+000	 4.286339653974895e+000	 9.561716173821983e+000
 1.471348214465735e+000	 4.302017906012684e+000	 9.531605305203337e+000
 1.426228709273348e+000	 4.317185988268775e+000	 9.502023688079355e+000
 1.381065366332916e+000	 4.331845029684224e+000	 9.473571016455926e+000
 1.335866301385387e+000	 4.345996323561552e+000	 9.446889620318402e+000
 1.795732472831950e+000	 4.206037289618354e+000	 9.725944052342978e+000
 1.750890648077604e+000	 4.224900718644310e+000	 9.702121931985932e+000
 1.705945961320361e+000	 4.243247788223719e+000	 9.676789726443845e+000
 1.660906952161998e+000	 4.261078589058305e+000	 9.650104607359232e+000
 1.615782119437594e+000	 4.278393391706492e+000	 9.622297407334028e+000
 1.570579916715873e+000	 4.295192644462189e+000	 9.593667988760501e+000
 1.525308747898565e+000	 4.311476971106893e+000	 9.564580574512506e+000
 1.479976962922586e+000	 4.327247168539862e+000	 9.535459032353426e+000
 1.434592853568603e+000	 4.342504204291177e+000	 9.506782110182016e+000
 1.389164649379327e+000	 4.357249213922600e+000	 9.479078624409171e+000
 1.343700513690607e+000	 4.371483498321261e+000	 9.452922608771923e+000
 1.806202189379531e+000	 4.230559883534988e+000	 9.726772509172273e+000
 1.761098921897934e+000	 4.249533292615256e+000	 9.702667782493723e+000
 1.715892192693890e+000	 4.267987331701934e+000	 9.677428826986864e+000
 1.670590591157879e+000	 4.285922092025571e+000	 9.651138569061242e+000
 1.625202665676004e+000	 4.303337845722058e+000	 9.623954681259942e+000
 1.579736919104094e+000	 4.320235043699012e+000	 9.596105081299509e+000
 1.534201804341407e+000	 4.336614313374795e+000	 9.567883366661004e+000
 1.488605720007758e+000	 4.352476456294862e+000	 9.539644175609718e+000
 1.442957006227640e+000	 4.367822445630329e+000	 9.511798471140956e+000
 1.397263940524723e+000	 4.382653423563673e+000	 9.484808749869366e+000
 1.351534733829807e+000	 4.396970698566631e+000	 9.459184183232768e+000
 1.816671919013446e+000	 4.255082508103376e+000	 9.729067686225259e+000
 1.771307208477830e+000	 4.274165897375390e+000	 9.704627128538323e+000
 1.725838436499470e+000	 4.292726906103013e+000	 9.679394688116609e+000
 1.680274242257617e+000	 4.310765626045626e+000	 9.653390573483041e+000
 1.634623223689456e+000	 4.328282330916574e+000	 9.626709614152798e+000
 1.588893932937980e+000	 4.345277474237194e+000	 9.599516906967109e+000
 1.543094871900039e+000	 4.361751687062710e+000	 9.572043372172663e+000
 1.497234487878402e+000	 4.377705775584788e+000	 9.544581209043171e+000
 1.451321169341452e+000	 4.393140718615578e+000	 9.517479246824465e+000
 1.405363241793874e+000	 4.408057664958274e+000	 9.491138192665005e+000
 1.359368963761479e+000	 4.422457930669241e+000	 9.466005783897378e+000
 1.827141664351063e+000	 4.279605169453904e+000	 9.732923024520526e+000
 1.781515510369310e+000	 4.298798539082597e+000	 9.708185509571896e+000
 1.735784695223622e+000	 4.317466517611590e+000	 9.682950246249000e+000
 1.689957907882089e+000	 4.335609197329096e+000	 9.657186095926376e+000
 1.644043795833055e+000	 4.353226853525915e+000	 9.630935225993831e+000
 1.598050960506749e+000	 4.370319942337101e+000	 9.604308920951263e+000
 1.551987952797689e+000	 4.386889098454755e+000	 9.577483277872743e+000
 1.505863268691669e+000	 4.402935132716745e+000	 9.550694774851610e+000
 1.459685345001030e+000	 4.418459029576267e+000	 9.524235707400347e+000
 1.413462555211549e+000	 4.433461944457243e+000	 9.498449494030650e+000
 1.367203205444115e+000	 4.447945201000673e+000	 9.473725858305082e+000
 1.837611428009748e+000	 4.304127873716954e+000	 9.738439931758666e+000
 1.791723830124394e+000	 4.323431223894759e+000	 9.713534860920099e+000
 1.745730971352862e+000	 4.342206172412294e+000	 9.688363585578799e+000
 1.699641590452171e+000	 4.360452812086607e+000	 9.662854832610417e+000
 1.653464384461906e+000	 4.378171419785954e+000	 9.637008150437694e+000
 1.607208004099624e+000	 4.395362454259105e+000	 9.610889902750516e+000
 1.560881049257587e+000	 4.412026553835040e+000	 9.584629121572320e+000
 1.514492064604708e+000	 4.428164533997836e+000	 9.558413206995562e+000
 1.468049535297369e+000	 4.443777384841744e+000	 9.532483467659802e+000
 1.421561882802517e+000	 4.458866268411420e+000	 9.507130502680937e+000
 1.375037460836209e+000	 4.473432515932509e+000	 9.482689432180301e+000
 1.848081212606869e+000	 4.328650627022916e+000	 9.745726827738604e+000
 1.801932170295104e+000	 4.348063957969758e+000	 9.720872657892736e+000
 1.755677267373712e+000	 4.366945876689758e+000	 9.695907170931744e+000
 1.709325292388740e+000	 4.385296476528788e+000	 9.670730012186374e+000
 1.662884991931116e+000	 4.403116035932563e+000	 9.645308014795932e+000
 1.616365066005822e+000	 4.420405016263575e+000	 9.619671394329604e+000
 1.569774163502965e+000	 4.437164059487676e+000	 9.593909778008435e+000
 1.523120877774671e+000	 4.453393985735167e+000	 9.568168054456013e+000
 1.476413742321459e+000	 4.469095790741354e+000	 9.542642037058480e+000
 1.429661226591549e+000	 4.484270643171642e+000	 9.517573941044965e+000
 1.382871731896253e+000	 4.498919881836328e+000	 9.493247681226434e+000
 1.858551020759794e+000	 4.353173435502171e+000	 9.754898198056033e+000
 1.812140533433458e+000	 4.372696747465477e+000	 9.730401065955128e+000
 1.765623585772689e+000	 4.391685636628613e+000	 9.705857084781474e+000
 1.719009016112671e+000	 4.410140196866270e+000	 9.681147709848668e+000
 1.672305620595791e+000	 4.428060708201621e+000	 9.656216821378191e+000
 1.625522148514562e+000	 4.445447634610877e+000	 9.631067138725298e+000
 1.578667297757052e+000	 4.462301621696777e+000	 9.605756444659233e+000
 1.531749710358706e+000	 4.478623494235841e+000	 9.580393604125217e+000
 1.484777968164294e+000	 4.494414253604442e+000	 9.555134369482481e+000
 1.437760588603412e+000	 4.509675075088746e+000	 9.530176971651695e+000
 1.390706020582741e+000	 4.524407305083716e+000	 9.505757503831010e+000
 1.312363691888676e+000	 4.269534888480566e+000	 9.426970730135897e+000
 1.267932648602657e+000	 4.282939824829096e+000	 9.401393352329359e+000
 1.223482245031363e+000	 4.295848954764352e+000	 9.376401544570886e+000
 1.179020234462681e+000	 4.308264010049258e+000	 9.351573186411793e+000
 1.134554291362543e+000	 4.320186872431324e+000	 9.326698609518051e+000
 1.090092008085801e+000	 4.331619570558885e+000	 9.301752115595841e+000
 1.045640891710206e+000	 4.342564276822999e+000	 9.276865344450613e+000
 1.001208360994867e+000	 4.353023304130099e+000	 9.252302358385606e+000
 9.568017434643769e-001	 4.362999102610631e+000	 9.228436620470509e+000
 9.124282726195250e-001	 4.372494256268735e+000	 9.205728947852830e+000
 8.680950852753391e-001	 4.381511479578151e+000	 9.184707591442699e+000
 1.320197892442914e+000	 4.295022025012785e+000	 9.434216028340588e+000
 1.275501616503612e+000	 4.308506982593760e+000	 9.408516368152137e+000
 1.230785864707158e+000	 4.321493174027922e+000	 9.383305958246341e+000
 1.186058436624959e+000	 4.333982341416011e+000	 9.358238055798493e+000
 1.141327052535938e+000	 4.345976377738679e+000	 9.333170916270225e+000
 1.096599350117776e+000	 4.357477323754349e+000	 9.308139437695107e+000
 1.051882881261982e+000	 4.368487364822227e+000	 9.283328624652349e+000
 1.007185109014209e+000	 4.379008827655715e+000	 9.259048793686890e+000
 9.625134046409606e-001	 4.389044177011387e+000	 9.235712351266022e+000
 9.178750448236620e-001	 4.398596012318689e+000	 9.213812026989887e+000
 8.732772089808063e-001	 4.407667064255488e+000	 9.193900702681287e+000
 1.328032094955653e+000	 4.320509167915921e+000	 9.440759364505146e+000
 1.283070586296851e+000	 4.334074146749346e+000	 9.415191229506201e+000
 1.238089486208987e+000	 4.347137399701696e+000	 9.390021620552334e+000
 1.193096640547000e+000	 4.359700679211523e+000	 9.364968184891858e+000
 1.148099815402816e+000	 4.371765889492630e+000	 9.339947054325942e+000
 1.103106693776948e+000	 4.383335083413516e+000	 9.315044658925329e+000
 1.058124872374679e+000	 4.394410459301542e+000	 9.290491323550983e+000
 1.013161858528212e+000	 4.404994357677095e+000	 9.266636530633200e+000
 9.682250672459715e-001	 4.415089257922869e+000	 9.243925968507567e+000
 9.233218183900274e-001	 4.424697774893605e+000	 9.222879201311216e+000
 8.784593339823467e-001	 4.433822655471317e+000	 9.204070088999545e+000
 1.335866301385387e+000	 4.345996323561552e+000	 9.446889620318402e+000
 1.290639559874550e+000	 4.359641323687433e+000	 9.421626684587050e+000
 1.245393111362680e+000	 4.372781638196507e+000	 9.396682826394015e+000
 1.200134847988272e+000	 4.385419029865138e+000	 9.371828364729419e+000
 1.154872581656271e+000	 4.397555414140287e+000	 9.347027142223446e+000
 1.109614040690050e+000	 4.409192856000539e+000	 9.322407960795621e+000
 1.064366866608685e+000	 4.420333566741420e+000	 9.298238348904775e+000
 1.019138611030946e+000	 4.430979900690285e+000	 9.274899946164558e+000
 9.739367327072042e-001	 4.441134351855978e+000	 9.252865663038863e+000
 9.287685946801907e-001	 4.450799550518534e+000	 9.232677201400204e+000
 8.836414615753684e-001	 4.459978259764122e+000	 9.214925655943532e+000
 1.343700513690607e+000	 4.371483498321261e+000	 9.452922608771923e+000
 1.298208539128881e+000	 4.385208519799600e+000	 9.428053967914133e+000
 1.252696741994064e+000	 4.398425895923181e+000	 9.403450173079017e+000
 1.207173060708235e+000	 4.411137399806195e+000	 9.378913123883921e+000
 1.161645352989398e+000	 4.423344958128768e+000	 9.354444071591042e+000
 1.116121392483815e+000	 4.435050647979575e+000	 9.330204916410935e+000
 1.070608865524384e+000	 4.446256693622319e+000	 9.306492185252647e+000
 1.025115368016482e+000	 4.456965463191335e+000	 9.283712570945736e+000
 9.796484024524523e-001	 4.467179465321619e+000	 9.262360213654510e+000
 9.342153750557217e-001	 4.476901345718529e+000	 9.242994145764254e+000
 8.888235930552790e-001	 4.486133883672388e+000	 9.226219011114957e+000
 1.351534733829807e+000	 4.396970698566631e+000	 9.459184183232768e+000
 1.305777525952022e+000	 4.410775741477424e+000	 9.434724762762087e+000
 1.260000379928967e+000	 4.424070179292549e+000	 9.410508625435996e+000
 1.214211280466357e+000	 4.436855795464039e+000	 9.386344898824747e+000
 1.168418131095294e+000	 4.449134527905186e+000	 9.362261785194839e+000
 1.122628750784974e+000	 4.460908465814775e+000	 9.338444878543546e+000
 1.076850870682165e+000	 4.472179846424699e+000	 9.315211394246690e+000
 1.031092130978891e+000	 4.482951051676290e+000	 9.292985897058529e+000
 9.853600779095110e-001	 4.493224604830711e+000	 9.272277718325100e+000
 9.396621608781907e-001	 4.503003167018645e+000	 9.253658390502244e+000
 8.940057297174856e-001	 4.512289533734595e+000	 9.237742434186375e+000
 1.359368963761479e+000	 4.422457930669241e+000	 9.466005783897378e+000
 1.313346522236146e+000	 4.436342995112480e+000	 9.441909165712195e+000
 1.267304026993219e+000	 4.449714494715444e+000	 9.418065583884935e+000
 1.221249509022101e+000	 4.462574223268007e+000	 9.394272207874597e+000
 1.175190917667051e+000	 4.474924129916656e+000	 9.370573559033417e+000
 1.129136117220259e+000	 4.486766315970297e+000	 9.347169372006967e+000
 1.083092883642415e+000	 4.498103031629028e+000	 9.324389119343181e+000
 1.037068901412243e+000	 4.508936672641196e+000	 9.302667963875898e+000
 9.910717605061742e-001	 4.519269776894150e+000	 9.282524329279150e+000
 9.451089535091670e-001	 4.529105020943928e+000	 9.264537382266008e+000
 8.991878728573962e-001	 4.538445216489230e+000	 9.249327849435451e+000
 1.367203205444115e+000	 4.447945201000673e+000	 9.473725858305082e+000
 1.320915529873429e+000	 4.461910287096349e+000	 9.449893653224770e+000
 1.274607685012648e+000	 4.475358848602692e+000	 9.426348955327971e+000
 1.228287748134932e+000	 4.488292689647440e+000	 9.402867828606166e+000
 1.181963714397768e+000	 4.500713770610291e+000	 9.379500288307407e+000
 1.135643493416402e+000	 4.512624204910294e+000	 9.356450490151788e+000
 1.089334905965519e+000	 4.524026255715766e+000	 9.334051594670683e+000
 1.043045680810607e+000	 4.534922332582100e+000	 9.312741981048218e+000
 9.967834516702370e-001	 4.545314988022852e+000	 9.293042991783249e+000
 9.505557543102210e-001	 4.555206914019435e+000	 9.275536514381342e+000
 9.043700237704184e-001	 4.564600938474771e+000	 9.260845800696128e+000
 1.375037460836209e+000	 4.473432515932509e+000	 9.482689432180301e+000
 1.328484550756046e+000	 4.487477623820608e+000	 9.458979050136389e+000
 1.281911355813081e+000	 4.501003247365126e+000	 9.435605226735076e+000
 1.235325999564314e+000	 4.514011201031684e+000	 9.412326978529945e+000
 1.188736522980537e+000	 4.526503456433209e+000	 9.389188777099507e+000
 1.142150881000136e+000	 4.538482139098919e+000	 9.366389295310583e+000
 1.095576939211864e+000	 4.549949525165379e+000	 9.344256657901770e+000
 1.049022470668055e+000	 4.560908037995049e+000	 9.323224955360404e+000
 1.002495152829493e+000	 4.571360244727723e+000	 9.303812186469013e+000
 9.560025646429224e-001	 4.581308852770217e+000	 9.286597985999519e+000
 9.095521837519596e-001	 4.590756706229706e+000	 9.272204428628365e+000
 1.382871731896253e+000	 4.498919881836328e+000	 9.493247681226434e+000
 1.336053586776172e+000	 4.513045011676836e+000	 9.469479500623633e+000
 1.289215041220348e+000	 4.526647697413575e+000	 9.446097541303411e+000
 1.242364265069711e+000	 4.539729763850075e+000	 9.422865498930229e+000
 1.195509345108456e+000	 4.552293193832522e+000	 9.399810031607135e+000
 1.148658281598193e+000	 4.564340125000327e+000	 9.377114223026124e+000
 1.101818984941837e+000	 4.575872846458329e+000	 9.355092266962178e+000
 1.054999272478657e+000	 4.586893795376091e+000	 9.334166321300447e+000
 1.008206865411738e+000	 4.597405553519671e+000	 9.314844675061384e+000
 9.614493858688403e-001	 4.607410843721321e+000	 9.297699664155982e+000
 9.147343540974272e-001	 4.616912526292514e+000	 9.283348450212742e+000
 1.390706020582741e+000	 4.524407305083716e+000	 9.505757503831010e+000
 1.343622639825983e+000	 4.538612457056611e+000	 9.481725737849873e+000
 1.296518743060277e+000	 4.552292205158869e+000	 9.458103777074241e+000
 1.249402546410590e+000	 4.565448384531957e+000	 9.434718041712392e+000
 1.202282182474618e+000	 4.578082989255348e+000	 9.411557556776344e+000
 1.155165696837305e+000	 4.590198169078671e+000	 9.388779489904442e+000
 1.108061044715827e+000	 4.601796226075082e+000	 9.366675020417949e+000
 1.060976087736485e+000	 4.612879611221273e+000	 9.345646575186590e+000
 1.013918590844765e+000	 4.623450920909603e+000	 9.326185991513180e+000
 9.668962193495460e-001	 4.633512893397808e+000	 9.308853948617831e+000
 9.199165361022298e-001	 4.643068405201682e+000	 9.294258140379496e+000
 8.680950852753391e-001	 4.381511479578151e+000	 9.184707591442699e+000
 8.238158559823361e-001	 4.390052368877189e+000	 9.166460624496963e+000
 7.795908563484760e-001	 4.398121279226209e+000	 9.150951341119805e+000
 7.354269054959154e-001	 4.405721297882294e+000	 9.137092501598406e+000
 6.913307167858134e-001	 4.412855628386947e+000	 9.123818349694016e+000
 6.473088957992209e-001	 4.419527586972392e+000	 9.109737936403965e+000
 6.033679384448826e-001	 4.425740598943745e+000	 9.091901754356012e+000
 5.595142291933083e-001	 4.431498195041700e+000	 9.070750158422753e+000
 5.157540394362644e-001	 4.436804007790360e+000	 9.047615836663381e+000
 4.720935259706708e-001	 4.441661767834681e+000	 9.023981758092894e+000
 4.285387296057504e-001	 4.446075300271935e+000	 9.001389841305510e+000
 8.732772089808063e-001	 4.407667064255488e+000	 9.193900702681287e+000
 8.287336532936124e-001	 4.416258938689484e+000	 9.177033697600757e+000
 7.842446509914092e-001	 4.424376016678724e+000	 9.163043917332558e+000
 7.398170619033307e-001	 4.432021403909765e+000	 9.150711053687612e+000
 6.954576394661727e-001	 4.439198323047760e+000	 9.138829344122602e+000
 6.511730286932236e-001	 4.445910110121298e+000	 9.125982659388997e+000
 6.069697642707742e-001	 4.452160210882961e+000	 9.109173878845947e+000
 5.628542687816454e-001	 4.457952177150323e+000	 9.088828562524039e+000
 5.188328510548876e-001	 4.463289663131957e+000	 9.066456590267046e+000
 4.749117046406270e-001	 4.468176421743034e+000	 9.043663420637554e+000
 4.310969064089004e-001	 4.472616300914868e+000	 9.022069397920216e+000
 8.784593339823467e-001	 4.433822655471317e+000	 9.204070088999545e+000
 8.336514518348716e-001	 4.442465515053096e+000	 9.188517097766654e+000
 7.888984467982979e-001	 4.450630760694662e+000	 9.175944918620344e+000
 7.442072194087525e-001	 4.458321516512071e+000	 9.165037258864652e+000
 6.995845631786759e-001	 4.465541024294118e+000	 9.154486127792268e+000
 6.550371625536070e-001	 4.472292639865747e+000	 9.142861493817174e+000
 6.105715909973929e-001	 4.478579829427027e+000	 9.127183976150803e+000
 5.661943092051769e-001	 4.484406165872398e+000	 9.107805441049113e+000
 5.219116634433041e-001	 4.489775325094919e+000	 9.086391059154662e+000
 4.777298840151175e-001	 4.494691082279965e+000	 9.064645357917323e+000
 4.336550838514772e-001	 4.499157308192906e+000	 9.044242782269093e+000
 8.836414615753684e-001	 4.459978259764122e+000	 9.214925655943532e+000
 8.385692528354413e-001	 4.468672104519223e+000	 9.200589885941763e+000
 7.935522449324753e-001	 4.476885517837254e+000	 9.189309456696039e+000
 7.485973791096096e-001	 4.484621642263762e+000	 9.179708625295012e+000
 7.037114889549524e-001	 4.491883738711194e+000	 9.170414435323618e+000
 6.589012983463134e-001	 4.498675182800865e+000	 9.159992915391475e+000
 6.141734195251157e-001	 4.504999461180328e+000	 9.145551899707749e+000
 5.695343512988461e-001	 4.510860167820907e+000	 9.127313312635435e+000
 5.249904773711640e-001	 4.516261000300146e+000	 9.107071522659345e+000
 4.805480647986481e-001	 4.521205756073643e+000	 9.086602504647411e+000
 4.362132625730023e-001	 4.525698328740825e+000	 9.067606291421216e+000
 8.888235930552790e-001	 4.486133883672388e+000	 9.226219011114957e+000
 8.434870575246498e-001	 4.494878713639076e+000	 9.212972613768685e+000
 7.982060465572729e-001	 4.503140294669722e+000	 9.202833369229111e+000
 7.529875421033313e-001	 4.510921787739378e+000	 9.194402077280673e+000
 7.078384178266317e-001	 4.518226472884164e+000	 9.186277572055866e+000
 6.627654370372837e-001	 4.525057745521771e+000	 9.177031763012131e+000
 6.177752507543193e-001	 4.531419112747249e+000	 9.163930586123819e+000
 5.728743958975961e-001	 4.537314189608826e+000	 9.147014455140116e+000
 5.280692936081175e-001	 4.542746695368543e+000	 9.128176569883875e+000
 4.833662476957264e-001	 4.547720449752236e+000	 9.109232449194249e+000
 4.387714432129979e-001	 4.552239369193409e+000	 9.091874932929709e+000
 8.940057297174856e-001	 4.512289533734595e+000	 9.237742434186375e+000
 8.484048671318258e-001	 4.521085348963855e+000	 9.225426416635207e+000
 8.028598528360235e-001	 4.529395097755289e+000	 9.216252439138625e+000
 7.573777094873467e-001	 4.537221959513468e+000	 9.208833303504784e+000
 7.119653508253424e-001	 4.544569233398201e+000	 9.201775893461848e+000
 6.666295795924608e-001	 4.551440334623584e+000	 9.193668722503658e+000
 6.213770855853806e-001	 4.557838790732177e+000	 9.182005659130830e+000
 5.762144438363704e-001	 4.563768237849135e+000	 9.166600638069266e+000
 5.311481129238144e-001	 4.569232416921015e+000	 9.149410967430883e+000
 4.861844334108584e-001	 4.574235169943914e+000	 9.132255442019577e+000
 4.413296264109850e-001	 4.578780436185433e+000	 9.116782578000876e+000
 8.991878728573962e-001	 4.538445216489230e+000	 9.249327849435451e+000
 8.533226828862972e-001	 4.547292017044767e+000	 9.237752108223432e+000
 8.075136649320586e-001	 4.555649933657177e+000	 9.229341614099811e+000
 7.617678823590857e-001	 4.563522164160577e+000	 9.222756103950214e+000
 7.160922889827143e-001	 4.570912026838485e+000	 9.216646281457642e+000
 6.704937269777868e-001	 4.577822956701428e+000	 9.209640938460861e+000
 6.249789249186767e-001	 4.584258501739503e+000	 9.199495026217100e+000
 5.795544959501117e-001	 4.590222319154812e+000	 9.185792845266736e+000
 5.342269360879054e-001	 4.595718171578467e+000	 9.170505514790717e+000
 4.890026226485514e-001	 4.600749923276846e+000	 9.155414389009838e+000
 4.438878128064858e-001	 4.605321536351674e+000	 9.142082096618850e+000
 9.043700237704184e-001	 4.564600938474771e+000	 9.260845800696128e+000
 8.582405060173920e-001	 4.573498724433014e+000	 9.249789276498222e+000
 8.121674840087108e-001	 4.581904808938609e+000	 9.241914226255940e+000
 7.661580618159765e-001	 4.589822408255249e+000	 9.235961735546663e+000
 7.202192333303767e-001	 4.597254859790194e+000	 9.230661617733556e+000
 6.743578801592034e-001	 4.604205618350421e+000	 9.224719033644441e+000
 6.285807696545844e-001	 4.610678252373612e+000	 9.216148468232595e+000
 5.828945530737637e-001	 4.616676440138839e+000	 9.204340988255918e+000
 5.373057638700403e-001	 4.622203965961802e+000	 9.191216887885801e+000
 4.918208161133116e-001	 4.627264716379196e+000	 9.178474830301594e+000
 4.464460030390218e-001	 4.631862676326913e+000	 9.167545475354320e+000
 9.095521837519596e-001	 4.590756706229706e+000	 9.272204428628365e+000
 8.631583377544390e-001	 4.599705477679803e+000	 9.261415381076642e+000
 8.168213112293120e-001	 4.608159730162813e+000	 9.253821212128042e+000
 7.705482489554487e-001	 4.616122698372030e+000	 9.248278256598642e+000
 7.243461848999587e-001	 4.623597738838499e+000	 9.243630254227758e+000
 6.782220401026525e-001	 4.630588326165689e+000	 9.238694396230711e+000
 6.321826206934803e-001	 4.637098049238887e+000	 9.231747222250037e+000
 5.862346160422692e-001	 4.643130607414196e+000	 9.222023610610542e+000
 5.403845970398691e-001	 4.648689806691922e+000	 9.211327471247476e+000
 4.946390145096462e-001	 4.653779555879138e+000	 9.201224905185395e+000
 4.490041977481147e-001	 4.658403862745925e+000	 9.192963918552531e+000
 9.147343540974272e-001	 4.616912526292514e+000	 9.283348450212742e+000
 8.680761793267666e-001	 4.625912283336335e+000	 9.272544851923104e+000
 8.214751477571944e-001	 4.634414703893005e+000	 9.264950332714790e+000
 7.749384448749321e-001	 4.642423041085466e+000	 9.259569870043565e+000
 7.284731447230899e-001	 4.649940670568578e+000	 9.255395480857656e+000
 6.820862077740764e-001	 4.656971086742350e+000	 9.251391623623860e+000
 6.357844789357414e-001	 4.663517898939720e+000	 9.246103557951784e+000
 5.895746856905716e-001	 4.669584827593856e+000	 9.238536446960444e+000
 5.434634363670423e-001	 4.675175700389738e+000	 9.229598230625010e+000
 4.974572185420614e-001	 4.680294448404837e+000	 9.220571669353889e+000
 4.515623975732861e-001	 4.684945102243493e+000	 9.212587811355572e+000
 9.199165361022298e-001	 4.643068405201682e+000	 9.294258140379496e+000
 8.729940319637027e-001	 4.652119147953820e+000	 9.283128189316424e+000
 8.261289947556902e-001	 4.660669736692415e+000	 9.275225393774665e+000
 7.793286506718555e-001	 4.668723442970103e+000	 9.269700275776911e+000
 7.326001138313993e-001	 4.676283661565610e+000	 9.264937336315995e+000
 6.859503841394172e-001	 4.683353906675524e+000	 9.259660423128628e+000
 6.393863452817451e-001	 4.689937808080498e+000	 9.252577662888013e+000
 5.929147628536142e-001	 4.696039107290805e+000	 9.242670208313781e+000
 5.465422826212100e-001	 4.701661653676148e+000	 9.231383854955798e+000
 5.002754289150642e-001	 4.706809400584463e+000	 9.220076194347540e+000
 4.541206031540580e-001	 4.711486401454395e+000	 9.209839616105313e+000
 4.285387296057504e-001	 4.446075300271935e+000	 9.001389841305510e+000
 3.850890805500643e-001	 4.450049084339991e+000	 8.981452026191446e+000
 3.417570031782413e-001	 4.453586430291698e+000	 8.964671057333060e+000
 2.985482730329779e-001	 4.456691427433116e+000	 8.950848715298614e+000
 2.554685425323549e-001	 4.459368244970696e+000	 8.939668312979091e+000
 2.125233401846509e-001	 4.461621128336633e+000	 8.930658358076173e+000
 1.697180699191656e-001	 4.463454395533640e+000	 8.923160617772320e+000
 1.270580105308178e-001	 4.464872433502731e+000	 8.916300826180761e+000
 8.454831523620064e-002	 4.465879694517425e+000	 8.908960440512312e+000
 4.219401133867746e-002	 4.466480692607675e+000	 8.899748019357707e+000
 0.000000000000000e+000	 4.466680000016666e+000	 8.886968964388830e+000
 4.310969064089004e-001	 4.472616300914868e+000	 9.022069397920216e+000
 3.873878831668753e-001	 4.476613806624297e+000	 9.003552017572444e+000
 3.437971334569232e-001	 4.480172268884856e+000	 8.988863642391026e+000
 3.003304672990531e-001	 4.483295801413886e+000	 8.977819071103951e+000
 2.569935708536610e-001	 4.485988598306078e+000	 8.970102325007870e+000
 2.137920056316580e-001	 4.488254930336909e+000	 8.965240130107294e+000
 1.707312078212959e-001	 4.490099141285577e+000	 8.962579320466977e+000
 1.278164877294525e-001	 4.491525644281117e+000	 8.961266332472706e+000
 8.505302933503577e-002	 4.492538918175070e+000	 8.960227133709207e+000
 4.244588995207965e-002	 4.493143503944065e+000	 8.958146106247805e+000
 0.000000000000000e+000	 4.493344001125478e+000	 8.953442580549025e+000
 4.336550838514772e-001	 4.499157308192906e+000	 9.044242782269093e+000
 3.896866863581598e-001	 4.503178535549549e+000	 9.027231586230203e+000
 3.458372642453053e-001	 4.506758114124130e+000	 9.014527064287183e+000
 3.021126620102520e-001	 4.509900182045276e+000	 9.005946072382134e+000
 2.585185995557294e-001	 4.512608958295947e+000	 9.001164680762164e+000
 2.150606713952958e-001	 4.514888738994899e+000	 8.999701938052217e+000
 1.717443459761731e-001	 4.516743893697840e+000	 9.000907045190980e+000
 1.285749651172138e-001	 4.518178861721836e+000	 9.003948036064271e+000
 8.555774355965584e-002	 4.519198148496463e+000	 9.007800244659501e+000
 4.269776862821956e-002	 4.519806321945047e+000	 9.011233023569515e+000
 0.000000000000000e+000	 4.520008008899155e+000	 9.012793363888559e+000
 4.362132625730023e-001	 4.525698328740825e+000	 9.067606291421216e+000
 3.919854906986117e-001	 4.529743277756488e+000	 9.052212300248204e+000
 3.478773960534283e-001	 4.533343972655577e+000	 9.041417146913926e+000
 3.038948576121460e-001	 4.536504575978025e+000	 9.035024489470956e+000
 2.600436290198505e-001	 4.539229331595073e+000	 9.032689576099156e+000
 2.163293377927728e-001	 4.541522560968785e+000	 9.033913771521108e+000
 1.727574846371275e-001	 4.543388659431392e+000	 9.038041950492962e+000
 1.293334428837651e-001	 4.544832092488000e+000	 9.044260780340913e+000
 8.606245803627605e-002	 4.545857392146253e+000	 9.051596106788891e+000
 4.294964743008914e-002	 4.546469153276179e+000	 9.058907851552680e+000
 0.000000000000000e+000	 4.546672030003566e+000	 9.064881024495122e+000
 4.387714432129979e-001	 4.552239369193409e+000	 9.091874932929709e+000
 3.942842967629250e-001	 4.556308039885857e+000	 9.078229909942454e+000
 3.499175293913340e-001	 4.559929851125254e+000	 9.069298491778257e+000
 3.056770545503056e-001	 4.563108989862871e+000	 9.064851519674807e+000
 2.615686596273151e-001	 4.565849724858241e+000	 9.064506269910476e+000
 2.175980051412969e-001	 4.568156402916755e+000	 9.067732241388958e+000
 1.737706240574891e-001	 4.570033445147191e+000	 9.073859234998173e+000
 1.300919212187698e-001	 4.571485343242732e+000	 9.082085669801590e+000
 8.656717289111159e-002	 4.572516655789086e+000	 9.091485282998598e+000
 4.320152642068027e-002	 4.573132004603027e+000	 9.101010564359108e+000
 0.000000000000000e+000	 4.573336071104578e+000	 9.109491479568392e+000
 4.413296264109850e-001	 4.578780436185433e+000	 9.116782578000876e+000
 3.965831051257935e-001	 4.582872828578392e+000	 9.105034654724443e+000
 3.519576647690631e-001	 4.586515756179225e+000	 9.097944952341898e+000
 3.074592532703023e-001	 4.589713430350549e+000	 9.095227441335180e+000
 2.630936917594145e-001	 4.592470144740219e+000	 9.096439928664003e+000
 2.188666737580767e-001	 4.594790271496990e+000	 9.101001624057714e+000
 1.747837644905881e-001	 4.596678257506201e+000	 9.108212389171808e+000
 1.308504003118915e-001	 4.598138620649134e+000	 9.117271535662022e+000
 8.707188825037780e-002	 4.599175946089609e+000	 9.127294250035044e+000
 4.345340566298491e-002	 4.599794882591152e+000	 9.137323936763517e+000
 0.000000000000000e+000	 4.600000138868055e+000	 9.146338984609864e+000
 4.438878128064858e-001	 4.605321536351674e+000	 9.142082096618850e+000
 3.988819163619112e-001	 4.609437650474841e+000	 9.132391548626064e+000
 3.539978026966568e-001	 4.613101694463545e+000	 9.127140083164262e+000
 3.092414542177066e-001	 4.616317904091794e+000	 9.125956238299180e+000
 2.646187257974394e-001	 4.619090597895789e+000	 9.128312436412571e+000
 2.201353439603201e-001	 4.621424173367672e+000	 9.133554865747522e+000
 1.757969061897544e-001	 4.623323103169382e+000	 9.140934401186751e+000
 1.316088803527938e-001	 4.624791931370332e+000	 9.149636349171026e+000
 8.757660424028992e-002	 4.625835269712468e+000	 9.158807023733758e+000
 4.370528521999494e-002	 4.626457793906114e+000	 9.167575384443243e+000
 0.000000000000000e+000	 4.626664239959867e+000	 9.175068190549727e+000
 4.464460030390218e-001	 4.631862676326913e+000	 9.167545475354320e+000
 4.011807310459722e-001	 4.636002512215940e+000	 9.160080645347396e+000
 3.560379436841565e-001	 4.639687672624278e+000	 9.156677564864626e+000
 3.110236578380897e-001	 4.642922417737343e+000	 9.156846195979474e+000
 2.661437621226806e-001	 4.645711090979727e+000	 9.159943171660803e+000
 2.214040160652356e-001	 4.648058115186988e+000	 9.165214548426441e+000
 1.768100494083184e-001	 4.649967988797697e+000	 9.171838918742354e+000
 1.323673615311400e-001	 4.651445282069431e+000	 9.178968584741941e+000
 8.808132098706309e-002	 4.652494633322308e+000	 9.185766727513730e+000
 4.395716515470233e-002	 4.653120745213482e+000	 9.191438740543893e+000
 0.000000000000000e+000	 4.653328381045878e+000	 9.195256129784491e+000
 4.490041977481147e-001	 4.658403862745925e+000	 9.192963918552531e+000
 4.034795497526701e-001	 4.662567420442431e+000	 9.187897283649164e+000
 3.580780882416032e-001	 4.666273697307478e+000	 9.186361605873184e+000
 3.128058645770226e-001	 4.669526977937935e+000	 9.187562758754313e+000
 2.676688011164292e-001	 4.672331630646809e+000	 9.190568847078865e+000
 2.226726903900313e-001	 4.674692103613121e+000	 9.194662564155445e+000
 1.778231943996100e-001	 4.676612921052107e+000	 9.199088924992713e+000
 1.331258440365939e-001	 4.678098679409549e+000	 9.203083596432837e+000
 8.858603861691267e-002	 4.679154043583776e+000	 9.205902597976335e+000
 4.420904553009895e-002	 4.679783743178811e+000	 9.206850263963561e+000
 0.000000000000000e+000	 4.679992568791956e+000	 9.205305662030126e+000
 4.515623975732861e-001	 4.684945102243493e+000	 9.212587811355572e+000
 4.057783730566993e-001	 4.689132381795057e+000	 9.206853629744852e+000
 3.601182368790378e-001	 4.692859775159207e+000	 9.203691800390356e+000
 3.145880748800762e-001	 4.696131591344303e+000	 9.202622457828893e+000
 2.691938431599759e-001	 4.698952223551812e+000	 9.203057952278838e+000
 2.239413672519154e-001	 4.701326145304251e+000	 9.204338181090103e+000
 1.788363414169593e-001	 4.703257906593571e+000	 9.205763517822568e+000
 1.338843280588187e-001	 4.704752130053802e+000	 9.206625588358827e+000
 8.909075725605382e-002	 4.705813507161520e+000	 9.206236128971508e+000
 4.446092640917675e-002	 4.706446794467667e+000	 9.203954145768032e+000
 0.000000000000000e+000	 4.706656809863968e+000	 9.199211578629289e+000
 4.541206031540580e-001	 4.711486401454395e+000	 9.209839616105313e+000
 4.080772015327535e-001	 4.715697402914556e+000	 9.201758332076039e+000
 3.621583901065020e-001	 4.719445912825524e+000	 9.196112885127757e+000
 3.163702891928216e-001	 4.722736264607185e+000	 9.192514779998636e+000
 2.707188886346119e-001	 4.725572876349515e+000	 9.190471803200778e+000
 2.252100469680961e-001	 4.727960246918567e+000	 9.189422301114558e+000
 1.798494907136967e-001	 4.729902952083056e+000	 9.188767069055738e+000
 1.346428137874782e-001	 4.731405640665301e+000	 9.187899112244569e+000
 8.959547703070191e-002	 4.732473030720189e+000	 9.186231524135597e+000
 4.471280785492766e-002	 4.733109905745613e+000	 9.183223711064796e+000
 0.000000000000000e+000	 4.733321110927780e+000	 9.178406174857413e+000
 4.733321110927780e+000	 0.000000000000000e+000	 1.037798253547934e+001
 4.733109905745614e+000	 4.471280785492782e-002	 1.037410958844613e+001
 4.732473030720188e+000	 8.959547703070217e-002	 1.037163775087739e+001
 4.731405640665302e+000	 1.346428137874779e-001	 1.037031829349145e+001
 4.729902952083056e+000	 1.798494907136964e-001	 1.036990762189101e+001
 4.727960246918567e+000	 2.252100469680961e-001	 1.037017427367022e+001
 4.725572876349514e+000	 2.707188886346120e-001	 1.037090644816732e+001
 4.722736264607185e+000	 3.163702891928218e-001	 1.037192013514097e+001
 4.719445912825525e+000	 3.621583901065016e-001	 1.037306791429179e+001
 4.715697402914556e+000	 4.080772015327532e-001	 1.037424850307560e+001
 4.711486401454396e+000	 4.541206031540578e-001	 1.037541713559955e+001
 4.759989469820151e+000	 0.000000000000000e+000	 1.038373323490754e+001
 4.759777074671016e+000	 4.496472763253102e-002	 1.037990622628715e+001
 4.759136611380217e+000	 9.010027361466881e-002	 1.037713262939764e+001
 4.758063207462941e+000	 1.354014149440845e-001	 1.037523712377118e+001
 4.756552052470238e+000	 1.808627941936055e-001	 1.037404698745439e+001
 4.754598401764884e+000	 2.264789197545885e-001	 1.037339871683294e+001
 4.752197580332300e+000	 2.722441661938199e-001	 1.037314516135395e+001
 4.749344986623096e+000	 3.181527747266116e-001	 1.037316324166535e+001
 4.746036096423839e+000	 3.641988538086731e-001	 1.037336232566499e+001
 4.742266466752271e+000	 4.103763798492339e-001	 1.037369334281308e+001
 4.738031739773277e+000	 4.566791980477859e-001	 1.037415872274469e+001
 4.786657848721421e+000	 0.000000000000000e+000	 1.038330737339566e+001
 4.786444263604396e+000	 4.521664759929026e-002	 1.038025934780892e+001
 4.785800212045456e+000	 9.060507057761931e-002	 1.037792480133924e+001
 4.784720794261157e+000	 1.361600166701585e-001	 1.037619380624608e+001
 4.783201172851483e+000	 1.818760984341038e-001	 1.037495694274002e+001
 4.781236576596880e+000	 2.277477934934140e-001	 1.037411154745955e+001
 4.778822304290480e+000	 2.737694448977088e-001	 1.037356845769232e+001
 4.775953728602227e+000	 3.199352615980164e-001	 1.037325932209950e+001
 4.772626299971281e+000	 3.662393190419610e-001	 1.037314455501548e+001
 4.768835550523108e+000	 4.126755598908812e-001	 1.037322201760239e+001
 4.764577098007343e+000	 4.592377948612594e-001	 1.037353651517120e+001
 4.813326200962828e+000	 0.000000000000000e+000	 1.037797692255651e+001
 4.813111425879085e+000	 4.546856731450769e-002	 1.037623105367037e+001
 4.812463786055540e+000	 9.110986703643684e-002	 1.037487368122998e+001
 4.811378354410160e+000	 1.369186176384996e-001	 1.037385242968359e+001
 4.809850266591902e+000	 1.828894016623030e-001	 1.037311378862460e+001
 4.807874724798891e+000	 2.290166659644496e-001	 1.037260899533159e+001
 4.805447001632020e+000	 2.752947220774363e-001	 1.037230039245045e+001
 4.802562443980586e+000	 3.217177466880521e-001	 1.037216833381499e+001
 4.799216476936393e+000	 3.682797822358816e-001	 1.037221871806659e+001
 4.795404607732644e+000	 4.149747376344186e-001	 1.037249123629846e+001
 4.791122429703764e+000	 4.617963891171834e-001	 1.037306842634188e+001
 4.839994479875599e+000	 0.000000000000000e+000	 1.036898555028044e+001
 4.839778514828407e+000	 4.572048633748538e-002	 1.036886014464403e+001
 4.839127286750117e+000	 9.161466210800462e-002	 1.036882016689103e+001
 4.838035841260179e+000	 1.376772165219083e-001	 1.036886312829776e+001
 4.836499287056592e+000	 1.839027021053143e-001	 1.036898421245966e+001
 4.834512799755251e+000	 2.302855349475718e-001	 1.036918179678202e+001
 4.832071625764876e+000	 2.768199950641596e-001	 1.036946342701658e+001
 4.829171086194195e+000	 3.235002268777344e-001	 1.036985232007641e+001
 4.825806580787717e+000	 3.703202398199507e-001	 1.037039447738878e+001
 4.821973591886459e+000	 4.172739090565691e-001	 1.037116649797733e+001
 4.817667688409711e+000	 4.643549763382627e-001	 1.037228418722982e+001
 4.866662638790971e+000	 0.000000000000000e+000	 1.035754939480625e+001
 4.866445483785694e+000	 4.597240422752544e-002	 1.035916276451135e+001
 4.865790667468827e+000	 9.211945490920574e-002	 1.036058715546189e+001
 4.864693208161425e+000	 1.384358119931847e-001	 1.036186247528785e+001
 4.863148187610657e+000	 1.849159979902493e-001	 1.036302556358579e+001
 4.861150754850293e+000	 2.315543982226573e-001	 1.036411535672377e+001
 4.858696130097010e+000	 2.783452611890360e-001	 1.036517848205546e+001
 4.855779608679063e+000	 3.252826990480789e-001	 1.036627535901288e+001
 4.852396564993790e+000	 3.723606882236841e-001	 1.036748689194542e+001
 4.848542456490132e+000	 4.195730701340565e-001	 1.036892184688573e+001
 4.844212827672349e+000	 4.669135520472020e-001	 1.037072501156968e+001
 4.893330631040176e+000	 0.000000000000000e+000	 1.034485781371550e+001
 4.893112286084271e+000	 4.622432054392998e-002	 1.034813302210977e+001
 4.892453881551311e+000	 9.262424455692345e-002	 1.035098004264852e+001
 4.891350408464123e+000	 1.391944027251289e-001	 1.035347386351265e+001
 4.889796921619200e+000	 1.859292875442192e-001	 1.035568611973433e+001
 4.887788543468358e+000	 2.328232535695832e-001	 1.035768990515419e+001
 4.885320468036373e+000	 2.798705177832224e-001	 1.035956498856507e+001
 4.882387964871203e+000	 3.270651600801012e-001	 1.036140351374787e+001
 4.878986383023156e+000	 3.744011238765979e-001	 1.036331627088750e+001
 4.875111155049246e+000	 4.218722168436039e-001	 1.036543963456063e+001
 4.870757801038845e+000	 4.694721117667059e-001	 1.036794327102881e+001
 4.919998409954449e+000	 0.000000000000000e+000	 1.033207410879301e+001
 4.919778875057467e+000	 4.647623484600112e-002	 1.033674359331504e+001
 4.919116882337212e+000	 9.312903016804093e-002	 1.034078720582483e+001
 4.918007395518489e+000	 1.399529873905411e-001	 1.034430787378353e+001
 4.916445442447325e+000	 1.869425689943357e-001	 1.034740534465812e+001
 4.914426118993778e+000	 2.340920987682258e-001	 1.035018064834302e+001
 4.911944592990930e+000	 2.813957621778768e-001	 1.035274093691227e+001
 4.908996108206632e+000	 3.288476068548174e-001	 1.035520478364397e+001
 4.905575988344355e+000	 3.764415432082078e-001	 1.035770803143742e+001
 4.901679641069378e+000	 4.241713451619347e-001	 1.036041028884949e+001
 4.897302562056371e+000	 4.720306510194794e-001	 1.036350217992669e+001
 4.946665928865022e+000	 0.000000000000000e+000	 1.032033622765592e+001
 4.946445204038611e+000	 4.672814669304094e-002	 1.032594630370874e+001
 4.945779623166172e+000	 9.363381085944132e-002	 1.033078047159092e+001
 4.944664122674740e+000	 1.407115646622214e-001	 1.033496263123868e+001
 4.943093703460129e+000	 1.879558405677100e-001	 1.033861413731910e+001
 4.941063434810887e+000	 2.353609315984621e-001	 1.034185791490175e+001
 4.938568458368636e+000	 2.829209917041559e-001	 1.034482292392276e+001
 4.935603992121361e+000	 3.306300362532426e-001	 1.034764905662073e+001
 4.932165334425927e+000	 3.784819426480299e-001	 1.035049256070935e+001
 4.928247868056106e+000	 4.264704510657721e-001	 1.035353208957370e+001
 4.923847064272091e+000	 4.745891653282273e-001	 1.035697548914613e+001
 4.973333141103128e+000	 0.000000000000000e+000	 1.031075744301555e+001
 4.973111226361028e+000	 4.698005564435157e-002	 1.031667269264929e+001
 4.972442057377832e+000	 9.413858574800782e-002	 1.032171556836583e+001
 4.971320543283099e+000	 1.414701332129701e-001	 1.032602415024119e+001
 4.969741658022721e+000	 1.889691004914536e-001	 1.032973507294602e+001
 4.967700444304020e+000	 2.366297498401687e-001	 1.033298729692455e+001
 4.965192017577452e+000	 2.844462036932173e-001	 1.033592619809726e+001
 4.962211570051403e+000	 3.324124451563927e-001	 1.033870806250530e+001
 4.958754374736414e+000	 3.805223186255800e-001	 1.034150508131984e+001
 4.954815789515014e+000	 4.287695305318400e-001	 1.034451095058871e+001
 4.950391261233177e+000	 4.771476502156544e-001	 1.034794718889570e+001
 5.000000000000000e+000	 0.000000000000000e+000	 1.030442701039942e+001
 4.999776895358052e+000	 4.723196125923512e-002	 1.030983455943414e+001
 4.999104138311836e+000	 9.464335395062359e-002	 1.031433256456783e+001
 4.997976610693785e+000	 1.422286917155873e-001	 1.031806666822519e+001
 4.996389259500201e+000	 1.899823469926779e-001	 1.032118263626258e+001
 4.994337100857515e+000	 2.378985512732224e-001	 1.032382978638265e+001
 4.991815224025335e+000	 2.859713954762181e-001	 1.032616470302304e+001
 4.988818795432773e+000	 3.341948304452838e-001	 1.032835532737811e+001
 4.985343062744358e+000	 3.825626675703741e-001	 1.033058552064870e+001
 4.981383358951679e+000	 4.310685795368612e-001	 1.033306020800504e+001
 4.976935106486797e+000	 4.797061012044654e-001	 1.033601121999680e+001
 4.711486401454396e+000	 4.541206031540578e-001	 1.037541713559955e+001
 4.706809400584461e+000	 5.002754289150643e-001	 1.037718521473698e+001
 4.701661653676148e+000	 5.465422826212096e-001	 1.038038350286529e+001
 4.696039107290806e+000	 5.929147628536142e-001	 1.038540583036838e+001
 4.689937808080498e+000	 6.393863452817449e-001	 1.039273867840891e+001
 4.683353906675524e+000	 6.859503841394172e-001	 1.040270184365838e+001
 4.676283661565610e+000	 7.326001138313998e-001	 1.041328365648576e+001
 4.668723442970103e+000	 7.793286506718558e-001	 1.042375230243543e+001
 4.660669736692414e+000	 8.261289947556906e-001	 1.043382587815117e+001
 4.652119147953820e+000	 8.729940319637025e-001	 1.044317243096731e+001
 4.643068405201682e+000	 9.199165361022299e-001	 1.045164114408937e+001
 4.738031739773277e+000	 4.566791980477859e-001	 1.037415872274469e+001
 4.733328387862385e+000	 5.030940681690770e-001	 1.037528631619276e+001
 4.728151637647651e+000	 5.496215974204831e-001	 1.037779491722290e+001
 4.722497412852645e+000	 5.962553483164128e-001	 1.038207476301119e+001
 4.716361737855573e+000	 6.429887597671158e-001	 1.038860256714449e+001
 4.709740741598712e+000	 6.898151485630015e-001	 1.039759583958948e+001
 4.702630661491456e+000	 7.367277109902937e-001	 1.040717414511470e+001
 4.695027847302340e+000	 7.837195245792673e-001	 1.041680335377519e+001
 4.686928765035166e+000	 8.307835499861415e-001	 1.042629647785748e+001
 4.678330000784434e+000	 8.779126330095242e-001	 1.043547070223793e+001
 4.669228264565003e+000	 9.250995067421184e-001	 1.044414614014068e+001
 4.764577098007343e+000	 4.592377948612594e-001	 1.037353651517120e+001
 4.759847395035628e+000	 5.059127095378930e-001	 1.037453517829883e+001
 4.754641641492657e+000	 5.527009145300991e-001	 1.037682513888341e+001
 4.748955738264196e+000	 5.995959362855475e-001	 1.038078509366572e+001
 4.742785687454573e+000	 6.465911769552420e-001	 1.038687478965018e+001
 4.736127596318020e+000	 6.936799158861571e-001	 1.039520367035924e+001
 4.728977681183593e+000	 7.408553112459421e-001	 1.040405099976990e+001
 4.721332271368975e+000	 7.881104017809547e-001	 1.041303705205497e+001
 4.713187813078357e+000	 8.354381087086968e-001	 1.042200776369879e+001
 4.704540873279440e+000	 8.828312377455565e-001	 1.043081038328999e+001
 4.695388143554560e+000	 9.302824812705676e-001	 1.043929215933255e+001
 4.791122429703764e+000	 4.617963891171834e-001	 1.037306842634188e+001
 4.786366375697530e+000	 5.087313480891076e-001	 1.037432217558443e+001
 4.781131618855300e+000	 5.557802285614466e-001	 1.037675092667138e+001
 4.775414037225055e+000	 6.029365209151659e-001	 1.038071415119429e+001
 4.769209610637268e+000	 6.501935905420583e-001	 1.038664768490437e+001
 4.762514424658146e+000	 6.975446793456980e-001	 1.039455081661834e+001
 4.755324674536412e+000	 7.449829073751971e-001	 1.040288121698069e+001
 4.747636669138935e+000	 7.925012745930328e-001	 1.041137648308815e+001
 4.739446834870297e+000	 8.400926627780260e-001	 1.041991091672243e+001
 4.730751719571419e+000	 8.877498375643830e-001	 1.042835826995645e+001
 4.721547996392131e+000	 9.354654506175090e-001	 1.043659039645637e+001
 4.817667688409711e+000	 4.643549763382627e-001	 1.037228418722982e+001
 4.812885283441428e+000	 5.115499788903157e-001	 1.037405225857726e+001
 4.807621523379715e+000	 5.588595341259147e-001	 1.037686605201441e+001
 4.801872263434824e+000	 6.062770963594154e-001	 1.038105839183408e+001
 4.795633461163435e+000	 6.537959942234990e-001	 1.038703451254974e+001
 4.788901180443781e+000	 7.014094321784387e-001	 1.039468456708966e+001
 4.781671595444322e+000	 7.491104921549108e-001	 1.040265476328394e+001
 4.773940994581147e+000	 7.968921353316147e-001	 1.041076852993830e+001
 4.765705784459295e+000	 8.447472040487973e-001	 1.041892405096947e+001
 4.756962493792951e+000	 8.926684238585888e-001	 1.042701808914701e+001
 4.747707777299494e+000	 9.406484057128738e-001	 1.043494463220687e+001
 4.844212827672349e+000	 4.669135520472020e-001	 1.037072501156968e+001
 4.839404071860662e+000	 5.143685970091132e-001	 1.037314453581420e+001
 4.834111308710036e+000	 5.619388258348922e-001	 1.037648080574344e+001
 4.828330370593108e+000	 6.096176567724444e-001	 1.038103283893616e+001
 4.822057192792849e+000	 6.573983816954989e-001	 1.038716883383529e+001
 4.815287817499625e+000	 7.052741676211931e-001	 1.039467337901911e+001
 4.808018397801715e+000	 7.532380583619343e-001	 1.040238389630468e+001
 4.800245201664535e+000	 8.012829763128148e-001	 1.041018316305244e+001
 4.791964615893655e+000	 8.494017243756789e-001	 1.041798883549105e+001
 4.783173150076617e+000	 8.975869880207577e-001	 1.042571725965528e+001
 4.773867440498422e+000	 9.458313374865937e-001	 1.043328214352402e+001
 4.870757801038845e+000	 4.694721117667059e-001	 1.036794327102881e+001
 4.865922694548569e+000	 5.171871975130948e-001	 1.037103186830207e+001
 4.860600928490404e+000	 5.650180982997678e-001	 1.037492151960260e+001
 4.854788312399505e+000	 6.129581963083999e-001	 1.037987053940044e+001
 4.848480759285287e+000	 6.610007466539924e-001	 1.038620391096455e+001
 4.841674289650374e+000	 7.091388789107757e-001	 1.039360625848247e+001
 4.834365035503001e+000	 7.573655987731198e-001	 1.040110250684271e+001
 4.826549244358028e+000	 8.056737898527467e-001	 1.040861275226765e+001
 4.818223283221691e+000	 8.540562156133400e-001	 1.041606978446779e+001
 4.809383642555000e+000	 9.025055214434747e-001	 1.042340616863075e+001
 4.800026940210696e+000	 9.510142368686005e-001	 1.043055297469813e+001
 4.897302562056371e+000	 4.720306510194794e-001	 1.036350217992669e+001
 4.892441105098484e+000	 5.200057754698558e-001	 1.036716047596179e+001
 4.887090336364951e+000	 5.680973461319306e-001	 1.037153010191758e+001
 4.881246042553618e+000	 6.162987091214294e-001	 1.037682203618127e+001
 4.874904114400523e+000	 6.646030827949143e-001	 1.038331212416083e+001
 4.868060550720721e+000	 7.130035592839998e-001	 1.039059215980393e+001
 4.860711462442573e+000	 7.614931061653185e-001	 1.039786548117826e+001
 4.852853076630552e+000	 8.100645682675247e-001	 1.040507139987211e+001
 4.844481740491708e+000	 8.587106696164488e-001	 1.041215356894521e+001
 4.835593925360677e+000	 9.074240155193241e-001	 1.041905746995289e+001
 4.826186230658091e+000	 9.561970947888256e-001	 1.042572923038720e+001
 4.923847064272091e+000	 4.745891653282273e-001	 1.035697548914613e+001
 4.918959257103752e+000	 5.228243259469916e-001	 1.036098955560937e+001
 4.913579485977811e+000	 5.711765639427692e-001	 1.036566358689503e+001
 4.907703514755047e+000	 6.196391893656807e-001	 1.037115485626511e+001
 4.901327211898328e+000	 6.682053838141988e-001	 1.037768375845284e+001
 4.894446554535365e+000	 7.168682019776804e-001	 1.038475940337422e+001
 4.887057632514837e+000	 7.656205733153826e-001	 1.039174808284341e+001
 4.879156652451032e+000	 8.144553038732628e-001	 1.039859429393656e+001
 4.870739941752015e+000	 8.633650782396735e-001	 1.040524834938081e+001
 4.861803952626233e+000	 9.123424616408908e-001	 1.041166540369327e+001
 4.852345266062381e+000	 9.613799021772007e-001	 1.041780438973205e+001
 4.950391261233177e+000	 4.771476502156544e-001	 1.034794718889570e+001
 4.945477104157705e+000	 5.256428440120975e-001	 1.035199091004575e+001
 4.940068330973120e+000	 5.742557463436725e-001	 1.035669369704794e+001
 4.934160682703396e+000	 6.229796311953015e-001	 1.036215301354749e+001
 4.927750005538484e+000	 6.718076434077811e-001	 1.036852314280127e+001
 4.920832254918999e+000	 7.207328002286313e-001	 1.037525511118644e+001
 4.913403499614191e+000	 7.697479930001636e-001	 1.038184535313837e+001
 4.905459925788396e+000	 8.188459889860744e-001	 1.038823708116553e+001
 4.896997841050921e+000	 8.680194333376835e-001	 1.039438312823232e+001
 4.888013678484247e+000	 9.172608512007584e-001	 1.040024513588541e+001
 4.878504000645348e+000	 9.665626499636572e-001	 1.040579264078959e+001
 4.976935106486797e+000	 4.797061012044654e-001	 1.033601121999680e+001
 4.971994599853684e+000	 5.284613247327683e-001	 1.033964858784644e+001
 4.966556824995020e+000	 5.773348879460297e-001	 1.034400641826340e+001
 4.960617500098262e+000	 6.263200287644395e-001	 1.034911652606053e+001
 4.954172449080763e+000	 6.754098552715953e-001	 1.035505771210585e+001
 4.947217605696318e+000	 7.245973472736667e-001	 1.036124465943644e+001
 4.939749017635035e+000	 7.738753579965135e-001	 1.036727152970179e+001
 4.931762850611571e+000	 8.232366159220740e-001	 1.037307525854980e+001
 4.923255392436735e+000	 8.726737267651470e-001	 1.037860712185008e+001
 4.914223057067300e+000	 9.221791755915121e-001	 1.038383211785591e+001
 4.904662388628768e+000	 9.717453290781268e-001	 1.038872823453781e+001
 4.643068405201682e+000	 9.199165361022299e-001	 1.045164114408937e+001
 4.633512893397807e+000	 9.668962193495462e-001	 1.045910688208152e+001
 4.623450920909602e+000	 1.013918590844765e+000	 1.046572145334328e+001
 4.612879611221273e+000	 1.060976087736484e+000	 1.047179846378260e+001
 4.601796226075082e+000	 1.108061044715826e+000	 1.047767463651105e+001
 4.590198169078671e+000	 1.155165696837305e+000	 1.048370341982030e+001
 4.578082989255348e+000	 1.202282182474619e+000	 1.049024584838188e+001
 4.565448384531957e+000	 1.249402546410591e+000	 1.049765852731902e+001
 4.552292205158868e+000	 1.296518743060276e+000	 1.050627817278759e+001
 4.538612457056609e+000	 1.343622639825983e+000	 1.051637261921470e+001
 4.524407305083716e+000	 1.390706020582740e+000	 1.052736615501555e+001
 4.669228264565003e+000	 9.250995067421184e-001	 1.044414614014068e+001
 4.659618915336746e+000	 9.723438817405616e-001	 1.045210293625377e+001
 4.649500251936108e+000	 1.019631185499926e+000	 1.045929734373236e+001
 4.638869381640498e+000	 1.066953812558382e+000	 1.046597431338927e+001
 4.627723550764356e+000	 1.114304054419368e+000	 1.047240806827057e+001
 4.616060148286781e+000	 1.161674102388337e+000	 1.047888933382520e+001
 4.603876709421853e+000	 1.209056050545213e+000	 1.048571797927167e+001
 4.591170919126121e+000	 1.256441898851737e+000	 1.049319287682450e+001
 4.577940615537888e+000	 1.303823556392735e+000	 1.050159840237582e+001
 4.564183793342687e+000	 1.351192844750042e+000	 1.051111219537789e+001
 4.549898607059532e+000	 1.398541501507601e+000	 1.052116771881212e+001
 4.695388143554560e+000	 9.302824812705676e-001	 1.043929215933255e+001
 4.685724956861634e+000	 9.777915482187314e-001	 1.044731683503548e+001
 4.675549602506141e+000	 1.025343784441016e+000	 1.045493085906353e+001
 4.664859171558672e+000	 1.072931541865137e+000	 1.046225567188938e+001
 4.653650894905826e+000	 1.120547068806811e+000	 1.046931120512570e+001
 4.641922146898159e+000	 1.168182512822401e+000	 1.047624922189297e+001
 4.629670448940495e+000	 1.215829923698024e+000	 1.048331238778557e+001
 4.616893473019093e+000	 1.263481256574304e+000	 1.049074686436993e+001
 4.603589045160168e+000	 1.311128375205806e+000	 1.049879090625931e+001
 4.589755148814240e+000	 1.358763055353852e+000	 1.050753757061513e+001
 4.575389928160807e+000	 1.406376988311272e+000	 1.051651327923490e+001
 4.721547996392131e+000	 9.354654506175090e-001	 1.043659039645637e+001
 4.711830972288418e+000	 9.832392092507670e-001	 1.044449380864622e+001
 4.701598927034792e+000	 1.031056377671105e+000	 1.045210838732701e+001
 4.690848935495056e+000	 1.078909265195828e+000	 1.045953483029245e+001
 4.679578213127978e+000	 1.126790076952974e+000	 1.046686854194627e+001
 4.667784119655580e+000	 1.174690916749863e+000	 1.047419767826253e+001
 4.655464162673451e+000	 1.222603790078849e+000	 1.048153796296751e+001
 4.642616001197560e+000	 1.270520607259488e+000	 1.048895068126514e+001
 4.629237449142049e+000	 1.318433186716127e+000	 1.049663240165572e+001
 4.615326478722450e+000	 1.366333258389628e+000	 1.050461152904817e+001
 4.600881223778736e+000	 1.414212467281752e+000	 1.051255670001654e+001
 4.747707777299494e+000	 9.406484057128738e-001	 1.043494463220687e+001
 4.737936915933036e+000	 9.886868553033804e-001	 1.044260726644438e+001
 4.727648179937163e+000	 1.036768955193263e+000	 1.045003955109187e+001
 4.716838627968923e+000	 1.084886972089533e+000	 1.045732696845279e+001
 4.705505460059300e+000	 1.133033067932675e+000	 1.046454778083476e+001
 4.693646021301823e+000	 1.181199302781087e+000	 1.047177104200921e+001
 4.681257805482885e+000	 1.229377637833485e+000	 1.047905433110784e+001
 4.668338458648202e+000	 1.277559938588484e+000	 1.048644138592588e+001
 4.654885782599884e+000	 1.325737978140340e+000	 1.049390705623383e+001
 4.640897738318490e+000	 1.373903440609585e+000	 1.050130311856297e+001
 4.626372449304512e+000	 1.422047924707039e+000	 1.050845470173184e+001
 4.773867440498422e+000	 9.458313374865937e-001	 1.043328214352402e+001
 4.764042742111434e+000	 9.941344768432839e-001	 1.044060081960929e+001
 4.753697315628352e+000	 1.042481507010558e+000	 1.044770305996149e+001
 4.742828203499542e+000	 1.090864652085331e+000	 1.045466740022698e+001
 4.731432590328278e+000	 1.139276030820732e+000	 1.046156477023567e+001
 4.719507806579668e+000	 1.187707659526438e+000	 1.046845649506555e+001
 4.707051332230972e+000	 1.236151455107730e+000	 1.047539202805901e+001
 4.694060800357711e+000	 1.284599238242489e+000	 1.048240656686938e+001
 4.680534000650018e+000	 1.333042736695088e+000	 1.048951852294468e+001
 4.666468882853537e+000	 1.381473588765937e+000	 1.049658790226056e+001
 4.651863560129326e+000	 1.429883346875132e+000	 1.050336725465226e+001
 4.800026940210696e+000	 9.510142368686005e-001	 1.043055297469813e+001
 4.790148405139556e+000	 9.995820643371889e-001	 1.043744026947327e+001
 4.779746288523451e+000	 1.048194023126059e+000	 1.044409881033824e+001
 4.768817616606178e+000	 1.096842294722300e+000	 1.045060838135318e+001
 4.757359558563400e+000	 1.145518954691962e+000	 1.045704230301442e+001
 4.745369430231897e+000	 1.194215975596279e+000	 1.046346544557435e+001
 4.732844697779878e+000	 1.242925230047382e+000	 1.046993197765791e+001
 4.719782981312769e+000	 1.291638493902698e+000	 1.047648297936229e+001
 4.706182058408797e+000	 1.340347449597011e+000	 1.048314264297233e+001
 4.692039867578769e+000	 1.389043689610899e+000	 1.048984166965389e+001
 4.677354511644375e+000	 1.437718720074028e+000	 1.049651031317324e+001
 4.826186230658091e+000	 9.561970947888256e-001	 1.042572923038720e+001
 4.816253859333342e+000	 1.005029608251808e+000	 1.043211290459017e+001
 4.805795053037557e+000	 1.053906493542835e+000	 1.043824719730888e+001
 4.794806821808104e+000	 1.102819889539520e+000	 1.044422126400258e+001
 4.783286319393154e+000	 1.151761828621185e+000	 1.045012045461862e+001
 4.771230847001283e+000	 1.200724239600977e+000	 1.045602436138927e+001
 4.758637856991777e+000	 1.249698950798238e+000	 1.046200459950383e+001
 4.745504956500062e+000	 1.298677693250309e+000	 1.046812243146342e+001
 4.731829910992569e+000	 1.347652104062751e+000	 1.047442666577806e+001
 4.717610647745362e+000	 1.396613729896686e+000	 1.048095994403727e+001
 4.702845259240852e+000	 1.445554030591728e+000	 1.048774358323854e+001
 4.852345266062381e+000	 9.613799021772007e-001	 1.041780438973205e+001
 4.842359059008737e+000	 1.010477099053851e+000	 1.042362680039578e+001
 4.831843563585774e+000	 1.059618908263955e+000	 1.042918844667077e+001
 4.820795773624588e+000	 1.108797426076069e+000	 1.043459585333857e+001
 4.809212827446027e+000	 1.158004641683217e+000	 1.043995597449376e+001
 4.797092011630610e+000	 1.207232440150896e+000	 1.044537420661446e+001
 4.784430764728838e+000	 1.256472605506095e+000	 1.045095223592551e+001
 4.771226680906277e+000	 1.305716823966516e+000	 1.045678568810759e+001
 4.757477513517682e+000	 1.354956687308949e+000	 1.046297307628810e+001
 4.743181178604490e+000	 1.404183696375512e+000	 1.046968759349158e+001
 4.728335758309949e+000	 1.453389264716227e+000	 1.047703094013959e+001
 4.878504000645348e+000	 9.665626499636572e-001	 1.040579264078959e+001
 4.868463958481681e+000	 1.015924527210032e+000	 1.041101023175311e+001
 4.857891774583191e+000	 1.065331257292488e+000	 1.041598196635618e+001
 4.846784426574896e+000	 1.114774893871026e+000	 1.042083978250287e+001
 4.835139037350504e+000	 1.164247382952877e+000	 1.042572169461670e+001
 4.822952878862654e+000	 1.213740565856399e+000	 1.043076989361589e+001
 4.810223375853233e+000	 1.263246182316751e+000	 1.043612865733801e+001
 4.796948109518097e+000	 1.312755873732517e+000	 1.044194203960426e+001
 4.783124821100483e+000	 1.362261186552246e+000	 1.044838662512762e+001
 4.768751415407335e+000	 1.411753575799593e+000	 1.045576870806011e+001
 4.753825964242860e+000	 1.461224408735526e+000	 1.046427247092768e+001
 4.904662388628768e+000	 9.717453290781268e-001	 1.038872823453781e+001
 4.894568512068120e+000	 1.021371883187062e+000	 1.039331091502561e+001
 4.883939640444909e+000	 1.071043530631502e+000	 1.039770571654355e+001
 4.872772735178299e+000	 1.120752282463470e+000	 1.040207790535454e+001
 4.861064903735073e+000	 1.170490041504983e+000	 1.040660595452148e+001
 4.848813403440197e+000	 1.220248605327853e+000	 1.041147974994071e+001
 4.836015645227128e+000	 1.270019669376003e+000	 1.041689858060122e+001
 4.822669197322209e+000	 1.319794830229507e+000	 1.042306888091184e+001
 4.808771788857317e+000	 1.369565589009283e+000	 1.043027430911498e+001
 4.794321313405072e+000	 1.419323354921142e+000	 1.043894670921108e+001
 4.779315832430783e+000	 1.469059448937622e+000	 1.044936435365594e+001
 4.524407305083716e+000	 1.390706020582740e+000	 1.052736615501555e+001
 4.509675075088746e+000	 1.437760588603412e+000	 1.053872976075999e+001
 4.494414253604441e+000	 1.484777968164294e+000	 1.055026557733903e+001
 4.478623494235841e+000	 1.531749710358706e+000	 1.056211516038489e+001
 4.462301621696776e+000	 1.578667297757051e+000	 1.057437227916749e+001
 4.445447634610877e+000	 1.625522148514563e+000	 1.058707041270031e+001
 4.428060708201621e+000	 1.672305620595791e+000	 1.060016891853441e+001
 4.410140196866269e+000	 1.719009016112672e+000	 1.061353780759457e+001
 4.391685636628613e+000	 1.765623585772688e+000	 1.062694106133333e+001
 4.372696747465477e+000	 1.812140533433459e+000	 1.064001843133933e+001
 4.353173435502172e+000	 1.858551020759794e+000	 1.065226566637839e+001
 4.549898607059532e+000	 1.398541501507601e+000	 1.052116771881212e+001
 4.535083373104526e+000	 1.445861183193071e+000	 1.053148205757087e+001
 4.519736569483269e+000	 1.493143466892460e+000	 1.054197229685083e+001
 4.503856842214986e+000	 1.540379856096477e+000	 1.055278097677809e+001
 4.487443009391756e+000	 1.587561785386847e+000	 1.056401034091047e+001
 4.470494063995282e+000	 1.634680624567193e+000	 1.057570999653114e+001
 4.453009176602114e+000	 1.681727682911336e+000	 1.058786321761039e+001
 4.434987697972090e+000	 1.728694213525793e+000	 1.060037181930148e+001
 4.416429161514877e+000	 1.775571417823013e+000	 1.061303953566037e+001
 4.397333285629620e+000	 1.822350450101617e+000	 1.062555383607568e+001
 4.377699975912726e+000	 1.869022422229697e+000	 1.063746612071326e+001
 4.575389928160807e+000	 1.406376988311272e+000	 1.051651327923490e+001
 4.560491690183496e+000	 1.453961783860481e+000	 1.052567770068394e+001
 4.545058904360769e+000	 1.501508971897163e+000	 1.053510806420267e+001
 4.529090209126037e+000	 1.549010008309379e+000	 1.054494291685293e+001
 4.512584415949610e+000	 1.596456279690133e+000	 1.055528551807337e+001
 4.495540512171280e+000	 1.643839107491402e+000	 1.056619165202262e+001
 4.477957663720667e+000	 1.691149752296235e+000	 1.057765605677695e+001
 4.459835217720181e+000	 1.738379418205699e+000	 1.058959739473775e+001
 4.441172704965378e+000	 1.785519257337162e+000	 1.060184169131310e+001
 4.421969842277712e+000	 1.832560374430207e+000	 1.061410417265605e+001
 4.402226534724702e+000	 1.879493831556170e+000	 1.062596943802029e+001
 4.600881223778736e+000	 1.414212467281752e+000	 1.051255670001654e+001
 4.585899981862074e+000	 1.462062376429718e+000	 1.052065486756177e+001
 4.570381213923802e+000	 1.509874468538930e+000	 1.052916325763663e+001
 4.554323550811519e+000	 1.557640151894844e+000	 1.053821140751067e+001
 4.537725797373788e+000	 1.605350765101788e+000	 1.054789612171871e+001
 4.520586935308484e+000	 1.652997581260137e+000	 1.055826942541441e+001
 4.502906125898312e+000	 1.700571812262213e+000	 1.056932511296833e+001
 4.484682712628256e+000	 1.748064613203672e+000	 1.058098381162708e+001
 4.465916223679772e+000	 1.795467086906851e+000	 1.059307648262789e+001
 4.446606374296626e+000	 1.842770288552342e+000	 1.060532628578730e+001
 4.426753069017446e+000	 1.889965230414766e+000	 1.061732873830594e+001
 4.626372449304512e+000	 1.422047924707039e+000	 1.050845470173184e+001
 4.611308203676677e+000	 1.470162946724857e+000	 1.051575136388223e+001
 4.595703453859223e+000	 1.518239942178288e+000	 1.052362538527045e+001
 4.579556823113963e+000	 1.566270271750308e+000	 1.053219223141895e+001
 4.562867109667729e+000	 1.614245226056694e+000	 1.054153476196254e+001
 4.545633289576500e+000	 1.662156029846346e+000	 1.055169131508129e+001
 4.527854519476074e+000	 1.709993846320988e+000	 1.056264236977095e+001
 4.509530139214028e+000	 1.757749781570994e+000	 1.057429570119443e+001
 4.490659674357717e+000	 1.805414889123798e+000	 1.058646994678900e+001
 4.471242838573231e+000	 1.852980174601130e+000	 1.059887650431846e+001
 4.451279535870309e+000	 1.900436600481029e+000	 1.061109968771206e+001
 4.651863560129326e+000	 1.429883346875132e+000	 1.050336725465226e+001
 4.636716311163720e+000	 1.478263480569973e+000	 1.051030515405098e+001
 4.621025579853891e+000	 1.526605378175764e+000	 1.051797973422454e+001
 4.604789981875902e+000	 1.574900352773203e+000	 1.052648727569718e+001
 4.588008308834882e+000	 1.623139646989730e+000	 1.053588917716462e+001
 4.570679531144937e+000	 1.671314437222977e+000	 1.054620016219371e+001
 4.552802800794987e+000	 1.719415837984281e+000	 1.055737505055535e+001
 4.534377453995210e+000	 1.767434906358946e+000	 1.056929400482231e+001
 4.515403013698872e+000	 1.815362646579719e+000	 1.058174616513165e+001
 4.495879191994396e+000	 1.863190014709682e+000	 1.059441158839941e+001
 4.475805892362633e+000	 1.910907923430507e+000	 1.060684141284309e+001
 4.677354511644375e+000	 1.437718720074028e+000	 1.049651031317324e+001
 4.662124259859619e+000	 1.486363963789141e+000	 1.050365489043162e+001
 4.646347547594663e+000	 1.534970761891882e+000	 1.051171001549642e+001
 4.630022982939863e+000	 1.583530379860966e+000	 1.052069527400582e+001
 4.613149350878688e+000	 1.632034012335777e+000	 1.053064305480445e+001
 4.595725616183406e+000	 1.680472787362977e+000	 1.054153453196886e+001
 4.577750926196078e+000	 1.728837770763812e+000	 1.055328654172306e+001
 4.559224613489509e+000	 1.777119970618810e+000	 1.056573692096299e+001
 4.540146198402895e+000	 1.825310341866332e+000	 1.057862821545379e+001
 4.520515391446991e+000	 1.873399791011110e+000	 1.059158966900876e+001
 4.500332095573771e+000	 1.921379180938751e+000	 1.060411740942505e+001
 4.702845259240852e+000	 1.445554030591728e+000	 1.048774358323854e+001
 4.687532005300790e+000	 1.494464382206437e+000	 1.049535772812170e+001
 4.671669312768399e+000	 1.543336078687172e+000	 1.050430783255142e+001
 4.655255782148381e+000	 1.592160337911028e+000	 1.051441254224912e+001
 4.638290191802595e+000	 1.640928306529714e+000	 1.052547684431410e+001
 4.620771500861515e+000	 1.689631064239296e+000	 1.053742958582145e+001
 4.602698852020377e+000	 1.738259628171301e+000	 1.055013730639265e+001
 4.584071574214639e+000	 1.786804957401869e+000	 1.056338084262227e+001
 4.564889185169442e+000	 1.835257957575353e+000	 1.057683911562167e+001
 4.545151393817889e+000	 1.883609485638523e+000	 1.059007118008175e+001
 4.524858102583068e+000	 1.931850354681308e+000	 1.060249644545080e+001
 4.728335758309949e+000	 1.453389264716227e+000	 1.047703094013959e+001
 4.712939503023649e+000	 1.502564721645936e+000	 1.048556747656483e+001
 4.696990831061950e+000	 1.551701313922157e+000	 1.049572262783911e+001
 4.680488335343984e+000	 1.600790211820825e+000	 1.050730914980699e+001
 4.663430787610049e+000	 1.649822514006423e+000	 1.052006856212662e+001
 4.645817141348873e+000	 1.698789251824879e+000	 1.053361794470936e+001
 4.627646534608913e+000	 1.747681393718468e+000	 1.054768578883433e+001
 4.608918292688312e+000	 1.796489849759405e+000	 1.056198128571667e+001
 4.589631930698174e+000	 1.845205476298499e+000	 1.057610275874005e+001
 4.569787155993959e+000	 1.893819080725033e+000	 1.058951978345768e+001
 4.549383870469874e+000	 1.942321426333725e+000	 1.060155345895694e+001
 4.753825964242860e+000	 1.461224408735526e+000	 1.046427247092768e+001
 4.738346708564612e+000	 1.510664967931713e+000	 1.047434114518544e+001
 4.722312058162186e+000	 1.560066452957368e+000	 1.048620010683613e+001
 4.705720598369203e+000	 1.609419986487791e+000	 1.049962310896057e+001
 4.688571094304491e+000	 1.658716619200784e+000	 1.051430164454229e+001
 4.670862493815088e+000	 1.707947334092675e+000	 1.052983574149801e+001
 4.652593930302718e+000	 1.757103050917035e+000	 1.054568930994720e+001
 4.633764725428239e+000	 1.806174630742699e+000	 1.056129380858986e+001
 4.614374391688747e+000	 1.855152880627489e+000	 1.057614484014504e+001
 4.594422634862072e+000	 1.904028558403749e+000	 1.058960328685463e+001
 4.573909356313535e+000	 1.952792377571551e+000	 1.060087045057041e+001
 4.779315832430783e+000	 1.469059448937622e+000	 1.044936435365594e+001
 4.763753577460099e+000	 1.518765106887844e+000	 1.046172213723444e+001
 4.747632949755955e+000	 1.568431481153328e+000	 1.047590365210931e+001
 4.730952527066571e+000	 1.618049646809360e+000	 1.049163938952544e+001
 4.713711067889371e+000	 1.667610606547676e+000	 1.050856145131705e+001
 4.695907514429774e+000	 1.717105295015633e+000	 1.052619424260774e+001
 4.677540995442822e+000	 1.766524583278722e+000	 1.054394421830262e+001
 4.658610828952133e+000	 1.815859283403033e+000	 1.056107492296165e+001
 4.639116524840821e+000	 1.865100153154037e+000	 1.057669377646450e+001
 4.619057787309097e+000	 1.914237900807783e+000	 1.058999455506889e+001
 4.598434517193399e+000	 1.963263190070334e+000	 1.060003737095410e+001
 4.353173435502172e+000	 1.858551020759794e+000	 1.065226566637839e+001
 4.333118844188068e+000	 1.904839237533664e+000	 1.066231020984696e+001
 4.312530372389279e+000	 1.951003250800439e+000	 1.066836530536471e+001
 4.291408499589530e+000	 1.997034131020163e+000	 1.066900579189520e+001
 4.269753898666800e+000	 2.042922926136646e+000	 1.066641280801919e+001
 4.247567437359612e+000	 2.088660666674489e+000	 1.066484282992960e+001
 4.224850179576209e+000	 2.134238370909848e+000	 1.066428587027772e+001
 4.201603386542995e+000	 2.179647050109439e+000	 1.066467793583495e+001
 4.177828517788692e+000	 2.224877713832085e+000	 1.066591410308463e+001
 4.153527231960959e+000	 2.269921375286926e+000	 1.066784452609605e+001
 4.128701387472490e+000	 2.314769056742235e+000	 1.067027044078817e+001
 4.377699975912726e+000	 1.869022422229697e+000	 1.063746612071326e+001
 4.357532393524315e+000	 1.915571434911691e+000	 1.064736459003045e+001
 4.336827922675254e+000	 1.961995544302362e+000	 1.065340472555175e+001
 4.315587045550744e+000	 2.008285770551152e+000	 1.065431613748569e+001
 4.293810438819873e+000	 2.054433111164409e+000	 1.065374450848435e+001
 4.271498975110129e+000	 2.100428546131130e+000	 1.065402590811034e+001
 4.248653724323997e+000	 2.146263043122858e+000	 1.065511977878585e+001
 4.225275954793839e+000	 2.191927562762203e+000	 1.065694610589535e+001
 4.201367134271600e+000	 2.237413063954258e+000	 1.065938136851008e+001
 4.176928930750042e+000	 2.282710509275001e+000	 1.066225446776262e+001
 4.151963213112460e+000	 2.327810870410583e+000	 1.066534265348505e+001
 4.402226534724702e+000	 1.879493831556170e+000	 1.062596943802029e+001
 4.381945961177230e+000	 1.926303640341893e+000	 1.063593754326421e+001
 4.361125491190895e+000	 1.972987846051518e+000	 1.064208015954648e+001
 4.339765609652384e+000	 2.019537418523855e+000	 1.064365884623460e+001
 4.317866997021875e+000	 2.065943304827759e+000	 1.064478513727988e+001
 4.295430530815842e+000	 2.112196434416587e+000	 1.064652260718204e+001
 4.272457286930998e+000	 2.158287724357238e+000	 1.064883286573780e+001
 4.248948540805664e+000	 2.204208084628180e+000	 1.065163739745350e+001
 4.224905768415010e+000	 2.249948423480746e+000	 1.065481342134614e+001
 4.200330647096902e+000	 2.295499652857716e+000	 1.065818972617880e+001
 4.175225056205250e+000	 2.340852693863086e+000	 1.066154250245692e+001
 4.426753069017446e+000	 1.889965230414766e+000	 1.061732873830594e+001
 4.406359504423866e+000	 1.937035835043452e+000	 1.062747259915683e+001
 4.385423035416232e+000	 1.983980136811944e+000	 1.063374509105946e+001
 4.363944149582699e+000	 2.030789055248471e+000	 1.063621622476808e+001
 4.341923531174544e+000	 2.077453486984452e+000	 1.063867022262482e+001
 4.319362062597205e+000	 2.123964310937663e+000	 1.064145763935674e+001
 4.296260825741616e+000	 2.170312393570410e+000	 1.064455772088154e+001
 4.272621103152047e+000	 2.216488594217080e+000	 1.064791072846975e+001
 4.248444379026887e+000	 2.262483770475299e+000	 1.065141369729955e+001
 4.223732340049086e+000	 2.308288783654709e+000	 1.065491616488021e+001
 4.198486876043155e+000	 2.353894504277207e+000	 1.065821589138371e+001
 4.451279535870309e+000	 1.900436600481029e+000	 1.061109968771206e+001
 4.430772980541286e+000	 1.947768000235553e+000	 1.062141898117672e+001
 4.409720512831290e+000	 1.994972397347677e+000	 1.062776136423055e+001
 4.388122623029949e+000	 2.042040661035201e+000	 1.063117957018159e+001
 4.365979999179608e+000	 2.088963637492247e+000	 1.063456247518399e+001
 4.343293528574663e+000	 2.135732155101159e+000	 1.063798358849229e+001
 4.320064299100253e+000	 2.182337029719798e+000	 1.064145504215215e+001
 4.296293600406571e+000	 2.228769070038614e+000	 1.064495291534106e+001
 4.271982924915197e+000	 2.275019083001672e+000	 1.064841288128995e+001
 4.247133968654143e+000	 2.321077879285622e+000	 1.065172581518341e+001
 4.221748631918484e+000	 2.366936278830407e+000	 1.065473338579275e+001
 4.475805892362633e+000	 1.910907923430507e+000	 1.060684141284309e+001
 4.455186346806543e+000	 1.958500117137379e+000	 1.061723248500705e+001
 4.434017880916100e+000	 2.005964608422758e+000	 1.062353710083908e+001
 4.412300987682382e+000	 2.053292216194244e+000	 1.062776608324125e+001
 4.390036358938797e+000	 2.100473736208904e+000	 1.063165162480239e+001
 4.367224886868669e+000	 2.147499946313880e+000	 1.063528072681752e+001
 4.343867665351314e+000	 2.194361611762826e+000	 1.063871344450897e+001
 4.319965991142815e+000	 2.241049490602491e+000	 1.064197848582896e+001
 4.295521364887908e+000	 2.287554339123615e+000	 1.064506873629254e+001
 4.270535491959617e+000	 2.333866917370093e+000	 1.064793673260032e+001
 4.245010283123539e+000	 2.379977994700152e+000	 1.065049010852228e+001
 4.500332095573771e+000	 1.921379180938751e+000	 1.060411740942505e+001
 4.479599560496697e+000	 1.969232166968115e+000	 1.061437635329147e+001
 4.458315097150689e+000	 2.016956750801223e+000	 1.062060709443020e+001
 4.436479201228257e+000	 2.064543701035800e+000	 1.062521873621517e+001
 4.414092568353847e+000	 2.111983762992179e+000	 1.062915425696023e+001
 4.391156095599677e+000	 2.159267663982629e+000	 1.063255683187042e+001
 4.367670882839205e+000	 2.206386118656919e+000	 1.063554926909089e+001
 4.343638233934361e+000	 2.253329834418422e+000	 1.063822949202848e+001
 4.319059657752982e+000	 2.300089516904883e+000	 1.064066593156793e+001
 4.293936869013054e+000	 2.346655875527764e+000	 1.064289285161501e+001
 4.268271788950622e+000	 2.393019629063903e+000	 1.064490563215795e+001
 4.524858102583068e+000	 1.931850354681308e+000	 1.060249644545080e+001
 4.504012578888808e+000	 1.979964130946945e+000	 1.061232214684477e+001
 4.482612119015089e+000	 2.027948805247112e+000	 1.061831224622747e+001
 4.460657221355826e+000	 2.075795095870069e+000	 1.062280613956003e+001
 4.438148585326482e+000	 2.123493697699832e+000	 1.062631364893385e+001
 4.415087112888133e+000	 2.171035287514209e+000	 1.062904700361606e+001
 4.391473909908328e+000	 2.218410529359499e+000	 1.063120639265284e+001
 4.367310287354787e+000	 2.265610079996117e+000	 1.063297532335201e+001
 4.342597762318389e+000	 2.312624594409228e+000	 1.063451587027804e+001
 4.317338058861998e+000	 2.359444731378275e+000	 1.063596383886019e+001
 4.291533108692034e+000	 2.406061159099123e+000	 1.063742386853144e+001
 4.549383870469874e+000	 1.942321426333725e+000	 1.060155345895694e+001
 4.528425359259934e+000	 1.990695990293054e+000	 1.061055061239735e+001
 4.506908903989322e+000	 2.038940752524462e+000	 1.061598790412469e+001
 4.484835005753348e+000	 2.087046381007252e+000	 1.061982240748097e+001
 4.462204367758439e+000	 2.135003520189621e+000	 1.062239960564917e+001
 4.439017896854491e+000	 2.182802796315421e+000	 1.062401348171336e+001
 4.415276704903087e+000	 2.230434822827990e+000	 1.062495603724853e+001
 4.390982109977674e+000	 2.277890205845287e+000	 1.062551251950313e+001
 4.366135637392091e+000	 2.325159549700400e+000	 1.062595651648642e+001
 4.340739020553997e+000	 2.372233462541265e+000	 1.062654494472936e+001
 4.314794201640082e+000	 2.419102561983274e+000	 1.062751295536777e+001
 4.573909356313535e+000	 1.952792377571551e+000	 1.060087045057041e+001
 4.552837858887132e+000	 2.001427726225625e+000	 1.060855363965890e+001
 4.531205409553421e+000	 2.049932573397313e+000	 1.061299338324193e+001
 4.509012512109073e+000	 2.098297536757549e+000	 1.061558702238259e+001
 4.486259873551445e+000	 2.146513210319305e+000	 1.061670829521501e+001
 4.462948405619200e+000	 2.194570169793071e+000	 1.061674546290099e+001
 4.439079226167888e+000	 2.242458978019816e+000	 1.061609658012698e+001
 4.414653660376605e+000	 2.290170190475642e+000	 1.061516458341743e+001
 4.389673241782057e+000	 2.337694360842154e+000	 1.061435222154308e+001
 4.364139713136595e+000	 2.385022046636375e+000	 1.061405685345958e+001
 4.338055027087065e+000	 2.432143814893820e+000	 1.061466514016391e+001
 4.598434517193399e+000	 1.963263190070334e+000	 1.060003737095410e+001
 4.577250035047463e+000	 2.012159319963842e+000	 1.060589681675365e+001
 4.555501593187413e+000	 2.060924248629703e+000	 1.060871186797568e+001
 4.533189698111257e+000	 2.109548543431159e+000	 1.060944469822868e+001
 4.510315060607234e+000	 2.158022747946641e+000	 1.060856208412458e+001
 4.486878597302711e+000	 2.206337387353961e+000	 1.060655891847499e+001
 4.462881432047135e+000	 2.254482973892403e+000	 1.060395336381122e+001
 4.438324897125158e+000	 2.302450012396893e+000	 1.060128179414837e+001
 4.413210534296251e+000	 2.350229005898243e+000	 1.059909354985327e+001
 4.387540095657340e+000	 2.397810461283245e+000	 1.059794553171880e+001
 4.361315544325288e+000	 2.445184895008222e+000	 1.059839666137905e+001
 4.128701387472490e+000	 2.314769056742235e+000	 1.067027044078817e+001
 4.103349201813303e+000	 2.359418476664549e+000	 1.067421680014523e+001
 4.077476622929091e+000	 2.403853947232864e+000	 1.068064624222788e+001
 4.051086115123939e+000	 2.448066549433488e+000	 1.068916188483978e+001
 4.024180343380284e+000	 2.492047395438518e+000	 1.069927463119709e+001
 3.996762173110999e+000	 2.535787634173376e+000	 1.071039271271982e+001
 3.968834669728083e+000	 2.579278456895365e+000	 1.072114818247690e+001
 3.940401098026868e+000	 2.622511102776230e+000	 1.073000770074600e+001
 3.911464921384907e+000	 2.665476864481691e+000	 1.073583188044911e+001
 3.882029800775059e+000	 2.708167093740830e+000	 1.073808541388695e+001
 3.852099593592544e+000	 2.750573206898158e+000	 1.073701675047518e+001
 4.151963213112460e+000	 2.327810870410583e+000	 1.066534265348505e+001
 4.126468188805896e+000	 2.372711852972974e+000	 1.066952882095175e+001
 4.100449839287810e+000	 2.417397680753247e+000	 1.067569125825318e+001
 4.073910642746603e+000	 2.461859384486436e+000	 1.068349805508218e+001
 4.046853279179697e+000	 2.506088026269067e+000	 1.069253065097939e+001
 4.019280630144203e+000	 2.550074705158072e+000	 1.070227975996631e+001
 3.991195778323188e+000	 2.593810562780759e+000	 1.071209437224467e+001
 3.962602006906415e+000	 2.637286788948846e+000	 1.072044901772820e+001
 3.933502798784717e+000	 2.680494627269417e+000	 1.072601802611283e+001
 3.903901835557514e+000	 2.723425380745691e+000	 1.072840726844645e+001
 3.873802996353269e+000	 2.766070417360369e+000	 1.072766898594744e+001
 4.175225056205250e+000	 2.340852693863086e+000	 1.066154250245692e+001
 4.149587193144094e+000	 2.386005239254254e+000	 1.066567213470023e+001
 4.123423072882692e+000	 2.430941424434304e+000	 1.067140827487070e+001
 4.096735187493784e+000	 2.475652229886951e+000	 1.067847149339728e+001
 4.069526231989785e+000	 2.520128667633114e+000	 1.068650017696306e+001
 4.041799104072064e+000	 2.564361786861186e+000	 1.069504631147122e+001
 4.013556903694774e+000	 2.608342679568453e+000	 1.070357141296240e+001
 3.984802932442126e+000	 2.652062486206557e+000	 1.071130641309699e+001
 3.955540692718248e+000	 2.695512401323906e+000	 1.071671970629019e+001
 3.925773886749148e+000	 2.738683679197817e+000	 1.071928619763978e+001
 3.895506415396551e+000	 2.781567639449147e+000	 1.071895897308437e+001
 4.198486876043155e+000	 2.353894504277207e+000	 1.065821589138371e+001
 4.172706174370148e+000	 2.399298612245635e+000	 1.066207428242614e+001
 4.146396283511082e+000	 2.444485154575171e+000	 1.066729239727233e+001
 4.119559709423028e+000	 2.489445061498262e+000	 1.067363105201165e+001
 4.092199162133382e+000	 2.534169294960265e+000	 1.068077226129968e+001
 4.064317555487758e+000	 2.578648854281084e+000	 1.068831489214641e+001
 4.035918006711386e+000	 2.622874781828017e+000	 1.069577045972313e+001
 4.007003835782910e+000	 2.666838168692685e+000	 1.070255908739699e+001
 3.977578564619736e+000	 2.710530160364864e+000	 1.070782326220446e+001
 3.947645916074441e+000	 2.753941962396012e+000	 1.071059669307393e+001
 3.917209812741994e+000	 2.797064846045182e+000	 1.071073828507508e+001
 4.221748631918484e+000	 2.366936278830407e+000	 1.065473338579275e+001
 4.195825092026315e+000	 2.412591948684358e+000	 1.065818589069186e+001
 4.169369430970327e+000	 2.458028847474985e+000	 1.066286051568414e+001
 4.142384168591881e+000	 2.503237855183603e+000	 1.066854633869346e+001
 4.114872029933324e+000	 2.548209883680131e+000	 1.067495594804385e+001
 4.086835944984467e+000	 2.592935882416122e+000	 1.068172097931525e+001
 4.058279048241575e+000	 2.637406844129022e+000	 1.068838779047517e+001
 4.029204678077674e+000	 2.681613810550553e+000	 1.069440245850461e+001
 3.999616375923409e+000	 2.725547878111994e+000	 1.069919727313774e+001
 3.969517885257865e+000	 2.769200203639073e+000	 1.070219729152700e+001
 3.938913150409198e+000	 2.812562010029166e+000	 1.070284418131834e+001
 4.245010283123539e+000	 2.379977994700152e+000	 1.065049010852228e+001
 4.218943905654852e+000	 2.425885225307669e+000	 1.065348060790420e+001
 4.192342475057771e+000	 2.471572479432886e+000	 1.065765127487936e+001
 4.165208525057892e+000	 2.517030586806201e+000	 1.066280771195349e+001
 4.137544795712442e+000	 2.562250409222323e+000	 1.066868028669396e+001
 4.109354233155368e+000	 2.607222846264664e+000	 1.067491956365416e+001
 4.080639989153886e+000	 2.651938841041037e+000	 1.068109187300897e+001
 4.051405420475334e+000	 2.696389385923487e+000	 1.068660079230883e+001
 4.021654088063499e+000	 2.740565528285002e+000	 1.069089357838880e+001
 3.991389756023894e+000	 2.784458376225799e+000	 1.069393238946676e+001
 3.960616390417768e+000	 2.828059104281789e+000	 1.069510141476440e+001
 4.268271788950622e+000	 2.393019629063903e+000	 1.064490563215795e+001
 4.242062574798013e+000	 2.439178418852811e+000	 1.064745503616388e+001
 4.215315375570760e+000	 2.485116026748010e+000	 1.065122503803777e+001
 4.188032738878609e+000	 2.530823232229287e+000	 1.065602626965847e+001
 4.160217419793572e+000	 2.576290847016447e+000	 1.066159433845673e+001
 4.131872380593638e+000	 2.621509720825070e+000	 1.066758516616676e+001
 4.103000790316869e+000	 2.666470747133635e+000	 1.067357046488903e+001
 4.073606024124797e+000	 2.711164868954810e+000	 1.067880376160739e+001
 4.043691662474240e+000	 2.755583084603597e+000	 1.068284531796692e+001
 4.013261490097003e+000	 2.799716453454992e+000	 1.068570943270350e+001
 3.982319494787302e+000	 2.843556101683741e+000	 1.068732403379734e+001
 4.291533108692034e+000	 2.406061159099123e+000	 1.063742386853144e+001
 4.265181058998054e+000	 2.452471506057028e+000	 1.063962865879062e+001
 4.238288092306640e+000	 2.498659465719494e+000	 1.064316384514027e+001
 4.210856770111574e+000	 2.544615767316092e+000	 1.064783383128032e+001
 4.182889862499549e+000	 2.590331172492116e+000	 1.065336717548569e+001
 4.154390347892455e+000	 2.635796481095701e+000	 1.065941184770163e+001
 4.125361412599069e+000	 2.681002536976384e+000	 1.066549285095099e+001
 4.095806450174976e+000	 2.725940233787844e+000	 1.067068921748696e+001
 4.065729060589863e+000	 2.770600520787480e+000	 1.067472743684688e+001
 4.035133049201670e+000	 2.814974408625452e+000	 1.067759107772402e+001
 4.004022425537404e+000	 2.859052975115712e+000	 1.067932408462766e+001
 4.314794201640082e+000	 2.419102561983274e+000	 1.062751295536777e+001
 4.288299317797230e+000	 2.465764463657564e+000	 1.062954376366204e+001
 4.261260585062755e+000	 2.512202772646476e+000	 1.063307136607946e+001
 4.233680578814340e+000	 2.558408167929847e+000	 1.063788291399623e+001
 4.205562084153207e+000	 2.604371361078937e+000	 1.064368787333317e+001
 4.176908095644997e+000	 2.650083102074917e+000	 1.065011321126944e+001
 4.147721816869038e+000	 2.695534185138858e+000	 1.065652747846661e+001
 4.118006659774780e+000	 2.740715454565915e+000	 1.066196252859063e+001
 4.087766243844597e+000	 2.785617810556358e+000	 1.066624237739081e+001
 4.057004395062369e+000	 2.830232215035975e+000	 1.066930210989782e+001
 4.025725144687676e+000	 2.874549697458392e+000	 1.067113534752363e+001
 4.338055027087065e+000	 2.432143814893820e+000	 1.061466514016391e+001
 4.311417310737799e+000	 2.479057268391663e+000	 1.061676536249932e+001
 4.284232813636448e+000	 2.525745923828093e+000	 1.062057284866017e+001
 4.256504125044452e+000	 2.572200409933782e+000	 1.062584670284596e+001
 4.228234045077379e+000	 2.618411388206522e+000	 1.063226549684604e+001
 4.199425584444444e+000	 2.664369558761082e+000	 1.063942239740545e+001
 4.170081963995317e+000	 2.710065666190624e+000	 1.064639867068139e+001
 4.140206614073119e+000	 2.755490505432348e+000	 1.065235591305070e+001
 4.109803173672678e+000	 2.800634927629938e+000	 1.065711946645012e+001
 4.078875489403575e+000	 2.845489845985365e+000	 1.066055850335990e+001
 4.047427614257718e+000	 2.890046241592473e+000	 1.066259783498427e+001
 4.361315544325288e+000	 2.445184895008222e+000	 1.059839666137905e+001
 4.334534997362014e+000	 2.492349896996569e+000	 1.060088110622723e+001
 4.307204737825070e+000	 2.539288895563483e+000	 1.060531506165694e+001
 4.279327368859456e+000	 2.585992469191127e+000	 1.061141901514404e+001
 4.250905705594900e+000	 2.632451229304479e+000	 1.061882907972601e+001
 4.221942774883971e+000	 2.678655826152554e+000	 1.062705439663070e+001
 4.192441814846461e+000	 2.724596954701255e+000	 1.063485715377537e+001
 4.162406274218904e+000	 2.770265360530463e+000	 1.064162776337030e+001
 4.131839811508336e+000	 2.815651845727923e+000	 1.064711422298884e+001
 4.100746293949762e+000	 2.860747274772420e+000	 1.065110267578013e+001
 4.069129796267132e+000	 2.905542580398644e+000	 1.065343095053295e+001
 3.852099593592544e+000	 2.750573206898158e+000	 1.073701675047518e+001
 3.821678351209255e+000	 2.792686689510306e+000	 1.073377732362143e+001
 3.790770314199296e+000	 2.834499098992382e+000	 1.072914787902040e+001
 3.759379913927593e+000	 2.876002072770478e+000	 1.072287674465258e+001
 3.727511771739844e+000	 2.917187334614500e+000	 1.071488845374789e+001
 3.695170696876085e+000	 2.958046700001626e+000	 1.070526666555374e+001
 3.662361684203526e+000	 2.998572081419612e+000	 1.069423368078482e+001
 3.629089911770705e+000	 3.038755493602876e+000	 1.068212665344989e+001
 3.595360738185273e+000	 3.078589058694386e+000	 1.066937063389132e+001
 3.561179699818027e+000	 3.118065011326384e+000	 1.065644861049392e+001
 3.526552507836178e+000	 3.157175703613221e+000	 1.064386874930952e+001
 3.873802996353269e+000	 2.766070417360369e+000	 1.072766898594744e+001
 3.843210355370016e+000	 2.808421174698224e+000	 1.072485700826038e+001
 3.812128177074004e+000	 2.850469162607365e+000	 1.072062693490332e+001
 3.780560917797259e+000	 2.892205971397670e+000	 1.071469682100175e+001
 3.748513224922961e+000	 2.933623278209317e+000	 1.070697305835755e+001
 3.715989934787253e+000	 2.974712852406442e+000	 1.069753293930297e+001
 3.682996070399315e+000	 3.015466560910336e+000	 1.068660365942395e+001
 3.649536838981732e+000	 3.055876373465035e+000	 1.067453786282509e+001
 3.615617629333495e+000	 3.095934367828269e+000	 1.066178586806559e+001
 3.581244009018294e+000	 3.135632734880840e+000	 1.064886474682530e+001
 3.546421721381069e+000	 3.174963783647567e+000	 1.063632446044006e+001
 3.895506415396551e+000	 2.781567639449147e+000	 1.071895897308437e+001
 3.864742375684650e+000	 2.824155671690768e+000	 1.071665101721195e+001
 3.833486055971865e+000	 2.866439238203753e+000	 1.071287212622281e+001
 3.801741937557329e+000	 2.908409882181733e+000	 1.070731884016641e+001
 3.769514693861728e+000	 2.950059234135116e+000	 1.069988919538283e+001
 3.736809188317338e+000	 2.991379017314970e+000	 1.069066490860368e+001
 3.703630472075320e+000	 3.032361053076081e+000	 1.067988983763400e+001
 3.669983781532329e+000	 3.072997266172066e+000	 1.066794482431654e+001
 3.635874535678719e+000	 3.113279689975391e+000	 1.065531906129805e+001
 3.601308333271101e+000	 3.153200471615381e+000	 1.064257815939840e+001
 3.566290949832161e+000	 3.192751877027289e+000	 1.063032912679794e+001
 3.917209812741994e+000	 2.797064846045182e+000	 1.071073828507508e+001
 3.886274374472733e+000	 2.839890152953399e+000	 1.070898430848717e+001
 3.854843913517218e+000	 2.882409297834738e+000	 1.070568544127180e+001
 3.822922936141673e+000	 2.924613776766639e+000	 1.070052514008205e+001
 3.790516141804253e+000	 2.966495173629784e+000	 1.069340256426272e+001
 3.757628421033338e+000	 3.008045165562214e+000	 1.068441435771998e+001
 3.724264853122052e+000	 3.049255528352266e+000	 1.067383253846472e+001
 3.690430703641079e+000	 3.090118141763178e+000	 1.066207860361147e+001
 3.656131421772110e+000	 3.130624994782196e+000	 1.064969399483788e+001
 3.621372637464639e+000	 3.170768190787212e+000	 1.063730710598922e+001
 3.586160158419070e+000	 3.210539952623959e+000	 1.062559705030274e+001
 3.938913150409198e+000	 2.812562010029166e+000	 1.070284418131834e+001
 3.907806314053837e+000	 2.855624590951576e+000	 1.070166913590558e+001
 3.876201712334408e+000	 2.898379313553518e+000	 1.069885757479726e+001
 3.844103876484156e+000	 2.940817626796362e+000	 1.069408797942173e+001
 3.811517531998638e+000	 2.982931067931204e+000	 1.068726980632345e+001
 3.778447596502258e+000	 3.024711267983181e+000	 1.067852484468508e+001
 3.744899177430023e+000	 3.066149957174311e+000	 1.066816450585042e+001
 3.710877569526564e+000	 3.107238970277573e+000	 1.065666315476151e+001
 3.676388252164828e+000	 3.147970251895124e+000	 1.064462763189627e+001
 3.641436886487100e+000	 3.188335861653542e+000	 1.063276315241528e+001
 3.606029312371414e+000	 3.228327979309159e+000	 1.062183580643957e+001
 3.960616390417768e+000	 2.828059104281789e+000	 1.069510141476440e+001
 3.929338156747529e+000	 2.871358958150761e+000	 1.069450684557535e+001
 3.897559415047773e+000	 2.914349257413284e+000	 1.069216971442291e+001
 3.865284721518648e+000	 2.957021403914880e+000	 1.068777131461489e+001
 3.832518827692987e+000	 2.999366888277262e+000	 1.068124027289982e+001
 3.799266678291103e+000	 3.041377295412881e+000	 1.067273346088625e+001
 3.765533408889745e+000	 3.083044309977635e+000	 1.066261265587701e+001
 3.731324343407371e+000	 3.124359721754460e+000	 1.065141706321137e+001
 3.696644991408034e+000	 3.165315430960619e+000	 1.063983185237918e+001
 3.661501045226677e+000	 3.205903453471577e+000	 1.062865289878203e+001
 3.625898376918811e+000	 3.246115925954463e+000	 1.061874796169818e+001
 3.982319494787302e+000	 2.843556101683741e+000	 1.068732403379734e+001
 3.950869864873384e+000	 2.887093227016413e+000	 1.068728966761256e+001
 3.918916984281657e+000	 2.930319101467231e+000	 1.068539532292428e+001
 3.886465434179013e+000	 2.973225079766164e+000	 1.068133257325185e+001
 3.853519992135404e+000	 3.015802605905841e+000	 1.067505779029876e+001
 3.820085629966870e+000	 3.058043218686316e+000	 1.066677258787682e+001
 3.786167511391733e+000	 3.099938557197659e+000	 1.065689982559384e+001
 3.751770989502083e+000	 3.141480366233044e+000	 1.064605528662664e+001
 3.716901604052891e+000	 3.182660501625122e+000	 1.063501518561590e+001
 3.681565078571562e+000	 3.223470935498525e+000	 1.062467970386788e+001
 3.645767317290876e+000	 3.263903761431448e+000	 1.061603278924477e+001
 4.004022425537404e+000	 2.859052975115712e+000	 1.067932408462766e+001
 3.972401400750971e+000	 2.902827370013992e+000	 1.067980250318266e+001
 3.940274382660400e+000	 2.946288817768555e+000	 1.067830191641533e+001
 3.907645977399121e+000	 2.989428625994191e+000	 1.067452442391120e+001
 3.874520988573994e+000	 3.032238192054827e+000	 1.066846242162459e+001
 3.840904415096563e+000	 3.074709008638496e+000	 1.066037165141936e+001
 3.806801448826499e+000	 3.116832669269804e+000	 1.065074651936167e+001
 3.772217472029282e+000	 3.158600873752531e+000	 1.064029089350280e+001
 3.737158054650565e+000	 3.200005433535078e+000	 1.062988454105759e+001
 3.701628951409946e+000	 3.241038276991590e+000	 1.062054540761680e+001
 3.665636098717228e+000	 3.281691454611689e+000	 1.061338798279249e+001
 4.025725144687676e+000	 2.874549697458392e+000	 1.067113534752363e+001
 3.993932726699862e+000	 2.918561359608961e+000	 1.067182470693948e+001
 3.961631572808341e+000	 2.962258378370446e+000	 1.067065283849792e+001
 3.928826314112840e+000	 3.005632014242935e+000	 1.066709654244162e+001
 3.895521780256860e+000	 3.048673617962106e+000	 1.066119222547948e+001
 3.861722997247186e+000	 3.091374636104424e+000	 1.065325887275934e+001
 3.827435185084556e+000	 3.133726616629490e+000	 1.064387265272416e+001
 3.792663755207555e+000	 3.175721214352128e+000	 1.063383679953313e+001
 3.757414307752212e+000	 3.217350196336925e+000	 1.062414693691710e+001
 3.721692628630024e+000	 3.258605447207982e+000	 1.061595205170542e+001
 3.685504686427484e+000	 3.299478974366764e+000	 1.061051136863431e+001
 4.047427614257718e+000	 2.890046241592473e+000	 1.066259783498427e+001
 4.015463805039629e+000	 2.934295168266779e+000	 1.066322472225646e+001
 3.982988517349825e+000	 2.978227755326101e+000	 1.066220903041965e+001
 3.950006407254037e+000	 3.021835216156370e+000	 1.065879737472354e+001
 3.916522330432105e+000	 3.065108854865561e+000	 1.065298501154840e+001
 3.882541339985741e+000	 3.108040071919109e+000	 1.064516301712411e+001
 3.848068684056416e+000	 3.150620369712136e+000	 1.063599929378669e+001
 3.813109803255483e+000	 3.192841358071038e+000	 1.062640750171047e+001
 3.777670327908999e+000	 3.234694759677108e+000	 1.061751122671770e+001
 3.741756075119985e+000	 3.276172415404907e+000	 1.061060359814713e+001
 3.705373045651260e+000	 3.317266289568248e+000	 1.060710261579874e+001
 4.069129796267132e+000	 2.905542580398644e+000	 1.065343095053295e+001
 4.036994598089843e+000	 2.950028768452905e+000	 1.065399490645750e+001
 4.004345178909193e+000	 2.994196920688713e+000	 1.065273798406608e+001
 3.971186219756580e+000	 3.038038203378471e+000	 1.064937589593114e+001
 3.937522602347835e+000	 3.081543874003077e+000	 1.064358009307275e+001
 3.903359406879230e+000	 3.124705286917557e+000	 1.063581513943848e+001
 3.868701909632592e+000	 3.167513898953164e+000	 1.062685040208238e+001
 3.833555580391654e+000	 3.209961274948470e+000	 1.061772081013406e+001
 3.797926079672085e+000	 3.252039093202069e+000	 1.060968982371603e+001
 3.761819255768023e+000	 3.293739150839572e+000	 1.060420764589445e+001
 3.725241141618175e+000	 3.335053369087720e+000	 1.060285592313448e+001
 3.526552507836178e+000	 3.157175703613221e+000	 1.064386874930952e+001
 3.491490338159828e+000	 3.195907828477368e+000	 1.063065517674825e+001
 3.455994081322530e+000	 3.234259887315395e+000	 1.061755693459609e+001
 3.420069953636332e+000	 3.272224619985245e+000	 1.060763370576589e+001
 3.383724332540992e+000	 3.309794902772032e+000	 1.060385580111290e+001
 3.346963752837024e+000	 3.346963752837023e+000	 1.060810286455160e+001
 3.309794902772032e+000	 3.383724332540992e+000	 1.061040720271717e+001
 3.272224619985245e+000	 3.420069953636333e+000	 1.060246898674219e+001
 3.234259887315396e+000	 3.455994081322531e+000	 1.058627765979477e+001
 3.195907828477369e+000	 3.491490338159829e+000	 1.056466756473352e+001
 3.157175703613221e+000	 3.526552507836178e+000	 1.054055025371334e+001
 3.546421721381069e+000	 3.174963783647567e+000	 1.063632446044006e+001
 3.511162005309020e+000	 3.213914132076515e+000	 1.062347292492366e+001
 3.475465756353109e+000	 3.252482273120869e+000	 1.061129219707030e+001
 3.439339225849170e+000	 3.290660905733674e+000	 1.060281455573199e+001
 3.402788827168555e+000	 3.328442866063796e+000	 1.060098431520586e+001
 3.365821131929980e+000	 3.365821131929980e+000	 1.060330423025961e+001
 3.328442866063796e+000	 3.402788827168555e+000	 1.060322161920598e+001
 3.290660905733673e+000	 3.439339225849170e+000	 1.059614600235991e+001
 3.252482273120868e+000	 3.475465756353109e+000	 1.058070980416136e+001
 3.213914132076515e+000	 3.511162005309020e+000	 1.055970444056973e+001
 3.174963783647567e+000	 3.546421721381069e+000	 1.053599774056147e+001
 3.566290949832161e+000	 3.192751877027289e+000	 1.063032912679794e+001
 3.530833687216242e+000	 3.231920449184716e+000	 1.061816911715174e+001
 3.494937445991728e+000	 3.270704672597463e+000	 1.060730114334957e+001
 3.458608512518249e+000	 3.309097205313643e+000	 1.060071960030695e+001
 3.421853336098788e+000	 3.347090843345853e+000	 1.060043104886460e+001
 3.384678525170281e+000	 3.384678525170280e+000	 1.059892668985138e+001
 3.347090843345852e+000	 3.421853336098788e+000	 1.059513783245976e+001
 3.309097205313644e+000	 3.458608512518250e+000	 1.058867631009992e+001
 3.270704672597464e+000	 3.494937445991728e+000	 1.057438510114482e+001
 3.231920449184716e+000	 3.530833687216242e+000	 1.055432087744476e+001
 3.192751877027288e+000	 3.566290949832161e+000	 1.053129505550091e+001
 3.586160158419070e+000	 3.210539952623959e+000	 1.062559705030274e+001
 3.550505349456825e+000	 3.249926748291658e+000	 1.061445287790057e+001
 3.514409116163698e+000	 3.288927053856720e+000	 1.060528402705003e+001
 3.477877779923087e+000	 3.327533486462375e+000	 1.060103684302650e+001
 3.440917825969560e+000	 3.365738801984989e+000	 1.059969794133046e+001
 3.403535899558242e+000	 3.403535899558242e+000	 1.059484684051372e+001
 3.365738801984989e+000	 3.440917825969561e+000	 1.058785114087285e+001
 3.327533486462375e+000	 3.477877779923087e+000	 1.058013298280693e+001
 3.288927053856719e+000	 3.514409116163698e+000	 1.056735828230604e+001
 3.249926748291657e+000	 3.550505349456825e+000	 1.054855248161364e+001
 3.210539952623960e+000	 3.586160158419070e+000	 1.052645818463316e+001
 3.606029312371414e+000	 3.228327979309159e+000	 1.062183580643957e+001
 3.570176957606095e+000	 3.267932997887018e+000	 1.061202647533129e+001
 3.533880732794333e+000	 3.307149385010174e+000	 1.060493407905959e+001
 3.497146994343197e+000	 3.345969716917085e+000	 1.060275282261391e+001
 3.459982263418742e+000	 3.384386709347995e+000	 1.059856531527153e+001
 3.422393222094180e+000	 3.422393222094181e+000	 1.059094524580740e+001
 3.384386709347995e+000	 3.459982263418742e+000	 1.058131294149937e+001
 3.345969716917085e+000	 3.497146994343197e+000	 1.057110528898796e+001
 3.307149385010175e+000	 3.533880732794334e+000	 1.055968745917722e+001
 3.267932997887018e+000	 3.570176957606095e+000	 1.054243849438064e+001
 3.228327979309159e+000	 3.606029312371414e+000	 1.052150707858013e+001
 3.625898376918811e+000	 3.246115925954463e+000	 1.061874796169818e+001
 3.589848477239379e+000	 3.285939166460482e+000	 1.061058702790375e+001
 3.553352261808945e+000	 3.325371634169370e+000	 1.060593919976128e+001
 3.516416122058093e+000	 3.364405864414994e+000	 1.060355382802424e+001
 3.479046615084206e+000	 3.403034532801657e+000	 1.059693157403365e+001
 3.441250459778411e+000	 3.441250459778410e+000	 1.058710646945176e+001
 3.403034532801657e+000	 3.479046615084205e+000	 1.057539197197026e+001
 3.364405864414993e+000	 3.516416122058093e+000	 1.056311762794658e+001
 3.325371634169370e+000	 3.553352261808945e+000	 1.055143325474697e+001
 3.285939166460482e+000	 3.589848477239380e+000	 1.053602090272823e+001
 3.246115925954463e+000	 3.625898376918810e+000	 1.051646474265460e+001
 3.645767317290876e+000	 3.263903761431448e+000	 1.061603278924477e+001
 3.609519873932002e+000	 3.303945222501730e+000	 1.060982820931598e+001
 3.572823669132848e+000	 3.343593769445843e+000	 1.060757278361026e+001
 3.535685129347288e+000	 3.382841896693317e+000	 1.060320597657173e+001
 3.498110847603819e+000	 3.421682239712764e+000	 1.059469898137414e+001
 3.460107579611251e+000	 3.460107579611250e+000	 1.058321910808836e+001
 3.421682239712764e+000	 3.498110847603818e+000	 1.056996121082194e+001
 3.382841896693318e+000	 3.535685129347289e+000	 1.055613562477996e+001
 3.343593769445843e+000	 3.572823669132847e+000	 1.054295598514906e+001
 3.303945222501731e+000	 3.609519873932002e+000	 1.052934355052040e+001
 3.263903761431447e+000	 3.645767317290875e+000	 1.051135632803733e+001
 3.665636098717228e+000	 3.281691454611689e+000	 1.061338798279249e+001
 3.629191113259290e+000	 3.321951134500448e+000	 1.060944195174029e+001
 3.592294920691352e+000	 3.361815758951137e+000	 1.060769731458141e+001
 3.554953982490301e+000	 3.401277781489275e+000	 1.060162679722025e+001
 3.517174927615451e+000	 3.440329797448102e+000	 1.059177370430322e+001
 3.478964548593018e+000	 3.478964548593018e+000	 1.057917582305517e+001
 3.440329797448102e+000	 3.517174927615451e+000	 1.056489789712544e+001
 3.401277781489275e+000	 3.554953982490301e+000	 1.055001940921878e+001
 3.361815758951137e+000	 3.592294920691351e+000	 1.053562224316416e+001
 3.321951134500448e+000	 3.629191113259292e+000	 1.052245125031099e+001
 3.281691454611689e+000	 3.665636098717227e+000	 1.050620822397539e+001
 3.685504686427484e+000	 3.299478974366764e+000	 1.061051136863431e+001
 3.648862160796576e+000	 3.339956870946316e+000	 1.060896904806991e+001
 3.611765982409771e+000	 3.380037570796788e+000	 1.060599163330681e+001
 3.574222647766643e+000	 3.419713486540085e+000	 1.059873764998105e+001
 3.536238821756975e+000	 3.458977173374460e+000	 1.058806585469962e+001
 3.497821333724026e+000	 3.497821333724026e+000	 1.057487337120143e+001
 3.458977173374461e+000	 3.536238821756975e+000	 1.056008354945713e+001
 3.419713486540085e+000	 3.574222647766643e+000	 1.054463360434384e+001
 3.380037570796788e+000	 3.611765982409771e+000	 1.052946213152922e+001
 3.339956870946316e+000	 3.648862160796576e+000	 1.051549659912991e+001
 3.299478974366763e+000	 3.685504686427483e+000	 1.050104715101781e+001
 3.705373045651260e+000	 3.317266289568248e+000	 1.060710261579874e+001
 3.668532982119181e+000	 3.357962400329018e+000	 1.060655979899235e+001
 3.631236820213418e+000	 3.398259173094338e+000	 1.060238983573094e+001
 3.593491091455829e+000	 3.438148979582966e+000	 1.059446377575432e+001
 3.555302496666260e+000	 3.477624334858628e+000	 1.058348952973910e+001
 3.516677902004593e+000	 3.516677902004593e+000	 1.057021263477214e+001
 3.477624334858627e+000	 3.555302496666260e+000	 1.055540398422911e+001
 3.438148979582966e+000	 3.593491091455829e+000	 1.053984733247420e+001
 3.398259173094338e+000	 3.631236820213418e+000	 1.052432667469209e+001
 3.357962400329018e+000	 3.668532982119181e+000	 1.050961360311871e+001
 3.317266289568248e+000	 3.705373045651260e+000	 1.049589925530690e+001
 3.725241141618175e+000	 3.335053369087720e+000	 1.060285592313448e+001
 3.688203542802433e+000	 3.375967691138236e+000	 1.060170298384581e+001
 3.650707400027606e+000	 3.416480533955327e+000	 1.059682988975960e+001
 3.612759279837374e+000	 3.456584228355136e+000	 1.058873434480837e+001
 3.574365918981176e+000	 3.496271249267390e+000	 1.057796285117228e+001
 3.535534220435035e+000	 3.535534220435034e+000	 1.056509865038956e+001
 3.496271249267390e+000	 3.574365918981176e+000	 1.055074933339669e+001
 3.456584228355136e+000	 3.612759279837374e+000	 1.053553422074072e+001
 3.416480533955327e+000	 3.650707400027606e+000	 1.052007161599426e+001
 3.375967691138236e+000	 3.688203542802433e+000	 1.050496603638242e+001
 3.335053369087720e+000	 3.725241141618175e+000	 1.049079552479365e+001
 3.157175703613221e+000	 3.526552507836178e+000	 1.054055025371334e+001
 3.118065011326384e+000	 3.561179699818027e+000	 1.051602321658726e+001
 3.078589058694385e+000	 3.595360738185272e+000	 1.049135812283057e+001
 3.038755493602876e+000	 3.629089911770705e+000	 1.046675062641445e+001
 2.998572081419611e+000	 3.662361684203525e+000	 1.044237126031186e+001
 2.958046700001627e+000	 3.695170696876085e+000	 1.041834319443135e+001
 2.917187334614500e+000	 3.727511771739845e+000	 1.039472173793814e+001
 2.876002072770478e+000	 3.759379913927594e+000	 1.037147573630962e+001
 2.834499098992381e+000	 3.790770314199297e+000	 1.034847099363089e+001
 2.792686689510306e+000	 3.821678351209255e+000	 1.032545583001321e+001
 2.750573206898158e+000	 3.852099593592544e+000	 1.030204886281205e+001
 3.174963783647567e+000	 3.546421721381069e+000	 1.053599774056147e+001
 3.135632734880840e+000	 3.581244009018294e+000	 1.051169435493257e+001
 3.095934367828270e+000	 3.615617629333495e+000	 1.048713929385179e+001
 3.055876373465033e+000	 3.649536838981733e+000	 1.046257941624160e+001
 3.015466560910336e+000	 3.682996070399315e+000	 1.043823134074702e+001
 2.974712852406443e+000	 3.715989934787254e+000	 1.041425837387258e+001
 2.933623278209317e+000	 3.748513224922959e+000	 1.039074926850007e+001
 2.892205971397670e+000	 3.780560917797260e+000	 1.036769896806128e+001
 2.850469162607365e+000	 3.812128177074004e+000	 1.034499147099809e+001
 2.808421174698224e+000	 3.843210355370014e+000	 1.032238492869897e+001
 2.766070417360369e+000	 3.873802996353269e+000	 1.029949906805628e+001
 3.192751877027288e+000	 3.566290949832161e+000	 1.053129505550091e+001
 3.153200471615381e+000	 3.601308333271101e+000	 1.050740921051259e+001
 3.113279689975391e+000	 3.635874535678719e+000	 1.048309030143368e+001
 3.072997266172066e+000	 3.669983781532329e+000	 1.045865170728488e+001
 3.032361053076081e+000	 3.703630472075320e+000	 1.043437120418979e+001
 2.991379017314971e+000	 3.736809188317337e+000	 1.041046701249310e+001
 2.950059234135116e+000	 3.769514693861728e+000	 1.038707576351601e+001
 2.908409882181733e+000	 3.801741937557330e+000	 1.036423254633477e+001
 2.866439238203751e+000	 3.833486055971865e+000	 1.034185317350165e+001
 2.824155671690768e+000	 3.864742375684651e+000	 1.031971878233554e+001
 2.781567639449146e+000	 3.895506415396550e+000	 1.029746286550118e+001
 3.210539952623960e+000	 3.586160158419070e+000	 1.052645818463316e+001
 3.170768190787212e+000	 3.621372637464638e+000	 1.050316499817079e+001
 3.130624994782196e+000	 3.656131421772108e+000	 1.047919145807154e+001
 3.090118141763177e+000	 3.690430703641078e+000	 1.045493255660860e+001
 3.049255528352266e+000	 3.724264853122051e+000	 1.043074206410722e+001
 3.008045165562214e+000	 3.757628421033338e+000	 1.040690764357139e+001
 2.966495173629784e+000	 3.790516141804253e+000	 1.038362797755350e+001
 2.924613776766639e+000	 3.822922936141672e+000	 1.036099207295176e+001
 2.882409297834738e+000	 3.854843913517219e+000	 1.033896088710204e+001
 2.839890152953399e+000	 3.886274374472734e+000	 1.031735139536393e+001
 2.797064846045182e+000	 3.917209812741993e+000	 1.029582319659985e+001
 3.228327979309159e+000	 3.606029312371414e+000	 1.052150707858013e+001
 3.188335861653542e+000	 3.641436886487099e+000	 1.049896327471113e+001
 3.147970251895125e+000	 3.676388252164827e+000	 1.047542782405707e+001
 3.107238970277573e+000	 3.710877569526563e+000	 1.045139221058604e+001
 3.066149957174312e+000	 3.744899177430023e+000	 1.042730080745791e+001
 3.024711267983182e+000	 3.778447596502260e+000	 1.040352500742170e+001
 2.982931067931204e+000	 3.811517531998638e+000	 1.038033946149901e+001
 2.940817626796362e+000	 3.844103876484156e+000	 1.035790059712632e+001
 2.898379313553517e+000	 3.876201712334408e+000	 1.033622756373280e+001
 2.855624590951576e+000	 3.907806314053837e+000	 1.031518572965957e+001
 2.812562010029165e+000	 3.938913150409198e+000	 1.029447282960653e+001
 3.246115925954463e+000	 3.625898376918810e+000	 1.051646474265460e+001
 3.205903453471578e+000	 3.661501045226677e+000	 1.049480900980517e+001
 3.165315430960621e+000	 3.696644991408035e+000	 1.047178826092423e+001
 3.124359721754459e+000	 3.731324343407371e+000	 1.044800514254678e+001
 3.083044309977635e+000	 3.765533408889745e+000	 1.042400901806083e+001
 3.041377295412882e+000	 3.799266678291102e+000	 1.040026906185824e+001
 2.999366888277262e+000	 3.832518827692987e+000	 1.037714956134213e+001
 2.957021403914880e+000	 3.865284721518647e+000	 1.035488760364232e+001
 2.914349257413283e+000	 3.897559415047773e+000	 1.033357329978917e+001
 2.871358958150760e+000	 3.929338156747529e+000	 1.031313267409343e+001
 2.828059104281789e+000	 3.960616390417767e+000	 1.029331332081162e+001
 3.263903761431447e+000	 3.645767317290875e+000	 1.051135632803733e+001
 3.223470935498525e+000	 3.681565078571562e+000	 1.049070965833084e+001
 3.182660501625123e+000	 3.716901604052892e+000	 1.046826448672617e+001
 3.141480366233044e+000	 3.751770989502083e+000	 1.044474909263380e+001
 3.099938557197659e+000	 3.786167511391734e+000	 1.042083200253648e+001
 3.058043218686317e+000	 3.820085629966870e+000	 1.039709399558366e+001
 3.015802605905841e+000	 3.853519992135404e+000	 1.037400242023078e+001
 2.973225079766165e+000	 3.886465434179013e+000	 1.035188800464770e+001
 2.930319101467231e+000	 3.918916984281657e+000	 1.033092431858463e+001
 2.887093227016413e+000	 3.950869864873384e+000	 1.031111001842150e+001
 2.843556101683741e+000	 3.982319494787302e+000	 1.029225398048022e+001
 3.281691454611689e+000	 3.665636098717227e+000	 1.050620822397539e+001
 3.241038276991591e+000	 3.701628951409947e+000	 1.048667423414206e+001
 3.200005433535079e+000	 3.737158054650565e+000	 1.046485013312783e+001
 3.158600873752532e+000	 3.772217472029283e+000	 1.044160410984057e+001
 3.116832669269804e+000	 3.806801448826499e+000	 1.041773781877753e+001
 3.074709008638497e+000	 3.840904415096564e+000	 1.039395724444590e+001
 3.032238192054828e+000	 3.874520988573996e+000	 1.037084598372810e+001
 2.989428625994191e+000	 3.907645977399120e+000	 1.034884113498331e+001
 2.946288817768555e+000	 3.940274382660400e+000	 1.032821195667878e+001
 2.902827370013992e+000	 3.972401400750971e+000	 1.030904143139176e+001
 2.859052975115711e+000	 4.004022425537404e+000	 1.029118611827622e+001
 3.299478974366763e+000	 3.685504686427483e+000	 1.050104715101781e+001
 3.258605447207982e+000	 3.721692628630023e+000	 1.048271238527086e+001
 3.217350196336926e+000	 3.757414307752213e+000	 1.046153980430150e+001
 3.175721214352127e+000	 3.792663755207555e+000	 1.043855159620257e+001
 3.133726616629490e+000	 3.827435185084556e+000	 1.041469630691000e+001
 3.091374636104424e+000	 3.861722997247187e+000	 1.039081851051183e+001
 3.048673617962106e+000	 3.895521780256860e+000	 1.036763100820673e+001
 3.005632014242934e+000	 3.928826314112840e+000	 1.034568975096903e+001
 2.962258378370446e+000	 3.961631572808341e+000	 1.032537165398658e+001
 2.918561359608961e+000	 3.993932726699862e+000	 1.030685544296522e+001
 2.874549697458392e+000	 4.025725144687677e+000	 1.028913030879682e+001
 3.317266289568248e+000	 3.705373045651260e+000	 1.049589925530690e+001
 3.276172415404907e+000	 3.741756075119985e+000	 1.047883347056575e+001
 3.234694759677108e+000	 3.777670327908998e+000	 1.045832813761627e+001
 3.192841358071037e+000	 3.813109803255483e+000	 1.043557335312073e+001
 3.150620369712136e+000	 3.848068684056416e+000	 1.041167812271045e+001
 3.108040071919110e+000	 3.882541339985742e+000	 1.038763878391070e+001
 3.065108854865560e+000	 3.916522330432104e+000	 1.036431007232152e+001
 3.021835216156370e+000	 3.950006407254037e+000	 1.034237903257600e+001
 2.978227755326099e+000	 3.982988517349826e+000	 1.032234194758497e+001
 2.934295168266778e+000	 4.015463805039629e+000	 1.030414781996016e+001
 2.890046241592473e+000	 4.047427614257718e+000	 1.028566336681841e+001
 3.335053369087720e+000	 3.725241141618175e+000	 1.049079552479365e+001
 3.293739150839573e+000	 3.761819255768024e+000	 1.047504563777229e+001
 3.252039093202069e+000	 3.797926079672084e+000	 1.045520886611401e+001
 3.209961274948469e+000	 3.833555580391654e+000	 1.043265062979783e+001
 3.167513898953163e+000	 3.868701909632593e+000	 1.040865377344792e+001
 3.124705286917558e+000	 3.903359406879230e+000	 1.038437936740477e+001
 3.081543874003077e+000	 3.937522602347834e+000	 1.036083659150640e+001
 3.038038203378471e+000	 3.971186219756580e+000	 1.033885558891892e+001
 2.994196920688713e+000	 4.004345178909193e+000	 1.031903828684915e+001
 2.950028768452905e+000	 4.036994598089843e+000	 1.029999885575967e+001
 2.905542580398644e+000	 4.069129796267133e+000	 1.028084107296559e+001
 2.750573206898158e+000	 3.852099593592544e+000	 1.030204886281205e+001
 2.708167093740830e+000	 3.882029800775059e+000	 1.027844741877941e+001
 2.665476864481691e+000	 3.911464921384907e+000	 1.025568906629797e+001
 2.622511102776230e+000	 3.940401098026868e+000	 1.023408399104320e+001
 2.579278456895366e+000	 3.968834669728083e+000	 1.021335198062313e+001
 2.535787634173377e+000	 3.996762173110999e+000	 1.019322300901609e+001
 2.492047395438517e+000	 4.024180343380285e+000	 1.017222186023033e+001
 2.448066549433489e+000	 4.051086115123940e+000	 1.014848377201813e+001
 2.403853947232864e+000	 4.077476622929091e+000	 1.012213976191881e+001
 2.359418476664550e+000	 4.103349201813303e+000	 1.009342601137220e+001
 2.314769056742236e+000	 4.128701387472491e+000	 1.006265728246095e+001
 2.766070417360369e+000	 3.873802996353269e+000	 1.029949906805628e+001
 2.723425380745691e+000	 3.903901835557514e+000	 1.027650767699245e+001
 2.680494627269417e+000	 3.933502798784716e+000	 1.025441679495390e+001
 2.637286788948846e+000	 3.962602006906416e+000	 1.023368699474623e+001
 2.593810562780759e+000	 3.991195778323189e+000	 1.021394696173151e+001
 2.550074705158071e+000	 4.019280630144203e+000	 1.019415047852902e+001
 2.506088026269068e+000	 4.046853279179696e+000	 1.017199775735256e+001
 2.461859384486437e+000	 4.073910642746603e+000	 1.014743322245927e+001
 2.417397680753247e+000	 4.100449839287810e+000	 1.012063802804124e+001
 2.372711852972975e+000	 4.126468188805896e+000	 1.009187371001441e+001
 2.327810870410583e+000	 4.151963213112461e+000	 1.006147654227444e+001
 2.781567639449146e+000	 3.895506415396550e+000	 1.029746286550118e+001
 2.738683679197817e+000	 3.925773886749149e+000	 1.027522451266328e+001
 2.695512401323906e+000	 3.955540692718250e+000	 1.025394367532052e+001
 2.652062486206556e+000	 3.984802932442126e+000	 1.023415301875789e+001
 2.608342679568453e+000	 4.013556903694774e+000	 1.021515214673688e+001
 2.564361786861187e+000	 4.041799104072063e+000	 1.019431716034820e+001
 2.520128667633114e+000	 4.069526231989785e+000	 1.017123839577699e+001
 2.475652229886951e+000	 4.096735187493784e+000	 1.014602837931947e+001
 2.430941424434304e+000	 4.123423072882693e+000	 1.011888279659289e+001
 2.386005239254254e+000	 4.149587193144094e+000	 1.009007482298599e+001
 2.340852693863086e+000	 4.175225056205249e+000	 1.005994935686682e+001
 2.797064846045182e+000	 3.917209812741993e+000	 1.029582319659985e+001
 2.753941962396011e+000	 3.947645916074441e+000	 1.027447345025245e+001
 2.710530160364864e+000	 3.977578564619736e+000	 1.025414591619886e+001
 2.666838168692685e+000	 4.007003835782910e+000	 1.023525762667038e+001
 2.622874781828017e+000	 4.035918006711387e+000	 1.021559983325568e+001
 2.578648854281084e+000	 4.064317555487758e+000	 1.019389262635139e+001
 2.534169294960265e+000	 4.092199162133383e+000	 1.017016393384381e+001
 2.489445061498263e+000	 4.119559709423028e+000	 1.014452853294544e+001
 2.444485154575171e+000	 4.146396283511083e+000	 1.011718238757436e+001
 2.399298612245635e+000	 4.172706174370148e+000	 1.008839686296273e+001
 2.353894504277207e+000	 4.198486876043154e+000	 1.005851284912113e+001
 2.812562010029165e+000	 3.938913150409198e+000	 1.029447282960653e+001
 2.769200203639073e+000	 3.969517885257865e+000	 1.027414069909393e+001
 2.725547878111994e+000	 3.999616375923409e+000	 1.025491099393201e+001
 2.681613810550553e+000	 4.029204678077674e+000	 1.023573984924272e+001
 2.637406844129022e+000	 4.058279048241575e+000	 1.021529477341683e+001
 2.592935882416122e+000	 4.086835944984467e+000	 1.019305225240533e+001
 2.548209883680132e+000	 4.114872029933324e+000	 1.016897871277151e+001
 2.503237855183603e+000	 4.142384168591883e+000	 1.014317642174282e+001
 2.458028847474985e+000	 4.169369430970327e+000	 1.011582763926594e+001
 2.412591948684358e+000	 4.195825092026315e+000	 1.008718873133283e+001
 2.366936278830408e+000	 4.221748631918484e+000	 1.005758419667947e+001
 2.828059104281789e+000	 3.960616390417767e+000	 1.029331332081162e+001
 2.784458376225800e+000	 3.991389756023894e+000	 1.027412210931314e+001
 2.740565528285003e+000	 4.021654088063499e+000	 1.025536190221507e+001
 2.696389385923487e+000	 4.051405420475334e+000	 1.023535068973700e+001
 2.651938841041037e+000	 4.080639989153886e+000	 1.021437767310082e+001
 2.607222846264664e+000	 4.109354233155368e+000	 1.019195620312530e+001
 2.562250409222322e+000	 4.137544795712441e+000	 1.016787132734515e+001
 2.517030586806201e+000	 4.165208525057891e+000	 1.014219831780165e+001
 2.471572479432886e+000	 4.192342475057773e+000	 1.011509201415705e+001
 2.425885225307669e+000	 4.218943905654851e+000	 1.008678084995688e+001
 2.379977994700152e+000	 4.245010283123538e+000	 1.005756079521437e+001
 2.843556101683741e+000	 3.982319494787302e+000	 1.029225398048022e+001
 2.799716453454992e+000	 4.013261490097004e+000	 1.027404189209804e+001
 2.755583084603597e+000	 4.043691662474240e+000	 1.025470746167304e+001
 2.711164868954809e+000	 4.073606024124798e+000	 1.023421114118645e+001
 2.666470747133636e+000	 4.103000790316870e+000	 1.021297444469479e+001
 2.621509720825070e+000	 4.131872380593638e+000	 1.019074949844826e+001
 2.576290847016447e+000	 4.160217419793572e+000	 1.016701470176392e+001
 2.530823232229287e+000	 4.188032738878607e+000	 1.014180411704460e+001
 2.485116026748009e+000	 4.215315375570761e+000	 1.011523170858182e+001
 2.439178418852812e+000	 4.242062574798013e+000	 1.008748529563249e+001
 2.393019629063903e+000	 4.268271788950621e+000	 1.005882042321392e+001
 2.859052975115711e+000	 4.004022425537404e+000	 1.029118611827622e+001
 2.814974408625451e+000	 4.035133049201670e+000	 1.027276137757057e+001
 2.770600520787481e+000	 4.065729060589862e+000	 1.025304401230965e+001
 2.725940233787844e+000	 4.095806450174977e+000	 1.023242314756288e+001
 2.681002536976385e+000	 4.125361412599069e+000	 1.021125326850785e+001
 2.635796481095702e+000	 4.154390347892455e+000	 1.018956208562912e+001
 2.590331172492116e+000	 4.182889862499548e+000	 1.016656617046790e+001
 2.544615767316093e+000	 4.210856770111573e+000	 1.014218743374205e+001
 2.498659465719494e+000	 4.238288092306640e+000	 1.011648576593580e+001
 2.452471506057028e+000	 4.265181058998053e+000	 1.008959593717644e+001
 2.406061159099123e+000	 4.291533108692034e+000	 1.006172140823868e+001
 2.874549697458392e+000	 4.025725144687677e+000	 1.028913030879682e+001
 2.830232215035976e+000	 4.057004395062370e+000	 1.027023834449177e+001
 2.785617810556359e+000	 4.087766243844597e+000	 1.025044993462755e+001
 2.740715454565916e+000	 4.118006659774781e+000	 1.023007020012344e+001
 2.695534185138857e+000	 4.147721816869036e+000	 1.020937058556311e+001
 2.650083102074918e+000	 4.176908095644997e+000	 1.018850891647024e+001
 2.604371361078937e+000	 4.205562084153207e+000	 1.016666756377096e+001
 2.558408167929847e+000	 4.233680578814339e+000	 1.014352569924404e+001
 2.512202772646476e+000	 4.261260585062754e+000	 1.011907619335366e+001
 2.465764463657564e+000	 4.288299317797230e+000	 1.009338857504108e+001
 2.419102561983274e+000	 4.314794201640082e+000	 1.006660279460987e+001
 2.890046241592473e+000	 4.047427614257718e+000	 1.028566336681841e+001
 2.845489845985365e+000	 4.078875489403575e+000	 1.026653604323425e+001
 2.800634927629938e+000	 4.109803173672678e+000	 1.024698600963505e+001
 2.755490505432347e+000	 4.140206614073120e+000	 1.022721793925701e+001
 2.710065666190624e+000	 4.170081963995318e+000	 1.020740454930252e+001
 2.664369558761082e+000	 4.199425584444443e+000	 1.018769002960158e+001
 2.618411388206522e+000	 4.228234045077379e+000	 1.016744529813347e+001
 2.572200409933783e+000	 4.256504125044452e+000	 1.014598026478530e+001
 2.525745923828092e+000	 4.284232813636448e+000	 1.012320808173270e+001
 2.479057268391664e+000	 4.311417310737799e+000	 1.009912108338366e+001
 2.432143814893819e+000	 4.338055027087065e+000	 1.007378451248954e+001
 2.905542580398644e+000	 4.069129796267133e+000	 1.028084107296559e+001
 2.860747274772420e+000	 4.100746293949762e+000	 1.026170083882481e+001
 2.815651845727925e+000	 4.131839811508338e+000	 1.024269603814123e+001
 2.770265360530463e+000	 4.162406274218905e+000	 1.022391476160837e+001
 2.724596954701255e+000	 4.192441814846461e+000	 1.020541561898401e+001
 2.678655826152554e+000	 4.221942774883971e+000	 1.018723299009826e+001
 2.632451229304479e+000	 4.250905705594900e+000	 1.016901047091496e+001
 2.585992469191127e+000	 4.279327368859455e+000	 1.014969650822460e+001
 2.539288895563483e+000	 4.307204737825071e+000	 1.012906972899036e+001
 2.492349896996570e+000	 4.334534997362014e+000	 1.010703355451130e+001
 2.445184895008223e+000	 4.361315544325288e+000	 1.008356754831435e+001
 2.314769056742236e+000	 4.128701387472491e+000	 1.006265728246095e+001
 2.269921375286927e+000	 4.153527231960959e+000	 1.003124862089756e+001
 2.224877713832085e+000	 4.177828517788692e+000	 1.000013809015827e+001
 2.179647050109438e+000	 4.201603386542996e+000	 9.969024451671462e+000
 2.134238370909848e+000	 4.224850179576209e+000	 9.937642763382243e+000
 2.088660666674489e+000	 4.247567437359611e+000	 9.905760409820333e+000
 2.042922926136646e+000	 4.269753898666801e+000	 9.873173208801646e+000
 1.997034131020162e+000	 4.291408499589529e+000	 9.839713594486835e+000
 1.951003250800438e+000	 4.312530372389278e+000	 9.808255394808342e+000
 1.904839237533663e+000	 4.333118844188068e+000	 9.780334634760919e+000
 1.858551020759794e+000	 4.353173435502171e+000	 9.754898198056033e+000
 2.327810870410583e+000	 4.151963213112461e+000	 1.006147654227444e+001
 2.282710509275002e+000	 4.176928930750042e+000	 1.003074163518846e+001
 2.237413063954258e+000	 4.201367134271600e+000	 1.000047695555759e+001
 2.191927562762202e+000	 4.225275954793839e+000	 9.970386810453451e+000
 2.146263043122858e+000	 4.248653724323997e+000	 9.940215011040998e+000
 2.100428546131131e+000	 4.271498975110129e+000	 9.909740747038800e+000
 2.054433111164409e+000	 4.293810438819873e+000	 9.878774539974657e+000
 2.008285770551152e+000	 4.315587045550745e+000	 9.847154298061190e+000
 1.961995544302362e+000	 4.336827922675253e+000	 9.816400462511698e+000
 1.915571434911692e+000	 4.357532393524315e+000	 9.789058523824748e+000
 1.869022422229697e+000	 4.377699975912726e+000	 9.764207453185566e+000
 2.340852693863086e+000	 4.175225056205249e+000	 1.005994935686682e+001
 2.295499652857716e+000	 4.200330647096901e+000	 1.002971169709183e+001
 2.249948423480745e+000	 4.224905768415010e+000	 1.000008568395069e+001
 2.204208084628181e+000	 4.248948540805665e+000	 9.970791626318665e+000
 2.158287724357238e+000	 4.272457286930998e+000	 9.941591042322177e+000
 2.112196434416588e+000	 4.295430530815842e+000	 9.912282377384804e+000
 2.065943304827759e+000	 4.317866997021875e+000	 9.882696806047703e+000
 2.019537418523855e+000	 4.339765609652385e+000	 9.852694141300010e+000
 1.972987846051518e+000	 4.361125491190895e+000	 9.822909090285947e+000
 1.926303640341893e+000	 4.381945961177230e+000	 9.796184069336118e+000
 1.879493831556171e+000	 4.402226534724702e+000	 9.771983771799933e+000
 2.353894504277207e+000	 4.198486876043154e+000	 1.005851284912113e+001
 2.308288783654709e+000	 4.223732340049086e+000	 1.002866296406577e+001
 2.262483770475299e+000	 4.248444379026887e+000	 9.999519678333147e+000
 2.216488594217080e+000	 4.272621103152047e+000	 9.970829652135121e+000
 2.170312393570410e+000	 4.296260825741617e+000	 9.942380972546749e+000
 2.123964310937664e+000	 4.319362062597204e+000	 9.913998714138058e+000
 2.077453486984452e+000	 4.341923531174544e+000	 9.885540591161798e+000
 2.030789055248471e+000	 4.363944149582699e+000	 9.856892725924006e+000
 1.983980136811944e+000	 4.385423035416231e+000	 9.828200753038285e+000
 1.937035835043453e+000	 4.406359504423866e+000	 9.802048008034587e+000
 1.889965230414765e+000	 4.426753069017446e+000	 9.778464347864643e+000
 2.366936278830408e+000	 4.221748631918484e+000	 1.005758419667947e+001
 2.321077879285621e+000	 4.247133968654143e+000	 1.002807839735559e+001
 2.275019083001671e+000	 4.271982924915197e+000	 9.999312269918814e+000
 2.228769070038613e+000	 4.296293600406571e+000	 9.971069072336070e+000
 2.182337029719799e+000	 4.320064299100254e+000	 9.943172233989033e+000
 2.135732155101160e+000	 4.343293528574663e+000	 9.915480757696178e+000
 2.088963637492247e+000	 4.365979999179607e+000	 9.887884723860584e+000
 2.042040661035200e+000	 4.388122623029947e+000	 9.860300922242898e+000
 1.994972397347677e+000	 4.409720512831290e+000	 9.832689186538424e+000
 1.947768000235553e+000	 4.430772980541284e+000	 9.806984015660241e+000
 1.900436600481028e+000	 4.451279535870308e+000	 9.783886358236176e+000
 2.379977994700152e+000	 4.245010283123538e+000	 1.005756079521437e+001
 2.333866917370094e+000	 4.270535491959619e+000	 1.002841995461529e+001
 2.287554339123615e+000	 4.295521364887908e+000	 9.999974929972245e+000
 2.241049490602490e+000	 4.319965991142815e+000	 9.972055723763502e+000
 2.194361611762827e+000	 4.343867665351315e+000	 9.944529795480799e+000
 2.147499946313881e+000	 4.367224886868669e+000	 9.917297303648306e+000
 2.100473736208903e+000	 4.390036358938797e+000	 9.890286463311378e+000
 2.053292216194243e+000	 4.412300987682381e+000	 9.863449045350109e+000
 2.005964608422758e+000	 4.434017880916100e+000	 9.836756041856726e+000
 1.958500117137380e+000	 4.455186346806542e+000	 9.811321878076040e+000
 1.910907923430507e+000	 4.475805892362633e+000	 9.788486109915441e+000
 2.393019629063903e+000	 4.268271788950621e+000	 1.005882042321392e+001
 2.346655875527765e+000	 4.293936869013054e+000	 1.003012878291673e+001
 2.300089516904883e+000	 4.319059657752982e+000	 1.000199748122676e+001
 2.253329834418422e+000	 4.343638233934360e+000	 9.974313315621355e+000
 2.206386118656919e+000	 4.367670882839204e+000	 9.946996380977339e+000
 2.159267663982630e+000	 4.391156095599676e+000	 9.919995149992767e+000
 2.111983762992179e+000	 4.414092568353846e+000	 9.893281685183988e+000
 2.064543701035800e+000	 4.436479201228258e+000	 9.866847009652108e+000
 2.016956750801223e+000	 4.458315097150689e+000	 9.840696661595837e+000
 1.969232166968115e+000	 4.479599560496697e+000	 9.815386665149932e+000
 1.921379180938751e+000	 4.500332095573771e+000	 9.792498191875342e+000
 2.406061159099123e+000	 4.291533108692034e+000	 1.006172140823868e+001
 2.359444731378276e+000	 4.317338058861998e+000	 1.003362541214735e+001
 2.312624594409227e+000	 4.342597762318389e+000	 1.000584830891931e+001
 2.265610079996117e+000	 4.367310287354787e+000	 9.978343648587902e+000
 2.218410529359499e+000	 4.391473909908328e+000	 9.951092687140838e+000
 2.171035287514209e+000	 4.415087112888133e+000	 9.924099303547708e+000
 2.123493697699832e+000	 4.438148585326483e+000	 9.897385067216755e+000
 2.075795095870068e+000	 4.460657221355827e+000	 9.870984483899633e+000
 2.027948805247112e+000	 4.482612119015087e+000	 9.844940445736286e+000
 1.979964130946946e+000	 4.504012578888808e+000	 9.819497907348131e+000
 1.931850354681307e+000	 4.524858102583068e+000	 9.796154631342649e+000
 2.419102561983274e+000	 4.314794201640082e+000	 1.006660279460987e+001
 2.372233462541266e+000	 4.340739020553997e+000	 1.003930994879667e+001
 2.325159549700400e+000	 4.366135637392092e+000	 1.001197457147171e+001
 2.277890205845287e+000	 4.390982109977675e+000	 9.984626833134090e+000
 2.230434822827990e+000	 4.415276704903087e+000	 9.957317599993521e+000
 2.182802796315422e+000	 4.439017896854491e+000	 9.930113185600858e+000
 2.135003520189621e+000	 4.462204367758440e+000	 9.903090274498155e+000
 2.087046381007252e+000	 4.484835005753348e+000	 9.876331046718303e+000
 2.038940752524462e+000	 4.506908903989322e+000	 9.849918529520373e+000
 1.990695990293054e+000	 4.528425359259935e+000	 9.823968774995885e+000
 1.942321426333725e+000	 4.549383870469874e+000	 9.799684054421357e+000
 2.432143814893819e+000	 4.338055027087065e+000	 1.007378451248954e+001
 2.385022046636375e+000	 4.364139713136595e+000	 1.004756227013137e+001
 2.337694360842154e+000	 4.389673241782057e+000	 1.002080241084592e+001
 2.290170190475642e+000	 4.414653660376604e+000	 9.993621507092367e+000
 2.242458978019817e+000	 4.439079226167888e+000	 9.966148410690320e+000
 2.194570169793072e+000	 4.462948405619200e+000	 9.938518836842157e+000
 2.146513210319304e+000	 4.486259873551445e+000	 9.910870144490035e+000
 2.098297536757549e+000	 4.509012512109074e+000	 9.883336342636468e+000
 2.049932573397312e+000	 4.531205409553420e+000	 9.856043349688870e+000
 2.001427726225625e+000	 4.552837858887132e+000	 9.829104530152033e+000
 1.952792377571551e+000	 4.573909356313535e+000	 9.803310850951462e+000
 2.445184895008223e+000	 4.361315544325288e+000	 1.008356754831435e+001
 2.397810461283245e+000	 4.387540095657339e+000	 1.005874221875818e+001
 2.350229005898243e+000	 4.413210534296250e+000	 1.003273716259944e+001
 2.302450012396893e+000	 4.438324897125159e+000	 1.000576505251805e+001
 2.254482973892404e+000	 4.462881432047135e+000	 9.978041030458320e+000
 2.206337387353962e+000	 4.486878597302711e+000	 9.949777121620864e+000
 2.158022747946641e+000	 4.510315060607234e+000	 9.921176871817581e+000
 2.109548543431158e+000	 4.533189698111257e+000	 9.892430238607053e+000
 2.060924248629702e+000	 4.555501593187414e+000	 9.863708763926697e+000
 2.012159319963842e+000	 4.577250035047464e+000	 9.835161053063102e+000
 1.963263190070333e+000	 4.598434517193399e+000	 9.807254343503210e+000
 1.858551020759794e+000	 4.353173435502171e+000	 9.754898198056033e+000
 1.812140533433458e+000	 4.372696747465477e+000	 9.730401065955128e+000
 1.765623585772689e+000	 4.391685636628613e+000	 9.705857084781474e+000
 1.719009016112671e+000	 4.410140196866270e+000	 9.681147709848668e+000
 1.672305620595791e+000	 4.428060708201621e+000	 9.656216821378191e+000
 1.625522148514562e+000	 4.445447634610877e+000	 9.631067138725298e+000
 1.578667297757052e+000	 4.462301621696777e+000	 9.605756444659233e+000
 1.531749710358706e+000	 4.478623494235841e+000	 9.580393604125217e+000
 1.484777968164294e+000	 4.494414253604442e+000	 9.555134369482481e+000
 1.437760588603412e+000	 4.509675075088746e+000	 9.530176971651693e+000
 1.390706020582741e+000	 4.524407305083716e+000	 9.505757503831010e+000
 1.869022422229697e+000	 4.377699975912726e+000	 9.764207453185566e+000
 1.822350450101617e+000	 4.397333285629620e+000	 9.740311032362801e+000
 1.775571417823013e+000	 4.416429161514879e+000	 9.716353676302662e+000
 1.728694213525793e+000	 4.434987697972089e+000	 9.692205696530612e+000
 1.681727682911335e+000	 4.453009176602113e+000	 9.667795608386916e+000
 1.634680624567193e+000	 4.470494063995282e+000	 9.643106758792573e+000
 1.587561785386847e+000	 4.487443009391756e+000	 9.618173737266346e+000
 1.540379856096477e+000	 4.503856842214985e+000	 9.593078553115001e+000
 1.493143466892459e+000	 4.519736569483269e+000	 9.567946569716170e+000
 1.445861183193071e+000	 4.535083373104527e+000	 9.542942194677742e+000
 1.398541501507601e+000	 4.549898607059533e+000	 9.518264332298143e+000
 1.879493831556171e+000	 4.402226534724702e+000	 9.771983771799933e+000
 1.832560374430207e+000	 4.421969842277712e+000	 9.748746754560653e+000
 1.785519257337162e+000	 4.441172704965379e+000	 9.725395097770013e+000
 1.738379418205698e+000	 4.459835217720181e+000	 9.701791146931939e+000
 1.691149752296235e+000	 4.477957663720667e+000	 9.677853420426393e+000
 1.643839107491402e+000	 4.495540512171281e+000	 9.653553420284259e+000
 1.596456279690133e+000	 4.512584415949611e+000	 9.628912194728768e+000
 1.549010008309379e+000	 4.529090209126037e+000	 9.603996633995752e+000
 1.501508971897163e+000	 4.545058904360770e+000	 9.578915489393831e+000
 1.453961783860480e+000	 4.560491690183496e+000	 9.553815113874398e+000
 1.406376988311272e+000	 4.575389928160809e+000	 9.528874930455661e+000
 1.889965230414765e+000	 4.426753069017446e+000	 9.778464347864643e+000
 1.842770288552342e+000	 4.446606374296625e+000	 9.755850803993562e+000
 1.795467086906851e+000	 4.465916223679772e+000	 9.733055907415345e+000
 1.748064613203671e+000	 4.484682712628255e+000	 9.709937011125366e+000
 1.700571812262212e+000	 4.502906125898311e+000	 9.686407784469767e+000
 1.652997581260137e+000	 4.520586935308484e+000	 9.662435177393119e+000
 1.605350765101788e+000	 4.537725797373788e+000	 9.638036100244150e+000
 1.557640151894845e+000	 4.554323550811518e+000	 9.613273799335245e+000
 1.509874468538930e+000	 4.570381213923803e+000	 9.588253917372557e+000
 1.462062376429717e+000	 4.585899981862074e+000	 9.563120236646395e+000
 1.414212467281752e+000	 4.600881223778737e+000	 9.538050111398912e+000
 1.900436600481028e+000	 4.451279535870308e+000	 9.783886358236176e+000
 1.852980174601130e+000	 4.471242838573231e+000	 9.761768659409670e+000
 1.805414889123797e+000	 4.490659674357718e+000	 9.739415891316714e+000
 1.757749781570993e+000	 4.509530139214029e+000	 9.716683182327422e+000
 1.709993846320988e+000	 4.527854519476076e+000	 9.693484280043107e+000
 1.662156029846346e+000	 4.545633289576499e+000	 9.669788640478558e+000
 1.614245226056694e+000	 4.562867109667729e+000	 9.645618191825880e+000
 1.566270271750308e+000	 4.579556823113962e+000	 9.621043751769550e+000
 1.518239942178288e+000	 4.595703453859223e+000	 9.596181086736877e+000
 1.470162946724856e+000	 4.611308203676677e+000	 9.571186610725734e+000
 1.422047924707039e+000	 4.626372449304512e+000	 9.546252730350894e+000
 1.910907923430507e+000	 4.475805892362633e+000	 9.788486109915441e+000
 1.863190014709682e+000	 4.495879191994394e+000	 9.766647832839650e+000
 1.815362646579719e+000	 4.515403013698873e+000	 9.744559183782855e+000
 1.767434906358945e+000	 4.534377453995209e+000	 9.722075627232730e+000
 1.719415837984281e+000	 4.552802800794987e+000	 9.699115694907771e+000
 1.671314437222977e+000	 4.570679531144937e+000	 9.675658172337716e+000
 1.623139646989730e+000	 4.588008308834882e+000	 9.651738914235043e+000
 1.574900352773204e+000	 4.604789981875901e+000	 9.627447266488789e+000
 1.526605378175763e+000	 4.621025579853892e+000	 9.602922082542150e+000
 1.478263480569972e+000	 4.636716311163720e+000	 9.578347331677884e+000
 1.429883346875132e+000	 4.651863560129327e+000	 9.553947306227794e+000
 1.921379180938751e+000	 4.500332095573771e+000	 9.792498191875342e+000
 1.873399791011110e+000	 4.520515391446992e+000	 9.770637001872355e+000
 1.825310341866332e+000	 4.540146198402895e+000	 9.748573395238276e+000
 1.777119970618810e+000	 4.559224613489509e+000	 9.726165524537722e+000
 1.728837770763811e+000	 4.577750926196077e+000	 9.703341189108524e+000
 1.680472787362977e+000	 4.595725616183406e+000	 9.680095092509600e+000
 1.632034012335777e+000	 4.613149350878687e+000	 9.656485678107353e+000
 1.583530379860965e+000	 4.630022982939862e+000	 9.632631519579199e+000
 1.534970761891882e+000	 4.646347547594663e+000	 9.608707253579448e+000
 1.486363963789141e+000	 4.662124259859619e+000	 9.584939052103255e+000
 1.437718720074029e+000	 4.677354511644375e+000	 9.561311998078322e+000
 1.931850354681307e+000	 4.524858102583068e+000	 9.796154631342649e+000
 1.883609485638523e+000	 4.545151393817890e+000	 9.773885148039158e+000
 1.835257957575353e+000	 4.564889185169442e+000	 9.751548747372693e+000
 1.786804957401869e+000	 4.584071574214638e+000	 9.729008411388218e+000
 1.738259628171301e+000	 4.602698852020377e+000	 9.706205467111980e+000
 1.689631064239296e+000	 4.620771500861515e+000	 9.683156889346092e+000
 1.640928306529714e+000	 4.638290191802595e+000	 9.659952126037769e+000
 1.592160337911028e+000	 4.655255782148380e+000	 9.636749422031331e+000
 1.543336078687171e+000	 4.671669312768398e+000	 9.613717416592950e+000
 1.494464382206437e+000	 4.687532005300789e+000	 9.590256393785555e+000
 1.445554030591727e+000	 4.702845259240850e+000	 9.566224120584375e+000
 1.942321426333725e+000	 4.549383870469874e+000	 9.799684054421357e+000
 1.893819080725033e+000	 4.569787155993959e+000	 9.776540701128740e+000
 1.845205476298500e+000	 4.589631930698174e+000	 9.753577215330026e+000
 1.796489849759405e+000	 4.608918292688313e+000	 9.730663337498266e+000
 1.747681393718468e+000	 4.627646534608914e+000	 9.707757957773172e+000
 1.698789251824879e+000	 4.645817141348874e+000	 9.684906439596704e+000
 1.649822514006423e+000	 4.663430787610048e+000	 9.662237405396237e+000
 1.600790211820825e+000	 4.680488335343983e+000	 9.639558127985785e+000
 1.551701313922157e+000	 4.696990831061952e+000	 9.616241804139275e+000
 1.502564721645936e+000	 4.712939503023649e+000	 9.592397634879458e+000
 1.453389264716227e+000	 4.728335758309949e+000	 9.568195214708796e+000
 1.952792377571551e+000	 4.573909356313535e+000	 9.803310850951462e+000
 1.904028558403749e+000	 4.594422634862072e+000	 9.778750689263555e+000
 1.855152880627489e+000	 4.614374391688747e+000	 9.754751676723503e+000
 1.806174630742698e+000	 4.633764725428240e+000	 9.731192026699755e+000
 1.757103050917035e+000	 4.652593930302718e+000	 9.708052001880816e+000
 1.707947334092676e+000	 4.670862493815091e+000	 9.685378751518783e+000
 1.658716619200784e+000	 4.688571094304492e+000	 9.662471324898094e+000
 1.609419986487791e+000	 4.705720598369203e+000	 9.639051614570878e+000
 1.560066452957367e+000	 4.722312058162185e+000	 9.615247912129153e+000
 1.510664967931713e+000	 4.738346708564613e+000	 9.591244181802187e+000
 1.461224408735526e+000	 4.753825964242861e+000	 9.567273691559260e+000
 1.963263190070333e+000	 4.598434517193399e+000	 9.807254343503210e+000
 1.914237900807783e+000	 4.619057787309098e+000	 9.780659894578273e+000
 1.865100153154037e+000	 4.639116524840821e+000	 9.755165067274161e+000
 1.815859283403032e+000	 4.658610828952133e+000	 9.730658045694350e+000
 1.766524583278722e+000	 4.677540995442822e+000	 9.706929253307697e+000
 1.717105295015633e+000	 4.695907514429774e+000	 9.683056150092305e+000
 1.667610606547676e+000	 4.713711067889371e+000	 9.658954562621940e+000
 1.618049646809361e+000	 4.730952527066571e+000	 9.634733238493366e+000
 1.568431481153328e+000	 4.747632949755955e+000	 9.610575288641536e+000
 1.518765106887843e+000	 4.763753577460099e+000	 9.586730932197133e+000
 1.469059448937622e+000	 4.779315832430783e+000	 9.563510885264343e+000
 1.390706020582741e+000	 4.524407305083716e+000	 9.505757503831010e+000
 1.343622639825983e+000	 4.538612457056611e+000	 9.481725737849873e+000
 1.296518743060277e+000	 4.552292205158869e+000	 9.458103777074241e+000
 1.249402546410590e+000	 4.565448384531957e+000	 9.434718041712392e+000
 1.202282182474618e+000	 4.578082989255348e+000	 9.411557556776344e+000
 1.155165696837305e+000	 4.590198169078671e+000	 9.388779489904442e+000
 1.108061044715827e+000	 4.601796226075082e+000	 9.366675020417949e+000
 1.060976087736485e+000	 4.612879611221273e+000	 9.345646575186590e+000
 1.013918590844765e+000	 4.623450920909603e+000	 9.326185991513180e+000
 9.668962193495460e-001	 4.633512893397808e+000	 9.308853948617831e+000
 9.199165361022298e-001	 4.643068405201682e+000	 9.294258140379496e+000
 1.398541501507601e+000	 4.549898607059533e+000	 9.518264332298143e+000
 1.351192844750042e+000	 4.564183793342687e+000	 9.493850486159436e+000
 1.303823556392736e+000	 4.577940615537889e+000	 9.469901592525190e+000
 1.256441898851737e+000	 4.591170919126120e+000	 9.446361955919123e+000
 1.209056050545213e+000	 4.603876709421853e+000	 9.423181296731464e+000
 1.161674102388337e+000	 4.616060148286783e+000	 9.400489132509629e+000
 1.114304054419368e+000	 4.627723550764355e+000	 9.378552267248557e+000
 1.066953812558383e+000	 4.638869381640499e+000	 9.357752458776988e+000
 1.019631185499925e+000	 4.649500251936108e+000	 9.338564898065384e+000
 9.723438817405614e-001	 4.659618915336745e+000	 9.321537795157328e+000
 9.250995067421181e-001	 4.669228264565003e+000	 9.307230241209821e+000
 1.406376988311272e+000	 4.575389928160809e+000	 9.528874930455661e+000
 1.358763055353852e+000	 4.589755148814241e+000	 9.504168731298194e+000
 1.311128375205806e+000	 4.603589045160168e+000	 9.480069372512539e+000
 1.263481256574304e+000	 4.616893473019093e+000	 9.456675922912037e+000
 1.215829923698024e+000	 4.629670448940495e+000	 9.433918979702321e+000
 1.168182512822401e+000	 4.641922146898160e+000	 9.411907131131196e+000
 1.120547068806810e+000	 4.653650894905825e+000	 9.390889042706109e+000
 1.072931541865138e+000	 4.664859171558672e+000	 9.371231613591812e+000
 1.025343784441015e+000	 4.675549602506140e+000	 9.352996831753812e+000
 9.777915482187310e-001	 4.685724956861635e+000	 9.335861046015948e+000
 9.302824812705675e-001	 4.695388143554560e+000	 9.320185041750458e+000
 1.414212467281752e+000	 4.600881223778737e+000	 9.538050111398912e+000
 1.366333258389628e+000	 4.615326478722449e+000	 9.513282837607836e+000
 1.318433186716127e+000	 4.629237449142049e+000	 9.489350887478878e+000
 1.270520607259488e+000	 4.642616001197559e+000	 9.466515314838857e+000
 1.222603790078848e+000	 4.655464162673450e+000	 9.444718217919974e+000
 1.174690916749863e+000	 4.667784119655579e+000	 9.424049063101078e+000
 1.126790076952974e+000	 4.679578213127977e+000	 9.404059699554608e+000
 1.078909265195828e+000	 4.690848935495056e+000	 9.384460443201453e+000
 1.031056377671105e+000	 4.701598927034792e+000	 9.365474513351247e+000
 9.832392092507666e-001	 4.711830972288416e+000	 9.347390606139811e+000
 9.354654506175086e-001	 4.721547996392132e+000	 9.330544897541344e+000
 1.422047924707039e+000	 4.626372449304512e+000	 9.546252730350894e+000
 1.373903440609585e+000	 4.640897738318490e+000	 9.521794543097691e+000
 1.325737978140341e+000	 4.654885782599885e+000	 9.498487406571430e+000
 1.277559938588484e+000	 4.668338458648202e+000	 9.476725890907591e+000
 1.229377637833484e+000	 4.681257805482884e+000	 9.455784189262458e+000
 1.181199302781087e+000	 4.693646021301823e+000	 9.435132210229213e+000
 1.133033067932675e+000	 4.705505460059300e+000	 9.414763726068737e+000
 1.084886972089533e+000	 4.716838627968924e+000	 9.394776565286255e+000
 1.036768955193263e+000	 4.727648179937164e+000	 9.375352849369616e+000
 9.886868553033802e-001	 4.737936915933037e+000	 9.356741103448485e+000
 9.406484057128736e-001	 4.747707777299493e+000	 9.339238585322072e+000
 1.429883346875132e+000	 4.651863560129327e+000	 9.553947306227794e+000
 1.381473588765937e+000	 4.666468882853536e+000	 9.530304697651822e+000
 1.333042736695088e+000	 4.680534000650019e+000	 9.507648865995408e+000
 1.284599238242489e+000	 4.694060800357713e+000	 9.485735479109689e+000
 1.236151455107730e+000	 4.707051332230971e+000	 9.464415497410707e+000
 1.187707659526437e+000	 4.719507806579669e+000	 9.443521605742037e+000
 1.139276030820732e+000	 4.731432590328278e+000	 9.423011264717390e+000
 1.090864652085331e+000	 4.742828203499541e+000	 9.402945358899233e+000
 1.042481507010558e+000	 4.753697315628349e+000	 9.383468572692355e+000
 9.941344768432837e-001	 4.764042742111435e+000	 9.364791664904550e+000
 9.458313374865938e-001	 4.773867440498423e+000	 9.347174151375571e+000
 1.437718720074029e+000	 4.677354511644375e+000	 9.561311998078322e+000
 1.389043689610899e+000	 4.692039867578768e+000	 9.537620922498885e+000
 1.340347449597012e+000	 4.706182058408798e+000	 9.514476189536245e+000
 1.291638493902698e+000	 4.719782981312770e+000	 9.492189092073252e+000
 1.242925230047382e+000	 4.732844697779878e+000	 9.470705965311559e+000
 1.194215975596279e+000	 4.745369430231895e+000	 9.449833368383457e+000
 1.145518954691962e+000	 4.757359558563401e+000	 9.429498626223289e+000
 1.096842294722300e+000	 4.768817616606178e+000	 9.409730523724697e+000
 1.048194023126059e+000	 4.779746288523452e+000	 9.390639855503389e+000
 9.995820643371887e-001	 4.790148405139557e+000	 9.372401905884013e+000
 9.510142368686004e-001	 4.800026940210696e+000	 9.355239514651784e+000
 1.445554030591727e+000	 4.702845259240850e+000	 9.566224120584375e+000
 1.396613729896686e+000	 4.717610647745360e+000	 9.542201846389760e+000
 1.347652104062751e+000	 4.731829910992570e+000	 9.518858859519165e+000
 1.298677693250309e+000	 4.745504956500064e+000	 9.496496212948699e+000
 1.249698950798238e+000	 4.758637856991777e+000	 9.475167926062918e+000
 1.200724239600977e+000	 4.771230847001283e+000	 9.454670440570785e+000
 1.151761828621185e+000	 4.783286319393155e+000	 9.434907007754244e+000
 1.102819889539521e+000	 4.794806821808105e+000	 9.415879042422240e+000
 1.053906493542834e+000	 4.805795053037559e+000	 9.397666881846748e+000
 1.005029608251807e+000	 4.816253859333343e+000	 9.380412512993740e+000
 9.561970947888254e-001	 4.826186230658090e+000	 9.364303052760651e+000
 1.453389264716227e+000	 4.728335758309949e+000	 9.568195214708796e+000
 1.404183696375512e+000	 4.743181178604490e+000	 9.544218688878775e+000
 1.354956687308949e+000	 4.757477513517681e+000	 9.521081721385233e+000
 1.305716823966516e+000	 4.771226680906276e+000	 9.499058434767667e+000
 1.256472605506095e+000	 4.784430764728838e+000	 9.478303259172844e+000
 1.207232440150895e+000	 4.797092011630609e+000	 9.458623075963109e+000
 1.158004641683217e+000	 4.809212827446026e+000	 9.439903010461446e+000
 1.108797426076070e+000	 4.820795773624587e+000	 9.422121721366887e+000
 1.059618908263954e+000	 4.831843563585775e+000	 9.405332404774963e+000
 1.010477099053851e+000	 4.842359059008735e+000	 9.389645627338492e+000
 9.613799021772006e-001	 4.852345266062382e+000	 9.375214171471752e+000
 1.461224408735526e+000	 4.753825964242861e+000	 9.567273691559260e+000
 1.411753575799593e+000	 4.768751415407335e+000	 9.543843281110028e+000
 1.362261186552246e+000	 4.783124821100481e+000	 9.521427723150541e+000
 1.312755873732517e+000	 4.796948109518096e+000	 9.500269859875511e+000
 1.263246182316751e+000	 4.810223375853232e+000	 9.480603831558510e+000
 1.213740565856399e+000	 4.822952878862654e+000	 9.462269315561491e+000
 1.164247382952877e+000	 4.835139037350503e+000	 9.445139144183333e+000
 1.114774893871027e+000	 4.846784426574896e+000	 9.429173717429769e+000
 1.065331257292487e+000	 4.857891774583192e+000	 9.414402288654555e+000
 1.015924527210032e+000	 4.868463958481681e+000	 9.400906149876407e+000
 9.665626499636570e-001	 4.878504000645348e+000	 9.388803858331064e+000
 1.469059448937622e+000	 4.779315832430783e+000	 9.563510885264343e+000
 1.419323354921142e+000	 4.794321313405072e+000	 9.541247849610082e+000
 1.369565589009284e+000	 4.808771788857317e+000	 9.520177921359810e+000
 1.319794830229506e+000	 4.822669197322210e+000	 9.500517491634719e+000
 1.270019669376002e+000	 4.836015645227129e+000	 9.482551929038785e+000
 1.220248605327853e+000	 4.848813403440197e+000	 9.466175452756847e+000
 1.170490041504983e+000	 4.861064903735073e+000	 9.451254319782320e+000
 1.120752282463471e+000	 4.872772735178299e+000	 9.437735051309302e+000
 1.071043530631502e+000	 4.883939640444909e+000	 9.425626037172693e+000
 1.021371883187062e+000	 4.894568512068119e+000	 9.414981114032628e+000
 9.717453290781267e-001	 4.904662388628768e+000	 9.405885220979091e+000
 9.199165361022298e-001	 4.643068405201682e+000	 9.294258140379496e+000
 8.729940319637027e-001	 4.652119147953820e+000	 9.283128189316424e+000
 8.261289947556902e-001	 4.660669736692415e+000	 9.275225393774665e+000
 7.793286506718555e-001	 4.668723442970103e+000	 9.269700275776911e+000
 7.326001138313993e-001	 4.676283661565610e+000	 9.264937336315995e+000
 6.859503841394172e-001	 4.683353906675524e+000	 9.259660423128628e+000
 6.393863452817451e-001	 4.689937808080498e+000	 9.252577662888013e+000
 5.929147628536142e-001	 4.696039107290805e+000	 9.242670208313781e+000
 5.465422826212100e-001	 4.701661653676148e+000	 9.231383854955798e+000
 5.002754289150642e-001	 4.706809400584463e+000	 9.220076194347540e+000
 4.541206031540580e-001	 4.711486401454395e+000	 9.209839616105313e+000
 9.250995067421181e-001	 4.669228264565003e+000	 9.307230241209821e+000
 8.779126330095246e-001	 4.678330000784435e+000	 9.295517865332482e+000
 8.307835499861411e-001	 4.686928765035168e+000	 9.285797703054056e+000
 7.837195245792673e-001	 4.695027847302340e+000	 9.277259506293429e+000
 7.367277109902933e-001	 4.702630661491456e+000	 9.269090719158259e+000
 6.898151485630014e-001	 4.709740741598712e+000	 9.260466488295947e+000
 6.429887597671163e-001	 4.716361737855575e+000	 9.250343868135586e+000
 5.962553483164127e-001	 4.722497412852645e+000	 9.237711163644100e+000
 5.496215974204833e-001	 4.728151637647651e+000	 9.223884961889462e+000
 5.030940681690768e-001	 4.733328387862385e+000	 9.210179974516901e+000
 4.566791980477861e-001	 4.738031739773277e+000	 9.197655124896860e+000
 9.302824812705675e-001	 4.695388143554560e+000	 9.320185041750458e+000
 8.828312377455568e-001	 4.704540873279440e+000	 9.306438942772473e+000
 8.354381087086966e-001	 4.713187813078358e+000	 9.294366705375985e+000
 7.881104017809549e-001	 4.721332271368976e+000	 9.283294267419429e+000
 7.408553112459415e-001	 4.728977681183592e+000	 9.272547689590146e+000
 6.936799158861571e-001	 4.736127596318021e+000	 9.261443205239987e+000
 6.465911769552424e-001	 4.742785687454572e+000	 9.249146032334805e+000
 5.995959362855475e-001	 4.748955738264196e+000	 9.234677159899496e+000
 5.527009145300994e-001	 4.754641641492657e+000	 9.219201530333081e+000
 5.059127095378927e-001	 4.759847395035628e+000	 9.203969972508572e+000
 4.592377948612595e-001	 4.764577098007342e+000	 9.189986927888878e+000
 9.354654506175086e-001	 4.721547996392132e+000	 9.330544897541344e+000
 8.877498375643833e-001	 4.730751719571418e+000	 9.315354875340102e+000
 8.400926627780257e-001	 4.739446834870297e+000	 9.301612675096001e+000
 7.925012745930328e-001	 4.747636669138935e+000	 9.288758839064467e+000
 7.449829073751970e-001	 4.755324674536412e+000	 9.276235683368762e+000
 6.975446793456980e-001	 4.762514424658146e+000	 9.263477461110776e+000
 6.501935905420585e-001	 4.769209610637268e+000	 9.249818706525989e+000
 6.029365209151658e-001	 4.775414037225054e+000	 9.234332298768225e+000
 5.557802285614469e-001	 4.781131618855300e+000	 9.218013343249583e+000
 5.087313480891073e-001	 4.786366375697530e+000	 9.202028560142180e+000
 4.617963891171836e-001	 4.791122429703765e+000	 9.187307684068719e+000
 9.406484057128736e-001	 4.747707777299493e+000	 9.339238585322072e+000
 8.926684238585888e-001	 4.756962493792949e+000	 9.323209908495169e+000
 8.447472040487972e-001	 4.765705784459295e+000	 9.308481233586768e+000
 7.968921353316149e-001	 4.773940994581146e+000	 9.294586357030331e+000
 7.491104921549106e-001	 4.781671595444320e+000	 9.281061722242498e+000
 7.014094321784385e-001	 4.788901180443780e+000	 9.267436770248628e+000
 6.537959942234994e-001	 4.795633461163435e+000	 9.253178488968816e+000
 6.062770963594154e-001	 4.801872263434825e+000	 9.237424560089799e+000
 5.588595341259153e-001	 4.807621523379716e+000	 9.220986078079223e+000
 5.115499788903155e-001	 4.812885283441428e+000	 9.204926206667619e+000
 4.643549763382629e-001	 4.817667688409712e+000	 9.190080540676883e+000
 9.458313374865938e-001	 4.773867440498423e+000	 9.347174151375571e+000
 8.975869880207580e-001	 4.783173150076617e+000	 9.330927280826614e+000
 8.494017243756786e-001	 4.791964615893654e+000	 9.315897056818143e+000
 8.012829763128150e-001	 4.800245201664534e+000	 9.301689400088392e+000
 7.532380583619339e-001	 4.808018397801716e+000	 9.287912974907711e+000
 7.052741676211933e-001	 4.815287817499627e+000	 9.274169801935374e+000
 6.573983816954993e-001	 4.822057192792849e+000	 9.260024485286625e+000
 6.096176567724443e-001	 4.828330370593107e+000	 9.244686223058686e+000
 5.619388258348925e-001	 4.834111308710037e+000	 9.228771681091278e+000
 5.143685970091130e-001	 4.839404071860662e+000	 9.213221798695688e+000
 4.669135520472021e-001	 4.844212827672349e+000	 9.198759391493148e+000
 9.510142368686004e-001	 4.800026940210696e+000	 9.355239514651784e+000
 9.025055214434751e-001	 4.809383642555000e+000	 9.339409823338086e+000
 8.540562156133398e-001	 4.818223283221690e+000	 9.324764463393615e+000
 8.056737898527467e-001	 4.826549244358027e+000	 9.310960559545856e+000
 7.573655987731195e-001	 4.834365035503001e+000	 9.297657301076383e+000
 7.091388789107757e-001	 4.841674289650374e+000	 9.284506892129979e+000
 6.610007466539928e-001	 4.848480759285287e+000	 9.271138753711719e+000
 6.129581963083997e-001	 4.854788312399506e+000	 9.256834273875025e+000
 5.650180982997681e-001	 4.860600928490404e+000	 9.242008729760650e+000
 5.171871975130945e-001	 4.865922694548567e+000	 9.227462949955299e+000
 4.694721117667061e-001	 4.870757801038844e+000	 9.213789126966116e+000
 9.561970947888254e-001	 4.826186230658090e+000	 9.364303052760651e+000
 9.074240155193247e-001	 4.835593925360678e+000	 9.349540541434878e+000
 8.587106696164484e-001	 4.844481740491709e+000	 9.335967985382533e+000
 8.100645682675248e-001	 4.852853076630551e+000	 9.323272991958159e+000
 7.614931061653182e-001	 4.860711462442573e+000	 9.311143779289186e+000
 7.130035592839998e-001	 4.868060550720722e+000	 9.299260539790565e+000
 6.646030827949145e-001	 4.874904114400521e+000	 9.287286735993638e+000
 6.162987091214293e-001	 4.881246042553617e+000	 9.274570800353002e+000
 5.680973461319310e-001	 4.887090336364951e+000	 9.261322783620267e+000
 5.200057754698557e-001	 4.892441105098486e+000	 9.248186301260040e+000
 4.720306510194796e-001	 4.897302562056369e+000	 9.235605876493205e+000
 9.613799021772006e-001	 4.852345266062382e+000	 9.375214171471752e+000
 9.123424616408911e-001	 4.861803952626235e+000	 9.362183180256668e+000
 8.633650782396735e-001	 4.870739941752015e+000	 9.350372922589884e+000
 8.144553038732627e-001	 4.879156652451032e+000	 9.339480955616665e+000
 7.656205733153824e-001	 4.887057632514837e+000	 9.329203219081006e+000
 7.168682019776804e-001	 4.894446554535365e+000	 9.319225888358684e+000
 6.682053838141991e-001	 4.901327211898328e+000	 9.309218104234983e+000
 6.196391893656806e-001	 4.907703514755047e+000	 9.298583373975738e+000
 5.711765639427697e-001	 4.913579485977811e+000	 9.287326724020977e+000
 5.228243259469914e-001	 4.918959257103752e+000	 9.275917811050650e+000
 4.745891653282275e-001	 4.923847064272092e+000	 9.264637243144803e+000
 9.665626499636570e-001	 4.878504000645348e+000	 9.388803858331064e+000
 9.172608512007585e-001	 4.888013678484246e+000	 9.378182773973048e+000
 8.680194333376832e-001	 4.896997841050921e+000	 9.368825880877843e+000
 8.188459889860744e-001	 4.905459925788397e+000	 9.360420331413858e+000
 7.697479930001633e-001	 4.913403499614190e+000	 9.352648658080092e+000
 7.207328002286312e-001	 4.920832254918998e+000	 9.345181192957510e+000
 6.718076434077814e-001	 4.927750005538484e+000	 9.337669382403188e+000
 6.229796311953014e-001	 4.934160682703395e+000	 9.329545419864662e+000
 5.742557463436729e-001	 4.940068330973121e+000	 9.320621083212247e+000
 5.256428440120972e-001	 4.945477104157705e+000	 9.311173036864565e+000
 4.771476502156546e-001	 4.950391261233177e+000	 9.301302531113835e+000
 9.717453290781267e-001	 4.904662388628768e+000	 9.405885220979091e+000
 9.221791755915123e-001	 4.914223057067299e+000	 9.398366179632765e+000
 8.726737267651468e-001	 4.923255392436735e+000	 9.392155295127184e+000
 8.232366159220739e-001	 4.931762850611570e+000	 9.386909128662689e+000
 7.738753579965130e-001	 4.939749017635035e+000	 9.382275844597640e+000
 7.245973472736665e-001	 4.947217605696317e+000	 9.377888273831934e+000
 6.754098552715956e-001	 4.954172449080763e+000	 9.373357891156951e+000
 6.263200287644393e-001	 4.960617500098262e+000	 9.368116575111687e+000
 5.773348879460301e-001	 4.966556824995019e+000	 9.361794363139369e+000
 5.284613247327682e-001	 4.971994599853685e+000	 9.354457408068281e+000
 4.797061012044656e-001	 4.976935106486796e+000	 9.346012966160220e+000
 4.541206031540580e-001	 4.711486401454395e+000	 9.209839616105313e+000
 4.080772015327535e-001	 4.715697402914556e+000	 9.201758332076039e+000
 3.621583901065020e-001	 4.719445912825524e+000	 9.196112885127757e+000
 3.163702891928216e-001	 4.722736264607185e+000	 9.192514779998636e+000
 2.707188886346119e-001	 4.725572876349515e+000	 9.190471803200778e+000
 2.252100469680961e-001	 4.727960246918567e+000	 9.189422301114558e+000
 1.798494907136967e-001	 4.729902952083056e+000	 9.188767069055738e+000
 1.346428137874782e-001	 4.731405640665301e+000	 9.187899112244569e+000
 8.959547703070191e-002	 4.732473030720189e+000	 9.186231524135597e+000
 4.471280785492766e-002	 4.733109905745613e+000	 9.183223711064796e+000
 0.000000000000000e+000	 4.733321110927780e+000	 9.178406174857413e+000
 4.566791980477861e-001	 4.738031739773277e+000	 9.197655124896860e+000
 4.103763798492342e-001	 4.742266466752270e+000	 9.187284223405026e+000
 3.641988538086733e-001	 4.746036096423838e+000	 9.179329193566423e+000
 3.181527747266113e-001	 4.749344986623094e+000	 9.173515247962179e+000
 2.722441661938198e-001	 4.752197580332298e+000	 9.169468271569352e+000
 2.264789197545885e-001	 4.754598401764885e+000	 9.166747939245093e+000
 1.808627941936057e-001	 4.756552052470236e+000	 9.164878460753585e+000
 1.354014149440849e-001	 4.758063207462941e+000	 9.163377226189121e+000
 9.010027361466855e-002	 4.759136611380218e+000	 9.161781608153932e+000
 4.496472763253088e-002	 4.759777074671015e+000	 9.159674159502727e+000
 0.000000000000000e+000	 4.759989469820151e+000	 9.156706427104046e+000
 4.592377948612595e-001	 4.764577098007342e+000	 9.189986927888878e+000
 4.126755598908816e-001	 4.768835550523108e+000	 9.178106751903199e+000
 3.662393190419615e-001	 4.772626299971283e+000	 9.168578861253712e+000
 3.199352615980161e-001	 4.775953728602224e+000	 9.161244179730511e+000
 2.737694448977087e-001	 4.778822304290480e+000	 9.155848554961430e+000
 2.277477934934141e-001	 4.781236576596879e+000	 9.152074649864545e+000
 1.818760984341040e-001	 4.783201172851484e+000	 9.149571480985493e+000
 1.361600166701588e-001	 4.784720794261157e+000	 9.147981888841615e+000
 9.060507057761903e-002	 4.785800212045456e+000	 9.146968207839425e+000
 4.521664759929012e-002	 4.786444263604397e+000	 9.146236384703554e+000
 0.000000000000000e+000	 4.786657848721421e+000	 9.145558774906551e+000
 4.617963891171836e-001	 4.791122429703765e+000	 9.187307684068719e+000
 4.149747376344188e-001	 4.795404607732642e+000	 9.174580130270357e+000
 3.682797822358820e-001	 4.799216476936393e+000	 9.164092261285870e+000
 3.217177466880519e-001	 4.802562443980586e+000	 9.155803124143555e+000
 2.752947220774362e-001	 4.805447001632021e+000	 9.149580804786652e+000
 2.290166659644496e-001	 4.807874724798890e+000	 9.145233025635427e+000
 1.828894016623032e-001	 4.809850266591902e+000	 9.142535412240351e+000
 1.369186176384999e-001	 4.811378354410161e+000	 9.141257726770451e+000
 9.110986703643656e-002	 4.812463786055542e+000	 9.141188347425519e+000
 4.546856731450755e-002	 4.813111425879084e+000	 9.142157253114055e+000
 0.000000000000000e+000	 4.813326200962828e+000	 9.144057752164439e+000
 4.643549763382629e-001	 4.817667688409712e+000	 9.190080540676883e+000
 4.172739090565695e-001	 4.821973591886457e+000	 9.177051578415584e+000
 3.703202398199511e-001	 4.825806580787716e+000	 9.166095366670108e+000
 3.235002268777343e-001	 4.829171086194195e+000	 9.157291906682527e+000
 2.768199950641594e-001	 4.832071625764876e+000	 9.150634219987840e+000
 2.302855349475718e-001	 4.834512799755250e+000	 9.146057581750112e+000
 1.839027021053145e-001	 4.836499287056593e+000	 9.143466448354243e+000
 1.376772165219087e-001	 4.838035841260179e+000	 9.142759389981393e+000
 9.161466210800430e-002	 4.839127286750117e+000	 9.143852319100834e+000
 4.572048633748523e-002	 4.839778514828407e+000	 9.146700284907734e+000
 0.000000000000000e+000	 4.839994479875599e+000	 9.151318081995742e+000
 4.669135520472021e-001	 4.844212827672349e+000	 9.198759391493148e+000
 4.195730701340568e-001	 4.848542456490133e+000	 9.185861514896088e+000
 3.723606882236846e-001	 4.852396564993791e+000	 9.174809871591862e+000
 3.252826990480787e-001	 4.855779608679061e+000	 9.165808677346545e+000
 2.783452611890358e-001	 4.858696130097008e+000	 9.158979018415048e+000
 2.315543982226574e-001	 4.861150754850294e+000	 9.154386647797935e+000
 1.849159979902495e-001	 4.863148187610658e+000	 9.152067503974354e+000
 1.384358119931851e-001	 4.864693208161425e+000	 9.152051276190701e+000
 9.211945490920545e-002	 4.865790667468827e+000	 9.154383319412757e+000
 4.597240422752529e-002	 4.866445483785694e+000	 9.159145199947584e+000
 0.000000000000000e+000	 4.866662638790971e+000	 9.166474129796486e+000
 4.694721117667061e-001	 4.870757801038844e+000	 9.213789126966116e+000
 4.218722168436042e-001	 4.875111155049245e+000	 9.201343742369236e+000
 3.744011238765984e-001	 4.878986383023154e+000	 9.190453308959588e+000
 3.270651600801012e-001	 4.882387964871204e+000	 9.181449957165960e+000
 2.798705177832224e-001	 4.885320468036373e+000	 9.174586409288427e+000
 2.328232535695833e-001	 4.887788543468358e+000	 9.170062263266205e+000
 1.859292875442194e-001	 4.889796921619200e+000	 9.168048030294118e+000
 1.391944027251293e-001	 4.891350408464122e+000	 9.168707264098222e+000
 9.262424455692317e-002	 4.892453881551312e+000	 9.172217097489678e+000
 4.622432054392983e-002	 4.893112286084270e+000	 9.178787478476961e+000
 0.000000000000000e+000	 4.893330631040176e+000	 9.188679374024789e+000
 4.720306510194796e-001	 4.897302562056369e+000	 9.235605876493205e+000
 4.241713451619350e-001	 4.901679641069377e+000	 9.223825627283121e+000
 3.764415432082083e-001	 4.905575988344355e+000	 9.213239164367671e+000
 3.288476068548171e-001	 4.908996108206632e+000	 9.204310683403143e+000
 2.813957621778767e-001	 4.911944592990930e+000	 9.197428566709062e+000
 2.340920987682259e-001	 4.914426118993778e+000	 9.192930076538691e+000
 1.869425689943359e-001	 4.916445442447325e+000	 9.191123836824035e+000
 1.399529873905414e-001	 4.918007395518488e+000	 9.192310455322229e+000
 9.312903016804063e-002	 4.919116882337212e+000	 9.196801614638623e+000
 4.647623484600098e-002	 4.919778875057467e+000	 9.204937935984118e+000
 0.000000000000000e+000	 4.919998409954449e+000	 9.217105894043623e+000
 4.745891653282275e-001	 4.923847064272092e+000	 9.264637243144803e+000
 4.264704510657725e-001	 4.928247868056106e+000	 9.253628274021143e+000
 3.784819426480304e-001	 4.932165334425926e+000	 9.243376986611006e+000
 3.306300362532424e-001	 4.935603992121360e+000	 9.234484253490907e+000
 2.829209917041558e-001	 4.938568458368636e+000	 9.227478604178954e+000
 2.353609315984621e-001	 4.941063434810887e+000	 9.222839247261376e+000
 1.879558405677102e-001	 4.943093703460130e+000	 9.221016918973380e+000
 1.407115646622218e-001	 4.944664122674740e+000	 9.222452924672943e+000
 9.363381085944102e-002	 4.945779623166171e+000	 9.227596714892488e+000
 4.672814669304079e-002	 4.946445204038611e+000	 9.236922311711531e+000
 0.000000000000000e+000	 4.946665928865022e+000	 9.250943874384173e+000
 4.771476502156546e-001	 4.950391261233177e+000	 9.301302531113835e+000
 4.287695305318403e-001	 4.954815789515013e+000	 9.291066693707169e+000
 3.805223186255805e-001	 4.958754374736414e+000	 9.281072494880185e+000
 3.324124451563926e-001	 4.962211570051403e+000	 9.272062567754901e+000
 2.844462036932172e-001	 4.965192017577452e+000	 9.264710550092952e+000
 2.366297498401687e-001	 4.967700444304020e+000	 9.259642351950578e+000
 1.889691004914538e-001	 4.969741658022721e+000	 9.257455291226254e+000
 1.414701332129704e-001	 4.971320543283099e+000	 9.258735478454648e+000
 9.413858574800750e-002	 4.972442057377831e+000	 9.264073806100926e+000
 4.698005564435141e-002	 4.973111226361029e+000	 9.274080870302326e+000
 0.000000000000000e+000	 4.973333141103128e+000	 9.289401124819570e+000
 4.797061012044656e-001	 4.976935106486796e+000	 9.346012966160220e+000
 4.310685795368616e-001	 4.981383358951680e+000	 9.336449967868989e+000
 3.825626675703746e-001	 4.985343062744358e+000	 9.326527682759730e+000
 3.341948304452835e-001	 4.988818795432772e+000	 9.317136070965750e+000
 2.859713954762180e-001	 4.991815224025334e+000	 9.309099324166777e+000
 2.378985512732225e-001	 4.994337100857515e+000	 9.303195292723565e+000
 1.899823469926781e-001	 4.996389259500201e+000	 9.300172825706428e+000
 1.422286917155876e-001	 4.997976610693785e+000	 9.300767420499888e+000
 9.464335395062330e-002	 4.999104138311836e+000	 9.305715551174334e+000
 4.723196125923496e-002	 4.999776895358052e+000	 9.315768016098476e+000
 0.000000000000000e+000	 5.000000000000000e+000	 9.331702615663717e+000
