x	y	stress_xx
 1.0000000000e+000	 0.0000000000e+000	 2.9788078107e-001
 9.9995537907e-001	 9.4463922618e-003	 2.9606669142e-001
 9.9982082766e-001	 1.8928670806e-002	 2.9910372051e-001
 9.9959532214e-001	 2.8445738363e-002	 3.0720766357e-001
 9.9927785191e-001	 3.7996469419e-002	 3.2059119222e-001
 9.9886742018e-001	 4.7579710273e-002	 3.3946335995e-001
 9.9836304482e-001	 5.7194279111e-002	 3.6402908250e-001
 9.9776375910e-001	 6.6838966101e-002	 3.9448859324e-001
 9.9706861257e-001	 7.6512533521e-002	 4.3103687392e-001
 9.9627667181e-001	 8.6213715910e-002	 4.7386306136e-001
 9.9538702132e-001	 9.5941220239e-002	 5.2314983070e-001
 1.0266668589e+000	 0.0000000000e+000	 7.9246712244e-001
 1.0266210481e+000	 9.6982978697e-003	 7.9387465695e-001
 1.0264829086e+000	 1.9433438997e-002	 7.9893761525e-001
 1.0262513896e+000	 2.9204296851e-002	 8.0776961855e-001
 1.0259254534e+000	 3.9009715904e-002	 8.2048188099e-001
 1.0255040767e+000	 4.8848511690e-002	 8.3718335257e-001
 1.0249862513e+000	 5.8719470879e-002	 8.5798035464e-001
 1.0243709845e+000	 6.8621351376e-002	 8.8297619051e-001
 1.0236573006e+000	 7.8552882455e-002	 9.1227073128e-001
 1.0228442412e+000	 8.8512764906e-002	 9.4595997714e-001
 1.0219308666e+000	 9.8499671221e-002	 9.8413559462e-001
 1.0533340711e+000	 0.0000000000e+000	 1.2858709684e+000
 1.0532870704e+000	 9.9502068155e-003	 1.2888947545e+000
 1.0531453428e+000	 1.9938213876e-002	 1.2946338843e+000
 1.0529078102e+000	 2.9962865390e-002	 1.3031128193e+000
 1.0525734079e+000	 4.0022975815e-002	 1.3143547576e+000
 1.0521410862e+000	 5.0117329919e-002	 1.3283817388e+000
 1.0516098105e+000	 6.0244682856e-002	 1.3452144096e+000
 1.0509785624e+000	 7.0403760268e-002	 1.3648717632e+000
 1.0502463409e+000	 8.0593258423e-002	 1.3873708535e+000
 1.0494121627e+000	 9.0811844365e-002	 1.4127264840e+000
 1.0484750635e+000	 1.0105815610e-001	 1.4409508708e+000
 1.0800015900e+000	 0.0000000000e+000	 1.7634794771e+000
 1.0799533994e+000	 1.0202118658e-002	 1.7668020792e+000
 1.0798080836e+000	 2.0442994561e-002	 1.7721128583e+000
 1.0795645373e+000	 3.0721442652e-002	 1.7793598573e+000
 1.0792216689e+000	 4.1036247378e-002	 1.7884907645e+000
 1.0787784020e+000	 5.1386162739e-002	 1.7994529943e+000
 1.0782336758e+000	 6.1769912372e-002	 1.8121935576e+000
 1.0775864463e+000	 7.2186189658e-002	 1.8266589059e+000
 1.0768356869e+000	 8.2633657856e-002	 1.8427947474e+000
 1.0759803897e+000	 9.3110950263e-002	 1.8605458373e+000
 1.0750195657e+000	 1.0361667041e-001	 1.8798557398e+000
 1.1066693690e+000	 0.0000000000e+000	 2.2119191284e+000
 1.1066199883e+000	 1.0454032957e-002	 2.2144941024e+000
 1.1064710844e+000	 2.0947780166e-002	 2.2185043255e+000
 1.1062215244e+000	 3.1480027311e-002	 2.2238333037e+000
 1.1058701898e+000	 4.2049528821e-002	 2.2303648888e+000
 1.1054159776e+000	 5.2655007930e-002	 2.2379833479e+000
 1.1048578008e+000	 6.3295156760e-002	 2.2465733156e+000
 1.1041945896e+000	 7.3968636427e-002	 2.2560197180e+000
 1.1034252923e+000	 8.4674077182e-002	 2.2662076663e+000
 1.1025488757e+000	 9.5410078577e-002	 2.2770223216e+000
 1.1015643267e+000	 1.0617520966e-001	 2.2883487309e+000
 1.1333373612e+000	 0.0000000000e+000	 2.6189092371e+000
 1.1332867906e+000	 1.0705949271e-002	 2.6199472896e+000
 1.1331342985e+000	 2.1452569810e-002	 2.6220061340e+000
 1.1328787247e+000	 3.2238618038e-002	 2.6249158504e+000
 1.1325189238e+000	 4.3062818369e-002	 2.6285073852e+000
 1.1320537662e+000	 5.3923863272e-002	 2.6326126203e+000
 1.1314821387e+000	 6.4820413349e-002	 2.6370643840e+000
 1.1308029458e+000	 7.5751097454e-002	 2.6416964311e+000
 1.1300151103e+000	 8.6714512831e-002	 2.6463433895e+000
 1.1291175742e+000	 9.7709225283e-002	 2.6508406758e+000
 1.1281093001e+000	 1.0873376937e-001	 2.6550243772e+000
 1.1600055201e+000	 0.0000000000e+000	 2.9731362545e+000
 1.1599537596e+000	 1.0957867160e-002	 2.9720934874e+000
 1.1597976792e+000	 2.1957362609e-002	 2.9717622870e+000
 1.1595360916e+000	 3.2997213506e-002	 2.9719297284e+000
 1.1591678243e+000	 4.4076114251e-002	 2.9723841239e+000
 1.1586917213e+000	 5.5192726543e-002	 2.9729150976e+000
 1.1581066431e+000	 6.6345679470e-002	 2.9733136335e+000
 1.1574114683e+000	 7.7533569621e-002	 2.9733720877e+000
 1.1566050945e+000	 8.8754961232e-002	 2.9728841652e+000
 1.1556864388e+000	 1.0000838636e-001	 2.9716448605e+000
 1.1546544394e+000	 1.1129234508e-001	 2.9694503613e+000
 1.1866737990e+000	 0.0000000000e+000	 3.2641450123e+000
 1.1866208486e+000	 1.1209786182e-002	 3.2607129703e+000
 1.1864611799e+000	 2.2462157679e-002	 3.2577574666e+000
 1.1861935784e+000	 3.3755812387e-002	 3.2550323743e+000
 1.1858168448e+000	 4.5089414691e-002	 3.2522930568e+000
 1.1853297962e+000	 5.6461595524e-002	 3.2492964478e+000
 1.1847312672e+000	 6.7870952455e-002	 3.2458011140e+000
 1.1840201105e+000	 7.9316049809e-002	 3.2415672780e+000
 1.1831951983e+000	 9.0795418814e-002	 3.2363568010e+000
 1.1822554230e+000	 1.0230755778e-001	 3.2299331243e+000
 1.1811996981e+000	 1.1385093230e-001	 3.2220611703e+000
 1.2133421513e+000	 0.0000000000e+000	 3.4822443038e+000
 1.2132880108e+000	 1.1461705896e-002	 3.4763415872e+000
 1.2131247539e+000	 2.2966954137e-002	 3.4707254598e+000
 1.2128511386e+000	 3.4514413354e-002	 3.4651258449e+000
 1.2124659385e+000	 4.6102717918e-002	 3.4592743236e+000
 1.2119679444e+000	 5.7730467994e-002	 3.4529042128e+000
 1.2113559645e+000	 6.9396229633e-002	 3.4457506218e+000
 1.2106288259e+000	 8.1098534898e-002	 3.4375504639e+000
 1.2097853753e+000	 9.2835882007e-002	 3.4280424213e+000
 1.2088244802e+000	 1.0460673552e-001	 3.4169668642e+000
 1.2077450298e+000	 1.1640952656e-001	 3.4040657232e+000
 1.2400105302e+000	 0.0000000000e+000	 3.6184246454e+000
 1.2399551998e+000	 1.1713625863e-002	 3.6101898853e+000
 1.2397883546e+000	 2.3471751099e-002	 3.6020693957e+000
 1.2395087254e+000	 3.5273015080e-002	 3.5937779132e+000
 1.2391150589e+000	 4.7116022158e-002	 3.5850319452e+000
 1.2386061193e+000	 5.8999341732e-002	 3.5755498337e+000
 1.2379806885e+000	 7.0921508337e-002	 3.5650517848e+000
 1.2372375679e+000	 8.2881021769e-002	 3.5532598466e+000
 1.2363755789e+000	 9.4876347240e-002	 3.5398978346e+000
 1.2353935640e+000	 1.0690591556e-001	 3.5246912034e+000
 1.2342903880e+000	 1.1896812337e-001	 3.5073668667e+000
 1.2666788891e+000	 0.0000000000e+000	 3.6642864246e+000
 1.2666223687e+000	 1.1965545641e-002	 3.6540724468e+000
 1.2664519353e+000	 2.3976547683e-002	 3.6437920531e+000
 1.2661662922e+000	 3.6031616237e-002	 3.6331531234e+000
 1.2657641593e+000	 4.8129325638e-002	 3.6218653982e+000
 1.2652442741e+000	 6.0268214518e-002	 3.6096405109e+000
 1.2646053925e+000	 7.2446785896e-002	 3.5961919691e+000
 1.2638462899e+000	 8.4663507302e-002	 3.5812350774e+000
 1.2629657625e+000	 9.6916810941e-002	 3.5644867999e+000
 1.2619626278e+000	 1.0920509388e-001	 3.5456655622e+000
 1.2608357263e+000	 1.2152671826e-001	 3.5244909925e+000
 9.9538702132e-001	 9.5941220239e-002	 5.2314983070e-001
 9.9439891999e-001	 1.0569226494e-001	 5.7887982175e-001
 9.9331136502e-001	 1.1546697758e-001	 6.4078570742e-001
 9.9212350004e-001	 1.2526400575e-001	 7.0864417570e-001
 9.9083448984e-001	 1.3508197105e-001	 7.8222911228e-001
 9.8944352116e-001	 1.4491946945e-001	 8.6131167806e-001
 9.8794980354e-001	 1.5477507159e-001	 9.4566038172e-001
 9.8635257014e-001	 1.6464732318e-001	 1.0350411479e+000
 9.8465107850e-001	 1.7453474535e-001	 1.1292173814e+000
 9.8284461142e-001	 1.8443583512e-001	 1.2279500291e+000
 9.8093247774e-001	 1.9434906582e-001	 1.3309976391e+000
 1.0219308666e+000	 9.8499671221e-002	 9.8413559462e-001
 1.0209164157e+000	 1.0851074566e-001	 1.0270155813e+000
 1.0197998590e+000	 1.1854611918e-001	 1.0746360718e+000
 1.0185803174e+000	 1.2860440331e-001	 1.1267928908e+000
 1.0172569334e+000	 1.3868418291e-001	 1.1832801563e+000
 1.0158288719e+000	 1.4878401649e-001	 1.2438903174e+000
 1.0142953215e+000	 1.5890243659e-001	 1.3084141820e+000
 1.0126554949e+000	 1.6903795012e-001	 1.3766409367e+000
 1.0109086299e+000	 1.7918903878e-001	 1.4483581591e+000
 1.0090539900e+000	 1.8935415951e-001	 1.5233518237e+000
 1.0070908657e+000	 1.9953174493e-001	 1.6014063020e+000
 1.0484750635e+000	 1.0105815610e-001	 1.4409508708e+000
 1.0474342627e+000	 1.1132926372e-001	 1.4724238492e+000
 1.0462887040e+000	 1.2162530158e-001	 1.5073992135e+000
 1.0450374853e+000	 1.3194484514e-001	 1.5456840449e+000
 1.0436797270e+000	 1.4228644250e-001	 1.5870846710e+000
 1.0422145723e+000	 1.5264861474e-001	 1.6314066660e+000
 1.0406411886e+000	 1.6302985627e-001	 1.6784548383e+000
 1.0389587683e+000	 1.7342863523e-001	 1.7280332055e+000
 1.0371665291e+000	 1.8384339388e-001	 1.7799449583e+000
 1.0352637158e+000	 1.9427254907e-001	 1.8339924146e+000
 1.0332496003e+000	 2.0471449272e-001	 1.8899769646e+000
 1.0750195657e+000	 1.0361667041e-001	 1.8798557398e+000
 1.0739524147e+000	 1.1414781419e-001	 1.9012113111e+000
 1.0727778536e+000	 1.2470451939e-001	 1.9250178710e+000
 1.0714949575e+000	 1.3528532538e-001	 1.9510866669e+000
 1.0701028245e+000	 1.4588874352e-001	 1.9792290208e+000
 1.0686005761e+000	 1.5651325743e-001	 2.0092562958e+000
 1.0669873587e+000	 1.6715732342e-001	 2.0409798446e+000
 1.0652623441e+000	 1.7781937083e-001	 2.0742109428e+000
 1.0634247304e+000	 1.8849780250e-001	 2.1087607066e+000
 1.0614737431e+000	 1.9919099519e-001	 2.1444399980e+000
 1.0594086357e+000	 2.0989730011e-001	 2.1810593174e+000
 1.1015643267e+000	 1.0617520966e-001	 2.2883487309e+000
 1.1004708253e+000	 1.1696639215e-001	 2.3007428806e+000
 1.0992672615e+000	 1.2778376722e-001	 2.3147132803e+000
 1.0979526877e+000	 1.3862583819e-001	 2.3300689946e+000
 1.0965261796e+000	 1.4949107966e-001	 2.3466198852e+000
 1.0949868371e+000	 1.6037793781e-001	 2.3641765443e+000
 1.0933337856e+000	 1.7128483081e-001	 2.3825502058e+000
 1.0915661763e+000	 1.8221014925e-001	 2.4015526381e+000
 1.0896831877e+000	 1.9315225650e-001	 2.4209960173e+000
 1.0876840259e+000	 2.0410948927e-001	 2.4406927844e+000
 1.0855679261e+000	 2.1508015803e-001	 2.4604554870e+000
 1.1281093001e+000	 1.0873376937e-001	 2.6550243772e+000
 1.1269894479e+000	 1.1978499265e-001	 2.6594970777e+000
 1.1257568813e+000	 1.3086303968e-001	 2.6648382930e+000
 1.1244106295e+000	 1.4196637773e-001	 2.6708492574e+000
 1.1229497461e+000	 1.5309344462e-001	 2.6773326363e+000
 1.1213733093e+000	 1.6424264910e-001	 2.6840924269e+000
 1.1196804233e+000	 1.7541237123e-001	 2.6909338333e+000
 1.1178702190e+000	 1.8660096279e-001	 2.6976631177e+000
 1.1159418550e+000	 1.9780674774e-001	 2.7040874299e+000
 1.1138945184e+000	 2.0902802269e-001	 2.7100146164e+000
 1.1117274258e+000	 2.2026305741e-001	 2.7152530110e+000
 1.1546544394e+000	 1.1129234508e-001	 2.9694503613e+000
 1.1535082364e+000	 1.2260361077e-001	 2.9669412886e+000
 1.1522466666e+000	 1.3394233139e-001	 2.9647506784e+000
 1.1508687367e+000	 1.4530693814e-001	 2.9626669539e+000
 1.1493734777e+000	 1.5669583209e-001	 2.9604805333e+000
 1.1477599464e+000	 1.6810738454e-001	 2.9579836971e+000
 1.1460272257e+000	 1.7953993743e-001	 2.9549704251e+000
 1.1441744261e+000	 1.9099180377e-001	 2.9512362067e+000
 1.1422006864e+000	 2.0246126806e-001	 2.9465778235e+000
 1.1401051746e+000	 2.1394658685e-001	 2.9407931105e+000
 1.1378870890e+000	 2.2544598918e-001	 2.9336806939e+000
 1.1811996981e+000	 1.1385093230e-001	 3.2220611703e+000
 1.1800271441e+000	 1.2542224157e-001	 3.2134237815e+000
 1.1787365711e+000	 1.3702163695e-001	 3.2047034355e+000
 1.1773269629e+000	 1.4864751358e-001	 3.1956714033e+000
 1.1757973282e+000	 1.6029823577e-001	 3.1861014626e+000
 1.1741467021e+000	 1.7197213737e-001	 3.1757697286e+000
 1.1723741466e+000	 1.8366752221e-001	 3.1644544523e+000
 1.1704787516e+000	 1.9538266450e-001	 3.1519357860e+000
 1.1684596360e+000	 2.0711580933e-001	 3.1379955187e+000
 1.1663159489e+000	 2.1886517314e-001	 3.1224167840e+000
 1.1640468699e+000	 2.3062894428e-001	 3.1049837442e+000
 1.2077450298e+000	 1.1640952656e-001	 3.4040657232e+000
 1.2065461248e+000	 1.2824088012e-001	 3.3900799009e+000
 1.2052265485e+000	 1.4010095098e-001	 3.3757494996e+000
 1.2037852618e+000	 1.5198809821e-001	 3.3608249145e+000
 1.2022212514e+000	 1.6390064935e-001	 3.3450595232e+000
 1.2005335305e+000	 1.7583690083e-001	 3.3282094790e+000
 1.1987211399e+000	 1.8779511834e-001	 3.3100334658e+000
 1.1967831493e+000	 1.9977353732e-001	 3.2902924158e+000
 1.1947186578e+000	 2.1177036340e-001	 3.2687491930e+000
 1.1925267952e+000	 2.2378377296e-001	 3.2451682454e+000
 1.1902067228e+000	 2.3581191362e-001	 3.2193152296e+000
 1.2342903880e+000	 1.1896812337e-001	 3.5073668667e+000
 1.2330651319e+000	 1.3105952148e-001	 3.4887503077e+000
 1.2317165523e+000	 1.4318026809e-001	 3.4696586781e+000
 1.2302435872e+000	 1.5532868618e-001	 3.4498183722e+000
 1.2286452010e+000	 1.6750306654e-001	 3.4289592257e+000
 1.2269203852e+000	 1.7970166815e-001	 3.4068142663e+000
 1.2250681596e+000	 1.9192271859e-001	 3.3831194211e+000
 1.2230875734e+000	 2.0416441451e-001	 3.3576131819e+000
 1.2209777059e+000	 2.1642492212e-001	 3.3300362314e+000
 1.2187376677e+000	 2.2870237769e-001	 3.3001310340e+000
 1.2163666018e+000	 2.4099488815e-001	 3.2676413947e+000
 1.2608357263e+000	 1.2152671826e-001	 3.5244909925e+000
 1.2595841192e+000	 1.3387816074e-001	 3.5019094909e+000
 1.2582065363e+000	 1.4625958289e-001	 3.4788450131e+000
 1.2567018928e+000	 1.5866927164e-001	 3.4549974134e+000
 1.2550691308e+000	 1.7110548102e-001	 3.4300704461e+000
 1.2533072201e+000	 1.8356643257e-001	 3.4037714699e+000
 1.2514151596e+000	 1.9605031575e-001	 3.3758111009e+000
 1.2493919777e+000	 2.0855528842e-001	 3.3459028195e+000
 1.2472367342e+000	 2.2107947735e-001	 3.3137625324e+000
 1.2449485205e+000	 2.3362097874e-001	 3.2791080952e+000
 1.2425264611e+000	 2.4617785878e-001	 3.2416587986e+000
 9.8093247774e-001	 1.9434906582e-001	 1.3309976391e+000
 9.7891370242e-001	 2.0427437664e-001	 1.4385656657e+000
 9.7678792810e-001	 2.1420870614e-001	 1.5507691667e+000
 9.7455454705e-001	 2.2415045650e-001	 1.6672738079e+000
 9.7221298076e-001	 2.3409800832e-001	 1.7877416198e+000
 9.6976268070e-001	 2.4404972108e-001	 1.9118311859e+000
 9.6720312906e-001	 2.5400393389e-001	 2.0391978406e+000
 9.6453383948e-001	 2.6395896607e-001	 2.1694938789e+000
 9.6175435779e-001	 2.7391311782e-001	 2.3023687802e+000
 9.5886426270e-001	 2.8386467101e-001	 2.4374694457e+000
 9.5586316651e-001	 2.9381188981e-001	 2.5744404528e+000
 1.0070908657e+000	 1.9953174493e-001	 1.6014063020e+000
 1.0050182560e+000	 2.0972173262e-001	 1.6827573587e+000
 1.0028357939e+000	 2.1992097947e-001	 1.7675766318e+000
 1.0005428556e+000	 2.3012784510e-001	 1.8555852772e+000
 9.9813884713e-001	 2.4034066687e-001	 1.9465023825e+000
 9.9562320526e-001	 2.5055776055e-001	 2.0400450626e+000
 9.9299539842e-001	 2.6077742095e-001	 2.1359285612e+000
 9.9025492727e-001	 2.7099792256e-001	 2.2338663607e+000
 9.8740132554e-001	 2.8121752028e-001	 2.3335703020e+000
 9.8443416069e-001	 2.9143445013e-001	 2.4347507168e+000
 9.8135303469e-001	 3.0164693001e-001	 2.5371165726e+000
 1.0332496003e+000	 2.0471449272e-001	 1.8899769646e+000
 1.0311231554e+000	 2.1516916078e-001	 1.9481790314e+000
 1.0288840049e+000	 2.2563332850e-001	 2.0088381078e+000
 1.0265315086e+000	 2.3610531289e-001	 2.0717185345e+000
 1.0240650570e+000	 2.4658340814e-001	 2.1365839631e+000
 1.0214840725e+000	 2.5706588626e-001	 2.2031973657e+000
 1.0187880095e+000	 2.6755099776e-001	 2.2713210489e+000
 1.0159763559e+000	 2.7803697233e-001	 2.3407166721e+000
 1.0130486331e+000	 2.8852201952e-001	 2.4111452738e+000
 1.0100043975e+000	 2.9900432955e-001	 2.4823673074e+000
 1.0068432406e+000	 3.0948207403e-001	 2.5541426882e+000
 1.0594086357e+000	 2.0989730011e-001	 2.1810593174e+000
 1.0572283551e+000	 2.2061665158e-001	 2.2189567346e+000
 1.0549325155e+000	 2.3134574322e-001	 2.2584497362e+000
 1.0525204604e+000	 2.4208284943e-001	 2.2993346961e+000
 1.0499915651e+000	 2.5282622120e-001	 2.3414085000e+000
 1.0473452371e+000	 2.6357408681e-001	 2.3844684775e+000
 1.0445809173e+000	 2.7432465247e-001	 2.4283123337e+000
 1.0416980803e+000	 2.8507610305e-001	 2.4727380838e+000
 1.0386962356e+000	 2.9582660277e-001	 2.5175439924e+000
 1.0355749283e+000	 3.0657429603e-001	 2.5625285215e+000
 1.0323337397e+000	 3.1731730815e-001	 2.6074902886e+000
 1.0855679261e+000	 2.1508015803e-001	 2.4604554870e+000
 1.0833338093e+000	 2.2606419549e-001	 2.4806916352e+000
 1.0809812800e+000	 2.3705821364e-001	 2.5018058599e+000
 1.0785096656e+000	 2.4806044425e-001	 2.5236164926e+000
 1.0759183259e+000	 2.5906909513e-001	 2.5459434126e+000
 1.0732066539e+000	 2.7008235081e-001	 2.5686079039e+000
 1.0703740765e+000	 2.8109837322e-001	 2.5914325097e+000
 1.0674200555e+000	 2.9211530239e-001	 2.6142408884e+000
 1.0643440882e+000	 3.0313125724e-001	 2.6368576722e+000
 1.0611457085e+000	 3.1414433632e-001	 2.6591083329e+000
 1.0578244873e+000	 3.2515261867e-001	 2.6808190584e+000
 1.1117274258e+000	 2.2026305741e-001	 2.7152530110e+000
 1.1094394723e+000	 2.3151178299e-001	 2.7202903150e+000
 1.1070302529e+000	 2.4277072976e-001	 2.7256265926e+000
 1.1044990787e+000	 2.5403808688e-001	 2.7310930730e+000
 1.1018452941e+000	 2.6531201900e-001	 2.7365234113e+000
 1.0990682775e+000	 2.7659066688e-001	 2.7417534736e+000
 1.0961674420e+000	 2.8787214816e-001	 2.7466211185e+000
 1.0931422364e+000	 2.9915455805e-001	 2.7509659763e+000
 1.0899921460e+000	 3.1043597014e-001	 2.7546292319e+000
 1.0867166932e+000	 3.2171443716e-001	 2.7574534130e+000
 1.0833154388e+000	 3.3298799187e-001	 2.7592821888e+000
 1.1378870890e+000	 2.2544598918e-001	 2.9336806939e+000
 1.1355452985e+000	 2.3695940452e-001	 2.9258183071e+000
 1.1330793886e+000	 2.4848328157e-001	 2.9178089961e+000
 1.1304886542e+000	 2.6001576688e-001	 2.9094887873e+000
 1.1277724244e+000	 2.7155498189e-001	 2.9006968623e+000
 1.1249300628e+000	 2.8309902363e-001	 2.8912752731e+000
 1.1219609688e+000	 2.9464596544e-001	 2.8810686504e+000
 1.1188645781e+000	 3.0619385771e-001	 2.8699239098e+000
 1.1156403640e+000	 3.1774072869e-001	 2.8576899592e+000
 1.1122878377e+000	 3.2928458532e-001	 2.8442174127e+000
 1.1088065496e+000	 3.4082341404e-001	 2.8293583154e+000
 1.1640468699e+000	 2.3062894428e-001	 3.1049837442e+000
 1.1616512422e+000	 2.4240705058e-001	 3.0863732194e+000
 1.1591286415e+000	 2.5419585909e-001	 3.0672981517e+000
 1.1564783467e+000	 2.6599347377e-001	 3.0475921780e+000
 1.1536996713e+000	 2.7779797287e-001	 3.0270926802e+000
 1.1507919644e+000	 2.8960740966e-001	 3.0056404280e+000
 1.1477546116e+000	 3.0141981319e-001	 2.9830792143e+000
 1.1445870356e+000	 3.1323318903e-001	 2.9592554876e+000
 1.1412886975e+000	 3.2504552012e-001	 2.9340179849e+000
 1.1378590973e+000	 3.3685476754e-001	 2.9072173724e+000
 1.1342977751e+000	 3.4865887146e-001	 2.8787058962e+000
 1.1902067228e+000	 2.3581191362e-001	 3.2193152296e+000
 1.1877572576e+000	 2.4785471161e-001	 3.1919744316e+000
 1.1851779660e+000	 2.5990845232e-001	 3.1639750666e+000
 1.1824681106e+000	 2.7197119710e-001	 3.1351420733e+000
 1.1796269895e+000	 2.8404098101e-001	 3.1053045907e+000
 1.1766539372e+000	 2.9611581358e-001	 3.0742955273e+000
 1.1735483253e+000	 3.0819367957e-001	 3.0419511206e+000
 1.1703095637e+000	 3.2027253972e-001	 3.0081104939e+000
 1.1669371014e+000	 3.3235033162e-001	 2.9726152138e+000
 1.1634304272e+000	 3.4442497057e-001	 2.9353088548e+000
 1.1597890707e+000	 3.5649435043e-001	 2.8960365780e+000
 1.2163666018e+000	 2.4099488815e-001	 3.2676413947e+000
 1.2138632991e+000	 2.5330237808e-001	 3.2334668715e+000
 1.2112273166e+000	 2.6562105126e-001	 3.1985588836e+000
 1.2084579005e+000	 2.7794892640e-001	 3.1627282080e+000
 1.2055543337e+000	 2.9028399540e-001	 3.1257901497e+000
 1.2025159358e+000	 3.0262422402e-001	 3.0875640332e+000
 1.1993420648e+000	 3.1496755272e-001	 3.0478726826e+000
 1.1960321176e+000	 3.2731189744e-001	 3.0065418979e+000
 1.1925855311e+000	 3.3965515044e-001	 2.9633999338e+000
 1.1890017827e+000	 3.5199518117e-001	 2.9182769865e+000
 1.1852803918e+000	 3.6432983724e-001	 2.8710046960e+000
 1.2425264611e+000	 2.4617785878e-001	 3.2416587986e+000
 1.2399693210e+000	 2.5875004047e-001	 3.2024367986e+000
 1.2372766476e+000	 2.7133364591e-001	 3.1625212864e+000
 1.2344476710e+000	 2.8392665122e-001	 3.1217042334e+000
 1.2314816584e+000	 2.9652700510e-001	 3.0797823459e+000
 1.2283779150e+000	 3.0913262957e-001	 3.0365564718e+000
 1.2251357850e+000	 3.2174142079e-001	 2.9918309947e+000
 1.2217546522e+000	 3.3435124988e-001	 2.9454132256e+000
 1.2182339414e+000	 3.4695996377e-001	 2.8971127960e+000
 1.2145731190e+000	 3.5956538610e-001	 2.8467410626e+000
 1.2107716938e+000	 3.7216531816e-001	 2.7941105293e+000
 9.5586316651e-001	 2.9381188981e-001	 2.5744404528e+000
 9.5275071551e-001	 3.0375302140e-001	 2.7129411543e+000
 9.4952658997e-001	 3.1368629624e-001	 2.8525785079e+000
 9.4619050544e-001	 3.2360992937e-001	 2.9929203534e+000
 9.4274221361e-001	 3.3352212132e-001	 3.1335395627e+000
 9.3918150291e-001	 3.4342105900e-001	 3.2740146156e+000
 9.3550819912e-001	 3.5330491665e-001	 3.4139301918e+000
 9.3172216582e-001	 3.6317185667e-001	 3.5528777828e+000
 9.2782330500e-001	 3.7302003062e-001	 3.6904563209e+000
 9.2381155749e-001	 3.8284758015e-001	 3.8262728280e+000
 9.1968690347e-001	 3.9265263800e-001	 3.9599430844e+000
 9.8135303469e-001	 3.0164693001e-001	 2.5371165726e+000
 9.7815758441e-001	 3.1185316035e-001	 2.6405665908e+000
 9.7484748157e-001	 3.2205132444e-001	 2.7449614075e+000
 9.7142243413e-001	 3.3223958969e-001	 2.8499544802e+000
 9.6788218719e-001	 3.4241610866e-001	 2.9552029676e+000
 9.6422652353e-001	 3.5257901993e-001	 3.0603681303e+000
 9.6045526426e-001	 3.6272644901e-001	 3.1651157505e+000
 9.5656826934e-001	 3.7285650933e-001	 3.2691165738e+000
 9.5256543815e-001	 3.8296730315e-001	 3.3720467715e+000
 9.4844670994e-001	 3.9305692255e-001	 3.4735884280e+000
 9.4421206435e-001	 4.0312345050e-001	 3.5734300513e+000
 1.0068432406e+000	 3.0948207403e-001	 2.5541426882e+000
 1.0035647899e+000	 3.1995340664e-001	 2.6265433558e+000
 1.0001687087e+000	 3.3041646348e-001	 2.6996198537e+000
 9.9665469716e-001	 3.4086936436e-001	 2.7731014763e+000
 9.9302249388e-001	 3.5131021386e-001	 2.8467201479e+000
 9.8927187599e-001	 3.6173710219e-001	 2.9202106595e+000
 9.8540265995e-001	 3.7214810621e-001	 2.9933109275e+000
 9.8141470208e-001	 3.8254129032e-001	 3.0657622769e+000
 9.7730789914e-001	 3.9291470747e-001	 3.1373097498e+000
 9.7308218881e-001	 4.0326640023e-001	 3.2077024419e+000
 9.6873755019e-001	 4.1359440173e-001	 3.2766938678e+000
 1.0323337397e+000	 3.1731730815e-001	 2.6074902886e+000
 1.0289722877e+000	 3.2805374608e-001	 2.6526195471e+000
 1.0254902270e+000	 3.3878169871e-001	 2.6981040585e+000
 1.0218872503e+000	 3.4949923827e-001	 2.7437401067e+000
 1.0181630897e+000	 3.6020442133e-001	 2.7893257667e+000
 1.0143175165e+000	 3.7089528978e-001	 2.8346609878e+000
 1.0103503425e+000	 3.8156987176e-001	 2.8795477010e+000
 1.0062614206e+000	 3.9222618267e-001	 2.9237899529e+000
 1.0020506447e+000	 4.0286222620e-001	 2.9671940713e+000
 9.9771795098e-001	 4.1347599532e-001	 3.0095688605e+000
 9.9326331808e-001	 4.2406547339e-001	 3.0507258326e+000
 1.0578244873e+000	 3.2515261867e-001	 2.6808190584e+000
 1.0543800331e+000	 3.3615416449e-001	 2.7022537044e+000
 1.0508119921e+000	 3.4714701551e-001	 2.7236946066e+000
 1.0471200496e+000	 3.5812919632e-001	 2.7449970621e+000
 1.0433039306e+000	 3.6909871553e-001	 2.7660175286e+000
 1.0393634012e+000	 3.8005356666e-001	 2.7866135613e+000
 1.0352982684e+000	 3.9099172917e-001	 2.8066437758e+000
 1.0311083813e+000	 4.0191116946e-001	 2.8259678432e+000
 1.0267936314e+000	 4.1280984191e-001	 2.8444465188e+000
 1.0223539533e+000	 4.2368568994e-001	 2.8619417069e+000
 1.0177893251e+000	 4.3453664713e-001	 2.8783165660e+000
 1.0833154388e+000	 3.3298799187e-001	 2.7592821888e+000
 1.0797879818e+000	 3.4425464771e-001	 2.7604175735e+000
 1.0761339599e+000	 3.5551239922e-001	 2.7612029634e+000
 1.0723530506e+000	 3.6675922341e-001	 2.7615455128e+000
 1.0684449726e+000	 3.7799308087e-001	 2.7613530895e+000
 1.0644094862e+000	 3.8921191680e-001	 2.7605340705e+000
 1.0602463938e+000	 4.0041366195e-001	 2.7589971678e+000
 1.0559555408e+000	 4.1159623372e-001	 2.7566512899e+000
 1.0515368161e+000	 4.2275753719e-001	 2.7534054412e+000
 1.0469901528e+000	 4.3389546624e-001	 2.7491686635e+000
 1.0423155283e+000	 4.4500790464e-001	 2.7438500224e+000
 1.1088065496e+000	 3.4082341404e-001	 2.8293583154e+000
 1.1051960893e+000	 3.5235518156e-001	 2.8134258449e+000
 1.1014560858e+000	 3.6387783522e-001	 2.7967992682e+000
 1.0975862094e+000	 3.7538930443e-001	 2.7794312175e+000
 1.0935861718e+000	 3.8688750181e-001	 2.7612747493e+000
 1.0894557277e+000	 3.9837032417e-001	 2.7422830042e+000
 1.0851946751e+000	 4.0983565361e-001	 2.7224089005e+000
 1.0808028555e+000	 4.2128135850e-001	 2.7016048660e+000
 1.0762801555e+000	 4.3270529465e-001	 2.6798226138e+000
 1.0716265062e+000	 4.4410530635e-001	 2.6570129659e+000
 1.0668418848e+000	 4.5547922759e-001	 2.6331257276e+000
 1.1342977751e+000	 3.4865887146e-001	 2.8787058962e+000
 1.1306043111e+000	 3.6045575185e-001	 2.8487886272e+000
 1.1267783258e+000	 3.7224330886e-001	 2.8178631247e+000
 1.1228194817e+000	 3.8401942429e-001	 2.7859218564e+000
 1.1187274841e+000	 3.9578196276e-001	 2.7529575615e+000
 1.1145020820e+000	 4.0752877276e-001	 2.7189627757e+000
 1.1101430686e+000	 4.1925768767e-001	 2.6839293947e+000
 1.1056502821e+000	 4.3096652687e-001	 2.6478482806e+000
 1.1010236061e+000	 4.4265309687e-001	 2.6107089175e+000
 1.0962629705e+000	 4.5431519240e-001	 2.5724991203e+000
 1.0913683516e+000	 4.6595059765e-001	 2.5332048031e+000
 1.1597890707e+000	 3.5649435043e-001	 2.8960365780e+000
 1.1560126028e+000	 3.6855634442e-001	 2.8550831602e+000
 1.1521006353e+000	 3.8060880550e-001	 2.8128538497e+000
 1.1480528233e+000	 3.9264956787e-001	 2.7693760160e+000
 1.1438688655e+000	 4.0467644817e-001	 2.7246772582e+000
 1.1395485051e+000	 4.1668724653e-001	 2.6787847966e+000
 1.1350915308e+000	 4.2867974763e-001	 2.6317249071e+000
 1.1304977770e+000	 4.4065172187e-001	 2.5835224032e+000
 1.1257671249e+000	 4.5260092644e-001	 2.5342001736e+000
 1.1208995025e+000	 4.6452510652e-001	 2.4837787795e+000
 1.1158948859e+000	 4.7642199651e-001	 2.4322761188e+000
 1.1852803918e+000	 3.6432983724e-001	 2.8710046960e+000
 1.1814209198e+000	 3.7665694509e-001	 2.8218418697e+000
 1.1774229702e+000	 3.8897431050e-001	 2.7711972551e+000
 1.1732861903e+000	 4.0127972008e-001	 2.7191288703e+000
 1.1690102721e+000	 4.1357094248e-001	 2.6656950092e+000
 1.1645949533e+000	 4.2584572945e-001	 2.6109534988e+000
 1.1600400179e+000	 4.3810181702e-001	 2.5549610027e+000
 1.1553452968e+000	 4.5033692655e-001	 2.4977723798e+000
 1.1505106683e+000	 4.6254876595e-001	 2.4394401027e+000
 1.1455360592e+000	 4.7473503085e-001	 2.3800137458e+000
 1.1404214447e+000	 4.8689340584e-001	 2.3195395471e+000
 1.2107716938e+000	 3.7216531816e-001	 2.7941105293e+000
 1.2068292178e+000	 3.8475753968e-001	 2.7394543614e+000
 1.2027452861e+000	 3.9733980923e-001	 2.6831865262e+000
 1.1985195382e+000	 4.0990986582e-001	 2.6253920972e+000
 1.1941516598e+000	 4.2246543011e-001	 2.5661565347e+000
 1.1896413827e+000	 4.3500420550e-001	 2.5055648048e+000
 1.1849884863e+000	 4.4752387933e-001	 2.4437005505e+000
 1.1801927979e+000	 4.6002212396e-001	 2.3806453233e+000
 1.1752541932e+000	 4.7249659800e-001	 2.3164778839e+000
 1.1701725973e+000	 4.8494494752e-001	 2.2512735781e+000
 1.1649479851e+000	 4.9736480731e-001	 2.1851037977e+000
 9.1968690347e-001	 3.9265263800e-001	 3.9599430844e+000
 9.1545000704e-001	 4.0243186398e-001	 4.0914688788e+000
 9.1110031866e-001	 4.1218484971e-001	 4.2207721758e+000
 9.0663793965e-001	 4.2190970867e-001	 4.3472960729e+000
 9.0206301214e-001	 4.3160454958e-001	 4.4704839803e+000
 8.9737571948e-001	 4.4126747746e-001	 4.5897805727e+000
 8.9257628643e-001	 4.5089659477e-001	 4.7046327805e+000
 8.8766497944e-001	 4.6049000248e-001	 4.8144908208e+000
 8.8264210687e-001	 4.7004580118e-001	 4.9188092653e+000
 8.7750801914e-001	 4.7956209226e-001	 5.0170481457e+000
 8.7226310887e-001	 4.8903697900e-001	 5.1086740920e+000
 9.4421206435e-001	 4.0312345050e-001	 3.5734300513e+000
 9.3986218320e-001	 4.1316345771e-001	 3.6714126401e+000
 9.3539650230e-001	 4.2317652494e-001	 3.7673863308e+000
 9.3081512565e-001	 4.3316071535e-001	 3.8610135417e+000
 9.2611819920e-001	 4.4311408720e-001	 3.9519565558e+000
 9.2130591116e-001	 4.5303469502e-001	 4.0398781098e+000
 9.1637849231e-001	 4.6292059064e-001	 4.1244420231e+000
 9.1133621619e-001	 4.7276982440e-001	 4.2053138678e+000
 9.0617939939e-001	 4.8258044624e-001	 4.2821616781e+000
 9.0090840166e-001	 4.9235050691e-001	 4.3546566993e+000
 8.9552362611e-001	 5.0207805912e-001	 4.4224741742e+000
 9.6873755019e-001	 4.1359440173e-001	 3.2766938678e+000
 9.6427468282e-001	 4.2389519365e-001	 3.3439963938e+000
 9.5969300786e-001	 4.3416834581e-001	 3.4094000471e+000
 9.5499263200e-001	 4.4441187110e-001	 3.4727471250e+000
 9.5017370499e-001	 4.5462377733e-001	 3.5338793717e+000
 9.4523641993e-001	 4.6480206850e-001	 3.5926382638e+000
 9.4018101357e-001	 4.7494474584e-001	 3.6488653370e+000
 9.3500776659e-001	 4.8504980903e-001	 3.7024025568e+000
 9.2971700378e-001	 4.9511525738e-001	 3.7530927309e+000
 9.2430909425e-001	 5.0513909100e-001	 3.8007799660e+000
 9.1878445156e-001	 5.1511931203e-001	 3.8453101661e+000
 9.9326331808e-001	 4.2406547339e-001	 3.0507258326e+000
 9.8868746319e-001	 4.3462705299e-001	 3.0902757592e+000
 9.8398979283e-001	 4.4516029309e-001	 3.1279567297e+000
 9.7917041640e-001	 4.5566315623e-001	 3.1637544839e+000
 9.7422948742e-001	 4.6613359982e-001	 3.1976538038e+000
 9.6916720389e-001	 4.7656957730e-001	 3.2296385497e+000
 9.6398380856e-001	 4.8696903931e-001	 3.2596917423e+000
 9.5867958921e-001	 4.9732993488e-001	 3.2877956911e+000
 9.5325487885e-001	 5.0765021267e-001	 3.3139321709e+000
 9.4771005594e-001	 5.1792782216e-001	 3.3380826454e+000
 9.4204554451e-001	 5.2816071491e-001	 3.3602285399e+000
 1.0177893251e+000	 4.3453664713e-001	 2.8783165660e+000
 1.0131004816e+000	 4.4535901697e-001	 2.8931026961e+000
 1.0082868147e+000	 4.5615234754e-001	 2.9059912246e+000
 1.0033484365e+000	 4.6691455107e-001	 2.9170776217e+000
 9.9828550439e-001	 4.7764353453e-001	 2.9264559874e+000
 9.9309822118e-001	 4.8833720083e-001	 2.9342188917e+000
 9.8778683563e-001	 4.9899345001e-001	 2.9404572655e+000
 9.8235164262e-001	 5.0961018045e-001	 2.9452603425e+000
 9.7679298341e-001	 5.2018529017e-001	 2.9487156552e+000
 9.7111124578e-001	 5.3071667801e-001	 2.9509090848e+000
 9.6530686424e-001	 5.4120224495e-001	 2.9519249660e+000
 1.0423155283e+000	 4.4500790464e-001	 2.7438500224e+000
 1.0375136953e+000	 4.5609106680e-001	 2.7369202017e+000
 1.0325840309e+000	 4.6714448992e-001	 2.7280254583e+000
 1.0275266501e+000	 4.7816603591e-001	 2.7173397553e+000
 1.0223417138e+000	 4.8915356131e-001	 2.7050352457e+000
 1.0170294299e+000	 5.0010491850e-001	 2.6912819666e+000
 1.0115900531e+000	 5.1101795690e-001	 2.6762475897e+000
 1.0060238854e+000	 5.2189052427e-001	 2.6600972304e+000
 1.0003312763e+000	 5.3272046795e-001	 2.6429933167e+000
 9.9451262283e-001	 5.4350563617e-001	 2.6250955207e+000
 9.8856837007e-001	 5.5424387931e-001	 2.6065607524e+000
 1.0668418848e+000	 4.5547922759e-001	 2.6331257276e+000
 1.0619270615e+000	 4.6682318370e-001	 2.6075851497e+000
 1.0568813990e+000	 4.7813670099e-001	 2.5799921021e+000
 1.0517050147e+000	 4.8941759107e-001	 2.5505700581e+000
 1.0463980736e+000	 5.0066366003e-001	 2.5195401920e+000
 1.0409607882e+000	 5.1187270971e-001	 2.4871209748e+000
 1.0353934194e+000	 5.2304253894e-001	 2.4535278334e+000
 1.0296962761e+000	 5.3417094483e-001	 2.4189728762e+000
 1.0238697162e+000	 5.4525572408e-001	 2.3836646883e+000
 1.0179141461e+000	 5.5629467426e-001	 2.3478081964e+000
 1.0118300213e+000	 5.6728559518e-001	 2.3116046065e+000
 1.0913683516e+000	 4.6595059765e-001	 2.5332048031e+000
 1.0863405376e+000	 4.7755534890e-001	 2.4922148469e+000
 1.0811788764e+000	 4.8912896153e-001	 2.4490818565e+000
 1.0758834882e+000	 5.0066919685e-001	 2.4040518916e+000
 1.0704545416e+000	 5.1217381054e-001	 2.3573681537e+000
 1.0648922542e+000	 5.2364055388e-001	 2.3092705271e+000
 1.0591968927e+000	 5.3506717509e-001	 2.2599951934e+000
 1.0533687734e+000	 5.4645142066e-001	 2.2097743221e+000
 1.0474082621e+000	 5.5779103660e-001	 2.1588358410e+000
 1.0413157747e+000	 5.6908376989e-001	 2.1074032868e+000
 1.0350917771e+000	 5.8032736974e-001	 2.0556957389e+000
 1.1158948859e+000	 4.7642199651e-001	 2.4322761188e+000
 1.1107540809e+000	 4.8828754360e-001	 2.3790536608e+000
 1.1054764206e+000	 5.0012125229e-001	 2.3236107225e+000
 1.1000620281e+000	 5.1192083358e-001	 2.2661909139e+000
 1.0945110757e+000	 5.2368399270e-001	 2.2070343322e+000
 1.0888237859e+000	 5.3540843040e-001	 2.1463770914e+000
 1.0830004315e+000	 5.4709184431e-001	 2.0844509362e+000
 1.0770413357e+000	 5.5873193024e-001	 2.0214829445e+000
 1.0709468727e+000	 5.7032638360e-001	 1.9576953199e+000
 1.0647174677e+000	 5.8187290068e-001	 1.8933052780e+000
 1.0583535970e+000	 5.9336918015e-001	 1.8285250265e+000
 1.1404214447e+000	 4.8689340584e-001	 2.3195395471e+000
 1.1351676485e+000	 4.9901974903e-001	 2.2573566963e+000
 1.1297739892e+000	 5.1111355404e-001	 2.1929042537e+000
 1.1242405922e+000	 5.2317248155e-001	 2.1264000754e+000
 1.1185676339e+000	 5.3519418636e-001	 2.0580577298e+000
 1.1127553416e+000	 5.4717631868e-001	 1.9880860573e+000
 1.1068039941e+000	 5.5911652554e-001	 1.9166888262e+000
 1.1007139217e+000	 5.7101245211e-001	 1.8440644900e+000
 1.0944855069e+000	 5.8286174312e-001	 1.7704060498e+000
 1.0881191840e+000	 5.9466204427e-001	 1.6959010226e+000
 1.0816154401e+000	 6.0641100360e-001	 1.6207315184e+000
 1.1649479851e+000	 4.9736480731e-001	 2.1851037977e+000
 1.1595811979e+000	 5.0975194641e-001	 2.1172880130e+000
 1.1540715394e+000	 5.2210584754e-001	 2.0471962873e+000
 1.1484191381e+000	 5.3442412108e-001	 1.9749990122e+000
 1.1426241741e+000	 5.4670437139e-001	 1.9008613720e+000
 1.1366868794e+000	 5.5894419814e-001	 1.8249429702e+000
 1.1306075389e+000	 5.7114119775e-001	 1.7473975687e+000
 1.1243864900e+000	 5.8329296476e-001	 1.6683729429e+000
 1.1180241233e+000	 5.9539709325e-001	 1.5880108576e+000
 1.1115208828e+000	 6.0745117825e-001	 1.5064471644e+000
 1.1048772657e+000	 6.1945281727e-001	 1.4238120230e+000
 8.7226310887e-001	 4.8903697900e-001	 5.1086740920e+000
 8.6690699948e-001	 4.9846997940e-001	 5.1926113549e+000
 8.6144094757e-001	 5.0785777912e-001	 5.2682959869e+000
 8.5586547377e-001	 5.1719849384e-001	 5.3360176022e+000
 8.5018114112e-001	 5.2649024586e-001	 5.3960789649e+000
 8.4438855498e-001	 5.3573116523e-001	 5.4487958233e+000
 8.3848836297e-001	 5.4491939094e-001	 5.4944967449e+000
 8.3248125485e-001	 5.5405307210e-001	 5.5335229543e+000
 8.2636796230e-001	 5.6313036914e-001	 5.5662281698e+000
 8.2014925879e-001	 5.7214945494e-001	 5.5929784406e+000
 8.1382595926e-001	 5.8110851606e-001	 5.6141519815e+000
 8.9552362611e-001	 5.0207805912e-001	 4.4224741742e+000
 8.9002468611e-001	 5.1176260801e-001	 4.4846764433e+000
 8.8441287176e-001	 5.2140075085e-001	 4.5405326927e+000
 8.7868871760e-001	 5.3099055310e-001	 4.5900691639e+000
 8.7285280165e-001	 5.4053008696e-001	 4.6333227749e+000
 8.6690574543e-001	 5.5001743262e-001	 4.6703414425e+000
 8.6084821383e-001	 5.5945067945e-001	 4.7011844196e+000
 8.5468091501e-001	 5.6882792720e-001	 4.7259226446e+000
 8.4840460015e-001	 5.7814728723e-001	 4.7446391015e+000
 8.4202006336e-001	 5.8740688373e-001	 4.7574291884e+000
 8.3552814128e-001	 5.9660485487e-001	 4.7644010908e+000
 9.1878445156e-001	 5.1511931203e-001	 3.8453101661e+000
 9.1314267905e-001	 5.2505541274e-001	 3.8859258349e+000
 9.0738510034e-001	 5.3494390203e-001	 3.9218354463e+000
 9.0151226383e-001	 5.4478279510e-001	 3.9528607905e+000
 8.9552476258e-001	 5.5457011409e-001	 3.9788321595e+000
 8.8942323424e-001	 5.6430388931e-001	 3.9995890762e+000
 8.8320836097e-001	 5.7398216050e-001	 4.0149810485e+000
 8.7688086931e-001	 5.8360297806e-001	 4.0248683479e+000
 8.7044152999e-001	 5.9316440431e-001	 4.0291228081e+000
 8.6389115771e-001	 6.0266451468e-001	 4.0276286398e+000
 8.5723061087e-001	 6.1210139900e-001	 4.0202832595e+000
 9.4204554451e-001	 5.2816071491e-001	 3.3602285399e+000
 9.3626093785e-001	 5.3834837034e-001	 3.3798186732e+000
 9.3035759310e-001	 5.4848720896e-001	 3.3960861311e+000
 9.2433607253e-001	 5.5857519572e-001	 3.4087027412e+000
 9.1819698423e-001	 5.6861030267e-001	 3.4173469230e+000
 9.1194098199e-001	 5.7859051029e-001	 3.4217047437e+000
 9.0556876524e-001	 5.8851380866e-001	 3.4214710124e+000
 8.9908107892e-001	 5.9837819884e-001	 3.4163504075e+000
 8.9247871325e-001	 6.0818169408e-001	 3.4060586349e+000
 8.8576250357e-001	 6.1792232109e-001	 3.3903236110e+000
 8.7893333002e-001	 6.2759812135e-001	 3.3688866670e+000
 9.6530686424e-001	 5.4120224495e-001	 2.9519249660e+000
 9.5937942204e-001	 5.5164145755e-001	 2.9514301860e+000
 9.5333030983e-001	 5.6203064793e-001	 2.9487489241e+000
 9.4716010376e-001	 5.7236773080e-001	 2.9434535109e+000
 9.4086942694e-001	 5.8265062815e-001	 2.9351211874e+000
 9.3445894929e-001	 5.9287727056e-001	 2.9233354149e+000
 9.2792938752e-001	 6.0304559850e-001	 2.9076872340e+000
 9.2128150497e-001	 6.1315356367e-001	 2.8877766680e+000
 9.1451611137e-001	 6.2319913026e-001	 2.8632141658e+000
 9.0763406268e-001	 6.3318027626e-001	 2.8336220790e+000
 9.0063626078e-001	 6.4309499478e-001	 2.7986361676e+000
 9.8856837007e-001	 5.5424387931e-001	 2.6065607524e+000
 9.8249809118e-001	 5.6493465109e-001	 2.5872726623e+000
 9.7630321034e-001	 5.7557419525e-001	 2.5666959184e+000
 9.6998431758e-001	 5.8616037623e-001	 2.5443501536e+000
 9.6354205101e-001	 5.9669106594e-001	 2.5197584245e+000
 9.5697709672e-001	 6.0716414512e-001	 2.4924487061e+000
 9.5029018868e-001	 6.1757750460e-001	 2.4619554456e+000
 9.4348210862e-001	 6.2792904671e-001	 2.4278211720e+000
 9.3655368578e-001	 6.3821668658e-001	 2.3895981542e+000
 9.2950579675e-001	 6.4843835349e-001	 2.3468501023e+000
 9.2233936515e-001	 6.5859199218e-001	 2.2991539064e+000
 1.0118300213e+000	 5.6728559518e-001	 2.3116046065e+000
 1.0056169048e+000	 5.7822792772e-001	 2.2751411552e+000
 9.9927625442e-001	 5.8911782720e-001	 2.2380568584e+000
 9.9280867404e-001	 5.9995310785e-001	 2.1998621005e+000
 9.8621481679e-001	 6.1073159149e-001	 2.1600693640e+000
 9.7949538489e-001	 6.2145110897e-001	 2.1181948430e+000
 9.7265112959e-001	 6.3210950151e-001	 2.0737601268e+000
 9.6568285101e-001	 6.4270462208e-001	 2.0262939494e+000
 9.5859139792e-001	 6.5323433675e-001	 1.9753339977e+000
 9.5137766752e-001	 6.6369652607e-001	 1.9204287722e+000
 9.4404260515e-001	 6.7408908643e-001	 1.8615132424e+000
 1.0350917771e+000	 5.8032736974e-001	 2.0556957389e+000
 1.0287358225e+000	 5.9152126415e-001	 2.0039800210e+000
 1.0222494019e+000	 6.0266152010e-001	 1.9520891968e+000
 1.0156331332e+000	 6.1374590153e-001	 1.8995647794e+000
 1.0088876846e+000	 6.2477218021e-001	 1.8459491823e+000
 1.0020137744e+000	 6.3573813710e-001	 1.7907873889e+000
 9.9501217112e-001	 6.4664156381e-001	 1.7336287047e+000
 9.8788369330e-001	 6.5748026394e-001	 1.6740285846e+000
 9.8062920921e-001	 6.6825205450e-001	 1.6115662992e+000
 9.7324963670e-001	 6.7895476732e-001	 1.5467384956e+000
 9.6574594281e-001	 6.8958625042e-001	 1.4796226905e+000
 1.0583535970e+000	 5.9336918015e-001	 1.8285250265e+000
 1.0518548037e+000	 6.0481463715e-001	 1.7637670920e+000
 1.0452226125e+000	 6.1620525025e-001	 1.6990653485e+000
 1.0384576551e+000	 6.2753873314e-001	 1.6340299897e+000
 1.0315606147e+000	 6.3881280753e-001	 1.5682710061e+000
 1.0245322258e+000	 6.5002520452e-001	 1.5013998521e+000
 1.0173732741e+000	 6.6117366607e-001	 1.4330312077e+000
 1.0100845966e+000	 6.7225594642e-001	 1.3629735134e+000
 1.0026670811e+000	 6.8326981354e-001	 1.2919427374e+000
 9.9512166602e-001	 6.9421305052e-001	 1.2196868537e+000
 9.8744934015e-001	 7.0508345701e-001	 1.1457934795e+000
 1.0816154401e+000	 6.0641100360e-001	 1.6207315184e+000
 1.0749738080e+000	 6.1810802343e-001	 1.5454128284e+000
 1.0681958461e+000	 6.2974899393e-001	 1.4701745529e+000
 1.0612821999e+000	 6.4133157855e-001	 1.3947305112e+000
 1.0542335675e+000	 6.5285344890e-001	 1.3187932760e+000
 1.0470506997e+000	 6.6431228622e-001	 1.2420757832e+000
 1.0397343995e+000	 6.7570578286e-001	 1.1647516829e+000
 1.0322855222e+000	 6.8703164368e-001	 1.0874597422e+000
 1.0247049750e+000	 6.9828758759e-001	 1.0098687294e+000
 1.0169937172e+000	 7.0947134897e-001	 9.3164373271e-001
 1.0091527592e+000	 7.2058067910e-001	 8.5248007494e-001
 1.1048772657e+000	 6.1945281727e-001	 1.4238120230e+000
 1.0980927950e+000	 6.3140139974e-001	 1.3406722427e+000
 1.0911690624e+000	 6.4329272745e-001	 1.2574371929e+000
 1.0841067275e+000	 6.5512441360e-001	 1.1739568503e+000
 1.0769065033e+000	 6.6689407973e-001	 1.0900791334e+000
 1.0695691567e+000	 6.7859935721e-001	 1.0063823240e+000
 1.0620955081e+000	 6.9023788874e-001	 9.2331421838e-001
 1.0544864310e+000	 7.0180732985e-001	 8.4062030771e-001
 1.0467428524e+000	 7.1330535038e-001	 7.5807589184e-001
 1.0388657520e+000	 7.2472963597e-001	 6.7548708807e-001
 1.0308561619e+000	 7.3607788956e-001	 5.9269175227e-001
 8.1382595926e-001	 5.8110851606e-001	 5.6141519815e+000
 8.0739891962e-001	 5.9000575367e-001	 5.6302380297e+000
 8.0086903579e-001	 5.9883938412e-001	 5.6408753092e+000
 7.9423724396e-001	 6.0760764065e-001	 5.6451894281e+000
 7.8750452048e-001	 6.1630877477e-001	 5.6423266460e+000
 7.8067188138e-001	 6.2494105736e-001	 5.6314561095e+000
 7.7374038194e-001	 6.3350277976e-001	 5.6117720703e+000
 7.6671111609e-001	 6.4199225496e-001	 5.5824960779e+000
 7.5958521594e-001	 6.5040781861e-001	 5.5428791401e+000
 7.5236385116e-001	 6.5874783014e-001	 5.4922038430e+000
 7.4504822833e-001	 6.6701067379e-001	 5.4297871604e+000
 8.3552814128e-001	 5.9660485487e-001	 4.7644010908e+000
 8.2892971269e-001	 6.0573935386e-001	 4.7660786381e+000
 8.2222569736e-001	 6.1480854948e-001	 4.7624515568e+000
 8.1541705648e-001	 6.2381062787e-001	 4.7528512509e+000
 8.0850479241e-001	 6.3274379391e-001	 4.7366301346e+000
 8.0148994829e-001	 6.4160627235e-001	 4.7131636257e+000
 7.9437360752e-001	 6.5039630900e-001	 4.6818521212e+000
 7.8715689323e-001	 6.5911217184e-001	 4.6421229462e+000
 7.7984096771e-001	 6.6775215214e-001	 4.5934407538e+000
 7.7242703182e-001	 6.7631456557e-001	 4.5359690711e+000
 7.6491632430e-001	 6.8479775331e-001	 4.4696236589e+000
 8.5723061087e-001	 6.1210139900e-001	 4.0202832595e+000
 8.5046079104e-001	 6.2147316252e-001	 4.0076230770e+000
 8.4358264192e-001	 6.3077792643e-001	 3.9899125589e+000
 8.3659714963e-001	 6.4001382979e-001	 3.9666661868e+000
 8.2950534259e-001	 6.4917903082e-001	 3.9374193129e+000
 8.2230829104e-001	 6.5827170817e-001	 3.9017299502e+000
 8.1500710650e-001	 6.6729006209e-001	 3.8591832319e+000
 8.0760294129e-001	 6.7623231556e-001	 3.8100724197e+000
 8.0009698788e-001	 6.8509671548e-001	 3.7545355195e+000
 7.9249047831e-001	 6.9388153377e-001	 3.6921976714e+000
 7.8478468353e-001	 7.0258506851e-001	 3.6227169362e+000
 8.7893333002e-001	 6.2759812135e-001	 3.3688866670e+000
 8.7199211700e-001	 6.3720715211e-001	 3.3422747568e+000
 8.6493983207e-001	 6.4674748704e-001	 3.3109547958e+000
 8.5777748635e-001	 6.5621721804e-001	 3.2746030559e+000
 8.5050613428e-001	 6.6561445672e-001	 3.2329160585e+000
 8.4312687320e-001	 6.7493733563e-001	 3.1861245359e+000
 8.3564084277e-001	 6.8418400945e-001	 3.1347341145e+000
 8.2804922448e-001	 6.9335265616e-001	 3.0784802168e+000
 8.2035324099e-001	 7.0244147828e-001	 3.0171195295e+000
 8.1255415554e-001	 7.1144870399e-001	 2.9504396470e+000
 8.0465327125e-001	 7.2037258827e-001	 2.8782597676e+000
 9.0063626078e-001	 6.4309499478e-001	 2.7986361676e+000
 8.9352365288e-001	 6.5294129511e-001	 2.7587518354e+000
 8.8629723046e-001	 6.6271720334e-001	 2.7145697062e+000
 8.7895802958e-001	 6.7242076426e-001	 2.6661498078e+000
 8.7150713073e-001	 6.8205004287e-001	 2.6143385466e+000
 8.6394565833e-001	 6.9160312559e-001	 2.5590684672e+000
 8.5627478021e-001	 7.0107812152e-001	 2.5001825176e+000
 8.4849570701e-001	 7.1047316368e-001	 2.4375522204e+000
 8.4060969159e-001	 7.1978641019e-001	 2.3710782512e+000
 8.3261802838e-001	 7.2901604548e-001	 2.3006909455e+000
 8.2452205268e-001	 7.3816028145e-001	 2.2263507331e+000
 9.2233936515e-001	 6.5859199218e-001	 2.2991539064e+000
 9.1505536101e-001	 6.6867556397e-001	 2.2469792688e+000
 9.0765479969e-001	 6.7868704739e-001	 2.1919354134e+000
 9.0013874224e-001	 6.8862444011e-001	 2.1343868744e+000
 8.9250829517e-001	 6.9848576050e-001	 2.0742509025e+000
 8.8476461001e-001	 7.0826904886e-001	 2.0114714407e+000
 8.7690888272e-001	 7.1797236874e-001	 1.9460196122e+000
 8.6894235311e-001	 7.2759380816e-001	 1.8778941373e+000
 8.6086630424e-001	 7.3713148085e-001	 1.8071216773e+000
 8.5268206173e-001	 7.4658352751e-001	 1.7337571060e+000
 8.4439099306e-001	 7.5594811693e-001	 1.6578837060e+000
 9.4404260515e-001	 6.7408908643e-001	 1.8615132424e+000
 9.3658720370e-001	 6.8440993117e-001	 1.7999644454e+000
 9.2901250240e-001	 6.9465699125e-001	 1.7364675464e+000
 9.2131958727e-001	 7.0482821723e-001	 1.6710279933e+000
 9.1350959087e-001	 7.1492158085e-001	 1.6036767848e+000
 9.0558369180e-001	 7.2493507629e-001	 1.5344708236e+000
 8.9754311418e-001	 7.3486672154e-001	 1.4634931986e+000
 8.8938912699e-001	 7.4471455963e-001	 1.3908533915e+000
 8.8112304349e-001	 7.5447665992e-001	 1.3166874094e+000
 8.7274622048e-001	 7.6415111933e-001	 1.2411578421e+000
 8.6426005761e-001	 7.7373606358e-001	 1.1644538433e+000
 9.6574594281e-001	 6.8958625042e-001	 1.4796226905e+000
 9.5811914328e-001	 7.0014436917e-001	 1.4104319828e+000
 9.5037030122e-001	 7.1062700697e-001	 1.3397453974e+000
 9.4250052761e-001	 7.2103206726e-001	 1.2676684569e+000
 9.3451098106e-001	 7.3135747515e-001	 1.1943313819e+000
 9.2640286727e-001	 7.4160117871e-001	 1.1198892619e+000
 9.1817743849e-001	 7.5176115036e-001	 1.0445221504e+000
 9.0983599288e-001	 7.6183538815e-001	 9.6843508374e-001
 9.0137987388e-001	 7.7182191703e-001	 8.9185802212e-001
 8.9281046950e-001	 7.8171879020e-001	 8.1504571419e-001
 8.8412921157e-001	 7.9152409026e-001	 7.3827748443e-001
 9.8744934015e-001	 7.0508345701e-001	 1.1457934795e+000
 9.7965114206e-001	 7.1587885043e-001	 1.0703661587e+000
 9.7172815876e-001	 7.2659706660e-001	 9.9388498010e-001
 9.6368152620e-001	 7.3723596185e-001	 9.1654232668e-001
 9.5551242900e-001	 7.4779341464e-001	 8.3855418085e-001
 9.4722209999e-001	 7.5826732696e-001	 7.6016013193e-001
 9.3881181954e-001	 7.6865562564e-001	 6.8162330481e-001
 9.3028291499e-001	 7.7895626374e-001	 6.0323020949e-001
 9.2163675998e-001	 7.8916722184e-001	 5.2529051156e-001
 9.1287477370e-001	 7.9928650937e-001	 4.4813672368e-001
 9.0399842016e-001	 8.0931216586e-001	 3.7212381875e-001
 1.0091527592e+000	 7.2058067910e-001	 8.5248007494e-001
 1.0011831624e+000	 7.3161334743e-001	 7.7235202839e-001
 9.9308603765e-001	 7.4256714220e-001	 6.9158826444e-001
 9.8486254595e-001	 7.5343987263e-001	 6.1045576546e-001
 9.7651389794e-001	 7.6422937057e-001	 5.2924379050e-001
 9.6804135352e-001	 7.7493349187e-001	 4.4826373764e-001
 9.5944622121e-001	 7.8555011781e-001	 3.6784892504e-001
 9.5072985754e-001	 7.9607715645e-001	 2.8835429062e-001
 9.4189366633e-001	 8.0651254399e-001	 2.1015601037e-001
 9.3293909795e-001	 8.1685424611e-001	 1.3365103604e-001
 9.2386764861e-001	 8.2710025924e-001	 5.9256552968e-002
 1.0308561619e+000	 7.3607788956e-001	 5.9269175227e-001
 1.0227151665e+000	 7.4734783261e-001	 5.0951526492e-001
 1.0144439005e+000	 7.5853720581e-001	 4.2608457087e-001
 1.0060435498e+000	 7.6964377126e-001	 3.4272986351e-001
 9.9751535112e-001	 7.8066531416e-001	 2.5980208652e-001
 9.8886059143e-001	 7.9159964427e-001	 1.7767266937e-001
 9.8008060741e-001	 8.0244459730e-001	 9.6733178969e-002
 9.7117678475e-001	 8.1319803631e-001	 1.7394887496e-002
 9.6215055747e-001	 8.2385785312e-001	-5.9911743159e-002
 9.5300340716e-001	 8.3442196966e-001	-1.3473765954e-001
 9.4373686216e-001	 8.4488833928e-001	-2.0661589611e-001
 7.4504822833e-001	 6.6701067379e-001	 5.4297871604e+000
 7.3764070856e-001	 6.7519353820e-001	 5.3564418619e+000
 7.3014148001e-001	 6.8329610677e-001	 5.2732716830e+000
 7.2255185597e-001	 6.9131684565e-001	 5.1802185649e+000
 7.1487318379e-001	 6.9925424984e-001	 5.0772507988e+000
 7.0710684408e-001	 7.0710684408e-001	 4.9643634006e+000
 6.9925424984e-001	 7.1487318379e-001	 4.8415784308e+000
 6.9131684565e-001	 7.2255185597e-001	 4.7089452587e+000
 6.8329610677e-001	 7.3014148001e-001	 4.5665407714e+000
 6.7519353820e-001	 7.3764070856e-001	 4.4144695274e+000
 6.6701067379e-001	 7.4504822833e-001	 4.2528638552e+000
 7.6491632430e-001	 6.8479775331e-001	 4.4696236589e+000
 7.5731126925e-001	 6.9319882901e-001	 4.3944606444e+000
 7.4961205982e-001	 7.0151746763e-001	 4.3109084253e+000
 7.4182004435e-001	 7.0975209443e-001	 4.2190751196e+000
 7.3393660611e-001	 7.1790116425e-001	 4.1190905037e+000
 7.2596316251e-001	 7.2596316251e-001	 4.0111060762e+000
 7.1790116425e-001	 7.3393660611e-001	 3.8952950736e+000
 7.0975209443e-001	 7.4182004435e-001	 3.7718524373e+000
 7.0151746763e-001	 7.4961205982e-001	 3.6409947349e+000
 6.9319882901e-001	 7.5731126925e-001	 3.5029600336e+000
 6.8479775331e-001	 7.6491632430e-001	 3.3580077290e+000
 7.8478468353e-001	 7.0258506851e-001	 3.6227169362e+000
 7.7698209058e-001	 7.1120435840e-001	 3.5458964224e+000
 7.6908289763e-001	 7.1973906993e-001	 3.4618844100e+000
 7.6108848804e-001	 7.2818758747e-001	 3.3709282955e+000
 7.5300028102e-001	 7.3654832574e-001	 3.2732932241e+000
 7.4481973079e-001	 7.4481973079e-001	 3.1692618791e+000
 7.3654832574e-001	 7.5300028102e-001	 3.0591342292e+000
 7.2818758747e-001	 7.6108848804e-001	 2.9432272331e+000
 7.1973906993e-001	 7.6908289763e-001	 2.8218745038e+000
 7.1120435840e-001	 7.7698209058e-001	 2.6954259331e+000
 7.0258506851e-001	 7.8478468353e-001	 2.5642472798e+000
 8.0465327125e-001	 7.2037258827e-001	 2.8782597676e+000
 7.9665313812e-001	 7.2921009484e-001	 2.8000774023e+000
 7.8855395935e-001	 7.3796088178e-001	 2.7157058702e+000
 7.8035715332e-001	 7.4662329252e-001	 2.6255070929e+000
 7.7206417516e-001	 7.5519570166e-001	 2.5298575753e+000
 7.6367651593e-001	 7.6367651593e-001	 2.4291479571e+000
 7.5519570166e-001	 7.7206417516e-001	 2.3237825237e+000
 7.4662329252e-001	 7.8035715332e-001	 2.2141786800e+000
 7.3796088178e-001	 7.8855395935e-001	 2.1007663880e+000
 7.2921009484e-001	 7.9665313812e-001	 1.9839875712e+000
 7.2037258827e-001	 8.0465327125e-001	 1.8642954875e+000
 8.2452205268e-001	 7.3816028145e-001	 2.2263507331e+000
 8.1632437745e-001	 7.4721600684e-001	 2.1472199758e+000
 8.0802521092e-001	 7.5618287128e-001	 2.0627454378e+000
 7.9962600647e-001	 7.6505917732e-001	 1.9733807633e+000
 7.9112825518e-001	 7.7384325940e-001	 1.8795917285e+000
 7.8253348491e-001	 7.8253348491e-001	 1.7818555856e+000
 7.7384325940e-001	 7.9112825518e-001	 1.6806603703e+000
 7.6505917732e-001	 7.9962600647e-001	 1.5765041734e+000
 7.5618287128e-001	 8.0802521092e-001	 1.4698943802e+000
 7.4721600684e-001	 8.1632437745e-001	 1.3613468799e+000
 7.3816028145e-001	 8.2452205268e-001	 1.2513852488e+000
 8.4439099306e-001	 7.5594811693e-001	 1.6578837060e+000
 8.3599577415e-001	 7.6522206289e-001	 1.5783200107e+000
 8.2749661825e-001	 7.7440500656e-001	 1.4941357081e+000
 8.1889501376e-001	 7.8349520960e-001	 1.4058551442e+000
 8.1019248770e-001	 7.9249096632e-001	 1.3140130306e+000
 8.0139060475e-001	 8.0139060475e-001	 1.2191536127e+000
 7.9249096632e-001	 8.1019248770e-001	 1.1218298017e+000
 7.8349520960e-001	 8.1889501376e-001	 1.0226022722e+000
 7.7440500656e-001	 8.2749661825e-001	 9.2203852860e-001
 7.6522206289e-001	 8.3599577415e-001	 8.2071194495e-001
 7.5594811693e-001	 8.4439099306e-001	 7.1920077979e-001
 8.6426005761e-001	 7.7373606358e-001	 1.1644538433e+000
 8.5566729379e-001	 7.8322823146e-001	 1.0850604038e+000
 8.4696814727e-001	 7.9262725572e-001	 1.0016787602e+000
 8.3816414148e-001	 8.0193135710e-001	 9.1488457069e-001
 8.2925683937e-001	 8.1113878977e-001	 8.2526275371e-001
 8.2024784244e-001	 8.2024784244e-001	 7.3340650946e-001
 8.1113878977e-001	 8.2925683937e-001	 6.3991630311e-001
 8.0193135710e-001	 8.3816414148e-001	 5.4539881400e-001
 7.9262725572e-001	 8.4696814727e-001	 4.5046585416e-001
 7.8322823146e-001	 8.5566729379e-001	 3.5573325976e-001
 7.7373606358e-001	 8.6426005761e-001	 2.6181975959e-001
 8.8412921157e-001	 7.9152409026e-001	 7.3827748443e-001
 8.7533890194e-001	 8.0123448106e-001	 6.5973233812e-001
 8.6643976390e-001	 8.1084958688e-001	 5.7776912282e-001
 8.5743335591e-001	 8.2036758756e-001	 4.9299691696e-001
 8.4832127683e-001	 8.2978669714e-001	 4.0603359495e-001
 8.3910516497e-001	 8.3910516497e-001	 3.1750472778e-001
 8.2978669714e-001	 8.4832127683e-001	 2.2804244377e-001
 8.2036758756e-001	 8.5743335591e-001	 1.3828425324e-001
 8.1084958688e-001	 8.6643976390e-001	 4.8871840941e-002
 8.0123448106e-001	 8.7533890194e-001	-3.9550169378e-002
 7.9152409026e-001	 8.8412921157e-001	-1.2633547412e-001
 9.0399842016e-001	 8.0931216586e-001	 3.7212381875e-001
 8.9501056419e-001	 8.1924078017e-001	 2.9516813904e-001
 8.8591143408e-001	 8.2907196814e-001	 2.1532811990e-001
 8.7670262332e-001	 8.3880386871e-001	 1.3322974857e-001
 8.6738576670e-001	 8.4843465578e-001	 4.9507966323e-002
 8.5796253937e-001	 8.5796253937e-001	-3.5194525823e-002
 8.4843465578e-001	 8.6738576670e-001	-1.2022850511e-001
 8.3880386871e-001	 8.7670262332e-001	-2.0493950459e-001
 8.2907196814e-001	 8.8591143408e-001	-2.8866912583e-001
 8.1924078017e-001	 8.9501056419e-001	-3.7075638227e-001
 8.0931216586e-001	 9.0399842016e-001	-4.5053906825e-001
 9.2386764861e-001	 8.2710025924e-001	 5.9256552968e-002
 9.1468224610e-001	 8.3724709728e-001	-1.5316017066e-002
 9.0538312372e-001	 8.4729436762e-001	-9.2252116508e-002
 8.9597190999e-001	 8.5724016829e-001	-1.7092408647e-001
 8.8645027563e-001	 8.6708263307e-001	-2.5069454794e-001
 8.7681993261e-001	 8.7681993261e-001	-3.3091766717e-001
 8.6708263307e-001	 8.8645027563e-001	-4.1094046996e-001
 8.5724016829e-001	 8.9597190999e-001	-4.9010420057e-001
 8.4729436762e-001	 9.0538312372e-001	-5.6774572039e-001
 8.3724709728e-001	 9.1468224610e-001	-6.4319894140e-001
 8.2710025924e-001	 9.2386764861e-001	-7.1579628921e-001
 9.4373686216e-001	 8.4488833928e-001	-2.0661589611e-001
 9.3435391325e-001	 8.5525340088e-001	-2.7796899195e-001
 9.2485479875e-001	 8.6551675343e-001	-3.5115639046e-001
 9.1524118220e-001	 8.7567645404e-001	-4.2556281766e-001
 9.0551477026e-001	 8.8573059636e-001	-5.0056191757e-001
 8.9567731170e-001	 8.9567731170e-001	-5.7551756604e-001
 8.8573059636e-001	 9.0551477026e-001	-6.4978524044e-001
 8.7567645404e-001	 9.1524118220e-001	-7.2271344050e-001
 8.6551675343e-001	 9.2485479875e-001	-7.9364515500e-001
 8.5525340088e-001	 9.3435391325e-001	-8.6191936934e-001
 8.4488833928e-001	 9.4373686216e-001	-9.2687260786e-001
 6.6701067379e-001	 7.4504822833e-001	 4.2528638552e+000
 6.5874783014e-001	 7.5236385116e-001	 4.0815675886e+000
 6.5040781861e-001	 7.5958521594e-001	 3.9004751375e+000
 6.4199225496e-001	 7.6671111609e-001	 3.7096164763e+000
 6.3350277976e-001	 7.7374038194e-001	 3.5090329431e+000
 6.2494105736e-001	 7.8067188138e-001	 3.2987786245e+000
 6.1630877477e-001	 7.8750452048e-001	 3.0789208435e+000
 6.0760764065e-001	 7.9423724396e-001	 2.8495406242e+000
 5.9883938412e-001	 8.0086903579e-001	 2.6107331306e+000
 5.9000575367e-001	 8.0739891962e-001	 2.3626080778e+000
 5.8110851606e-001	 8.1382595926e-001	 2.1052901124e+000
 6.8479775331e-001	 7.6491632430e-001	 3.3580077290e+000
 6.7631456557e-001	 7.7242703182e-001	 3.2051871859e+000
 6.6775215214e-001	 7.7984096771e-001	 3.0435017326e+000
 6.5911217184e-001	 7.8715689323e-001	 2.8736475814e+000
 6.5039630900e-001	 7.9437360752e-001	 2.6966889150e+000
 6.4160627235e-001	 8.0148994829e-001	 2.5128666854e+000
 6.3274379391e-001	 8.0850479241e-001	 2.3224159333e+000
 6.2381062787e-001	 8.1541705648e-001	 2.1255765594e+000
 6.1480854948e-001	 8.2222569736e-001	 1.9225935280e+000
 6.0573935386e-001	 8.2892971269e-001	 1.7137170594e+000
 5.9660485487e-001	 8.3552814128e-001	 1.4992028073e+000
 7.0258506851e-001	 7.8478468353e-001	 2.5642472798e+000
 6.9388153377e-001	 7.9249047831e-001	 2.4271502893e+000
 6.8509671548e-001	 8.0009698788e-001	 2.2829313637e+000
 6.7623231556e-001	 8.0760294129e-001	 2.1318869916e+000
 6.6729006209e-001	 8.1500710650e-001	 1.9743162275e+000
 6.5827170817e-001	 8.2230829104e-001	 1.8112309331e+000
 6.4917903082e-001	 8.2950534259e-001	 1.6438906122e+000
 6.4001382979e-001	 8.3659714963e-001	 1.4726670420e+000
 6.3077792643e-001	 8.4358264192e-001	 1.2979261370e+000
 6.2147316252e-001	 8.5046079104e-001	 1.1200314677e+000
 6.1210139900e-001	 8.5723061087e-001	 9.3934427951e-001
 7.2037258827e-001	 8.0465327125e-001	 1.8642954875e+000
 7.1144870399e-001	 8.1255415554e-001	 1.7402614212e+000
 7.0244147828e-001	 8.2035324099e-001	 1.6104621005e+000
 6.9335265616e-001	 8.2804922448e-001	 1.4753114160e+000
 6.8418400945e-001	 8.3564084277e-001	 1.3352211533e+000
 6.7493733563e-001	 8.4312687320e-001	 1.1906003462e+000
 6.6561445672e-001	 8.5050613428e-001	 1.0418667369e+000
 6.5621721804e-001	 8.5777748635e-001	 8.9052379914e-001
 6.4674748704e-001	 8.6493983207e-001	 7.3772986851e-001
 6.3720715211e-001	 8.7199211700e-001	 5.8393706489e-001
 6.2759812135e-001	 8.7893333002e-001	 4.2958907206e-001
 7.3816028145e-001	 8.2452205268e-001	 1.2513852488e+000
 7.2901604548e-001	 8.3261802838e-001	 1.1383466565e+000
 7.1978641019e-001	 8.4060969159e-001	 1.0205852246e+000
 7.1047316368e-001	 8.4849570701e-001	 8.9860193464e-001
 7.0107812152e-001	 8.5627478021e-001	 7.7289232722e-001
 6.9160312559e-001	 8.6394565833e-001	 6.4394563865e-001
 6.8205004287e-001	 8.7150713073e-001	 5.1224394955e-001
 6.7242076426e-001	 8.7895802958e-001	 3.7826134862e-001
 6.6271720334e-001	 8.8629723046e-001	 2.4263102637e-001
 6.5294129511e-001	 8.9352365288e-001	 1.0731607984e-001
 6.4309499478e-001	 9.0063626078e-001	-2.6832228519e-002
 7.5594811693e-001	 8.4439099306e-001	 7.1920077979e-001
 7.4658352751e-001	 8.5268206173e-001	 6.1562277886e-001
 7.3713148085e-001	 8.6086630424e-001	 5.0811543739e-001
 7.2759380816e-001	 8.6894235311e-001	 3.9723906414e-001
 7.1797236874e-001	 8.7690888272e-001	 2.8354646321e-001
 7.0826904886e-001	 8.8476461001e-001	 1.6758189208e-001
 6.9848576050e-001	 8.9250829517e-001	 4.9880035411e-002
 6.8862444011e-001	 9.0013874224e-001	-6.9035001353e-002
 6.7868704739e-001	 9.0765479969e-001	-1.8865067490e-001
 6.6867556397e-001	 9.1505536101e-001	-3.0846695969e-001
 6.5859199218e-001	 9.2233936515e-001	-4.2728802237e-001
 7.7373606358e-001	 8.6426005761e-001	 2.6181975959e-001
 7.6415111933e-001	 8.7274622048e-001	 1.6664596330e-001
 7.5447665992e-001	 8.8112304349e-001	 6.8146836563e-002
 7.4471455963e-001	 8.8938912699e-001	-3.3083412059e-002
 7.3486672154e-001	 8.9754311418e-001	-1.3645892709e-001
 7.2493507629e-001	 9.0558369180e-001	-2.4140339121e-001
 7.1492158085e-001	 9.1350959087e-001	-3.4735119308e-001
 7.0482821723e-001	 9.2131958727e-001	-4.5374857353e-001
 6.9465699125e-001	 9.2901250240e-001	-5.6005474572e-001
 6.8440993117e-001	 9.3658720370e-001	-6.6574298500e-001
 6.7408908643e-001	 9.4404260515e-001	-7.7030168426e-001
 7.9152409026e-001	 8.8412921157e-001	-1.2633547412e-001
 7.8171879020e-001	 8.9281046950e-001	-2.1373137610e-001
 7.7182191703e-001	 9.0137987388e-001	-3.0398393203e-001
 7.6183538815e-001	 9.0983599288e-001	-3.9648831143e-001
 7.5176115036e-001	 9.1817743849e-001	-4.9064772097e-001
 7.4160117871e-001	 9.2640286727e-001	-5.8587469955e-001
 7.3135747515e-001	 9.3451098106e-001	-6.8159239719e-001
 7.2103206726e-001	 9.4250052761e-001	-7.7723583279e-001
 7.1062700697e-001	 9.5037030122e-001	-8.7225312584e-001
 7.0014436917e-001	 9.5811914328e-001	-9.6610669731e-001
 6.8958625042e-001	 9.6574594281e-001	-1.0582744350e+000
 8.0931216586e-001	 9.0399842016e-001	-4.5053906825e-001
 7.9928650937e-001	 9.1287477370e-001	-5.3039682794e-001
 7.8916722184e-001	 9.2163675998e-001	-6.1272845037e-001
 7.7895626374e-001	 9.3028291499e-001	-6.9693977632e-001
 7.6865562564e-001	 9.3881181954e-001	-7.8244324923e-001
 7.5826732696e-001	 9.4722209999e-001	-8.6865928958e-001
 7.4779341464e-001	 9.5551242900e-001	-9.5501765646e-001
 7.3723596185e-001	 9.6368152620e-001	-1.0409587909e+000
 7.2659706660e-001	 9.7172815876e-001	-1.1259351357e+000
 7.1587885043e-001	 9.7965114206e-001	-1.2094124262e+000
 7.0508345701e-001	 9.8744934015e-001	-1.2908709470e+000
 8.2710025924e-001	 9.2386764861e-001	-7.1579628921e-001
 8.1685424611e-001	 9.3293909795e-001	-7.8800835481e-001
 8.0651254399e-001	 9.4189366633e-001	-8.6235214537e-001
 7.9607715645e-001	 9.5072985754e-001	-9.3826362757e-001
 7.8555011781e-001	 9.5944622121e-001	-1.0151828588e+000
 7.7493349187e-001	 9.6804135352e-001	-1.0925554125e+000
 7.6422937057e-001	 9.7651389794e-001	-1.1698337956e+000
 7.5343987263e-001	 9.8486254595e-001	-1.2464788545e+000
 7.4256714220e-001	 9.9308603765e-001	-1.3219611611e+000
 7.3161334743e-001	 1.0011831624e+000	-1.3957623741e+000
 7.2058067910e-001	 1.0091527592e+000	-1.4673765710e+000
 8.4488833928e-001	 9.4373686216e-001	-9.2687260786e-001
 8.3442196966e-001	 9.5300340716e-001	-9.9101965837e-001
 8.2385785312e-001	 9.6215055747e-001	-1.0569555069e+000
 8.1319803631e-001	 9.7117678475e-001	-1.1241639917e+000
 8.0244459730e-001	 9.8008060741e-001	-1.1921294894e+000
 7.9159964427e-001	 9.8886059143e-001	-1.2603383640e+000
 7.8066531416e-001	 9.9751535112e-001	-1.3282804180e+000
 7.6964377126e-001	 1.0060435498e+000	-1.3954503368e+000
 7.5853720581e-001	 1.0144439005e+000	-1.4613491231e+000
 7.4734783261e-001	 1.0227151665e+000	-1.5254855116e+000
 7.3607788956e-001	 1.0308561619e+000	-1.5873773606e+000
 5.8110851606e-001	 8.1382595926e-001	 2.1052901124e+000
 5.7214945494e-001	 8.2014925879e-001	 1.8385404939e+000
 5.6313036914e-001	 8.2636796230e-001	 1.5629008990e+000
 5.5405307210e-001	 8.3248125485e-001	 1.2796563484e+000
 5.4491939094e-001	 8.3848836297e-001	 9.9006177282e-001
 5.3573116523e-001	 8.4438855498e-001	 6.9534055293e-001
 5.2649024586e-001	 8.5018114112e-001	 3.9668312001e-001
 5.1719849384e-001	 8.5586547377e-001	 9.5245617717e-002
 5.0785777912e-001	 8.6144094757e-001	-2.0785137281e-001
 4.9846997940e-001	 8.6690699948e-001	-5.1152404385e-001
 4.8903697900e-001	 8.7226310887e-001	-8.1472650653e-001
 5.9660485487e-001	 8.3552814128e-001	 1.4992028073e+000
 5.8740688373e-001	 8.4202006336e-001	 1.2779887811e+000
 5.7814728723e-001	 8.4840460015e-001	 1.0494558050e+000
 5.6882792720e-001	 8.5468091501e-001	 8.1451204505e-001
 5.5945067945e-001	 8.6084821383e-001	 5.7404372049e-001
 5.5001743262e-001	 8.6690574543e-001	 3.2891417467e-001
 5.4053008696e-001	 8.7285280165e-001	 7.9962984134e-002
 5.3099055310e-001	 8.7868871760e-001	-1.7199489369e-001
 5.2140075085e-001	 8.8441287176e-001	-4.2616993365e-001
 5.1176260801e-001	 8.9002468611e-001	-6.8179881657e-001
 5.0207805912e-001	 8.9552362611e-001	-9.3814516295e-001
 6.1210139900e-001	 8.5723061087e-001	 9.3934427951e-001
 6.0266451468e-001	 8.6389115771e-001	 7.5433711646e-001
 5.9316440431e-001	 8.7044152999e-001	 5.6365697590e-001
 5.8360297806e-001	 8.7688086931e-001	 3.6791356251e-001
 5.7398216050e-001	 8.8320836097e-001	 1.6770085717e-001
 5.6430388931e-001	 8.8942323424e-001	-3.6403376188e-002
 5.5457011409e-001	 8.9552476258e-001	-2.4383806360e-001
 5.4478279510e-001	 9.0151226383e-001	-4.5405927456e-001
 5.3494390203e-001	 9.0738510034e-001	-6.6654065619e-001
 5.2505541274e-001	 9.1314267905e-001	-8.8077384843e-001
 5.1511931203e-001	 9.1878445156e-001	-1.0962688802e+000
 6.2759812135e-001	 8.7893333002e-001	 4.2958907206e-001
 6.1792232109e-001	 8.8576250357e-001	 2.7296112889e-001
 6.0818169408e-001	 8.9247871325e-001	 1.1229875994e-001
 5.9837819884e-001	 8.9908107892e-001	-5.2013692873e-002
 5.8851380866e-001	 9.0556876524e-001	-2.1960319422e-001
 5.7859051029e-001	 9.1194098199e-001	-3.9010816211e-001
 5.6861030267e-001	 9.1819698423e-001	-5.6317860916e-001
 5.5857519572e-001	 9.2433607253e-001	-7.3847627970e-001
 5.4848720896e-001	 9.3035759310e-001	-9.1567478340e-001
 5.3834837034e-001	 9.3626093785e-001	-1.0944597266e+000
 5.2816071491e-001	 9.4204554451e-001	-1.2745288414e+000
 6.4309499478e-001	 9.0063626078e-001	-2.6832228519e-002
 6.3318027626e-001	 9.0763406268e-001	-1.6154880692e-001
 6.2319913026e-001	 9.1451611137e-001	-2.9874281060e-001
 6.1315356367e-001	 9.2128150497e-001	-4.3818695937e-001
 6.0304559850e-001	 9.2792938752e-001	-5.7966256334e-001
 5.9287727056e-001	 9.3445894929e-001	-7.2295940837e-001
 5.8265062815e-001	 9.4086942694e-001	-8.6787564726e-001
 5.7236773080e-001	 9.4716010376e-001	-1.0142176985e+000
 5.6203064793e-001	 9.5333030983e-001	-1.1618001542e+000
 5.5164145755e-001	 9.5937942204e-001	-1.3104456982e+000
 5.4120224495e-001	 9.6530686424e-001	-1.4599850358e+000
 6.5859199218e-001	 9.2233936515e-001	-4.2728802237e-001
 6.4843835349e-001	 9.2950579675e-001	-5.4532553941e-001
 6.3821668658e-001	 9.3655368578e-001	-6.6443190113e-001
 6.2792904671e-001	 9.4348210862e-001	-7.8447294835e-001
 6.1757750460e-001	 9.5029018868e-001	-9.0532200066e-001
 6.0716414512e-001	 9.5697709672e-001	-1.0268595612e+000
 5.9669106594e-001	 9.6354205101e-001	-1.1489730354e+000
 5.8616037623e-001	 9.6998431758e-001	-1.2715564657e+000
 5.7557419525e-001	 9.7630321034e-001	-1.3945102845e+000
 5.6493465109e-001	 9.8249809118e-001	-1.5177410871e+000
 5.5424387931e-001	 9.8856837007e-001	-1.6411614253e+000
 6.7408908643e-001	 9.4404260515e-001	-7.7030168426e-001
 6.6369652607e-001	 9.5137766752e-001	-8.7517123800e-001
 6.5323433675e-001	 9.5859139792e-001	-9.8050507478e-001
 6.4270462208e-001	 9.6568285101e-001	-1.0856070398e+000
 6.3210950151e-001	 9.7265112959e-001	-1.1903840123e+000
 6.2145110897e-001	 9.7949538489e-001	-1.2947503553e+000
 6.1073159149e-001	 9.8621481679e-001	-1.3986275358e+000
 5.9995310785e-001	 9.9280867404e-001	-1.5019437661e+000
 5.8911782720e-001	 9.9927625442e-001	-1.6046336695e+000
 5.7822792772e-001	 1.0056169048e+000	-1.7066379722e+000
 5.6728559518e-001	 1.0118300213e+000	-1.8079032225e+000
 6.8958625042e-001	 9.6574594281e-001	-1.0582744350e+000
 6.7895476732e-001	 9.7324963670e-001	-1.1501556712e+000
 6.6825205450e-001	 9.8062920921e-001	-1.2434386851e+000
 6.5748026394e-001	 9.8788369330e-001	-1.3371228993e+000
 6.4664156381e-001	 9.9501217112e-001	-1.4295280170e+000
 6.3573813710e-001	 1.0020137744e+000	-1.5205223723e+000
 6.2477218021e-001	 1.0088876846e+000	-1.6100096785e+000
 6.1374590153e-001	 1.0156331332e+000	-1.6979021465e+000
 6.0266152010e-001	 1.0222494019e+000	-1.7841201277e+000
 5.9152126415e-001	 1.0287358225e+000	-1.8685917857e+000
 5.8032736974e-001	 1.0350917771e+000	-1.9512528004e+000
 7.0508345701e-001	 9.8744934015e-001	-1.2908709470e+000
 6.9421305052e-001	 9.9512166602e-001	-1.3716378103e+000
 6.8326981354e-001	 1.0026670811e+000	-1.4532732288e+000
 6.7225594642e-001	 1.0100845966e+000	-1.5356296536e+000
 6.6117366607e-001	 1.0173732741e+000	-1.6182396763e+000
 6.5002520452e-001	 1.0245322258e+000	-1.6989360154e+000
 6.3881280753e-001	 1.0315606147e+000	-1.7772171663e+000
 6.2753873314e-001	 1.0384576551e+000	-1.8529321720e+000
 6.1620525025e-001	 1.0452226125e+000	-1.9259415638e+000
 6.0481463715e-001	 1.0518548037e+000	-1.9961170722e+000
 5.9336918015e-001	 1.0583535970e+000	-2.0633413707e+000
 7.2058067910e-001	 1.0091527592e+000	-1.4673765710e+000
 7.0947134897e-001	 1.0169937172e+000	-1.5381760019e+000
 6.9828758759e-001	 1.0247049750e+000	-1.6096678663e+000
 6.8703164368e-001	 1.0322855222e+000	-1.6815735215e+000
 6.7570578286e-001	 1.0397343995e+000	-1.7536347039e+000
 6.6431228622e-001	 1.0470506997e+000	-1.8255521800e+000
 6.5285344890e-001	 1.0542335675e+000	-1.8951989319e+000
 6.4133157855e-001	 1.0612821999e+000	-1.9614305871e+000
 6.2974899393e-001	 1.0681958461e+000	-2.0240049817e+000
 6.1810802343e-001	 1.0749738080e+000	-2.0826961287e+000
 6.0641100360e-001	 1.0816154401e+000	-2.1372940549e+000
 7.3607788956e-001	 1.0308561619e+000	-1.5873773606e+000
 7.2472963597e-001	 1.0388657520e+000	-1.6486054647e+000
 7.1330535038e-001	 1.0467428524e+000	-1.7107477199e+000
 7.0180732985e-001	 1.0544864310e+000	-1.7733449307e+000
 6.9023788874e-001	 1.0620955081e+000	-1.8359650640e+000
 6.7859935721e-001	 1.0695691567e+000	-1.8982044167e+000
 6.6689407973e-001	 1.0769065033e+000	-1.9596886997e+000
 6.5512441360e-001	 1.0841067275e+000	-2.0186182873e+000
 6.4329272745e-001	 1.0911690624e+000	-2.0730759405e+000
 6.3140139974e-001	 1.0980927950e+000	-2.1226986262e+000
 6.1945281727e-001	 1.1048772657e+000	-2.1671463755e+000
 4.8903697900e-001	 8.7226310887e-001	-8.1472650653e-001
 4.7956209226e-001	 8.7750801914e-001	-1.1180343574e+000
 4.7004580118e-001	 8.8264210687e-001	-1.4225989940e+000
 4.6049000248e-001	 8.8766497944e-001	-1.7281343553e+000
 4.5089659477e-001	 8.9257628643e-001	-2.0343587910e+000
 4.4126747746e-001	 8.9737571948e-001	-2.3409952301e+000
 4.3160454958e-001	 9.0206301214e-001	-2.6477713521e+000
 4.2190970867e-001	 9.0663793965e-001	-2.9544197626e+000
 4.1218484971e-001	 9.1110031866e-001	-3.2606781699e+000
 4.0243186398e-001	 9.1545000704e-001	-3.5662895645e+000
 3.9265263800e-001	 9.1968690347e-001	-3.8710023985e+000
 5.0207805912e-001	 8.9552362611e-001	-9.3814516295e-001
 4.9235050691e-001	 9.0090840166e-001	-1.1953588680e+000
 4.8258044624e-001	 9.0617939939e-001	-1.4539088198e+000
 4.7276982440e-001	 9.1133621619e-001	-1.7134483077e+000
 4.6292059064e-001	 9.1637849231e-001	-1.9736387719e+000
 4.5303469502e-001	 9.2130591116e-001	-2.2341500586e+000
 4.4311408720e-001	 9.2611819920e-001	-2.4946606734e+000
 4.3316071535e-001	 9.3081512565e-001	-2.7548580323e+000
 4.2317652494e-001	 9.3539650230e-001	-3.0144387083e+000
 4.1316345771e-001	 9.3986218320e-001	-3.2731086748e+000
 4.0312345050e-001	 9.4421206435e-001	-3.5305835437e+000
 5.1511931203e-001	 9.1878445156e-001	-1.0962688802e+000
 5.0513909100e-001	 9.2430909425e-001	-1.3130342679e+000
 4.9511525738e-001	 9.2971700378e-001	-1.5311912150e+000
 4.8504980903e-001	 9.3500776659e-001	-1.7503443096e+000
 4.7494474584e-001	 9.4018101357e-001	-1.9701099892e+000
 4.6480206850e-001	 9.4523641993e-001	-2.1901168654e+000
 4.5462377733e-001	 9.5017370499e-001	-2.4100060424e+000
 4.4441187110e-001	 9.5499263200e-001	-2.6294314275e+000
 4.3416834581e-001	 9.5969300786e-001	-2.8480600335e+000
 4.2389519365e-001	 9.6427468282e-001	-3.0655722712e+000
 4.1359440173e-001	 9.6873755019e-001	-3.2816622318e+000
 5.2816071491e-001	 9.4204554451e-001	-1.2745288414e+000
 5.1792782216e-001	 9.4771005594e-001	-1.4559719826e+000
 5.0765021267e-001	 9.5325487885e-001	-1.6388322182e+000
 4.9732993488e-001	 9.5867958921e-001	-1.8226764001e+000
 4.8696903931e-001	 9.6398380856e-001	-2.0070868890e+000
 4.7656957730e-001	 9.6916720389e-001	-2.1916619330e+000
 4.6613359982e-001	 9.7422948742e-001	-2.3760160349e+000
 4.5566315623e-001	 9.7917041640e-001	-2.5597803086e+000
 4.4516029309e-001	 9.8398979283e-001	-2.7426028215e+000
 4.3462705299e-001	 9.8868746319e-001	-2.9241489242e+000
 4.2406547339e-001	 9.9326331808e-001	-3.1041015647e+000
 5.4120224495e-001	 9.6530686424e-001	-1.4599850358e+000
 5.3071667801e-001	 9.7111124578e-001	-1.6107564111e+000
 5.2018529017e-001	 9.7679298341e-001	-1.7629353207e+000
 5.0961018045e-001	 9.8235164262e-001	-1.9160609540e+000
 4.9899345001e-001	 9.8778683563e-001	-2.0696916312e+000
 4.8833720083e-001	 9.9309822118e-001	-2.2234052193e+000
 4.7764353453e-001	 9.9828550439e-001	-2.3767995349e+000
 4.6691455107e-001	 1.0033484365e+000	-2.5294927306e+000
 4.5615234754e-001	 1.0082868147e+000	-2.6811236664e+000
 4.4535901697e-001	 1.0131004816e+000	-2.8313522636e+000
 4.3453664713e-001	 1.0177893251e+000	-2.9798598393e+000
 5.5424387931e-001	 9.8856837007e-001	-1.6411614253e+000
 5.4350563617e-001	 9.9451262283e-001	-1.7654745603e+000
 5.3272046795e-001	 1.0003312763e+000	-1.8911455447e+000
 5.2189052427e-001	 1.0060238854e+000	-2.0176951707e+000
 5.1101795690e-001	 1.0115900531e+000	-2.1446669439e+000
 5.0010491850e-001	 1.0170294299e+000	-2.2716275230e+000
 4.8915356131e-001	 1.0223417138e+000	-2.3981671424e+000
 4.7816603591e-001	 1.0275266501e+000	-2.5239000185e+000
 4.6714448992e-001	 1.0325840309e+000	-2.6484647361e+000
 4.5609106680e-001	 1.0375136953e+000	-2.7715246154e+000
 4.4500790464e-001	 1.0423155283e+000	-2.8927680578e+000
 5.6728559518e-001	 1.0118300213e+000	-1.8079032225e+000
 5.5629467426e-001	 1.0179141461e+000	-1.9095685401e+000
 5.4525572408e-001	 1.0238697162e+000	-2.0124971396e+000
 5.3417094483e-001	 1.0296962761e+000	-2.1161999439e+000
 5.2304253894e-001	 1.0353934194e+000	-2.2202141306e+000
 5.1187270971e-001	 1.0409607882e+000	-2.3241035802e+000
 5.0066366003e-001	 1.0463980736e+000	-2.4274593072e+000
 4.8941759107e-001	 1.0517050147e+000	-2.5298998723e+000
 4.7813670099e-001	 1.0568813990e+000	-2.6310717740e+000
 4.6682318370e-001	 1.0619270615e+000	-2.7306498189e+000
 4.5547922759e-001	 1.0668418848e+000	-2.8283374685e+000
 5.8032736974e-001	 1.0350917771e+000	-1.9512528004e+000
 5.6908376989e-001	 1.0413157747e+000	-2.0337073260e+000
 5.5779103660e-001	 1.0474082621e+000	-2.1172811821e+000
 5.4645142066e-001	 1.0533687734e+000	-2.2014832781e+000
 5.3506717509e-001	 1.0591968927e+000	-2.2858522726e+000
 5.2364055388e-001	 1.0648922542e+000	-2.3699570170e+000
 5.1217381054e-001	 1.0704545416e+000	-2.4533969832e+000
 5.0066919685e-001	 1.0758834882e+000	-2.5358026700e+000
 4.8912896153e-001	 1.0811788764e+000	-2.6168359905e+000
 4.7755534890e-001	 1.0863405376e+000	-2.6961906359e+000
 4.6595059765e-001	 1.0913683516e+000	-2.7735924153e+000
 5.9336918015e-001	 1.0583535970e+000	-2.0633413707e+000
 5.8187290068e-001	 1.0647174677e+000	-2.1296748236e+000
 5.7032638360e-001	 1.0709468727e+000	-2.1969300182e+000
 5.5873193024e-001	 1.0770413357e+000	-2.2646210911e+000
 5.4709184431e-001	 1.0830004315e+000	-2.3322953685e+000
 5.3540843040e-001	 1.0888237859e+000	-2.3995337944e+000
 5.2368399270e-001	 1.0945110757e+000	-2.4659513415e+000
 5.1192083358e-001	 1.1000620281e+000	-2.5311974040e+000
 5.0012125229e-001	 1.1054764206e+000	-2.5949561692e+000
 4.8828754360e-001	 1.1107540809e+000	-2.6569469683e+000
 4.7642199651e-001	 1.1158948859e+000	-2.7169246019e+000
 6.0641100360e-001	 1.0816154401e+000	-2.1372940549e+000
 5.9466204427e-001	 1.0881191840e+000	-2.1902717820e+000
 5.8286174312e-001	 1.0944855069e+000	-2.2439160128e+000
 5.7101245211e-001	 1.1007139217e+000	-2.2977527863e+000
 5.5911652554e-001	 1.1068039941e+000	-2.3513447105e+000
 5.4717631868e-001	 1.1127553416e+000	-2.4042913623e+000
 5.3519418636e-001	 1.1185676339e+000	-2.4562296723e+000
 5.2317248155e-001	 1.1242405922e+000	-2.5068342922e+000
 5.1111355404e-001	 1.1297739892e+000	-2.5558179453e+000
 4.9901974903e-001	 1.1351676485e+000	-2.6029317547e+000
 4.8689340584e-001	 1.1404214447e+000	-2.6479655497e+000
 6.1945281727e-001	 1.1048772657e+000	-2.1671463755e+000
 6.0745117825e-001	 1.1115208828e+000	-2.2092295162e+000
 5.9539709325e-001	 1.1180241233e+000	-2.2516624976e+000
 5.8329296476e-001	 1.1243864900e+000	-2.2939894177e+000
 5.7114119775e-001	 1.1306075389e+000	-2.3357942513e+000
 5.5894419814e-001	 1.1366868794e+000	-2.3767012099e+000
 5.4670437139e-001	 1.1426241741e+000	-2.4163750905e+000
 5.3442412108e-001	 1.1484191381e+000	-2.4545216104e+000
 5.2210584754e-001	 1.1540715394e+000	-2.4908877268e+000
 5.0975194641e-001	 1.1595811979e+000	-2.5252619387e+000
 4.9736480731e-001	 1.1649479851e+000	-2.5574745674e+000
 3.9265263800e-001	 9.1968690347e-001	-3.8710023985e+000
 3.8284758015e-001	 9.2381155749e-001	-4.1735546263e+000
 3.7302003062e-001	 9.2782330500e-001	-4.4724521162e+000
 3.6317185667e-001	 9.3172216582e-001	-4.7672633270e+000
 3.5330491665e-001	 9.3550819912e-001	-5.0575927979e+000
 3.4342105900e-001	 9.3918150291e-001	-5.3430811458e+000
 3.3352212132e-001	 9.4274221361e-001	-5.6234050104e+000
 3.2360992937e-001	 9.4619050544e-001	-5.8982769465e+000
 3.1368629624e-001	 9.4952658997e-001	-6.1674452648e+000
 3.0375302140e-001	 9.5275071551e-001	-6.4306938209e+000
 2.9381188981e-001	 9.5586316651e-001	-6.6878417536e+000
 4.0312345050e-001	 9.4421206435e-001	-3.5305835437e+000
 3.9305692255e-001	 9.4844670994e-001	-3.7862568494e+000
 3.8296730315e-001	 9.5256543815e-001	-4.0393747885e+000
 3.7285650933e-001	 9.5656826934e-001	-4.2895782053e+000
 3.6272644901e-001	 9.6045526426e-001	-4.5365390665e+000
 3.5257901993e-001	 9.6422652353e-001	-4.7799604844e+000
 3.4241610866e-001	 9.6788218719e-001	-5.0195766951e+000
 3.3223958969e-001	 9.7142243413e-001	-5.2551529946e+000
 3.2205132444e-001	 9.7484748157e-001	-5.4864856288e+000
 3.1185316035e-001	 9.7815758441e-001	-5.7134016415e+000
 3.0164693001e-001	 9.8135303469e-001	-5.9357586769e+000
 4.1359440173e-001	 9.6873755019e-001	-3.2816622318e+000
 4.0326640023e-001	 9.7308218881e-001	-3.4961674502e+000
 3.9291470747e-001	 9.7730789914e-001	-3.7088498703e+000
 3.8254129032e-001	 9.8141470208e-001	-3.9194180817e+000
 3.7214810621e-001	 9.8540265995e-001	-4.1276081613e+000
 3.6173710219e-001	 9.8927187599e-001	-4.3331837107e+000
 3.5131021386e-001	 9.9302249388e-001	-4.5359358556e+000
 3.4086936436e-001	 9.9665469716e-001	-4.7356832090e+000
 3.3041646348e-001	 1.0001687087e+000	-4.9322717961e+000
 3.1995340664e-001	 1.0035647899e+000	-5.1255749417e+000
 3.0948207403e-001	 1.0068432406e+000	-5.3154931188e+000
 4.2406547339e-001	 9.9326331808e-001	-3.1041015647e+000
 4.1347599532e-001	 9.9771795098e-001	-3.2825723441e+000
 4.0286222620e-001	 1.0020506447e+000	-3.4596569745e+000
 3.9222618267e-001	 1.0062614206e+000	-3.6351273202e+000
 3.8156987176e-001	 1.0103503425e+000	-3.8087803484e+000
 3.7089528978e-001	 1.0143175165e+000	-3.9804381703e+000
 3.6020442133e-001	 1.0181630897e+000	-4.1499480504e+000
 3.4949923827e-001	 1.0218872503e+000	-4.3171823839e+000
 3.3878169871e-001	 1.0254902270e+000	-4.4820386413e+000
 3.2805374608e-001	 1.0289722877e+000	-4.6444392792e+000
 3.1731730815e-001	 1.0323337397e+000	-4.8043316171e+000
 4.3453664713e-001	 1.0177893251e+000	-2.9798598393e+000
 4.2368568994e-001	 1.0223539533e+000	-3.1268997421e+000
 4.1280984191e-001	 1.0267936314e+000	-3.2727579561e+000
 4.0191116946e-001	 1.0311083813e+000	-3.4172652854e+000
 3.9099172917e-001	 1.0352982684e+000	-3.5602764374e+000
 3.8005356666e-001	 1.0393634012e+000	-3.7016700587e+000
 3.6909871553e-001	 1.0433039306e+000	-3.8413487433e+000
 3.5812919632e-001	 1.0471200496e+000	-3.9792390133e+000
 3.4714701551e-001	 1.0508119921e+000	-4.1152912691e+000
 3.3615416449e-001	 1.0543800331e+000	-4.2494797101e+000
 3.2515261867e-001	 1.0578244873e+000	-4.3818022234e+000
 4.4500790464e-001	 1.0423155283e+000	-2.8927680578e+000
 4.3389546624e-001	 1.0469901528e+000	-3.0124919000e+000
 4.2275753719e-001	 1.0515368161e+000	-3.1310637459e+000
 4.1159623372e-001	 1.0559555408e+000	-3.2483691108e+000
 4.0041366195e-001	 1.0602463938e+000	-3.3643173367e+000
 3.8921191680e-001	 1.0644094862e+000	-3.4788416156e+000
 3.7799308087e-001	 1.0684449726e+000	-3.5918989883e+000
 3.6675922341e-001	 1.0723530506e+000	-3.7034703171e+000
 3.5551239922e-001	 1.0761339599e+000	-3.8135602315e+000
 3.4425464771e-001	 1.0797879818e+000	-3.9221970447e+000
 3.3298799187e-001	 1.0833154388e+000	-4.0294326401e+000
 4.5547922759e-001	 1.0668418848e+000	-2.8283374685e+000
 4.4410530635e-001	 1.0716265062e+000	-2.9244076980e+000
 4.3270529465e-001	 1.0762801555e+000	-3.0192327030e+000
 4.2128135850e-001	 1.0808028555e+000	-3.1127485578e+000
 4.0983565361e-001	 1.0851946751e+000	-3.2049161537e+000
 3.9837032417e-001	 1.0894557277e+000	-3.2957212030e+000
 3.8688750181e-001	 1.0935861718e+000	-3.3851742207e+000
 3.7538930443e-001	 1.0975862094e+000	-3.4733104816e+000
 3.6387783522e-001	 1.1014560858e+000	-3.5601899503e+000
 3.5235518156e-001	 1.1051960893e+000	-3.6458971828e+000
 3.4082341404e-001	 1.1088065496e+000	-3.7305411982e+000
 4.6595059765e-001	 1.0913683516e+000	-2.7735924153e+000
 4.5431519240e-001	 1.0962629705e+000	-2.8492512055e+000
 4.4265309687e-001	 1.1010236061e+000	-2.9234955292e+000
 4.3096652687e-001	 1.1056502821e+000	-2.9963079177e+000
 4.1925768767e-001	 1.1101430686e+000	-3.0676977222e+000
 4.0752877276e-001	 1.1145020820e+000	-3.1377010954e+000
 3.9578196276e-001	 1.1187274841e+000	-3.2063809496e+000
 3.8401942429e-001	 1.1228194817e+000	-3.2738268902e+000
 3.7224330886e-001	 1.1267783258e+000	-3.3401551222e+000
 3.6045575185e-001	 1.1306043111e+000	-3.4055083273e+000
 3.4865887146e-001	 1.1342977751e+000	-3.4700555102e+000
 4.7642199651e-001	 1.1158948859e+000	-2.7169246019e+000
 4.6452510652e-001	 1.1208995025e+000	-2.7750222322e+000
 4.5260092644e-001	 1.1257671249e+000	-2.8315026610e+000
 4.4065172187e-001	 1.1304977770e+000	-2.8863907972e+000
 4.2867974763e-001	 1.1350915308e+000	-2.9397413378e+000
 4.1668724653e-001	 1.1395485051e+000	-2.9916387214e+000
 4.0467644817e-001	 1.1438688655e+000	-3.0421970594e+000
 3.9264956787e-001	 1.1480528233e+000	-3.0915600397e+000
 3.8060880550e-001	 1.1521006353e+000	-3.1399008033e+000
 3.6855634442e-001	 1.1560126028e+000	-3.1874217885e+000
 3.5649435043e-001	 1.1597890707e+000	-3.2343545429e+000
 4.8689340584e-001	 1.1404214447e+000	-2.6479655497e+000
 4.7473503085e-001	 1.1455360592e+000	-2.6909855588e+000
 4.6254876595e-001	 1.1505106683e+000	-2.7321907553e+000
 4.5033692655e-001	 1.1553452968e+000	-2.7716443461e+000
 4.3810181702e-001	 1.1600400179e+000	-2.8094432108e+000
 4.2584572945e-001	 1.1645949533e+000	-2.8457178268e+000
 4.1357094248e-001	 1.1690102721e+000	-2.8806321686e+000
 4.0127972008e-001	 1.1732861903e+000	-2.9143835794e+000
 3.8897431050e-001	 1.1774229702e+000	-2.9472026107e+000
 3.7665694509e-001	 1.1814209198e+000	-2.9793528291e+000
 3.6432983724e-001	 1.1852803918e+000	-3.0111305852e+000
 4.9736480731e-001	 1.1649479851e+000	-2.5574745674e+000
 4.8494494752e-001	 1.1701725973e+000	-2.5875560933e+000
 4.7249659800e-001	 1.1752541932e+000	-2.6156654573e+000
 4.6002212396e-001	 1.1801927979e+000	-2.6419000592e+000
 4.4752387933e-001	 1.1849884863e+000	-2.6663957293e+000
 4.3500420550e-001	 1.1896413827e+000	-2.6893266236e+000
 4.2246543011e-001	 1.1941516598e+000	-2.7109050902e+000
 4.0990986582e-001	 1.1985195382e+000	-2.7313815057e+000
 3.9733980923e-001	 1.2027452861e+000	-2.7510440754e+000
 3.8475753968e-001	 1.2068292178e+000	-2.7702185965e+000
 3.7216531816e-001	 1.2107716938e+000	-2.7892681798e+000
 2.9381188981e-001	 9.5586316651e-001	-6.6878417536e+000
 2.8386467101e-001	 9.5886426270e-001	-6.9384334813e+000
 2.7391311782e-001	 9.6175435779e-001	-7.1820692729e+000
 2.6395896607e-001	 9.6453383948e-001	-7.4186918477e+000
 2.5400393389e-001	 9.6720312906e-001	-7.6482618048e+000
 2.4404972108e-001	 9.6976268070e-001	-7.8707574124e+000
 2.3409800832e-001	 9.7221298076e-001	-8.0861743720e+000
 2.2415045650e-001	 9.7455454705e-001	-8.2945255583e+000
 2.1420870614e-001	 9.7678792810e-001	-8.4958407336e+000
 2.0427437664e-001	 9.7891370242e-001	-8.6901662399e+000
 1.9434906582e-001	 9.8093247774e-001	-8.8775646657e+000
 3.0164693001e-001	 9.8135303469e-001	-5.9357586769e+000
 2.9143445013e-001	 9.8443416069e-001	-6.1527181328e+000
 2.8121752028e-001	 9.8740132554e-001	-6.3634907177e+000
 2.7099792256e-001	 9.9025492727e-001	-6.5680449360e+000
 2.6077742095e-001	 9.9299539842e-001	-6.7663679088e+000
 2.5055776055e-001	 9.9562320526e-001	-6.9584651518e+000
 2.4034066687e-001	 9.9813884713e-001	-7.1443603252e+000
 2.3012784510e-001	 1.0005428556e+000	-7.3240949586e+000
 2.1992097947e-001	 1.0028357939e+000	-7.4977281489e+000
 2.0972173262e-001	 1.0050182560e+000	-7.6653362320e+000
 1.9953174493e-001	 1.0070908657e+000	-7.8270124295e+000
 3.0948207403e-001	 1.0068432406e+000	-5.3154931188e+000
 2.9900432955e-001	 1.0100043975e+000	-5.5009497912e+000
 2.8852201952e-001	 1.0130486331e+000	-5.6809162987e+000
 2.7803697233e-001	 1.0159763559e+000	-5.8553997524e+000
 2.6755099776e-001	 1.0187880095e+000	-6.0244265165e+000
 2.5706588626e-001	 1.0214840725e+000	-6.1880419631e+000
 2.4658340814e-001	 1.0240650570e+000	-6.3463101995e+000
 2.3610531289e-001	 1.0265315086e+000	-6.4993137672e+000
 2.2563332850e-001	 1.0288840049e+000	-6.6471533132e+000
 2.1516916078e-001	 1.0311231554e+000	-6.7899472337e+000
 2.0471449272e-001	 1.0332496003e+000	-6.9278312906e+000
 3.1731730815e-001	 1.0323337397e+000	-4.8043316171e+000
 3.0657429603e-001	 1.0355749283e+000	-4.9605084476e+000
 2.9582660277e-001	 1.0386962356e+000	-5.1118138402e+000
 2.8507610305e-001	 1.0416980803e+000	-5.2583055884e+000
 2.7432465247e-001	 1.0445809173e+000	-5.4000612859e+000
 2.6357408681e-001	 1.0473452371e+000	-5.5371780502e+000
 2.5282622120e-001	 1.0499915651e+000	-5.6697722163e+000
 2.4208284943e-001	 1.0525204604e+000	-5.7979790031e+000
 2.3134574322e-001	 1.0549325155e+000	-5.9219521484e+000
 2.2061665158e-001	 1.0572283551e+000	-6.0418635170e+000
 2.0989730011e-001	 1.0594086357e+000	-6.1579026790e+000
 3.2515261867e-001	 1.0578244873e+000	-4.3818022234e+000
 3.1414433632e-001	 1.0611457085e+000	-4.5109939925e+000
 3.0313125724e-001	 1.0643440882e+000	-4.6358494730e+000
 2.9211530239e-001	 1.0674200555e+000	-4.7564885210e+000
 2.8109837322e-001	 1.0703740765e+000	-4.8730512623e+000
 2.7008235081e-001	 1.0732066539e+000	-4.9856977761e+000
 2.5906909513e-001	 1.0759183259e+000	-5.0946077484e+000
 2.4806044425e-001	 1.0785096656e+000	-5.1999800961e+000
 2.3705821364e-001	 1.0809812800e+000	-5.3020325608e+000
 2.2606419549e-001	 1.0833338093e+000	-5.4010012722e+000
 2.1508015803e-001	 1.0855679261e+000	-5.4971402823e+000
 3.3298799187e-001	 1.0833154388e+000	-4.0294326401e+000
 3.2171443716e-001	 1.0867166932e+000	-4.1339866507e+000
 3.1043597014e-001	 1.0899921460e+000	-4.2346503502e+000
 2.9915455805e-001	 1.0931422364e+000	-4.3316163851e+000
 2.8787214816e-001	 1.0961674420e+000	-4.4250980737e+000
 2.7659066688e-001	 1.0990682775e+000	-4.5153290428e+000
 2.6531201900e-001	 1.1018452941e+000	-4.6025628338e+000
 2.5403808688e-001	 1.1044990787e+000	-4.6870724789e+000
 2.4277072976e-001	 1.1070302529e+000	-4.7691500462e+000
 2.3151178299e-001	 1.1094394723e+000	-4.8491061540e+000
 2.2026305741e-001	 1.1117274258e+000	-4.9272694538e+000
 3.4082341404e-001	 1.1088065496e+000	-3.7305411982e+000
 3.2928458532e-001	 1.1122878377e+000	-3.8128399594e+000
 3.1774072869e-001	 1.1156403640e+000	-3.8915996132e+000
 3.0619385771e-001	 1.1188645781e+000	-3.9670957070e+000
 2.9464596544e-001	 1.1219609688e+000	-4.0396248042e+000
 2.8309902363e-001	 1.1249300628e+000	-4.1095040684e+000
 2.7155498189e-001	 1.1277724244e+000	-4.1770708164e+000
 2.6001576688e-001	 1.1304886542e+000	-4.2426820414e+000
 2.4848328157e-001	 1.1330793886e+000	-4.3067139042e+000
 2.3695940452e-001	 1.1355452985e+000	-4.3695611933e+000
 2.2544598918e-001	 1.1378870890e+000	-4.4316367524e+000
 3.4865887146e-001	 1.1342977751e+000	-3.4700555102e+000
 3.3685476754e-001	 1.1378590973e+000	-3.5325011727e+000
 3.2504552012e-001	 1.1412886975e+000	-3.5916585362e+000
 3.1323318903e-001	 1.1445870356e+000	-3.6478955716e+000
 3.0141981319e-001	 1.1477546116e+000	-3.7016015612e+000
 2.8960740966e-001	 1.1507919644e+000	-3.7531866253e+000
 2.7779797287e-001	 1.1536996713e+000	-3.8030812189e+000
 2.6599347377e-001	 1.1564783467e+000	-3.8517355970e+000
 2.5419585909e-001	 1.1591286415e+000	-3.8996192487e+000
 2.4240705058e-001	 1.1616512422e+000	-3.9472202988e+000
 2.3062894428e-001	 1.1640468699e+000	-3.9950448763e+000
 3.5649435043e-001	 1.1597890707e+000	-3.2343545429e+000
 3.4442497057e-001	 1.1634304272e+000	-3.2793548735e+000
 3.3235033162e-001	 1.1669371014e+000	-3.3212116697e+000
 3.2027253972e-001	 1.1703095637e+000	-3.3603942834e+000
 3.0819367957e-001	 1.1735483253e+000	-3.3973936331e+000
 2.9611581358e-001	 1.1766539372e+000	-3.4327216697e+000
 2.8404098101e-001	 1.1796269895e+000	-3.4669108131e+000
 2.7197119710e-001	 1.1824681106e+000	-3.5005133579e+000
 2.5990845232e-001	 1.1851779660e+000	-3.5341008473e+000
 2.4785471161e-001	 1.1877572576e+000	-3.5682634135e+000
 2.3581191362e-001	 1.1902067228e+000	-3.6036090848e+000
 3.6432983724e-001	 1.1852803918e+000	-3.0111305852e+000
 3.5199518117e-001	 1.1890017827e+000	-3.0410863018e+000
 3.3965515044e-001	 1.1925855311e+000	-3.0679315214e+000
 3.2731189744e-001	 1.1960321176e+000	-3.0922453887e+000
 3.1496755272e-001	 1.1993420648e+000	-3.1146288372e+000
 3.0262422402e-001	 1.2025159358e+000	-3.1357039924e+000
 2.9028399540e-001	 1.2055543337e+000	-3.1561135479e+000
 2.7794892640e-001	 1.2084579005e+000	-3.1765201088e+000
 2.6562105126e-001	 1.2112273166e+000	-3.1976055047e+000
 2.5330237808e-001	 1.2138632991e+000	-3.2200700674e+000
 2.4099488815e-001	 1.2163666018e+000	-3.2446318750e+000
 3.7216531816e-001	 1.2107716938e+000	-2.7892681798e+000
 3.5956538610e-001	 1.2145731190e+000	-2.8065614929e+000
 3.4695996377e-001	 1.2182339414e+000	-2.8206598968e+000
 3.3435124988e-001	 1.2217546522e+000	-2.8322602084e+000
 3.2174142079e-001	 1.2251357850e+000	-2.8420812296e+000
 3.0913262957e-001	 1.2283779150e+000	-2.8508630892e+000
 2.9652700510e-001	 1.2314816584e+000	-2.8593665563e+000
 2.8392665122e-001	 1.2344476710e+000	-2.8683723238e+000
 2.7133364591e-001	 1.2372766476e+000	-2.8786802579e+000
 2.5875004047e-001	 1.2399693210e+000	-2.8911086153e+000
 2.4617785878e-001	 1.2425264611e+000	-2.9064932231e+000
 1.9434906582e-001	 9.8093247774e-001	-8.8775646657e+000
 1.8443583512e-001	 9.8284461142e-001	-9.0567081712e+000
 1.7453474535e-001	 9.8465107850e-001	-9.2263215995e+000
 1.6464732318e-001	 9.8635257014e-001	-9.3864883101e+000
 1.5477507159e-001	 9.8794980354e-001	-9.5373080697e+000
 1.4491946945e-001	 9.8944352116e-001	-9.6788966237e+000
 1.3508197105e-001	 9.9083448984e-001	-9.8113852473e+000
 1.2526400575e-001	 9.9212350004e-001	-9.9349202748e+000
 1.1546697758e-001	 9.9331136502e-001	-1.0049662611e+001
 1.0569226494e-001	 9.9439891999e-001	-1.0155787222e+001
 9.5941220239e-002	 9.9538702132e-001	-1.0253482613e+001
 1.9953174493e-001	 1.0070908657e+000	-7.8270124295e+000
 1.8935415951e-001	 1.0090539900e+000	-7.9814335618e+000
 1.7918903878e-001	 1.0109086299e+000	-8.1273345159e+000
 1.6903795012e-001	 1.0126554949e+000	-8.2648476282e+000
 1.5890243659e-001	 1.0142953215e+000	-8.3941195880e+000
 1.4878401649e-001	 1.0158288719e+000	-8.5153110142e+000
 1.3868418291e-001	 1.0172569334e+000	-8.6285960124e+000
 1.2860440331e-001	 1.0185803174e+000	-8.7341617118e+000
 1.1854611918e-001	 1.0197998590e+000	-8.8322077840e+000
 1.0851074566e-001	 1.0209164157e+000	-8.9229459440e+000
 9.8499671221e-002	 1.0219308666e+000	-9.0065994349e+000
 2.0471449272e-001	 1.0332496003e+000	-6.9278312906e+000
 1.9427254907e-001	 1.0352637158e+000	-7.0594241200e+000
 1.8384339388e-001	 1.0371665291e+000	-7.1834076261e+000
 1.7342863523e-001	 1.0389587683e+000	-7.2999737222e+000
 1.6302985627e-001	 1.0406411886e+000	-7.4093265671e+000
 1.5264861474e-001	 1.0422145723e+000	-7.5116821390e+000
 1.4228644250e-001	 1.0436797270e+000	-7.6072677882e+000
 1.3194484514e-001	 1.0450374853e+000	-7.6963217726e+000
 1.2162530158e-001	 1.0462887040e+000	-7.7790927755e+000
 1.1132926372e-001	 1.0474342627e+000	-7.8558394066e+000
 1.0105815610e-001	 1.0484750635e+000	-7.9268296877e+000
 2.0989730011e-001	 1.0594086357e+000	-6.1579026790e+000
 1.9919099519e-001	 1.0614737431e+000	-6.2685723867e+000
 1.8849780250e-001	 1.0634247304e+000	-6.3724437459e+000
 1.7781937083e-001	 1.0652623441e+000	-6.4697783228e+000
 1.6715732342e-001	 1.0669873587e+000	-6.5608477822e+000
 1.5651325743e-001	 1.0686005761e+000	-6.6459334471e+000
 1.4588874352e-001	 1.0701028245e+000	-6.7253258407e+000
 1.3528532538e-001	 1.0714949575e+000	-6.7993242109e+000
 1.2470451939e-001	 1.0727778536e+000	-6.8682360395e+000
 1.1414781419e-001	 1.0739524147e+000	-6.9323765338e+000
 1.0361667041e-001	 1.0750195657e+000	-6.9920681063e+000
 2.1508015803e-001	 1.0855679261e+000	-5.4971402823e+000
 2.0410948927e-001	 1.0876840259e+000	-5.5887833972e+000
 1.9315225650e-001	 1.0896831877e+000	-5.6743378004e+000
 1.8221014925e-001	 1.0915661763e+000	-5.7541443028e+000
 1.7128483081e-001	 1.0933337856e+000	-5.8285516370e+000
 1.6037793781e-001	 1.0949868371e+000	-5.8979159965e+000
 1.4949107966e-001	 1.0965261796e+000	-5.9626005579e+000
 1.3862583819e-001	 1.0979526877e+000	-6.0229749875e+000
 1.2778376722e-001	 1.0992672615e+000	-6.0794149331e+000
 1.1696639215e-001	 1.1004708253e+000	-6.1323015001e+000
 1.0617520966e-001	 1.1015643267e+000	-6.1820207154e+000
 2.2026305741e-001	 1.1117274258e+000	-4.9272694538e+000
 2.0902802269e-001	 1.1138945184e+000	-5.0017559290e+000
 1.9780674774e-001	 1.1159418550e+000	-5.0707599500e+000
 1.8660096279e-001	 1.1178702190e+000	-5.1347107098e+000
 1.7541237123e-001	 1.1196804233e+000	-5.1940431298e+000
 1.6424264910e-001	 1.1213733093e+000	-5.2491973704e+000
 1.5309344462e-001	 1.1229497461e+000	-5.3006183279e+000
 1.4196637773e-001	 1.1244106295e+000	-5.3487551148e+000
 1.3086303968e-001	 1.1257568813e+000	-5.3940605278e+000
 1.1978499265e-001	 1.1269894479e+000	-5.4369905008e+000
 1.0873376937e-001	 1.1281093001e+000	-5.4780035464e+000
 2.2544598918e-001	 1.1378870890e+000	-4.4316367524e+000
 2.1394658685e-001	 1.1401051746e+000	-4.4907936519e+000
 2.0246126806e-001	 1.1422006864e+000	-4.5449683810e+000
 1.9099180377e-001	 1.1441744261e+000	-4.5946872246e+000
 1.7953993743e-001	 1.1460272257e+000	-4.6404799981e+000
 1.6810738454e-001	 1.1477599464e+000	-4.6828795244e+000
 1.5669583209e-001	 1.1493734777e+000	-4.7224210974e+000
 1.4530693814e-001	 1.1508687367e+000	-4.7596419312e+000
 1.3394233139e-001	 1.1522466666e+000	-4.7950805973e+000
 1.2260361077e-001	 1.1535082364e+000	-4.8292764479e+000
 1.1129234508e-001	 1.1546544394e+000	-4.8627690279e+000
 2.3062894428e-001	 1.1640468699e+000	-3.9950448763e+000
 2.1886517314e-001	 1.1663159489e+000	-4.0406414760e+000
 2.0711580933e-001	 1.1684596360e+000	-4.0816470959e+000
 1.9538266450e-001	 1.1704787516e+000	-4.1186934156e+000
 1.8366752221e-001	 1.1723741466e+000	-4.1524134559e+000
 1.7197213737e-001	 1.1741467021e+000	-4.1834410169e+000
 1.6029823577e-001	 1.1757973282e+000	-4.2124101033e+000
 1.4864751358e-001	 1.1773269629e+000	-4.2399543362e+000
 1.3702163695e-001	 1.1787365711e+000	-4.2667063540e+000
 1.2542224157e-001	 1.1800271441e+000	-4.2932971998e+000
 1.1385093230e-001	 1.1811996981e+000	-4.3203556981e+000
 2.3581191362e-001	 1.1902067228e+000	-3.6036090848e+000
 2.2378377296e-001	 1.1925267952e+000	-3.6373432250e+000
 2.1177036340e-001	 1.1947186578e+000	-3.6667648609e+000
 1.9977353732e-001	 1.1967831493e+000	-3.6926189788e+000
 1.8779511834e-001	 1.1987211399e+000	-3.7156497394e+000
 1.7583690083e-001	 1.2005335305e+000	-3.7365998723e+000
 1.6390064935e-001	 1.2022212514e+000	-3.7562100584e+000
 1.5198809821e-001	 1.2037852618e+000	-3.7752183001e+000
 1.4010095098e-001	 1.2052265485e+000	-3.7943592800e+000
 1.2824088012e-001	 1.2065461248e+000	-3.8143637073e+000
 1.1640952656e-001	 1.2077450298e+000	-3.8359576539e+000
 2.4099488815e-001	 1.2163666018e+000	-3.2446318750e+000
 2.2870237769e-001	 1.2187376677e+000	-3.2681174231e+000
 2.1642492212e-001	 1.2209777059e+000	-3.2874521235e+000
 2.0416441451e-001	 1.2230875734e+000	-3.3035018027e+000
 1.9192271859e-001	 1.2250681596e+000	-3.3171293315e+000
 1.7970166815e-001	 1.2269203852e+000	-3.3291939721e+000
 1.6750306654e-001	 1.2286452010e+000	-3.3405507140e+000
 1.5532868618e-001	 1.2302435872e+000	-3.3520495982e+000
 1.4318026809e-001	 1.2317165523e+000	-3.3645350295e+000
 1.3105952148e-001	 1.2330651319e+000	-3.3788450774e+000
 1.1896812337e-001	 1.2342903880e+000	-3.3958107654e+000
 2.4617785878e-001	 1.2425264611e+000	-2.9064932231e+000
 2.3362097874e-001	 1.2449485205e+000	-2.9212485291e+000
 2.2107947735e-001	 1.2472367342e+000	-2.9318932553e+000
 2.0855528842e-001	 1.2493919777e+000	-2.9394212334e+000
 1.9605031575e-001	 1.2514151596e+000	-2.9448212593e+000
 1.8356643257e-001	 1.2533072201e+000	-2.9490763920e+000
 1.7110548102e-001	 1.2550691308e+000	-2.9531632391e+000
 1.5866927164e-001	 1.2567018928e+000	-2.9580512321e+000
 1.4625958289e-001	 1.2582065363e+000	-2.9647018886e+000
 1.3387816074e-001	 1.2595841192e+000	-2.9740680632e+000
 1.2152671826e-001	 1.2608357263e+000	-2.9870931867e+000
 9.5941220239e-002	 9.9538702132e-001	-1.0253482613e+001
 8.6213715910e-002	 9.9627667181e-001	-1.0343294354e+001
 7.6512533521e-002	 9.9706861257e-001	-1.0425606835e+001
 6.6838966101e-002	 9.9776375910e-001	-1.0500404525e+001
 5.7194279111e-002	 9.9836304482e-001	-1.0567653450e+001
 4.7579710273e-002	 9.9886742018e-001	-1.0627301790e+001
 3.7996469419e-002	 9.9927785191e-001	-1.0679280489e+001
 2.8445738363e-002	 9.9959532214e-001	-1.0723503853e+001
 1.8928670806e-002	 9.9982082766e-001	-1.0759870159e+001
 9.4463922618e-003	 9.9995537907e-001	-1.0788262257e+001
 0.0000000000e+000	 1.0000000000e+000	-1.0808548171e+001
 9.8499671221e-002	 1.0219308666e+000	-9.0065994349e+000
 8.8512764906e-002	 1.0228442412e+000	-9.0827254298e+000
 7.8552882455e-002	 1.0236573006e+000	-9.1507659098e+000
 6.8621351376e-002	 1.0243709845e+000	-9.2108062723e+000
 5.8719470879e-002	 1.0249862513e+000	-9.2629195224e+000
 4.8848511690e-002	 1.0255040767e+000	-9.3071665758e+000
 3.9009715904e-002	 1.0259254534e+000	-9.3435965617e+000
 2.9204296851e-002	 1.0262513896e+000	-9.3722471243e+000
 1.9433438997e-002	 1.0264829086e+000	-9.3931447231e+000
 9.6982978697e-003	 1.0266210481e+000	-9.4063049330e+000
 0.0000000000e+000	 1.0266668589e+000	-9.4117353758e+000
 1.0105815610e-001	 1.0484750635e+000	-7.9268296877e+000
 9.0811844365e-002	 1.0494121627e+000	-7.9909271617e+000
 8.0593258423e-002	 1.0502463409e+000	-8.0469174122e+000
 7.0403760268e-002	 1.0509785624e+000	-8.0949828529e+000
 6.0244682856e-002	 1.0516098105e+000	-8.1352978005e+000
 5.0117329919e-002	 1.0521410862e+000	-8.1680285304e+000
 4.0022975815e-002	 1.0525734079e+000	-8.1933333313e+000
 2.9962865390e-002	 1.0529078102e+000	-8.2113625572e+000
 1.9938213876e-002	 1.0531453428e+000	-8.2222586774e+000
 9.9502068155e-003	 1.0532870704e+000	-8.2261563257e+000
 0.0000000000e+000	 1.0533340711e+000	-8.2231848654e+000
 1.0361667041e-001	 1.0750195657e+000	-6.9920681063e+000
 9.3110950263e-002	 1.0759803897e+000	-7.0457078057e+000
 8.2633657856e-002	 1.0768356869e+000	-7.0916440287e+000
 7.2186189658e-002	 1.0775864463e+000	-7.1301531947e+000
 6.1769912372e-002	 1.0782336758e+000	-7.1615062655e+000
 5.1386162739e-002	 1.0787784020e+000	-7.1859686038e+000
 4.1036247378e-002	 1.0792216689e+000	-7.2037998282e+000
 3.0721442652e-002	 1.0795645373e+000	-7.2152536662e+000
 2.0442994561e-002	 1.0798080836e+000	-7.2205778046e+000
 1.0202118658e-002	 1.0799533994e+000	-7.2200137395e+000
 0.0000000000e+000	 1.0800015900e+000	-7.2137989057e+000
 1.0617520966e-001	 1.1015643267e+000	-6.1820207154e+000
 9.5410078577e-002	 1.1025488757e+000	-6.2266691540e+000
 8.4674077182e-002	 1.1034252923e+000	-6.2643168800e+000
 7.3968636427e-002	 1.1041945896e+000	-6.2953321266e+000
 6.3295156760e-002	 1.1048578008e+000	-6.3200787476e+000
 5.2655007930e-002	 1.1054159776e+000	-6.3389159239e+000
 4.2049528821e-002	 1.1058701898e+000	-6.3521978676e+000
 3.1480027311e-002	 1.1062215244e+000	-6.3602735225e+000
 2.0947780166e-002	 1.1064710844e+000	-6.3634862636e+000
 1.0454032957e-002	 1.1066199883e+000	-6.3621735954e+000
 0.0000000000e+000	 1.1066693690e+000	-6.3566688100e+000
 1.0873376937e-001	 1.1281093001e+000	-5.4780035464e+000
 9.7709225283e-002	 1.1291175742e+000	-5.5150064175e+000
 8.6714512831e-002	 1.1300151103e+000	-5.5458950302e+000
 7.5751097454e-002	 1.1308029458e+000	-5.5711279852e+000
 6.4820413349e-002	 1.1314821387e+000	-5.5911591071e+000
 5.3923863272e-002	 1.1320537662e+000	-5.6064370442e+000
 4.3062818369e-002	 1.1325189238e+000	-5.6174048650e+000
 3.2238618038e-002	 1.1328787247e+000	-5.6244996524e+000
 2.1452569810e-002	 1.1331342985e+000	-5.6281520976e+000
 1.0705949271e-002	 1.1332867906e+000	-5.6287860930e+000
 0.0000000000e+000	 1.1333373612e+000	-5.6268199148e+000
 1.1129234508e-001	 1.1546544394e+000	-4.8627690279e+000
 1.0000838636e-001	 1.1556864388e+000	-4.8933356373e+000
 8.8754961232e-002	 1.1566050945e+000	-4.9187525907e+000
 7.7533569621e-002	 1.1574114683e+000	-4.9395680895e+000
 6.6345679470e-002	 1.1581066431e+000	-4.9563237691e+000
 5.5192726543e-002	 1.1586917213e+000	-4.9695542338e+000
 4.4076114251e-002	 1.1591678243e+000	-4.9797865885e+000
 3.2997213506e-002	 1.1595360916e+000	-4.9875399700e+000
 2.1957362609e-002	 1.1597976792e+000	-4.9933250778e+000
 1.0957867160e-002	 1.1599537596e+000	-4.9976437061e+000
 0.0000000000e+000	 1.1600055201e+000	-5.0009894817e+000
 1.1385093230e-001	 1.1811996981e+000	-4.3203556981e+000
 1.0230755778e-001	 1.1822554230e+000	-4.3455442955e+000
 9.0795418814e-002	 1.1831951983e+000	-4.3665290787e+000
 7.9316049809e-002	 1.1840201105e+000	-4.3839477034e+000
 6.7870952455e-002	 1.1847312672e+000	-4.3984281520e+000
 5.6461595524e-002	 1.1853297962e+000	-4.4105882435e+000
 4.5089414691e-002	 1.1858168448e+000	-4.4210351423e+000
 3.3755812387e-002	 1.1861935784e+000	-4.4303648667e+000
 2.2462157679e-002	 1.1864611799e+000	-4.4391617982e+000
 1.1209786182e-002	 1.1866208486e+000	-4.4479981938e+000
 0.0000000000e+000	 1.1866737990e+000	-4.4574345418e+000
 1.1640952656e-001	 1.2077450298e+000	-3.8359576539e+000
 1.0460673552e-001	 1.2088244802e+000	-3.8566615590e+000
 9.2835882007e-002	 1.2097853753e+000	-3.8739994557e+000
 8.1098534898e-002	 1.2106288259e+000	-3.8886988737e+000
 6.9396229633e-002	 1.2113559645e+000	-3.9014733163e+000
 5.7730467994e-002	 1.2119679444e+000	-3.9130217844e+000
 4.6102717918e-002	 1.2124659385e+000	-3.9240283007e+000
 3.4514413354e-002	 1.2128511386e+000	-3.9351614350e+000
 2.2966954137e-002	 1.2131247539e+000	-3.9470738314e+000
 1.1461705896e-002	 1.2132880108e+000	-3.9604017399e+000
 0.0000000000e+000	 1.2133421513e+000	-3.9757650807e+000
 1.1896812337e-001	 1.2342903880e+000	-3.3958107654e+000
 1.0690591556e-001	 1.2353935640e+000	-3.4127452006e+000
 9.4876347240e-002	 1.2363755789e+000	-3.4269608827e+000
 8.2881021769e-002	 1.2372375679e+000	-3.4392761521e+000
 7.0921508337e-002	 1.2379806885e+000	-3.4504897919e+000
 5.8999341732e-002	 1.2386061193e+000	-3.4613806029e+000
 4.7116022158e-002	 1.2391150589e+000	-3.4727069808e+000
 3.5273015080e-002	 1.2395087254e+000	-3.4852064958e+000
 2.3471751099e-002	 1.2397883546e+000	-3.4995954755e+000
 1.1713625863e-002	 1.2399551998e+000	-3.5165685936e+000
 0.0000000000e+000	 1.2400105302e+000	-3.5367987489e+000
 1.2152671826e-001	 1.2608357263e+000	-2.9870931867e+000
 1.0920509388e-001	 1.2619626278e+000	-3.0007827415e+000
 9.6916810941e-002	 1.2629657625e+000	-3.0121337310e+000
 8.4663507302e-002	 1.2638462899e+000	-3.0220567150e+000
 7.2446785896e-002	 1.2646053925e+000	-3.0314360514e+000
 6.0268214518e-002	 1.2652442741e+000	-3.0411295585e+000
 4.8129325638e-002	 1.2657641593e+000	-3.0519681810e+000
 3.6031616237e-002	 1.2661662922e+000	-3.0647556601e+000
 2.3976547683e-002	 1.2664519353e+000	-3.0802682078e+000
 1.1965545641e-002	 1.2666223687e+000	-3.0992541886e+000
 0.0000000000e+000	 1.2666788891e+000	-3.1224339302e+000
 1.2666788891e+000	 0.0000000000e+000	 3.6642864246e+000
 1.2666223687e+000	 1.1965545641e-002	 3.6540724468e+000
 1.2664519353e+000	 2.3976547683e-002	 3.6437920531e+000
 1.2661662922e+000	 3.6031616237e-002	 3.6331531234e+000
 1.2657641593e+000	 4.8129325638e-002	 3.6218653982e+000
 1.2652442741e+000	 6.0268214518e-002	 3.6096405109e+000
 1.2646053925e+000	 7.2446785896e-002	 3.5961919691e+000
 1.2638462899e+000	 8.4663507302e-002	 3.5812350774e+000
 1.2629657625e+000	 9.6916810941e-002	 3.5644867999e+000
 1.2619626278e+000	 1.0920509388e-001	 3.5456655622e+000
 1.2608357263e+000	 1.2152671826e-001	 3.5244909925e+000
 1.2933431901e+000	 0.0000000000e+000	 3.6667590027e+000
 1.2932854800e+000	 1.2217427086e-002	 3.6564346134e+000
 1.2931114588e+000	 2.4481267458e-002	 3.6457673303e+000
 1.2928198028e+000	 3.6790101965e-002	 3.6344553175e+000
 1.2924092048e+000	 4.9142474935e-002	 3.6221989372e+000
 1.2918783757e+000	 6.1536894235e-002	 3.6087007500e+000
 1.2912260453e+000	 7.3971831370e-002	 3.5936654514e+000
 1.2904509632e+000	 8.6445721615e-002	 3.5767997401e+000
 1.2895519001e+000	 9.8956964168e-002	 3.5578121183e+000
 1.2885276489e+000	 1.1150392235e-001	 3.5364126220e+000
 1.2873770255e+000	 1.2408492384e-001	 3.5123124831e+000
 1.3200074312e+000	 0.0000000000e+000	 3.6745948405e+000
 1.3199485313e+000	 1.2469307965e-002	 3.6672806829e+000
 1.3197709224e+000	 2.4985986097e-002	 3.6591937482e+000
 1.3194732534e+000	 3.7548585987e-002	 3.6500093196e+000
 1.3190541903e+000	 5.0155621952e-002	 3.6394057217e+000
 1.3185124174e+000	 6.2805571096e-002	 3.6270643095e+000
 1.3178466382e+000	 7.5496873414e-002	 3.6126693839e+000
 1.3170555766e+000	 8.8227931917e-002	 3.5959080286e+000
 1.3161379780e+000	 1.0099711281e-001	 3.5764698696e+000
 1.3150926103e+000	 1.1380274566e-001	 3.5540467561e+000
 1.3139182650e+000	 1.2664312367e-001	 3.5283323630e+000
 1.3466716190e+000	 0.0000000000e+000	 3.6836198230e+000
 1.3466115292e+000	 1.2721188341e-002	 3.6818134311e+000
 1.3464303327e+000	 2.5490703727e-002	 3.6787024440e+000
 1.3461266508e+000	 3.8307068493e-002	 3.6739475080e+000
 1.3456991226e+000	 5.1168766943e-002	 3.6672097403e+000
 1.3451464058e+000	 6.4074245421e-002	 3.6581499661e+000
 1.3444671778e+000	 7.7021912407e-002	 3.6464280289e+000
 1.3436601368e+000	 9.0010138656e-002	 3.6317021750e+000
 1.3427240027e+000	 1.0303725736e-001	 3.6136285131e+000
 1.3416575185e+000	 1.1610156436e-001	 3.5918605505e+000
 1.3404594514e+000	 1.2920131837e-001	 3.5660488036e+000
 1.3733357600e+000	 0.0000000000e+000	 3.6954980964e+000
 1.3732744805e+000	 1.2973068276e-002	 3.6987225613e+000
 1.3730896963e+000	 2.5995420473e-002	 3.7001807547e+000
 1.3727800015e+000	 3.9065549671e-002	 3.6995304053e+000
 1.3723440082e+000	 5.2181910162e-002	 3.6964261034e+000
 1.3717803477e+000	 6.5342917526e-002	 3.6905185219e+000
 1.3710876709e+000	 7.8546948732e-002	 3.6814537325e+000
 1.3702646504e+000	 9.1792342276e-002	 3.6688726174e+000
 1.3693099808e+000	 1.0507739835e-001	 3.6524103788e+000
 1.3682223803e+000	 1.1840037905e-001	 3.6316961453e+000
 1.3670005914e+000	 1.3175950861e-001	 3.6063526752e+000
 1.3999998611e+000	 0.0000000000e+000	 3.7098365069e+000
 1.3999373918e+000	 1.3224947833e-002	 3.7167527644e+000
 1.3997490199e+000	 2.6500136463e-002	 3.7215655722e+000
 1.3994333122e+000	 3.9824029712e-002	 3.7239206319e+000
 1.3989888539e+000	 5.3195051861e-002	 3.7234565420e+000
 1.3984142495e+000	 6.6611587728e-002	 3.7198040335e+000
 1.3977081241e+000	 8.0071982770e-002	 3.7125853244e+000
 1.3968691242e+000	 9.3574543223e-002	 3.7014135954e+000
 1.3958959191e+000	 1.0711753628e-001	 3.6858925879e+000
 1.3947872022e+000	 1.2069919028e-001	 3.6656163226e+000
 1.3935416916e+000	 1.3431769500e-001	 3.6401689405e+000
 1.4266639289e+000	 0.0000000000e+000	 3.7257405477e+000
 1.4266002698e+000	 1.3476827075e-002	 3.7345972792e+000
 1.4264083102e+000	 2.7004851823e-002	 3.7411772481e+000
 1.4260865896e+000	 4.0582508805e-002	 3.7451053356e+000
 1.4256336662e+000	 5.4208192294e-002	 3.7459949405e+000
 1.4250481181e+000	 6.7880256345e-002	 3.7434472602e+000
 1.4243285440e+000	 8.1597014902e-002	 3.7370507185e+000
 1.4234735646e+000	 9.5356741943e-002	 3.7263805427e+000
 1.4224818242e+000	 1.0915767165e-001	 3.7109984898e+000
 1.4213519908e+000	 1.2299799864e-001	 3.6904527235e+000
 1.4200827586e+000	 1.3687587820e-001	 3.6642778379e+000
 1.4533279700e+000	 0.0000000000e+000	 3.7425058011e+000
 1.4532631212e+000	 1.3728706065e-002	 3.7511527235e+000
 1.4530675738e+000	 2.7509566677e-002	 3.7575521962e+000
 1.4527398403e+000	 4.1340987140e-002	 3.7612997117e+000
 1.4522784520e+000	 5.5221331714e-002	 3.7619744251e+000
 1.4516819601e+000	 6.9148923693e-002	 3.7591385128e+000
 1.4509489372e+000	 8.3122045509e-002	 3.7523367086e+000
 1.4500779785e+000	 9.7138938881e-002	 3.7410960216e+000
 1.4490677026e+000	 1.1119780499e-001	 3.7249256350e+000
 1.4479167530e+000	 1.2529680471e-001	 3.7033169853e+000
 1.4466237990e+000	 1.3943405884e-001	 3.6757440204e+000
 1.4799919911e+000	 0.0000000000e+000	 3.7596008191e+000
 1.4799259525e+000	 1.3980584867e-002	 3.7655005132e+000
 1.4797268175e+000	 2.8014281154e-002	 3.7694229859e+000
 1.4793930711e+000	 4.2099464907e-002	 3.7709259093e+000
 1.4789232177e+000	 5.6234470375e-002	 3.7695452244e+000
 1.4783157820e+000	 7.0417590090e-002	 3.7647946094e+000
 1.4775693105e+000	 8.4647074973e-002	 3.7561651633e+000
 1.4766823725e+000	 9.8921134482e-002	 3.7431253052e+000
 1.4756535611e+000	 1.1323793680e-001	 3.7251208901e+000
 1.4744814952e+000	 1.2759560905e-001	 3.7015755401e+000
 1.4731648196e+000	 1.4199223756e-001	 3.6718911886e+000
 1.5066559989e+000	 0.0000000000e+000	 3.7766518225e+000
 1.5065887705e+000	 1.4232463543e-002	 3.7768902551e+000
 1.5063860478e+000	 2.8518995379e-002	 3.7757005510e+000
 1.5060462885e+000	 4.2857942294e-002	 3.7725941802e+000
 1.5055679701e+000	 5.7247608530e-002	 3.7670548823e+000
 1.5049495907e+000	 7.1686255854e-002	 3.7585382810e+000
 1.5041896705e+000	 8.6172103675e-002	 3.7464717530e+000
 1.5032867531e+000	 1.0070332919e-001	 3.7302545535e+000
 1.5022394064e+000	 1.1527806759e-001	 3.7092581960e+000
 1.5010462241e+000	 1.2989441224e-001	 3.6828270867e+000
 1.4997058268e+000	 1.4455041500e-001	 3.6502794103e+000
 1.5333200000e+000	 0.0000000000e+000	 3.7934289963e+000
 1.5332515818e+000	 1.4484342157e-002	 3.7847248734e+000
 1.5330452715e+000	 2.9023709478e-002	 3.7754582565e+000
 1.5326994993e+000	 4.3616419493e-002	 3.7650859959e+000
 1.5322127159e+000	 5.8260746432e-002	 3.7530305391e+000
 1.5315833927e+000	 7.2954921301e-002	 3.7386797283e+000
 1.5308100238e+000	 8.7697131996e-002	 3.7213868977e+000
 1.5298911271e+000	 1.0248552346e-001	 3.7004712688e+000
 1.5288252450e+000	 1.1731819787e-001	 3.6752186463e+000
 1.5276109464e+000	 1.3219321486e-001	 3.6448824100e+000
 1.5262468275e+000	 1.4710859180e-001	 3.6086847994e+000
 1.2608357263e+000	 1.2152671826e-001	 3.5244909925e+000
 1.2595841192e+000	 1.3387816074e-001	 3.5019094909e+000
 1.2582065363e+000	 1.4625958289e-001	 3.4788450131e+000
 1.2567018928e+000	 1.5866927164e-001	 3.4549974134e+000
 1.2550691308e+000	 1.7110548102e-001	 3.4300704461e+000
 1.2533072201e+000	 1.8356643257e-001	 3.4037714699e+000
 1.2514151596e+000	 1.9605031575e-001	 3.3758111009e+000
 1.2493919777e+000	 2.0855528842e-001	 3.3459028195e+000
 1.2472367342e+000	 2.2107947735e-001	 3.3137625324e+000
 1.2449485205e+000	 2.3362097874e-001	 3.2791080952e+000
 1.2425264611e+000	 2.4617785878e-001	 3.2416587986e+000
 1.2873770255e+000	 1.2408492384e-001	 3.5123124831e+000
 1.2860990714e+000	 1.3669637111e-001	 3.4866149618e+000
 1.2846924896e+000	 1.4933842914e-001	 3.4603885065e+000
 1.2831561725e+000	 1.6200934880e-001	 3.4333079405e+000
 1.2814890399e+000	 1.7470734737e-001	 3.4050527183e+000
 1.2796900401e+000	 1.8743060893e-001	 3.3753065748e+000
 1.2777581506e+000	 2.0017728485e-001	 3.3437571180e+000
 1.2756923796e+000	 2.1294549421e-001	 3.3100953672e+000
 1.2734917670e+000	 2.2573332434e-001	 3.2740152420e+000
 1.2711553851e+000	 2.3853883137e-001	 3.2352130052e+000
 1.2686823400e+000	 2.5136004078e-001	 3.1933866654e+000
 1.3139182650e+000	 1.2664312367e-001	 3.5283323630e+000
 1.3126139639e+000	 1.3951457514e-001	 3.5006108263e+000
 1.3111783833e+000	 1.5241726847e-001	 3.4721284794e+000
 1.3096103927e+000	 1.6534941845e-001	 3.4425403775e+000
 1.3079088896e+000	 1.7830920561e-001	 3.4115074695e+000
 1.3060728006e+000	 1.9129477660e-001	 3.3786961841e+000
 1.3041010823e+000	 2.0430424467e-001	 3.3437779510e+000
 1.3019927223e+000	 2.1733569013e-001	 3.3064286603e+000
 1.2997467407e+000	 2.3038716087e-001	 3.2663280639e+000
 1.2973621908e+000	 2.4345667294e-001	 3.2231591260e+000
 1.2948381601e+000	 2.5654221113e-001	 3.1766073249e+000
 1.3404594514e+000	 1.2920131837e-001	 3.5660488036e+000
 1.3391288034e+000	 1.4233277354e-001	 3.5376513619e+000
 1.3376642240e+000	 1.5549610164e-001	 3.5080889458e+000
 1.3360645600e+000	 1.6868948142e-001	 3.4769685297e+000
 1.3343286865e+000	 1.8191105664e-001	 3.4439004688e+000
 1.3324555085e+000	 1.9515893654e-001	 3.4085124838e+000
 1.3304439613e+000	 2.0843119624e-001	 3.3705429076e+000
 1.3282930124e+000	 2.2172587726e-001	 3.3296795216e+000
 1.3260016620e+000	 2.3504098809e-001	 3.2855958967e+000
 1.3235689440e+000	 2.4837450467e-001	 3.2379701532e+000
 1.3209939278e+000	 2.6172437110e-001	 3.1864841469e+000
 1.3670005914e+000	 1.3175950861e-001	 3.6063526752e+000
 1.3656435965e+000	 1.4515096700e-001	 3.5780448354e+000
 1.3641500184e+000	 1.5857492942e-001	 3.5484092887e+000
 1.3625186809e+000	 1.7202953854e-001	 3.5170347156e+000
 1.3607484371e+000	 1.8551290138e-001	 3.4835109946e+000
 1.3588381701e+000	 1.9902308972e-001	 3.4474297056e+000
 1.3567867943e+000	 2.1255814058e-001	 3.4083847022e+000
 1.3545932565e+000	 2.2611605672e-001	 3.3659727434e+000
 1.3522565372e+000	 2.3969480716e-001	 3.3197941745e+000
 1.3497756514e+000	 2.5329232780e-001	 3.2694536472e+000
 1.3471496498e+000	 2.6690652201e-001	 3.2145608674e+000
 1.3935416916e+000	 1.3431769500e-001	 3.6401689405e+000
 1.3921583499e+000	 1.4796915623e-001	 3.6114200747e+000
 1.3906357731e+000	 1.6165375258e-001	 3.5812269995e+000
 1.3889727622e+000	 1.7536959065e-001	 3.5491593605e+000
 1.3871681481e+000	 1.8911474071e-001	 3.5147857331e+000
 1.3852207922e+000	 2.0288723710e-001	 3.4776743446e+000
 1.3831295877e+000	 2.1668507874e-001	 3.4373938808e+000
 1.3808934612e+000	 2.3050622959e-001	 3.3935143676e+000
 1.3785113731e+000	 2.4434861925e-001	 3.3456081141e+000
 1.3759823195e+000	 2.5821014355e-001	 3.2932507068e+000
 1.3733053326e+000	 2.7208866515e-001	 3.2360220395e+000
 1.4200827586e+000	 1.3687587820e-001	 3.6642778379e+000
 1.4186730700e+000	 1.5078734195e-001	 3.6345393359e+000
 1.4171214946e+000	 1.6473257189e-001	 3.6033124174e+000
 1.4154268105e+000	 1.7870963858e-001	 3.5701461245e+000
 1.4135878261e+000	 1.9271657554e-001	 3.5345860415e+000
 1.4116033813e+000	 2.0675137966e-001	 3.4961752732e+000
 1.4094723482e+000	 2.2081201173e-001	 3.4544555279e+000
 1.4071936330e+000	 2.3489639697e-001	 3.4089682891e+000
 1.4047661762e+000	 2.4900242552e-001	 3.3592560654e+000
 1.4021889548e+000	 2.6312795315e-001	 3.3048637015e+000
 1.3994609826e+000	 2.7727080181e-001	 3.2453397358e+000
 1.4466237990e+000	 1.3943405884e-001	 3.6757440204e+000
 1.4451877637e+000	 1.5360552484e-001	 3.6444527277e+000
 1.4436071897e+000	 1.6781138813e-001	 3.6117266189e+000
 1.4418808323e+000	 1.8204968318e-001	 3.5770916834e+000
 1.4400074777e+000	 1.9631840676e-001	 3.5400679102e+000
 1.4379859440e+000	 2.1061551834e-001	 3.5001705662e+000
 1.4358150824e+000	 2.2493894060e-001	 3.4569115987e+000
 1.4334937784e+000	 2.3928655996e-001	 3.4098011455e+000
 1.4310209530e+000	 2.5365622715e-001	 3.3583491373e+000
 1.4283955639e+000	 2.6804575784e-001	 3.3020669753e+000
 1.4256166065e+000	 2.8245293328e-001	 3.2404692648e+000
 1.4731648196e+000	 1.4199223756e-001	 3.6718911886e+000
 1.4717024375e+000	 1.5642370563e-001	 3.6384727866e+000
 1.4700928649e+000	 1.7089020205e-001	 3.6037959974e+000
 1.4683348342e+000	 1.8538972527e-001	 3.5673603710e+000
 1.4664271094e+000	 1.9992023529e-001	 3.5286567245e+000
 1.4643684869e+000	 2.1447965413e-001	 3.4871687689e+000
 1.4621577968e+000	 2.2906586638e-001	 3.4423748802e+000
 1.4597939042e+000	 2.4367671966e-001	 3.3937499975e+000
 1.4572757102e+000	 2.5831002528e-001	 3.3407676316e+000
 1.4546021534e+000	 2.7296355883e-001	 3.2829019617e+000
 1.4517722108e+000	 2.8763506087e-001	 3.2196300001e+000
 1.4997058268e+000	 1.4455041500e-001	 3.6502794103e+000
 1.4982170980e+000	 1.5924188500e-001	 3.6141517387e+000
 1.4965785268e+000	 1.7396901444e-001	 3.5770895211e+000
 1.4947888229e+000	 1.8872976570e-001	 3.5385614831e+000
 1.4928467280e+000	 2.0352206201e-001	 3.4980246627e+000
 1.4907510167e+000	 2.1834378799e-001	 3.4549264361e+000
 1.4885004981e+000	 2.3319279009e-001	 3.4087067111e+000
 1.4860940168e+000	 2.4806687716e-001	 3.3588002707e+000
 1.4835304542e+000	 2.6296382108e-001	 3.3046392429e+000
 1.4808087297e+000	 2.7788135737e-001	 3.2456556769e+000
 1.4779278020e+000	 2.9281718587e-001	 3.1812841968e+000
 1.5262468275e+000	 1.4710859180e-001	 3.6086847994e+000
 1.5247317519e+000	 1.6206006367e-001	 3.5692611213e+000
 1.5230641822e+000	 1.7704782606e-001	 3.5293983423e+000
 1.5212428050e+000	 1.9206980528e-001	 3.4885289196e+000
 1.5192663399e+000	 2.0712388784e-001	 3.4460704112e+000
 1.5171335398e+000	 2.2220792089e-001	 3.4014279569e+000
 1.5148431927e+000	 2.3731971277e-001	 3.3539969543e+000
 1.5123941228e+000	 2.5245703357e-001	 3.3031659067e+000
 1.5097851916e+000	 2.6761761573e-001	 3.2483194191e+000
 1.5070152995e+000	 2.8279915468e-001	 3.1888413157e+000
 1.5040833867e+000	 2.9799930958e-001	 3.1241178493e+000
 1.2425264611e+000	 2.4617785878e-001	 3.2416587986e+000
 1.2399693210e+000	 2.5875004047e-001	 3.2024367986e+000
 1.2372766476e+000	 2.7133364591e-001	 3.1625212864e+000
 1.2344476710e+000	 2.8392665122e-001	 3.1217042334e+000
 1.2314816584e+000	 2.9652700510e-001	 3.0797823459e+000
 1.2283779150e+000	 3.0913262957e-001	 3.0365564718e+000
 1.2251357850e+000	 3.2174142079e-001	 2.9918309947e+000
 1.2217546522e+000	 3.3435124988e-001	 2.9454132256e+000
 1.2182339414e+000	 3.4695996377e-001	 2.8971127960e+000
 1.2145731190e+000	 3.5956538610e-001	 2.8467410626e+000
 1.2107716938e+000	 3.7216531816e-001	 2.7941105293e+000
 1.2686823400e+000	 2.5136004078e-001	 3.1933866654e+000
 1.2660713707e+000	 2.6419687395e-001	 3.1496930118e+000
 1.2633220150e+000	 2.7704537134e-001	 3.1053512756e+000
 1.2604334868e+000	 2.8990346648e-001	 3.0601386797e+000
 1.2574050380e+000	 3.0276906487e-001	 3.0138374604e+000
 1.2542359591e+000	 3.1564004480e-001	 2.9662341717e+000
 1.2509255804e+000	 3.2851425815e-001	 2.9171189771e+000
 1.2474732729e+000	 3.4138953122e-001	 2.8662849372e+000
 1.2438784492e+000	 3.5426366561e-001	 2.8135273009e+000
 1.2401405644e+000	 3.6713443915e-001	 2.7586428090e+000
 1.2362591171e+000	 3.7999960685e-001	 2.7014290179e+000
 1.2948381601e+000	 2.5654221113e-001	 3.1766073249e+000
 1.2921733617e+000	 2.6964369517e-001	 3.1279786618e+000
 1.2893673238e+000	 2.8275708392e-001	 3.0786490256e+000
 1.2864192442e+000	 2.9588026828e-001	 3.0283930598e+000
 1.2833283593e+000	 3.0901111059e-001	 2.9769909554e+000
 1.2800939450e+000	 3.2214744540e-001	 2.9242276248e+000
 1.2767153178e+000	 3.3528708028e-001	 2.8698918620e+000
 1.2731918357e+000	 3.4842779672e-001	 2.8137754977e+000
 1.2695228992e+000	 3.6156735101e-001	 2.7556725577e+000
 1.2657079522e+000	 3.7470347516e-001	 2.6953784353e+000
 1.2617464830e+000	 3.8783387790e-001	 2.6326890860e+000
 1.3209939278e+000	 2.6172437110e-001	 3.1864841469e+000
 1.3182753004e+000	 2.7509050550e-001	 3.1326042074e+000
 1.3154125805e+000	 2.8846878507e-001	 3.0778758811e+000
 1.3124049496e+000	 3.0185705814e-001	 3.0220833756e+000
 1.3092516287e+000	 3.1525314384e-001	 2.9650172264e+000
 1.3059518792e+000	 3.2865483298e-001	 2.9064733124e+000
 1.3025050036e+000	 3.4205988886e-001	 2.8462518532e+000
 1.2989103471e+000	 3.5546604815e-001	 2.7841564013e+000
 1.2951672980e+000	 3.6887102181e-001	 2.7199928360e+000
 1.2912752890e+000	 3.8227249605e-001	 2.6535683728e+000
 1.2872337979e+000	 3.9566813330e-001	 2.5846905965e+000
 1.3471496498e+000	 2.6690652201e-001	 3.2145608674e+000
 1.3443771935e+000	 2.8053730629e-001	 3.1566744560e+000
 1.3414577916e+000	 2.9418047623e-001	 3.0974460748e+000
 1.3383906095e+000	 3.0783383753e-001	 3.0366137455e+000
 1.3351748528e+000	 3.2149516616e-001	 2.9739297696e+000
 1.3318097681e+000	 3.3516220917e-001	 2.9092061208e+000
 1.3282946443e+000	 3.4883268559e-001	 2.8425867767e+000
 1.3246288135e+000	 3.6250428726e-001	 2.7739717940e+000
 1.3208116519e+000	 3.7617467983e-001	 2.7031919556e+000
 1.3168425809e+000	 3.8984150368e-001	 2.6300794257e+000
 1.3127210682e+000	 4.0350237498e-001	 2.5544665890e+000
 1.3733053326e+000	 2.7208866515e-001	 3.2360220395e+000
 1.3704790474e+000	 2.8598409892e-001	 3.1756076041e+000
 1.3675029637e+000	 2.9989215883e-001	 3.1137958171e+000
 1.3643762305e+000	 3.1381060796e-001	 3.0503082471e+000
 1.3610980380e+000	 3.2773717911e-001	 2.9848810222e+000
 1.3576676183e+000	 3.4166957560e-001	 2.9172657422e+000
 1.3540842463e+000	 3.5560547216e-001	 2.8472303173e+000
 1.3503472413e+000	 3.6954251581e-001	 2.7745597128e+000
 1.3464559673e+000	 3.8347832689e-001	 2.6990565827e+000
 1.3424098346e+000	 3.9741049996e-001	 2.6205417753e+000
 1.3382083003e+000	 4.1133660491e-001	 2.5388546911e+000
 1.3994609826e+000	 2.7727080181e-001	 3.2453397358e+000
 1.3965808687e+000	 2.9143088474e-001	 3.1824877094e+000
 1.3935481032e+000	 3.0560383428e-001	 3.1182252948e+000
 1.3903618190e+000	 3.1978737092e-001	 3.0522583359e+000
 1.3870211908e+000	 3.3397918427e-001	 2.9843077146e+000
 1.3835254361e+000	 3.4817693390e-001	 2.9141105646e+000
 1.3798738161e+000	 3.6237825026e-001	 2.8414214011e+000
 1.3760656369e+000	 3.7658073557e-001	 2.7660131486e+000
 1.3721002507e+000	 3.9078196482e-001	 2.6876780419e+000
 1.3679770563e+000	 4.0497948679e-001	 2.6062283833e+000
 1.3636955006e+000	 4.1917082505e-001	 2.5214971319e+000
 1.4256166065e+000	 2.8245293328e-001	 3.2404692648e+000
 1.4226826639e+000	 2.9687766511e-001	 3.1754651140e+000
 1.4195932166e+000	 3.1131550402e-001	 3.1090901615e+000
 1.4163473815e+000	 3.2576412790e-001	 3.0410341113e+000
 1.4129443177e+000	 3.4022118318e-001	 2.9710023989e+000
 1.4093832281e+000	 3.5468428569e-001	 2.8987177464e+000
 1.4056633601e+000	 3.6915102159e-001	 2.8239216271e+000
 1.4017840069e+000	 3.8361894829e-001	 2.7463756131e+000
 1.3977445084e+000	 3.9808559545e-001	 2.6658625826e+000
 1.3935442524e+000	 4.1254846604e-001	 2.5821877629e+000
 1.3891826753e+000	 4.2700503735e-001	 2.4951795837e+000
 1.4517722108e+000	 2.8763506087e-001	 3.2196300001e+000
 1.4487844395e+000	 3.0232444140e-001	 3.1529504235e+000
 1.4456383106e+000	 3.1702716948e-001	 3.0850019079e+000
 1.4423329245e+000	 3.3174088040e-001	 3.0154564273e+000
 1.4388674251e+000	 3.4646317741e-001	 2.9440026106e+000
 1.4352410007e+000	 3.6119163260e-001	 2.8703476870e+000
 1.4314528847e+000	 3.7592378784e-001	 2.7942193297e+000
 1.4275023575e+000	 3.9065715573e-001	 2.7153673692e+000
 1.4233887469e+000	 4.0538922061e-001	 2.6335653475e+000
 1.4191114293e+000	 4.2011743962e-001	 2.5486118867e+000
 1.4146698310e+000	 4.3483924378e-001	 2.4603318434e+000
 1.4779278020e+000	 2.9281718587e-001	 3.1812841968e+000
 1.4748862021e+000	 3.0777121496e-001	 3.1135936584e+000
 1.4716833915e+000	 3.2273883208e-001	 3.0448073408e+000
 1.4683184545e+000	 3.3771762992e-001	 2.9745766850e+000
 1.4647905196e+000	 3.5270516852e-001	 2.9025709616e+000
 1.4610987603e+000	 3.6769897626e-001	 2.8284796582e+000
 1.4572423965e+000	 3.8269655071e-001	 2.7520147533e+000
 1.4532206953e+000	 3.9769535965e-001	 2.6729128446e+000
 1.4490329726e+000	 4.1269284211e-001	 2.5909370977e+000
 1.4446785935e+000	 4.2768640941e-001	 2.5058789844e+000
 1.4401569739e+000	 4.4267344629e-001	 2.4175597783e+000
 1.5040833867e+000	 2.9799930958e-001	 3.1241178493e+000
 1.5009879582e+000	 3.1321798717e-001	 3.0562653801e+000
 1.4977284659e+000	 3.2845049326e-001	 2.9875699646e+000
 1.4943039780e+000	 3.4369437793e-001	 2.9176584571e+000
 1.4907136076e+000	 3.5894715807e-001	 2.8461769888e+000
 1.4869565135e+000	 3.7420631829e-001	 2.7727938565e+000
 1.4830319018e+000	 3.8946931188e-001	 2.6972022832e+000
 1.4789390267e+000	 4.0473356181e-001	 2.6191230160e+000
 1.4746771918e+000	 4.1999646178e-001	 2.5383067212e+000
 1.4702457512e+000	 4.3525537731e-001	 2.4545361421e+000
 1.4656441104e+000	 4.5050764685e-001	 2.3676279820e+000
 1.2107716938e+000	 3.7216531816e-001	 2.7941105293e+000
 1.2068292178e+000	 3.8475753968e-001	 2.7394543614e+000
 1.2027452861e+000	 3.9733980923e-001	 2.6831865262e+000
 1.1985195382e+000	 4.0990986582e-001	 2.6253920972e+000
 1.1941516598e+000	 4.2246543011e-001	 2.5661565347e+000
 1.1896413827e+000	 4.3500420550e-001	 2.5055648048e+000
 1.1849884863e+000	 4.4752387933e-001	 2.4437005505e+000
 1.1801927979e+000	 4.6002212396e-001	 2.3806453233e+000
 1.1752541932e+000	 4.7249659800e-001	 2.3164778839e+000
 1.1701725973e+000	 4.8494494752e-001	 2.2512735781e+000
 1.1649479851e+000	 4.9736480731e-001	 2.1851037977e+000
 1.2362591171e+000	 3.7999960685e-001	 2.7014290179e+000
 1.2322336498e+000	 3.9285690169e-001	 2.6421058736e+000
 1.2280637489e+000	 4.0570403507e-001	 2.5811024792e+000
 1.2237490467e+000	 4.1853869841e-001	 2.5185312654e+000
 1.2192892220e+000	 4.3135856436e-001	 2.4545050283e+000
 1.2146840010e+000	 4.4416128801e-001	 2.3891358981e+000
 1.2099331586e+000	 4.5694450800e-001	 2.3225343661e+000
 1.2050365182e+000	 4.6970584769e-001	 2.2548083795e+000
 1.1999939531e+000	 4.8244291640e-001	 2.1860625127e+000
 1.1948053868e+000	 4.9515331066e-001	 2.1163972251e+000
 1.1894707936e+000	 5.0783461546e-001	 2.0459082123e+000
 1.2617464830e+000	 3.8783387790e-001	 2.6326890860e+000
 1.2576380245e+000	 4.0095624548e-001	 2.5678285695e+000
 1.2533821548e+000	 4.1406824210e-001	 2.5012523529e+000
 1.2489784985e+000	 4.2716751158e-001	 2.4331042255e+000
 1.2444267276e+000	 4.4025167860e-001	 2.3635280015e+000
 1.2397265631e+000	 4.5331834992e-001	 2.2926663173e+000
 1.2348777747e+000	 4.6636511547e-001	 2.2206594938e+000
 1.2298801827e+000	 4.7938954962e-001	 2.1476444755e+000
 1.2247336574e+000	 4.9238921242e-001	 2.0737538555e+000
 1.2194381209e+000	 5.0536165083e-001	 1.9991149979e+000
 1.2139935469e+000	 5.1830440006e-001	 1.9238492653e+000
 1.2872337979e+000	 3.9566813330e-001	 2.5846905965e+000
 1.2830423485e+000	 4.0905557307e-001	 2.5136002406e+000
 1.2787005101e+000	 4.2243243239e-001	 2.4407859156e+000
 1.2742078998e+000	 4.3579630749e-001	 2.3664271235e+000
 1.2695641830e+000	 4.4914477506e-001	 2.2907027206e+000
 1.2647690750e+000	 4.6247539351e-001	 2.2137895208e+000
 1.2598223410e+000	 4.7578570410e-001	 2.1358609719e+000
 1.2547237974e+000	 4.8907323219e-001	 2.0570859182e+000
 1.2494733122e+000	 5.0233548855e-001	 1.9776274611e+000
 1.2440708057e+000	 5.1556997059e-001	 1.8976419275e+000
 1.2385162512e+000	 5.2877416372e-001	 1.8172779587e+000
 1.3127210682e+000	 4.0350237498e-001	 2.5544665890e+000
 1.3084466280e+000	 4.1715488648e-001	 2.4766190541e+000
 1.3040188211e+000	 4.3079660805e-001	 2.3970612966e+000
 1.2994372569e+000	 4.4442508830e-001	 2.3160132499e+000
 1.2947015944e+000	 4.5803785596e-001	 2.2336931904e+000
 1.2898115431e+000	 4.7163242108e-001	 2.1503161205e+000
 1.2847668636e+000	 4.8520627624e-001	 2.0660922366e+000
 1.2795673687e+000	 4.9875689782e-001	 1.9812254937e+000
 1.2742129237e+000	 5.1228174727e-001	 1.8959122795e+000
 1.2687034474e+000	 5.2577827248e-001	 1.8103402122e+000
 1.2630389125e+000	 5.3924390905e-001	 1.7246870731e+000
 1.3382083003e+000	 4.1133660491e-001	 2.5388546911e+000
 1.3338508694e+000	 4.2525418775e-001	 2.4542790922e+000
 1.3293370941e+000	 4.3916077117e-001	 2.3676266443e+000
 1.3246665762e+000	 4.5305385617e-001	 2.2795558561e+000
 1.3198389681e+000	 4.6693092352e-001	 2.1903340811e+000
 1.3148539736e+000	 4.8078943491e-001	 2.1002188727e+000
 1.3097113488e+000	 4.9462683425e-001	 2.0094611314e+000
 1.3044109027e+000	 5.0844054892e-001	 1.9183034481e+000
 1.2989524981e+000	 5.2222799108e-001	 1.8269785710e+000
 1.2933360522e+000	 5.3598655906e-001	 1.7357080116e+000
 1.2875615371e+000	 5.4971363869e-001	 1.6447008030e+000
 1.3636955006e+000	 4.1917082505e-001	 2.5214971319e+000
 1.3592550790e+000	 4.3335347890e-001	 2.4337428217e+000
 1.3546553354e+000	 4.4752492382e-001	 2.3435139119e+000
 1.3498958639e+000	 4.6168261326e-001	 2.2511113846e+000
 1.3449763104e+000	 4.7582397996e-001	 2.1568584753e+000
 1.3398963729e+000	 4.8994643730e-001	 2.0610992924e+000
 1.3346558028e+000	 5.0404738049e-001	 1.9641971494e+000
 1.3292544057e+000	 5.1812418791e-001	 1.8666957680e+000
 1.3236920416e+000	 5.3217422245e-001	 1.7693270166e+000
 1.3179686261e+000	 5.4619483288e-001	 1.6723693489e+000
 1.3120841310e+000	 5.6018335524e-001	 1.5760654153e+000
 1.3891826753e+000	 4.2700503735e-001	 2.4951795837e+000
 1.3846592633e+000	 4.4145276194e-001	 2.4050577562e+000
 1.3799735514e+000	 4.5588906812e-001	 2.3123317435e+000
 1.3751251265e+000	 4.7031136171e-001	 2.2173015978e+000
 1.3701136275e+000	 4.8471702751e-001	 2.1202921157e+000
 1.3649387471e+000	 4.9910343053e-001	 2.0216515325e+000
 1.3596002319e+000	 5.1346791731e-001	 1.9217498884e+000
 1.3540978838e+000	 5.2780781723e-001	 1.8209770550e+000
 1.3484315603e+000	 5.4212044388e-001	 1.7197404117e+000
 1.3426011755e+000	 5.5640309649e-001	 1.6184621643e+000
 1.3366067004e+000	 5.7065306131e-001	 1.5175763030e+000
 1.4146698310e+000	 4.3483924378e-001	 2.4603318434e+000
 1.4100634284e+000	 4.4955203891e-001	 2.3688884609e+000
 1.4052917485e+000	 4.6425320614e-001	 2.2747307088e+000
 1.4003543701e+000	 4.7894010370e-001	 2.1781535433e+000
 1.3952509258e+000	 4.9361006839e-001	 2.0794795389e+000
 1.3899811025e+000	 5.0826041690e-001	 1.9790576811e+000
 1.3845446423e+000	 5.2288844706e-001	 1.8772617875e+000
 1.3789413433e+000	 5.3749143928e-001	 1.7744885415e+000
 1.3731710605e+000	 5.5206665785e-001	 1.6711551280e+000
 1.3672337064e+000	 5.6661135245e-001	 1.5676964601e+000
 1.3611292514e+000	 5.8112275954e-001	 1.4645619929e+000
 1.4401569739e+000	 4.4267344629e-001	 2.4175597783e+000
 1.4354675809e+000	 4.5765131184e-001	 2.3260647759e+000
 1.4306099329e+000	 4.7261733998e-001	 2.2317573994e+000
 1.4255836011e+000	 4.8756884137e-001	 2.1349228841e+000
 1.4203882115e+000	 5.0250310483e-001	 2.0358774135e+000
 1.4150234454e+000	 5.1741739869e-001	 1.9349670373e+000
 1.4094890402e+000	 5.3230897211e-001	 1.8325661686e+000
 1.4037847904e+000	 5.4717505649e-001	 1.7290756431e+000
 1.3979105484e+000	 5.6201286685e-001	 1.6249203245e+000
 1.3918662249e+000	 5.7681960330e-001	 1.5205462459e+000
 1.3856517902e+000	 5.9159245253e-001	 1.4164172785e+000
 1.4656441104e+000	 4.5050764685e-001	 2.3676279820e+000
 1.4608717271e+000	 4.6575058273e-001	 2.2775644736e+000
 1.4559281109e+000	 4.8098147173e-001	 2.1845950653e+000
 1.4508128258e+000	 4.9619757688e-001	 2.0889901682e+000
 1.4455254909e+000	 5.1139613904e-001	 1.9910550044e+000
 1.4400657820e+000	 5.2657437818e-001	 1.8911286805e+000
 1.4344334318e+000	 5.4172949480e-001	 1.7895827865e+000
 1.4286282313e+000	 5.5685867128e-001	 1.6868194981e+000
 1.4226500300e+000	 5.7195907336e-001	 1.5832691661e+000
 1.4164987373e+000	 5.8702785160e-001	 1.4793873784e+000
 1.4101743228e+000	 6.0206214291e-001	 1.3756514847e+000
 1.1649479851e+000	 4.9736480731e-001	 2.1851037977e+000
 1.1595811979e+000	 5.0975194641e-001	 2.1172880130e+000
 1.1540715394e+000	 5.2210584754e-001	 2.0471962873e+000
 1.1484191381e+000	 5.3442412108e-001	 1.9749990122e+000
 1.1426241741e+000	 5.4670437139e-001	 1.9008613720e+000
 1.1366868794e+000	 5.5894419814e-001	 1.8249429702e+000
 1.1306075389e+000	 5.7114119775e-001	 1.7473975687e+000
 1.1243864900e+000	 5.8329296476e-001	 1.6683729429e+000
 1.1180241233e+000	 5.9539709325e-001	 1.5880108576e+000
 1.1115208828e+000	 6.0745117825e-001	 1.5064471644e+000
 1.1048772657e+000	 6.1945281727e-001	 1.4238120230e+000
 1.1894707936e+000	 5.0783461546e-001	 2.0459082123e+000
 1.1839910325e+000	 5.2048251078e-001	 1.9739001887e+000
 1.1783653926e+000	 5.3309646847e-001	 1.8996803196e+000
 1.1725940051e+000	 5.4567404858e-001	 1.8233713341e+000
 1.1666770538e+000	 5.5821280504e-001	 1.7450894707e+000
 1.1606147757e+000	 5.7071028701e-001	 1.6649441709e+000
 1.1544074617e+000	 5.8316404031e-001	 1.5830379018e+000
 1.1480554562e+000	 5.9557160883e-001	 1.4994661122e+000
 1.1415591582e+000	 6.0793053600e-001	 1.4143173269e+000
 1.1349190208e+000	 6.2023836626e-001	 1.3276733797e+000
 1.1281355518e+000	 6.3249264651e-001	 1.2396097884e+000
 1.2139935469e+000	 5.1830440006e-001	 1.9238492653e+000
 1.2084008122e+000	 5.3121305102e-001	 1.8472525051e+000
 1.2026591912e+000	 5.4408706467e-001	 1.7685873815e+000
 1.1967688177e+000	 5.5692395076e-001	 1.6879485448e+000
 1.1907298794e+000	 5.6972121280e-001	 1.6054222974e+000
 1.1845426183e+000	 5.8247634941e-001	 1.5210863150e+000
 1.1782073310e+000	 5.9518685581e-001	 1.4350095158e+000
 1.1717243693e+000	 6.0785022527e-001	 1.3472520832e+000
 1.1650941401e+000	 6.2046395056e-001	 1.2578656446e+000
 1.1583171062e+000	 6.3302552550e-001	 1.1668936107e+000
 1.1513937857e+000	 6.4553244642e-001	 1.0743716748e+000
 1.2385162512e+000	 5.2877416372e-001	 1.8172779587e+000
 1.2328105430e+000	 5.4194356980e-001	 1.7358240994e+000
 1.2269529411e+000	 5.5507763888e-001	 1.6525118145e+000
 1.2209435820e+000	 5.6817383045e-001	 1.5674262609e+000
 1.2147826569e+000	 5.8122959754e-001	 1.4806417963e+000
 1.2084704129e+000	 5.9424238828e-001	 1.3922216891e+000
 1.2020071527e+000	 6.0720964727e-001	 1.3022179991e+000
 1.1953932349e+000	 6.2012881715e-001	 1.2106716312e+000
 1.1886290750e+000	 6.3299734006e-001	 1.1176125690e+000
 1.1817151448e+000	 6.4581265917e-001	 1.0230602890e+000
 1.1746519730e+000	 6.5857222024e-001	 9.2702435851e-001
 1.2630389125e+000	 5.3924390905e-001	 1.7246870731e+000
 1.2572202312e+000	 5.5267406980e-001	 1.6382316952e+000
 1.2512466486e+000	 5.6606819387e-001	 1.5501829598e+000
 1.2451183039e+000	 5.7942369044e-001	 1.4606342047e+000
 1.2388353924e+000	 5.9273796215e-001	 1.3696648994e+000
 1.2323981657e+000	 6.0600840655e-001	 1.2773403085e+000
 1.2258069327e+000	 6.1923241769e-001	 1.1837113463e+000
 1.2190620592e+000	 6.3240738755e-001	 1.0888146301e+000
 1.2121639687e+000	 6.4553070762e-001	 9.9267273596e-001
 1.2051131424e+000	 6.5859977046e-001	 8.9529466119e-001
 1.1979101196e+000	 6.7161197125e-001	 7.9675909323e-001
 1.2875615371e+000	 5.4971363869e-001	 1.6447008030e+000
 1.2816298827e+000	 5.6340455370e-001	 1.5532200037e+000
 1.2755403196e+000	 5.7705873237e-001	 1.4604562122e+000
 1.2692929896e+000	 5.9067353357e-001	 1.3665277875e+000
 1.2628880917e+000	 6.0424630949e-001	 1.2715355108e+000
 1.2563258826e+000	 6.1777440718e-001	 1.1755621637e+000
 1.2496066770e+000	 6.3125517008e-001	 1.0786723229e+000
 1.2427308479e+000	 6.4468593953e-001	 9.8091237975e-001
 1.2356988270e+000	 6.5806405638e-001	 8.8231078960e-001
 1.2285111049e+000	 6.7138686257e-001	 7.8294434784e-001
 1.2211682313e+000	 6.8465170270e-001	 6.8346798494e-001
 1.3120841310e+000	 5.6018335524e-001	 1.5760654153e+000
 1.3060395037e+000	 5.7413502419e-001	 1.4796530725e+000
 1.2998339602e+000	 5.8804925714e-001	 1.3823049580e+000
 1.2934676450e+000	 6.0192336263e-001	 1.2841805315e+000
 1.2869407610e+000	 6.1575464245e-001	 1.1854172970e+000
 1.2802535696e+000	 6.2954039311e-001	 1.0861302589e+000
 1.2734063916e+000	 6.4327790744e-001	 9.8641162307e-001
 1.2663996071e+000	 6.5696447616e-001	 8.8633075045e-001
 1.2592336560e+000	 6.7059738948e-001	 7.8597399312e-001
 1.2519090382e+000	 6.8417393870e-001	 6.8592586585e-001
 1.2444263139e+000	 6.9769141785e-001	 5.8606197399e-001
 1.3366067004e+000	 5.7065306131e-001	 1.5175763030e+000
 1.3304491003e+000	 5.8486548396e-001	 1.4165064589e+000
 1.3241275766e+000	 5.9903977091e-001	 1.3148132851e+000
 1.3176422763e+000	 6.1317318045e-001	 1.2127772214e+000
 1.3109934062e+000	 6.2726296390e-001	 1.1105871805e+000
 1.3041812327e+000	 6.4130636726e-001	 1.0084043415e+000
 1.2972060824e+000	 6.5530063278e-001	 9.0636172276e-001
 1.2900683426e+000	 6.6924300052e-001	 8.0457876263e-001
 1.2827684614e+000	 6.8313071005e-001	 7.0358258890e-001
 1.2753069481e+000	 6.9696100204e-001	 6.0327949388e-001
 1.2676843733e+000	 7.1073111996e-001	 5.0325819296e-001
 1.3611292514e+000	 5.8112275954e-001	 1.4645619929e+000
 1.3548586787e+000	 5.9559593567e-001	 1.3610661316e+000
 1.3484211747e+000	 6.1003027645e-001	 1.2565338191e+000
 1.3418168895e+000	 6.2442298983e-001	 1.1514835946e+000
 1.3350460334e+000	 6.3877127672e-001	 1.0464274387e+000
 1.3281088778e+000	 6.5307233260e-001	 9.4185523425e-001
 1.3210057554e+000	 6.6732334910e-001	 8.3807212331e-001
 1.3137370603e+000	 6.8152151567e-001	 7.3555980627e-001
 1.3063032492e+000	 6.9566402121e-001	 6.3430815633e-001
 1.2987048405e+000	 7.0974805580e-001	 5.3387392698e-001
 1.2909424153e+000	 7.2377081230e-001	 4.3385300219e-001
 1.3856517902e+000	 5.9159245253e-001	 1.4164172785e+000
 1.3792682448e+000	 6.0632638202e-001	 1.3117566482e+000
 1.3727147607e+000	 6.2102077649e-001	 1.2058404035e+000
 1.3659914906e+000	 6.3567279358e-001	 1.0992689290e+000
 1.3590986486e+000	 6.5027958379e-001	 9.9263720728e-001
 1.3520365110e+000	 6.6483829205e-001	 8.8652868045e-001
 1.3448054164e+000	 6.7934605941e-001	 7.8170868391e-001
 1.3374057663e+000	 6.9380002467e-001	 6.7863663923e-001
 1.3298380252e+000	 7.0819732611e-001	 5.7714122241e-001
 1.3221027211e+000	 7.2253510315e-001	 4.7665133363e-001
 1.3142004456e+000	 7.3681049811e-001	 3.7672271868e-001
 1.4101743228e+000	 6.0206214291e-001	 1.3756514847e+000
 1.4036778048e+000	 6.1705682569e-001	 1.2711698731e+000
 1.3970083406e+000	 6.3201127378e-001	 1.1651552579e+000
 1.3901660856e+000	 6.4692259452e-001	 1.0583029920e+000
 1.3831512578e+000	 6.6178788798e-001	 9.5130465095e-001
 1.3759641382e+000	 6.7660424856e-001	 8.4494780289e-001
 1.3686050715e+000	 6.9136876671e-001	 7.3986608676e-001
 1.3610744663e+000	 7.0607853061e-001	 6.3597813920e-001
 1.3533727953e+000	 7.2073062788e-001	 5.3320718316e-001
 1.3455005959e+000	 7.3532214732e-001	 4.3152317894e-001
 1.3374584701e+000	 7.4985018066e-001	 3.3094351955e-001
 1.1048772657e+000	 6.1945281727e-001	 1.4238120230e+000
 1.0980927950e+000	 6.3140139974e-001	 1.3406722427e+000
 1.0911690624e+000	 6.4329272745e-001	 1.2574371929e+000
 1.0841067275e+000	 6.5512441360e-001	 1.1739568503e+000
 1.0769065033e+000	 6.6689407973e-001	 1.0900791334e+000
 1.0695691567e+000	 6.7859935721e-001	 1.0063823240e+000
 1.0620955081e+000	 6.9023788874e-001	 9.2331421838e-001
 1.0544864310e+000	 7.0180732985e-001	 8.4062030771e-001
 1.0467428524e+000	 7.1330535038e-001	 7.5807589184e-001
 1.0388657520e+000	 7.2472963597e-001	 6.7548708807e-001
 1.0308561619e+000	 7.3607788956e-001	 5.9269175227e-001
 1.1281355518e+000	 6.3249264651e-001	 1.2396097884e+000
 1.1212082642e+000	 6.4469275334e-001	 1.1506990441e+000
 1.1141387832e+000	 6.5683440017e-001	 1.0614890384e+000
 1.1069277821e+000	 6.6891514995e-001	 9.7199432225e-001
 1.0995759892e+000	 6.8093257415e-001	 8.8307572478e-001
 1.0920841874e+000	 6.9288425429e-001	 7.9504904137e-001
 1.0844532142e+000	 7.0476778344e-001	 7.0777221174e-001
 1.0766839618e+000	 7.1658076777e-001	 6.2113405211e-001
 1.0687773766e+000	 7.2832082808e-001	 5.3505514468e-001
 1.0607344587e+000	 7.3998560129e-001	 4.4948863454e-001
 1.0525562623e+000	 7.5157274199e-001	 3.6442092958e-001
 1.1513937857e+000	 6.4553244642e-001	 1.0743716748e+000
 1.1443236814e+000	 6.5798407704e-001	 9.8084787398e-001
 1.1371084523e+000	 6.7037604242e-001	 8.8701385660e-001
 1.1297487855e+000	 6.8270585527e-001	 7.9386692904e-001
 1.1222454241e+000	 6.9497103699e-001	 7.0166932483e-001
 1.1145991674e+000	 7.0716911923e-001	 6.1036760360e-001
 1.1068108701e+000	 7.1929764545e-001	 5.1994046564e-001
 1.0988814427e+000	 7.3135417246e-001	 4.3039956852e-001
 1.0908118511e+000	 7.4333627200e-001	 3.4179024613e-001
 1.0826031163e+000	 7.5524153229e-001	 2.5419212552e-001
 1.0742563139e+000	 7.6706755955e-001	 1.6771963747e-001
 1.1746519730e+000	 6.5857222024e-001	 9.2702435851e-001
 1.1674390524e+000	 6.7127537416e-001	 8.3008663070e-001
 1.1600780755e+000	 6.8391765760e-001	 7.3375441268e-001
 1.1525697432e+000	 6.9649653302e-001	 6.3828037889e-001
 1.1449148137e+000	 7.0900947176e-001	 5.4367684484e-001
 1.1371141023e+000	 7.2145395561e-001	 4.4998962670e-001
 1.1291684812e+000	 7.3382747840e-001	 3.5729883029e-001
 1.1210788792e+000	 7.4612754760e-001	 2.6571953787e-001
 1.1128462816e+000	 7.5835168590e-001	 1.7540238801e-001
 1.1044717301e+000	 7.7049743278e-001	 8.6534043658e-002
 1.0959563221e+000	 7.8256234613e-001	-6.6245565855e-004
 1.1979101196e+000	 6.7161197125e-001	 7.9675909323e-001
 1.1905543830e+000	 6.8456664802e-001	 6.9825680406e-001
 1.1830476584e+000	 6.9745924908e-001	 6.0042649813e-001
 1.1753906609e+000	 7.1028718663e-001	 5.0332440257e-001
 1.1675841636e+000	 7.2304788196e-001	 4.0704160325e-001
 1.1596289979e+000	 7.3573876698e-001	 3.1170484976e-001
 1.1515260532e+000	 7.4835728592e-001	 2.1747725459e-001
 1.1432762768e+000	 7.6090089688e-001	 1.2455888109e-001
 1.1348806736e+000	 7.7336707351e-001	 3.3187214926e-002
 1.1263403057e+000	 7.8575330657e-001	-5.6362485821e-002
 1.1176562923e+000	 7.9805710559e-001	-1.4377696618e-001
 1.2211682313e+000	 6.8465170270e-001	 6.8346798494e-001
 1.2136696789e+000	 6.9785790195e-001	 5.8415312814e-001
 1.2060172070e+000	 7.1100082024e-001	 4.8535829937e-001
 1.1982115444e+000	 7.2407781956e-001	 3.8719899193e-001
 1.1902534795e+000	 7.3708627110e-001	 2.8982768177e-001
 1.1821438597e+000	 7.5002355694e-001	 1.9343458210e-001
 1.1738835917e+000	 7.6288707165e-001	 9.8248283507e-002
 1.1654736412e+000	 7.7567422401e-001	 4.5362735564e-003
 1.1569150325e+000	 7.8838243861e-001	-8.7394669558e-002
 1.1482088484e+000	 8.0100915748e-001	-1.7719821443e-001
 1.1393562299e+000	 8.1355184181e-001	-2.6448834944e-001
 1.2444263139e+000	 6.9769141785e-001	 5.8606197399e-001
 1.2367849459e+000	 7.1114913926e-001	 4.8631180213e-001
 1.2289867268e+000	 7.2454237448e-001	 3.8697537358e-001
 1.2210323994e+000	 7.3786843525e-001	 2.8821092864e-001
 1.2129227671e+000	 7.5112464270e-001	 1.9021571093e-001
 1.2046586934e+000	 7.6430832903e-001	 9.3226702078e-002
 1.1962411022e+000	 7.7741683922e-001	-2.4787668627e-003
 1.1876709778e+000	 7.9044753268e-001	-9.6582533632e-002
 1.1789493638e+000	 8.0339778493e-001	-1.8872525850e-001
 1.1700773638e+000	 8.1626498933e-001	-2.7850621895e-001
 1.1610561405e+000	 8.2904655867e-001	-3.6548325026e-001
 1.2676843733e+000	 7.1073111996e-001	 5.0325819296e-001
 1.2599001897e+000	 7.2444036328e-001	 4.0335620805e-001
 1.2519562236e+000	 7.3808391518e-001	 3.0379891692e-001
 1.2438532316e+000	 7.5165903715e-001	 2.0477145672e-001
 1.2355920320e+000	 7.6516300026e-001	 1.0649990169e-001
 1.2271735045e+000	 7.7859308685e-001	 9.2520081801e-003
 1.2185985904e+000	 7.9194659226e-001	-8.6662172106e-002
 1.2098682922e+000	 8.0522082657e-001	-1.8088981766e-001
 1.2009836731e+000	 8.1841311625e-001	-2.7303500793e-001
 1.1919458574e+000	 8.3152080591e-001	-3.6265854518e-001
 1.1827560293e+000	 8.4454126003e-001	-4.4927793273e-001
 1.2909424153e+000	 7.2377081230e-001	 4.3385300219e-001
 1.2830154163e+000	 7.3773157734e-001	 3.3399655886e-001
 1.2749257032e+000	 7.5162544573e-001	 2.3444494773e-001
 1.2666740467e+000	 7.6544962871e-001	 1.3539495487e-001
 1.2582612799e+000	 7.7920134729e-001	 3.7086165855e-002
 1.2496882988e+000	 7.9287783395e-001	-6.0198248090e-002
 1.2409560618e+000	 8.0647633441e-001	-1.5613088445e-001
 1.2320655899e+000	 8.1999410938e-001	-2.5033961176e-001
 1.2230179659e+000	 8.3342843630e-001	-3.4240722698e-001
 1.2138143345e+000	 8.4677661106e-001	-4.3187127435e-001
 1.2044559019e+000	 8.6003594977e-001	-5.1822403156e-001
 1.3142004456e+000	 7.3681049811e-001	 3.7672271868e-001
 1.3061306312e+000	 7.5102278475e-001	 2.7703027834e-001
 1.2978951713e+000	 7.6516696950e-001	 1.7762429150e-001
 1.2894948503e+000	 7.7924021338e-001	 7.8698484607e-002
 1.2809305164e+000	 7.9323968730e-001	-1.9508809549e-002
 1.2722030818e+000	 8.0716257390e-001	-1.1671379391e-001
 1.2633135221e+000	 8.2100606929e-001	-2.1258649820e-001
 1.2542628766e+000	 8.3476738481e-001	-3.0675022727e-001
 1.2450522477e+000	 8.4844374884e-001	-3.9878117456e-001
 1.2356828007e+000	 8.6203240858e-001	-4.8820820770e-001
 1.2261557636e+000	 8.7553063176e-001	-5.7451283284e-001
 1.3374584701e+000	 7.4985018066e-001	 3.3094351955e-001
 1.3292458404e+000	 7.6431398883e-001	 2.3134302407e-001
 1.3208646337e+000	 7.7870848989e-001	 1.3214326977e-001
 1.3123156482e+000	 7.9303079459e-001	 3.3402107728e-002
 1.3035997473e+000	 8.0727802380e-001	-6.4657649935e-002
 1.2947178591e+000	 8.2144731029e-001	-1.6176585743e-001
 1.2856709767e+000	 8.3553580053e-001	-2.5760423189e-001
 1.2764601577e+000	 8.4954065654e-001	-3.5180571667e-001
 1.2670865240e+000	 8.6345905763e-001	-4.4395402009e-001
 1.2575512615e+000	 8.7728820228e-001	-5.3358333736e-001
 1.2478556198e+000	 8.9102530988e-001	-6.2017826313e-001
 1.0308561619e+000	 7.3607788956e-001	 5.9269175227e-001
 1.0227151665e+000	 7.4734783261e-001	 5.0951526492e-001
 1.0144439005e+000	 7.5853720581e-001	 4.2608457087e-001
 1.0060435498e+000	 7.6964377126e-001	 3.4272986351e-001
 9.9751535112e-001	 7.8066531416e-001	 2.5980208652e-001
 9.8886059143e-001	 7.9159964427e-001	 1.7767266937e-001
 9.8008060741e-001	 8.0244459730e-001	 9.6733178969e-002
 9.7117678475e-001	 8.1319803631e-001	 1.7394887496e-002
 9.6215055747e-001	 8.2385785312e-001	-5.9911743159e-002
 9.5300340716e-001	 8.3442196966e-001	-1.3473765954e-001
 9.4373686216e-001	 8.4488833928e-001	-2.0661589611e-001
 1.0525562623e+000	 7.5157274199e-001	 3.6442092958e-001
 1.0442438944e+000	 7.6307992366e-001	 2.7948993504e-001
 1.0357985136e+000	 7.7450483944e-001	 1.9457149903e-001
 1.0272213308e+000	 7.8584520432e-001	 1.1004918169e-001
 1.0185136087e+000	 7.9709875688e-001	 2.6326196751e-002
 1.0096766615e+000	 8.0826326077e-001	-5.6174962300e-002
 1.0007118539e+000	 8.1933650614e-001	-1.3701298348e-001
 9.9162060078e-001	 8.3031631108e-001	-2.1572828488e-001
 9.8240436636e-001	 8.4120052302e-001	-2.9184365002e-001
 9.7306466339e-001	 8.5198702013e-001	-3.6486494887e-001
 9.6360305242e-001	 8.6267371270e-001	-4.3428194302e-001
 1.0742563139e+000	 7.6706755955e-001	 1.6771963747e-001
 1.0657725738e+000	 7.7881197931e-001	 8.1779405856e-002
 1.0571530786e+000	 7.9047243714e-001	-4.0401089934e-003
 1.0483990641e+000	 8.0204660093e-001	-8.9310443813e-002
 1.0395118191e+000	 8.1353216263e-001	-1.7358354803e-001
 1.0304926847e+000	 8.2492683979e-001	-2.5639224962e-001
 1.0213430540e+000	 8.3622837699e-001	-3.3725081437e-001
 1.0120643708e+000	 8.4743454733e-001	-4.1565559816e-001
 1.0026581297e+000	 8.5854315389e-001	-4.9108579175e-001
 9.9312587450e-001	 8.6955203108e-001	-5.6300425669e-001
 9.8346919799e-001	 8.8045904610e-001	-6.3085845071e-001
 1.0959563221e+000	 7.8256234613e-001	-6.6245565855e-004
 1.0873012102e+000	 7.9454400350e-001	-8.7036041194e-002
 1.0785076010e+000	 8.0644000291e-001	-1.7330279784e-001
 1.0695767551e+000	 8.1824796514e-001	-2.5899731276e-001
 1.0605099875e+000	 8.2996553551e-001	-3.4363364570e-001
 1.0513086664e+000	 8.4159038547e-001	-4.2670587016e-001
 1.0419742128e+000	 8.5312021405e-001	-5.0768871595e-001
 1.0325081000e+000	 8.6455274935e-001	-5.8603831298e-001
 1.0229118525e+000	 8.7588575008e-001	-6.6119303544e-001
 1.0131870455e+000	 8.8711700690e-001	-7.3257444510e-001
 1.0033353038e+000	 8.9824434394e-001	-7.9958833162e-001
 1.1176562923e+000	 7.9805710559e-001	-1.4377696618e-001
 1.1088298089e+000	 8.1027600016e-001	-2.3016697725e-001
 1.0998620859e+000	 8.2240754074e-001	-3.1655266395e-001
 1.0907544091e+000	 8.3444930100e-001	-4.0243915030e-001
 1.0815081192e+000	 8.4639887964e-001	-4.8730910730e-001
 1.0721246116e+000	 8.5825390200e-001	-5.7062335276e-001
 1.0626053355e+000	 8.7001202155e-001	-6.5182156294e-001
 1.0529517933e+000	 8.8167092142e-001	-7.3032309577e-001
 1.0431655398e+000	 8.9322831592e-001	-8.0552792491e-001
 1.0332481814e+000	 9.0468195199e-001	-8.7681768301e-001
 1.0232013749e+000	 9.1602961065e-001	-9.4355681234e-001
 1.1393562299e+000	 8.1355184181e-001	-2.6448834944e-001
 1.1303583753e+000	 8.2600797323e-001	-3.5062728031e-001
 1.1212165389e+000	 8.3837505462e-001	-4.3692243385e-001
 1.1119320312e+000	 8.5065061256e-001	-5.2285653013e-001
 1.1025062193e+000	 8.6283219912e-001	-6.0788694263e-001
 1.0929405255e+000	 8.7491739353e-001	-6.9144634045e-001
 1.0832364273e+000	 8.8690380371e-001	-7.7294345495e-001
 1.0733954560e+000	 8.9878906781e-001	-8.5176397067e-001
 1.0634191968e+000	 9.1057085575e-001	-9.2727153982e-001
 1.0533092871e+000	 9.2224687073e-001	-9.9880891872e-001
 1.0430674162e+000	 9.3381485069e-001	-1.0656992240e+000
 1.1610561405e+000	 8.2904655867e-001	-3.6548325026e-001
 1.1518869148e+000	 8.4173992663e-001	-4.5124426872e-001
 1.1425709651e+000	 8.5434254855e-001	-5.3735213655e-001
 1.1331096269e+000	 8.6685190386e-001	-6.2327383861e-001
 1.1235042932e+000	 8.7926549806e-001	-7.0844716635e-001
 1.1137564135e+000	 8.9158086424e-001	-7.9228138624e-001
 1.1038674932e+000	 9.0379556476e-001	-8.7415804749e-001
 1.0938390932e+000	 9.1590719280e-001	-9.5343192911e-001
 1.0836728285e+000	 9.2791337390e-001	-1.0294321257e+000
 1.0733703679e+000	 9.3981176752e-001	-1.1014632702e+000
 1.0629334326e+000	 9.5160006850e-001	-1.1688068920e+000
 1.1827560293e+000	 8.4454126003e-001	-4.4927793273e-001
 1.1734154328e+000	 8.5747186430e-001	-5.3466681210e-001
 1.1639253700e+000	 8.7031002650e-001	-6.2059767901e-001
 1.1542872015e+000	 8.8305317897e-001	-7.0652809573e-001
 1.1445023461e+000	 8.9569878056e-001	-7.9188164304e-001
 1.1345722806e+000	 9.0824431828e-001	-8.7604859872e-001
 1.1244985386e+000	 9.2068730893e-001	-9.5838677254e-001
 1.1142827099e+000	 9.3302530068e-001	-1.0382224981e+000
 1.1039264399e+000	 9.4525587472e-001	-1.1148517809e+000
 1.0934314285e+000	 9.5737664674e-001	-1.1875416009e+000
 1.0827994292e+000	 9.6938526853e-001	-1.2555313681e+000
 1.2044559019e+000	 8.6003594977e-001	-5.1822403156e-001
 1.1949439347e+000	 8.7320379017e-001	-6.0337167450e-001
 1.1852797589e+000	 8.8627749248e-001	-6.8923758892e-001
 1.1754647601e+000	 8.9925444193e-001	-7.7527590304e-001
 1.1655003833e+000	 9.1213205075e-001	-8.6090104365e-001
 1.1553881321e+000	 9.2490775983e-001	-9.4548840849e-001
 1.1451295685e+000	 9.3757904042e-001	-1.0283752148e+000
 1.1347263113e+000	 9.5014339572e-001	-1.1088615245e+000
 1.1241800362e+000	 9.6259836252e-001	-1.1862114456e+000
 1.1134924741e+000	 9.7494151279e-001	-1.2596545087e+000
 1.1026654109e+000	 9.8717045521e-001	-1.3283872157e+000
 1.2261557636e+000	 8.7553063176e-001	-5.7451283284e-001
 1.2164724257e+000	 8.8893570818e-001	-6.5966830908e-001
 1.2066341371e+000	 9.0224495048e-001	-7.4567815211e-001
 1.1966423081e+000	 9.1545569679e-001	-8.3199875075e-001
 1.1864984099e+000	 9.2856531271e-001	-9.1804014742e-001
 1.1762039732e+000	 9.4157119305e-001	-1.0031666884e+000
 1.1657605880e+000	 9.5447076347e-001	-1.0866978721e+000
 1.1551699025e+000	 9.6726148220e-001	-1.1679093961e+000
 1.1444336223e+000	 9.7994084166e-001	-1.2460344036e+000
 1.1335535097e+000	 9.9250637006e-001	-1.3202649268e+000
 1.1225313827e+000	 1.0049556330e+000	-1.3897535257e+000
 1.2478556198e+000	 8.9102530988e-001	-6.2017826313e-001
 1.2380009114e+000	 9.0466762225e-001	-7.0570229246e-001
 1.2279885099e+000	 9.1821240449e-001	-7.9215713978e-001
 1.2178198509e+000	 9.3165694760e-001	-8.7900688349e-001
 1.2074964313e+000	 9.4499857057e-001	-9.6566169046e-001
 1.1970198092e+000	 9.5823462210e-001	-1.0514784277e+000
 1.1863916024e+000	 9.7136248230e-001	-1.1357614965e+000
 1.1756134885e+000	 9.8437956441e-001	-1.2177638905e+000
 1.1646872033e+000	 9.9728331646e-001	-1.2966884771e+000
 1.1536145402e+000	 1.0100712229e+000	-1.3716895027e+000
 1.1423973494e+000	 1.0227408064e+000	-1.4418750930e+000
 9.4373686216e-001	 8.4488833928e-001	-2.0661589611e-001
 9.3435391325e-001	 8.5525340088e-001	-2.7796899195e-001
 9.2485479875e-001	 8.6551675343e-001	-3.5115639046e-001
 9.1524118220e-001	 8.7567645404e-001	-4.2556281766e-001
 9.0551477026e-001	 8.8573059636e-001	-5.0056191757e-001
 8.9567731170e-001	 8.9567731170e-001	-5.7551756604e-001
 8.8573059636e-001	 9.0551477026e-001	-6.4978524044e-001
 8.7567645404e-001	 9.1524118220e-001	-7.2271344050e-001
 8.6551675343e-001	 9.2485479875e-001	-7.9364515500e-001
 8.5525340088e-001	 9.3435391325e-001	-8.6191936934e-001
 8.4488833928e-001	 9.4373686216e-001	-9.2687260786e-001
 9.6360305242e-001	 8.6267371270e-001	-4.3428194302e-001
 9.5402258718e-001	 8.7325696466e-001	-5.0256764789e-001
 9.4432351099e-001	 8.8373636653e-001	-5.7217290464e-001
 9.3450752243e-001	 8.9410993455e-001	-6.4250190281e-001
 9.2457636406e-001	 9.0437572220e-001	-7.1294599126e-001
 9.1453182148e-001	 9.1453182148e-001	-7.8288502898e-001
 9.0437572220e-001	 9.2457636406e-001	-8.5168879960e-001
 8.9410993455e-001	 9.3450752243e-001	-9.1871848492e-001
 8.8373636653e-001	 9.4432351099e-001	-9.8332819173e-001
 8.7325696466e-001	 9.5402258718e-001	-1.0448665265e+000
 8.6267371270e-001	 9.6360305242e-001	-1.1026782114e+000
 9.8346919799e-001	 8.8045904610e-001	-6.3085845071e-001
 9.7369121686e-001	 8.9126048793e-001	-6.9709785890e-001
 9.6379217943e-001	 9.0195593865e-001	-7.6419140838e-001
 9.5377381930e-001	 9.1254337358e-001	-8.3156333100e-001
 9.4363791497e-001	 9.2302080609e-001	-8.9862304817e-001
 9.3338628884e-001	 9.3338628884e-001	-9.6476655726e-001
 9.2302080609e-001	 9.4363791497e-001	-1.0293778907e+000
 9.1254337358e-001	 9.5377381930e-001	-1.0918306426e+000
 9.0195593865e-001	 9.6379217943e-001	-1.1514895572e+000
 8.9126048793e-001	 9.7369121686e-001	-1.2077121726e+000
 8.8045904610e-001	 9.8346919799e-001	-1.2598505140e+000
 1.0033353038e+000	 8.9824434394e-001	-7.9958833162e-001
 9.9335980720e-001	 9.0926397520e-001	-8.6460598433e-001
 9.8326080894e-001	 9.2017547433e-001	-9.3006033873e-001
 9.7304007765e-001	 9.3097677575e-001	-9.9539585484e-001
 9.6269942776e-001	 9.4166585269e-001	-1.0600399913e+000
 9.5224071848e-001	 9.5224071848e-001	-1.1234046266e+000
 9.4166585269e-001	 9.6269942776e-001	-1.1848875632e+000
 9.3097677575e-001	 9.7304007765e-001	-1.2438741084e+000
 9.2017547433e-001	 9.8326080894e-001	-1.2997387263e+000
 9.0926397520e-001	 9.9335980720e-001	-1.3518467542e+000
 8.9824434394e-001	 1.0033353038e+000	-1.3995561764e+000
 1.0232013749e+000	 9.1602961065e-001	-9.4355681234e-001
 1.0130283631e+000	 9.2726743097e-001	-1.0080015695e+000
 1.0027294044e+000	 9.3839497813e-001	-1.0725125507e+000
 9.9230630228e-001	 9.4941014566e-001	-1.1365542546e+000
 9.8176090719e-001	 9.6031086667e-001	-1.1995717551e+000
 9.7109511514e-001	 9.7109511514e-001	-1.2609921578e+000
 9.6031086667e-001	 9.8176090719e-001	-1.3202261498e+000
 9.4941014566e-001	 9.9230630228e-001	-1.3766696365e+000
 9.3839497813e-001	 1.0027294044e+000	-1.4297054609e+000
 9.2726743097e-001	 1.0130283631e+000	-1.4787051952e+000
 9.1602961065e-001	 1.0232013749e+000	-1.5230310007e+000
 1.0430674162e+000	 9.3381485069e-001	-1.0656992240e+000
 1.0326968896e+000	 9.4527085973e-001	-1.1300633027e+000
 1.0221979706e+000	 9.5661445460e-001	-1.1941694330e+000
 1.0115724980e+000	 9.6784348792e-001	-1.2575016023e+000
 1.0008223580e+000	 9.7895585267e-001	-1.3195217066e+000
 9.8994948351e-001	 9.8994948351e-001	-1.3796710413e+000
 9.7895585267e-001	 1.0008223580e+000	-1.4373718988e+000
 9.6784348792e-001	 1.0115724980e+000	-1.4920292646e+000
 9.5661445460e-001	 1.0221979706e+000	-1.5430326055e+000
 9.4527085973e-001	 1.0326968896e+000	-1.5897577435e+000
 9.3381485069e-001	 1.0430674162e+000	-1.6315688056e+000
 1.0629334326e+000	 9.5160006850e-001	-1.1688068920e+000
 1.0523653914e+000	 9.6327426599e-001	-1.2334432707e+000
 1.0416665125e+000	 9.7483390829e-001	-1.2975435226e+000
 1.0308386697e+000	 9.8627680714e-001	-1.3606102290e+000
 1.0198837850e+000	 9.9760081538e-001	-1.4221209552e+000
 1.0088038283e+000	 1.0088038283e+000	-1.4815297789e+000
 9.9760081538e-001	 1.0198837850e+000	-1.5382689362e+000
 9.8627680714e-001	 1.0308386697e+000	-1.5917505802e+000
 9.7483390829e-001	 1.0416665125e+000	-1.6413686440e+000
 9.6327426599e-001	 1.0523653914e+000	-1.6865008002e+000
 9.5160006850e-001	 1.0629334326e+000	-1.7265105093e+000
 1.0827994292e+000	 9.6938526853e-001	-1.2555313681e+000
 1.0720338736e+000	 9.8127765425e-001	-1.3206697307e+000
 1.0611350349e+000	 9.9305334377e-001	-1.3850398128e+000
 1.0501048220e+000	 1.0047101079e+000	-1.4481615613e+000
 1.0389451930e+000	 1.0162457594e+000	-1.5095267124e+000
 1.0276581543e+000	 1.0276581543e+000	-1.5686003576e+000
 1.0162457594e+000	 1.0389451930e+000	-1.6248226425e+000
 1.0047101079e+000	 1.0501048220e+000	-1.6776105912e+000
 9.9305334377e-001	 1.0611350349e+000	-1.7263600491e+000
 9.8127765425e-001	 1.0720338736e+000	-1.7704477349e+000
 9.6938526853e-001	 1.0827994292e+000	-1.8092333937e+000
 1.1026654109e+000	 9.8717045521e-001	-1.3283872157e+000
 1.0917023410e+000	 9.9928102900e-001	-1.3941485862e+000
 1.0806035428e+000	 1.0112727656e+000	-1.4589559172e+000
 1.0693709600e+000	 1.0231433949e+000	-1.5223449712e+000
 1.0580065867e+000	 1.0348906895e+000	-1.5838198199e+000
 1.0465124661e+000	 1.0465124661e+000	-1.6428543965e+000
 1.0348906895e+000	 1.0580065867e+000	-1.6988945191e+000
 1.0231433949e+000	 1.0693709600e+000	-1.7513592477e+000
 1.0112727656e+000	 1.0806035428e+000	-1.7996434507e+000
 9.9928102900e-001	 1.0917023410e+000	-1.8431196874e+000
 9.8717045521e-001	 1.1026654109e+000	-1.8811405277e+000
 1.1225313827e+000	 1.0049556330e+000	-1.3897535257e+000
 1.1113707986e+000	 1.0172843948e+000	-1.4561644332e+000
 1.1000720409e+000	 1.0294921783e+000	-1.5214817217e+000
 1.0886370883e+000	 1.0415766726e+000	-1.5852560300e+000
 1.0770679708e+000	 1.0535356103e+000	-1.6470016033e+000
 1.0653667685e+000	 1.0653667685e+000	-1.7061988635e+000
 1.0535356103e+000	 1.0770679708e+000	-1.7622962228e+000
 1.0415766726e+000	 1.0886370883e+000	-1.8147120554e+000
 1.0294921783e+000	 1.1000720409e+000	-1.8628368171e+000
 1.0172843948e+000	 1.1113707986e+000	-1.9060353054e+000
 1.0049556330e+000	 1.1225313827e+000	-1.9436503288e+000
 1.1423973494e+000	 1.0227408064e+000	-1.4418750930e+000
 1.1310392512e+000	 1.0352877560e+000	-1.5088769500e+000
 1.1195405341e+000	 1.0477115864e+000	-1.5746955984e+000
 1.1079032118e+000	 1.0600099458e+000	-1.6388925468e+000
 1.0961293502e+000	 1.0721805264e+000	-1.7009897331e+000
 1.0842210662e+000	 1.0842210662e+000	-1.7604712186e+000
 1.0721805264e+000	 1.0961293502e+000	-1.8167850658e+000
 1.0600099458e+000	 1.1079032118e+000	-1.8693453918e+000
 1.0477115864e+000	 1.1195405341e+000	-1.9175345879e+000
 1.0352877560e+000	 1.1310392512e+000	-1.9607056952e+000
 1.0227408064e+000	 1.1423973494e+000	-1.9981849255e+000
 8.4488833928e-001	 9.4373686216e-001	-9.2687260786e-001
 8.3442196966e-001	 9.5300340716e-001	-9.9101965837e-001
 8.2385785312e-001	 9.6215055747e-001	-1.0569555069e+000
 8.1319803631e-001	 9.7117678475e-001	-1.1241639917e+000
 8.0244459730e-001	 9.8008060741e-001	-1.1921294894e+000
 7.9159964427e-001	 9.8886059143e-001	-1.2603383640e+000
 7.8066531416e-001	 9.9751535112e-001	-1.3282804180e+000
 7.6964377126e-001	 1.0060435498e+000	-1.3954503368e+000
 7.5853720581e-001	 1.0144439005e+000	-1.4613491231e+000
 7.4734783261e-001	 1.0227151665e+000	-1.5254855116e+000
 7.3607788956e-001	 1.0308561619e+000	-1.5873773606e+000
 8.6267371270e-001	 9.6360305242e-001	-1.1026782114e+000
 8.5198702013e-001	 9.7306466339e-001	-1.1592686056e+000
 8.4120052302e-001	 9.8240436636e-001	-1.2172465506e+000
 8.3031631108e-001	 9.9162060078e-001	-1.2761321801e+000
 8.1933650614e-001	 1.0007118539e+000	-1.3354428589e+000
 8.0826326077e-001	 1.0096766615e+000	-1.3946946768e+000
 7.9709875688e-001	 1.0185136087e+000	-1.4534039532e+000
 7.8584520432e-001	 1.0272213308e+000	-1.5110887430e+000
 7.7450483944e-001	 1.0357985136e+000	-1.5672703369e+000
 7.6307992366e-001	 1.0442438944e+000	-1.6214747508e+000
 7.5157274199e-001	 1.0525562623e+000	-1.6732341959e+000
 8.8045904610e-001	 9.8346919799e-001	-1.2598505140e+000
 8.6955203108e-001	 9.9312587450e-001	-1.3103648555e+000
 8.5854315389e-001	 1.0026581297e+000	-1.3618160963e+000
 8.4743454733e-001	 1.0120643708e+000	-1.4137221322e+000
 8.3622837699e-001	 1.0213430540e+000	-1.4655962415e+000
 8.2492683979e-001	 1.0304926847e+000	-1.5169486919e+000
 8.1353216263e-001	 1.0395118191e+000	-1.5672883616e+000
 8.0204660093e-001	 1.0483990641e+000	-1.6161243671e+000
 7.9047243714e-001	 1.0571530786e+000	-1.6629676892e+000
 7.7881197931e-001	 1.0657725738e+000	-1.7073327908e+000
 7.6706755955e-001	 1.0742563139e+000	-1.7487392177e+000
 8.9824434394e-001	 1.0033353038e+000	-1.3995561764e+000
 8.8711700690e-001	 1.0131870455e+000	-1.4452768165e+000
 8.7588575008e-001	 1.0229118525e+000	-1.4914917065e+000
 8.6455274935e-001	 1.0325081000e+000	-1.5376797380e+000
 8.5312021405e-001	 1.0419742128e+000	-1.5833147284e+000
 8.4159038547e-001	 1.0513086664e+000	-1.6278672054e+000
 8.2996553551e-001	 1.0605099875e+000	-1.6708062093e+000
 8.1824796514e-001	 1.0695767551e+000	-1.7116011024e+000
 8.0644000291e-001	 1.0785076010e+000	-1.7497233783e+000
 7.9454400350e-001	 1.0873012102e+000	-1.7846484623e+000
 7.8256234613e-001	 1.0959563221e+000	-1.8158574945e+000
 9.1602961065e-001	 1.0232013749e+000	-1.5230310007e+000
 9.0468195199e-001	 1.0332481814e+000	-1.5650647998e+000
 8.9322831592e-001	 1.0431655398e+000	-1.6072112025e+000
 8.8167092142e-001	 1.0529517933e+000	-1.6488749317e+000
 8.7001202155e-001	 1.0626053355e+000	-1.6894565078e+000
 8.5825390200e-001	 1.0721246116e+000	-1.7283542762e+000
 8.4639887964e-001	 1.0815081192e+000	-1.7649664521e+000
 8.3444930100e-001	 1.0907544091e+000	-1.7986931720e+000
 8.2240754074e-001	 1.0998620859e+000	-1.8289385432e+000
 8.1027600016e-001	 1.1088298089e+000	-1.8551126816e+000
 7.9805710559e-001	 1.1176562923e+000	-1.8766337275e+000
 9.3381485069e-001	 1.0430674162e+000	-1.6315688056e+000
 9.2224687073e-001	 1.0533092871e+000	-1.6708681261e+000
 9.1057085575e-001	 1.0634191968e+000	-1.7100084415e+000
 8.9878906781e-001	 1.0733954560e+000	-1.7482865939e+000
 8.8690380371e-001	 1.0832364273e+000	-1.7849973633e+000
 8.7491739353e-001	 1.0929405255e+000	-1.8194358019e+000
 8.6283219912e-001	 1.1025062193e+000	-1.8508995838e+000
 8.5065061256e-001	 1.1119320312e+000	-1.8786913579e+000
 8.3837505462e-001	 1.1212165389e+000	-1.9021210947e+000
 8.2600797323e-001	 1.1303583753e+000	-1.9205084153e+000
 8.1355184181e-001	 1.1393562299e+000	-1.9331848918e+000
 9.5160006850e-001	 1.0629334326e+000	-1.7265105093e+000
 9.3981176752e-001	 1.0733703679e+000	-1.7638926424e+000
 9.2791337390e-001	 1.0836728285e+000	-1.8009996604e+000
 9.1590719280e-001	 1.0938390932e+000	-1.8369881275e+000
 9.0379556476e-001	 1.1038674932e+000	-1.8710158978e+000
 8.9158086424e-001	 1.1137564135e+000	-1.9022448208e+000
 8.7926549806e-001	 1.1235042932e+000	-1.9298434574e+000
 8.6685190386e-001	 1.1331096269e+000	-1.9529897940e+000
 8.5434254855e-001	 1.1425709651e+000	-1.9708739427e+000
 8.4173992663e-001	 1.1518869148e+000	-1.9827008159e+000
 8.2904655867e-001	 1.1610561405e+000	-1.9876927623e+000
 9.6938526853e-001	 1.0827994292e+000	-1.8092333937e+000
 9.5737664674e-001	 1.0934314285e+000	-1.8453985985e+000
 9.4525587472e-001	 1.1039264399e+000	-1.8813703143e+000
 9.3302530068e-001	 1.1142827099e+000	-1.9161336188e+000
 9.2068730893e-001	 1.1244985386e+000	-1.9486793902e+000
 9.0824431828e-001	 1.1345722806e+000	-1.9780074474e+000
 8.9569878056e-001	 1.1445023461e+000	-2.0031296934e+000
 8.8305317897e-001	 1.1542872015e+000	-2.0230732501e+000
 8.7031002650e-001	 1.1639253700e+000	-2.0368835689e+000
 8.5747186430e-001	 1.1734154328e+000	-2.0436275043e+000
 8.4454126003e-001	 1.1827560293e+000	-2.0423963382e+000
 9.8717045521e-001	 1.1026654109e+000	-1.8811405277e+000
 9.7494151279e-001	 1.1134924741e+000	-1.9166888373e+000
 9.6259836252e-001	 1.1241800362e+000	-1.9523623461e+000
 9.5014339572e-001	 1.1347263113e+000	-1.9869445105e+000
 9.3757904042e-001	 1.1451295685e+000	-2.0192302052e+000
 9.2490775983e-001	 1.1553881321e+000	-2.0480293613e+000
 9.1213205075e-001	 1.1655003833e+000	-2.0721705997e+000
 8.9925444193e-001	 1.1754647601e+000	-2.0905048443e+000
 8.8627749248e-001	 1.1852797589e+000	-2.1019089006e+000
 8.7320379017e-001	 1.1949439347e+000	-2.1052889835e+000
 8.6003594977e-001	 1.2044559019e+000	-2.0995841799e+000
 1.0049556330e+000	 1.1225313827e+000	-1.9436503288e+000
 9.9250637006e-001	 1.1335535097e+000	-1.9790972587e+000
 9.7994084166e-001	 1.1444336223e+000	-2.0152618346e+000
 9.6726148220e-001	 1.1551699025e+000	-2.0506967235e+000
 9.5447076347e-001	 1.1657605880e+000	-2.0839726872e+000
 9.4157119305e-001	 1.1762039732e+000	-2.1136827818e+000
 9.2856531271e-001	 1.1864984099e+000	-2.1384465416e+000
 9.1545569679e-001	 1.1966423081e+000	-2.1569141315e+000
 9.0224495048e-001	 1.2066341371e+000	-2.1677704496e+000
 8.8893570818e-001	 1.2164724257e+000	-2.1697391643e+000
 8.7553063176e-001	 1.2261557636e+000	-2.1615866683e+000
 1.0227408064e+000	 1.1423973494e+000	-1.9981849255e+000
 1.0100712229e+000	 1.1536145402e+000	-2.0339775253e+000
 9.9728331646e-001	 1.1646872033e+000	-2.0713869743e+000
 9.8437956441e-001	 1.1756134885e+000	-2.1087081719e+000
 9.7136248230e-001	 1.1863916024e+000	-2.1442604797e+000
 9.5823462210e-001	 1.1970198092e+000	-2.1763938666e+000
 9.4499857057e-001	 1.2074964313e+000	-2.2034937051e+000
 9.3165694760e-001	 1.2178198509e+000	-2.2239855215e+000
 9.1821240449e-001	 1.2279885099e+000	-2.2363396818e+000
 9.0466762225e-001	 1.2380009114e+000	-2.2390759920e+000
 8.9102530988e-001	 1.2478556198e+000	-2.2307681969e+000
 7.3607788956e-001	 1.0308561619e+000	-1.5873773606e+000
 7.2472963597e-001	 1.0388657520e+000	-1.6486054647e+000
 7.1330535038e-001	 1.0467428524e+000	-1.7107477199e+000
 7.0180732985e-001	 1.0544864310e+000	-1.7733449307e+000
 6.9023788874e-001	 1.0620955081e+000	-1.8359650640e+000
 6.7859935721e-001	 1.0695691567e+000	-1.8982044167e+000
 6.6689407973e-001	 1.0769065033e+000	-1.9596886997e+000
 6.5512441360e-001	 1.0841067275e+000	-2.0186182873e+000
 6.4329272745e-001	 1.0911690624e+000	-2.0730759405e+000
 6.3140139974e-001	 1.0980927950e+000	-2.1226986262e+000
 6.1945281727e-001	 1.1048772657e+000	-2.1671463755e+000
 7.5157274199e-001	 1.0525562623e+000	-1.6732341959e+000
 7.3998560129e-001	 1.0607344587e+000	-1.7245203013e+000
 7.2832082808e-001	 1.0687773766e+000	-1.7771638517e+000
 7.1658076777e-001	 1.0766839618e+000	-1.8305160672e+000
 7.0476778344e-001	 1.0844532142e+000	-1.8839624804e+000
 6.9288425429e-001	 1.0920841874e+000	-1.9369244797e+000
 6.8093257415e-001	 1.0995759892e+000	-1.9888607494e+000
 6.6891514995e-001	 1.1069277821e+000	-2.0392686025e+000
 6.5683440017e-001	 1.1141387832e+000	-2.0866389172e+000
 6.4469275334e-001	 1.1212082642e+000	-2.1284591948e+000
 6.3249264651e-001	 1.1281355518e+000	-2.1642018860e+000
 7.6706755955e-001	 1.0742563139e+000	-1.7487392177e+000
 7.5524153229e-001	 1.0826031163e+000	-1.7896875812e+000
 7.4333627200e-001	 1.0908118511e+000	-1.8324360448e+000
 7.3135417246e-001	 1.0988814427e+000	-1.8761747139e+000
 7.1929764545e-001	 1.1068108701e+000	-1.9201345784e+000
 7.0716911923e-001	 1.1145991674e+000	-1.9635894051e+000
 6.9497103699e-001	 1.1222454241e+000	-2.0058575101e+000
 6.8270585527e-001	 1.1297487855e+000	-2.0463034036e+000
 6.7037604242e-001	 1.1371084523e+000	-2.0843393023e+000
 6.5798407704e-001	 1.1443236814e+000	-2.1186206915e+000
 6.4553244642e-001	 1.1513937857e+000	-2.1462953619e+000
 7.8256234613e-001	 1.0959563221e+000	-1.8158574945e+000
 7.7049743278e-001	 1.1044717301e+000	-1.8464696942e+000
 7.5835168590e-001	 1.1128462816e+000	-1.8792944834e+000
 7.4612754760e-001	 1.1210788792e+000	-1.9133874406e+000
 7.3382747840e-001	 1.1291684812e+000	-1.9478510595e+000
 7.2145395561e-001	 1.1371141023e+000	-1.9818369680e+000
 7.0900947176e-001	 1.1449148137e+000	-2.0145480092e+000
 6.9649653302e-001	 1.1525697432e+000	-2.0452401782e+000
 6.8391765760e-001	 1.1600780755e+000	-2.0732244066e+000
 6.7127537416e-001	 1.1674390524e+000	-2.0978681902e+000
 6.5857222024e-001	 1.1746519730e+000	-2.1179071628e+000
 7.9805710559e-001	 1.1176562923e+000	-1.8766337275e+000
 7.8575330657e-001	 1.1263403057e+000	-1.8972843474e+000
 7.7336707351e-001	 1.1348806736e+000	-1.9205023886e+000
 7.6090089688e-001	 1.1432762768e+000	-1.9452337205e+000
 7.4835728592e-001	 1.1515260532e+000	-1.9704766535e+000
 7.3573876698e-001	 1.1596289979e+000	-1.9952844616e+000
 7.2304788196e-001	 1.1675841636e+000	-2.0187677527e+000
 7.1028718663e-001	 1.1753906609e+000	-2.0400966774e+000
 6.9745924908e-001	 1.1830476584e+000	-2.0585029684e+000
 6.8456664802e-001	 1.1905543830e+000	-2.0732818041e+000
 6.7161197125e-001	 1.1979101196e+000	-2.0837934887e+000
 8.1355184181e-001	 1.1393562299e+000	-1.9331848918e+000
 8.0100915748e-001	 1.1482088484e+000	-1.9446000684e+000
 7.8838243861e-001	 1.1569150325e+000	-1.9588541952e+000
 7.7567422401e-001	 1.1654736412e+000	-1.9748065828e+000
 7.6288707165e-001	 1.1738835917e+000	-1.9913740340e+000
 7.5002355694e-001	 1.1821438597e+000	-2.0075336522e+000
 7.3708627110e-001	 1.1902534795e+000	-2.0223254825e+000
 7.2407781956e-001	 1.1982115444e+000	-2.0348549759e+000
 7.1100082024e-001	 1.2060172070e+000	-2.0442952667e+000
 6.9785790195e-001	 1.2136696789e+000	-2.0498892574e+000
 6.8465170270e-001	 1.2211682313e+000	-2.0509515016e+000
 8.2904655867e-001	 1.1610561405e+000	-1.9876927623e+000
 8.1626498933e-001	 1.1700773638e+000	-1.9909312869e+000
 8.0339778493e-001	 1.1789493638e+000	-1.9971730253e+000
 7.9044753268e-001	 1.1876709778e+000	-2.0052122997e+000
 7.7741683922e-001	 1.1962411022e+000	-2.0139055318e+000
 7.6430832903e-001	 1.2046586934e+000	-2.0221743207e+000
 7.5112464270e-001	 1.2129227671e+000	-2.0290083385e+000
 7.3786843525e-001	 1.2210323994e+000	-2.0334680345e+000
 7.2454237448e-001	 1.2289867268e+000	-2.0346871378e+000
 7.1114913926e-001	 1.2367849459e+000	-2.0318749494e+000
 6.9769141785e-001	 1.2444263139e+000	-2.0243184156e+000
 8.4454126003e-001	 1.1827560293e+000	-2.0423963382e+000
 8.3152080591e-001	 1.1919458574e+000	-2.0388330495e+000
 8.1841311625e-001	 1.2009836731e+000	-2.0383075455e+000
 8.0522082657e-001	 1.2098682922e+000	-2.0395692307e+000
 7.9194659226e-001	 1.2185985904e+000	-2.0414338008e+000
 7.7859308685e-001	 1.2271735045e+000	-2.0427865743e+000
 7.6516300026e-001	 1.2355920320e+000	-2.0425856297e+000
 7.5165903715e-001	 1.2438532316e+000	-2.0398647379e+000
 7.3808391518e-001	 1.2519562236e+000	-2.0337360761e+000
 7.2444036328e-001	 1.2599001897e+000	-2.0233927173e+000
 7.1073111996e-001	 1.2676843733e+000	-2.0081108830e+000
 8.6003594977e-001	 1.2044559019e+000	-2.0995841799e+000
 8.4677661106e-001	 1.2138143345e+000	-2.0908954130e+000
 8.3342843630e-001	 1.2230179659e+000	-2.0851282876e+000
 8.1999410938e-001	 1.2320655899e+000	-2.0810059323e+000
 8.0647633441e-001	 1.2409560618e+000	-2.0773215678e+000
 7.9287783395e-001	 1.2496882988e+000	-2.0729420806e+000
 7.7920134729e-001	 1.2582612799e+000	-2.0668113904e+000
 7.6544962871e-001	 1.2666740467e+000	-2.0579535984e+000
 7.5162544573e-001	 1.2749257032e+000	-2.0454759052e+000
 7.3773157734e-001	 1.2830154163e+000	-2.0285712868e+000
 7.2377081230e-001	 1.2909424153e+000	-2.0065209183e+000
 8.7553063176e-001	 1.2261557636e+000	-2.1615866683e+000
 8.6203240858e-001	 1.2356828007e+000	-2.1497375569e+000
 8.4844374884e-001	 1.2450522477e+000	-2.1405234987e+000
 8.3476738481e-001	 1.2542628766e+000	-2.1326586218e+000
 8.2100606929e-001	 1.2633135221e+000	-2.1249305806e+000
 8.0716257390e-001	 1.2722030818e+000	-2.1162043614e+000
 7.9323968730e-001	 1.2809305164e+000	-2.1054258707e+000
 7.7924021338e-001	 1.2894948503e+000	-2.0916252921e+000
 7.6516696950e-001	 1.2978951713e+000	-2.0739201986e+000
 7.5102278475e-001	 1.3061306312e+000	-2.0515184087e+000
 7.3681049811e-001	 1.3142004456e+000	-2.0237205750e+000
 8.9102530988e-001	 1.2478556198e+000	-2.2307681969e+000
 8.7728820228e-001	 1.2575512615e+000	-2.2180016487e+000
 8.6345905763e-001	 1.2670865240e+000	-2.2073945779e+000
 8.4954065654e-001	 1.2764601577e+000	-2.1976680763e+000
 8.3553580053e-001	 1.2856709767e+000	-2.1876198516e+000
 8.2144731029e-001	 1.2947178591e+000	-2.1761282569e+000
 8.0727802380e-001	 1.3035997473e+000	-2.1621560933e+000
 7.9303079459e-001	 1.3123156482e+000	-2.1447541689e+000
 7.7870848989e-001	 1.3208646337e+000	-2.1230645994e+000
 7.6431398883e-001	 1.3292458404e+000	-2.0963238398e+000
 7.4985018066e-001	 1.3374584701e+000	-2.0639741592e+000
 6.1945281727e-001	 1.1048772657e+000	-2.1671463755e+000
 6.0745117825e-001	 1.1115208828e+000	-2.2092295162e+000
 5.9539709325e-001	 1.1180241233e+000	-2.2516624976e+000
 5.8329296476e-001	 1.1243864900e+000	-2.2939894177e+000
 5.7114119775e-001	 1.1306075389e+000	-2.3357942513e+000
 5.5894419814e-001	 1.1366868794e+000	-2.3767012099e+000
 5.4670437139e-001	 1.1426241741e+000	-2.4163750905e+000
 5.3442412108e-001	 1.1484191381e+000	-2.4545216104e+000
 5.2210584754e-001	 1.1540715394e+000	-2.4908877268e+000
 5.0975194641e-001	 1.1595811979e+000	-2.5252619387e+000
 4.9736480731e-001	 1.1649479851e+000	-2.5574745674e+000
 6.3249264651e-001	 1.1281355518e+000	-2.1642018860e+000
 6.2023836626e-001	 1.1349190208e+000	-2.1969398695e+000
 6.0793053600e-001	 1.1415591582e+000	-2.2297460067e+000
 5.9557160883e-001	 1.1480554562e+000	-2.2621849015e+000
 5.8316404031e-001	 1.1544074617e+000	-2.2938639200e+000
 5.7071028701e-001	 1.1606147757e+000	-2.3244335117e+000
 5.5821280504e-001	 1.1666770538e+000	-2.3535875244e+000
 5.4567404858e-001	 1.1725940051e+000	-2.3810635101e+000
 5.3309646847e-001	 1.1783653926e+000	-2.4066430204e+000
 5.2048251078e-001	 1.1839910325e+000	-2.4301518884e+000
 5.0783461546e-001	 1.1894707936e+000	-2.4514604935e+000
 6.4553244642e-001	 1.1513937857e+000	-2.1462953619e+000
 6.3302552550e-001	 1.1583171062e+000	-2.1705045052e+000
 6.2046395056e-001	 1.1650941401e+000	-2.1946118761e+000
 6.0785022527e-001	 1.1717243693e+000	-2.2182017169e+000
 5.9518685581e-001	 1.1782073310e+000	-2.2409031602e+000
 5.8247634941e-001	 1.1845426183e+000	-2.2623905229e+000
 5.6972121280e-001	 1.1907298794e+000	-2.2823836013e+000
 5.5692395076e-001	 1.1967688177e+000	-2.3006479644e+000
 5.4408706467e-001	 1.2026591912e+000	-2.3169952433e+000
 5.3121305102e-001	 1.2084008122e+000	-2.3312834139e+000
 5.1830440006e-001	 1.2139935469e+000	-2.3434170678e+000
 6.5857222024e-001	 1.1746519730e+000	-2.1179071628e+000
 6.4581265917e-001	 1.1817151448e+000	-2.1343806659e+000
 6.3299734006e-001	 1.1886290750e+000	-2.1506633044e+000
 6.2012881715e-001	 1.1953932349e+000	-2.1663581813e+000
 6.0720964727e-001	 1.2020071527e+000	-2.1811146660e+000
 5.9424238828e-001	 1.2084704129e+000	-2.1946286738e+000
 5.8122959754e-001	 1.2147826569e+000	-2.2066429541e+000
 5.6817383045e-001	 1.2209435820e+000	-2.2169473885e+000
 5.5507763888e-001	 1.2269529411e+000	-2.2253792926e+000
 5.4194356980e-001	 1.2328105430e+000	-2.2318237193e+000
 5.2877416372e-001	 1.2385162512e+000	-2.2362137597e+000
 6.7161197125e-001	 1.1979101196e+000	-2.0837934887e+000
 6.5859977046e-001	 1.2051131424e+000	-2.0930492510e+000
 6.4553070762e-001	 1.2121639687e+000	-2.1023233171e+000
 6.3240738755e-001	 1.2190620592e+000	-2.1109910064e+000
 6.1923241769e-001	 1.2258069327e+000	-2.1187204788e+000
 6.0600840655e-001	 1.2323981657e+000	-2.1252270634e+000
 5.9273796215e-001	 1.2388353924e+000	-2.1302735558e+000
 5.7942369044e-001	 1.2451183039e+000	-2.1336705363e+000
 5.6606819387e-001	 1.2512466486e+000	-2.1352767027e+000
 5.5267406980e-001	 1.2572202312e+000	-2.1349992164e+000
 5.3924390905e-001	 1.2630389125e+000	-2.1327940548e+000
 6.8465170270e-001	 1.2211682313e+000	-2.0509515016e+000
 6.7138686257e-001	 1.2285111049e+000	-2.0512480438e+000
 6.5806405638e-001	 1.2356988270e+000	-2.0540487478e+000
 6.4468593953e-001	 1.2427308479e+000	-2.0564690980e+000
 6.3125517008e-001	 1.2496066770e+000	-2.0579754048e+000
 6.1777440718e-001	 1.2563258826e+000	-2.0583002973e+000
 6.0424630949e-001	 1.2628880917e+000	-2.0572237798e+000
 5.9067353357e-001	 1.2692929896e+000	-2.0545735855e+000
 5.7705873237e-001	 1.2755403196e+000	-2.0502255616e+000
 5.6340455370e-001	 1.2816298827e+000	-2.0441040779e+000
 5.4971363869e-001	 1.2875615371e+000	-2.0361824548e+000
 6.9769141785e-001	 1.2444263139e+000	-2.0243184156e+000
 6.8417393870e-001	 1.2519090382e+000	-2.0158265468e+000
 6.7059738948e-001	 1.2592336560e+000	-2.0104905063e+000
 6.5696447616e-001	 1.2663996071e+000	-2.0072052922e+000
 6.4327790744e-001	 1.2734063916e+000	-2.0031784081e+000
 6.2954039311e-001	 1.2802535696e+000	-1.9980093621e+000
 6.1575464245e-001	 1.2869407610e+000	-1.9914925808e+000
 6.0192336263e-001	 1.2934676450e+000	-1.9834694547e+000
 5.8804925714e-001	 1.2998339602e+000	-1.9738287916e+000
 5.7413502419e-001	 1.3060395037e+000	-1.9625073121e+000
 5.6018335524e-001	 1.3120841310e+000	-1.9494901771e+000
 7.1073111996e-001	 1.2676843733e+000	-2.0081108830e+000
 6.9696100204e-001	 1.2753069481e+000	-1.9917069607e+000
 6.8313071005e-001	 1.2827684614e+000	-1.9782944689e+000
 6.6924300052e-001	 1.2900683426e+000	-1.9677281322e+000
 6.5530063278e-001	 1.2972060824e+000	-1.9586822393e+000
 6.4130636726e-001	 1.3041812327e+000	-1.9485707887e+000
 6.2726296390e-001	 1.3109934062e+000	-1.9371380424e+000
 6.1317318045e-001	 1.3176422763e+000	-1.9242355798e+000
 5.9903977091e-001	 1.3241275766e+000	-1.9097610048e+000
 5.8486548396e-001	 1.3304491003e+000	-1.8936585482e+000
 5.7065306131e-001	 1.3366067004e+000	-1.8758847578e+000
 7.2377081230e-001	 1.2909424153e+000	-2.0065209183e+000
 7.0974805580e-001	 1.2987048405e+000	-1.9831155094e+000
 6.9566402121e-001	 1.3063032492e+000	-1.9624468499e+000
 6.8152151567e-001	 1.3137370603e+000	-1.9443899221e+000
 6.6732334910e-001	 1.3210057554e+000	-1.9289051839e+000
 6.5307233260e-001	 1.3281088778e+000	-1.9142643224e+000
 6.3877127672e-001	 1.3350460334e+000	-1.8982870337e+000
 6.2442298983e-001	 1.3418168895e+000	-1.8808309835e+000
 6.1003027645e-001	 1.3484211747e+000	-1.8616489755e+000
 5.9559593567e-001	 1.3548586787e+000	-1.8405141512e+000
 5.8112275954e-001	 1.3611292514e+000	-1.8172643421e+000
 7.3681049811e-001	 1.3142004456e+000	-2.0237205750e+000
 7.2253510315e-001	 1.3221027211e+000	-1.9942609945e+000
 7.0819732611e-001	 1.3298380252e+000	-1.9671685942e+000
 6.9380002467e-001	 1.3374057663e+000	-1.9424004030e+000
 6.7934605941e-001	 1.3448054164e+000	-1.9201674432e+000
 6.6483829205e-001	 1.3520365110e+000	-1.9003354676e+000
 6.5027958379e-001	 1.3590986486e+000	-1.8804013697e+000
 6.3567279358e-001	 1.3659914906e+000	-1.8585938983e+000
 6.2102077649e-001	 1.3727147607e+000	-1.8346273339e+000
 6.0632638202e-001	 1.3792682448e+000	-1.8082784389e+000
 5.9159245253e-001	 1.3856517902e+000	-1.7793905364e+000
 7.4985018066e-001	 1.3374584701e+000	-2.0639741592e+000
 7.3532214732e-001	 1.3455005959e+000	-2.0301965518e+000
 7.2073062788e-001	 1.3533727953e+000	-1.9987766925e+000
 7.0607853061e-001	 1.3610744663e+000	-1.9693776684e+000
 6.9136876671e-001	 1.3686050715e+000	-1.9417612373e+000
 6.7660424856e-001	 1.3759641382e+000	-1.9157885752e+000
 6.6178788798e-001	 1.3831512578e+000	-1.8912034499e+000
 6.4692259452e-001	 1.3901660856e+000	-1.8650762010e+000
 6.3201127378e-001	 1.3970083406e+000	-1.8362607179e+000
 6.1705682569e-001	 1.4036778048e+000	-1.8045320720e+000
 6.0206214291e-001	 1.4101743228e+000	-1.7697338274e+000
 4.9736480731e-001	 1.1649479851e+000	-2.5574745674e+000
 4.8494494752e-001	 1.1701725973e+000	-2.5875560933e+000
 4.7249659800e-001	 1.1752541932e+000	-2.6156654573e+000
 4.6002212396e-001	 1.1801927979e+000	-2.6419000592e+000
 4.4752387933e-001	 1.1849884863e+000	-2.6663957293e+000
 4.3500420550e-001	 1.1896413827e+000	-2.6893266236e+000
 4.2246543011e-001	 1.1941516598e+000	-2.7109050902e+000
 4.0990986582e-001	 1.1985195382e+000	-2.7313815057e+000
 3.9733980923e-001	 1.2027452861e+000	-2.7510440754e+000
 3.8475753968e-001	 1.2068292178e+000	-2.7702185965e+000
 3.7216531816e-001	 1.2107716938e+000	-2.7892681798e+000
 5.0783461546e-001	 1.1894707936e+000	-2.4514604935e+000
 4.9515331066e-001	 1.1948053868e+000	-2.4706060542e+000
 4.8244291640e-001	 1.1999939531e+000	-2.4877482759e+000
 4.6970584769e-001	 1.2050365182e+000	-2.5030163538e+000
 4.5694450800e-001	 1.2099331586e+000	-2.5165826630e+000
 4.4416128801e-001	 1.2146840010e+000	-2.5286626350e+000
 4.3135856436e-001	 1.2192892220e+000	-2.5395146037e+000
 4.1853869841e-001	 1.2237490467e+000	-2.5494396181e+000
 4.0570403507e-001	 1.2280637489e+000	-2.5587812156e+000
 3.9285690169e-001	 1.2322336498e+000	-2.5679251548e+000
 3.7999960685e-001	 1.2362591171e+000	-2.5772991018e+000
 5.1830440006e-001	 1.2139935469e+000	-2.3434170678e+000
 5.0536165083e-001	 1.2194381209e+000	-2.3534766483e+000
 4.9238921242e-001	 1.2247336574e+000	-2.3616626868e+000
 4.7938954962e-001	 1.2298801827e+000	-2.3681353641e+000
 4.6636511547e-001	 1.2348777747e+000	-2.3731019477e+000
 4.5331834992e-001	 1.2397265631e+000	-2.3768166727e+000
 4.4025167860e-001	 1.2444267276e+000	-2.3795805926e+000
 4.2716751158e-001	 1.2489784985e+000	-2.3817413934e+000
 4.1406824210e-001	 1.2533821548e+000	-2.3836931695e+000
 4.0095624548e-001	 1.2576380245e+000	-2.3858761538e+000
 3.8783387790e-001	 1.2617464830e+000	-2.3887763999e+000
 5.2877416372e-001	 1.2385162512e+000	-2.2362137597e+000
 5.1556997059e-001	 1.2440708057e+000	-2.2387039917e+000
 5.0233548855e-001	 1.2494733122e+000	-2.2395700850e+000
 4.8907323219e-001	 1.2547237974e+000	-2.2390021528e+000
 4.7578570410e-001	 1.2598223410e+000	-2.2372404817e+000
 4.6247539351e-001	 1.2647690750e+000	-2.2345754408e+000
 4.4914477506e-001	 1.2695641830e+000	-2.2313473624e+000
 4.3579630749e-001	 1.2742078998e+000	-2.2279463866e+000
 4.2243243239e-001	 1.2787005101e+000	-2.2248122660e+000
 4.0905557307e-001	 1.2830423485e+000	-2.2224341254e+000
 3.9566813330e-001	 1.2872337979e+000	-2.2213501694e+000
 5.3924390905e-001	 1.2630389125e+000	-2.1327940548e+000
 5.2577827248e-001	 1.2687034474e+000	-2.1289156708e+000
 5.1228174727e-001	 1.2742129237e+000	-2.1237438568e+000
 4.9875689782e-001	 1.2795673687e+000	-2.1174973517e+000
 4.8520627624e-001	 1.2847668636e+000	-2.1104473526e+000
 4.7163242108e-001	 1.2898115431e+000	-2.1029174777e+000
 4.5803785596e-001	 1.2947015944e+000	-2.0952837030e+000
 4.4442508830e-001	 1.2994372569e+000	-2.0879742660e+000
 4.3079660805e-001	 1.3040188211e+000	-2.0814695294e+000
 4.1715488648e-001	 1.3084466280e+000	-2.0763018000e+000
 4.0350237498e-001	 1.3127210682e+000	-2.0730550959e+000
 5.4971363869e-001	 1.2875615371e+000	-2.0361824548e+000
 5.3598655906e-001	 1.2933360522e+000	-2.0268359571e+000
 5.2222799108e-001	 1.2989524981e+000	-2.0165725361e+000
 5.0844054892e-001	 1.3044109027e+000	-2.0056379846e+000
 4.9462683425e-001	 1.3097113488e+000	-1.9943320520e+000
 4.8078943491e-001	 1.3148539736e+000	-1.9830084874e+000
 4.6693092352e-001	 1.3198389681e+000	-1.9720750599e+000
 4.5305385617e-001	 1.3246665762e+000	-1.9619935501e+000
 4.3916077117e-001	 1.3293370941e+000	-1.9532797047e+000
 4.2525418775e-001	 1.3338508694e+000	-1.9464995234e+000
 4.1133660491e-001	 1.3382083003e+000	-1.9419868710e+000
 5.6018335524e-001	 1.3120841310e+000	-1.9494901771e+000
 5.4619483288e-001	 1.3179686261e+000	-1.9352899280e+000
 5.3217422245e-001	 1.3236920416e+000	-1.9205621039e+000
 5.1812418791e-001	 1.3292544057e+000	-1.9055777033e+000
 5.0404738049e-001	 1.3346558028e+000	-1.8906488562e+000
 4.8994643730e-001	 1.3398963729e+000	-1.8758467784e+000
 4.7582397996e-001	 1.3449763104e+000	-1.8614314403e+000
 4.6168261326e-001	 1.3498958639e+000	-1.8478473476e+000
 4.4752492382e-001	 1.3546553354e+000	-1.8356141469e+000
 4.3335347890e-001	 1.3592550790e+000	-1.8253262254e+000
 4.1917082505e-001	 1.3636955006e+000	-1.8176520053e+000
 5.7065306131e-001	 1.3366067004e+000	-1.8758847578e+000
 5.5640309649e-001	 1.3426011755e+000	-1.8568681257e+000
 5.4212044388e-001	 1.3484315603e+000	-1.8372799797e+000
 5.2780781723e-001	 1.3540978838e+000	-1.8173087405e+000
 5.1346791731e-001	 1.3596002319e+000	-1.7972196933e+000
 4.9910343053e-001	 1.3649387471e+000	-1.7773559804e+000
 4.8471702751e-001	 1.3701136275e+000	-1.7581392207e+000
 4.7031136171e-001	 1.3751251265e+000	-1.7400697639e+000
 4.5588906812e-001	 1.3799735514e+000	-1.7237265864e+000
 4.4145276194e-001	 1.3846592633e+000	-1.7097668378e+000
 4.2700503735e-001	 1.3891826753e+000	-1.6989250519e+000
 5.8112275954e-001	 1.3611292514e+000	-1.8172643421e+000
 5.6661135245e-001	 1.3672337064e+000	-1.7925864590e+000
 5.5206665785e-001	 1.3731710605e+000	-1.7673633729e+000
 5.3749143928e-001	 1.3789413433e+000	-1.7418255972e+000
 5.2288844706e-001	 1.3845446423e+000	-1.7162836929e+000
 5.0826041690e-001	 1.3899811025e+000	-1.6911293627e+000
 4.9361006839e-001	 1.3952509258e+000	-1.6668361349e+000
 4.7894010370e-001	 1.4003543701e+000	-1.6439596415e+000
 4.6425320614e-001	 1.4052917485e+000	-1.6231375012e+000
 4.4955203891e-001	 1.4100634284e+000	-1.6050888172e+000
 4.3483924378e-001	 1.4146698310e+000	-1.5906133038e+000
 5.9159245253e-001	 1.3856517902e+000	-1.7793905364e+000
 5.7681960330e-001	 1.3918662249e+000	-1.7488277294e+000
 5.6201286685e-001	 1.3979105484e+000	-1.7176735336e+000
 5.4717505649e-001	 1.4037847904e+000	-1.6862003478e+000
 5.3230897211e-001	 1.4094890402e+000	-1.6547637058e+000
 5.1741739869e-001	 1.4150234454e+000	-1.6238034890e+000
 5.0250310483e-001	 1.4203882115e+000	-1.5938446858e+000
 4.8756884137e-001	 1.4255836011e+000	-1.5654977030e+000
 4.7261733998e-001	 1.4306099329e+000	-1.5394582410e+000
 4.5765131184e-001	 1.4354675809e+000	-1.5165067449e+000
 4.4267344629e-001	 1.4401569739e+000	-1.4975074463e+000
 6.0206214291e-001	 1.4101743228e+000	-1.7697338274e+000
 5.8702785160e-001	 1.4164987373e+000	-1.7329096956e+000
 5.7195907336e-001	 1.4226500300e+000	-1.6953495080e+000
 5.5685867128e-001	 1.4286282313e+000	-1.6573670788e+000
 5.4172949480e-001	 1.4344334318e+000	-1.6193624265e+000
 5.2657437818e-001	 1.4400657820e+000	-1.5818231213e+000
 5.1139613904e-001	 1.4455254909e+000	-1.5453251309e+000
 4.9619757688e-001	 1.4508128258e+000	-1.5105331739e+000
 4.8098147173e-001	 1.4559281109e+000	-1.4782005915e+000
 4.6575058273e-001	 1.4608717271e+000	-1.4491687517e+000
 4.5050764685e-001	 1.4656441104e+000	-1.4243660038e+000
 3.7216531816e-001	 1.2107716938e+000	-2.7892681798e+000
 3.5956538610e-001	 1.2145731190e+000	-2.8065614929e+000
 3.4695996377e-001	 1.2182339414e+000	-2.8206598968e+000
 3.3435124988e-001	 1.2217546522e+000	-2.8322602084e+000
 3.2174142079e-001	 1.2251357850e+000	-2.8420812296e+000
 3.0913262957e-001	 1.2283779150e+000	-2.8508630892e+000
 2.9652700510e-001	 1.2314816584e+000	-2.8593665563e+000
 2.8392665122e-001	 1.2344476710e+000	-2.8683723238e+000
 2.7133364591e-001	 1.2372766476e+000	-2.8786802579e+000
 2.5875004047e-001	 1.2399693210e+000	-2.8911086153e+000
 2.4617785878e-001	 1.2425264611e+000	-2.9064932231e+000
 3.7999960685e-001	 1.2362591171e+000	-2.5772991018e+000
 3.6713443915e-001	 1.2401405644e+000	-2.5849975363e+000
 3.5426366561e-001	 1.2438784492e+000	-2.5893376842e+000
 3.4138953122e-001	 1.2474732729e+000	-2.5911298318e+000
 3.2851425815e-001	 1.2509255804e+000	-2.5912067571e+000
 3.1564004480e-001	 1.2542359591e+000	-2.5904230201e+000
 3.0276906487e-001	 1.2574050380e+000	-2.5896542251e+000
 2.8990346648e-001	 1.2604334868e+000	-2.5897962509e+000
 2.7704537134e-001	 1.2633220150e+000	-2.5917644484e+000
 2.6419687395e-001	 1.2660713707e+000	-2.5964928019e+000
 2.5136004078e-001	 1.2686823400e+000	-2.6049330529e+000
 3.8783387790e-001	 1.2617464830e+000	-2.3887763999e+000
 3.7470347516e-001	 1.2657079522e+000	-2.3901368941e+000
 3.6156735101e-001	 1.2695228992e+000	-2.3879471534e+000
 3.4842779672e-001	 1.2731918357e+000	-2.3831153276e+000
 3.3528708028e-001	 1.2767153178e+000	-2.3765731937e+000
 3.2214744540e-001	 1.2800939450e+000	-2.3692754152e+000
 3.0901111059e-001	 1.2833283593e+000	-2.3621987723e+000
 2.9588026828e-001	 1.2864192442e+000	-2.3563413586e+000
 2.8275708392e-001	 1.2893673238e+000	-2.3527217415e+000
 2.6964369517e-001	 1.2921733617e+000	-2.3523780835e+000
 2.5654221113e-001	 1.2948381601e+000	-2.3563672236e+000
 3.9566813330e-001	 1.2872337979e+000	-2.2213501694e+000
 3.8227249605e-001	 1.2912752890e+000	-2.2189012920e+000
 3.6887102181e-001	 1.2951672980e+000	-2.2126927309e+000
 3.5546604815e-001	 1.2989103471e+000	-2.2037152791e+000
 3.4205988886e-001	 1.3025050036e+000	-2.1929851015e+000
 3.2865483298e-001	 1.3059518792e+000	-2.1815429869e+000
 3.1525314384e-001	 1.3092516287e+000	-2.1704535660e+000
 3.0185705814e-001	 1.3124049496e+000	-2.1608044939e+000
 2.8846878507e-001	 1.3154125805e+000	-2.1537055912e+000
 2.7509050550e-001	 1.3182753004e+000	-2.1502879425e+000
 2.6172437110e-001	 1.3209939278e+000	-2.1517029482e+000
 4.0350237498e-001	 1.3127210682e+000	-2.0730550959e+000
 3.8984150368e-001	 1.3168425809e+000	-2.0686422119e+000
 3.7617467983e-001	 1.3208116519e+000	-2.0602524034e+000
 3.6250428726e-001	 1.3246288135e+000	-2.0489442008e+000
 3.4883268559e-001	 1.3282946443e+000	-2.0358038448e+000
 3.3516220917e-001	 1.3318097681e+000	-2.0219445531e+000
 3.2149516616e-001	 1.3351748528e+000	-2.0084485160e+000
 3.0783383753e-001	 1.3383906095e+000	-1.9962252814e+000
 2.9418047623e-001	 1.3414577916e+000	-1.9864680247e+000
 2.8053730629e-001	 1.3443771935e+000	-1.9804353797e+000
 2.6690652201e-001	 1.3471496498e+000	-1.9794135485e+000
 4.1133660491e-001	 1.3382083003e+000	-1.9419868710e+000
 3.9741049996e-001	 1.3424098346e+000	-1.9360382987e+000
 3.8347832689e-001	 1.3464559673e+000	-1.9254273444e+000
 3.6954251581e-001	 1.3503472413e+000	-1.9112888261e+000
 3.5560547216e-001	 1.3540842463e+000	-1.8948011671e+000
 3.4166957560e-001	 1.3576676183e+000	-1.8771843876e+000
 3.2773717911e-001	 1.3610980380e+000	-1.8596979484e+000
 3.1381060796e-001	 1.3643762305e+000	-1.8436384600e+000
 2.9989215883e-001	 1.3675029637e+000	-1.8303372762e+000
 2.8598409892e-001	 1.3704790474e+000	-1.8211579871e+000
 2.7208866515e-001	 1.3733053326e+000	-1.8174938279e+000
 4.1917082505e-001	 1.3636955006e+000	-1.8176520053e+000
 4.0497948679e-001	 1.3679770563e+000	-1.8086893376e+000
 3.9078196482e-001	 1.3721002507e+000	-1.7948374678e+000
 3.7658073557e-001	 1.3760656369e+000	-1.7773091930e+000
 3.6237825026e-001	 1.3798738161e+000	-1.7573653901e+000
 3.4817693390e-001	 1.3835254361e+000	-1.7363127520e+000
 3.3397918427e-001	 1.3870211908e+000	-1.7155013551e+000
 3.1978737092e-001	 1.3903618190e+000	-1.6963220765e+000
 3.0560383428e-001	 1.3935481032e+000	-1.6802038803e+000
 2.9143088474e-001	 1.3965808687e+000	-1.6686109897e+000
 2.7727080181e-001	 1.3994609826e+000	-1.6630399661e+000
 4.2700503735e-001	 1.3891826753e+000	-1.6989250519e+000
 4.1254846604e-001	 1.3935442524e+000	-1.6869646829e+000
 3.9808559545e-001	 1.3977445084e+000	-1.6699489442e+000
 3.8361894829e-001	 1.4017840069e+000	-1.6491608194e+000
 3.6915102159e-001	 1.4056633601e+000	-1.6259366136e+000
 3.5468428569e-001	 1.4093832281e+000	-1.6016634154e+000
 3.4022118318e-001	 1.4129443177e+000	-1.5777763685e+000
 3.2576412790e-001	 1.4163473815e+000	-1.5557557728e+000
 3.1131550402e-001	 1.4195932166e+000	-1.5371240361e+000
 2.9687766511e-001	 1.4226826639e+000	-1.5234424995e+000
 2.8245293328e-001	 1.4256166065e+000	-1.5163081552e+000
 4.3483924378e-001	 1.4146698310e+000	-1.5906133038e+000
 4.2011743962e-001	 1.4191114293e+000	-1.5752014353e+000
 4.0538922061e-001	 1.4233887469e+000	-1.5546373641e+000
 3.9065715573e-001	 1.4275023575e+000	-1.5302671744e+000
 3.7592378784e-001	 1.4314528847e+000	-1.5034963050e+000
 3.6119163260e-001	 1.4352410007e+000	-1.4757867166e+000
 3.4646317741e-001	 1.4388674251e+000	-1.4486538431e+000
 3.3174088040e-001	 1.4423329245e+000	-1.4236633500e+000
 3.1702716948e-001	 1.4456383106e+000	-1.4024277239e+000
 3.0232444140e-001	 1.4487844395e+000	-1.3866027178e+000
 2.8763506087e-001	 1.4517722108e+000	-1.3778836760e+000
 4.4267344629e-001	 1.4401569739e+000	-1.4975074463e+000
 4.2768640941e-001	 1.4446785935e+000	-1.4777564368e+000
 4.1269284211e-001	 1.4490329726e+000	-1.4528331938e+000
 3.9769535965e-001	 1.4532206953e+000	-1.4241405076e+000
 3.8269655071e-001	 1.4572423965e+000	-1.3931473755e+000
 3.6769897626e-001	 1.4610987603e+000	-1.3613858512e+000
 3.5270516852e-001	 1.4647905196e+000	-1.3304476490e+000
 3.3771762992e-001	 1.4683184545e+000	-1.3019805301e+000
 3.2273883208e-001	 1.4716833915e+000	-1.2776844974e+000
 3.0777121496e-001	 1.4748862021e+000	-1.2593078264e+000
 2.9281718587e-001	 1.4779278020e+000	-1.2486429607e+000
 4.5050764685e-001	 1.4656441104e+000	-1.4243660038e+000
 4.3525537731e-001	 1.4702457512e+000	-1.3989886626e+000
 4.1999646178e-001	 1.4746771918e+000	-1.3685021490e+000
 4.0473356181e-001	 1.4789390267e+000	-1.3343602432e+000
 3.8946931188e-001	 1.4830319018e+000	-1.2980906370e+000
 3.7420631829e-001	 1.4869565135e+000	-1.2612914378e+000
 3.5894715807e-001	 1.4907136076e+000	-1.2256273969e+000
 3.4369437793e-001	 1.4943039780e+000	-1.1928258904e+000
 3.2845049326e-001	 1.4977284659e+000	-1.1646726837e+000
 3.1321798717e-001	 1.5009879582e+000	-1.1430075106e+000
 2.9799930958e-001	 1.5040833867e+000	-1.1297194985e+000
 2.4617785878e-001	 1.2425264611e+000	-2.9064932231e+000
 2.3362097874e-001	 1.2449485205e+000	-2.9212485291e+000
 2.2107947735e-001	 1.2472367342e+000	-2.9318932553e+000
 2.0855528842e-001	 1.2493919777e+000	-2.9394212334e+000
 1.9605031575e-001	 1.2514151596e+000	-2.9448212593e+000
 1.8356643257e-001	 1.2533072201e+000	-2.9490763920e+000
 1.7110548102e-001	 1.2550691308e+000	-2.9531632391e+000
 1.5866927164e-001	 1.2567018928e+000	-2.9580512321e+000
 1.4625958289e-001	 1.2582065363e+000	-2.9647018886e+000
 1.3387816074e-001	 1.2595841192e+000	-2.9740680632e+000
 1.2152671826e-001	 1.2608357263e+000	-2.9870931867e+000
 2.5136004078e-001	 1.2686823400e+000	-2.6049330529e+000
 2.3853883137e-001	 1.2711553851e+000	-2.6130495025e+000
 2.2573332434e-001	 1.2734917670e+000	-2.6169166592e+000
 2.1294549421e-001	 1.2756923796e+000	-2.6176551553e+000
 2.0017728485e-001	 1.2777581506e+000	-2.6163791381e+000
 1.8743060893e-001	 1.2796900401e+000	-2.6141955152e+000
 1.7470734737e-001	 1.2814890399e+000	-2.6122031861e+000
 1.6200934880e-001	 1.2831561725e+000	-2.6114922612e+000
 1.4933842914e-001	 1.2846924896e+000	-2.6131432676e+000
 1.3669637111e-001	 1.2860990714e+000	-2.6182263403e+000
 1.2408492384e-001	 1.2873770255e+000	-2.6278004014e+000
 2.5654221113e-001	 1.2948381601e+000	-2.3563672236e+000
 2.4345667294e-001	 1.2973621908e+000	-2.3601663587e+000
 2.3038716087e-001	 1.2997467407e+000	-2.3593697344e+000
 2.1733569013e-001	 1.3019927223e+000	-2.3552156814e+000
 2.0430424467e-001	 1.3041010823e+000	-2.3489357767e+000
 1.9129477660e-001	 1.3060728006e+000	-2.3417540304e+000
 1.7830920561e-001	 1.3079088896e+000	-2.3348860568e+000
 1.6534941845e-001	 1.3096103927e+000	-2.3295382286e+000
 1.5241726847e-001	 1.3111783833e+000	-2.3269068144e+000
 1.3951457514e-001	 1.3126139639e+000	-2.3281770981e+000
 1.2664312367e-001	 1.3139182650e+000	-2.3345224823e+000
 2.6172437110e-001	 1.3209939278e+000	-2.1517029482e+000
 2.4837450467e-001	 1.3235689440e+000	-2.1529146905e+000
 2.3504098809e-001	 1.3260016620e+000	-2.1490118582e+000
 2.2172587726e-001	 1.3282930124e+000	-2.1413416219e+000
 2.0843119624e-001	 1.3304439613e+000	-2.1312452857e+000
 1.9515893654e-001	 1.3324555085e+000	-2.1200574135e+000
 1.8191105664e-001	 1.3343286865e+000	-2.1090868052e+000
 1.6868948142e-001	 1.3360645600e+000	-2.0995789160e+000
 1.5549610164e-001	 1.3376642240e+000	-2.0928634456e+000
 1.4233277354e-001	 1.3391288034e+000	-2.0902696086e+000
 1.2920131837e-001	 1.3404594514e+000	-2.0931120642e+000
 2.6690652201e-001	 1.3471496498e+000	-1.9794135485e+000
 2.5329232780e-001	 1.3497756514e+000	-1.9778918799e+000
 2.3969480716e-001	 1.3522565372e+000	-1.9704942839e+000
 2.2611605672e-001	 1.3545932565e+000	-1.9587254052e+000
 2.1255814058e-001	 1.3567867943e+000	-1.9440857518e+000
 1.9902308972e-001	 1.3588381701e+000	-1.9280695650e+000
 1.8551290138e-001	 1.3607484371e+000	-1.9121627301e+000
 1.7202953854e-001	 1.3625186809e+000	-1.8978407374e+000
 1.5857492942e-001	 1.3641500184e+000	-1.8865667053e+000
 1.4515096700e-001	 1.3656435965e+000	-1.8797894738e+000
 1.3175950861e-001	 1.3670005914e+000	-1.8789417771e+000
 2.7208866515e-001	 1.3733053326e+000	-1.8174938279e+000
 2.5821014355e-001	 1.3759823195e+000	-1.8133303030e+000
 2.4434861925e-001	 1.3785113731e+000	-1.8027937563e+000
 2.3050622959e-001	 1.3808934612e+000	-1.7875086548e+000
 2.1668507874e-001	 1.3831295877e+000	-1.7690963162e+000
 2.0288723710e-001	 1.3852207922e+000	-1.7491724465e+000
 1.8911474071e-001	 1.3871681481e+000	-1.7293447217e+000
 1.7536959065e-001	 1.3889727622e+000	-1.7112104269e+000
 1.6165375258e-001	 1.3906357731e+000	-1.6963541634e+000
 1.4796915623e-001	 1.3921583499e+000	-1.6863456365e+000
 1.3431769500e-001	 1.3935416916e+000	-1.6827375323e+000
 2.7727080181e-001	 1.3994609826e+000	-1.6630399661e+000
 2.6312795315e-001	 1.4021889548e+000	-1.6569804128e+000
 2.4900242552e-001	 1.4047661762e+000	-1.6440692585e+000
 2.3489639697e-001	 1.4071936330e+000	-1.6260481716e+000
 2.2081201173e-001	 1.4094723482e+000	-1.6046575047e+000
 2.0675137966e-001	 1.4116033813e+000	-1.5816334599e+000
 1.9271657554e-001	 1.4135878261e+000	-1.5587053004e+000
 1.7870963858e-001	 1.4154268105e+000	-1.5375926255e+000
 1.6473257189e-001	 1.4171214946e+000	-1.5200027209e+000
 1.5078734195e-001	 1.4186730700e+000	-1.5076279974e+000
 1.3687587820e-001	 1.4200827586e+000	-1.5021435307e+000
 2.8245293328e-001	 1.4256166065e+000	-1.5163081552e+000
 2.6804575784e-001	 1.4283955639e+000	-1.5087312477e+000
 2.5365622715e-001	 1.4310209530e+000	-1.4938759248e+000
 2.3928655996e-001	 1.4334937784e+000	-1.4735992298e+000
 2.2493894060e-001	 1.4358150824e+000	-1.4497595495e+000
 2.1061551834e-001	 1.4379859440e+000	-1.4242133634e+000
 1.9631840676e-001	 1.4400074777e+000	-1.3988120417e+000
 1.8204968318e-001	 1.4418808323e+000	-1.3753987118e+000
 1.6781138813e-001	 1.4436071897e+000	-1.3558052065e+000
 1.5360552484e-001	 1.4451877637e+000	-1.3418491107e+000
 1.3943405884e-001	 1.4466237990e+000	-1.3353309187e+000
 2.8763506087e-001	 1.4517722108e+000	-1.3778836760e+000
 2.7296355883e-001	 1.4546021534e+000	-1.3688260745e+000
 2.5831002528e-001	 1.4572757102e+000	-1.3521458542e+000
 2.4367671966e-001	 1.4597939042e+000	-1.3298144165e+000
 2.2906586638e-001	 1.4621577968e+000	-1.3038079729e+000
 2.1447965413e-001	 1.4643684869e+000	-1.2761038318e+000
 1.9992023529e-001	 1.4664271094e+000	-1.2486767365e+000
 1.8538972527e-001	 1.4683348342e+000	-1.2234952759e+000
 1.7089020205e-001	 1.4700928649e+000	-1.2025183834e+000
 1.5642370563e-001	 1.4717024375e+000	-1.1876919437e+000
 1.4199223756e-001	 1.4731648196e+000	-1.1809455218e+000
 2.9281718587e-001	 1.4779278020e+000	-1.2486429607e+000
 2.7788135737e-001	 1.4808087297e+000	-1.2378227443e+000
 2.6296382108e-001	 1.4835304542e+000	-1.2191469375e+000
 2.4806687716e-001	 1.4860940168e+000	-1.1947011089e+000
 2.3319279009e-001	 1.4885004981e+000	-1.1665798966e+000
 2.1834378799e-001	 1.4907510167e+000	-1.1368827830e+000
 2.0352206201e-001	 1.4928467280e+000	-1.1077099230e+000
 1.8872976570e-001	 1.4947888229e+000	-1.0811580479e+000
 1.7396901444e-001	 1.4965785268e+000	-1.0593164652e+000
 1.5924188500e-001	 1.4982170980e+000	-1.0442631758e+000
 1.4455041500e-001	 1.4997058268e+000	-1.0380611241e+000
 2.9799930958e-001	 1.5040833867e+000	-1.1297194985e+000
 2.8279915468e-001	 1.5070152995e+000	-1.1165580925e+000
 2.6761761573e-001	 1.5097851916e+000	-1.0954459048e+000
 2.5245703357e-001	 1.5123941228e+000	-1.0685833277e+000
 2.3731971277e-001	 1.5148431927e+000	-1.0381848627e+000
 2.2220792089e-001	 1.5171335398e+000	-1.0064743308e+000
 2.0712388784e-001	 1.5192663399e+000	-9.7568013699e-001
 1.9206980528e-001	 1.5212428050e+000	-9.4803061432e-001
 1.7704782606e-001	 1.5230641822e+000	-9.2574947135e-001
 1.6206006367e-001	 1.5247317519e+000	-9.1105136530e-001
 1.4710859180e-001	 1.5262468275e+000	-9.0613762187e-001
 1.2152671826e-001	 1.2608357263e+000	-2.9870931867e+000
 1.0920509388e-001	 1.2619626278e+000	-3.0007827415e+000
 9.6916810941e-002	 1.2629657625e+000	-3.0121337310e+000
 8.4663507302e-002	 1.2638462899e+000	-3.0220567150e+000
 7.2446785896e-002	 1.2646053925e+000	-3.0314360514e+000
 6.0268214518e-002	 1.2652442741e+000	-3.0411295585e+000
 4.8129325638e-002	 1.2657641593e+000	-3.0519681810e+000
 3.6031616237e-002	 1.2661662922e+000	-3.0647556601e+000
 2.3976547683e-002	 1.2664519353e+000	-3.0802682078e+000
 1.1965545641e-002	 1.2666223687e+000	-3.0992541886e+000
 0.0000000000e+000	 1.2666788891e+000	-3.1224339302e+000
 1.2408492384e-001	 1.2873770255e+000	-2.6278004014e+000
 1.1150392235e-001	 1.2885276489e+000	-2.6384386169e+000
 9.8956964168e-002	 1.2895519001e+000	-2.6466997457e+000
 8.6445721615e-002	 1.2904509632e+000	-2.6535935009e+000
 7.3971831370e-002	 1.2912260453e+000	-2.6600971609e+000
 6.1536894235e-002	 1.2918783757e+000	-2.6671553062e+000
 4.9142474935e-002	 1.2924092048e+000	-2.6756795596e+000
 3.6790101965e-002	 1.2928198028e+000	-2.6865483321e+000
 2.4481267458e-002	 1.2931114588e+000	-2.7006065739e+000
 1.2217427086e-002	 1.2932854800e+000	-2.7186655325e+000
 0.0000000000e+000	 1.2933431901e+000	-2.7415025560e+000
 1.2664312367e-001	 1.3139182650e+000	-2.3345224823e+000
 1.1380274566e-001	 1.3150926103e+000	-2.3419762768e+000
 1.0099711281e-001	 1.3161379780e+000	-2.3465584276e+000
 8.8227931917e-002	 1.3170555766e+000	-2.3493895521e+000
 7.5496873414e-002	 1.3178466382e+000	-2.3515534604e+000
 6.2805571096e-002	 1.3185124174e+000	-2.3540969056e+000
 5.0155621952e-002	 1.3190541903e+000	-2.3580293374e+000
 3.7548585987e-002	 1.3194732534e+000	-2.3643226611e+000
 2.4985986097e-002	 1.3197709224e+000	-2.3739110000e+000
 1.2469307965e-002	 1.3199485313e+000	-2.3876904644e+000
 0.0000000000e+000	 1.3200074312e+000	-2.4065189410e+000
 1.2920131837e-001	 1.3404594514e+000	-2.0931120642e+000
 1.1610156436e-001	 1.3416575185e+000	-2.0968287317e+000
 1.0303725736e-001	 1.3427240027e+000	-2.0968478944e+000
 9.0010138656e-002	 1.3436601368e+000	-2.0944280551e+000
 7.7021912407e-002	 1.3444671778e+000	-2.0907839260e+000
 6.4074245421e-002	 1.3451464058e+000	-2.0870860812e+000
 5.1168766943e-002	 1.3456991226e+000	-2.0844607226e+000
 3.8307068493e-002	 1.3461266508e+000	-2.0839895599e+000
 2.5490703727e-002	 1.3464303327e+000	-2.0867098049e+000
 1.2721188341e-002	 1.3466115292e+000	-2.0936142774e+000
 0.0000000000e+000	 1.3466716190e+000	-2.1056516373e+000
 1.3175950861e-001	 1.3670005914e+000	-1.8789417771e+000
 1.1840037905e-001	 1.3682223803e+000	-1.8787904301e+000
 1.0507739835e-001	 1.3693099808e+000	-1.8741031490e+000
 9.1792342276e-002	 1.3702646504e+000	-1.8662663653e+000
 7.8546948732e-002	 1.3710876709e+000	-1.8566184419e+000
 6.5342917526e-002	 1.3717803477e+000	-1.8464491754e+000
 5.2181910162e-002	 1.3723440082e+000	-1.8369994304e+000
 3.9065549671e-002	 1.3727800015e+000	-1.8294609052e+000
 2.5995420473e-002	 1.3730896963e+000	-1.8249760298e+000
 1.2973068276e-002	 1.3732744805e+000	-1.8246379945e+000
 0.0000000000e+000	 1.3733357600e+000	-1.8294909233e+000
 1.3431769500e-001	 1.3935416916e+000	-1.6827375323e+000
 1.2069919028e-001	 1.3947872022e+000	-1.6795979465e+000
 1.0711753628e-001	 1.3958959191e+000	-1.6710113839e+000
 9.3574543223e-002	 1.3968691242e+000	-1.6585033513e+000
 8.0071982770e-002	 1.3977081241e+000	-1.6435482157e+000
 6.6611587728e-002	 1.3984142495e+000	-1.6275684889e+000
 5.3195051861e-002	 1.3989888539e+000	-1.6119342606e+000
 3.9824029712e-002	 1.3994333122e+000	-1.5979627837e+000
 2.6500136463e-002	 1.3997490199e+000	-1.5869182099e+000
 1.3224947833e-002	 1.3999373918e+000	-1.5800114765e+000
 0.0000000000e+000	 1.3999998611e+000	-1.5784003580e+000
 1.3687587820e-001	 1.4200827586e+000	-1.5021435307e+000
 1.2299799864e-001	 1.4213519908e+000	-1.4969135965e+000
 1.0915767165e-001	 1.4224818242e+000	-1.4853389740e+000
 9.5356741943e-002	 1.4234735646e+000	-1.4690952821e+000
 8.1597014902e-002	 1.4243285440e+000	-1.4498050647e+000
 6.7880256345e-002	 1.4250481181e+000	-1.4290367866e+000
 5.4208192294e-002	 1.4256336662e+000	-1.4083039990e+000
 4.0582508805e-002	 1.4260865896e+000	-1.3890646756e+000
 2.7004851823e-002	 1.4264083102e+000	-1.3727207210e+000
 1.3476827075e-002	 1.4266002698e+000	-1.3606176508e+000
 0.0000000000e+000	 1.4266639289e+000	-1.3540444588e+000
 1.3943405884e-001	 1.4466237990e+000	-1.3353309187e+000
 1.2529680471e-001	 1.4479167530e+000	-1.3289269169e+000
 1.1119780499e-001	 1.4490677026e+000	-1.3153742183e+000
 9.7138938881e-002	 1.4500779785e+000	-1.2965095558e+000
 8.3122045509e-002	 1.4509489372e+000	-1.2741157187e+000
 6.9148923693e-002	 1.4516819601e+000	-1.2499201901e+000
 5.5221331714e-002	 1.4522784520e+000	-1.2255939748e+000
 4.1340987140e-002	 1.4527398403e+000	-1.2027506198e+000
 2.7509566677e-002	 1.4530675738e+000	-1.1829454283e+000
 1.3728706065e-002	 1.4532631212e+000	-1.1676748695e+000
 0.0000000000e+000	 1.4533279700e+000	-1.1583761986e+000
 1.4199223756e-001	 1.4731648196e+000	-1.1809455218e+000
 1.2759560905e-001	 1.4744814952e+000	-1.1743027420e+000
 1.1323793680e-001	 1.4756535611e+000	-1.1598762736e+000
 9.8921134482e-002	 1.4766823725e+000	-1.1396750032e+000
 8.4647074973e-002	 1.4775693105e+000	-1.1156540052e+000
 7.0417590090e-002	 1.4783157820e+000	-1.0897127502e+000
 5.6234470375e-002	 1.4789232177e+000	-1.0636935257e+000
 4.2099464907e-002	 1.4793930711e+000	-1.0393800716e+000
 2.8014281154e-002	 1.4797268175e+000	-1.0184964347e+000
 1.3980584867e-002	 1.4799259525e+000	-1.0027060424e+000
 0.0000000000e+000	 1.4799919911e+000	-9.9361101337e-001
 1.4455041500e-001	 1.4997058268e+000	-1.0380611241e+000
 1.2989441224e-001	 1.5010462241e+000	-1.0321347935e+000
 1.1527806759e-001	 1.5022394064e+000	-1.0180295137e+000
 1.0070332919e-001	 1.5032867531e+000	-9.9793747259e-001
 8.6172103675e-002	 1.5041896705e+000	-9.7399811449e-001
 7.1686255854e-002	 1.5049495907e+000	-9.4829584681e-001
 5.7247608530e-002	 1.5055679701e+000	-9.2285798195e-001
 4.2857942294e-002	 1.5060462885e+000	-8.9965292003e-001
 2.8518995379e-002	 1.5063860478e+000	-8.8058857552e-001
 1.4232463543e-002	 1.5065887705e+000	-8.6751104991e-001
 0.0000000000e+000	 1.5066559989e+000	-8.6220357019e-001
 1.4710859180e-001	 1.5262468275e+000	-9.0613762187e-001
 1.3219321486e-001	 1.5276109464e+000	-9.0190411401e-001
 1.1731819787e-001	 1.5288252450e+000	-8.8940265246e-001
 1.0248552346e-001	 1.5298911271e+000	-8.7102005214e-001
 8.7697131996e-002	 1.5308100238e+000	-8.4909232857e-001
 7.2954921301e-002	 1.5315833927e+000	-8.2590182844e-001
 5.8260746432e-002	 1.5322127159e+000	-8.0367462118e-001
 4.3616419493e-002	 1.5326994993e+000	-7.8457815786e-001
 2.9023709478e-002	 1.5330452715e+000	-7.7071920212e-001
 1.4484342157e-002	 1.5332515818e+000	-7.6414203600e-001
 0.0000000000e+000	 1.5333200000e+000	-7.6682696223e-001
 1.5333200000e+000	 0.0000000000e+000	 3.7934289963e+000
 1.5332515818e+000	 1.4484342157e-002	 3.7847248734e+000
 1.5330452715e+000	 2.9023709478e-002	 3.7754582565e+000
 1.5326994993e+000	 4.3616419493e-002	 3.7650859959e+000
 1.5322127159e+000	 5.8260746432e-002	 3.7530305391e+000
 1.5315833927e+000	 7.2954921301e-002	 3.7386797283e+000
 1.5308100238e+000	 8.7697131996e-002	 3.7213868977e+000
 1.5298911271e+000	 1.0248552346e-001	 3.7004712688e+000
 1.5288252450e+000	 1.1731819787e-001	 3.6752186463e+000
 1.5276109464e+000	 1.3219321486e-001	 3.6448824100e+000
 1.5262468275e+000	 1.4710859180e-001	 3.6086847994e+000
 1.5599880000e+000	 0.0000000000e+000	 3.8040003592e+000
 1.5599183919e+000	 1.4736258546e-002	 3.7859959957e+000
 1.5597084933e+000	 2.9528499270e-002	 3.7683333814e+000
 1.5593567074e+000	 4.4375010443e-002	 3.7504162160e+000
 1.5588614576e+000	 5.9274036279e-002	 3.7316065010e+000
 1.5582211890e+000	 7.4223777015e-002	 3.7112245452e+000
 1.5574343695e+000	 8.9222389032e-002	 3.6885493177e+000
 1.5564994910e+000	 1.0426798501e-001	 3.6628191478e+000
 1.5554150707e+000	 1.1935863411e-001	 3.6332327721e+000
 1.5541796526e+000	 1.3449236223e-001	 3.5989507247e+000
 1.5527918086e+000	 1.4966715226e-001	 3.5590970660e+000
 1.5866560000e+000	 0.0000000000e+000	 3.8006261724e+000
 1.5865852019e+000	 1.4988174934e-002	 3.7760576415e+000
 1.5863717151e+000	 3.0033289064e-002	 3.7524913186e+000
 1.5860139154e+000	 4.5133601394e-002	 3.7292882549e+000
 1.5855101994e+000	 6.0287326125e-002	 3.7057599309e+000
 1.5848589854e+000	 7.5492632729e-002	 3.6811684822e+000
 1.5840587152e+000	 9.0747646068e-002	 3.6547273248e+000
 1.5831078549e+000	 1.0605044656e-001	 3.6256021796e+000
 1.5820048965e+000	 1.2139907035e-001	 3.5929124946e+000
 1.5807483589e+000	 1.3679150961e-001	 3.5557332623e+000
 1.5793367896e+000	 1.5222571273e-001	 3.5130972234e+000
 1.6133240000e+000	 0.0000000000e+000	 3.7806975423e+000
 1.6132520120e+000	 1.5240091324e-002	 3.7521833273e+000
 1.6130349369e+000	 3.0538078857e-002	 3.7251197400e+000
 1.6126711235e+000	 4.5892192346e-002	 3.6988342743e+000
 1.6121589411e+000	 6.1300615973e-002	 3.6725963231e+000
 1.6114967818e+000	 7.6761488443e-002	 3.6456176394e+000
 1.6106830609e+000	 9.2272903104e-002	 3.6170532546e+000
 1.6097162188e+000	 1.0783290811e-001	 3.5860028513e+000
 1.6085947222e+000	 1.2343950660e-001	 3.5515125903e+000
 1.6073170652e+000	 1.3909065698e-001	 3.5125773865e+000
 1.6058817707e+000	 1.5478427319e-001	 3.4681436245e+000
 1.6399920000e+000	 0.0000000000e+000	 3.7418855890e+000
 1.6399188220e+000	 1.5492007713e-002	 3.7119175325e+000
 1.6396981588e+000	 3.1042868651e-002	 3.6836687088e+000
 1.6393283315e+000	 4.6650783297e-002	 3.6564407256e+000
 1.6388076829e+000	 6.2313905820e-002	 3.6294678170e+000
 1.6381345781e+000	 7.8030344158e-002	 3.6019175607e+000
 1.6373074066e+000	 9.3798160140e-002	 3.5728921121e+000
 1.6363245828e+000	 1.0961536965e-001	 3.5414299552e+000
 1.6351845480e+000	 1.2547994284e-001	 3.5065081667e+000
 1.6338857715e+000	 1.4138980436e-001	 3.4670451881e+000
 1.6324267518e+000	 1.5734283365e-001	 3.4219040954e+000
 1.6666600000e+000	 0.0000000000e+000	 3.6821190444e+000
 1.6665856321e+000	 1.5743924102e-002	 3.6530537882e+000
 1.6663613806e+000	 3.1547658445e-002	 3.6258292965e+000
 1.6659855396e+000	 4.7409374249e-002	 3.5997275243e+000
 1.6654564246e+000	 6.3327195668e-002	 3.5739529540e+000
 1.6647723745e+000	 7.9299199872e-002	 3.5476335909e+000
 1.6639317522e+000	 9.5323417177e-002	 3.5198225419e+000
 1.6629329467e+000	 1.1139783120e-001	 3.4895001772e+000
 1.6617743738e+000	 1.2752037909e-001	 3.4555768692e+000
 1.6604544778e+000	 1.4368895174e-001	 3.4168963046e+000
 1.6589717329e+000	 1.5990139411e-001	 3.3722393544e+000
 1.6933280000e+000	 0.0000000000e+000	 3.5995639666e+000
 1.6932524421e+000	 1.5995840491e-002	 3.5736148376e+000
 1.6930246025e+000	 3.2052448238e-002	 3.5495142206e+000
 1.6926427476e+000	 4.8167965200e-002	 3.5265291936e+000
 1.6921051664e+000	 6.4340485515e-002	 3.5038383483e+000
 1.6914101708e+000	 8.0568055587e-002	 3.4805330907e+000
 1.6905560979e+000	 9.6848674214e-002	 3.4556195975e+000
 1.6895413106e+000	 1.1318029275e-001	 3.4280214254e+000
 1.6883641995e+000	 1.2956081534e-001	 3.3965827691e+000
 1.6870231841e+000	 1.4598809912e-001	 3.3600723598e+000
 1.6855167140e+000	 1.6245995458e-001	 3.3171879908e+000
 1.7199960000e+000	 0.0000000000e+000	 3.4926053416e+000
 1.7199192522e+000	 1.6247756880e-002	 3.4718346411e+000
 1.7196878243e+000	 3.2557238032e-002	 3.4528402846e+000
 1.7192999557e+000	 4.8926556152e-002	 3.4348777637e+000
 1.7187539081e+000	 6.5353775363e-002	 3.4171020652e+000
 1.7180479672e+000	 8.1836911302e-002	 3.3985693085e+000
 1.7171804436e+000	 9.8373931250e-002	 3.3782391159e+000
 1.7161496746e+000	 1.1496275430e-001	 3.3549777121e+000
 1.7149540253e+000	 1.3160125158e-001	 3.3275617497e+000
 1.7135918903e+000	 1.4828724649e-001	 3.2946828486e+000
 1.7120616951e+000	 1.6501851504e-001	 3.2549528351e+000
 1.7466640000e+000	 0.0000000000e+000	 3.3598303704e+000
 1.7465860622e+000	 1.6499673269e-002	 3.3461420311e+000
 1.7463510461e+000	 3.3062027826e-002	 3.3341124274e+000
 1.7459571637e+000	 4.9685147103e-002	 3.3229872383e+000
 1.7454026499e+000	 6.6367065210e-002	 3.3118985235e+000
 1.7446857636e+000	 8.3105767016e-002	 3.2998667316e+000
 1.7438047893e+000	 9.9899188287e-002	 3.2858035255e+000
 1.7427580385e+000	 1.1674521585e-001	 3.2685154207e+000
 1.7415438510e+000	 1.3364168783e-001	 3.2467082313e+000
 1.7401605966e+000	 1.5058639387e-001	 3.2189923109e+000
 1.7386066761e+000	 1.6757707550e-001	 3.1838885702e+000
 1.7733320000e+000	 0.0000000000e+000	 3.2000132640e+000
 1.7732528723e+000	 1.6751589658e-002	 3.1951458414e+000
 1.7730142680e+000	 3.3566817619e-002	 3.1918092118e+000
 1.7726143718e+000	 5.0443738054e-002	 3.1892394644e+000
 1.7720513917e+000	 6.7380355057e-002	 3.1865447623e+000
 1.7713235599e+000	 8.4374622731e-002	 3.1827077611e+000
 1.7704291350e+000	 1.0142444532e-001	 3.1765889364e+000
 1.7693664024e+000	 1.1852767740e-001	 3.1669308132e+000
 1.7681336768e+000	 1.3568212407e-001	 3.1523630928e+000
 1.7667293029e+000	 1.5288554125e-001	 3.1314086602e+000
 1.7651516572e+000	 1.7013563596e-001	 3.1024904540e+000
 1.8000000000e+000	 0.0000000000e+000	 3.0121013901e+000
 1.7999196823e+000	 1.7003506047e-002	 3.0176213583e+000
 1.7996774898e+000	 3.4071607412e-002	 3.0245696047e+000
 1.7992715798e+000	 5.1202329005e-002	 3.0321712596e+000
 1.7987001334e+000	 6.8393644903e-002	 3.0395079298e+000
 1.7979613563e+000	 8.5643478444e-002	 3.0455205734e+000
 1.7970534806e+000	 1.0294970236e-001	 3.0490133797e+000
 1.7959747663e+000	 1.2031013895e-001	 3.0486586493e+000
 1.7947235026e+000	 1.3772256032e-001	 3.0430026665e+000
 1.7932980092e+000	 1.5518468862e-001	 3.0304725472e+000
 1.7916966383e+000	 1.7269419643e-001	 3.0093840380e+000
 1.5262468275e+000	 1.4710859180e-001	 3.6086847994e+000
 1.5247317519e+000	 1.6206006367e-001	 3.5692611213e+000
 1.5230641822e+000	 1.7704782606e-001	 3.5293983423e+000
 1.5212428050e+000	 1.9206980528e-001	 3.4885289196e+000
 1.5192663399e+000	 2.0712388784e-001	 3.4460704112e+000
 1.5171335398e+000	 2.2220792089e-001	 3.4014279569e+000
 1.5148431927e+000	 2.3731971277e-001	 3.3539969543e+000
 1.5123941228e+000	 2.5245703357e-001	 3.3031659067e+000
 1.5097851916e+000	 2.6761761573e-001	 3.2483194191e+000
 1.5070152995e+000	 2.8279915468e-001	 3.1888413157e+000
 1.5040833867e+000	 2.9799930958e-001	 3.1241178493e+000
 1.5527918086e+000	 1.4966715226e-001	 3.5590970660e+000
 1.5512503823e+000	 1.6487866499e-001	 3.5163798773e+000
 1.5495538096e+000	 1.8012709942e-001	 3.4737073608e+000
 1.5477007545e+000	 1.9541034579e-001	 3.4304815879e+000
 1.5456899141e+000	 2.1072625384e-001	 3.3860864002e+000
 1.5435200196e+000	 2.2607263330e-001	 3.3398903895e+000
 1.5411898381e+000	 2.4144725438e-001	 3.2912501024e+000
 1.5386981731e+000	 2.5684784838e-001	 3.2395134405e+000
 1.5360438666e+000	 2.7227210831e-001	 3.1840232309e+000
 1.5332257996e+000	 2.8771768953e-001	 3.1241209350e+000
 1.5302428940e+000	 3.0318221046e-001	 3.0591504626e+000
 1.5793367896e+000	 1.5222571273e-001	 3.5130972234e+000
 1.5777690127e+000	 1.6769726632e-001	 3.4677712128e+000
 1.5760434371e+000	 1.8320637278e-001	 3.4227773728e+000
 1.5741587040e+000	 1.9875088630e-001	 3.3775036584e+000
 1.5721134882e+000	 2.1432861985e-001	 3.3313164751e+000
 1.5699064994e+000	 2.2993734571e-001	 3.2835641930e+000
 1.5675364834e+000	 2.4557479598e-001	 3.2335809121e+000
 1.5650022235e+000	 2.6123866319e-001	 3.1806904516e+000
 1.5623025416e+000	 2.7692660090e-001	 3.1242105291e+000
 1.5594362997e+000	 2.9263622438e-001	 3.0634570974e+000
 1.5564024013e+000	 3.0836511135e-001	 2.9977487996e+000
 1.6058817707e+000	 1.5478427319e-001	 3.4681436245e+000
 1.6042876431e+000	 1.7051586764e-001	 3.4210248612e+000
 1.6025330646e+000	 1.8628564614e-001	 3.3743515392e+000
 1.6006166535e+000	 2.0209142680e-001	 3.3275112418e+000
 1.5985370624e+000	 2.1793098585e-001	 3.2798666532e+000
 1.5962929793e+000	 2.3380205812e-001	 3.2307596435e+000
 1.5938831288e+000	 2.4970233759e-001	 3.1795156377e+000
 1.5913062738e+000	 2.6562947801e-001	 3.1254482346e+000
 1.5885612165e+000	 2.8158109349e-001	 3.0678640396e+000
 1.5856467998e+000	 2.9755475923e-001	 3.0060676716e+000
 1.5825619087e+000	 3.1354801224e-001	 2.9393669033e+000
 1.6324267518e+000	 1.5734283365e-001	 3.4219040954e+000
 1.6308062735e+000	 1.7333446896e-001	 3.3739348459e+000
 1.6290226921e+000	 1.8936491950e-001	 3.3263719391e+000
 1.6270746030e+000	 2.0543196731e-001	 3.2786138191e+000
 1.6249606366e+000	 2.2153335186e-001	 3.2300306061e+000
 1.6226794591e+000	 2.3766677053e-001	 3.1799688005e+000
 1.6202297741e+000	 2.5382987920e-001	 3.1277563031e+000
 1.6176103241e+000	 2.7002029282e-001	 3.0727077138e+000
 1.6148198915e+000	 2.8623558608e-001	 3.0141298673e+000
 1.6118572999e+000	 3.0247329409e-001	 2.9513275636e+000
 1.6087214160e+000	 3.1873091312e-001	 2.8836094424e+000
 1.6589717329e+000	 1.5990139411e-001	 3.3722393544e+000
 1.6573249039e+000	 1.7615307028e-001	 3.3244835007e+000
 1.6555123196e+000	 1.9244419286e-001	 3.2769642073e+000
 1.6535325525e+000	 2.0877250781e-001	 3.2290994982e+000
 1.6513842108e+000	 2.2513571786e-001	 3.1802755333e+000
 1.6490659389e+000	 2.4153148295e-001	 3.1298519846e+000
 1.6465764195e+000	 2.5795742081e-001	 3.0771677632e+000
 1.6439143745e+000	 2.7441110764e-001	 3.0215470552e+000
 1.6410785664e+000	 2.9089007867e-001	 2.9623056200e+000
 1.6380678000e+000	 3.0739182894e-001	 2.8987573015e+000
 1.6348809233e+000	 3.2391381401e-001	 2.8302206990e+000
 1.6855167140e+000	 1.6245995458e-001	 3.3171879908e+000
 1.6838435343e+000	 1.7897167161e-001	 3.2708269883e+000
 1.6820019470e+000	 1.9552346622e-001	 3.2244236024e+000
 1.6799905020e+000	 2.1211304832e-001	 3.1774216368e+000
 1.6778077849e+000	 2.2873808387e-001	 3.1292293336e+000
 1.6754524187e+000	 2.4539619536e-001	 3.0792254830e+000
 1.6729230649e+000	 2.6208496243e-001	 3.0267659205e+000
 1.6702184248e+000	 2.7880192246e-001	 2.9711903656e+000
 1.6673372414e+000	 2.9554457126e-001	 2.9118295487e+000
 1.6642783001e+000	 3.1231036379e-001	 2.8480125722e+000
 1.6610404306e+000	 3.2909671490e-001	 2.7790744442e+000
 1.7120616951e+000	 1.6501851504e-001	 3.2549528351e+000
 1.7103621647e+000	 1.8179027293e-001	 3.2112821539e+000
 1.7084915745e+000	 1.9860273958e-001	 3.1672023532e+000
 1.7064484515e+000	 2.1545358883e-001	 3.1221866817e+000
 1.7042313591e+000	 2.3234044987e-001	 3.0756689311e+000
 1.7018388985e+000	 2.4926090777e-001	 3.0270503479e+000
 1.6992697102e+000	 2.6621250404e-001	 2.9757069737e+000
 1.6965224752e+000	 2.8319273727e-001	 2.9209973593e+000
 1.6935959164e+000	 3.0019906385e-001	 2.8622705966e+000
 1.6904888002e+000	 3.1722889864e-001	 2.7988746043e+000
 1.6871999379e+000	 3.3427961579e-001	 2.7301646028e+000
 1.7386066761e+000	 1.6757707550e-001	 3.1838885702e+000
 1.7368807951e+000	 1.8460887425e-001	 3.1443145712e+000
 1.7349812020e+000	 2.0168201293e-001	 3.1038981458e+000
 1.7329064010e+000	 2.1879412933e-001	 3.0621430960e+000
 1.7306549333e+000	 2.3594281588e-001	 3.0185096332e+000
 1.7282253784e+000	 2.5312562018e-001	 2.9724221707e+000
 1.7256163556e+000	 2.7034004565e-001	 2.9232775853e+000
 1.7228265255e+000	 2.8758355209e-001	 2.8704538908e+000
 1.7198545913e+000	 3.0485355644e-001	 2.8133192574e+000
 1.7166993003e+000	 3.2214743349e-001	 2.7512413091e+000
 1.7133594452e+000	 3.3946251668e-001	 2.6835966246e+000
 1.7651516572e+000	 1.7013563596e-001	 3.1024904540e+000
 1.7633994255e+000	 1.8742747557e-001	 3.0685276552e+000
 1.7614708295e+000	 2.0476128629e-001	 3.0332436307e+000
 1.7593643505e+000	 2.2213466984e-001	 2.9961712579e+000
 1.7570785075e+000	 2.3954518188e-001	 2.9567954136e+000
 1.7546118582e+000	 2.5699033260e-001	 2.9145617313e+000
 1.7519630010e+000	 2.7446758726e-001	 2.8688858747e+000
 1.7491305758e+000	 2.9197436690e-001	 2.8191632604e+000
 1.7461132663e+000	 3.0950804903e-001	 2.7647791591e+000
 1.7429098004e+000	 3.2706596835e-001	 2.7051190988e+000
 1.7395189526e+000	 3.4464541757e-001	 2.6395794868e+000
 1.7916966383e+000	 1.7269419643e-001	 3.0093840380e+000
 1.7899180559e+000	 1.9024607690e-001	 2.9826527315e+000
 1.7879604570e+000	 2.0784055965e-001	 2.9540968449e+000
 1.7858223000e+000	 2.2547521035e-001	 2.9232742322e+000
 1.7835020816e+000	 2.4314754789e-001	 2.8896900207e+000
 1.7809983380e+000	 2.6085504501e-001	 2.8528064290e+000
 1.7783096463e+000	 2.7859512887e-001	 2.8120531479e+000
 1.7754346262e+000	 2.9636518172e-001	 2.7668382147e+000
 1.7723719412e+000	 3.1416254162e-001	 2.7165592982e+000
 1.7691203005e+000	 3.3198450320e-001	 2.6606153118e+000
 1.7656784599e+000	 3.4982831845e-001	 2.5984182625e+000
 1.5040833867e+000	 2.9799930958e-001	 3.1241178493e+000
 1.5009879582e+000	 3.1321798717e-001	 3.0562653801e+000
 1.4977284659e+000	 3.2845049326e-001	 2.9875699646e+000
 1.4943039780e+000	 3.4369437793e-001	 2.9176584571e+000
 1.4907136076e+000	 3.5894715807e-001	 2.8461769888e+000
 1.4869565135e+000	 3.7420631829e-001	 2.7727938565e+000
 1.4830319018e+000	 3.8946931188e-001	 2.6972022832e+000
 1.4789390267e+000	 4.0473356181e-001	 2.6191230160e+000
 1.4746771918e+000	 4.1999646178e-001	 2.5383067212e+000
 1.4702457512e+000	 4.3525537731e-001	 2.4545361421e+000
 1.4656441104e+000	 4.5050764685e-001	 2.3676279820e+000
 1.5302428940e+000	 3.0318221046e-001	 3.0591504626e+000
 1.5270936288e+000	 3.1866557624e-001	 2.9912631327e+000
 1.5237774463e+000	 3.3416301103e-001	 2.9227925140e+000
 1.5202933987e+000	 3.4967202231e-001	 2.8533432845e+000
 1.5166405834e+000	 3.6519008376e-001	 2.7825412232e+000
 1.5128181447e+000	 3.8071463625e-001	 2.7100366520e+000
 1.5088252749e+000	 3.9624308879e-001	 2.6355077344e+000
 1.5046612151e+000	 4.1177281952e-001	 2.5586635899e+000
 1.5003252571e+000	 4.2730117681e-001	 2.4792471816e+000
 1.4958167434e+000	 4.4282548035e-001	 2.3970379340e+000
 1.4911350694e+000	 4.5834302232e-001	 2.3118540415e+000
 1.5564024013e+000	 3.0836511135e-001	 2.9977487996e+000
 1.5531992994e+000	 3.2411316532e-001	 2.9292729912e+000
 1.5498264268e+000	 3.3987552881e-001	 2.8604058024e+000
 1.5462828194e+000	 3.5564966668e-001	 2.7907380514e+000
 1.5425675592e+000	 3.7143300944e-001	 2.7198839614e+000
 1.5386797759e+000	 3.8722295421e-001	 2.6474852018e+000
 1.5346186479e+000	 4.0301686569e-001	 2.5732147707e+000
 1.5303834036e+000	 4.1881207722e-001	 2.4967806674e+000
 1.5259733223e+000	 4.3460589183e-001	 2.4179293104e+000
 1.5213877356e+000	 4.5039558340e-001	 2.3364486504e+000
 1.5166260283e+000	 4.6617839780e-001	 2.2521709334e+000
 1.5825619087e+000	 3.1354801224e-001	 2.9393669033e+000
 1.5793049700e+000	 3.2956075439e-001	 2.8699880388e+000
 1.5758754073e+000	 3.4558804658e-001	 2.8003469332e+000
 1.5722722400e+000	 3.6162731105e-001	 2.7300267316e+000
 1.5684945349e+000	 3.7767593513e-001	 2.6586367940e+000
 1.5645414070e+000	 3.9373127217e-001	 2.5858173923e+000
 1.5604120209e+000	 4.0979064260e-001	 2.5112442265e+000
 1.5561055920e+000	 4.2585133493e-001	 2.4346327061e+000
 1.5516213875e+000	 4.4191060686e-001	 2.3557419417e+000
 1.5469587277e+000	 4.5796568644e-001	 2.2743783953e+000
 1.5421169872e+000	 4.7401377327e-001	 2.1903991334e+000
 1.6087214160e+000	 3.1873091312e-001	 2.8836094424e+000
 1.6054106406e+000	 3.3500834347e-001	 2.8132452342e+000
 1.6019243877e+000	 3.5130056436e-001	 2.7426895130e+000
 1.5982616607e+000	 3.6760495543e-001	 2.6715218037e+000
 1.5944215107e+000	 3.8391886081e-001	 2.5993511947e+000
 1.5904030382e+000	 4.0023959013e-001	 2.5258217515e+000
 1.5862053940e+000	 4.1656441951e-001	 2.4506177273e+000
 1.5818277804e+000	 4.3289059263e-001	 2.3734685073e+000
 1.5772694527e+000	 4.4921532188e-001	 2.2941532285e+000
 1.5725297199e+000	 4.6553578949e-001	 2.2125050125e+000
 1.5676079461e+000	 4.8184914875e-001	 2.1284147525e+000
 1.6348809233e+000	 3.2391381401e-001	 2.8302206990e+000
 1.6315163112e+000	 3.4045593255e-001	 2.7590147590e+000
 1.6279733682e+000	 3.5701308213e-001	 2.6876333297e+000
 1.6242510813e+000	 3.7358259980e-001	 2.6156542268e+000
 1.6203484865e+000	 3.9016178650e-001	 2.5426887509e+000
 1.6162646694e+000	 4.0674790810e-001	 2.4683878887e+000
 1.6119987670e+000	 4.2333819642e-001	 2.3924482833e+000
 1.6075499689e+000	 4.3992985034e-001	 2.3146179062e+000
 1.6029175179e+000	 4.5652003691e-001	 2.2347013634e+000
 1.5981007120e+000	 4.7310589253e-001	 2.1525647658e+000
 1.5930989051e+000	 4.8968452423e-001	 2.0681400991e+000
 1.6610404306e+000	 3.2909671490e-001	 2.7790744442e+000
 1.6576219818e+000	 3.4590352162e-001	 2.7073901888e+000
 1.6540223487e+000	 3.6272559991e-001	 2.6354947904e+000
 1.6502405020e+000	 3.7956024417e-001	 2.5629641094e+000
 1.6462754622e+000	 3.9640471218e-001	 2.4894120248e+000
 1.6421263005e+000	 4.1325622606e-001	 2.4144975001e+000
 1.6377921401e+000	 4.3011197333e-001	 2.3379313891e+000
 1.6332721573e+000	 4.4696910804e-001	 2.2594829063e+000
 1.6285655831e+000	 4.6382475193e-001	 2.1789856851e+000
 1.6236717042e+000	 4.8067599558e-001	 2.0963433490e+000
 1.6185898640e+000	 4.9751989970e-001	 2.0115345200e+000
 1.6871999379e+000	 3.3427961579e-001	 2.7301646028e+000
 1.6837276525e+000	 3.5135111070e-001	 2.6585793975e+000
 1.6800713291e+000	 3.6843811768e-001	 2.5866980358e+000
 1.6762299227e+000	 3.8553788855e-001	 2.5140919992e+000
 1.6722024380e+000	 4.0264763787e-001	 2.4403759766e+000
 1.6679879317e+000	 4.1976454402e-001	 2.3652158811e+000
 1.6635855131e+000	 4.3688575024e-001	 2.2883365736e+000
 1.6589943457e+000	 4.5400836575e-001	 2.2095292106e+000
 1.6542136483e+000	 4.7112946696e-001	 2.1286581304e+000
 1.6492426964e+000	 4.8824609862e-001	 2.0456671928e+000
 1.6440808229e+000	 5.0535527518e-001	 1.9605854900e+000
 1.7133594452e+000	 3.3946251668e-001	 2.6835966246e+000
 1.7098333231e+000	 3.5679869978e-001	 2.6128961170e+000
 1.7061203096e+000	 3.7415063546e-001	 2.5417666583e+000
 1.7022193433e+000	 3.9151553292e-001	 2.4697707246e+000
 1.6981294138e+000	 4.0889056356e-001	 2.3965198905e+000
 1.6938495629e+000	 4.2627286198e-001	 2.3216838902e+000
 1.6893788862e+000	 4.4365952714e-001	 2.2449993513e+000
 1.6847165342e+000	 4.6104762346e-001	 2.1662781073e+000
 1.6798617136e+000	 4.7843418198e-001	 2.0854149936e+000
 1.6748136885e+000	 4.9581620167e-001	 2.0023950339e+000
 1.6695717818e+000	 5.1319065065e-001	 1.9172999228e+000
 1.7395189526e+000	 3.4464541757e-001	 2.6395794868e+000
 1.7359389937e+000	 3.6224628886e-001	 2.5707520836e+000
 1.7321692901e+000	 3.7986315324e-001	 2.5013159611e+000
 1.7282087640e+000	 3.9749317730e-001	 2.4308177318e+000
 1.7240563896e+000	 4.1513348924e-001	 2.3588597488e+000
 1.7197111941e+000	 4.3278117994e-001	 2.2851103165e+000
 1.7151722592e+000	 4.5043330405e-001	 2.2093135349e+000
 1.7104387226e+000	 4.6808688116e-001	 2.1312986720e+000
 1.7055097788e+000	 4.8573889701e-001	 2.0509889616e+000
 1.7003846807e+000	 5.0338630472e-001	 1.9684097202e+000
 1.6950627408e+000	 5.2102602613e-001	 1.8836956809e+000
 1.7656784599e+000	 3.4982831845e-001	 2.5984182625e+000
 1.7620446643e+000	 3.6769387793e-001	 2.5326497089e+000
 1.7582182705e+000	 3.8557567101e-001	 2.4660457025e+000
 1.7541981846e+000	 4.0347082167e-001	 2.3981278652e+000
 1.7499833653e+000	 4.2137641493e-001	 2.3284810093e+000
 1.7455728252e+000	 4.3928949790e-001	 2.2567646099e+000
 1.7409656323e+000	 4.5720708096e-001	 2.1827238691e+000
 1.7361609110e+000	 4.7512613887e-001	 2.1062002541e+000
 1.7311578440e+000	 4.9304361203e-001	 2.0271413954e+000
 1.7259556728e+000	 5.1095640776e-001	 1.9456102281e+000
 1.7205536997e+000	 5.2886140161e-001	 1.8617932638e+000
 1.4656441104e+000	 4.5050764685e-001	 2.3676279820e+000
 1.4608717271e+000	 4.6575058273e-001	 2.2775644736e+000
 1.4559281109e+000	 4.8098147173e-001	 2.1845950653e+000
 1.4508128258e+000	 4.9619757688e-001	 2.0889901682e+000
 1.4455254909e+000	 5.1139613904e-001	 1.9910550044e+000
 1.4400657820e+000	 5.2657437818e-001	 1.8911286805e+000
 1.4344334318e+000	 5.4172949480e-001	 1.7895827865e+000
 1.4286282313e+000	 5.5685867128e-001	 1.6868194981e+000
 1.4226500300e+000	 5.7195907336e-001	 1.5832691661e+000
 1.4164987373e+000	 5.8702785160e-001	 1.4793873784e+000
 1.4101743228e+000	 6.0206214291e-001	 1.3756514847e+000
 1.4911350694e+000	 4.5834302232e-001	 2.3118540415e+000
 1.4862796832e+000	 4.7385106831e-001	 2.2235558030e+000
 1.4812500860e+000	 4.8934685788e-001	 2.1322607771e+000
 1.4760458342e+000	 5.0482760648e-001	 2.0382330786e+000
 1.4706665403e+000	 5.2029050697e-001	 1.9417762102e+000
 1.4651118743e+000	 5.3573273098e-001	 1.8432323021e+000
 1.4593815645e+000	 5.5115143031e-001	 1.7429808152e+000
 1.4534753980e+000	 5.6654373835e-001	 1.6414366856e+000
 1.4473932219e+000	 5.8190677153e-001	 1.5390478867e+000
 1.4411349439e+000	 5.9723763087e-001	 1.4362923962e+000
 1.4347005331e+000	 6.1253340346e-001	 1.3336745521e+000
 1.5166260283e+000	 4.6617839780e-001	 2.2521709334e+000
 1.5116876392e+000	 4.8195155388e-001	 2.1648242208e+000
 1.5065720611e+000	 4.9771224403e-001	 2.0743888323e+000
 1.5012788426e+000	 5.1345763607e-001	 1.9811438015e+000
 1.4958075896e+000	 5.2918487490e-001	 1.8854130197e+000
 1.4901579667e+000	 5.4489108379e-001	 1.7875646319e+000
 1.4843296971e+000	 5.6057336583e-001	 1.6880098307e+000
 1.4783225647e+000	 5.7622880542e-001	 1.5872010168e+000
 1.4721364138e+000	 5.9185446971e-001	 1.4856293051e+000
 1.4657711505e+000	 6.0744741014e-001	 1.3838213546e+000
 1.4592267435e+000	 6.2300466401e-001	 1.2823355093e+000
 1.5421169872e+000	 4.7401377327e-001	 2.1903991334e+000
 1.5370955953e+000	 4.9005203945e-001	 2.1033895468e+000
 1.5318940362e+000	 5.0607763017e-001	 2.0131871109e+000
 1.5265118510e+000	 5.2208766567e-001	 1.9201051278e+000
 1.5209486390e+000	 5.3807924283e-001	 1.8245082039e+000
 1.5152040590e+000	 5.5404943659e-001	 1.7268117998e+000
 1.5092778298e+000	 5.6999530135e-001	 1.6274811013e+000
 1.5031697314e+000	 5.8591387250e-001	 1.5270291783e+000
 1.4968796057e+000	 6.0180216789e-001	 1.4260144043e+000
 1.4904073571e+000	 6.1765718941e-001	 1.3250371138e+000
 1.4837529538e+000	 6.3347592456e-001	 1.2247354807e+000
 1.5676079461e+000	 4.8184914875e-001	 2.1284147525e+000
 1.5625035514e+000	 4.9815252503e-001	 2.0413145362e+000
 1.5572160113e+000	 5.1444301632e-001	 1.9508930831e+000
 1.5517448594e+000	 5.3071769527e-001	 1.8575155133e+000
 1.5460896883e+000	 5.4697361076e-001	 1.7616057658e+000
 1.5402501513e+000	 5.6320778939e-001	 1.6636463035e+000
 1.5342259625e+000	 5.7941723687e-001	 1.5641770538e+000
 1.5280168981e+000	 5.9559893957e-001	 1.4637935494e+000
 1.5216227976e+000	 6.1174986607e-001	 1.3631442362e+000
 1.5150435638e+000	 6.2786696868e-001	 1.2629269235e+000
 1.5082791642e+000	 6.4394718511e-001	 1.1638843557e+000
 1.5930989051e+000	 4.8968452423e-001	 2.0681400991e+000
 1.5879115075e+000	 5.0625301060e-001	 1.9806952504e+000
 1.5825379864e+000	 5.2280840247e-001	 1.8897639160e+000
 1.5769778678e+000	 5.3934772486e-001	 1.7957788420e+000
 1.5712307377e+000	 5.5586797869e-001	 1.6992402736e+000
 1.5652962436e+000	 5.7236614219e-001	 1.6007158203e+000
 1.5591740951e+000	 5.8883917239e-001	 1.5008394635e+000
 1.5528640649e+000	 6.0528400665e-001	 1.4003096660e+000
 1.5463659895e+000	 6.2169756424e-001	 1.2998865472e+000
 1.5396797704e+000	 6.3807674794e-001	 1.2003880928e+000
 1.5328053745e+000	 6.5441844567e-001	 1.1026853782e+000
 1.6185898640e+000	 4.9751989970e-001	 2.0115345200e+000
 1.6133194636e+000	 5.1435349618e-001	 1.9236516563e+000
 1.6078599615e+000	 5.3117378862e-001	 1.8320667622e+000
 1.6022108762e+000	 5.4797775446e-001	 1.7372943285e+000
 1.5963717870e+000	 5.6476234663e-001	 1.6399262945e+000
 1.5903423359e+000	 5.8152449499e-001	 1.5406320836e+000
 1.5841222278e+000	 5.9826110790e-001	 1.4401576794e+000
 1.5777112316e+000	 6.1496907372e-001	 1.3393236952e+000
 1.5711091814e+000	 6.3164526242e-001	 1.2390223965e+000
 1.5643159770e+000	 6.4828652721e-001	 1.1402136421e+000
 1.5573315848e+000	 6.6488970622e-001	 1.0439197172e+000
 1.6440808229e+000	 5.0535527518e-001	 1.9605854900e+000
 1.6387274197e+000	 5.2245398175e-001	 1.8723184310e+000
 1.6331819366e+000	 5.3953917476e-001	 1.7800692116e+000
 1.6274438846e+000	 5.5660778406e-001	 1.6844465434e+000
 1.6215128364e+000	 5.7365671456e-001	 1.5861479154e+000
 1.6153884283e+000	 5.9068284779e-001	 1.4859598152e+000
 1.6090703604e+000	 6.0768304342e-001	 1.3847568793e+000
 1.6025583983e+000	 6.2465414080e-001	 1.2834999177e+000
 1.5958523733e+000	 6.4159296060e-001	 1.1832327679e+000
 1.5889521836e+000	 6.5849630648e-001	 1.0850779397e+000
 1.5818577952e+000	 6.7536096677e-001	 9.9026221382e-001
 1.6695717818e+000	 5.1319065065e-001	 1.9172999228e+000
 1.6641353757e+000	 5.3055446732e-001	 1.8288359481e+000
 1.6585039117e+000	 5.4790456091e-001	 1.7360298877e+000
 1.6526768930e+000	 5.6523781365e-001	 1.6395955494e+000
 1.6466538858e+000	 5.8255108249e-001	 1.5403483431e+000
 1.6404345206e+000	 5.9984120060e-001	 1.4392057092e+000
 1.6340184931e+000	 6.1710497894e-001	 1.3371863522e+000
 1.6274055650e+000	 6.3433920787e-001	 1.2354082197e+000
 1.6205955652e+000	 6.5154065878e-001	 1.1350851759e+000
 1.6135883902e+000	 6.6870608575e-001	 1.0375254455e+000
 1.6063840055e+000	 6.8583222732e-001	 9.4408318298e-001
 1.6950627408e+000	 5.2102602613e-001	 1.8836956809e+000
 1.6895433318e+000	 5.3865495290e-001	 1.7953414271e+000
 1.6838258868e+000	 5.5626994706e-001	 1.7021891738e+000
 1.6779099014e+000	 5.7386784325e-001	 1.6050671358e+000
 1.6717949351e+000	 5.9144545042e-001	 1.5049195750e+000
 1.6654806129e+000	 6.0899955340e-001	 1.4028074612e+000
 1.6589666257e+000	 6.2652691446e-001	 1.2999078044e+000
 1.6522527317e+000	 6.4402427494e-001	 1.1975115910e+000
 1.6453387571e+000	 6.6148835695e-001	 1.0970202669e+000
 1.6382245968e+000	 6.7891586502e-001	 9.9999008793e-001
 1.6309102159e+000	 6.9630348787e-001	 9.0742638816e-001
 1.7205536997e+000	 5.2886140161e-001	 1.8617932638e+000
 1.7149512879e+000	 5.4675543847e-001	 1.7739602297e+000
 1.7091478619e+000	 5.6463533321e-001	 1.6807600553e+000
 1.7031429098e+000	 5.8249787284e-001	 1.5831431418e+000
 1.6969359845e+000	 6.0033981835e-001	 1.4821921324e+000
 1.6905267052e+000	 6.1815790620e-001	 1.3791228383e+000
 1.6839147584e+000	 6.3594884997e-001	 1.2752836884e+000
 1.6770998984e+000	 6.5370934202e-001	 1.1721536301e+000
 1.6700819490e+000	 6.7143605513e-001	 1.0713555815e+000
 1.6628608034e+000	 6.8912564429e-001	 9.7453397220e-001
 1.6554364262e+000	 7.0677474842e-001	 8.8222208290e-001
 1.4101743228e+000	 6.0206214291e-001	 1.3756514847e+000
 1.4036778048e+000	 6.1705682569e-001	 1.2711698731e+000
 1.3970083406e+000	 6.3201127378e-001	 1.1651552579e+000
 1.3901660856e+000	 6.4692259452e-001	 1.0583029920e+000
 1.3831512578e+000	 6.6178788798e-001	 9.5130465095e-001
 1.3759641382e+000	 6.7660424856e-001	 8.4494780289e-001
 1.3686050715e+000	 6.9136876671e-001	 7.3986608676e-001
 1.3610744663e+000	 7.0607853061e-001	 6.3597813920e-001
 1.3533727953e+000	 7.2073062788e-001	 5.3320718316e-001
 1.3455005959e+000	 7.3532214732e-001	 4.3152317894e-001
 1.3374584701e+000	 7.4985018066e-001	 3.3094351955e-001
 1.4347005331e+000	 6.1253340346e-001	 1.3336745521e+000
 1.4280910255e+000	 6.2778887864e-001	 1.2301743208e+000
 1.4213055639e+000	 6.4300341935e-001	 1.1249218984e+000
 1.4143443062e+000	 6.5817408263e-001	 1.0187132997e+000
 1.4072074742e+000	 6.7329791811e-001	 9.1238694792e-001
 1.3998953539e+000	 6.8837196965e-001	 8.0675689507e-001
 1.3924082959e+000	 7.0339327710e-001	 7.0182956880e-001
 1.3847467159e+000	 7.1835887800e-001	 5.9753478156e-001
 1.3769110950e+000	 7.3326580931e-001	 4.9384967206e-001
 1.3689019798e+000	 7.4811110919e-001	 3.9079937384e-001
 1.3607199827e+000	 7.6289181882e-001	 2.8845759212e-001
 1.4592267435e+000	 6.2300466401e-001	 1.2823355093e+000
 1.4525042463e+000	 6.3852093159e-001	 1.1800255074e+000
 1.4456027872e+000	 6.5399556492e-001	 1.0759217773e+000
 1.4385225267e+000	 6.6942557074e-001	 9.7092740806e-001
 1.4312636906e+000	 6.8480794824e-001	 8.6601491665e-001
 1.4238265695e+000	 7.0013969074e-001	 7.6135092318e-001
 1.4162115203e+000	 7.1541778749e-001	 6.5686652277e-001
 1.4084189656e+000	 7.3063922539e-001	 5.5254078768e-001
 1.4004493947e+000	 7.4580099073e-001	 4.4840141200e-001
 1.3923033636e+000	 7.6090007107e-001	 3.4452526572e-001
 1.3839814953e+000	 7.7593345698e-001	 2.4103885605e-001
 1.4837529538e+000	 6.3347592456e-001	 1.2247354807e+000
 1.4769174671e+000	 6.4925298454e-001	 1.1238451137e+000
 1.4699000105e+000	 6.6498771050e-001	 1.0212864557e+000
 1.4627007473e+000	 6.8067705886e-001	 9.1812177676e-001
 1.4553199070e+000	 6.9631797836e-001	 8.1479321506e-001
 1.4477577852e+000	 7.1190741183e-001	 7.1123140703e-001
 1.4400147447e+000	 7.2744229788e-001	 6.0741242848e-001
 1.4320912153e+000	 7.4291957277e-001	 5.0336165808e-001
 1.4239876944e+000	 7.5833617216e-001	 3.9915431043e-001
 1.4157047475e+000	 7.7368903295e-001	 2.9491587795e-001
 1.4072430079e+000	 7.8897509513e-001	 1.9082247941e-001
 1.5082791642e+000	 6.4394718511e-001	 1.1638843557e+000
 1.5013306879e+000	 6.5998503749e-001	 1.0646476772e+000
 1.4941972338e+000	 6.7597985607e-001	 9.6406471727e-001
 1.4868789679e+000	 6.9192854697e-001	 8.6290691115e-001
 1.4793761234e+000	 7.0782800849e-001	 7.6115057423e-001
 1.4716890009e+000	 7.2367513292e-001	 6.5876417836e-001
 1.4638179691e+000	 7.3946680827e-001	 5.5576622529e-001
 1.4557634649e+000	 7.5519992016e-001	 4.5222575921e-001
 1.4475259941e+000	 7.7087135358e-001	 3.4826278976e-001
 1.4391061313e+000	 7.8647799482e-001	 2.4404862361e-001
 1.4305045204e+000	 8.0201673329e-001	 1.3980610311e-001
 1.5328053745e+000	 6.5441844567e-001	 1.1026853782e+000
 1.5257439087e+000	 6.7071709044e-001	 1.0053349503e+000
 1.5184944571e+000	 6.8697200164e-001	 9.0694251154e-001
 1.5110571885e+000	 7.0318003508e-001	 8.0764012758e-001
 1.5034323398e+000	 7.1933803862e-001	 7.0738438635e-001
 1.4956202166e+000	 7.3544285401e-001	 6.0618267332e-001
 1.4876211935e+000	 7.5149131866e-001	 5.0409366288e-001
 1.4794357146e+000	 7.6748026755e-001	 4.0122772170e-001
 1.4710642938e+000	 7.8340653501e-001	 2.9774722284e-001
 1.4625075152e+000	 7.9926695670e-001	 1.9386676908e-001
 1.4537660330e+000	 8.1505837144e-001	 8.9853324088e-002
 1.5573315848e+000	 6.6488970622e-001	 1.0439197172e+000
 1.5501571295e+000	 6.8144914339e-001	 9.4864785799e-001
 1.5427916804e+000	 6.9796414722e-001	 8.5221063240e-001
 1.5352354090e+000	 7.1443152319e-001	 7.5455187034e-001
 1.5274885562e+000	 7.3084806875e-001	 6.5566392857e-001
 1.5195514323e+000	 7.4721057510e-001	 5.5559123555e-001
 1.5114244179e+000	 7.6351582905e-001	 4.5443067317e-001
 1.5031079643e+000	 7.7976061493e-001	 3.5233187130e-001
 1.4946025935e+000	 7.9594171644e-001	 2.4949741408e-001
 1.4859088990e+000	 8.1205591857e-001	 1.4618295682e-001
 1.4770275456e+000	 8.2810000960e-001	 4.2697252344e-002
 1.5818577952e+000	 6.7536096677e-001	 9.9026221382e-001
 1.5745703503e+000	 6.9218119634e-001	 8.9686334130e-001
 1.5670889037e+000	 7.0895629279e-001	 8.0203430193e-001
 1.5594136296e+000	 7.2568301130e-001	 7.0574883951e-001
 1.5515447726e+000	 7.4235809888e-001	 6.0803358811e-001
 1.5434826480e+000	 7.5897829619e-001	 5.0896842874e-001
 1.5352276423e+000	 7.7554033944e-001	 4.0868676105e-001
 1.5267802140e+000	 7.9204096232e-001	 3.0737568914e-001
 1.5181408932e+000	 8.0847689786e-001	 2.0527612108e-001
 1.5093102829e+000	 8.2484488045e-001	 1.0268278120e-001
 1.5002890582e+000	 8.4114164775e-001	-5.5865980477e-005
 1.6063840055e+000	 6.8583222732e-001	 9.4408318298e-001
 1.5989835711e+000	 7.0291324929e-001	 8.5208331779e-001
 1.5913861270e+000	 7.1994843836e-001	 7.5845942159e-001
 1.5835918502e+000	 7.3693449941e-001	 6.6321711393e-001
 1.5756009890e+000	 7.5386812901e-001	 5.6641608866e-001
 1.5674138637e+000	 7.7074601728e-001	 4.6817035771e-001
 1.5590308667e+000	 7.8756484983e-001	 3.6864841184e-001
 1.5504524636e+000	 8.0432130970e-001	 2.6807329794e-001
 1.5416791929e+000	 8.2101207928e-001	 1.6672261260e-001
 1.5327116667e+000	 8.3763384232e-001	 6.4928411447e-002
 1.5235505708e+000	 8.5418328591e-001	-3.6922966674e-002
 1.6309102159e+000	 6.9630348787e-001	 9.0742638816e-001
 1.6233967918e+000	 7.1364530224e-001	 8.1629482979e-001
 1.6156833503e+000	 7.3094058393e-001	 7.2341557363e-001
 1.6077700708e+000	 7.4818598752e-001	 6.2882526967e-001
 1.5996572054e+000	 7.6537815914e-001	 5.3261571781e-001
 1.5913450793e+000	 7.8251373836e-001	 4.3493399695e-001
 1.5828340911e+000	 7.9958936022e-001	 3.3598251381e-001
 1.5741247133e+000	 8.1660165709e-001	 2.3601897168e-001
 1.5652174926e+000	 8.3354726071e-001	 1.3535625888e-001
 1.5561130506e+000	 8.5042280420e-001	 3.4362256864e-002
 1.5468120834e+000	 8.6722492406e-001	-6.6540432801e-002
 1.6554364262e+000	 7.0677474842e-001	 8.8222208290e-001
 1.6478100126e+000	 7.2437735518e-001	 7.9137290922e-001
 1.6399805736e+000	 7.4193272950e-001	 6.9871901459e-001
 1.6319482913e+000	 7.5943747564e-001	 6.0432749464e-001
 1.6237134218e+000	 7.7688818926e-001	 5.0832155548e-001
 1.6152762950e+000	 7.9428145945e-001	 4.1088052608e-001
 1.6066373155e+000	 8.1161387061e-001	 3.1223979417e-001
 1.5977969630e+000	 8.2888200447e-001	 2.1269066611e-001
 1.5887557923e+000	 8.4608244213e-001	 1.1258015114e-001
 1.5795144344e+000	 8.6321176607e-001	 1.2310669959e-002
 1.5700735960e+000	 8.8026656221e-001	-8.7660312810e-002
 1.3374584701e+000	 7.4985018066e-001	 3.3094351955e-001
 1.3292458404e+000	 7.6431398883e-001	 2.3134302407e-001
 1.3208646337e+000	 7.7870848989e-001	 1.3214326977e-001
 1.3123156482e+000	 7.9303079459e-001	 3.3402107728e-002
 1.3035997473e+000	 8.0727802380e-001	-6.4657649935e-002
 1.2947178591e+000	 8.2144731029e-001	-1.6176585743e-001
 1.2856709767e+000	 8.3553580053e-001	-2.5760423189e-001
 1.2764601577e+000	 8.4954065654e-001	-3.5180571667e-001
 1.2670865240e+000	 8.6345905763e-001	-4.4395402009e-001
 1.2575512615e+000	 8.7728820228e-001	-5.3358333736e-001
 1.2478556198e+000	 8.9102530988e-001	-6.2017826313e-001
 1.3607199827e+000	 7.6289181882e-001	 2.8845759212e-001
 1.3523645163e+000	 7.7760718625e-001	 1.8680822782e-001
 1.3438375409e+000	 7.9225204115e-001	 8.6146286805e-002
 1.3351398687e+000	 8.0682344403e-001	-1.2960828121e-002
 1.3262723780e+000	 8.2131846568e-001	-1.1042746845e-001
 1.3172360131e+000	 8.3573418901e-001	-2.0694390760e-001
 1.3080317844e+000	 8.5006771085e-001	-3.0225523077e-001
 1.2986607678e+000	 8.6431614387e-001	-3.9602154869e-001
 1.2891241048e+000	 8.7847661832e-001	-4.8785133637e-001
 1.2794230019e+000	 8.9254628395e-001	-5.7730105186e-001
 1.2695587305e+000	 9.0652231179e-001	-6.6387495823e-001
 1.3839814953e+000	 7.7593345698e-001	 2.4103885605e-001
 1.3754831922e+000	 7.9090038366e-001	 1.3792177614e-001
 1.3668104481e+000	 8.0579559240e-001	 3.5415052178e-002
 1.3579640892e+000	 8.2061609346e-001	-6.5934307943e-002
 1.3489450086e+000	 8.3535890756e-001	-1.6552977658e-001
 1.3397541671e+000	 8.5002106772e-001	-2.6272575317e-001
 1.3303925920e+000	 8.6459962117e-001	-3.5693595363e-001
 1.3208613779e+000	 8.7909163119e-001	-4.4916086731e-001
 1.3111616856e+000	 8.9349417900e-001	-5.3955921644e-001
 1.3012947424e+000	 9.0780436561e-001	-6.2772935313e-001
 1.2912618412e+000	 9.2201931370e-001	-7.1321428265e-001
 1.4072430079e+000	 7.8897509513e-001	 1.9082247941e-001
 1.3986018680e+000	 8.0419358107e-001	 8.6866184149e-002
 1.3897833553e+000	 8.1933914365e-001	-1.6758794945e-002
 1.3807883096e+000	 8.3440874290e-001	-1.1954318505e-001
 1.3716176393e+000	 8.4939934944e-001	-2.2092650481e-001
 1.3622723211e+000	 8.6430794644e-001	-3.2029745713e-001
 1.3527533997e+000	 8.7913153149e-001	-4.1699442914e-001
 1.3430619880e+000	 8.9386711852e-001	-5.1030610084e-001
 1.3331992664e+000	 9.0851173969e-001	-5.9947231140e-001
 1.3231664828e+000	 9.2306244728e-001	-6.8523080563e-001
 1.3129649519e+000	 9.3751631561e-001	-7.6851595210e-001
 1.4305045204e+000	 8.0201673329e-001	 1.3980610311e-001
 1.4217205439e+000	 8.1748677848e-001	 3.5560316457e-002
 1.4127562625e+000	 8.3288269491e-001	-6.8529922886e-002
 1.4036125301e+000	 8.4820139233e-001	-1.7200942631e-001
 1.3942902700e+000	 8.6343979131e-001	-2.7436998889e-001
 1.3847904751e+000	 8.7859482515e-001	-3.7505069287e-001
 1.3751142074e+000	 8.9366344181e-001	-4.7343831805e-001
 1.3652625981e+000	 9.0864260585e-001	-5.6886786102e-001
 1.3552368472e+000	 9.2352930037e-001	-6.6062316483e-001
 1.3450382232e+000	 9.3832052895e-001	-7.4793766120e-001
 1.3346680626e+000	 9.5301331752e-001	-8.2999522661e-001
 1.4537660330e+000	 8.1505837144e-001	 8.9853324088e-002
 1.4448392197e+000	 8.3077997589e-001	-1.4210942943e-002
 1.4357291697e+000	 8.4642624616e-001	-1.1818722632e-001
 1.4264367505e+000	 8.6199404176e-001	-2.2168984262e-001
 1.4169629007e+000	 8.7748023319e-001	-3.2427817323e-001
 1.4073086290e+000	 8.9288170386e-001	-4.2545684394e-001
 1.3974750150e+000	 9.0819535213e-001	-5.2467601059e-001
 1.3874632082e+000	 9.2341809318e-001	-6.2133175323e-001
 1.3772744280e+000	 9.3854686106e-001	-7.1476658113e-001
 1.3669099637e+000	 9.5357861061e-001	-8.0427005105e-001
 1.3563711732e+000	 9.6851031942e-001	-8.8907950094e-001
 1.4770275456e+000	 8.2810000960e-001	 4.2697252344e-002
 1.4679578956e+000	 8.4407317330e-001	-6.0793088713e-002
 1.4587020769e+000	 8.5996979741e-001	-1.6415014826e-001
 1.4492609710e+000	 8.7578669120e-001	-2.6707229933e-001
 1.4396355313e+000	 8.9152067506e-001	-3.6920095806e-001
 1.4298267830e+000	 9.0716858258e-001	-4.7012060509e-001
 1.4198358227e+000	 9.2272726244e-001	-5.6935891177e-001
 1.4096638183e+000	 9.3819358050e-001	-6.6638697413e-001
 1.3993120089e+000	 9.5356442174e-001	-7.6061965773e-001
 1.3887817041e+000	 9.6883669228e-001	-8.5141605631e-001
 1.3780742839e+000	 9.8400732133e-001	-9.3808006735e-001
 1.5002890582e+000	 8.4114164775e-001	-5.5865980475e-005
 1.4910765715e+000	 8.5736637071e-001	-1.0265831413e-001
 1.4816749840e+000	 8.7351334866e-001	-2.0496491467e-001
 1.4720851914e+000	 8.8957934063e-001	-3.0677183353e-001
 1.4623081620e+000	 9.0556111694e-001	-4.0781616343e-001
 1.4523449370e+000	 9.2145546129e-001	-5.0777575330e-001
 1.4421966304e+000	 9.3725917276e-001	-6.0626914069e-001
 1.4318644284e+000	 9.5296906783e-001	-7.0285559069e-001
 1.4213495897e+000	 9.6858198243e-001	-7.9703524532e-001
 1.4106534445e+000	 9.8409477394e-001	-8.8824938724e-001
 1.3997773946e+000	 9.9950432324e-001	-9.7588082156e-001
 1.5235505708e+000	 8.5418328591e-001	-3.6922966674e-002
 1.5141952473e+000	 8.7065956811e-001	-1.3840176133e-001
 1.5046478912e+000	 8.8705689991e-001	-2.3930069119e-001
 1.4949094119e+000	 9.0337199006e-001	-3.3952668798e-001
 1.4849807927e+000	 9.1960155881e-001	-4.3892540785e-001
 1.4748630910e+000	 9.3574234000e-001	-5.3728083533e-001
 1.4645574380e+000	 9.5179108307e-001	-6.3431498774e-001
 1.4540650385e+000	 9.6774455515e-001	-7.2968772443e-001
 1.4433871705e+000	 9.8359954311e-001	-8.2299666581e-001
 1.4325251850e+000	 9.9935285560e-001	-9.1377722662e-001
 1.4214805053e+000	 1.0150013251e+000	-1.0015037088e+000
 1.5468120834e+000	 8.6722492406e-001	-6.6540432801e-002
 1.5373139232e+000	 8.8395276552e-001	-1.6673770906e-001
 1.5276207984e+000	 9.0060045116e-001	-2.6594566990e-001
 1.5177336323e+000	 9.1716463949e-001	-3.6419427049e-001
 1.5076534233e+000	 9.3364200069e-001	-4.6144991077e-001
 1.4973812450e+000	 9.5002921872e-001	-5.5761478063e-001
 1.4869182457e+000	 9.6632299339e-001	-6.5252630235e-001
 1.4762656486e+000	 9.8252004248e-001	-7.4595667569e-001
 1.4654247513e+000	 9.9861710379e-001	-8.3761253148e-001
 1.4543969254e+000	 1.0146109373e+000	-9.2713566240e-001
 1.4431836160e+000	 1.0304983271e+000	-1.0140989017e+000
 1.5700735960e+000	 8.8026656221e-001	-8.7660312810e-002
 1.5604325990e+000	 8.9724596293e-001	-1.8649570463e-001
 1.5505937056e+000	 9.1414400241e-001	-2.8380309369e-001
 1.5405578528e+000	 9.3095728892e-001	-3.7974704655e-001
 1.5303260540e+000	 9.4768244256e-001	-4.7442622659e-001
 1.5198993990e+000	 9.6431609743e-001	-5.6787244725e-001
 1.5092790533e+000	 9.8085490370e-001	-6.6004981858e-001
 1.4984662587e+000	 9.9729552980e-001	-7.5085399376e-001
 1.4874623321e+000	 1.0136346645e+000	-8.4011253455e-001
 1.4762686658e+000	 1.0298690189e+000	-9.2758015477e-001
 1.4648867267e+000	 1.0459953290e+000	-1.0129449243e+000
 1.2478556198e+000	 8.9102530988e-001	-6.2017826313e-001
 1.2380009114e+000	 9.0466762225e-001	-7.0570229246e-001
 1.2279885099e+000	 9.1821240449e-001	-7.9215713978e-001
 1.2178198509e+000	 9.3165694760e-001	-8.7900688349e-001
 1.2074964313e+000	 9.4499857057e-001	-9.6566169046e-001
 1.1970198092e+000	 9.5823462210e-001	-1.0514784277e+000
 1.1863916024e+000	 9.7136248230e-001	-1.1357614965e+000
 1.1756134885e+000	 9.8437956441e-001	-1.2177638905e+000
 1.1646872033e+000	 9.9728331646e-001	-1.2966884771e+000
 1.1536145402e+000	 1.0100712229e+000	-1.3716895027e+000
 1.1423973494e+000	 1.0227408064e+000	-1.4418750930e+000
 1.2695587305e+000	 9.0652231179e-001	-6.6387495823e-001
 1.2595326258e+000	 9.2040189569e-001	-7.4944793214e-001
 1.2493460854e+000	 9.3418225318e-001	-8.3593638720e-001
 1.2390005697e+000	 9.4786062816e-001	-9.2282126956e-001
 1.2284976019e+000	 9.6143429298e-001	-1.0095218380e+000
 1.2178387669e+000	 9.7490055022e-001	-1.0953962159e+000
 1.2070257109e+000	 9.8825673443e-001	-1.1797421912e+000
 1.1960601405e+000	 1.0015002139e+000	-1.2617982663e+000
 1.1849438218e+000	 1.0146283922e+000	-1.3407459671e+000
 1.1736785794e+000	 1.0276387101e+000	-1.4157071751e+000
 1.1622662956e+000	 1.0405286470e+000	-1.4857525250e+000
 1.2912618412e+000	 9.2201931370e-001	-7.1321428265e-001
 1.2810643402e+000	 9.3613616914e-001	-7.9774126656e-001
 1.2707036608e+000	 9.5015210188e-001	-8.8307821402e-001
 1.2601812885e+000	 9.6406430873e-001	-9.6873562307e-001
 1.2494987724e+000	 9.7787001539e-001	-1.0541549963e+000
 1.2386577246e+000	 9.9156647834e-001	-1.1387093071e+000
 1.2276598194e+000	 1.0051509866e+000	-1.2217037398e+000
 1.2165067926e+000	 1.0186208633e+000	-1.3023777217e+000
 1.2052004404e+000	 1.0319734679e+000	-1.3799019860e+000
 1.1937426186e+000	 1.0452061972e+000	-1.4533867327e+000
 1.1821352418e+000	 1.0583164877e+000	-1.5218789135e+000
 1.3129649519e+000	 9.3751631561e-001	-7.6851595210e-001
 1.3025960546e+000	 9.5187044258e-001	-8.5086930250e-001
 1.2920612363e+000	 9.6612195058e-001	-9.3386816173e-001
 1.2813620074e+000	 9.8026798929e-001	-1.0170646964e+000
 1.2704999430e+000	 9.9430573780e-001	-1.0999351909e+000
 1.2594766823e+000	 1.0082324065e+000	-1.1818804023e+000
 1.2482939279e+000	 1.0220452387e+000	-1.2622272117e+000
 1.2369534446e+000	 1.0357415128e+000	-1.3402254436e+000
 1.2254570589e+000	 1.0493185436e+000	-1.4150555521e+000
 1.2138066578e+000	 1.0627736844e+000	-1.4858257510e+000
 1.2020041879e+000	 1.0761043283e+000	-1.5515750257e+000
 1.3346680626e+000	 9.5301331752e-001	-8.2999522661e-001
 1.3241277690e+000	 9.6760471602e-001	-9.0904768021e-001
 1.3134188117e+000	 9.8209179928e-001	-9.8852182240e-001
 1.3025427262e+000	 9.9647166985e-001	-1.0680531923e+000
 1.2915011135e+000	 1.0107414602e+000	-1.1471659199e+000
 1.2802956401e+000	 1.0248983346e+000	-1.2252985537e+000
 1.2689280364e+000	 1.0389394908e+000	-1.3018115523e+000
 1.2574000967e+000	 1.0528621622e+000	-1.3759833828e+000
 1.2457136775e+000	 1.0666636193e+000	-1.4470129495e+000
 1.2338706970e+000	 1.0803411715e+000	-1.5140211275e+000
 1.2218731341e+000	 1.0938921690e+000	-1.5760526257e+000
 1.3563711732e+000	 9.6851031942e-001	-8.8907950094e-001
 1.3456594834e+000	 9.8333898946e-001	-9.6981697464e-001
 1.3347763872e+000	 9.9806164798e-001	-1.0471381897e+000
 1.3237234450e+000	 1.0126753504e+000	-1.1218678465e+000
 1.3125022841e+000	 1.0271771826e+000	-1.1960666472e+000
 1.3011145978e+000	 1.0415642627e+000	-1.2692663423e+000
 1.2895621449e+000	 1.0558337430e+000	-1.3408715480e+000
 1.2778467487e+000	 1.0699828117e+000	-1.4101995238e+000
 1.2659702960e+000	 1.0840086950e+000	-1.4764812905e+000
 1.2539347362e+000	 1.0979086586e+000	-1.5388631085e+000
 1.2417420802e+000	 1.1116800096e+000	-1.5964083150e+000
 1.3780742839e+000	 9.8400732133e-001	-9.3808006735e-001
 1.3671911978e+000	 9.9907326290e-001	-1.0210080117e+000
 1.3561339626e+000	 1.0140314967e+000	-1.1006177662e+000
 1.3449041638e+000	 1.0288790310e+000	-1.1761479766e+000
 1.3335034546e+000	 1.0436129050e+000	-1.2467702494e+000
 1.3219335555e+000	 1.0582301908e+000	-1.3139973439e+000
 1.3101962534e+000	 1.0727279951e+000	-1.3797247124e+000
 1.2982934008e+000	 1.0871034612e+000	-1.4433208524e+000
 1.2862269145e+000	 1.1013537707e+000	-1.5040607698e+000
 1.2739987753e+000	 1.1154761458e+000	-1.5611281385e+000
 1.2616110264e+000	 1.1294678503e+000	-1.6136170881e+000
 1.3997773946e+000	 9.9950432324e-001	-9.7588082156e-001
 1.3887229121e+000	 1.0148075363e+000	-1.0601312634e+000
 1.3774915381e+000	 1.0300013454e+000	-1.1412039351e+000
 1.3660848826e+000	 1.0450827115e+000	-1.2183911184e+000
 1.3545046252e+000	 1.0600486274e+000	-1.2909114253e+000
 1.3427525133e+000	 1.0748961189e+000	-1.3579115429e+000
 1.3308303620e+000	 1.0896222472e+000	-1.4185838606e+000
 1.3187400528e+000	 1.1042241106e+000	-1.4756850652e+000
 1.3064835331e+000	 1.1186988464e+000	-1.5302367998e+000
 1.2940628145e+000	 1.1330436329e+000	-1.5814715264e+000
 1.2814799725e+000	 1.1472556909e+000	-1.6285256341e+000
 1.4214805053e+000	 1.0150013251e+000	-1.0015037088e+000
 1.4102546265e+000	 1.0305418098e+000	-1.0862244949e+000
 1.3988491135e+000	 1.0459711941e+000	-1.1679765817e+000
 1.3872656015e+000	 1.0612863921e+000	-1.2461091761e+000
 1.3755057957e+000	 1.0764843498e+000	-1.3198970898e+000
 1.3635714710e+000	 1.0915620471e+000	-1.3885412324e+000
 1.3514644705e+000	 1.1065164994e+000	-1.4511692735e+000
 1.3391867049e+000	 1.1213447601e+000	-1.5068364817e+000
 1.3267401516e+000	 1.1360439222e+000	-1.5553720390e+000
 1.3141268537e+000	 1.1506111200e+000	-1.6004199506e+000
 1.3013489187e+000	 1.1650435316e+000	-1.6418454130e+000
 1.4431836160e+000	 1.0304983271e+000	-1.0140989017e+000
 1.4317863409e+000	 1.0462760832e+000	-1.0984627239e+000
 1.4202066890e+000	 1.0619410428e+000	-1.1801502665e+000
 1.4084463203e+000	 1.0774900727e+000	-1.2585758514e+000
 1.3965069663e+000	 1.0929200723e+000	-1.3330781252e+000
 1.3843904287e+000	 1.1082279752e+000	-1.4029203626e+000
 1.3720985790e+000	 1.1234107515e+000	-1.4672909424e+000
 1.3596333569e+000	 1.1384654095e+000	-1.5253040011e+000
 1.3469967702e+000	 1.1533889979e+000	-1.5760002700e+000
 1.3341908929e+000	 1.1681786072e+000	-1.6183481018e+000
 1.3212178648e+000	 1.1828313722e+000	-1.6541455284e+000
 1.4648867267e+000	 1.0459953290e+000	-1.0129449243e+000
 1.4533180553e+000	 1.0620103567e+000	-1.0961476926e+000
 1.4415642644e+000	 1.0779108915e+000	-1.1770688404e+000
 1.4296270391e+000	 1.0936937532e+000	-1.2551945068e+000
 1.4175081369e+000	 1.1093557947e+000	-1.3299343893e+000
 1.4052093865e+000	 1.1248939033e+000	-1.4006218340e+000
 1.3927326875e+000	 1.1403050036e+000	-1.4665140993e+000
 1.3800800090e+000	 1.1555860590e+000	-1.5267927992e+000
 1.3672533887e+000	 1.1707340736e+000	-1.5805645342e+000
 1.3542549321e+000	 1.1857460943e+000	-1.6268617146e+000
 1.3410868110e+000	 1.2006192129e+000	-1.6646435816e+000
 1.1423973494e+000	 1.0227408064e+000	-1.4418750930e+000
 1.1310392512e+000	 1.0352877560e+000	-1.5088769500e+000
 1.1195405341e+000	 1.0477115864e+000	-1.5746955984e+000
 1.1079032118e+000	 1.0600099458e+000	-1.6388925468e+000
 1.0961293502e+000	 1.0721805264e+000	-1.7009897331e+000
 1.0842210662e+000	 1.0842210662e+000	-1.7604712186e+000
 1.0721805264e+000	 1.0961293502e+000	-1.8167850658e+000
 1.0600099458e+000	 1.1079032118e+000	-1.8693453918e+000
 1.0477115864e+000	 1.1195405341e+000	-1.9175345879e+000
 1.0352877560e+000	 1.1310392512e+000	-1.9607056952e+000
 1.0227408064e+000	 1.1423973494e+000	-1.9981849255e+000
 1.1622662956e+000	 1.0405286470e+000	-1.4857525250e+000
 1.1507106537e+000	 1.0532938173e+000	-1.5525434094e+000
 1.1390119471e+000	 1.0659337270e+000	-1.6181269868e+000
 1.1271722247e+000	 1.0784459834e+000	-1.6820476825e+000
 1.1151935882e+000	 1.0908282387e+000	-1.7438063877e+000
 1.1030781915e+000	 1.1030781915e+000	-1.8028622545e+000
 1.0908282387e+000	 1.1151935882e+000	-1.8586346927e+000
 1.0784459834e+000	 1.1271722247e+000	-1.9105055609e+000
 1.0659337270e+000	 1.1390119471e+000	-1.9578215422e+000
 1.0532938173e+000	 1.1507106537e+000	-1.9998966924e+000
 1.0405286470e+000	 1.1622662956e+000	-2.0360151496e+000
 1.1821352418e+000	 1.0583164877e+000	-1.5218789135e+000
 1.1703820561e+000	 1.0712998786e+000	-1.5871325503e+000
 1.1584833601e+000	 1.0841558676e+000	-1.6512602408e+000
 1.1464412376e+000	 1.0968820211e+000	-1.7137356638e+000
 1.1342578263e+000	 1.1094759510e+000	-1.7739855702e+000
 1.1219353168e+000	 1.1219353168e+000	-1.8313917819e+000
 1.1094759510e+000	 1.1342578263e+000	-1.8852934126e+000
 1.0968820211e+000	 1.1464412376e+000	-1.9349893011e+000
 1.0841558676e+000	 1.1584833601e+000	-1.9797406451e+000
 1.0712998786e+000	 1.1703820561e+000	-2.0187738249e+000
 1.0583164877e+000	 1.1821352418e+000	-2.0512834037e+000
 1.2020041879e+000	 1.0761043283e+000	-1.5515750257e+000
 1.1900534585e+000	 1.0893059399e+000	-1.6142164255e+000
 1.1779547731e+000	 1.1023780082e+000	-1.6759498738e+000
 1.1657102505e+000	 1.1153180587e+000	-1.7361270986e+000
 1.1533220644e+000	 1.1281236634e+000	-1.7940500258e+000
 1.1407924421e+000	 1.1407924421e+000	-1.8489730846e+000
 1.1281236634e+000	 1.1533220644e+000	-1.9001057543e+000
 1.1153180587e+000	 1.1657102505e+000	-1.9466153404e+000
 1.1023780082e+000	 1.1779547731e+000	-1.9876299699e+000
 1.0893059399e+000	 1.1900534585e+000	-2.0222417899e+000
 1.0761043283e+000	 1.2020041879e+000	-2.0495103588e+000
 1.2218731341e+000	 1.0938921690e+000	-1.5760526257e+000
 1.2097248609e+000	 1.1073120011e+000	-1.6352475092e+000
 1.1974261861e+000	 1.1206001488e+000	-1.6939186977e+000
 1.1849792634e+000	 1.1337540964e+000	-1.7512470513e+000
 1.1723863024e+000	 1.1467713757e+000	-1.8063612252e+000
 1.1596495674e+000	 1.1596495674e+000	-1.8583403817e+000
 1.1467713757e+000	 1.1723863024e+000	-1.9062171631e+000
 1.1337540964e+000	 1.1849792634e+000	-1.9489809110e+000
 1.1206001488e+000	 1.1974261861e+000	-1.9855811216e+000
 1.1073120011e+000	 1.2097248609e+000	-2.0149311199e+000
 1.0938921690e+000	 1.2218731341e+000	-2.0359119385e+000
 1.2417420802e+000	 1.1116800096e+000	-1.5964083150e+000
 1.2293962633e+000	 1.1253180624e+000	-1.6515534589e+000
 1.2168975991e+000	 1.1388222893e+000	-1.7067536615e+000
 1.2042482763e+000	 1.1521901340e+000	-1.7609721271e+000
 1.1914505405e+000	 1.1654190881e+000	-1.8131178765e+000
 1.1785066928e+000	 1.1785066928e+000	-1.8620489636e+000
 1.1654190881e+000	 1.1914505405e+000	-1.9065759718e+000
 1.1521901340e+000	 1.2042482763e+000	-1.9454657756e+000
 1.1388222893e+000	 1.2168975991e+000	-1.9774455539e+000
 1.1253180624e+000	 1.2293962633e+000	-2.0012070370e+000
 1.1116800096e+000	 1.2417420802e+000	-2.0154109712e+000
 1.2616110264e+000	 1.1294678503e+000	-1.6136170881e+000
 1.2490676657e+000	 1.1433241237e+000	-1.6643314999e+000
 1.2363690121e+000	 1.1570444299e+000	-1.7159012060e+000
 1.2235172892e+000	 1.1706261717e+000	-1.7670269515e+000
 1.2105147786e+000	 1.1840668004e+000	-1.8163536964e+000
 1.1973638181e+000	 1.1973638181e+000	-1.8624744325e+000
 1.1840668004e+000	 1.2105147786e+000	-1.9039343003e+000
 1.1706261717e+000	 1.2235172892e+000	-1.9392349894e+000
 1.1570444299e+000	 1.2363690121e+000	-1.9668394064e+000
 1.1433241237e+000	 1.2490676657e+000	-1.9851765915e+000
 1.1294678503e+000	 1.2616110264e+000	-1.9926468644e+000
 1.2814799725e+000	 1.1472556909e+000	-1.6285256341e+000
 1.2687390682e+000	 1.1613301850e+000	-1.6746424738e+000
 1.2558404251e+000	 1.1752665705e+000	-1.7226621886e+000
 1.2427863021e+000	 1.1890622093e+000	-1.7709801118e+000
 1.2295790166e+000	 1.2027145127e+000	-1.8179345194e+000
 1.2162209434e+000	 1.2162209434e+000	-1.8618111430e+000
 1.2027145127e+000	 1.2295790166e+000	-1.9008480013e+000
 1.1890622093e+000	 1.2427863021e+000	-1.9332405346e+000
 1.1752665705e+000	 1.2558404251e+000	-1.9571470231e+000
 1.1613301850e+000	 1.2687390682e+000	-1.9706942684e+000
 1.1472556909e+000	 1.2814799725e+000	-1.9719835156e+000
 1.3013489187e+000	 1.1650435316e+000	-1.6418454130e+000
 1.2884104706e+000	 1.1793362463e+000	-1.6834045871e+000
 1.2753118380e+000	 1.1934887111e+000	-1.7281864234e+000
 1.2620553150e+000	 1.2074982469e+000	-1.7742396167e+000
 1.2486432547e+000	 1.2213622251e+000	-1.8195548170e+000
 1.2350780687e+000	 1.2350780687e+000	-1.8620699291e+000
 1.2213622251e+000	 1.2486432547e+000	-1.8996757534e+000
 1.2074982469e+000	 1.2620553150e+000	-1.9302219482e+000
 1.1934887111e+000	 1.2753118380e+000	-1.9515232927e+000
 1.1793362463e+000	 1.2884104706e+000	-1.9613662274e+000
 1.1650435316e+000	 1.3013489187e+000	-1.9575156478e+000
 1.3212178648e+000	 1.1828313722e+000	-1.6541455284e+000
 1.3080818730e+000	 1.1973423076e+000	-1.6913868919e+000
 1.2947832510e+000	 1.2117108517e+000	-1.7334668767e+000
 1.2813243279e+000	 1.2259342846e+000	-1.7780479264e+000
 1.2677074928e+000	 1.2400099374e+000	-1.8227336880e+000
 1.2539351941e+000	 1.2539351941e+000	-1.8650751917e+000
 1.2400099374e+000	 1.2677074928e+000	-1.9025773916e+000
 1.2259342846e+000	 1.2813243279e+000	-1.9327060494e+000
 1.2117108517e+000	 1.2947832510e+000	-1.9528949351e+000
 1.1973423076e+000	 1.3080818730e+000	-1.9605533204e+000
 1.1828313722e+000	 1.3212178648e+000	-1.9530737367e+000
 1.3410868110e+000	 1.2006192129e+000	-1.6646435816e+000
 1.3277532754e+000	 1.2153483688e+000	-1.6992025247e+000
 1.3142546640e+000	 1.2299329922e+000	-1.7393335553e+000
 1.3005933408e+000	 1.2443703222e+000	-1.7834765963e+000
 1.2867717309e+000	 1.2586576498e+000	-1.8288103762e+000
 1.2727923194e+000	 1.2727923194e+000	-1.8724614144e+000
 1.2586576498e+000	 1.2867717309e+000	-1.9115115542e+000
 1.2443703222e+000	 1.3005933408e+000	-1.9430058589e+000
 1.2299329922e+000	 1.3142546640e+000	-1.9639608431e+000
 1.2153483688e+000	 1.3277532754e+000	-1.9713730115e+000
 1.2006192129e+000	 1.3410868110e+000	-1.9630270792e+000
 1.0227408064e+000	 1.1423973494e+000	-1.9981849255e+000
 1.0100712229e+000	 1.1536145402e+000	-2.0339775253e+000
 9.9728331646e-001	 1.1646872033e+000	-2.0713869743e+000
 9.8437956441e-001	 1.1756134885e+000	-2.1087081719e+000
 9.7136248230e-001	 1.1863916024e+000	-2.1442604797e+000
 9.5823462210e-001	 1.1970198092e+000	-2.1763938666e+000
 9.4499857057e-001	 1.2074964313e+000	-2.2034937051e+000
 9.3165694760e-001	 1.2178198509e+000	-2.2239855215e+000
 9.1821240449e-001	 1.2279885099e+000	-2.2363396818e+000
 9.0466762225e-001	 1.2380009114e+000	-2.2390759920e+000
 8.9102530988e-001	 1.2478556198e+000	-2.2307681969e+000
 1.0405286470e+000	 1.1622662956e+000	-2.0360151496e+000
 1.0276387101e+000	 1.1736785794e+000	-2.0709113750e+000
 1.0146283922e+000	 1.1849438218e+000	-2.1084884597e+000
 1.0015002139e+000	 1.1960601405e+000	-2.1468010116e+000
 9.8825673443e-001	 1.2070257109e+000	-2.1839306711e+000
 9.7490055022e-001	 1.2178387669e+000	-2.2180030406e+000
 9.6143429298e-001	 1.2284976019e+000	-2.2471856825e+000
 9.4786062816e-001	 1.2390005697e+000	-2.2696952519e+000
 9.3418225318e-001	 1.2493460854e+000	-2.2838027606e+000
 9.2040189569e-001	 1.2595326258e+000	-2.2878387401e+000
 9.0652231179e-001	 1.2695587305e+000	-2.2801982829e+000
 1.0583164877e+000	 1.1821352418e+000	-2.0512834037e+000
 1.0452061972e+000	 1.1937426186e+000	-2.0828236478e+000
 1.0319734679e+000	 1.2052004404e+000	-2.1180572768e+000
 1.0186208633e+000	 1.2165067926e+000	-2.1548574635e+000
 1.0051509866e+000	 1.2276598194e+000	-2.1911376165e+000
 9.9156647834e-001	 1.2386577246e+000	-2.2248485660e+000
 9.7787001539e-001	 1.2494987724e+000	-2.2539972491e+000
 9.6406430873e-001	 1.2601812885e+000	-2.2766443556e+000
 9.5015210188e-001	 1.2707036608e+000	-2.2909120973e+000
 9.3613616914e-001	 1.2810643402e+000	-2.2949898746e+000
 9.2201931370e-001	 1.2912618412e+000	-2.2871398088e+000
 1.0761043283e+000	 1.2020041879e+000	-2.0495103588e+000
 1.0627736844e+000	 1.2138066578e+000	-2.0758444965e+000
 1.0493185436e+000	 1.2254570589e+000	-2.1067713328e+000
 1.0357415128e+000	 1.2369534446e+000	-2.1400429192e+000
 1.0220452387e+000	 1.2482939279e+000	-2.1734523076e+000
 1.0082324065e+000	 1.2594766823e+000	-2.2048424815e+000
 9.9430573780e-001	 1.2704999430e+000	-2.2321031521e+000
 9.8026798929e-001	 1.2813620074e+000	-2.2531910042e+000
 9.6612195058e-001	 1.2920612363e+000	-2.2661269613e+000
 9.5187044258e-001	 1.3025960546e+000	-2.2690044727e+000
 9.3751631561e-001	 1.3129649519e+000	-2.2599954868e+000
 1.0938921690e+000	 1.2218731341e+000	-2.0359119385e+000
 1.0803411715e+000	 1.2338706970e+000	-2.0557709179e+000
 1.0666636193e+000	 1.2457136775e+000	-2.0809500216e+000
 1.0528621622e+000	 1.2574000967e+000	-2.1091352555e+000
 1.0389394908e+000	 1.2689280364e+000	-2.1380547058e+000
 1.0248983346e+000	 1.2802956401e+000	-2.1654853776e+000
 1.0107414602e+000	 1.2915011135e+000	-2.1892599933e+000
 9.9647166985e-001	 1.3025427262e+000	-2.2072768293e+000
 9.8209179928e-001	 1.3134188117e+000	-2.2174943791e+000
 9.6760471602e-001	 1.3241277690e+000	-2.2179552132e+000
 9.5301331752e-001	 1.3346680626e+000	-2.2068035767e+000
 1.1116800096e+000	 1.2417420802e+000	-2.0154109712e+000
 1.0979086586e+000	 1.2539347362e+000	-2.0280796238e+000
 1.0840086950e+000	 1.2659702960e+000	-2.0465693043e+000
 1.0699828117e+000	 1.2778467487e+000	-2.0685520316e+000
 1.0558337430e+000	 1.2895621449e+000	-2.0917410725e+000
 1.0415642627e+000	 1.3011145978e+000	-2.1138981102e+000
 1.0271771826e+000	 1.3125022841e+000	-2.1328403808e+000
 1.0126753504e+000	 1.3237234450e+000	-2.1464477498e+000
 9.9806164798e-001	 1.3347763872e+000	-2.1527005886e+000
 9.8333898946e-001	 1.3456594834e+000	-2.1514187066e+000
 9.6851031942e-001	 1.3563711732e+000	-2.1415567084e+000
 1.1294678503e+000	 1.2616110264e+000	-1.9926468644e+000
 1.1154761458e+000	 1.2739987753e+000	-1.9979392337e+000
 1.1013537707e+000	 1.2862269145e+000	-2.0092761285e+000
 1.0871034612e+000	 1.2982934008e+000	-2.0243647786e+000
 1.0727279951e+000	 1.3101962534e+000	-2.0409509597e+000
 1.0582301908e+000	 1.3219335555e+000	-2.0568264297e+000
 1.0436129050e+000	 1.3335034546e+000	-2.0698368869e+000
 1.0288790310e+000	 1.3449041638e+000	-2.0796118560e+000
 1.0140314967e+000	 1.3561339626e+000	-2.0854950026e+000
 9.9907326290e-001	 1.3671911978e+000	-2.0852014078e+000
 9.8400732133e-001	 1.3780742839e+000	-2.0765325491e+000
 1.1472556909e+000	 1.2814799725e+000	-1.9719835156e+000
 1.1330436329e+000	 1.2940628145e+000	-1.9702204727e+000
 1.1186988464e+000	 1.3064835331e+000	-1.9744006515e+000
 1.1042241106e+000	 1.3187400528e+000	-1.9823129718e+000
 1.0896222472e+000	 1.3308303620e+000	-1.9917803671e+000
 1.0748961189e+000	 1.3427525133e+000	-2.0018417393e+000
 1.0600486274e+000	 1.3545046252e+000	-2.0126876283e+000
 1.0450827115e+000	 1.3660848826e+000	-2.0220191724e+000
 1.0300013454e+000	 1.3774915381e+000	-2.0275385819e+000
 1.0148075363e+000	 1.3887229121e+000	-2.0270363303e+000
 9.9950432324e-001	 1.3997773946e+000	-2.0184006610e+000
 1.1650435316e+000	 1.3013489187e+000	-1.9575156478e+000
 1.1506111200e+000	 1.3141268537e+000	-1.9495045905e+000
 1.1360439222e+000	 1.3267401516e+000	-1.9469665033e+000
 1.1213447601e+000	 1.3391867049e+000	-1.9482781292e+000
 1.1065164994e+000	 1.3514644705e+000	-1.9543187374e+000
 1.0915620471e+000	 1.3635714710e+000	-1.9632811636e+000
 1.0764843498e+000	 1.3755057957e+000	-1.9728397399e+000
 1.0612863921e+000	 1.3872656015e+000	-1.9807404206e+000
 1.0459711941e+000	 1.3988491135e+000	-1.9848063934e+000
 1.0305418098e+000	 1.4102546265e+000	-1.9829435632e+000
 1.0150013251e+000	 1.4214805053e+000	-1.9731458890e+000
 1.1828313722e+000	 1.3212178648e+000	-1.9530737367e+000
 1.1681786072e+000	 1.3341908929e+000	-1.9401008403e+000
 1.1533889979e+000	 1.3469967702e+000	-1.9341741274e+000
 1.1384654095e+000	 1.3596333569e+000	-1.9349760849e+000
 1.1234107515e+000	 1.3720985790e+000	-1.9402417500e+000
 1.1082279752e+000	 1.3843904287e+000	-1.9477591046e+000
 1.0929200723e+000	 1.3965069663e+000	-1.9553747580e+000
 1.0774900727e+000	 1.4084463203e+000	-1.9609995527e+000
 1.0619410428e+000	 1.4202066890e+000	-1.9626140771e+000
 1.0462760832e+000	 1.4317863409e+000	-1.9582740652e+000
 1.0304983271e+000	 1.4431836160e+000	-1.9461156677e+000
 1.2006192129e+000	 1.3410868110e+000	-1.9630270792e+000
 1.1857460943e+000	 1.3542549321e+000	-1.9516892473e+000
 1.1707340736e+000	 1.3672533887e+000	-1.9477267835e+000
 1.1555860590e+000	 1.3800800090e+000	-1.9490647465e+000
 1.1403050036e+000	 1.3927326875e+000	-1.9536667512e+000
 1.1248939033e+000	 1.4052093865e+000	-1.9595404890e+000
 1.1093557947e+000	 1.4175081369e+000	-1.9647432099e+000
 1.0936937532e+000	 1.4296270391e+000	-1.9673871501e+000
 1.0779108915e+000	 1.4415642644e+000	-1.9656448849e+000
 1.0620103567e+000	 1.4533180553e+000	-1.9577545899e+000
 1.0459953290e+000	 1.4648867267e+000	-1.9420251936e+000
 8.9102530988e-001	 1.2478556198e+000	-2.2307681969e+000
 8.7728820228e-001	 1.2575512615e+000	-2.2180016487e+000
 8.6345905763e-001	 1.2670865240e+000	-2.2073945779e+000
 8.4954065654e-001	 1.2764601577e+000	-2.1976680763e+000
 8.3553580053e-001	 1.2856709767e+000	-2.1876198516e+000
 8.2144731029e-001	 1.2947178591e+000	-2.1761282569e+000
 8.0727802380e-001	 1.3035997473e+000	-2.1621560933e+000
 7.9303079459e-001	 1.3123156482e+000	-2.1447541689e+000
 7.7870848989e-001	 1.3208646337e+000	-2.1230645994e+000
 7.6431398883e-001	 1.3292458404e+000	-2.0963238398e+000
 7.4985018066e-001	 1.3374584701e+000	-2.0639741592e+000
 9.0652231179e-001	 1.2695587305e+000	-2.2801982829e+000
 8.9254628395e-001	 1.2794230019e+000	-2.2674739402e+000
 8.7847661832e-001	 1.2891241048e+000	-2.2564145292e+000
 8.6431614387e-001	 1.2986607678e+000	-2.2457576881e+000
 8.5006771085e-001	 1.3080317844e+000	-2.2343203031e+000
 8.3573418901e-001	 1.3172360131e+000	-2.2210027647e+000
 8.2131846568e-001	 1.3262723780e+000	-2.2047929863e+000
 8.0682344403e-001	 1.3351398687e+000	-2.1847985319e+000
 7.9225204115e-001	 1.3438375409e+000	-2.1609883581e+000
 7.7760718625e-001	 1.3523645163e+000	-2.1327915928e+000
 7.6289181882e-001	 1.3607199827e+000	-2.0993102412e+000
 9.2201931370e-001	 1.2912618412e+000	-2.2871398088e+000
 9.0780436561e-001	 1.3012947424e+000	-2.2738575248e+000
 8.9349417900e-001	 1.3111616856e+000	-2.2618916757e+000
 8.7909163119e-001	 1.3208613779e+000	-2.2499998780e+000
 8.6459962117e-001	 1.3303925920e+000	-2.2370210594e+000
 8.5002106772e-001	 1.3397541671e+000	-2.2222841705e+000
 8.3535890756e-001	 1.3489450086e+000	-2.2058683058e+000
 8.2061609346e-001	 1.3579640892e+000	-2.1866743986e+000
 8.0579559240e-001	 1.3668104481e+000	-2.1636237362e+000
 7.9090038366e-001	 1.3754831922e+000	-2.1357459594e+000
 7.7593345698e-001	 1.3839814953e+000	-2.1021814558e+000
 9.3751631561e-001	 1.3129649519e+000	-2.2599954868e+000
 9.2306244728e-001	 1.3231664828e+000	-2.2454258783e+000
 9.0851173969e-001	 1.3331992664e+000	-2.2319459494e+000
 8.9386711852e-001	 1.3430619880e+000	-2.2193640974e+000
 8.7913153149e-001	 1.3527533997e+000	-2.2074072811e+000
 8.6430794644e-001	 1.3622723211e+000	-2.1947204031e+000
 8.4939934944e-001	 1.3716176393e+000	-2.1800490290e+000
 8.3440874290e-001	 1.3807883096e+000	-2.1622427168e+000
 8.1933914365e-001	 1.3897833553e+000	-2.1402579981e+000
 8.0419358107e-001	 1.3986018680e+000	-2.1131611167e+000
 7.8897509513e-001	 1.4072430079e+000	-2.0801305162e+000
 9.5301331752e-001	 1.3346680626e+000	-2.2068035767e+000
 9.3832052895e-001	 1.3450382232e+000	-2.1916909644e+000
 9.2352930037e-001	 1.3552368472e+000	-2.1798073090e+000
 9.0864260585e-001	 1.3652625981e+000	-2.1696402545e+000
 8.9366344181e-001	 1.3751142074e+000	-2.1597712900e+000
 8.7859482515e-001	 1.3847904751e+000	-2.1488795099e+000
 8.6343979131e-001	 1.3942902700e+000	-2.1357451586e+000
 8.4820139233e-001	 1.4036125301e+000	-2.1192529505e+000
 8.3288269491e-001	 1.4127562625e+000	-2.0983951532e+000
 8.1748677848e-001	 1.4217205439e+000	-2.0722744271e+000
 8.0201673329e-001	 1.4305045204e+000	-2.0401064113e+000
 9.6851031942e-001	 1.3563711732e+000	-2.1415567084e+000
 9.5357861061e-001	 1.3669099637e+000	-2.1286705973e+000
 9.3854686106e-001	 1.3772744280e+000	-2.1187241857e+000
 9.2341809318e-001	 1.3874632082e+000	-2.1102422803e+000
 9.0819535213e-001	 1.3974750150e+000	-2.1018430293e+000
 8.9288170386e-001	 1.4073086290e+000	-2.0922417863e+000
 8.7748023319e-001	 1.4169629007e+000	-2.0802547596e+000
 8.6199404176e-001	 1.4264367505e+000	-2.0648024361e+000
 8.4642624616e-001	 1.4357291697e+000	-2.0449127699e+000
 8.3077997589e-001	 1.4448392197e+000	-2.0197241253e+000
 8.1505837144e-001	 1.4537660330e+000	-1.9884879666e+000
 9.8400732133e-001	 1.3780742839e+000	-2.0765325491e+000
 9.6883669228e-001	 1.3887817041e+000	-2.0648440276e+000
 9.5356442174e-001	 1.3993120089e+000	-2.0558974046e+000
 9.3819358050e-001	 1.4096638183e+000	-2.0482573566e+000
 9.2272726244e-001	 1.4198358227e+000	-2.0405807436e+000
 9.0716858258e-001	 1.4298267830e+000	-2.0316205742e+000
 8.9152067506e-001	 1.4396355313e+000	-2.0202297605e+000
 8.7578669120e-001	 1.4492609710e+000	-2.0053646475e+000
 8.5996979741e-001	 1.4587020769e+000	-1.9860883092e+000
 8.4407317330e-001	 1.4679578956e+000	-1.9615735994e+000
 8.2810000960e-001	 1.4770275456e+000	-1.9311059492e+000
 9.9950432324e-001	 1.3997773946e+000	-2.0184006610e+000
 9.8409477394e-001	 1.4106534445e+000	-2.0068092886e+000
 9.6858198243e-001	 1.4213495897e+000	-1.9978404334e+000
 9.5296906783e-001	 1.4318644284e+000	-1.9901007938e+000
 9.3725917276e-001	 1.4421966304e+000	-1.9822874493e+000
 9.2145546129e-001	 1.4523449370e+000	-1.9731919283e+000
 9.0556111694e-001	 1.4623081620e+000	-1.9617040674e+000
 8.8957934063e-001	 1.4720851914e+000	-1.9468156493e+000
 8.7351334866e-001	 1.4816749840e+000	-1.9276238081e+000
 8.5736637071e-001	 1.4910765715e+000	-1.9033341926e+000
 8.4114164775e-001	 1.5002890582e+000	-1.8732638769e+000
 1.0150013251e+000	 1.4214805053e+000	-1.9731458890e+000
 9.9935285560e-001	 1.4325251850e+000	-1.9604955743e+000
 9.8359954311e-001	 1.4433871705e+000	-1.9504109865e+000
 9.6774455515e-001	 1.4540650385e+000	-1.9415463837e+000
 9.5179108307e-001	 1.4645574380e+000	-1.9326400553e+000
 9.3574234000e-001	 1.4748630910e+000	-1.9225224073e+000
 9.1960155881e-001	 1.4849807927e+000	-1.9101199274e+000
 9.0337199006e-001	 1.4949094119e+000	-1.8944589325e+000
 8.8705689991e-001	 1.5046478912e+000	-1.8746690873e+000
 8.7065956811e-001	 1.5141952473e+000	-1.8499866830e+000
 8.5418328591e-001	 1.5235505708e+000	-1.8197576668e+000
 1.0304983271e+000	 1.4431836160e+000	-1.9461156677e+000
 1.0146109373e+000	 1.4543969254e+000	-1.9311893790e+000
 9.9861710379e-001	 1.4654247513e+000	-1.9188405499e+000
 9.8252004248e-001	 1.4762656486e+000	-1.9077548747e+000
 9.6632299339e-001	 1.4869182457e+000	-1.8967166998e+000
 9.5002921872e-001	 1.4973812450e+000	-1.8845951846e+000
 9.3364200069e-001	 1.5076534233e+000	-1.8703527230e+000
 9.1716463949e-001	 1.5177336323e+000	-1.8530488029e+000
 9.0060045116e-001	 1.5276207984e+000	-1.8318436410e+000
 8.8395276552e-001	 1.5373139232e+000	-1.8060015816e+000
 8.6722492406e-001	 1.5468120834e+000	-1.7748942496e+000
 1.0459953290e+000	 1.4648867267e+000	-1.9420251936e+000
 1.0298690189e+000	 1.4762686658e+000	-1.9235808671e+000
 1.0136346645e+000	 1.4874623321e+000	-1.9077572940e+000
 9.9729552980e-001	 1.4984662587e+000	-1.8933007634e+000
 9.8085490370e-001	 1.5092790533e+000	-1.8790224906e+000
 9.6431609743e-001	 1.5198993990e+000	-1.8638346549e+000
 9.4768244256e-001	 1.5303260540e+000	-1.8467343627e+000
 9.3095728892e-001	 1.5405578528e+000	-1.8268124715e+000
 9.1414400241e-001	 1.5505937056e+000	-1.8032573437e+000
 8.9724596293e-001	 1.5604325990e+000	-1.7753583704e+000
 8.8026656221e-001	 1.5700735960e+000	-1.7425092526e+000
 7.4985018066e-001	 1.3374584701e+000	-2.0639741592e+000
 7.3532214732e-001	 1.3455005959e+000	-2.0301965518e+000
 7.2073062788e-001	 1.3533727953e+000	-1.9987766925e+000
 7.0607853061e-001	 1.3610744663e+000	-1.9693776684e+000
 6.9136876671e-001	 1.3686050715e+000	-1.9417612373e+000
 6.7660424856e-001	 1.3759641382e+000	-1.9157885752e+000
 6.6178788798e-001	 1.3831512578e+000	-1.8912034499e+000
 6.4692259452e-001	 1.3901660856e+000	-1.8650762010e+000
 6.3201127378e-001	 1.3970083406e+000	-1.8362607179e+000
 6.1705682569e-001	 1.4036778048e+000	-1.8045320720e+000
 6.0206214291e-001	 1.4101743228e+000	-1.7697338274e+000
 7.6289181882e-001	 1.3607199827e+000	-2.0993102412e+000
 7.4811110919e-001	 1.3689019798e+000	-2.0638141163e+000
 7.3326580931e-001	 1.3769110950e+000	-2.0298344076e+000
 7.1835887800e-001	 1.3847467159e+000	-1.9970391221e+000
 7.0339327710e-001	 1.3924082959e+000	-1.9651969369e+000
 6.8837196965e-001	 1.3998953539e+000	-1.9341780838e+000
 6.7329791811e-001	 1.4072074742e+000	-1.9039549876e+000
 6.5817408263e-001	 1.4143443062e+000	-1.8739561635e+000
 6.4300341935e-001	 1.4213055639e+000	-1.8411156305e+000
 6.2778887864e-001	 1.4280910255e+000	-1.8048247237e+000
 6.1253340346e-001	 1.4347005331e+000	-1.7649194068e+000
 7.7593345698e-001	 1.3839814953e+000	-2.1021814558e+000
 7.6090007107e-001	 1.3923033636e+000	-2.0660593903e+000
 7.4580099073e-001	 1.4004493947e+000	-2.0307381496e+000
 7.3063922539e-001	 1.4084189656e+000	-1.9958792474e+000
 7.1541778749e-001	 1.4162115203e+000	-1.9612470938e+000
 7.0013969074e-001	 1.4238265695e+000	-1.9267100337e+000
 6.8480794824e-001	 1.4312636906e+000	-1.8922411325e+000
 6.6942557074e-001	 1.4385225267e+000	-1.8579187086e+000
 6.5399556492e-001	 1.4456027872e+000	-1.8225047262e+000
 6.3852093159e-001	 1.4525042463e+000	-1.7832687943e+000
 6.2300466401e-001	 1.4592267435e+000	-1.7399658027e+000
 7.8897509513e-001	 1.4072430079e+000	-2.0801305162e+000
 7.7368903295e-001	 1.4157047475e+000	-2.0441462590e+000
 7.5833617216e-001	 1.4239876944e+000	-2.0083785034e+000
 7.4291957277e-001	 1.4320912153e+000	-1.9724708087e+000
 7.2744229788e-001	 1.4400147447e+000	-1.9361720736e+000
 7.1190741183e-001	 1.4477577852e+000	-1.8993377453e+000
 6.9631797836e-001	 1.4553199070e+000	-1.8619307681e+000
 6.8067705886e-001	 1.4627007473e+000	-1.8240222714e+000
 6.6498771050e-001	 1.4699000105e+000	-1.7857675063e+000
 6.4925298454e-001	 1.4769174671e+000	-1.7448630314e+000
 6.3347592456e-001	 1.4837529538e+000	-1.6995327820e+000
 8.0201673329e-001	 1.4305045204e+000	-2.0401064113e+000
 7.8647799482e-001	 1.4391061313e+000	-2.0047270626e+000
 7.7087135358e-001	 1.4475259941e+000	-1.9691165601e+000
 7.5519992016e-001	 1.4557634649e+000	-1.9328889920e+000
 7.3946680827e-001	 1.4638179691e+000	-1.8957664343e+000
 7.2367513292e-001	 1.4716890009e+000	-1.8575803477e+000
 7.0782800849e-001	 1.4793761234e+000	-1.8182727067e+000
 6.9192854697e-001	 1.4868789679e+000	-1.7778968576e+000
 6.7597985607e-001	 1.4941972338e+000	-1.7366181038e+000
 6.5998503749e-001	 1.5013306879e+000	-1.6943386125e+000
 6.4394718511e-001	 1.5082791642e+000	-1.6480533264e+000
 8.1505837144e-001	 1.4537660330e+000	-1.9884879666e+000
 7.9926695670e-001	 1.4625075152e+000	-1.9539137187e+000
 7.8340653501e-001	 1.4710642938e+000	-1.9188026219e+000
 7.6748026755e-001	 1.4794357146e+000	-1.8827277122e+000
 7.5149131866e-001	 1.4876211935e+000	-1.8453728574e+000
 7.3544285401e-001	 1.4956202166e+000	-1.8065343588e+000
 7.1933803862e-001	 1.5034323398e+000	-1.7661222771e+000
 7.0318003508e-001	 1.5110571885e+000	-1.7241614778e+000
 6.8697200164e-001	 1.5184944571e+000	-1.6807923931e+000
 6.7071709044e-001	 1.5257439087e+000	-1.6362715007e+000
 6.5441844567e-001	 1.5328053745e+000	-1.5897170959e+000
 8.2810000960e-001	 1.4770275456e+000	-1.9311059492e+000
 8.1205591857e-001	 1.4859088990e+000	-1.8972975991e+000
 7.9594171644e-001	 1.4946025935e+000	-1.8627938672e+000
 7.7976061493e-001	 1.5031079643e+000	-1.8271150859e+000
 7.6351582905e-001	 1.5114244179e+000	-1.7898954483e+000
 7.4721057510e-001	 1.5195514323e+000	-1.7508848334e+000
 7.3084806875e-001	 1.5274885562e+000	-1.7099503445e+000
 7.1443152319e-001	 1.5352354090e+000	-1.6670775576e+000
 6.9796414722e-001	 1.5427916804e+000	-1.6223714772e+000
 6.8144914339e-001	 1.5501571295e+000	-1.5760571964e+000
 6.6488970622e-001	 1.5573315848e+000	-1.5284544189e+000
 8.4114164775e-001	 1.5002890582e+000	-1.8732638769e+000
 8.2484488045e-001	 1.5093102829e+000	-1.8399682965e+000
 8.0847689786e-001	 1.5181408932e+000	-1.8059710907e+000
 7.9204096232e-001	 1.5267802140e+000	-1.7707281605e+000
 7.7554033944e-001	 1.5352276423e+000	-1.7338124732e+000
 7.5897829619e-001	 1.5434826480e+000	-1.6949161270e+000
 7.4235809888e-001	 1.5515447726e+000	-1.6538521194e+000
 7.2568301130e-001	 1.5594136296e+000	-1.6105558147e+000
 7.0895629279e-001	 1.5670889037e+000	-1.5650861088e+000
 6.9218119634e-001	 1.5745703503e+000	-1.5176262865e+000
 6.7536096677e-001	 1.5818577952e+000	-1.4684845711e+000
 8.5418328591e-001	 1.5235505708e+000	-1.8197576668e+000
 8.3763384232e-001	 1.5327116667e+000	-1.7865313990e+000
 8.2101207928e-001	 1.5416791929e+000	-1.7527546160e+000
 8.0432130970e-001	 1.5504524636e+000	-1.7178069803e+000
 7.8756484983e-001	 1.5590308667e+000	-1.6811885931e+000
 7.7074601728e-001	 1.5674138637e+000	-1.6425223149e+000
 7.5386812901e-001	 1.5756009890e+000	-1.6015557809e+000
 7.3693449941e-001	 1.5835918502e+000	-1.5581631041e+000
 7.1994843836e-001	 1.5913861270e+000	-1.5123462641e+000
 7.0291324929e-001	 1.5989835711e+000	-1.4642361774e+000
 6.8583222732e-001	 1.6063840055e+000	-1.4140934472e+000
 8.6722492406e-001	 1.5468120834e+000	-1.7748942496e+000
 8.5042280420e-001	 1.5561130506e+000	-1.7411253773e+000
 8.3354726071e-001	 1.5652174926e+000	-1.7071194687e+000
 8.1660165709e-001	 1.5741247133e+000	-1.6721680583e+000
 7.9958936022e-001	 1.5828340911e+000	-1.6356866484e+000
 7.8251373836e-001	 1.5913450793e+000	-1.5972173045e+000
 7.6537815914e-001	 1.5996572054e+000	-1.5564309326e+000
 7.4818598752e-001	 1.6077700708e+000	-1.5131292351e+000
 7.3094058393e-001	 1.6156833503e+000	-1.4672463387e+000
 7.1364530224e-001	 1.6233967918e+000	-1.4188500932e+000
 6.9630348787e-001	 1.6309102159e+000	-1.3681430367e+000
 8.8026656221e-001	 1.5700735960e+000	-1.7425092526e+000
 8.6321176607e-001	 1.5795144344e+000	-1.7074376763e+000
 8.4608244213e-001	 1.5887557923e+000	-1.6726098863e+000
 8.2888200447e-001	 1.5977969630e+000	-1.6372173147e+000
 8.1161387061e-001	 1.6066373155e+000	-1.6005790399e+000
 7.9428145945e-001	 1.6152762950e+000	-1.5621446715e+000
 7.7688818926e-001	 1.6237134218e+000	-1.5214969085e+000
 7.5943747564e-001	 1.6319482913e+000	-1.4783537621e+000
 7.4193272950e-001	 1.6399805736e+000	-1.4325704400e+000
 7.2437735518e-001	 1.6478100126e+000	-1.3841408873e+000
 7.0677474842e-001	 1.6554364262e+000	-1.3331989829e+000
 6.0206214291e-001	 1.4101743228e+000	-1.7697338274e+000
 5.8702785160e-001	 1.4164987373e+000	-1.7329096956e+000
 5.7195907336e-001	 1.4226500300e+000	-1.6953495080e+000
 5.5685867128e-001	 1.4286282313e+000	-1.6573670788e+000
 5.4172949480e-001	 1.4344334318e+000	-1.6193624265e+000
 5.2657437818e-001	 1.4400657820e+000	-1.5818231213e+000
 5.1139613904e-001	 1.4455254909e+000	-1.5453251309e+000
 4.9619757688e-001	 1.4508128258e+000	-1.5105331739e+000
 4.8098147173e-001	 1.4559281109e+000	-1.4782005915e+000
 4.6575058273e-001	 1.4608717271e+000	-1.4491687517e+000
 4.5050764685e-001	 1.4656441104e+000	-1.4243660038e+000
 6.1253340346e-001	 1.4347005331e+000	-1.7649194068e+000
 5.9723763087e-001	 1.4411349439e+000	-1.7226188310e+000
 5.8190677153e-001	 1.4473932219e+000	-1.6794085598e+000
 5.6654373835e-001	 1.4534753980e+000	-1.6356275100e+000
 5.5115143031e-001	 1.4593815645e+000	-1.5917045149e+000
 5.3573273098e-001	 1.4651118743e+000	-1.5481598360e+000
 5.2029050697e-001	 1.4706665403e+000	-1.5056061213e+000
 5.0482760648e-001	 1.4760458342e+000	-1.4647488195e+000
 4.8934685788e-001	 1.4812500860e+000	-1.4263860622e+000
 4.7385106831e-001	 1.4862796832e+000	-1.3914080308e+000
 4.5834302232e-001	 1.4911350694e+000	-1.3607958276e+000
 6.2300466401e-001	 1.4592267435e+000	-1.7399658027e+000
 6.0744741014e-001	 1.4657711505e+000	-1.6939834720e+000
 5.9185446971e-001	 1.4721364138e+000	-1.6469808182e+000
 5.7622880542e-001	 1.4783225647e+000	-1.5992905564e+000
 5.6057336583e-001	 1.4843296971e+000	-1.5513403065e+000
 5.4489108379e-001	 1.4901579667e+000	-1.5036543155e+000
 5.2918487490e-001	 1.4958075896e+000	-1.4568545658e+000
 5.1345763607e-001	 1.5012788426e+000	-1.4116612809e+000
 4.9771224403e-001	 1.5065720611e+000	-1.3688928418e+000
 4.8195155388e-001	 1.5116876392e+000	-1.3294651333e+000
 4.6617839780e-001	 1.5166260283e+000	-1.2943903413e+000
 6.3347592456e-001	 1.4837529538e+000	-1.6995327820e+000
 6.1765718941e-001	 1.4904073571e+000	-1.6513285510e+000
 6.0180216789e-001	 1.4968796057e+000	-1.6020638331e+000
 5.8591387250e-001	 1.5031697314e+000	-1.5520347711e+000
 5.6999530135e-001	 1.5092778298e+000	-1.5016387242e+000
 5.5404943659e-001	 1.5152040590e+000	-1.4513762452e+000
 5.3807924283e-001	 1.5209486390e+000	-1.4018523762e+000
 5.2208766567e-001	 1.5265118510e+000	-1.3537772749e+000
 5.0607763017e-001	 1.5318940362e+000	-1.3079661873e+000
 4.9005203945e-001	 1.5370955953e+000	-1.2653387877e+000
 4.7401377327e-001	 1.5421169872e+000	-1.2269179100e+000
 6.4394718511e-001	 1.5082791642e+000	-1.6480533264e+000
 6.2786696868e-001	 1.5150435638e+000	-1.5987919301e+000
 6.1174986607e-001	 1.5216227976e+000	-1.5485064596e+000
 5.9559893957e-001	 1.5280168981e+000	-1.4974269430e+000
 5.7941723687e-001	 1.5342259625e+000	-1.4458923125e+000
 5.6320778939e-001	 1.5402501513e+000	-1.3943526806e+000
 5.4697361076e-001	 1.5460896883e+000	-1.3433708587e+000
 5.3071769527e-001	 1.5517448594e+000	-1.2936231315e+000
 5.1444301632e-001	 1.5572160113e+000	-1.2458993066e+000
 4.9815252503e-001	 1.5625035514e+000	-1.2011020609e+000
 4.8184914875e-001	 1.5676079461e+000	-1.1602456105e+000
 6.5441844567e-001	 1.5328053745e+000	-1.5897170959e+000
 6.3807674794e-001	 1.5396797704e+000	-1.5403067213e+000
 6.2169756424e-001	 1.5463659895e+000	-1.4899900683e+000
 6.0528400665e-001	 1.5528640649e+000	-1.4389022378e+000
 5.8883917239e-001	 1.5591740951e+000	-1.3872963569e+000
 5.7236614219e-001	 1.5652962436e+000	-1.3355461971e+000
 5.5586797869e-001	 1.5712307377e+000	-1.2841479508e+000
 5.3934772486e-001	 1.5769778678e+000	-1.2337211814e+000
 5.2280840247e-001	 1.5825379864e+000	-1.1850089664e+000
 5.0625301060e-001	 1.5879115075e+000	-1.1388772611e+000
 4.8968452423e-001	 1.5930989051e+000	-1.0963135104e+000
 6.6488970622e-001	 1.5573315848e+000	-1.5284544189e+000
 6.4828652721e-001	 1.5643159770e+000	-1.4795843139e+000
 6.3164526242e-001	 1.5711091814e+000	-1.4300106401e+000
 6.1496907372e-001	 1.5777112316e+000	-1.3797453940e+000
 5.9826110790e-001	 1.5841222278e+000	-1.3289292189e+000
 5.8152449499e-001	 1.5903423359e+000	-1.2778344084e+000
 5.6476234663e-001	 1.5963717870e+000	-1.2268669743e+000
 5.4797775446e-001	 1.6022108762e+000	-1.1765677970e+000
 5.3117378862e-001	 1.6078599615e+000	-1.1276128801e+000
 5.1435349618e-001	 1.6133194636e+000	-1.0808127377e+000
 4.9751989970e-001	 1.6185898640e+000	-1.0371109491e+000
 6.7536096677e-001	 1.5818577952e+000	-1.4684845711e+000
 6.5849630648e-001	 1.5889521836e+000	-1.4200980341e+000
 6.4159296060e-001	 1.5958523733e+000	-1.3718616487e+000
 6.2465414080e-001	 1.6025583983e+000	-1.3230728567e+000
 6.0768304342e-001	 1.6090703604e+000	-1.2737337548e+000
 5.9068284779e-001	 1.6153884283e+000	-1.2239907073e+000
 5.7365671456e-001	 1.6215128364e+000	-1.1741367382e+000
 5.5660778406e-001	 1.6274438846e+000	-1.1246129057e+000
 5.3953917476e-001	 1.6331819366e+000	-1.0760086820e+000
 5.2245398175e-001	 1.6387274197e+000	-1.0290613718e+000
 5.0535527518e-001	 1.6440808229e+000	-9.8465460530e-001
 6.8583222732e-001	 1.6063840055e+000	-1.4140934472e+000
 6.6870608575e-001	 1.6135883902e+000	-1.3650979368e+000
 6.5154065878e-001	 1.6205955652e+000	-1.3186176470e+000
 6.3433920787e-001	 1.6274055650e+000	-1.2718157504e+000
 6.1710497894e-001	 1.6340184931e+000	-1.2244997014e+000
 5.9984120060e-001	 1.6404345206e+000	-1.1766660955e+000
 5.8255108249e-001	 1.6466538858e+000	-1.1284728487e+000
 5.6523781365e-001	 1.6526768930e+000	-1.0802408177e+000
 5.4790456091e-001	 1.6585039117e+000	-1.0324543183e+000
 5.3055446732e-001	 1.6641353757e+000	-9.8576057724e-001
 5.1319065065e-001	 1.6695717818e+000	-9.4096815988e-001
 6.9630348787e-001	 1.6309102159e+000	-1.3681430367e+000
 6.7891586502e-001	 1.6382245968e+000	-1.3185217413e+000
 6.6148835695e-001	 1.6453387571e+000	-1.2731184835e+000
 6.4402427494e-001	 1.6522527317e+000	-1.2287036022e+000
 6.2652691446e-001	 1.6589666257e+000	-1.1838469281e+000
 6.0899955340e-001	 1.6654806129e+000	-1.1383719901e+000
 5.9144545042e-001	 1.6717949351e+000	-1.0922800988e+000
 5.7386784325e-001	 1.6779099014e+000	-1.0457522325e+000
 5.5626994706e-001	 1.6838258868e+000	-9.9914970501e-001
 5.3865495290e-001	 1.6895433318e+000	-9.5301365232e-001
 5.2102602613e-001	 1.6950627408e+000	-9.0806338552e-001
 7.0677474842e-001	 1.6554364262e+000	-1.3331989829e+000
 6.8912564429e-001	 1.6628608034e+000	-1.2833680548e+000
 6.7143605513e-001	 1.6700819490e+000	-1.2381191755e+000
 6.5370934202e-001	 1.6770998984e+000	-1.1962487379e+000
 6.3594884997e-001	 1.6839147584e+000	-1.1542094646e+000
 6.1815790620e-001	 1.6905267052e+000	-1.1114639036e+000
 6.0033981835e-001	 1.6969359845e+000	-1.0678358246e+000
 5.8249787284e-001	 1.7031429098e+000	-1.0233472987e+000
 5.6463533321e-001	 1.7091478619e+000	-9.7821952327e-001
 5.4675543847e-001	 1.7149512879e+000	-9.3287234286e-001
 5.2886140161e-001	 1.7205536997e+000	-8.8792251569e-001
 4.5050764685e-001	 1.4656441104e+000	-1.4243660038e+000
 4.3525537731e-001	 1.4702457512e+000	-1.3989886626e+000
 4.1999646178e-001	 1.4746771918e+000	-1.3685021490e+000
 4.0473356181e-001	 1.4789390267e+000	-1.3343602432e+000
 3.8946931188e-001	 1.4830319018e+000	-1.2980906370e+000
 3.7420631829e-001	 1.4869565135e+000	-1.2612914378e+000
 3.5894715807e-001	 1.4907136076e+000	-1.2256273969e+000
 3.4369437793e-001	 1.4943039780e+000	-1.1928258904e+000
 3.2845049326e-001	 1.4977284659e+000	-1.1646726837e+000
 3.1321798717e-001	 1.5009879582e+000	-1.1430075106e+000
 2.9799930958e-001	 1.5040833867e+000	-1.1297194985e+000
 4.5834302232e-001	 1.4911350694e+000	-1.3607958276e+000
 4.4282548035e-001	 1.4958167434e+000	-1.3297412841e+000
 4.2730117681e-001	 1.5003252571e+000	-1.2936911495e+000
 4.1177281952e-001	 1.5046612151e+000	-1.2541401590e+000
 3.9624308879e-001	 1.5088252749e+000	-1.2126654991e+000
 3.8071463625e-001	 1.5128181447e+000	-1.1709229478e+000
 3.6519008376e-001	 1.5166405834e+000	-1.1306427033e+000
 3.4967202231e-001	 1.5202933987e+000	-1.0936249331e+000
 3.3416301103e-001	 1.5237774463e+000	-1.0617350790e+000
 3.1866557624e-001	 1.5270936288e+000	-1.0368989517e+000
 3.0318221046e-001	 1.5302428940e+000	-1.0210976516e+000
 4.6617839780e-001	 1.5166260283e+000	-1.2943903413e+000
 4.5039558340e-001	 1.5213877356e+000	-1.2589338820e+000
 4.3460589183e-001	 1.5259733223e+000	-1.2186058738e+000
 4.1881207722e-001	 1.5303834036e+000	-1.1749280054e+000
 4.0301686569e-001	 1.5346186479e+000	-1.1295137794e+000
 3.8722295421e-001	 1.5386797759e+000	-1.0840642765e+000
 3.7143300944e-001	 1.5425675592e+000	-1.0403635675e+000
 3.5564966668e-001	 1.5462828194e+000	-1.0002738103e+000
 3.3987552881e-001	 1.5498264268e+000	-9.6573007107e-001
 3.2411316532e-001	 1.5531992994e+000	-9.3873490816e-001
 3.0836511135e-001	 1.5564024013e+000	-9.2135275808e-001
 4.7401377327e-001	 1.5421169872e+000	-1.2269179100e+000
 4.5796568644e-001	 1.5469587277e+000	-1.1881095177e+000
 4.4191060686e-001	 1.5516213875e+000	-1.1445579636e+000
 4.2585133493e-001	 1.5561055920e+000	-1.0977990781e+000
 4.0979064260e-001	 1.5604120209e+000	-1.0494707392e+000
 3.9373127217e-001	 1.5645414070e+000	-1.0013082431e+000
 3.7767593513e-001	 1.5684945349e+000	-9.5513927934e-001
 3.6162731105e-001	 1.5722722400e+000	-9.1287855059e-001
 3.4558804658e-001	 1.5758754073e+000	-8.7652208187e-001
 3.2956075439e-001	 1.5793049700e+000	-8.4814126182e-001
 3.1354801224e-001	 1.5825619087e+000	-8.2987666024e-001
 4.8184914875e-001	 1.5676079461e+000	-1.1602456105e+000
 4.6553578949e-001	 1.5725297199e+000	-1.1189330719e+000
 4.4921532188e-001	 1.5772694527e+000	-1.0730034804e+000
 4.3289059263e-001	 1.5818277804e+000	-1.0239951488e+000
 4.1656441951e-001	 1.5862053940e+000	-9.7355959326e-001
 4.0023959013e-001	 1.5904030382e+000	-9.2345649013e-001
 3.8391886081e-001	 1.5944215107e+000	-8.7554818795e-001
 3.6760495543e-001	 1.5982616607e+000	-8.3179382157e-001
 3.5130056436e-001	 1.6019243877e+000	-7.9424307622e-001
 3.3500834347e-001	 1.6054106406e+000	-7.6502965001e-001
 3.1873091312e-001	 1.6087214160e+000	-7.4636446388e-001
 4.8968452423e-001	 1.5930989051e+000	-1.0963135104e+000
 4.7310589253e-001	 1.5981007120e+000	-1.0531649198e+000
 4.5652003691e-001	 1.6029175179e+000	-1.0055159390e+000
 4.3992985034e-001	 1.6075499689e+000	-9.5489682346e-001
 4.2333819642e-001	 1.6119987670e+000	-9.0296316577e-001
 4.0674790810e-001	 1.6162646694e+000	-8.5149041290e-001
 3.9016178650e-001	 1.6203484865e+000	-8.0236788628e-001
 3.7358259980e-001	 1.6242510813e+000	-7.5759235578e-001
 3.5701308213e-001	 1.6279733682e+000	-7.1926122111e-001
 3.4045593255e-001	 1.6315163112e+000	-6.8956535441e-001
 3.2391381401e-001	 1.6348809233e+000	-6.7078165847e-001
 4.9751989970e-001	 1.6185898640e+000	-1.0371109491e+000
 4.8067599558e-001	 1.6236717042e+000	-9.9263671093e-001
 4.6382475193e-001	 1.6285655831e+000	-9.4376154818e-001
 4.4696910804e-001	 1.6332721573e+000	-8.9199821136e-001
 4.3011197333e-001	 1.6377921401e+000	-8.3899795817e-001
 4.1325622606e-001	 1.6421263005e+000	-7.8654460308e-001
 3.9640471218e-001	 1.6462754622e+000	-7.3654801084e-001
 3.7956024417e-001	 1.6502405020e+000	-6.9103709175e-001
 3.6272559991e-001	 1.6540223487e+000	-6.5215235766e-001
 3.4590352162e-001	 1.6576219818e+000	-6.2213809845e-001
 3.2909671490e-001	 1.6610404306e+000	-6.0333423915e-001
 5.0535527518e-001	 1.6440808229e+000	-9.8465460530e-001
 4.8824609862e-001	 1.6492426964e+000	-9.3922902489e-001
 4.7112946696e-001	 1.6542136483e+000	-8.8947641935e-001
 4.5400836575e-001	 1.6589943457e+000	-8.3688365294e-001
 4.3688575024e-001	 1.6635855131e+000	-7.8309036833e-001
 4.1976454402e-001	 1.6679879317e+000	-7.2988253413e-001
 4.0264763787e-001	 1.6722024380e+000	-6.7918537317e-001
 3.8553788855e-001	 1.6762299227e+000	-6.3305573544e-001
 3.6843811768e-001	 1.6800713291e+000	-5.9367398080e-001
 3.5135111070e-001	 1.6837276525e+000	-5.6333543776e-001
 3.3427961579e-001	 1.6871999379e+000	-5.4444150468e-001
 5.1319065065e-001	 1.6695717818e+000	-9.4096815988e-001
 4.9581620167e-001	 1.6748136885e+000	-8.9485070446e-001
 4.7843418198e-001	 1.6798617136e+000	-8.4444553256e-001
 4.6104762346e-001	 1.6847165342e+000	-7.9120628737e-001
 4.4365952714e-001	 1.6893788862e+000	-7.3675483043e-001
 4.2627286198e-001	 1.6938495629e+000	-6.8287424868e-001
 4.0889056356e-001	 1.6981294138e+000	-6.3150117370e-001
 3.9151553292e-001	 1.7022193433e+000	-5.8471748344e-001
 3.7415063546e-001	 1.7061203096e+000	-5.4474145854e-001
 3.5679869978e-001	 1.7098333231e+000	-5.1391846630e-001
 3.3946251668e-001	 1.7133594452e+000	-4.9471124554e-001
 5.2102602613e-001	 1.6950627408e+000	-9.0806338552e-001
 5.0338630472e-001	 1.7003846807e+000	-8.6141968752e-001
 4.8573889701e-001	 1.7055097788e+000	-8.1048327546e-001
 4.6808688116e-001	 1.7104387226e+000	-7.5666826566e-001
 4.5043330405e-001	 1.7151722592e+000	-7.0157367357e-001
 4.3278117994e-001	 1.7197111941e+000	-6.4697583732e-001
 4.1513348924e-001	 1.7240563896e+000	-5.9482007884e-001
 3.9749317730e-001	 1.7282087640e+000	-5.4721168024e-001
 3.7986315324e-001	 1.7321692901e+000	-5.0640625511e-001
 3.6224628886e-001	 1.7359389937e+000	-4.7479959473e-001
 3.4464541757e-001	 1.7395189526e+000	-4.5491707032e-001
 5.2886140161e-001	 1.7205536997e+000	-8.8792251569e-001
 5.1095640776e-001	 1.7259556728e+000	-8.4084518332e-001
 4.9304361203e-001	 1.7311578440e+000	-7.8941539160e-001
 4.7512613887e-001	 1.7361609110e+000	-7.3500243880e-001
 4.5720708096e-001	 1.7409656323e+000	-6.7917852083e-001
 4.3928949790e-001	 1.7455728252e+000	-6.2371052285e-001
 4.2137641493e-001	 1.7499833653e+000	-5.7055096803e-001
 4.0347082167e-001	 1.7541981846e+000	-5.2182820916e-001
 3.8557567101e-001	 1.7582182705e+000	-4.7983595011e-001
 3.6769387793e-001	 1.7620446643e+000	-4.4702218571e-001
 3.4982831845e-001	 1.7656784599e+000	-4.2597764888e-001
 2.9799930958e-001	 1.5040833867e+000	-1.1297194985e+000
 2.8279915468e-001	 1.5070152995e+000	-1.1165580925e+000
 2.6761761573e-001	 1.5097851916e+000	-1.0954459048e+000
 2.5245703357e-001	 1.5123941228e+000	-1.0685833277e+000
 2.3731971277e-001	 1.5148431927e+000	-1.0381848627e+000
 2.2220792089e-001	 1.5171335398e+000	-1.0064743308e+000
 2.0712388784e-001	 1.5192663399e+000	-9.7568013699e-001
 1.9206980528e-001	 1.5212428050e+000	-9.4803061432e-001
 1.7704782606e-001	 1.5230641822e+000	-9.2574947135e-001
 1.6206006367e-001	 1.5247317519e+000	-9.1105136530e-001
 1.4710859180e-001	 1.5262468275e+000	-9.0613762187e-001
 3.0318221046e-001	 1.5302428940e+000	-1.0210976516e+000
 2.8771768953e-001	 1.5332257996e+000	-1.0057349532e+000
 2.7227210831e-001	 1.5360438666e+000	-9.8239303548e-001
 2.5684784838e-001	 1.5386981731e+000	-9.5338169753e-001
 2.4144725438e-001	 1.5411898381e+000	-9.2103036723e-001
 2.2607263330e-001	 1.5435200196e+000	-8.8768270970e-001
 2.1072625384e-001	 1.5456899141e+000	-8.5569129031e-001
 1.9541034579e-001	 1.5477007545e+000	-8.2741232095e-001
 1.8012709942e-001	 1.5495538096e+000	-8.0520051656e-001
 1.6487866499e-001	 1.5512503823e+000	-7.9140408739e-001
 1.4966715226e-001	 1.5527918086e+000	-7.8835989078e-001
 3.0836511135e-001	 1.5564024013e+000	-9.2135275808e-001
 2.9263622438e-001	 1.5594362997e+000	-9.0466800534e-001
 2.7692660090e-001	 1.5623025416e+000	-8.7994696577e-001
 2.6123866319e-001	 1.5650022235e+000	-8.4959790170e-001
 2.4557479598e-001	 1.5675364834e+000	-8.1605441679e-001
 2.2993734571e-001	 1.5699064994e+000	-7.8176944017e-001
 2.1432861985e-001	 1.5721134882e+000	-7.4920926495e-001
 1.9875088630e-001	 1.5741587040e+000	-7.2084767338e-001
 1.8320637278e-001	 1.5760434371e+000	-6.9916017927e-001
 1.6769726632e-001	 1.5777690127e+000	-6.8661841652e-001
 1.5222571273e-001	 1.5793367896e+000	-6.8568470039e-001
 3.1354801224e-001	 1.5825619087e+000	-8.2987666024e-001
 2.9755475923e-001	 1.5856467998e+000	-8.1251172755e-001
 2.8158109349e-001	 1.5885612165e+000	-7.8701376177e-001
 2.6562947801e-001	 1.5913062738e+000	-7.5588025926e-001
 2.4970233759e-001	 1.5938831288e+000	-7.2163997800e-001
 2.3380205812e-001	 1.5962929793e+000	-6.8684626964e-001
 2.1793098585e-001	 1.5985370624e+000	-6.5407046526e-001
 2.0209142680e-001	 1.6006166535e+000	-6.2589535110e-001
 1.8628564614e-001	 1.6025330646e+000	-6.0490876868e-001
 1.7051586764e-001	 1.6042876431e+000	-5.9369737172e-001
 1.5478427319e-001	 1.6058817707e+000	-5.9484056988e-001
 3.1873091312e-001	 1.6087214160e+000	-7.4636446388e-001
 3.0247329409e-001	 1.6118572999e+000	-7.2874125844e-001
 2.8623558608e-001	 1.6148198915e+000	-7.0283802468e-001
 2.7002029282e-001	 1.6176103241e+000	-6.7123395714e-001
 2.5382987920e-001	 1.6202297741e+000	-6.3654565614e-001
 2.3766677053e-001	 1.6226794591e+000	-6.0141977458e-001
 2.2153335186e-001	 1.6249606366e+000	-5.6852571729e-001
 2.0543196731e-001	 1.6270746030e+000	-5.4054843380e-001
 1.8936491950e-001	 1.6290226921e+000	-5.2018134275e-001
 1.7333446896e-001	 1.6308062735e+000	-5.1011942432e-001
 1.5734283365e-001	 1.6324267518e+000	-5.1305251442e-001
 3.2391381401e-001	 1.6348809233e+000	-6.7078165847e-001
 3.0739182894e-001	 1.6380678000e+000	-6.5311870641e-001
 2.9089007867e-001	 1.6410785664e+000	-6.2696830600e-001
 2.7441110764e-001	 1.6439143745e+000	-5.9498549281e-001
 2.5795742081e-001	 1.6465764195e+000	-5.5986909377e-001
 2.4153148295e-001	 1.6490659389e+000	-5.2435364990e-001
 2.2513571786e-001	 1.6513842108e+000	-4.9120139028e-001
 2.0877250781e-001	 1.6535325525e+000	-4.6319430271e-001
 1.9244419286e-001	 1.6555123196e+000	-4.4312634369e-001
 1.7615307028e-001	 1.6573249039e+000	-4.3379582830e-001
 1.5990139411e-001	 1.6589717329e+000	-4.3799803766e-001
 3.2909671490e-001	 1.6610404306e+000	-6.0333423915e-001
 3.1231036379e-001	 1.6642783001e+000	-5.8566255613e-001
 2.9554457126e-001	 1.6673372414e+000	-5.5922572016e-001
 2.7880192246e-001	 1.6702184248e+000	-5.2675042046e-001
 2.6208496243e-001	 1.6729230649e+000	-4.9101378363e-001
 2.4539619536e-001	 1.6754524187e+000	-4.5483452788e-001
 2.2873808387e-001	 1.6778077849e+000	-4.2106416680e-001
 2.1211304832e-001	 1.6799905020e+000	-3.9257831313e-001
 1.9552346622e-001	 1.6820019470e+000	-3.7226813012e-001
 1.7897167161e-001	 1.6838435343e+000	-3.6303197529e-001
 1.6245995458e-001	 1.6855167140e+000	-3.6776727876e-001
 3.3427961579e-001	 1.6871999379e+000	-5.4444150468e-001
 3.1722889864e-001	 1.6904888002e+000	-5.2661983577e-001
 3.0019906385e-001	 1.6935959164e+000	-4.9967540762e-001
 2.8319273727e-001	 1.6965224752e+000	-4.6640404201e-001
 2.6621250404e-001	 1.6992697102e+000	-4.2965892531e-001
 2.4926090777e-001	 1.7018388985e+000	-3.9234094360e-001
 2.3234044987e-001	 1.7042313591e+000	-3.5738906559e-001
 2.1545358883e-001	 1.7064484515e+000	-3.2777082900e-001
 1.9860273958e-001	 1.7084915745e+000	-3.0647298314e-001
 1.8179027293e-001	 1.7103621647e+000	-2.9649233754e-001
 1.6501851504e-001	 1.7120616951e+000	-3.0082686320e-001
 3.3946251668e-001	 1.7133594452e+000	-4.9471124554e-001
 3.2214743349e-001	 1.7166993003e+000	-4.7644074966e-001
 3.0485355644e-001	 1.7198545913e+000	-4.4860054353e-001
 2.8758355209e-001	 1.7228265255e+000	-4.1405472833e-001
 2.7034004565e-001	 1.7256163556e+000	-3.7573200038e-001
 2.5312562018e-001	 1.7282253784e+000	-3.3661511057e-001
 2.3594281588e-001	 1.7306549333e+000	-2.9973036956e-001
 2.1879412933e-001	 1.7329064010e+000	-2.6813726010e-001
 2.0168201293e-001	 1.7349812020e+000	-2.4491821494e-001
 1.8460887425e-001	 1.7368807951e+000	-2.3316861530e-001
 1.6757707550e-001	 1.7386066761e+000	-2.3598706143e-001
 3.4464541757e-001	 1.7395189526e+000	-4.5491707032e-001
 3.2706596835e-001	 1.7429098004e+000	-4.3575551706e-001
 3.0950804903e-001	 1.7461132663e+000	-4.0647862432e-001
 2.9197436690e-001	 1.7491305758e+000	-3.7001959369e-001
 2.7446758726e-001	 1.7519630010e+000	-3.2938377974e-001
 2.5699033260e-001	 1.7546118582e+000	-2.8763721076e-001
 2.3954518188e-001	 1.7570785075e+000	-2.4789515294e-001
 2.2213466984e-001	 1.7593643505e+000	-2.1331078584e-001
 2.0476128629e-001	 1.7614708295e+000	-1.8706405339e-001
 1.8742747557e-001	 1.7633994255e+000	-1.7235075124e-001
 1.7013563596e-001	 1.7651516572e+000	-1.7237190720e-001
 3.4982831845e-001	 1.7656784599e+000	-4.2597764888e-001
 3.3198450320e-001	 1.7691203005e+000	-4.0535318812e-001
 3.1416254162e-001	 1.7723719412e+000	-3.7395979569e-001
 2.9636518172e-001	 1.7754346262e+000	-3.3480227946e-001
 2.7859512887e-001	 1.7783096463e+000	-2.9096551107e-001
 2.6085504501e-001	 1.7809983380e+000	-2.4560193824e-001
 2.4314754789e-001	 1.7835020816e+000	-2.0191913822e-001
 2.2547521035e-001	 1.7858223000e+000	-1.6316748695e-001
 2.0784055965e-001	 1.7879604570e+000	-1.3262801464e-001
 1.9024607690e-001	 1.7899180559e+000	-1.1360051473e-001
 1.7269419643e-001	 1.7916966383e+000	-1.0939196862e-001
 1.4710859180e-001	 1.5262468275e+000	-9.0613762187e-001
 1.3219321486e-001	 1.5276109464e+000	-9.0190411401e-001
 1.1731819787e-001	 1.5288252450e+000	-8.8940265246e-001
 1.0248552346e-001	 1.5298911271e+000	-8.7102005214e-001
 8.7697131996e-002	 1.5308100238e+000	-8.4909232857e-001
 7.2954921301e-002	 1.5315833927e+000	-8.2590182844e-001
 5.8260746432e-002	 1.5322127159e+000	-8.0367462118e-001
 4.3616419493e-002	 1.5326994993e+000	-7.8457815786e-001
 2.9023709478e-002	 1.5330452715e+000	-7.7071920212e-001
 1.4484342157e-002	 1.5332515818e+000	-7.6414203600e-001
 0.0000000000e+000	 1.5333200000e+000	-7.6682696223e-001
 1.4966715226e-001	 1.5527918086e+000	-7.8835989078e-001
 1.3449236223e-001	 1.5541796526e+000	-7.8650704656e-001
 1.1935863411e-001	 1.5554150707e+000	-7.7647963090e-001
 1.0426798501e-001	 1.5564994910e+000	-7.6086252734e-001
 8.9222389032e-002	 1.5574343695e+000	-7.4219168333e-001
 7.4223777015e-002	 1.5582211890e+000	-7.2295062723e-001
 5.9274036279e-002	 1.5588614576e+000	-7.0556727377e-001
 4.4375010443e-002	 1.5593567074e+000	-6.9241102599e-001
 2.9528499270e-002	 1.5597084933e+000	-6.8579017961e-001
 1.4736258546e-002	 1.5599183919e+000	-6.8794963390e-001
 0.0000000000e+000	 1.5599880000e+000	-7.0106893200e-001
 1.5222571273e-001	 1.5793367896e+000	-6.8568470039e-001
 1.3679150961e-001	 1.5807483589e+000	-6.8639103466e-001
 1.2139907035e-001	 1.5820048965e+000	-6.7900806537e-001
 1.0605044656e-001	 1.5831078549e+000	-6.6631503830e-001
 9.0747646068e-002	 1.5840587152e+000	-6.5104313014e-001
 7.5492632729e-002	 1.5848589854e+000	-6.3587134862e-001
 6.0287326125e-002	 1.5855101994e+000	-6.2342275152e-001
 4.5133601394e-002	 1.5860139154e+000	-6.1626099388e-001
 3.0033289064e-002	 1.5863717151e+000	-6.1688721097e-001
 1.4988174934e-002	 1.5865852019e+000	-6.2773724208e-001
 0.0000000000e+000	 1.5866560000e+000	-6.5117921947e-001
 1.5478427319e-001	 1.6058817707e+000	-5.9484056988e-001
 1.3909065698e-001	 1.6073170652e+000	-5.9799456295e-001
 1.2343950660e-001	 1.6085947222e+000	-5.9310244277e-001
 1.0783290811e-001	 1.6097162188e+000	-5.8313553158e-001
 9.2272903104e-002	 1.6106830609e+000	-5.7101695300e-001
 7.6761488443e-002	 1.6114967818e+000	-5.5961690793e-001
 6.1300615973e-002	 1.6121589411e+000	-5.5174830234e-001
 4.5892192346e-002	 1.6126711235e+000	-5.5016273820e-001
 3.0538078857e-002	 1.6130349369e+000	-5.5754687632e-001
 1.5240091324e-002	 1.6132520120e+000	-5.7651917741e-001
 0.0000000000e+000	 1.6133240000e+000	-6.0962704714e-001
 1.5734283365e-001	 1.6324267518e+000	-5.1305251442e-001
 1.4138980436e-001	 1.6338857715e+000	-5.1827528393e-001
 1.2547994284e-001	 1.6351845480e+000	-5.1542201007e-001
 1.0961536965e-001	 1.6363245828e+000	-5.0765522580e-001
 9.3798160140e-002	 1.6373074066e+000	-4.9808813710e-001
 7.8030344158e-002	 1.6381345781e+000	-4.8977926257e-001
 6.2313905820e-002	 1.6388076829e+000	-4.8572746115e-001
 4.6650783297e-002	 1.6393283315e+000	-4.8886736096e-001
 3.1042868651e-002	 1.6396981588e+000	-5.0206519963e-001
 1.5492007713e-002	 1.6399188220e+000	-5.2811508336e-001
 0.0000000000e+000	 1.6399920000e+000	-5.6973569203e-001
 1.5990139411e-001	 1.6589717329e+000	-4.3799803766e-001
 1.4368895174e-001	 1.6604544778e+000	-4.4466454207e-001
 1.2752037909e-001	 1.6617743738e+000	-4.4312360128e-001
 1.1139783120e-001	 1.6629329467e+000	-4.3672951822e-001
 9.5323417177e-002	 1.6639317522e+000	-4.2878513689e-001
 7.9299199872e-002	 1.6647723745e+000	-4.2253582910e-001
 6.3327195668e-002	 1.6654564246e+000	-4.2116390884e-001
 4.7409374249e-002	 1.6659855396e+000	-4.2778348919e-001
 3.1547658445e-002	 1.6663613806e+000	-4.4543579364e-001
 1.5743924102e-002	 1.6665856321e+000	-4.7708493031e-001
 0.0000000000e+000	 1.6666600000e+000	-5.2561415764e-001
 1.6245995458e-001	 1.6855167140e+000	-3.6776727876e-001
 1.4598809912e-001	 1.6870231841e+000	-3.7502619369e-001
 1.2956081534e-001	 1.6883641995e+000	-3.7381892246e-001
 1.1318029275e-001	 1.6895413106e+000	-3.6769353173e-001
 9.6848674214e-002	 1.6905560979e+000	-3.6014348705e-001
 8.0568055587e-002	 1.6914101708e+000	-3.5460096525e-001
 6.4340485515e-002	 1.6921051664e+000	-3.5443063775e-001
 4.8167965200e-002	 1.6926427476e+000	-3.6292394136e-001
 3.2052448238e-002	 1.6930246025e+000	-3.8329385012e-001
 1.5995840491e-002	 1.6932524421e+000	-4.1867015805e-001
 0.0000000000e+000	 1.6933280000e+000	-4.7209530248e-001
 1.6501851504e-001	 1.7120616951e+000	-3.0082686320e-001
 1.4828724649e-001	 1.7135918903e+000	-3.0761925666e-001
 1.3160125158e-001	 1.7149540253e+000	-3.0553581071e-001
 1.1496275430e-001	 1.7161496746e+000	-2.9832179850e-001
 9.8373931250e-002	 1.7171804436e+000	-2.8966373066e-001
 8.1836911302e-002	 1.7180479672e+000	-2.8318196728e-001
 6.5353775363e-002	 1.7187539081e+000	-2.8242384763e-001
 4.8926556152e-002	 1.7192999557e+000	-2.9085735631e-001
 3.2557238032e-002	 1.7196878243e+000	-3.1186534116e-001
 1.6247756880e-002	 1.7199192522e+000	-3.4874029382e-001
 0.0000000000e+000	 1.7199960000e+000	-4.0467972428e-001
 1.6757707550e-001	 1.7386066761e+000	-2.3598706143e-001
 1.5058639387e-001	 1.7401605966e+000	-2.4106398034e-001
 1.3364168783e-001	 1.7415438510e+000	-2.3668304270e-001
 1.1674521585e-001	 1.7427580385e+000	-2.2679163837e-001
 9.9899188287e-002	 1.7438047893e+000	-2.1527320332e-001
 8.3105767016e-002	 1.7446857636e+000	-2.0593910005e-001
 6.6367065210e-002	 1.7454026499e+000	-2.0252106645e-001
 4.9685147103e-002	 1.7459571637e+000	-2.0866425438e-001
 3.3062027826e-002	 1.7463510461e+000	-2.2792087456e-001
 1.6499673269e-002	 1.7465860622e+000	-2.6374446075e-001
 0.0000000000e+000	 1.7466640000e+000	-3.1948478496e-001
 1.7013563596e-001	 1.7651516572e+000	-1.7237190720e-001
 1.5288554125e-001	 1.7667293029e+000	-1.7431097585e-001
 1.3568212407e-001	 1.7681336768e+000	-1.6601831881e-001
 1.1852767740e-001	 1.7693664024e+000	-1.5164984289e-001
 1.0142444532e-001	 1.7704291350e+000	-1.3529126715e-001
 8.4374622731e-002	 1.7713235599e+000	-1.2094923529e-001
 6.7380355057e-002	 1.7720513917e+000	-1.1254305158e-001
 5.0443738054e-002	 1.7726143718e+000	-1.1389706406e-001
 3.3566817619e-002	 1.7730142680e+000	-1.2873371339e-001
 1.6751589658e-002	 1.7732528723e+000	-1.6066726176e-001
 0.0000000000e+000	 1.7733320000e+000	-2.1319823501e-001
 1.7269419643e-001	 1.7916966383e+000	-1.0939196862e-001
 1.5518468862e-001	 1.7932980092e+000	-1.0661308930e-001
 1.3772256032e-001	 1.7947235026e+000	-9.2619093656e-002
 1.2031013895e-001	 1.7959747663e+000	-7.1782322227e-002
 1.0294970236e-001	 1.7970534806e+000	-4.8397636978e-002
 8.5643478444e-002	 1.7979613563e+000	-2.6672723889e-002
 6.8393644903e-002	 1.7987001334e+000	-1.0719078899e-002
 5.1202329005e-002	 1.7992715798e+000	-4.5437030697e-003
 3.4071607412e-002	 1.7996774898e+000	-1.2041527741e-002
 1.7003506047e-002	 1.7999196823e+000	-3.6988585333e-002
 0.0000000000e+000	 1.8000000000e+000	-8.3035960366e-002
 1.8000000000e+000	 0.0000000000e+000	 3.0121013901e+000
 1.7999196823e+000	 1.7003506047e-002	 3.0176213583e+000
 1.7996774898e+000	 3.4071607412e-002	 3.0245696047e+000
 1.7992715798e+000	 5.1202329005e-002	 3.0321712596e+000
 1.7987001334e+000	 6.8393644903e-002	 3.0395079298e+000
 1.7979613563e+000	 8.5643478444e-002	 3.0455205734e+000
 1.7970534806e+000	 1.0294970236e-001	 3.0490133797e+000
 1.7959747663e+000	 1.2031013895e-001	 3.0486586493e+000
 1.7947235026e+000	 1.3772256032e-001	 3.0430026665e+000
 1.7932980092e+000	 1.5518468862e-001	 3.0304725472e+000
 1.7916966383e+000	 1.7269419643e-001	 3.0093840380e+000
 1.8266680000e+000	 0.0000000000e+000	 2.8377575684e+000
 1.8265864924e+000	 1.7255422436e-002	 2.8525428261e+000
 1.8263407116e+000	 3.4576397204e-002	 2.8686106903e+000
 1.8259287879e+000	 5.1960919955e-002	 2.8851941078e+000
 1.8253488752e+000	 6.9406934749e-002	 2.9013662322e+000
 1.8245991527e+000	 8.6912334157e-002	 2.9160437866e+000
 1.8236778263e+000	 1.0447495939e-001	 2.9279915352e+000
 1.8225831303e+000	 1.2209260050e-001	 2.9358278590e+000
 1.8213133283e+000	 1.3976299656e-001	 2.9380314247e+000
 1.8198667155e+000	 1.5748383600e-001	 2.9329489282e+000
 1.8182416194e+000	 1.7525275689e-001	 2.9188038870e+000
 1.8533360000e+000	 0.0000000000e+000	 2.7195381521e+000
 1.8532533024e+000	 1.7507338824e-002	 2.7396452675e+000
 1.8530039335e+000	 3.5081186996e-002	 2.7607988913e+000
 1.8525859960e+000	 5.2719510904e-002	 2.7822774222e+000
 1.8519976169e+000	 7.0420224594e-002	 2.8031831077e+000
 1.8512369490e+000	 8.8181189870e-002	 2.8224459161e+000
 1.8503021720e+000	 1.0600021643e-001	 2.8388286274e+000
 1.8491914942e+000	 1.2387506204e-001	 2.8509331360e+000
 1.8479031541e+000	 1.4180343280e-001	 2.8572079533e+000
 1.8464354218e+000	 1.5978298338e-001	 2.8559568880e+000
 1.8447866005e+000	 1.7781131735e-001	 2.8453488762e+000
 1.8800040000e+000	 0.0000000000e+000	 2.6579077176e+000
 1.8799201125e+000	 1.7759255212e-002	 2.6790208455e+000
 1.8796671553e+000	 3.5585976788e-002	 2.7009214213e+000
 1.8792432040e+000	 5.3478101853e-002	 2.7229674173e+000
 1.8786463587e+000	 7.1433514439e-002	 2.7443240597e+000
 1.8778747454e+000	 8.9450045582e-002	 2.7639682379e+000
 1.8769265177e+000	 1.0752547346e-001	 2.7806942481e+000
 1.8757998581e+000	 1.2565752359e-001	 2.7931208622e+000
 1.8744929799e+000	 1.4384386905e-001	 2.7996997083e+000
 1.8730041281e+000	 1.6208213075e-001	 2.7987249377e+000
 1.8713315816e+000	 1.8036987781e-001	 2.7883441461e+000
 1.9066720000e+000	 0.0000000000e+000	 2.6533997398e+000
 1.9065869225e+000	 1.8011171600e-002	 2.6708350680e+000
 1.9063303771e+000	 3.6090766580e-002	 2.6888423611e+000
 1.9059004121e+000	 5.4236692802e-002	 2.7068898173e+000
 1.9052951004e+000	 7.2446804284e-002	 2.7242359074e+000
 1.9045125418e+000	 9.0718901294e-002	 2.7399343566e+000
 1.9035508634e+000	 1.0905073050e-001	 2.7528405804e+000
 1.9024082221e+000	 1.2743998514e-001	 2.7616195666e+000
 1.9010828056e+000	 1.4588430529e-001	 2.7647551855e+000
 1.8995728343e+000	 1.6438127813e-001	 2.7605609013e+000
 1.8978765627e+000	 1.8292843827e-001	 2.7471918484e+000
 1.9333400000e+000	 0.0000000000e+000	 2.7066118408e+000
 1.9332537326e+000	 1.8263087988e-002	 2.7153215304e+000
 1.9329935990e+000	 3.6595556372e-002	 2.7244970264e+000
 1.9325576201e+000	 5.4995283751e-002	 2.7337439685e+000
 1.9319438422e+000	 7.3460094129e-002	 2.7424407528e+000
 1.9311503381e+000	 9.1987757006e-002	 2.7497441259e+000
 1.9301752090e+000	 1.1057598753e-001	 2.7545963609e+000
 1.9290165860e+000	 1.2922244669e-001	 2.7557340057e+000
 1.9276726314e+000	 1.4792474153e-001	 2.7516981836e+000
 1.9261415406e+000	 1.6668042550e-001	 2.7408464163e+000
 1.9244215437e+000	 1.8548699874e-001	 2.7213659269e+000
 1.9600080000e+000	 0.0000000000e+000	 2.8182014259e+000
 1.9599205426e+000	 1.8515004376e-002	 2.8127770881e+000
 1.9596568208e+000	 3.7100346163e-002	 2.8078867958e+000
 1.9592148282e+000	 5.5753874700e-002	 2.8032974339e+000
 1.9585925840e+000	 7.4473383974e-002	 2.7985304422e+000
 1.9577881345e+000	 9.3256612718e-002	 2.7928680680e+000
 1.9567995547e+000	 1.1210124456e-001	 2.7853613365e+000
 1.9556249499e+000	 1.3100490823e-001	 2.7748397279e+000
 1.9542624571e+000	 1.4996517778e-001	 2.7599225367e+000
 1.9527102469e+000	 1.6897957288e-001	 2.7390318818e+000
 1.9509665248e+000	 1.8804555920e-001	 2.7104073182e+000
 1.9866760000e+000	 0.0000000000e+000	 2.9888816705e+000
 1.9865873527e+000	 1.8766920764e-002	 2.9635574171e+000
 1.9863200426e+000	 3.7605135955e-002	 2.9390743558e+000
 1.9858720362e+000	 5.6512465649e-002	 2.9153810241e+000
 1.9852413257e+000	 7.5486673818e-002	 2.8921614753e+000
 1.9844259308e+000	 9.4525468430e-002	 2.8688422432e+000
 1.9834239004e+000	 1.1362650160e-001	 2.8446011691e+000
 1.9822333139e+000	 1.3278736978e-001	 2.8183780768e+000
 1.9808522829e+000	 1.5200561402e-001	 2.7888872693e+000
 1.9792789532e+000	 1.7127872026e-001	 2.7546318096e+000
 1.9775115059e+000	 1.9060411966e-001	 2.7139195337e+000
 2.0133440000e+000	 0.0000000000e+000	 3.1923404230e+000
 2.0132541627e+000	 1.9018837152e-002	 3.1440707214e+000
 2.0129832645e+000	 3.8109925747e-002	 3.0976061687e+000
 2.0125292443e+000	 5.7271056599e-002	 3.0528818724e+000
 2.0118900675e+000	 7.6499963663e-002	 3.0095644982e+000
 2.0110637272e+000	 9.5794324142e-002	 2.9670692082e+000
 2.0100482461e+000	 1.1515175863e-001	 2.9245766827e+000
 2.0088416778e+000	 1.3456983133e-001	 2.8810502246e+000
 2.0074421087e+000	 1.5404605026e-001	 2.8352529600e+000
 2.0058476595e+000	 1.7357786763e-001	 2.7857651527e+000
 2.0040564870e+000	 1.9316268012e-001	 2.7310016598e+000
 2.0400120000e+000	 0.0000000000e+000	 3.2674428058e+000
 2.0399209728e+000	 1.9270753540e-002	 3.2096152641e+000
 2.0396464863e+000	 3.8614715539e-002	 3.1543642570e+000
 2.0391864523e+000	 5.8029647548e-002	 3.1014716112e+000
 2.0385388092e+000	 7.7513253509e-002	 3.0504753836e+000
 2.0377015236e+000	 9.7063179855e-002	 3.0006871552e+000
 2.0366725918e+000	 1.1667701567e-001	 2.9512092693e+000
 2.0354500417e+000	 1.3635229287e-001	 2.9009520163e+000
 2.0340319344e+000	 1.5608648651e-001	 2.8486507776e+000
 2.0324163658e+000	 1.7587701501e-001	 2.7928831517e+000
 2.0306014681e+000	 1.9572124058e-001	 2.7320860936e+000
 2.0666800000e+000	 0.0000000000e+000	 3.1887472637e+000
 2.0665877828e+000	 1.9522669929e-002	 3.1375947261e+000
 2.0663097081e+000	 3.9119505332e-002	 3.0888831097e+000
 2.0658436604e+000	 5.8788238498e-002	 3.0422588689e+000
 2.0651875510e+000	 7.8526543355e-002	 2.9971532094e+000
 2.0643393199e+000	 9.8332035568e-002	 2.9527996493e+000
 2.0632969374e+000	 1.1820227270e-001	 2.9082513716e+000
 2.0620584056e+000	 1.3813475442e-001	 2.8623983680e+000
 2.0606217602e+000	 1.5812692275e-001	 2.8139843919e+000
 2.0589850721e+000	 1.7817616239e-001	 2.7616237435e+000
 2.0571464492e+000	 1.9827980105e-001	 2.7038179269e+000
 1.7916966383e+000	 1.7269419643e-001	 3.0093840380e+000
 1.7899180559e+000	 1.9024607690e-001	 2.9826527315e+000
 1.7879604570e+000	 2.0784055965e-001	 2.9540968449e+000
 1.7858223000e+000	 2.2547521035e-001	 2.9232742322e+000
 1.7835020816e+000	 2.4314754789e-001	 2.8896900207e+000
 1.7809983380e+000	 2.6085504501e-001	 2.8528064290e+000
 1.7783096463e+000	 2.7859512887e-001	 2.8120531479e+000
 1.7754346262e+000	 2.9636518172e-001	 2.7668382147e+000
 1.7723719412e+000	 3.1416254162e-001	 2.7165592982e+000
 1.7691203005e+000	 3.3198450320e-001	 2.6606153118e+000
 1.7656784599e+000	 3.4982831845e-001	 2.5984182625e+000
 1.8182416194e+000	 1.7525275689e-001	 2.9188038870e+000
 1.8164366863e+000	 1.9306467822e-001	 2.8985249011e+000
 1.8144500845e+000	 2.1091983301e-001	 2.8760266791e+000
 1.8122802495e+000	 2.2881575086e-001	 2.8508843866e+000
 1.8099256558e+000	 2.4674991390e-001	 2.8226153920e+000
 1.8073848178e+000	 2.6471975742e-001	 2.7906902508e+000
 1.8046562917e+000	 2.8272267048e-001	 2.7545443064e+000
 1.8017386765e+000	 3.0075599654e-001	 2.7135898272e+000
 1.7986306162e+000	 3.1881703421e-001	 2.6672285927e+000
 1.7953308006e+000	 3.3690303805e-001	 2.6148648338e+000
 1.7918379672e+000	 3.5501121934e-001	 2.5559184270e+000
 1.8447866005e+000	 1.7781131735e-001	 2.8453488762e+000
 1.8429553167e+000	 1.9588327954e-001	 2.8283590270e+000
 1.8409397119e+000	 2.1399910637e-001	 2.8089986754e+000
 1.8387381990e+000	 2.3215629136e-001	 2.7868491440e+000
 1.8363492300e+000	 2.5035227990e-001	 2.7614285136e+000
 1.8337712977e+000	 2.6858446984e-001	 2.7322038939e+000
 1.8310029370e+000	 2.8685021209e-001	 2.6986043659e+000
 1.8280427269e+000	 3.0514681135e-001	 2.6600345099e+000
 1.8248892912e+000	 3.2347152681e-001	 2.6158884210e+000
 1.8215413007e+000	 3.4182157291e-001	 2.5655641079e+000
 1.8179974745e+000	 3.6019412023e-001	 2.5084781644e+000
 1.8713315816e+000	 1.8036987781e-001	 2.7883441461e+000
 1.8694739471e+000	 1.9870188086e-001	 2.7716053951e+000
 1.8674293394e+000	 2.1707837973e-001	 2.7526110447e+000
 1.8651961485e+000	 2.3549683187e-001	 2.7309348358e+000
 1.8627728042e+000	 2.5395464591e-001	 2.7060814114e+000
 1.8601577775e+000	 2.7244918225e-001	 2.6775000013e+000
 1.8573495824e+000	 2.9097775370e-001	 2.6445988400e+000
 1.8543467772e+000	 3.0953762617e-001	 2.6067602223e+000
 1.8511479661e+000	 3.2812601940e-001	 2.5633560868e+000
 1.8477518008e+000	 3.4674010776e-001	 2.5137640159e+000
 1.8441569818e+000	 3.6537702112e-001	 2.4573835274e+000
 1.8978765627e+000	 1.8292843827e-001	 2.7471918484e+000
 1.8959925775e+000	 2.0152048219e-001	 2.7277886151e+000
 1.8939189669e+000	 2.2015765309e-001	 2.7065333601e+000
 1.8916540980e+000	 2.3883737238e-001	 2.6829758536e+000
 1.8891963783e+000	 2.5755701191e-001	 2.6565904620e+000
 1.8865442573e+000	 2.7631389466e-001	 2.6267913848e+000
 1.8836962278e+000	 2.9510529531e-001	 2.5929486925e+000
 1.8806508276e+000	 3.1392844099e-001	 2.5544050553e+000
 1.8774066411e+000	 3.3278051199e-001	 2.5104930471e+000
 1.8739623009e+000	 3.5165864261e-001	 2.4605528975e+000
 1.8703164891e+000	 3.7055992201e-001	 2.4039505588e+000
 1.9244215437e+000	 1.8548699874e-001	 2.7213659269e+000
 1.9225112079e+000	 2.0433908351e-001	 2.6965027015e+000
 1.9204085944e+000	 2.2323692645e-001	 2.6705019425e+000
 1.9181120475e+000	 2.4217791288e-001	 2.6428703392e+000
 1.9156199525e+000	 2.6115937792e-001	 2.6130323829e+000
 1.9129307371e+000	 2.8017860707e-001	 2.5803473075e+000
 1.9100428731e+000	 2.9923283692e-001	 2.5441268990e+000
 1.9069548779e+000	 3.1831925580e-001	 2.5036540575e+000
 1.9036653161e+000	 3.3743500458e-001	 2.4582019816e+000
 1.9001728010e+000	 3.5657717746e-001	 2.4070538385e+000
 1.8964759965e+000	 3.7574282290e-001	 2.3495227696e+000
 1.9509665248e+000	 1.8804555920e-001	 2.7104073182e+000
 1.9490298383e+000	 2.0715768483e-001	 2.6774065455e+000
 1.9468982219e+000	 2.2631619981e-001	 2.6443156064e+000
 1.9445699970e+000	 2.4551845339e-001	 2.6105762019e+000
 1.9420435267e+000	 2.6476174392e-001	 2.5755405175e+000
 1.9393172170e+000	 2.8404331949e-001	 2.5384900255e+000
 1.9363895185e+000	 3.0336037854e-001	 2.4986552333e+000
 1.9332589282e+000	 3.2271007062e-001	 2.4552362472e+000
 1.9299239910e+000	 3.4208949717e-001	 2.4074240111e+000
 1.9263833011e+000	 3.6149571232e-001	 2.3544220693e+000
 1.9226355038e+000	 3.8092572379e-001	 2.2954686900e+000
 1.9775115059e+000	 1.9060411966e-001	 2.7139195337e+000
 1.9755484687e+000	 2.0997628615e-001	 2.6702197416e+000
 1.9733878494e+000	 2.2939547317e-001	 2.6278317317e+000
 1.9710279465e+000	 2.4885899389e-001	 2.5861074341e+000
 1.9684671009e+000	 2.6836410993e-001	 2.5443013853e+000
 1.9657036968e+000	 2.8790803190e-001	 2.5015915643e+000
 1.9627361639e+000	 3.0748792015e-001	 2.4571012551e+000
 1.9595629786e+000	 3.2710088544e-001	 2.4099217945e+000
 1.9561826660e+000	 3.4674398976e-001	 2.3591360506e+000
 1.9525938012e+000	 3.6641424717e-001	 2.3038424653e+000
 1.9487950111e+000	 3.8610862468e-001	 2.2431794863e+000
 2.0040564870e+000	 1.9316268012e-001	 2.7310016598e+000
 2.0020670991e+000	 2.1279488748e-001	 2.6746052967e+000
 1.9998774768e+000	 2.3247474653e-001	 2.6209626317e+000
 1.9974858960e+000	 2.5219953440e-001	 2.5695306947e+000
 1.9948906751e+000	 2.7196647593e-001	 2.5195514751e+000
 1.9920901766e+000	 2.9177274431e-001	 2.4700707087e+000
 1.9890828092e+000	 3.1161546176e-001	 2.4200754816e+000
 1.9858670289e+000	 3.3149170025e-001	 2.3685193560e+000
 1.9824413410e+000	 3.5139848235e-001	 2.3143482850e+000
 1.9788043013e+000	 3.7133278202e-001	 2.2565271371e+000
 1.9749545184e+000	 3.9129152557e-001	 2.1940666380e+000
 2.0306014681e+000	 1.9572124058e-001	 2.7320860936e+000
 2.0285857295e+000	 2.1561348880e-001	 2.6699647524e+000
 2.0263671043e+000	 2.3555401989e-001	 2.6108544719e+000
 2.0239438455e+000	 2.5554007491e-001	 2.5540176764e+000
 2.0213142492e+000	 2.7556884194e-001	 2.4986580807e+000
 2.0184766564e+000	 2.9563745673e-001	 2.4439364592e+000
 2.0154294546e+000	 3.1574300337e-001	 2.3889867115e+000
 2.0121710793e+000	 3.3588251507e-001	 2.3329323137e+000
 2.0087000159e+000	 3.5605297494e-001	 2.2749032561e+000
 2.0050148014e+000	 3.7625131688e-001	 2.2140535702e+000
 2.0011140257e+000	 3.9647442646e-001	 2.1495795550e+000
 2.0571464492e+000	 1.9827980105e-001	 2.7038179269e+000
 2.0551043599e+000	 2.1843209012e-001	 2.6443569993e+000
 2.0528567318e+000	 2.3863329325e-001	 2.5875297671e+000
 2.0504017950e+000	 2.5888061541e-001	 2.5325014764e+000
 2.0477378234e+000	 2.7917120795e-001	 2.4783996351e+000
 2.0448631363e+000	 2.9950216914e-001	 2.4243289629e+000
 2.0417760999e+000	 3.1987054498e-001	 2.3693865623e+000
 2.0384751296e+000	 3.4027332989e-001	 2.3126774158e+000
 2.0349586909e+000	 3.6070746753e-001	 2.2533303227e+000
 2.0312253015e+000	 3.8116985173e-001	 2.1905143954e+000
 2.0272735331e+000	 4.0165732735e-001	 2.1234562405e+000
 1.7656784599e+000	 3.4982831845e-001	 2.5984182625e+000
 1.7620446643e+000	 3.6769387793e-001	 2.5326497089e+000
 1.7582182705e+000	 3.8557567101e-001	 2.4660457025e+000
 1.7541981846e+000	 4.0347082167e-001	 2.3981278652e+000
 1.7499833653e+000	 4.2137641493e-001	 2.3284810093e+000
 1.7455728252e+000	 4.3928949790e-001	 2.2567646099e+000
 1.7409656323e+000	 4.5720708096e-001	 2.1827238691e+000
 1.7361609110e+000	 4.7512613887e-001	 2.1062002541e+000
 1.7311578440e+000	 4.9304361203e-001	 2.0271413954e+000
 1.7259556728e+000	 5.1095640776e-001	 1.9456102281e+000
 1.7205536997e+000	 5.2886140161e-001	 1.8617932638e+000
 1.7918379672e+000	 3.5501121934e-001	 2.5559184270e+000
 1.7881503349e+000	 3.7314146701e-001	 2.4931685668e+000
 1.7842672510e+000	 3.9128818879e-001	 2.4294176914e+000
 1.7801876053e+000	 4.0944846605e-001	 2.3641578245e+000
 1.7759103411e+000	 4.2761934061e-001	 2.2969523555e+000
 1.7714344564e+000	 4.4579781587e-001	 2.2274488837e+000
 1.7667590053e+000	 4.6398085787e-001	 2.1553916074e+000
 1.7618830995e+000	 4.8216539658e-001	 2.0806331280e+000
 1.7568059092e+000	 5.0034832706e-001	 2.0031455444e+000
 1.7515266650e+000	 5.1852651081e-001	 1.9230307067e+000
 1.7460446586e+000	 5.3669677708e-001	 1.8405295067e+000
 1.8179974745e+000	 3.6019412023e-001	 2.5084781644e+000
 1.8142560056e+000	 3.7858905609e-001	 2.4475082962e+000
 1.8103162315e+000	 3.9700070657e-001	 2.3855311737e+000
 1.8061770260e+000	 4.1542611042e-001	 2.3220087267e+000
 1.8018373169e+000	 4.3386226630e-001	 2.2564830782e+000
 1.7972960876e+000	 4.5230613383e-001	 2.1885908670e+000
 1.7925523784e+000	 4.7075463478e-001	 2.1180770633e+000
 1.7876052879e+000	 4.8920465428e-001	 2.0448081371e+000
 1.7824539744e+000	 5.0765304208e-001	 1.9687844386e+000
 1.7770976571e+000	 5.2609661385e-001	 1.8901516499e+000
 1.7715356175e+000	 5.4453215256e-001	 1.8092111689e+000
 1.8441569818e+000	 3.6537702112e-001	 2.4573835274e+000
 1.8403616762e+000	 3.8403664517e-001	 2.3971832275e+000
 1.8363652119e+000	 4.0271322434e-001	 2.3361130754e+000
 1.8321664466e+000	 4.2140375480e-001	 2.2736014923e+000
 1.8277642926e+000	 4.4010519199e-001	 2.2091666444e+000
 1.8231577187e+000	 4.5881445179e-001	 2.1424323613e+000
 1.8183457514e+000	 4.7752841169e-001	 2.0731434923e+000
 1.8133274763e+000	 4.9624391199e-001	 2.0011805451e+000
 1.8081020396e+000	 5.1495775711e-001	 1.9265734550e+000
 1.8026686493e+000	 5.3366671690e-001	 1.8495143270e+000
 1.7970265765e+000	 5.5236752804e-001	 1.7703690008e+000
 1.8703164891e+000	 3.7055992201e-001	 2.4039505588e+000
 1.8664673468e+000	 3.8948423424e-001	 2.3437297189e+000
 1.8624141924e+000	 4.0842574212e-001	 2.2829041927e+000
 1.8581558673e+000	 4.2738139917e-001	 2.2208625378e+000
 1.8536912684e+000	 4.4634811767e-001	 2.1570934100e+000
 1.8490193499e+000	 4.6532276975e-001	 2.0912032057e+000
 1.8441391245e+000	 4.8430218860e-001	 2.0229330828e+000
 1.8390496648e+000	 5.0328316970e-001	 1.9521751892e+000
 1.8337501048e+000	 5.2226247213e-001	 1.8789879319e+000
 1.8282396415e+000	 5.4123681994e-001	 1.8036101139e+000
 1.8225175354e+000	 5.6020290351e-001	 1.7264737755e+000
 1.8964759965e+000	 3.7574282290e-001	 2.3495227696e+000
 1.8925730174e+000	 3.9493182332e-001	 2.2887037692e+000
 1.8884631729e+000	 4.1413825989e-001	 2.2276568566e+000
 1.8841452879e+000	 4.3335904355e-001	 2.1657214047e+000
 1.8796182442e+000	 4.5259104336e-001	 2.1023481192e+000
 1.8748809811e+000	 4.7183108771e-001	 2.0371185462e+000
 1.8699324975e+000	 4.9107596551e-001	 1.9697638924e+000
 1.8647718532e+000	 5.1032242740e-001	 1.9001829740e+000
 1.8593981700e+000	 5.2956718716e-001	 1.8284591076e+000
 1.8538106336e+000	 5.4880692299e-001	 1.7548757573e+000
 1.8480084943e+000	 5.6803827899e-001	 1.6799307569e+000
 1.9226355038e+000	 3.8092572379e-001	 2.2954686900e+000
 1.9186786880e+000	 4.0037941240e-001	 2.2336786673e+000
 1.9145121533e+000	 4.1985077767e-001	 2.1721326019e+000
 1.9101347086e+000	 4.3933668792e-001	 2.1101083630e+000
 1.9055452200e+000	 4.5883396905e-001	 2.0470073542e+000
 1.9007426122e+000	 4.7833940568e-001	 1.9823760377e+000
 1.8957258705e+000	 4.9784974242e-001	 1.9159267031e+000
 1.8904940416e+000	 5.1736168511e-001	 1.8475572763e+000
 1.8850462353e+000	 5.3687190219e-001	 1.7773699670e+000
 1.8793816258e+000	 5.5637702603e-001	 1.7056885509e+000
 1.8734994532e+000	 5.7587365447e-001	 1.6330740882e+000
 1.9487950111e+000	 3.8610862468e-001	 2.2431794863e+000
 1.9447843586e+000	 4.0582700148e-001	 2.1802426749e+000
 1.9405611338e+000	 4.2556329545e-001	 2.1180998398e+000
 1.9361241293e+000	 4.4531433230e-001	 2.0559519937e+000
 1.9314721957e+000	 4.6507689473e-001	 1.9931369410e+000
 1.9266042434e+000	 4.8484772364e-001	 1.9291529848e+000
 1.9215192436e+000	 5.0462351933e-001	 1.8636818025e+000
 1.9162162300e+000	 5.2440094282e-001	 1.7966102686e+000
 1.9106943005e+000	 5.4417661721e-001	 1.7280510043e+000
 1.9049526179e+000	 5.6394712908e-001	 1.6583614311e+000
 1.8989904121e+000	 5.8370902994e-001	 1.5881611115e+000
 1.9749545184e+000	 3.9129152557e-001	 2.1940666380e+000
 1.9708900293e+000	 4.1127459056e-001	 2.1299967387e+000
 1.9666101143e+000	 4.3127581323e-001	 2.0673315329e+000
 1.9621135499e+000	 4.5129197667e-001	 2.0051767494e+000
 1.9573991715e+000	 4.7131982042e-001	 1.9427893160e+000
 1.9524658746e+000	 4.9135604160e-001	 1.8796034271e+000
 1.9473126166e+000	 5.1139729624e-001	 1.8152556982e+000
 1.9419384185e+000	 5.3144020053e-001	 1.7496091690e+000
 1.9363423657e+000	 5.5148133224e-001	 1.6827759112e+000
 1.9305236101e+000	 5.7151723213e-001	 1.6151380013e+000
 1.9244813711e+000	 5.9154440542e-001	 1.5473666212e+000
 2.0011140257e+000	 3.9647442646e-001	 2.1495795550e+000
 1.9969956999e+000	 4.1672217963e-001	 2.0845522294e+000
 1.9926590947e+000	 4.3698833100e-001	 2.0216028732e+000
 1.9881029706e+000	 4.5726962105e-001	 1.9597004977e+000
 1.9833261473e+000	 4.7756274611e-001	 1.8980008557e+000
 1.9783275057e+000	 4.9786435957e-001	 1.8358551737e+000
 1.9731059897e+000	 5.1817107315e-001	 1.7728377719e+000
 1.9676606069e+000	 5.3847945824e-001	 1.7087724244e+000
 1.9619904309e+000	 5.5878604727e-001	 1.6437571948e+000
 1.9560946022e+000	 5.7908733518e-001	 1.5781874887e+000
 1.9499723300e+000	 5.9937978090e-001	 1.5127770609e+000
 2.0272735331e+000	 4.0165732735e-001	 2.1234562405e+000
 2.0231013705e+000	 4.2216976871e-001	 2.0554368712e+000
 2.0187080752e+000	 4.4270084878e-001	 1.9897309107e+000
 2.0140923913e+000	 4.6324726543e-001	 1.9256623266e+000
 2.0092531230e+000	 4.8380567180e-001	 1.8626848377e+000
 2.0041891369e+000	 5.0437267753e-001	 1.8004046456e+000
 1.9988993627e+000	 5.2494485006e-001	 1.7385768781e+000
 1.9933827953e+000	 5.4551871594e-001	 1.6762658324e+000
 1.9876384961e+000	 5.6609076229e-001	 1.6131417346e+000
 1.9816655944e+000	 5.8665743822e-001	 1.5495996423e+000
 1.9754632889e+000	 6.0721515638e-001	 1.4863846660e+000
 1.7205536997e+000	 5.2886140161e-001	 1.8617932638e+000
 1.7149512879e+000	 5.4675543847e-001	 1.7739602297e+000
 1.7091478619e+000	 5.6463533321e-001	 1.6807600553e+000
 1.7031429098e+000	 5.8249787284e-001	 1.5831431418e+000
 1.6969359845e+000	 6.0033981835e-001	 1.4821921324e+000
 1.6905267052e+000	 6.1815790620e-001	 1.3791228383e+000
 1.6839147584e+000	 6.3594884997e-001	 1.2752836884e+000
 1.6770998984e+000	 6.5370934202e-001	 1.1721536301e+000
 1.6700819490e+000	 6.7143605513e-001	 1.0713555815e+000
 1.6628608034e+000	 6.8912564429e-001	 9.7453397220e-001
 1.6554364262e+000	 7.0677474842e-001	 8.8222208290e-001
 1.7460446586e+000	 5.3669677708e-001	 1.8405295067e+000
 1.7403592440e+000	 5.5485592404e-001	 1.7536757326e+000
 1.7344698370e+000	 5.7300071935e-001	 1.6609031139e+000
 1.7283759182e+000	 5.9112790244e-001	 1.5632728138e+000
 1.7220770338e+000	 6.0923418628e-001	 1.4619960896e+000
 1.7155727975e+000	 6.2731625900e-001	 1.3584355459e+000
 1.7088628910e+000	 6.4537078549e-001	 1.2541047558e+000
 1.7019470652e+000	 6.6339440909e-001	 1.1506661652e+000
 1.6948251409e+000	 6.8138375330e-001	 1.0500171918e+000
 1.6874970101e+000	 6.9933542355e-001	 9.5341173244e-001
 1.6799626365e+000	 7.1724600897e-001	 8.6132016489e-001
 1.7715356175e+000	 5.4453215256e-001	 1.8092111689e+000
 1.7657672001e+000	 5.6295640962e-001	 1.7237560124e+000
 1.7597918121e+000	 5.8136610550e-001	 1.6319746864e+000
 1.7536089266e+000	 5.9975793203e-001	 1.5350095253e+000
 1.7472180832e+000	 6.1812855421e-001	 1.4341723859e+000
 1.7406188898e+000	 6.3647461180e-001	 1.3309463262e+000
 1.7338110237e+000	 6.5479272100e-001	 1.2269854814e+000
 1.7267942319e+000	 6.7307947616e-001	 1.1241498124e+000
 1.7195683327e+000	 6.9133145148e-001	 1.0243969011e+000
 1.7121332167e+000	 7.0954520282e-001	 9.2852331479e-001
 1.7044888469e+000	 7.2771726952e-001	 8.3715820159e-001
 1.7970265765e+000	 5.5236752804e-001	 1.7703690008e+000
 1.7911751561e+000	 5.7105689519e-001	 1.6866902416e+000
 1.7851137872e+000	 5.8973149165e-001	 1.5963979676e+000
 1.7788419349e+000	 6.0838796163e-001	 1.5006860868e+000
 1.7723591325e+000	 6.2702292214e-001	 1.4009392015e+000
 1.7656649822e+000	 6.4563296460e-001	 1.2987348122e+000
 1.7587591563e+000	 6.6421465652e-001	 1.1958435375e+000
 1.7516413986e+000	 6.8276454324e-001	 1.0943974160e+000
 1.7443115246e+000	 7.0127914966e-001	 9.9593275907e-001
 1.7367694233e+000	 7.1975498208e-001	 9.0117540673e-001
 1.7290150572e+000	 7.3818853007e-001	 8.1091004465e-001
 1.8225175354e+000	 5.6020290351e-001	 1.7264737755e+000
 1.8165831122e+000	 5.7915738076e-001	 1.6448969106e+000
 1.8104357623e+000	 5.9809687779e-001	 1.5565136919e+000
 1.8040749433e+000	 6.1701799122e-001	 1.4625399360e+000
 1.7975001819e+000	 6.3591729007e-001	 1.3644052395e+000
 1.7907110745e+000	 6.5479131740e-001	 1.2637558154e+000
 1.7837072890e+000	 6.7363659204e-001	 1.1625112369e+000
 1.7764885653e+000	 6.9244961031e-001	 1.0629056230e+000
 1.7690547165e+000	 7.1122684783e-001	 9.6598197031e-001
 1.7614056299e+000	 7.2996476135e-001	 8.7259673333e-001
 1.7535412676e+000	 7.4865979062e-001	 7.8367461600e-001
 1.8480084943e+000	 5.6803827899e-001	 1.6799307569e+000
 1.8419910683e+000	 5.8725786634e-001	 1.6007173998e+000
 1.8357577374e+000	 6.0646226394e-001	 1.5145727414e+000
 1.8293079517e+000	 6.2564802082e-001	 1.4227047128e+000
 1.8226412312e+000	 6.4481165800e-001	 1.3265602053e+000
 1.8157571668e+000	 6.6394967020e-001	 1.2278286495e+000
 1.8086554216e+000	 6.8305852755e-001	 1.1287188631e+000
 1.8013357320e+000	 7.0213467738e-001	 1.0310757769e+000
 1.7937979084e+000	 7.2117454600e-001	 9.3582217346e-001
 1.7860418365e+000	 7.4017454062e-001	 8.4393918507e-001
 1.7780674779e+000	 7.5913105116e-001	 7.5647688688e-001
 1.8734994532e+000	 5.7587365447e-001	 1.6330740882e+000
 1.8673990244e+000	 5.9535835191e-001	 1.5564094880e+000
 1.8610797125e+000	 6.1482765009e-001	 1.4727287054e+000
 1.8545409601e+000	 6.3427805041e-001	 1.3832018066e+000
 1.8477822806e+000	 6.5370602593e-001	 1.2892652784e+000
 1.8408032591e+000	 6.7310802300e-001	 1.1926887871e+000
 1.8336035543e+000	 6.9248046307e-001	 1.0959142173e+000
 1.8261828987e+000	 7.1181974445e-001	 1.0002286083e+000
 1.8185411003e+000	 7.3112224418e-001	 9.0665280403e-001
 1.8106780431e+000	 7.5038431988e-001	 8.1627905356e-001
 1.8025936882e+000	 7.6960231171e-001	 7.3026898921e-001
 1.8989904121e+000	 5.8370902994e-001	 1.5881611115e+000
 1.8928069804e+000	 6.0345883748e-001	 1.5141408037e+000
 1.8864016876e+000	 6.2319303624e-001	 1.4330303989e+000
 1.8797739685e+000	 6.4290808001e-001	 1.3459318777e+000
 1.8729233299e+000	 6.6260039386e-001	 1.2542435768e+000
 1.8658493514e+000	 6.8226637580e-001	 1.1600269994e+000
 1.8585516869e+000	 7.0190239858e-001	 1.0654554939e+000
 1.8510300654e+000	 7.2150481152e-001	 9.7160577884e-001
 1.8432842922e+000	 7.4106994236e-001	 8.7959653283e-001
 1.8353142497e+000	 7.6059409915e-001	 7.9061836490e-001
 1.8271198986e+000	 7.8007357226e-001	 7.0593144691e-001
 1.9244813711e+000	 5.9154440542e-001	 1.5473666212e+000
 1.9182149365e+000	 6.1155932306e-001	 1.4759822241e+000
 1.9117236627e+000	 6.3155842238e-001	 1.3974143419e+000
 1.9050069769e+000	 6.5153810961e-001	 1.3126663556e+000
 1.8980643793e+000	 6.7149476179e-001	 1.2231146213e+000
 1.8908954437e+000	 6.9142472860e-001	 1.1312458100e+000
 1.8834998196e+000	 7.1132433410e-001	 1.0386214208e+000
 1.8758772322e+000	 7.3118987860e-001	 9.4637147358e-001
 1.8680274841e+000	 7.5101764053e-001	 8.5570077298e-001
 1.8599504564e+000	 7.7080387841e-001	 7.6788630178e-001
 1.8516461089e+000	 7.9054483281e-001	 6.8427451600e-001
 1.9499723300e+000	 5.9937978090e-001	 1.5127770609e+000
 1.9436228926e+000	 6.1965980863e-001	 1.4439012264e+000
 1.9370456378e+000	 6.3992380853e-001	 1.3676972038e+000
 1.9302399853e+000	 6.6016813920e-001	 1.2850389163e+000
 1.9232054286e+000	 6.8038912972e-001	 1.1975384257e+000
 1.9159415361e+000	 7.0058308140e-001	 1.1076560549e+000
 1.9084479522e+000	 7.2074626962e-001	 1.0166129638e+000
 1.9007243989e+000	 7.4087494567e-001	 9.2561403844e-001
 1.8927706760e+000	 7.6096533871e-001	 8.3593924929e-001
 1.8845866630e+000	 7.8101365768e-001	 7.4894070617e-001
 1.8761723193e+000	 8.0101609336e-001	 6.6603962351e-001
 1.9754632889e+000	 6.0721515638e-001	 1.4863846660e+000
 1.9690308487e+000	 6.2776029421e-001	 1.4197551961e+000
 1.9623676129e+000	 6.4828919468e-001	 1.3455682165e+000
 1.9554729937e+000	 6.6879816880e-001	 1.2645470694e+000
 1.9483464780e+000	 6.8928349765e-001	 1.1788854406e+000
 1.9409876284e+000	 7.0974143420e-001	 1.0904909197e+000
 1.9333960849e+000	 7.3016820514e-001	 1.0005550545e+000
 1.9255715656e+000	 7.5056001275e-001	 9.1034765755e-001
 1.9175138679e+000	 7.7091303689e-001	 8.2121362441e-001
 1.9092228696e+000	 7.9122343695e-001	 7.3456965520e-001
 1.9006985296e+000	 8.1148735391e-001	 6.5190089637e-001
 1.6554364262e+000	 7.0677474842e-001	 8.8222208290e-001
 1.6478100126e+000	 7.2437735518e-001	 7.9137290922e-001
 1.6399805736e+000	 7.4193272950e-001	 6.9871901459e-001
 1.6319482913e+000	 7.5943747564e-001	 6.0432749464e-001
 1.6237134218e+000	 7.7688818926e-001	 5.0832155548e-001
 1.6152762950e+000	 7.9428145945e-001	 4.1088052608e-001
 1.6066373155e+000	 8.1161387061e-001	 3.1223979417e-001
 1.5977969630e+000	 8.2888200447e-001	 2.1269066611e-001
 1.5887557923e+000	 8.4608244213e-001	 1.1258015114e-001
 1.5795144344e+000	 8.6321176607e-001	 1.2310669959e-002
 1.5700735960e+000	 8.8026656221e-001	-8.7660312810e-002
 1.6799626365e+000	 7.1724600897e-001	 8.6132016489e-001
 1.6722232334e+000	 7.3510940813e-001	 7.7074054231e-001
 1.6642777969e+000	 7.5292487508e-001	 6.7833737429e-001
 1.6561265119e+000	 7.7068896374e-001	 5.8419909155e-001
 1.6477696382e+000	 7.8839821939e-001	 4.8847119422e-001
 1.6392075107e+000	 8.0604918054e-001	 3.9135616198e-001
 1.6304405399e+000	 8.2363838099e-001	 2.9311329235e-001
 1.6214692126e+000	 8.4116235185e-001	 1.9405846815e-001
 1.6122940921e+000	 8.5861762355e-001	 9.4563854813e-002
 1.6029158183e+000	 8.7600072794e-001	-4.9424722280e-003
 1.5933351085e+000	 8.9330820037e-001	-1.0397697043e-001
 1.7044888469e+000	 7.2771726952e-001	 8.3715820159e-001
 1.6966364542e+000	 7.4584146108e-001	 7.4735790446e-001
 1.6885750202e+000	 7.6391702065e-001	 6.5573248365e-001
 1.6803047325e+000	 7.8194045185e-001	 5.6237454623e-001
 1.6718258546e+000	 7.9990824952e-001	 4.6743483512e-001
 1.6631387264e+000	 8.1781690162e-001	 3.7112206715e-001
 1.6542437644e+000	 8.3566289138e-001	 2.7370270520e-001
 1.6451414623e+000	 8.5344269924e-001	 1.7550066569e-001
 1.6358323918e+000	 8.7115280498e-001	 7.6896962388e-002
 1.6263172021e+000	 8.8878968982e-001	-2.1670713090e-002
 1.6165966211e+000	 9.0634983852e-001	-1.1970847433e-001
 1.7290150572e+000	 7.3818853007e-001	 8.1091004465e-001
 1.7210496750e+000	 7.5657351403e-001	 7.2226909699e-001
 1.7128722434e+000	 7.7490916622e-001	 6.3182629001e-001
 1.7044829530e+000	 7.9319193996e-001	 5.3966218166e-001
 1.6958820710e+000	 8.1141827964e-001	 4.4591662550e-001
 1.6870699421e+000	 8.2958462271e-001	 3.5078856607e-001
 1.6780469888e+000	 8.4768740177e-001	 2.5453577548e-001
 1.6688137120e+000	 8.6572304662e-001	 1.5747453257e-001
 1.6593706915e+000	 8.8368798640e-001	 5.9979245979e-002
 1.6497185860e+000	 9.0157865169e-001	-3.7517978611e-002
 1.6398581337e+000	 9.1939147667e-001	-1.3452782701e-001
 1.7535412676e+000	 7.4865979062e-001	 7.8367461600e-001
 1.7454628958e+000	 7.6730556697e-001	 6.9644622731e-001
 1.7371694667e+000	 7.8590131179e-001	 6.0747133938e-001
 1.7286611736e+000	 8.0444342807e-001	 5.1680312171e-001
 1.7199382875e+000	 8.2292830977e-001	 4.2455527791e-001
 1.7110011578e+000	 8.4135234380e-001	 3.3090182702e-001
 1.7018502132e+000	 8.5971191215e-001	 2.3607683419e-001
 1.6924859617e+000	 8.7800339400e-001	 1.4037409259e-001
 1.6829089912e+000	 8.9622316782e-001	 4.4146757726e-002
 1.6731199699e+000	 9.1436761356e-001	-5.2193065315e-002
 1.6631196463e+000	 9.3243311482e-001	-1.4817478180e-001
 1.7780674779e+000	 7.5913105116e-001	 7.5647688688e-001
 1.7698761166e+000	 7.7803761992e-001	 6.7079025874e-001
 1.7614666900e+000	 7.9689345736e-001	 5.8345153309e-001
 1.7528393942e+000	 8.1569491618e-001	 4.9447199368e-001
 1.7439945039e+000	 8.3443833989e-001	 4.0392476055e-001
 1.7349323735e+000	 8.5312006488e-001	 3.1194458502e-001
 1.7256534376e+000	 8.7173642254e-001	 2.1872760356e-001
 1.7161582113e+000	 8.9028374139e-001	 1.2453105272e-001
 1.7064472909e+000	 9.0875834925e-001	 2.9672946209e-002
 1.6965213537e+000	 9.2715657544e-001	-6.5468285113e-002
 1.6863811589e+000	 9.4547475298e-001	-1.6045419087e-001
 1.8025936882e+000	 7.6960231171e-001	 7.3026898921e-001
 1.7942893373e+000	 7.8876967287e-001	 6.4613201575e-001
 1.7857639133e+000	 8.0788560293e-001	 5.6048306041e-001
 1.7770176148e+000	 8.2694640429e-001	 4.7327782446e-001
 1.7680507203e+000	 8.4594837002e-001	 3.8453519561e-001
 1.7588635892e+000	 8.6488778597e-001	 2.9433708373e-001
 1.7494566620e+000	 8.8376093293e-001	 2.0282822626e-001
 1.7398304610e+000	 9.0256408877e-001	 1.1021596589e-001
 1.7299855906e+000	 9.2129353067e-001	 1.6770001538e-002
 1.7199227376e+000	 9.3994553731e-001	-7.7177886774e-002
 1.7096426715e+000	 9.5851639113e-001	-1.7123413976e-001
 1.8271198986e+000	 7.8007357226e-001	 7.0593144691e-001
 1.8187025581e+000	 7.9950172581e-001	 6.2323333012e-001
 1.8100611366e+000	 8.1887774850e-001	 5.3921549075e-001
 1.8011958353e+000	 8.3819789240e-001	 4.5376511217e-001
 1.7921069367e+000	 8.5745840015e-001	 3.6683394622e-001
 1.7827948048e+000	 8.7665550706e-001	 2.7843821575e-001
 1.7732598864e+000	 8.9578544332e-001	 1.8865849952e-001
 1.7635027107e+000	 9.1484443615e-001	 9.7639601766e-002
 1.7535238903e+000	 9.3382871209e-001	 5.5904076483e-003
 1.7433241214e+000	 9.5273449919e-001	-8.7216274994e-002
 1.7329041841e+000	 9.7155802928e-001	-1.8044388856e-001
 1.8516461089e+000	 7.9054483281e-001	 6.8427451600e-001
 1.8431157789e+000	 8.1023377876e-001	 6.0278831504e-001
 1.8343583599e+000	 8.2986989407e-001	 5.2023301048e-001
 1.8253740559e+000	 8.4944938051e-001	 4.3641505691e-001
 1.8161631531e+000	 8.6896843027e-001	 3.5120687425e-001
 1.8067260205e+000	 8.8842322815e-001	 2.6454684293e-001
 1.7970631108e+000	 9.0780995370e-001	 1.7643929538e-001
 1.7871749603e+000	 9.2712478354e-001	 8.6954506227e-002
 1.7770621900e+000	 9.4636389352e-001	-3.7713174218e-003
 1.7667255053e+000	 9.6552346106e-001	-9.5536045834e-002
 1.7561656967e+000	 9.8459966744e-001	-1.8807163760e-001
 1.8761723193e+000	 8.0101609336e-001	 6.6603962351e-001
 1.8675289997e+000	 8.2096583171e-001	 5.8542475528e-001
 1.8586555832e+000	 8.4086203964e-001	 5.0405579135e-001
 1.8495522765e+000	 8.6070086862e-001	 4.2164693610e-001
 1.8402193695e+000	 8.8047846040e-001	 3.3797975356e-001
 1.8306572362e+000	 9.0019094924e-001	 2.5290328019e-001
 1.8208663352e+000	 9.1983446409e-001	 1.6633414967e-001
 1.8108472100e+000	 9.3940513092e-001	 7.8256732243e-002
 1.8006004897e+000	 9.5889907494e-001	-1.1276710465e-002
 1.7901268891e+000	 9.7831242294e-001	-1.0214585533e-001
 1.7794272093e+000	 9.9764130559e-001	-1.9416213388e-001
 1.9006985296e+000	 8.1148735391e-001	 6.5190089637e-001
 1.8919422205e+000	 8.3169788466e-001	 5.7170560307e-001
 1.8829528065e+000	 8.5185418521e-001	 4.9114147837e-001
 1.8737304971e+000	 8.7195235673e-001	 4.0981961142e-001
 1.8642755859e+000	 8.9198849053e-001	 3.2741982453e-001
 1.8545884519e+000	 9.1195867032e-001	 2.4369092806e-001
 1.8446695596e+000	 9.3185897448e-001	 1.5845100489e-001
 1.8345194597e+000	 9.5168547831e-001	 7.1587726744e-002
 1.8241387894e+000	 9.7143425637e-001	-1.6941296677e-002
 1.8135282730e+000	 9.9110138481e-001	-1.0710813633e-001
 1.8026887218e+000	 1.0106829438e+000	-1.9881655554e-001
 1.5700735960e+000	 8.8026656221e-001	-8.7660312810e-002
 1.5604325990e+000	 8.9724596293e-001	-1.8649570463e-001
 1.5505937056e+000	 9.1414400241e-001	-2.8380309369e-001
 1.5405578528e+000	 9.3095728892e-001	-3.7974704655e-001
 1.5303260540e+000	 9.4768244256e-001	-4.7442622659e-001
 1.5198993990e+000	 9.6431609743e-001	-5.6787244725e-001
 1.5092790533e+000	 9.8085490370e-001	-6.6004981858e-001
 1.4984662587e+000	 9.9729552980e-001	-7.5085399376e-001
 1.4874623321e+000	 1.0136346645e+000	-8.4011253455e-001
 1.4762686658e+000	 1.0298690189e+000	-9.2758015477e-001
 1.4648867267e+000	 1.0459953290e+000	-1.0129449243e+000
 1.5933351085e+000	 8.9330820037e-001	-1.0397697043e-001
 1.5835512749e+000	 9.1053916034e-001	-2.0144438462e-001
 1.5735666128e+000	 9.2768755366e-001	-2.9679915862e-001
 1.5633820732e+000	 9.4474993835e-001	-3.9033504374e-001
 1.5529986847e+000	 9.6172288443e-001	-4.8227762317e-001
 1.5424175529e+000	 9.7860297614e-001	-5.7278307118e-001
 1.5316398610e+000	 9.9538681402e-001	-6.6193700106e-001
 1.5206668688e+000	 1.0120710171e+000	-7.4975449899e-001
 1.5094999130e+000	 1.0286522252e+000	-8.3617461855e-001
 1.4981404063e+000	 1.0451271006e+000	-9.2106669095e-001
 1.4865898373e+000	 1.0614923309e+000	-1.0042246134e+000
 1.6165966211e+000	 9.0634983852e-001	-1.1970847433e-001
 1.6066699508e+000	 9.2383235774e-001	-2.1584078910e-001
 1.5965395200e+000	 9.4123110491e-001	-3.0932211694e-001
 1.5862062937e+000	 9.5854258778e-001	-4.0055394571e-001
 1.5756713154e+000	 9.7576332631e-001	-4.8986755929e-001
 1.5649357069e+000	 9.9288985485e-001	-5.7752253078e-001
 1.5540006687e+000	 1.0099187243e+000	-6.6370529901e-001
 1.5428674789e+000	 1.0268465044e+000	-7.4852881127e-001
 1.5315374938e+000	 1.0436697858e+000	-8.3202720169e-001
 1.5200121467e+000	 1.0603851823e+000	-9.1416112812e-001
 1.5082929480e+000	 1.0769893328e+000	-9.9481223585e-001
 1.6398581337e+000	 9.1939147667e-001	-1.3452782701e-001
 1.6297886266e+000	 9.3712555515e-001	-2.2938378864e-001
 1.6195124272e+000	 9.5477465616e-001	-3.2110598690e-001
 1.6090305142e+000	 9.7233523721e-001	-4.1018301849e-001
 1.5983439460e+000	 9.8980376818e-001	-4.9703147129e-001
 1.5874538609e+000	 1.0071767336e+000	-5.8199417812e-001
 1.5763614763e+000	 1.0244506346e+000	-6.6533963024e-001
 1.5650680890e+000	 1.0416219918e+000	-7.4725584173e-001
 1.5535750746e+000	 1.0586873465e+000	-8.2785605934e-001
 1.5418838871e+000	 1.0756432639e+000	-9.0717232094e-001
 1.5299960587e+000	 1.0924863347e+000	-9.8515553566e-001
 1.6631196463e+000	 9.3243311482e-001	-1.4817478180e-001
 1.6529073025e+000	 9.5041875256e-001	-2.4184098117e-001
 1.6424853344e+000	 9.6831820741e-001	-3.3195489311e-001
 1.6318547346e+000	 9.8612788664e-001	-4.1907237629e-001
 1.6210165767e+000	 1.0038442101e+000	-5.0367570965e-001
 1.6099720149e+000	 1.0214636123e+000	-5.8617285432e-001
 1.5987222840e+000	 1.0389825450e+000	-6.6689041631e-001
 1.5872686991e+000	 1.0563974791e+000	-7.4607997670e-001
 1.5756126554e+000	 1.0737049072e+000	-8.2391063769e-001
 1.5637556276e+000	 1.0909013456e+000	-9.0046892668e-001
 1.5516991694e+000	 1.1079833366e+000	-9.7575729884e-001
 1.6863811589e+000	 9.4547475298e-001	-1.6045419087e-001
 1.6760259784e+000	 9.6371194997e-001	-2.5304672943e-001
 1.6654582416e+000	 9.8186175866e-001	-3.4174082839e-001
 1.6546789551e+000	 9.9992053607e-001	-4.2714050669e-001
 1.6436892074e+000	 1.0178846519e+000	-5.0977626854e-001
 1.6324901689e+000	 1.0357504910e+000	-5.9009706163e-001
 1.6210830917e+000	 1.0535144553e+000	-6.6847750949e-001
 1.6094693093e+000	 1.0711729664e+000	-7.4520932128e-001
 1.5976502362e+000	 1.0887224679e+000	-8.2050110280e-001
 1.5856273680e+000	 1.1061594272e+000	-8.9447652542e-001
 1.5734022801e+000	 1.1234803385e+000	-9.6717260827e-001
 1.7096426715e+000	 9.5851639113e-001	-1.7123413976e-001
 1.6991446542e+000	 9.7700514737e-001	-2.6289999595e-001
 1.6884311488e+000	 9.9540530991e-001	-3.5040122155e-001
 1.6775031755e+000	 1.0137131855e+000	-4.3437322278e-001
 1.6663618381e+000	 1.0319250938e+000	-5.1537020885e-001
 1.6550083229e+000	 1.0500373697e+000	-5.9387364966e-001
 1.6434438993e+000	 1.0680463656e+000	-6.7028240394e-001
 1.6316699194e+000	 1.0859484537e+000	-7.4491253148e-001
 1.6196878171e+000	 1.1037400286e+000	-8.1799516913e-001
 1.6074991084e+000	 1.1214175089e+000	-8.8967450054e-001
 1.5951053908e+000	 1.1389773404e+000	-9.6000583485e-001
 1.7329041841e+000	 9.7155802928e-001	-1.8044388856e-001
 1.7222633301e+000	 9.9029834478e-001	-2.7136199469e-001
 1.7114040560e+000	 1.0089488612e+000	-3.5793632913e-001
 1.7003273960e+000	 1.0275058349e+000	-4.4081422934e-001
 1.6890344687e+000	 1.0459655357e+000	-5.2056139692e-001
 1.6775264769e+000	 1.0643242484e+000	-5.9766939201e-001
 1.6658047070e+000	 1.0825782759e+000	-6.7254614359e-001
 1.6538705295e+000	 1.1007239411e+000	-7.4551546001e-001
 1.6417253979e+000	 1.1187575892e+000	-8.1681472855e-001
 1.6293708489e+000	 1.1366755906e+000	-8.8659270210e-001
 1.6168085014e+000	 1.1544743423e+000	-9.5490738946e-001
 1.7561656967e+000	 9.8459966744e-001	-1.8807163760e-001
 1.7453820060e+000	 1.0035915422e+000	-2.7845367642e-001
 1.7343769632e+000	 1.0224924124e+000	-3.6440820518e-001
 1.7231516164e+000	 1.0412984844e+000	-4.4657222513e-001
 1.7117070994e+000	 1.0600059775e+000	-5.2551136153e-001
 1.7000446309e+000	 1.0786111271e+000	-6.0170898993e-001
 1.6881655147e+000	 1.0971101862e+000	-6.7556587215e-001
 1.6760711396e+000	 1.1154994284e+000	-7.4739763284e-001
 1.6637629787e+000	 1.1337751499e+000	-8.1743229809e-001
 1.6512425893e+000	 1.1519336722e+000	-8.8580791323e-001
 1.6385116121e+000	 1.1699713442e+000	-9.5257025806e-001
 1.7794272093e+000	 9.9764130559e-001	-1.9416213388e-001
 1.7685006818e+000	 1.0168847396e+000	-2.8425511072e-001
 1.7573498703e+000	 1.0360359637e+000	-3.6993068582e-001
 1.7459758369e+000	 1.0550911338e+000	-4.5181091812e-001
 1.7343797301e+000	 1.0740464194e+000	-5.3043749103e-001
 1.7225627848e+000	 1.0928980058e+000	-6.0627159576e-001
 1.7105263223e+000	 1.1116420965e+000	-6.7969123695e-001
 1.6982717497e+000	 1.1302749157e+000	-7.5098857218e-001
 1.6858005595e+000	 1.1487927106e+000	-8.2036730320e-001
 1.6731143297e+000	 1.1671917539e+000	-8.8794013744e-001
 1.6602147228e+000	 1.1854683461e+000	-9.5372633959e-001
 1.8026887218e+000	 1.0106829438e+000	-1.9881655554e-001
 1.7916193577e+000	 1.0301779370e+000	-2.8889432441e-001
 1.7803227775e+000	 1.0495795149e+000	-3.7467722199e-001
 1.7688000574e+000	 1.0688837832e+000	-4.5674750616e-001
 1.7570523608e+000	 1.0880868613e+000	-5.3560958487e-001
 1.7450809388e+000	 1.1071848845e+000	-6.1168720761e-001
 1.7328871300e+000	 1.1261740068e+000	-6.8532066003e-001
 1.7204723598e+000	 1.1450504030e+000	-7.5676397960e-001
 1.7078381404e+000	 1.1638102713e+000	-8.2618221122e-001
 1.6949860702e+000	 1.1824498355e+000	-8.9364872319e-001
 1.6819178335e+000	 1.2009653480e+000	-9.5914260466e-001
 1.4648867267e+000	 1.0459953290e+000	-1.0129449243e+000
 1.4533180553e+000	 1.0620103567e+000	-1.0961476926e+000
 1.4415642644e+000	 1.0779108915e+000	-1.1770688404e+000
 1.4296270391e+000	 1.0936937532e+000	-1.2551945068e+000
 1.4175081369e+000	 1.1093557947e+000	-1.3299343893e+000
 1.4052093865e+000	 1.1248939033e+000	-1.4006218340e+000
 1.3927326875e+000	 1.1403050036e+000	-1.4665140993e+000
 1.3800800090e+000	 1.1555860590e+000	-1.5267927992e+000
 1.3672533887e+000	 1.1707340736e+000	-1.5805645342e+000
 1.3542549321e+000	 1.1857460943e+000	-1.6268617146e+000
 1.3410868110e+000	 1.2006192129e+000	-1.6646435816e+000
 1.4865898373e+000	 1.0614923309e+000	-1.0042246134e+000
 1.4748497697e+000	 1.0777446301e+000	-1.0856370107e+000
 1.4629218399e+000	 1.0938807402e+000	-1.1651977512e+000
 1.4508077579e+000	 1.1098974338e+000	-1.2424452104e+000
 1.4385093074e+000	 1.1257915171e+000	-1.3168410035e+000
 1.4260283442e+000	 1.1415598314e+000	-1.3877698857e+000
 1.4133667960e+000	 1.1571992558e+000	-1.4545398271e+000
 1.4005266610e+000	 1.1727067085e+000	-1.5163822685e+000
 1.3875100072e+000	 1.1880791493e+000	-1.5724525665e+000
 1.3743189713e+000	 1.2033135815e+000	-1.6218306355e+000
 1.3609557572e+000	 1.2184070535e+000	-1.6635217930e+000
 1.5082929480e+000	 1.0769893328e+000	-9.9481223585e-001
 1.4963814841e+000	 1.0934789035e+000	-1.0740674533e+000
 1.4842794153e+000	 1.1098505889e+000	-1.1518676196e+000
 1.4719884768e+000	 1.1261011144e+000	-1.2277590436e+000
 1.4595104780e+000	 1.1422272395e+000	-1.3012113413e+000
 1.4468473020e+000	 1.1582257595e+000	-1.3716172170e+000
 1.4340009045e+000	 1.1740935079e+000	-1.4382924179e+000
 1.4209733130e+000	 1.1898273579e+000	-1.5004758711e+000
 1.4077666258e+000	 1.2054242250e+000	-1.5573300129e+000
 1.3943830105e+000	 1.2208810686e+000	-1.6079413165e+000
 1.3808247033e+000	 1.2361948942e+000	-1.6513210286e+000
 1.5299960587e+000	 1.0924863347e+000	-9.8515553566e-001
 1.5179131985e+000	 1.1092131770e+000	-1.0620401002e+000
 1.5056369908e+000	 1.1258204375e+000	-1.1378466767e+000
 1.4931691956e+000	 1.1423047949e+000	-1.2120870934e+000
 1.4805116485e+000	 1.1586629619e+000	-1.2841969299e+000
 1.4676662597e+000	 1.1748916877e+000	-1.3535352463e+000
 1.4546350130e+000	 1.1909877600e+000	-1.4193844845e+000
 1.4414199651e+000	 1.2069480074e+000	-1.4809505527e+000
 1.4280232443e+000	 1.2227693007e+000	-1.5373631035e+000
 1.4144470496e+000	 1.2384485557e+000	-1.5876760135e+000
 1.4006936495e+000	 1.2539827349e+000	-1.6308680752e+000
 1.5516991694e+000	 1.1079833366e+000	-9.7575729884e-001
 1.5394449129e+000	 1.1249474504e+000	-1.0502055069e+000
 1.5269945662e+000	 1.1417902862e+000	-1.1239463042e+000
 1.5143499144e+000	 1.1585084755e+000	-1.1964164181e+000
 1.5015128191e+000	 1.1750986843e+000	-1.2669771397e+000
 1.4884852174e+000	 1.1915576158e+000	-1.3349140652e+000
 1.4752691215e+000	 1.2078820122e+000	-1.3994370075e+000
 1.4618666171e+000	 1.2240686568e+000	-1.4596800919e+000
 1.4482798629e+000	 1.2401143764e+000	-1.5147020452e+000
 1.4345110888e+000	 1.2560160429e+000	-1.5634866907e+000
 1.4205625956e+000	 1.2717705755e+000	-1.6049436560e+000
 1.5734022801e+000	 1.1234803385e+000	-9.6717260827e-001
 1.5609766273e+000	 1.1406817238e+000	-1.0392611532e+000
 1.5483521417e+000	 1.1577601349e+000	-1.1110187329e+000
 1.5355306332e+000	 1.1747121560e+000	-1.1817680600e+000
 1.5225139896e+000	 1.1915344067e+000	-1.2507575837e+000
 1.5093041752e+000	 1.2082235439e+000	-1.3171613031e+000
 1.4959032300e+000	 1.2247762643e+000	-1.3800787517e+000
 1.4823132692e+000	 1.2411893063e+000	-1.4385351631e+000
 1.4685364814e+000	 1.2574594521e+000	-1.4914818335e+000
 1.4545751280e+000	 1.2735835300e+000	-1.5377966893e+000
 1.4404315418e+000	 1.2895584161e+000	-1.5762850717e+000
 1.5951053908e+000	 1.1389773404e+000	-9.6000583485e-001
 1.5825083417e+000	 1.1564159973e+000	-1.0299485992e+000
 1.5697097171e+000	 1.1737299836e+000	-1.0999544156e+000
 1.5567113521e+000	 1.1909158366e+000	-1.1691946952e+000
 1.5435151602e+000	 1.2079701291e+000	-1.2367681095e+000
 1.5301231329e+000	 1.2248894720e+000	-1.3017005358e+000
 1.5165373385e+000	 1.2416705164e+000	-1.3629451704e+000
 1.5027599212e+000	 1.2583099557e+000	-1.4193828248e+000
 1.4887930999e+000	 1.2748045278e+000	-1.4698224168e+000
 1.4746391672e+000	 1.2911510171e+000	-1.5130016692e+000
 1.4603004879e+000	 1.3073462568e+000	-1.5475880270e+000
 1.6168085014e+000	 1.1544743423e+000	-9.5490738946e-001
 1.6040400561e+000	 1.1721502707e+000	-1.0230503758e+000
 1.5910672926e+000	 1.1896998323e+000	-1.0916791051e+000
 1.5778920709e+000	 1.2071195171e+000	-1.1597779529e+000
 1.5645163307e+000	 1.2244058515e+000	-1.2262604231e+000
 1.5509420906e+000	 1.2415554001e+000	-1.2899692794e+000
 1.5371714470e+000	 1.2585647686e+000	-1.3496768456e+000
 1.5232065733e+000	 1.2754306052e+000	-1.4040854847e+000
 1.5090497185e+000	 1.2921496035e+000	-1.4518282749e+000
 1.4947032064e+000	 1.3087185043e+000	-1.4914698930e+000
 1.4801694341e+000	 1.3251340974e+000	-1.5215077190e+000
 1.6385116121e+000	 1.1699713442e+000	-9.5257025806e-001
 1.6255717704e+000	 1.1878845441e+000	-1.0193866353e+000
 1.6124248680e+000	 1.2056696810e+000	-1.0871506644e+000
 1.5990727897e+000	 1.2233231977e+000	-1.1546254372e+000
 1.5855175013e+000	 1.2408415739e+000	-1.2205053768e+000
 1.5717610484e+000	 1.2582213282e+000	-1.2834166103e+000
 1.5578055555e+000	 1.2754590207e+000	-1.3419175065e+000
 1.5436532253e+000	 1.2925512546e+000	-1.3944993924e+000
 1.5293063370e+000	 1.3094946792e+000	-1.4395874653e+000
 1.5147672456e+000	 1.3262859914e+000	-1.4755419126e+000
 1.5000383802e+000	 1.3429219381e+000	-1.5015756908e+000
 1.6602147228e+000	 1.1854683461e+000	-9.5372633959e-001
 1.6471034848e+000	 1.2036188176e+000	-1.0198115823e+000
 1.6337824434e+000	 1.2216395297e+000	-1.0873556335e+000
 1.6202535085e+000	 1.2395268783e+000	-1.1548674758e+000
 1.6065186718e+000	 1.2572772963e+000	-1.2207899549e+000
 1.5925800061e+000	 1.2748872564e+000	-1.2835004431e+000
 1.5784396640e+000	 1.2923532728e+000	-1.3413116652e+000
 1.5640998774e+000	 1.3096719041e+000	-1.3924727018e+000
 1.5495629556e+000	 1.3268397549e+000	-1.4351701868e+000
 1.5348312848e+000	 1.3438534785e+000	-1.4685642027e+000
 1.5199073264e+000	 1.3607097787e+000	-1.4943592312e+000
 1.6819178335e+000	 1.2009653480e+000	-9.5914260466e-001
 1.6686351992e+000	 1.2193530910e+000	-1.0252097072e+000
 1.6551400189e+000	 1.2376093784e+000	-1.0933055751e+000
 1.6414342274e+000	 1.2557305588e+000	-1.1616536229e+000
 1.6275198424e+000	 1.2737130187e+000	-1.2284139812e+000
 1.6133989638e+000	 1.2915531845e+000	-1.2916844988e+000
 1.5990737725e+000	 1.3092475249e+000	-1.3495019040e+000
 1.5845465294e+000	 1.3267925536e+000	-1.3998431416e+000
 1.5698195741e+000	 1.3441848306e+000	-1.4416527795e+000
 1.5548953239e+000	 1.3614209657e+000	-1.4763038189e+000
 1.5397762725e+000	 1.3784976194e+000	-1.5012979207e+000
 1.3410868110e+000	 1.2006192129e+000	-1.6646435816e+000
 1.3277532754e+000	 1.2153483688e+000	-1.6992025247e+000
 1.3142546640e+000	 1.2299329922e+000	-1.7393335553e+000
 1.3005933408e+000	 1.2443703222e+000	-1.7834765963e+000
 1.2867717309e+000	 1.2586576498e+000	-1.8288103762e+000
 1.2727923194e+000	 1.2727923194e+000	-1.8724614144e+000
 1.2586576498e+000	 1.2867717309e+000	-1.9115115542e+000
 1.2443703222e+000	 1.3005933408e+000	-1.9430058589e+000
 1.2299329922e+000	 1.3142546640e+000	-1.9639608431e+000
 1.2153483688e+000	 1.3277532754e+000	-1.9713730115e+000
 1.2006192129e+000	 1.3410868110e+000	-1.9630270792e+000
 1.3609557572e+000	 1.2184070535e+000	-1.6635217930e+000
 1.3474246778e+000	 1.2333544301e+000	-1.7029265365e+000
 1.3337260770e+000	 1.2481551328e+000	-1.7439120818e+000
 1.3198623537e+000	 1.2628063599e+000	-1.7866353098e+000
 1.3058359689e+000	 1.2773053621e+000	-1.8318110735e+000
 1.2916494447e+000	 1.2916494447e+000	-1.8761857456e+000
 1.2773053621e+000	 1.3058359689e+000	-1.9164577916e+000
 1.2628063599e+000	 1.3198623537e+000	-1.9492901986e+000
 1.2481551328e+000	 1.3337260770e+000	-1.9713220697e+000
 1.2333544301e+000	 1.3474246778e+000	-1.9817341092e+000
 1.2184070535e+000	 1.3609557572e+000	-1.9791183707e+000
 1.3808247033e+000	 1.2361948942e+000	-1.6513210286e+000
 1.3670960803e+000	 1.2513604914e+000	-1.6936147892e+000
 1.3531974900e+000	 1.2663772734e+000	-1.7392598185e+000
 1.3391313666e+000	 1.2812423975e+000	-1.7846142677e+000
 1.3249002070e+000	 1.2959530744e+000	-1.8273766374e+000
 1.3105065700e+000	 1.3105065700e+000	-1.8697406787e+000
 1.2959530744e+000	 1.3249002070e+000	-1.9087915694e+000
 1.2812423975e+000	 1.3391313666e+000	-1.9413526292e+000
 1.2663772734e+000	 1.3531974900e+000	-1.9674353921e+000
 1.2513604914e+000	 1.3670960803e+000	-1.9838644466e+000
 1.2361948942e+000	 1.3808247033e+000	-1.9865850444e+000
 1.4006936495e+000	 1.2539827349e+000	-1.6308680752e+000
 1.3867674827e+000	 1.2693665527e+000	-1.6738226594e+000
 1.3726689030e+000	 1.2845994140e+000	-1.7216418092e+000
 1.3584003795e+000	 1.2996784352e+000	-1.7705415375e+000
 1.3439644451e+000	 1.3146007868e+000	-1.8167201060e+000
 1.3293636953e+000	 1.3293636953e+000	-1.8566550642e+000
 1.3146007868e+000	 1.3439644451e+000	-1.8935495797e+000
 1.2996784352e+000	 1.3584003795e+000	-1.9291756401e+000
 1.2845994140e+000	 1.3726689030e+000	-1.9594725063e+000
 1.2693665527e+000	 1.3867674827e+000	-1.9802127068e+000
 1.2539827349e+000	 1.4006936495e+000	-1.9872056253e+000
 1.4205625956e+000	 1.2717705755e+000	-1.6049436560e+000
 1.4064388851e+000	 1.2873726140e+000	-1.6466544381e+000
 1.3921403160e+000	 1.3028215546e+000	-1.6944442938e+000
 1.3776693924e+000	 1.3181144728e+000	-1.7444976877e+000
 1.3630286831e+000	 1.3332484991e+000	-1.7929793479e+000
 1.3482208207e+000	 1.3482208207e+000	-1.8386735045e+000
 1.3332484991e+000	 1.3630286831e+000	-1.8800619600e+000
 1.3181144728e+000	 1.3776693924e+000	-1.9169504106e+000
 1.3028215546e+000	 1.3921403160e+000	-1.9491169729e+000
 1.2873726140e+000	 1.4064388851e+000	-1.9722963720e+000
 1.2717705755e+000	 1.4205625956e+000	-1.9822581716e+000
 1.4404315418e+000	 1.2895584161e+000	-1.5762850717e+000
 1.4261102875e+000	 1.3053786752e+000	-1.6151565901e+000
 1.4116117290e+000	 1.3210436951e+000	-1.6609836945e+000
 1.3969384052e+000	 1.3365505104e+000	-1.7101477187e+000
 1.3820929212e+000	 1.3518962114e+000	-1.7624295103e+000
 1.3670779460e+000	 1.3670779460e+000	-1.8152955879e+000
 1.3518962114e+000	 1.3820929212e+000	-1.8644770046e+000
 1.3365505104e+000	 1.3969384052e+000	-1.9057590057e+000
 1.3210436951e+000	 1.4116117290e+000	-1.9375443295e+000
 1.3053786752e+000	 1.4261102875e+000	-1.9611372079e+000
 1.2895584161e+000	 1.4404315418e+000	-1.9725417089e+000
 1.4603004879e+000	 1.3073462568e+000	-1.5475880270e+000
 1.4457816899e+000	 1.3233847365e+000	-1.5823204515e+000
 1.4310831420e+000	 1.3392658357e+000	-1.6249033009e+000
 1.4162074181e+000	 1.3549865481e+000	-1.6756568204e+000
 1.4011571593e+000	 1.3705439238e+000	-1.7315439201e+000
 1.3859350713e+000	 1.3859350713e+000	-1.7884506100e+000
 1.3705439238e+000	 1.4011571593e+000	-1.8423079457e+000
 1.3549865481e+000	 1.4162074181e+000	-1.8890985583e+000
 1.3392658357e+000	 1.4310831420e+000	-1.9248630813e+000
 1.3233847365e+000	 1.4457816899e+000	-1.9472829393e+000
 1.3073462568e+000	 1.4603004879e+000	-1.9583968038e+000
 1.4801694341e+000	 1.3251340974e+000	-1.5215077190e+000
 1.4654530924e+000	 1.3413907978e+000	-1.5517705909e+000
 1.4505545550e+000	 1.3574879763e+000	-1.5941745901e+000
 1.4354764310e+000	 1.3734225857e+000	-1.6455623614e+000
 1.4202213973e+000	 1.3891916361e+000	-1.7020855982e+000
 1.4047921966e+000	 1.4047921966e+000	-1.7599309303e+000
 1.3891916361e+000	 1.4202213973e+000	-1.8153260498e+000
 1.3734225857e+000	 1.4354764310e+000	-1.8645457513e+000
 1.3574879763e+000	 1.4505545550e+000	-1.9039178741e+000
 1.3413907978e+000	 1.4654530924e+000	-1.9298291335e+000
 1.3251340974e+000	 1.4801694341e+000	-1.9397253574e+000
 1.5000383802e+000	 1.3429219381e+000	-1.5015756908e+000
 1.4851244948e+000	 1.3593968591e+000	-1.5308688846e+000
 1.4700259680e+000	 1.3757101169e+000	-1.5719488242e+000
 1.4547454439e+000	 1.3918586234e+000	-1.6213428568e+000
 1.4392856354e+000	 1.4078393485e+000	-1.6756028129e+000
 1.4236493219e+000	 1.4236493219e+000	-1.7313105233e+000
 1.4078393485e+000	 1.4392856354e+000	-1.7850832701e+000
 1.3918586234e+000	 1.4547454439e+000	-1.8335791595e+000
 1.3757101169e+000	 1.4700259680e+000	-1.8735024037e+000
 1.3593968591e+000	 1.4851244948e+000	-1.9016085019e+000
 1.3429219381e+000	 1.5000383802e+000	-1.9147093085e+000
 1.5199073264e+000	 1.3607097787e+000	-1.4943592312e+000
 1.5047958972e+000	 1.3774029203e+000	-1.5217745017e+000
 1.4894973809e+000	 1.3939322574e+000	-1.5594066722e+000
 1.4740144568e+000	 1.4102946610e+000	-1.6042811672e+000
 1.4583498735e+000	 1.4264870608e+000	-1.6534424115e+000
 1.4425064473e+000	 1.4425064473e+000	-1.7039584874e+000
 1.4264870608e+000	 1.4583498735e+000	-1.7529257351e+000
 1.4102946610e+000	 1.4740144568e+000	-1.7974732824e+000
 1.3939322574e+000	 1.4894973809e+000	-1.8347674962e+000
 1.3774029203e+000	 1.5047958972e+000	-1.8620163450e+000
 1.3607097787e+000	 1.5199073264e+000	-1.8764736627e+000
 1.5397762725e+000	 1.3784976194e+000	-1.5012979207e+000
 1.5244672996e+000	 1.3954089816e+000	-1.5253644113e+000
 1.5089687939e+000	 1.4121543980e+000	-1.5575527565e+000
 1.4932834697e+000	 1.4287306986e+000	-1.5954767207e+000
 1.4774141115e+000	 1.4451347731e+000	-1.6367623936e+000
 1.4613635726e+000	 1.4613635726e+000	-1.6790518135e+000
 1.4451347731e+000	 1.4774141115e+000	-1.7200065421e+000
 1.4287306986e+000	 1.4932834697e+000	-1.7573111824e+000
 1.4121543980e+000	 1.5089687939e+000	-1.7886768307e+000
 1.3954089816e+000	 1.5244672996e+000	-1.8118444556e+000
 1.3784976194e+000	 1.5397762725e+000	-1.8245881972e+000
 1.2006192129e+000	 1.3410868110e+000	-1.9630270792e+000
 1.1857460943e+000	 1.3542549321e+000	-1.9516892473e+000
 1.1707340736e+000	 1.3672533887e+000	-1.9477267835e+000
 1.1555860590e+000	 1.3800800090e+000	-1.9490647465e+000
 1.1403050036e+000	 1.3927326875e+000	-1.9536667512e+000
 1.1248939033e+000	 1.4052093865e+000	-1.9595404890e+000
 1.1093557947e+000	 1.4175081369e+000	-1.9647432099e+000
 1.0936937532e+000	 1.4296270391e+000	-1.9673871501e+000
 1.0779108915e+000	 1.4415642644e+000	-1.9656448849e+000
 1.0620103567e+000	 1.4533180553e+000	-1.9577545899e+000
 1.0459953290e+000	 1.4648867267e+000	-1.9420251936e+000
 1.2184070535e+000	 1.3609557572e+000	-1.9791183707e+000
 1.2033135815e+000	 1.3743189713e+000	-1.9721639133e+000
 1.1880791493e+000	 1.3875100072e+000	-1.9708464330e+000
 1.1727067085e+000	 1.4005266610e+000	-1.9733207790e+000
 1.1571992558e+000	 1.4133667960e+000	-1.9777710465e+000
 1.1415598314e+000	 1.4260283442e+000	-1.9824158895e+000
 1.1257915171e+000	 1.4385093074e+000	-1.9855138166e+000
 1.1098974338e+000	 1.4508077579e+000	-1.9853684530e+000
 1.0938807402e+000	 1.4629218399e+000	-1.9803337499e+000
 1.0777446301e+000	 1.4748497697e+000	-1.9688191225e+000
 1.0614923309e+000	 1.4865898373e+000	-1.9492945004e+000
 1.2361948942e+000	 1.3808247033e+000	-1.9865850444e+000
 1.2208810686e+000	 1.3943830105e+000	-1.9837827147e+000
 1.2054242250e+000	 1.4077666258e+000	-1.9852041701e+000
 1.1898273579e+000	 1.4209733130e+000	-1.9891783117e+000
 1.1740935079e+000	 1.4340009045e+000	-1.9940542699e+000
 1.1582257595e+000	 1.4468473020e+000	-1.9982066005e+000
 1.1422272395e+000	 1.4595104780e+000	-2.0000404855e+000
 1.1261011144e+000	 1.4719884768e+000	-1.9979969178e+000
 1.1098505889e+000	 1.4842794153e+000	-1.9905578541e+000
 1.0934789035e+000	 1.4963814841e+000	-1.9762513155e+000
 1.0769893328e+000	 1.5082929480e+000	-1.9536564182e+000
 1.2539827349e+000	 1.4006936495e+000	-1.9872056253e+000
 1.2384485557e+000	 1.4144470496e+000	-1.9880350914e+000
 1.2227693007e+000	 1.4280232443e+000	-1.9920193918e+000
 1.2069480074e+000	 1.4414199651e+000	-1.9976076964e+000
 1.1909877600e+000	 1.4546350130e+000	-2.0032606562e+000
 1.1748916877e+000	 1.4676662597e+000	-2.0074555734e+000
 1.1586629619e+000	 1.4805116485e+000	-2.0086915938e+000
 1.1423047949e+000	 1.4931691956e+000	-2.0054949033e+000
 1.1258204375e+000	 1.5056369908e+000	-1.9964239087e+000
 1.1092131770e+000	 1.5179131985e+000	-1.9800743835e+000
 1.0924863347e+000	 1.5299960587e+000	-1.9550845620e+000
 1.2717705755e+000	 1.4205625956e+000	-1.9822581716e+000
 1.2560160429e+000	 1.4345110888e+000	-1.9859300132e+000
 1.2401143764e+000	 1.4482798629e+000	-1.9920502863e+000
 1.2240686568e+000	 1.4618666171e+000	-1.9991364868e+000
 1.2078820122e+000	 1.4752691215e+000	-2.0057090886e+000
 1.1915576158e+000	 1.4884852174e+000	-2.0102967761e+000
 1.1750986843e+000	 1.5015128191e+000	-2.0114417167e+000
 1.1585084755e+000	 1.5143499144e+000	-2.0077048523e+000
 1.1417902862e+000	 1.5269945662e+000	-1.9976711928e+000
 1.1249474504e+000	 1.5394449129e+000	-1.9799550892e+000
 1.1079833366e+000	 1.5516991694e+000	-1.9532054697e+000
 1.2895584161e+000	 1.4404315418e+000	-1.9725417089e+000
 1.2735835300e+000	 1.4545751280e+000	-1.9780160612e+000
 1.2574594521e+000	 1.4685364814e+000	-1.9856126041e+000
 1.2411893063e+000	 1.4823132692e+000	-1.9938669476e+000
 1.2247762643e+000	 1.4959032300e+000	-2.0013094017e+000
 1.2082235439e+000	 1.5093041752e+000	-2.0064703577e+000
 1.1915344067e+000	 1.5225139896e+000	-2.0078857253e+000
 1.1747121560e+000	 1.5355306332e+000	-2.0041024045e+000
 1.1577601349e+000	 1.5483521417e+000	-1.9936837720e+000
 1.1406817238e+000	 1.5609766273e+000	-1.9752151628e+000
 1.1234803385e+000	 1.5734022801e+000	-1.9473093258e+000
 1.3073462568e+000	 1.4603004879e+000	-1.9583968038e+000
 1.2911510171e+000	 1.4746391672e+000	-1.9644007567e+000
 1.2748045278e+000	 1.4887930999e+000	-1.9725977777e+000
 1.2583099557e+000	 1.5027599212e+000	-1.9814930104e+000
 1.2416705164e+000	 1.5165373385e+000	-1.9895782260e+000
 1.2248894720e+000	 1.5301231329e+000	-1.9953374388e+000
 1.2079701291e+000	 1.5435151602e+000	-1.9972525915e+000
 1.1909158366e+000	 1.5567113521e+000	-1.9938092885e+000
 1.1737299836e+000	 1.5697097171e+000	-1.9835025577e+000
 1.1564159973e+000	 1.5825083417e+000	-1.9648426169e+000
 1.1389773404e+000	 1.5951053908e+000	-1.9363606274e+000
 1.3251340974e+000	 1.4801694341e+000	-1.9397253574e+000
 1.3087185043e+000	 1.4947032064e+000	-1.9447692068e+000
 1.2921496035e+000	 1.5090497185e+000	-1.9524904523e+000
 1.2754306052e+000	 1.5232065733e+000	-1.9613167288e+000
 1.2585647686e+000	 1.5371714470e+000	-1.9696544147e+000
 1.2415554001e+000	 1.5509420906e+000	-1.9758945644e+000
 1.2244058515e+000	 1.5645163307e+000	-1.9784189247e+000
 1.2071195171e+000	 1.5778920709e+000	-1.9756060110e+000
 1.1896998323e+000	 1.5910672926e+000	-1.9658372213e+000
 1.1721502707e+000	 1.6040400561e+000	-1.9475029670e+000
 1.1544743423e+000	 1.6168085014e+000	-1.9190087969e+000
 1.3429219381e+000	 1.5000383802e+000	-1.9147093085e+000
 1.3262859914e+000	 1.5147672456e+000	-1.9184021299e+000
 1.3094946792e+000	 1.5293063370e+000	-1.9243854817e+000
 1.2925512546e+000	 1.5436532253e+000	-1.9322642809e+000
 1.2754590207e+000	 1.5578055555e+000	-1.9403140932e+000
 1.2582213282e+000	 1.5717610484e+000	-1.9467878485e+000
 1.2408415739e+000	 1.5855175013e+000	-1.9499222680e+000
 1.2233231977e+000	 1.5990727897e+000	-1.9479443631e+000
 1.2056696810e+000	 1.6124248680e+000	-1.9390779793e+000
 1.1878845441e+000	 1.6255717704e+000	-1.9215503660e+000
 1.1699713442e+000	 1.6385116121e+000	-1.8935987457e+000
 1.3607097787e+000	 1.5199073264e+000	-1.8764736627e+000
 1.3438534785e+000	 1.5348312848e+000	-1.8827790577e+000
 1.3268397549e+000	 1.5495629556e+000	-1.8870044392e+000
 1.3096719041e+000	 1.5640998774e+000	-1.8929015577e+000
 1.2923532728e+000	 1.5784396640e+000	-1.8999853647e+000
 1.2748872564e+000	 1.5925800061e+000	-1.9063268401e+000
 1.2572772963e+000	 1.6065186718e+000	-1.9099741733e+000
 1.2395268783e+000	 1.6202535085e+000	-1.9089597609e+000
 1.2216395297e+000	 1.6337824434e+000	-1.9013072586e+000
 1.2036188176e+000	 1.6471034848e+000	-1.8850386623e+000
 1.1854683461e+000	 1.6602147228e+000	-1.8581813954e+000
 1.3784976194e+000	 1.5397762725e+000	-1.8245881972e+000
 1.3614209657e+000	 1.5548953239e+000	-1.8314290293e+000
 1.3441848306e+000	 1.5698195741e+000	-1.8373823897e+000
 1.3267925536e+000	 1.5845465294e+000	-1.8414493774e+000
 1.3092475249e+000	 1.5990737725e+000	-1.8467627036e+000
 1.2915531845e+000	 1.6133989638e+000	-1.8524981358e+000
 1.2737130187e+000	 1.6275198424e+000	-1.8564730769e+000
 1.2557305588e+000	 1.6414342274e+000	-1.8564834345e+000
 1.2376093784e+000	 1.6551400189e+000	-1.8503112538e+000
 1.2193530910e+000	 1.6686351992e+000	-1.8357323853e+000
 1.2009653480e+000	 1.6819178335e+000	-1.8105241584e+000
 1.0459953290e+000	 1.4648867267e+000	-1.9420251936e+000
 1.0298690189e+000	 1.4762686658e+000	-1.9235808671e+000
 1.0136346645e+000	 1.4874623321e+000	-1.9077572940e+000
 9.9729552980e-001	 1.4984662587e+000	-1.8933007634e+000
 9.8085490370e-001	 1.5092790533e+000	-1.8790224906e+000
 9.6431609743e-001	 1.5198993990e+000	-1.8638346549e+000
 9.4768244256e-001	 1.5303260540e+000	-1.8467343627e+000
 9.3095728892e-001	 1.5405578528e+000	-1.8268124715e+000
 9.1414400241e-001	 1.5505937056e+000	-1.8032573437e+000
 8.9724596293e-001	 1.5604325990e+000	-1.7753583704e+000
 8.8026656221e-001	 1.5700735960e+000	-1.7425092526e+000
 1.0614923309e+000	 1.4865898373e+000	-1.9492945004e+000
 1.0451271006e+000	 1.4981404063e+000	-1.9270375286e+000
 1.0286522252e+000	 1.5094999130e+000	-1.9074599221e+000
 1.0120710171e+000	 1.5206668688e+000	-1.8893363815e+000
 9.9538681402e-001	 1.5316398610e+000	-1.8715255661e+000
 9.7860297614e-001	 1.5424175529e+000	-1.8529497930e+000
 9.6172288443e-001	 1.5529986847e+000	-1.8326348354e+000
 9.4474993835e-001	 1.5633820732e+000	-1.8096913891e+000
 9.2768755366e-001	 1.5735666128e+000	-1.7833243877e+000
 9.1053916034e-001	 1.5835512749e+000	-1.7528366669e+000
 8.9330820037e-001	 1.5933351085e+000	-1.7176323909e+000
 1.0769893328e+000	 1.5082929480e+000	-1.9536564182e+000
 1.0603851823e+000	 1.5200121467e+000	-1.9282446307e+000
 1.0436697858e+000	 1.5315374938e+000	-1.9055630633e+000
 1.0268465044e+000	 1.5428674789e+000	-1.8843982554e+000
 1.0099187243e+000	 1.5540006687e+000	-1.8636168779e+000
 9.9288985485e-001	 1.5649357069e+000	-1.8421472748e+000
 9.7576332631e-001	 1.5756713154e+000	-1.8190169020e+000
 9.5854258778e-001	 1.5862062937e+000	-1.7933356121e+000
 9.4123110491e-001	 1.5965395200e+000	-1.7643047252e+000
 9.2383235774e-001	 1.6066699508e+000	-1.7312208607e+000
 9.0634983852e-001	 1.6165966211e+000	-1.6934795363e+000
 1.0924863347e+000	 1.5299960587e+000	-1.9550845620e+000
 1.0756432639e+000	 1.5418838871e+000	-1.9271519098e+000
 1.0586873465e+000	 1.5535750746e+000	-1.9020093172e+000
 1.0416219918e+000	 1.5650680890e+000	-1.8784332953e+000
 1.0244506346e+000	 1.5763614763e+000	-1.8552713543e+000
 1.0071767336e+000	 1.5874538609e+000	-1.8314536774e+000
 9.8980376818e-001	 1.5983439460e+000	-1.8059718024e+000
 9.7233523721e-001	 1.6090305142e+000	-1.7779201058e+000
 9.5477465616e-001	 1.6195124272e+000	-1.7464765140e+000
 9.3712555515e-001	 1.6297886266e+000	-1.7109121537e+000
 9.1939147667e-001	 1.6398581337e+000	-1.6705951470e+000
 1.1079833366e+000	 1.5516991694e+000	-1.9532054697e+000
 1.0909013456e+000	 1.5637556276e+000	-1.9233702477e+000
 1.0737049072e+000	 1.5756126554e+000	-1.8964099996e+000
 1.0563974791e+000	 1.5872686991e+000	-1.8710698122e+000
 1.0389825450e+000	 1.5987222840e+000	-1.8461630658e+000
 1.0214636123e+000	 1.6099720149e+000	-1.8205764722e+000
 1.0038442101e+000	 1.6210165767e+000	-1.7932826645e+000
 9.8612788664e-001	 1.6318547346e+000	-1.7633156009e+000
 9.6831820741e-001	 1.6424853344e+000	-1.7298167385e+000
 9.5041875256e-001	 1.6529073025e+000	-1.6920127941e+000
 9.3243311482e-001	 1.6631196463e+000	-1.6492260857e+000
 1.1234803385e+000	 1.5734022801e+000	-1.9473093258e+000
 1.1061594272e+000	 1.5856273680e+000	-1.9161817748e+000
 1.0887224679e+000	 1.5976502362e+000	-1.8880546645e+000
 1.0711729664e+000	 1.6094693093e+000	-1.8616207046e+000
 1.0535144553e+000	 1.6210830917e+000	-1.8356385171e+000
 1.0357504910e+000	 1.6324901689e+000	-1.8089379175e+000
 1.0178846519e+000	 1.6436892074e+000	-1.7804250218e+000
 9.9992053607e-001	 1.6546789551e+000	-1.7490959061e+000
 9.8186175866e-001	 1.6654582416e+000	-1.7140082380e+000
 9.6371194997e-001	 1.6760259784e+000	-1.6743328814e+000
 9.4547475298e-001	 1.6863811589e+000	-1.6293282614e+000
 1.1389773404e+000	 1.5951053908e+000	-1.9363606274e+000
 1.1214175089e+000	 1.6074991084e+000	-1.9045499530e+000
 1.1037400286e+000	 1.6196878171e+000	-1.8759206404e+000
 1.0859484537e+000	 1.6316699194e+000	-1.8490924875e+000
 1.0680463656e+000	 1.6434438993e+000	-1.8227491331e+000
 1.0500373697e+000	 1.6550083229e+000	-1.7956436111e+000
 1.0319250938e+000	 1.6663618381e+000	-1.7666037305e+000
 1.0137131855e+000	 1.6775031755e+000	-1.7345372668e+000
 9.9540530991e-001	 1.6884311488e+000	-1.6984468626e+000
 9.7700514737e-001	 1.6991446542e+000	-1.6573972990e+000
 9.5851639113e-001	 1.7096426715e+000	-1.6105733950e+000
 1.1544743423e+000	 1.6168085014e+000	-1.9190087969e+000
 1.1366755906e+000	 1.6293708489e+000	-1.8871296414e+000
 1.1187575892e+000	 1.6417253979e+000	-1.8586825805e+000
 1.1007239411e+000	 1.6538705295e+000	-1.8321943613e+000
 1.0825782759e+000	 1.6658047070e+000	-1.8062537975e+000
 1.0643242484e+000	 1.6775264769e+000	-1.7795176241e+000
 1.0459655357e+000	 1.6890344687e+000	-1.7507161792e+000
 1.0275058349e+000	 1.7003273960e+000	-1.7186588947e+000
 1.0089488612e+000	 1.7114040560e+000	-1.6822487449e+000
 9.9029834478e-001	 1.7222633301e+000	-1.6404527632e+000
 9.7155802928e-001	 1.7329041841e+000	-1.5923558975e+000
 1.1699713442e+000	 1.6385116121e+000	-1.8935987457e+000
 1.1519336722e+000	 1.6512425893e+000	-1.8622771441e+000
 1.1337751499e+000	 1.6637629787e+000	-1.8347220241e+000
 1.1154994284e+000	 1.6760711396e+000	-1.8093473187e+000
 1.0971101862e+000	 1.6881655147e+000	-1.7846275370e+000
 1.0786111271e+000	 1.7000446309e+000	-1.7591039492e+000
 1.0600059775e+000	 1.7117070994e+000	-1.7313905952e+000
 1.0412984844e+000	 1.7231516164e+000	-1.7001801009e+000
 1.0224924124e+000	 1.7343769632e+000	-1.6642492862e+000
 1.0035915422e+000	 1.7453820060e+000	-1.6224749786e+000
 9.8459966744e-001	 1.7561656967e+000	-1.5737998505e+000
 1.1854683461e+000	 1.6602147228e+000	-1.8581813954e+000
 1.1671917539e+000	 1.6731143297e+000	-1.8280602449e+000
 1.1487927106e+000	 1.6858005595e+000	-1.8021369705e+000
 1.1302749157e+000	 1.6982717497e+000	-1.7786932846e+000
 1.1116420965e+000	 1.7105263223e+000	-1.7560702596e+000
 1.0928980058e+000	 1.7225627848e+000	-1.7326748687e+000
 1.0740464194e+000	 1.7343797301e+000	-1.7069863484e+000
 1.0550911338e+000	 1.7459758369e+000	-1.6775623654e+000
 1.0360359637e+000	 1.7573498703e+000	-1.6430449700e+000
 1.0168847396e+000	 1.7685006818e+000	-1.6021663224e+000
 9.9764130559e-001	 1.7794272093e+000	-1.5537660790e+000
 1.2009653480e+000	 1.6819178335e+000	-1.8105241584e+000
 1.1824498355e+000	 1.6949860702e+000	-1.7822682276e+000
 1.1638102713e+000	 1.7078381404e+000	-1.7587514616e+000
 1.1450504030e+000	 1.7204723598e+000	-1.7381042876e+000
 1.1261740068e+000	 1.7328871300e+000	-1.7185155403e+000
 1.1071848845e+000	 1.7450809388e+000	-1.6982393846e+000
 1.0880868613e+000	 1.7570523608e+000	-1.6756020577e+000
 1.0688837832e+000	 1.7688000574e+000	-1.6490084098e+000
 1.0495795149e+000	 1.7803227775e+000	-1.6169482269e+000
 1.0301779370e+000	 1.7916193577e+000	-1.5780023208e+000
 1.0106829438e+000	 1.8026887218e+000	-1.5308483684e+000
 8.8026656221e-001	 1.5700735960e+000	-1.7425092526e+000
 8.6321176607e-001	 1.5795144344e+000	-1.7074376763e+000
 8.4608244213e-001	 1.5887557923e+000	-1.6726098863e+000
 8.2888200447e-001	 1.5977969630e+000	-1.6372173147e+000
 8.1161387061e-001	 1.6066373155e+000	-1.6005790399e+000
 7.9428145945e-001	 1.6152762950e+000	-1.5621446715e+000
 7.7688818926e-001	 1.6237134218e+000	-1.5214969085e+000
 7.5943747564e-001	 1.6319482913e+000	-1.4783537621e+000
 7.4193272950e-001	 1.6399805736e+000	-1.4325704400e+000
 7.2437735518e-001	 1.6478100126e+000	-1.3841408873e+000
 7.0677474842e-001	 1.6554364262e+000	-1.3331989829e+000
 8.9330820037e-001	 1.5933351085e+000	-1.7176323909e+000
 8.7600072794e-001	 1.6029158183e+000	-1.6806337486e+000
 8.5861762355e-001	 1.6122940921e+000	-1.6444238689e+000
 8.4116235185e-001	 1.6214692126e+000	-1.6080896972e+000
 8.2363838099e-001	 1.6304405399e+000	-1.5708495622e+000
 8.0604918054e-001	 1.6392075107e+000	-1.5320563589e+000
 7.8839821939e-001	 1.6477696382e+000	-1.4912003913e+000
 7.7068896374e-001	 1.6561265119e+000	-1.4479118705e+000
 7.5292487508e-001	 1.6642777969e+000	-1.4019630602e+000
 7.3510940813e-001	 1.6722232334e+000	-1.3532700675e+000
 7.1724600897e-001	 1.6799626365e+000	-1.3018942747e+000
 9.0634983852e-001	 1.6165966211e+000	-1.6934795363e+000
 8.8878968982e-001	 1.6263172021e+000	-1.6542573213e+000
 8.7115280498e-001	 1.6358323918e+000	-1.6163284063e+000
 8.5344269924e-001	 1.6451414623e+000	-1.5786781244e+000
 8.3566289138e-001	 1.6542437644e+000	-1.5404269035e+000
 8.1781690162e-001	 1.6631387264e+000	-1.5008337429e+000
 7.9990824952e-001	 1.6718258546e+000	-1.4592993388e+000
 7.8194045185e-001	 1.6803047325e+000	-1.4153688521e+000
 7.6391702065e-001	 1.6885750202e+000	-1.3687343143e+000
 7.4584146108e-001	 1.6966364542e+000	-1.3192366636e+000
 7.2771726952e-001	 1.7044888469e+000	-1.2668674114e+000
 9.1939147667e-001	 1.6398581337e+000	-1.6705951470e+000
 9.0157865169e-001	 1.6497185860e+000	-1.6290079553e+000
 8.8368798640e-001	 1.6593706915e+000	-1.5891810857e+000
 8.6572304662e-001	 1.6688137120e+000	-1.5500005736e+000
 8.4768740177e-001	 1.6780469888e+000	-1.5104912335e+000
 8.2958462271e-001	 1.6870699421e+000	-1.4698204250e+000
 8.1141827964e-001	 1.6958820710e+000	-1.4273014570e+000
 7.9319193996e-001	 1.7044829530e+000	-1.3823966241e+000
 7.7490916622e-001	 1.7128722434e+000	-1.3347198674e+000
 7.5657351403e-001	 1.7210496750e+000	-1.2840390564e+000
 7.3818853007e-001	 1.7290150572e+000	-1.2302778858e+000
 9.3243311482e-001	 1.6631196463e+000	-1.6492260857e+000
 9.1436761356e-001	 1.6731199699e+000	-1.6052885757e+000
 8.9622316782e-001	 1.6829089912e+000	-1.5635439179e+000
 8.7800339400e-001	 1.6924859617e+000	-1.5227806346e+000
 8.5971191215e-001	 1.7018502132e+000	-1.4819296810e+000
 8.4135234380e-001	 1.7110011578e+000	-1.4400684970e+000
 8.2292830977e-001	 1.7199382875e+000	-1.3964246877e+000
 8.0444342807e-001	 1.7286611736e+000	-1.3503793247e+000
 7.8590131179e-001	 1.7371694667e+000	-1.3014698602e+000
 7.6730556697e-001	 1.7454628958e+000	-1.2493926506e+000
 7.4865979062e-001	 1.7535412676e+000	-1.1940050835e+000
 9.4547475298e-001	 1.6863811589e+000	-1.6293282614e+000
 9.2715657544e-001	 1.6965213537e+000	-1.5832119812e+000
 9.0875834925e-001	 1.7064472909e+000	-1.5396897128e+000
 8.9028374139e-001	 1.7161582113e+000	-1.4974537466e+000
 8.7173642254e-001	 1.7256534376e+000	-1.4553424265e+000
 8.5312006488e-001	 1.7349323735e+000	-1.4123444853e+000
 8.3443833989e-001	 1.7439945039e+000	-1.3676029971e+000
 8.1569491618e-001	 1.7528393942e+000	-1.3204189405e+000
 7.9689345736e-001	 1.7614666900e+000	-1.2702543643e+000
 7.7803761992e-001	 1.7698761166e+000	-1.2167351499e+000
 7.5913105116e-001	 1.7780674779e+000	-1.1596533674e+000
 9.5851639113e-001	 1.7096426715e+000	-1.6105733950e+000
 9.3994553731e-001	 1.7199227376e+000	-1.5626074710e+000
 9.2129353067e-001	 1.7299855906e+000	-1.5176085633e+000
 9.0256408877e-001	 1.7398304610e+000	-1.4741735356e+000
 8.8376093293e-001	 1.7494566620e+000	-1.4310488902e+000
 8.6488778597e-001	 1.7588635892e+000	-1.3871353830e+000
 8.4594837002e-001	 1.7680507203e+000	-1.3414922454e+000
 8.2694640429e-001	 1.7770176148e+000	-1.2933410061e+000
 8.0788560293e-001	 1.7857639133e+000	-1.2420689052e+000
 7.8876967287e-001	 1.7942893373e+000	-1.1872318950e+000
 7.6960231171e-001	 1.8025936882e+000	-1.1285572211e+000
 9.7155802928e-001	 1.7329041841e+000	-1.5923558975e+000
 9.5273449919e-001	 1.7433241214e+000	-1.5430275765e+000
 9.3382871209e-001	 1.7535238903e+000	-1.4970144285e+000
 9.1484443615e-001	 1.7635027107e+000	-1.4528182453e+000
 8.9578544332e-001	 1.7732598864e+000	-1.4090940046e+000
 8.7665550706e-001	 1.7827948048e+000	-1.3646547599e+000
 8.5745840015e-001	 1.7921069367e+000	-1.3184761289e+000
 8.3819789240e-001	 1.8011958353e+000	-1.2697003710e+000
 8.1887774850e-001	 1.8100611366e+000	-1.2176400477e+000
 7.9950172581e-001	 1.8187025581e+000	-1.1617812580e+000
 7.8007357226e-001	 1.8271198986e+000	-1.1017864447e+000
 9.8459966744e-001	 1.7561656967e+000	-1.5737998505e+000
 9.6552346106e-001	 1.7667255053e+000	-1.5237548904e+000
 9.4636389352e-001	 1.7770621900e+000	-1.4773518069e+000
 9.2712478354e-001	 1.7871749603e+000	-1.4329972512e+000
 9.0780995370e-001	 1.7970631108e+000	-1.3892545653e+000
 8.8842322815e-001	 1.8067260205e+000	-1.3448489445e+000
 8.6896843027e-001	 1.8161631531e+000	-1.2986721875e+000
 8.4944938051e-001	 1.8253740559e+000	-1.2497870276e+000
 8.2986989407e-001	 1.8343583599e+000	-1.1974310355e+000
 8.1023377876e-001	 1.8431157789e+000	-1.1410200882e+000
 7.9054483281e-001	 1.8516461089e+000	-1.0801513983e+000
 9.9764130559e-001	 1.7794272093e+000	-1.5537660790e+000
 9.7831242294e-001	 1.7901268891e+000	-1.5038089813e+000
 9.5889907494e-001	 1.8006004897e+000	-1.4578024910e+000
 9.3940513092e-001	 1.8108472100e+000	-1.4140576502e+000
 9.1983446409e-001	 1.8208663352e+000	-1.3710456522e+000
 9.0019094924e-001	 1.8306572362e+000	-1.3274032714e+000
 8.8047846040e-001	 1.8402193695e+000	-1.2819378731e+000
 8.6070086862e-001	 1.8495522765e+000	-1.2336319933e+000
 8.4086203964e-001	 1.8586555832e+000	-1.1816474826e+000
 8.2096583171e-001	 1.8675289997e+000	-1.1253292050e+000
 8.0101609336e-001	 1.8761723193e+000	-1.0642082885e+000
 1.0106829438e+000	 1.8026887218e+000	-1.5308483684e+000
 9.9110138481e-001	 1.8135282730e+000	-1.4819533891e+000
 9.7143425637e-001	 1.8241387894e+000	-1.4372923964e+000
 9.5168547831e-001	 1.8345194597e+000	-1.3950909203e+000
 9.3185897448e-001	 1.8446695596e+000	-1.3537271140e+000
 9.1195867032e-001	 1.8545884519e+000	-1.3117483872e+000
 8.9198849053e-001	 1.8642755859e+000	-1.2678766709e+000
 8.7195235673e-001	 1.8737304971e+000	-1.2210132433e+000
 8.5185418521e-001	 1.8829528065e+000	-1.1702431101e+000
 8.3169788466e-001	 1.8919422205e+000	-1.1148389323e+000
 8.1148735391e-001	 1.9006985296e+000	-1.0542644949e+000
 7.0677474842e-001	 1.6554364262e+000	-1.3331989829e+000
 6.8912564429e-001	 1.6628608034e+000	-1.2833680548e+000
 6.7143605513e-001	 1.6700819490e+000	-1.2381191755e+000
 6.5370934202e-001	 1.6770998984e+000	-1.1962487379e+000
 6.3594884997e-001	 1.6839147584e+000	-1.1542094646e+000
 6.1815790620e-001	 1.6905267052e+000	-1.1114639036e+000
 6.0033981835e-001	 1.6969359845e+000	-1.0678358246e+000
 5.8249787284e-001	 1.7031429098e+000	-1.0233472987e+000
 5.6463533321e-001	 1.7091478619e+000	-9.7821952327e-001
 5.4675543847e-001	 1.7149512879e+000	-9.3287234286e-001
 5.2886140161e-001	 1.7205536997e+000	-8.8792251569e-001
 7.1724600897e-001	 1.6799626365e+000	-1.3018942747e+000
 6.9933542355e-001	 1.6874970101e+000	-1.2517048657e+000
 6.8138375330e-001	 1.6948251409e+000	-1.2063213797e+000
 6.6339440909e-001	 1.7019470652e+000	-1.1655631583e+000
 6.4537078549e-001	 1.7088628910e+000	-1.1261502832e+000
 6.2731625900e-001	 1.7155727975e+000	-1.0859844252e+000
 6.0923418628e-001	 1.7220770338e+000	-1.0447088743e+000
 5.9112790244e-001	 1.7283759182e+000	-1.0021852324e+000
 5.7300071935e-001	 1.7344698370e+000	-9.5849438436e-001
 5.5485592404e-001	 1.7403592440e+000	-9.1393603130e-001
 5.3669677708e-001	 1.7460446586e+000	-8.6902684186e-001
 7.2771726952e-001	 1.7044888469e+000	-1.2668674114e+000
 7.0954520282e-001	 1.7121332167e+000	-1.2157641075e+000
 6.9133145148e-001	 1.7195683327e+000	-1.1697244975e+000
 6.7307947616e-001	 1.7267942319e+000	-1.1284545138e+000
 6.5479272100e-001	 1.7338110237e+000	-1.0907551154e+000
 6.3647461180e-001	 1.7406188898e+000	-1.0526017029e+000
 6.1812855421e-001	 1.7472180832e+000	-1.0131756161e+000
 5.9975793203e-001	 1.7536089266e+000	-9.7219293753e-001
 5.8136610550e-001	 1.7597918121e+000	-9.2961003588e-001
 5.6295640962e-001	 1.7657672001e+000	-8.8562307260e-001
 5.4453215256e-001	 1.7715356175e+000	-8.4066598975e-001
 7.3818853007e-001	 1.7290150572e+000	-1.2302778858e+000
 7.1975498208e-001	 1.7367694233e+000	-1.1778581216e+000
 7.0127914966e-001	 1.7443115246e+000	-1.1307784552e+000
 6.8276454324e-001	 1.7516413986e+000	-1.0885614234e+000
 6.6421465652e-001	 1.7587591563e+000	-1.0508719050e+000
 6.4563296460e-001	 1.7656649822e+000	-1.0142790000e+000
 6.2702292214e-001	 1.7723591325e+000	-9.7628276944e-001
 6.0838796163e-001	 1.7788419349e+000	-9.3646792488e-001
 5.8973149165e-001	 1.7851137872e+000	-8.9468145188e-001
 5.7105689519e-001	 1.7911751561e+000	-8.5103204743e-001
 5.5236752804e-001	 1.7970265765e+000	-8.0588789453e-001
 7.4865979062e-001	 1.7535412676e+000	-1.1940050835e+000
 7.2996476135e-001	 1.7614056299e+000	-1.1400226984e+000
 7.1122684783e-001	 1.7690547165e+000	-1.0916612555e+000
 6.9244961031e-001	 1.7764885653e+000	-1.0482707458e+000
 6.7363659204e-001	 1.7837072890e+000	-1.0093971553e+000
 6.5479131740e-001	 1.7907110745e+000	-9.7370027057e-001
 6.3591729007e-001	 1.7975001819e+000	-9.3682132157e-001
 6.1701799122e-001	 1.8040749433e+000	-8.9787570139e-001
 5.9809687779e-001	 1.8104357623e+000	-8.5661551489e-001
 5.7915738076e-001	 1.8165831122e+000	-8.1307757914e-001
 5.6020290351e-001	 1.8225175354e+000	-7.6758093139e-001
 7.5913105116e-001	 1.7780674779e+000	-1.1596533674e+000
 7.4017454062e-001	 1.7860418365e+000	-1.1040219379e+000
 7.2117454600e-001	 1.7937979084e+000	-1.0542835527e+000
 7.0213467738e-001	 1.8013357320e+000	-1.0096256025e+000
 6.8305852755e-001	 1.8086554216e+000	-9.6943874353e-001
 6.6394967020e-001	 1.8157571668e+000	-9.3326155677e-001
 6.4481165800e-001	 1.8226412312e+000	-8.9731824310e-001
 6.2564802082e-001	 1.8293079517e+000	-8.5904169703e-001
 6.0646226394e-001	 1.8357577374e+000	-8.1810304548e-001
 5.8725786634e-001	 1.8419910683e+000	-7.7448235416e-001
 5.6803827899e-001	 1.8480084943e+000	-7.2846581305e-001
 7.6960231171e-001	 1.8025936882e+000	-1.1285572211e+000
 7.5038431988e-001	 1.8106780431e+000	-1.0713531661e+000
 7.3112224418e-001	 1.8185411003e+000	-1.0202932881e+000
 7.1181974445e-001	 1.8261828987e+000	-9.7441146082e-001
 6.9248046307e-001	 1.8336035543e+000	-9.3295162963e-001
 6.7310802300e-001	 1.8408032591e+000	-8.9536964475e-001
 6.5370602593e-001	 1.8477822806e+000	-8.6002833031e-001
 6.3427805041e-001	 1.8545409601e+000	-8.2234335044e-001
 6.1482765009e-001	 1.8610797125e+000	-7.8161102830e-001
 5.9535835191e-001	 1.8673990244e+000	-7.3776938361e-001
 5.7587365447e-001	 1.8734994532e+000	-6.9108777961e-001
 7.8007357226e-001	 1.8271198986e+000	-1.1017864447e+000
 7.6059409915e-001	 1.8353142497e+000	-1.0432519034e+000
 7.4106994236e-001	 1.8432842922e+000	-9.9108037966e-001
 7.2150481152e-001	 1.8510300654e+000	-9.4416049232e-001
 7.0190239858e-001	 1.8585516869e+000	-9.0159728282e-001
 6.8226637580e-001	 1.8658493514e+000	-8.6271440802e-001
 6.6260039386e-001	 1.8729233299e+000	-8.2692616263e-001
 6.4290808001e-001	 1.8797739685e+000	-7.8990233829e-001
 6.2319303624e-001	 1.8864016876e+000	-7.4937501641e-001
 6.0345883748e-001	 1.8928069804e+000	-7.0525448333e-001
 5.8370902994e-001	 1.8989904121e+000	-6.5780905327e-001
 7.9054483281e-001	 1.8516461089e+000	-1.0801513983e+000
 7.7080387841e-001	 1.8599504564e+000	-1.0206968784e+000
 7.5101764053e-001	 1.8680274841e+000	-9.6778146011e-001
 7.3118987860e-001	 1.8758772322e+000	-9.2015598737e-001
 7.1132433410e-001	 1.8834998196e+000	-8.7679362952e-001
 6.9142472860e-001	 1.8908954437e+000	-8.3689243079e-001
 6.7149476179e-001	 1.8980643793e+000	-7.9987731528e-001
 6.5153810961e-001	 1.9050069769e+000	-7.6357693503e-001
 6.3155842238e-001	 1.9117236627e+000	-7.2339169714e-001
 6.1155932306e-001	 1.9182149365e+000	-6.7903895211e-001
 5.9154440542e-001	 1.9244813711e+000	-6.3080153335e-001
 8.0101609336e-001	 1.8761723193e+000	-1.0642082885e+000
 7.8101365768e-001	 1.8845866630e+000	-1.0044150845e+000
 7.6096533871e-001	 1.8927706760e+000	-9.5128466015e-001
 7.4087494567e-001	 1.9007243989e+000	-9.0343682012e-001
 7.2074626962e-001	 1.9084479522e+000	-8.5971915481e-001
 7.0058308140e-001	 1.9159415361e+000	-8.1920994384e-001
 6.8038912972e-001	 1.9232054286e+000	-7.8122050073e-001
 6.6016813920e-001	 1.9302399853e+000	-7.4495449113e-001
 6.3992380853e-001	 1.9370456378e+000	-7.0541160477e-001
 6.1965980863e-001	 1.9436228926e+000	-6.6100242999e-001
 5.9937978090e-001	 1.9499723300e+000	-6.1203970968e-001
 8.1148735391e-001	 1.9006985296e+000	-1.0542644949e+000
 7.9122343695e-001	 1.9092228696e+000	-9.9488687414e-001
 7.7091303689e-001	 1.9175138679e+000	-9.4223443193e-001
 7.5056001275e-001	 1.9255715656e+000	-8.9480196023e-001
 7.3016820514e-001	 1.9333960849e+000	-8.5131705961e-001
 7.0974143420e-001	 1.9409876284e+000	-8.1074339406e-001
 6.8928349765e-001	 1.9483464780e+000	-7.7228337388e-001
 6.6879816880e-001	 1.9554729937e+000	-7.3538026643e-001
 6.4828919468e-001	 1.9623676129e+000	-6.9693196674e-001
 6.2776029421e-001	 1.9690308487e+000	-6.5279592027e-001
 6.0721515638e-001	 1.9754632889e+000	-6.0329377443e-001
 5.2886140161e-001	 1.7205536997e+000	-8.8792251569e-001
 5.1095640776e-001	 1.7259556728e+000	-8.4084518332e-001
 4.9304361203e-001	 1.7311578440e+000	-7.8941539160e-001
 4.7512613887e-001	 1.7361609110e+000	-7.3500243880e-001
 4.5720708096e-001	 1.7409656323e+000	-6.7917852083e-001
 4.3928949790e-001	 1.7455728252e+000	-6.2371052285e-001
 4.2137641493e-001	 1.7499833653e+000	-5.7055096803e-001
 4.0347082167e-001	 1.7541981846e+000	-5.2182820916e-001
 3.8557567101e-001	 1.7582182705e+000	-4.7983595011e-001
 3.6769387793e-001	 1.7620446643e+000	-4.4702218571e-001
 3.4982831845e-001	 1.7656784599e+000	-4.2597764888e-001
 5.3669677708e-001	 1.7460446586e+000	-8.6902684186e-001
 5.1852651081e-001	 1.7515266650e+000	-8.2160970228e-001
 5.0034832706e-001	 1.7568059092e+000	-7.6983946380e-001
 4.8216539658e-001	 1.7618830995e+000	-7.1503302485e-001
 4.6398085787e-001	 1.7667590053e+000	-6.5872928941e-001
 4.4579781587e-001	 1.7714344564e+000	-6.0268028370e-001
 4.2761934061e-001	 1.7759103411e+000	-5.4884134360e-001
 4.0944846605e-001	 1.7801876053e+000	-4.9936046654e-001
 3.9128818879e-001	 1.7842672510e+000	-4.5656692379e-001
 3.7314146701e-001	 1.7881503349e+000	-4.2295923011e-001
 3.5501121934e-001	 1.7918379672e+000	-4.0119256817e-001
 5.4453215256e-001	 1.7715356175e+000	-8.4066598975e-001
 5.2609661385e-001	 1.7770976571e+000	-7.9297347999e-001
 5.0765304208e-001	 1.7824539744e+000	-7.4108537627e-001
 4.8920465428e-001	 1.7876052879e+000	-6.8625645544e-001
 4.7075463478e-001	 1.7925523784e+000	-6.2998352330e-001
 4.5230613383e-001	 1.7972960876e+000	-5.7399581799e-001
 4.3386226630e-001	 1.8018373169e+000	-5.2024439133e-001
 4.1542611042e-001	 1.8061770260e+000	-4.7089057099e-001
 3.9700070657e-001	 1.8103162315e+000	-4.2829360845e-001
 3.7858905609e-001	 1.8142560056e+000	-3.9499761885e-001
 3.6019412023e-001	 1.8179974745e+000	-3.7371791962e-001
 5.5236752804e-001	 1.7970265765e+000	-8.0588789453e-001
 5.3366671690e-001	 1.8026686493e+000	-7.5789972102e-001
 5.1495775711e-001	 1.8081020396e+000	-7.0599864102e-001
 4.9624391199e-001	 1.8133274763e+000	-6.5136880583e-001
 4.7752841169e-001	 1.8183457514e+000	-5.9545743846e-001
 4.5881445179e-001	 1.8231577187e+000	-5.3996447928e-001
 4.4010519199e-001	 1.8277642926e+000	-4.8683111050e-001
 4.2140375480e-001	 1.8321664466e+000	-4.3822727174e-001
 4.0271322434e-001	 1.8363652119e+000	-3.9653828159e-001
 3.8403664517e-001	 1.8403616762e+000	-3.6435068115e-001
 3.6537702112e-001	 1.8441569818e+000	-3.4443741627e-001
 5.6020290351e-001	 1.8225175354e+000	-7.6758093139e-001
 5.4123681994e-001	 1.8282396415e+000	-7.1921675162e-001
 5.2226247213e-001	 1.8337501048e+000	-6.6731483609e-001
 5.0328316970e-001	 1.8390496648e+000	-6.1298140749e-001
 4.8430218860e-001	 1.8441391245e+000	-5.5760793029e-001
 4.6532276975e-001	 1.8490193499e+000	-5.0285994808e-001
 4.4634811767e-001	 1.8536912684e+000	-4.5066469365e-001
 4.2738139917e-001	 1.8581558673e+000	-4.0319759443e-001
 4.0842574212e-001	 1.8624141924e+000	-3.6286779848e-001
 3.8948423424e-001	 1.8664673468e+000	-3.3230284770e-001
 3.7055992201e-001	 1.8703164891e+000	-3.1433262574e-001
 5.6803827899e-001	 1.8480084943e+000	-7.2846581305e-001
 5.4880692299e-001	 1.8538106336e+000	-6.7960967996e-001
 5.2956718716e-001	 1.8593981700e+000	-6.2765091695e-001
 5.1032242740e-001	 1.8647718532e+000	-5.7361170238e-001
 4.9107596551e-001	 1.8699324975e+000	-5.1882286570e-001
 4.7183108771e-001	 1.8748809811e+000	-4.6491185961e-001
 4.5259104336e-001	 1.8796182442e+000	-4.1378939159e-001
 4.3335904355e-001	 1.8841452879e+000	-3.6763484852e-001
 4.1413825989e-001	 1.8884631729e+000	-3.2888065054e-001
 3.9493182332e-001	 1.8925730174e+000	-3.0019567258e-001
 3.7574282290e-001	 1.8964759965e+000	-2.8446787197e-001
 5.7587365447e-001	 1.8734994532e+000	-6.9108777961e-001
 5.5637702603e-001	 1.8793816258e+000	-6.4161240663e-001
 5.3687190219e-001	 1.8850462353e+000	-5.8949694292e-001
 5.1736168511e-001	 1.8904940416e+000	-5.3567458318e-001
 4.9784974242e-001	 1.8957258705e+000	-4.8141193800e-001
 4.7833940568e-001	 1.9007426122e+000	-4.2829607744e-001
 4.5883396905e-001	 1.9055452200e+000	-3.7822011299e-001
 4.3933668792e-001	 1.9101347086e+000	-3.3336746324e-001
 4.1985077767e-001	 1.9145121533e+000	-2.9619495183e-001
 4.0037941240e-001	 1.9186786880e+000	-2.6941488767e-001
 3.8092572379e-001	 1.9226355038e+000	-2.5597627868e-001
 5.8370902994e-001	 1.8989904121e+000	-6.5780905327e-001
 5.6394712908e-001	 1.9049526179e+000	-6.0759995266e-001
 5.4417661721e-001	 1.9106943005e+000	-5.5520817952e-001
 5.2440094282e-001	 1.9162162300e+000	-5.0147417365e-001
 5.0462351933e-001	 1.9215192436e+000	-4.4759803179e-001
 4.8484772364e-001	 1.9266042434e+000	-3.9512555232e-001
 4.6507689473e-001	 1.9314721957e+000	-3.4593268944e-001
 4.4531433230e-001	 1.9361241293e+000	-3.0220857459e-001
 4.2556329545e-001	 1.9405611338e+000	-2.6643726643e-001
 4.0582700148e-001	 1.9447843586e+000	-2.4137839263e-001
 3.8610862468e-001	 1.9487950111e+000	-2.3004684739e-001
 5.9154440542e-001	 1.9244813711e+000	-6.3080153335e-001
 5.7151723213e-001	 1.9305236101e+000	-5.7978107544e-001
 5.5148133224e-001	 1.9363423657e+000	-5.2699754176e-001
 5.3144020053e-001	 1.9419384185e+000	-4.7319600840e-001
 5.1139729624e-001	 1.9473126166e+000	-4.1950905064e-001
 4.9135604160e-001	 1.9524658746e+000	-3.6744171191e-001
 4.7131982042e-001	 1.9573991715e+000	-3.1885474445e-001
 4.5129197667e-001	 1.9621135499e+000	-2.7594629335e-001
 4.3127581323e-001	 1.9666101143e+000	-2.4123219879e-001
 4.1127459056e-001	 1.9708900293e+000	-2.1752509358e-001
 3.9129152557e-001	 1.9749545184e+000	-2.0791247386e-001
 5.9937978090e-001	 1.9499723300e+000	-6.1203970968e-001
 5.7908733518e-001	 1.9560946022e+000	-5.6019114635e-001
 5.5878604727e-001	 1.9619904309e+000	-5.0692834749e-001
 5.3847945824e-001	 1.9676606069e+000	-4.5289957539e-001
 5.1817107315e-001	 1.9731059897e+000	-3.9917016505e-001
 4.9786435957e-001	 1.9783275057e+000	-3.4720633288e-001
 4.7756274611e-001	 1.9833261473e+000	-2.9885711087e-001
 4.5726962105e-001	 1.9881029706e+000	-2.5633459214e-001
 4.3698833100e-001	 1.9926590947e+000	-2.2219267718e-001
 4.1672217963e-001	 1.9969956999e+000	-1.9930451293e-001
 3.9647442646e-001	 2.0011140257e+000	-1.9085705747e-001
 6.0721515638e-001	 1.9754632889e+000	-6.0329377443e-001
 5.8665743822e-001	 1.9816655944e+000	-5.5068526628e-001
 5.6609076229e-001	 1.9876384961e+000	-4.9690735235e-001
 5.4551871594e-001	 1.9933827953e+000	-4.4251118860e-001
 5.2494485006e-001	 1.9988993627e+000	-3.8849644286e-001
 5.0437267753e-001	 2.0041891369e+000	-3.3662749755e-001
 4.8380567180e-001	 2.0092531230e+000	-2.8934551423e-001
 4.6324726543e-001	 2.0140923913e+000	-2.4868938913e-001
 4.4270084878e-001	 2.0187080752e+000	-2.1699654484e-001
 4.2216976871e-001	 2.0231013705e+000	-1.9690541562e-001
 4.0165732735e-001	 2.0272735331e+000	-1.9133533764e-001
 3.4982831845e-001	 1.7656784599e+000	-4.2597764888e-001
 3.3198450320e-001	 1.7691203005e+000	-4.0535318812e-001
 3.1416254162e-001	 1.7723719412e+000	-3.7395979569e-001
 2.9636518172e-001	 1.7754346262e+000	-3.3480227946e-001
 2.7859512887e-001	 1.7783096463e+000	-2.9096551107e-001
 2.6085504501e-001	 1.7809983380e+000	-2.4560193824e-001
 2.4314754789e-001	 1.7835020816e+000	-2.0191913822e-001
 2.2547521035e-001	 1.7858223000e+000	-1.6316748695e-001
 2.0784055965e-001	 1.7879604570e+000	-1.3262801464e-001
 1.9024607690e-001	 1.7899180559e+000	-1.1360051473e-001
 1.7269419643e-001	 1.7916966383e+000	-1.0939196862e-001
 3.5501121934e-001	 1.7918379672e+000	-4.0119256817e-001
 3.3690303805e-001	 1.7953308006e+000	-3.7954473674e-001
 3.1881703421e-001	 1.7986306162e+000	-3.4644736953e-001
 3.0075599654e-001	 1.8017386765e+000	-3.0497758425e-001
 2.8272267048e-001	 1.8046562917e+000	-2.5830131359e-001
 2.6471975742e-001	 1.8073848178e+000	-2.0965972484e-001
 2.4674991390e-001	 1.8099256558e+000	-1.6235567783e-001
 2.2881575086e-001	 1.8122802495e+000	-1.1974030288e-001
 2.1091983301e-001	 1.8144500845e+000	-8.5199776588e-002
 1.9306467822e-001	 1.8164366863e+000	-6.2142368906e-002
 1.7525275689e-001	 1.8182416194e+000	-5.3985830188e-002
 3.6019412023e-001	 1.8179974745e+000	-3.7371791962e-001
 3.4182157291e-001	 1.8215413007e+000	-3.5234367596e-001
 3.2347152681e-001	 1.8248892912e+000	-3.1891316510e-001
 3.0514681135e-001	 1.8280427269e+000	-2.7657476786e-001
 2.8685021209e-001	 1.8310029370e+000	-2.2857574334e-001
 2.6858446984e-001	 1.8337712977e+000	-1.7824745717e-001
 2.5035227990e-001	 1.8363492300e+000	-1.2899064414e-001
 2.3215629136e-001	 1.8387381990e+000	-8.4260794672e-002
 2.1399910637e-001	 1.8409397119e+000	-4.7553750682e-002
 1.9588327954e-001	 1.8429553167e+000	-2.2391591294e-002
 1.7781131735e-001	 1.8447866005e+000	-1.2308883899e-002
 3.6537702112e-001	 1.8441569818e+000	-3.4443741627e-001
 3.4674010776e-001	 1.8477518008e+000	-3.2430346722e-001
 3.2812601940e-001	 1.8511479661e+000	-2.9159963938e-001
 3.0953762617e-001	 1.8543467772e+000	-2.4954631851e-001
 2.9097775370e-001	 1.8573495824e+000	-2.0147414974e-001
 2.7244918225e-001	 1.8601577775e+000	-1.5080796900e-001
 2.5395464591e-001	 1.8627728042e+000	-1.0105076354e-001
 2.3549683187e-001	 1.8651961485e+000	-5.5767760039e-002
 2.1707837973e-001	 1.8674293394e+000	-1.8570733694e-002
 1.9870188086e-001	 1.8694739471e+000	 6.8973733494e-003
 1.8036987781e-001	 1.8713315816e+000	 1.6977441496e-002
 3.7055992201e-001	 1.8703164891e+000	-3.1433262574e-001
 3.5165864261e-001	 1.8739623009e+000	-2.9610140098e-001
 3.3278051199e-001	 1.8774066411e+000	-2.6489728198e-001
 3.1392844099e-001	 1.8806508276e+000	-2.2401521277e-001
 2.9510529531e-001	 1.8836962278e+000	-1.7687310485e-001
 2.7631389466e-001	 1.8865442573e+000	-1.2699435887e-001
 2.5755701191e-001	 1.8891963783e+000	-7.7990409383e-002
 2.3883737238e-001	 1.8916540980e+000	-3.3543400479e-002
 2.2015765309e-001	 1.8939189669e+000	 2.6109055854e-003
 2.0152048219e-001	 1.8959925775e+000	 2.6699889925e-002
 1.8292843827e-001	 1.8978765627e+000	 3.4930418204e-002
 3.7574282290e-001	 1.8964759965e+000	-2.8446787197e-001
 3.5657717746e-001	 1.9001728010e+000	-2.6852236869e-001
 3.3743500458e-001	 1.9036653161e+000	-2.3932732099e-001
 3.1831925580e-001	 1.9069548779e+000	-2.0025662250e-001
 2.9923283692e-001	 1.9100428731e+000	-1.5482118180e-001
 2.8017860707e-001	 1.9129307371e+000	-1.0664991398e-001
 2.6115937792e-001	 1.9156199525e+000	-5.9470748470e-002
 2.4217791288e-001	 1.9181120475e+000	-1.7091770717e-002
 2.2323692645e-001	 1.9204085944e+000	 1.6617390453e-002
 2.0433908351e-001	 1.9225112079e+000	 3.7743824102e-002
 1.8548699874e-001	 1.9244215437e+000	 4.2349147987e-002
 3.8092572379e-001	 1.9226355038e+000	-2.5597627868e-001
 3.6149571232e-001	 1.9263833011e+000	-2.4244388450e-001
 3.4208949717e-001	 1.9299239910e+000	-2.1552577958e-001
 3.2271007062e-001	 1.9332589282e+000	-1.7868106622e-001
 3.0336037854e-001	 1.9363895185e+000	-1.3552126416e-001
 2.8404331949e-001	 1.9393172170e+000	-8.9789643837e-002
 2.6476174392e-001	 1.9420435267e+000	-4.5340568331e-002
 2.4551845339e-001	 1.9445699970e+000	-6.1189721107e-003
 2.2631619981e-001	 1.9468982219e+000	 2.3859901289e-002
 2.0715768483e-001	 1.9490298383e+000	 4.0530387308e-002
 1.8804555920e-001	 1.9509665248e+000	 3.9795805884e-002
 3.8610862468e-001	 1.9487950111e+000	-2.3004684739e-001
 3.6641424717e-001	 1.9525938012e+000	-2.1882223940e-001
 3.4674398976e-001	 1.9561826660e+000	-1.9422875652e-001
 3.2710088544e-001	 1.9595629786e+000	-1.5981886943e-001
 3.0748792015e-001	 1.9627361639e+000	-1.1931424243e-001
 2.8790803190e-001	 1.9657036968e+000	-7.6583272303e-002
 2.6836410993e-001	 1.9684671009e+000	-3.5618627321e-002
 2.4885899389e-001	 1.9710279465e+000	-5.1492612157e-004
 2.2939547317e-001	 1.9733878494e+000	 2.4553310498e-002
 2.0997628615e-001	 1.9755484687e+000	 3.5353309068e-002
 1.9060411966e-001	 1.9775115059e+000	 2.7615176188e-002
 3.9129152557e-001	 1.9749545184e+000	-2.0791247386e-001
 3.7133278202e-001	 1.9788043013e+000	-1.9867968261e-001
 3.5139848235e-001	 1.9824413410e+000	-1.7625881710e-001
 3.3149170025e-001	 1.9858670289e+000	-1.4430581232e-001
 3.1161546176e-001	 1.9890828092e+000	-1.0666396891e-001
 2.9177274431e-001	 1.9920901766e+000	-6.7339552879e-002
 2.7196647593e-001	 1.9948906751e+000	-3.0477386353e-002
 2.5219953440e-001	 1.9974858960e+000	-3.3658135971e-004
 2.3247474653e-001	 1.9998774768e+000	 1.8733438535e-002
 2.1279488748e-001	 2.0020670991e+000	 2.2379282833e-002
 1.9316268012e-001	 2.0040564870e+000	 6.2816949008e-003
 3.9647442646e-001	 2.0011140257e+000	-1.9085705747e-001
 3.7625131688e-001	 2.0050148014e+000	-1.8341988127e-001
 3.5605297494e-001	 2.0087000159e+000	-1.6334642784e-001
 3.3588251507e-001	 2.0121710793e+000	-1.3415622600e-001
 3.1574300337e-001	 2.0154294546e+000	-9.9569425956e-002
 2.9563745673e-001	 2.0184766564e+000	-6.3487995694e-002
 2.7556884194e-001	 2.0213142492e+000	-2.9977128670e-002
 2.5554007491e-001	 2.0239438455e+000	-3.2468080302e-003
 2.3555401989e-001	 2.0263671043e+000	 1.2366524712e-002
 2.1561348880e-001	 2.0285857295e+000	 1.2418245421e-002
 1.9572124058e-001	 2.0306014681e+000	-7.6261874631e-003
 4.0165732735e-001	 2.0272735331e+000	-1.9133533764e-001
 3.8116985173e-001	 2.0312253015e+000	-1.8634410062e-001
 3.6070746753e-001	 2.0349586909e+000	-1.6812257115e-001
 3.4027332989e-001	 2.0384751296e+000	-1.4016791404e-001
 3.1987054498e-001	 2.0417760999e+000	-1.0620324024e-001
 2.9950216914e-001	 2.0448631363e+000	-7.0159325024e-002
 2.7917120795e-001	 2.0477378234e+000	-3.6156515191e-002
 2.5888061541e-001	 2.0504017950e+000	-8.4867600093e-003
 2.3863329325e-001	 2.0528567318e+000	 8.4042962155e-003
 2.1843209012e-001	 2.0551043599e+000	 9.9352184361e-003
 1.9827980105e-001	 2.0571464492e+000	-8.5932640503e-003
 1.7269419643e-001	 1.7916966383e+000	-1.0939196862e-001
 1.5518468862e-001	 1.7932980092e+000	-1.0661308930e-001
 1.3772256032e-001	 1.7947235026e+000	-9.2619093656e-002
 1.2031013895e-001	 1.7959747663e+000	-7.1782322227e-002
 1.0294970236e-001	 1.7970534806e+000	-4.8397636978e-002
 8.5643478444e-002	 1.7979613563e+000	-2.6672723889e-002
 6.8393644903e-002	 1.7987001334e+000	-1.0719078899e-002
 5.1202329005e-002	 1.7992715798e+000	-4.5437030697e-003
 3.4071607412e-002	 1.7996774898e+000	-1.2041527741e-002
 1.7003506047e-002	 1.7999196823e+000	-3.6988585333e-002
 0.0000000000e+000	 1.8000000000e+000	-8.3035960366e-002
 1.7525275689e-001	 1.8182416194e+000	-5.3985830188e-002
 1.5748383600e-001	 1.8198667155e+000	-4.6694910947e-002
 1.3976299656e-001	 1.8213133283e+000	-2.7046676814e-002
 1.2209260050e-001	 1.8225831303e+000	 3.7919065867e-004
 1.0447495939e-001	 1.8236778263e+000	 3.1087245436e-002
 8.6912334157e-002	 1.8245991527e+000	 6.0676846518e-002
 6.9406934749e-002	 1.8253488752e+000	 8.4851981733e-002
 5.1960919955e-002	 1.8259287879e+000	 9.9430317175e-002
 3.4576397204e-002	 1.8263407116e+000	 1.0035144928e-001
 1.7255422436e-002	 1.8265864924e+000	 8.3684342105e-002
 0.0000000000e+000	 1.8266680000e+000	 4.5633913998e-002
 1.7781131735e-001	 1.8447866005e+000	-1.2308883899e-002
 1.5978298338e-001	 1.8464354218e+000	-2.5681770723e-003
 1.4180343280e-001	 1.8479031541e+000	 2.0710705102e-002
 1.2387506204e-001	 1.8491914942e+000	 5.2765961696e-002
 1.0600021643e-001	 1.8503021720e+000	 8.8924723319e-002
 8.8181189870e-002	 1.8512369490e+000	 1.2461457634e-001
 7.0420224594e-002	 1.8519976169e+000	 1.5537427800e-001
 5.2719510904e-002	 1.8525859960e+000	 1.7686363073e-001
 3.5081186996e-002	 1.8530039335e+000	 1.8487248998e-001
 1.7507338824e-002	 1.8532533024e+000	 1.7532888617e-001
 0.0000000000e+000	 1.8533360000e+000	 1.4430622340e-001
 1.8036987781e-001	 1.8713315816e+000	 1.6977441496e-002
 1.6208213075e-001	 1.8730041281e+000	 2.7140209840e-002
 1.4384386905e-001	 1.8744929799e+000	 5.1976173883e-002
 1.2565752359e-001	 1.8757998581e+000	 8.6563801710e-002
 1.0752547346e-001	 1.8769265177e+000	 1.2607323674e-001
 8.9450045582e-002	 1.8778747454e+000	 1.6577886423e-001
 7.1433514439e-002	 1.8786463587e+000	 2.0107100395e-001
 5.3478101853e-002	 1.8792432040e+000	 2.2746669382e-001
 3.5585976788e-002	 1.8796671553e+000	 2.4061953596e-001
 1.7759255212e-002	 1.8799201125e+000	 2.3632858329e-001
 0.0000000000e+000	 1.8800040000e+000	 2.1054622762e-001
 1.8292843827e-001	 1.8978765627e+000	 3.4930418204e-002
 1.6438127813e-001	 1.8995728343e+000	 4.3513721721e-002
 1.4588430529e-001	 1.9010828056e+000	 6.7779005183e-002
 1.2743998514e-001	 1.9024082221e+000	 1.0266458912e-001
 1.0905073050e-001	 1.9035508634e+000	 1.4320136624e-001
 9.0718901294e-002	 1.9045125418e+000	 1.8452650296e-001
 7.2446804284e-002	 1.9052951004e+000	 2.2189620084e-001
 5.4236692802e-002	 1.9059004121e+000	 2.5069747840e-001
 3.6090766580e-002	 1.9063303771e+000	 2.6645894194e-001
 1.8011171600e-002	 1.9065869225e+000	 2.6486052042e-001
 0.0000000000e+000	 1.9066720000e+000	 2.4174212359e-001
 1.8548699874e-001	 1.9244215437e+000	 4.2349147987e-002
 1.6668042550e-001	 1.9261415406e+000	 4.7369587876e-002
 1.4792474153e-001	 1.9276726314e+000	 6.8877985735e-002
 1.2922244669e-001	 1.9290165860e+000	 1.0168931366e-001
 1.1057598753e-001	 1.9301752090e+000	 1.4071026786e-001
 9.1987757006e-002	 1.9311503381e+000	 1.8095420363e-001
 7.3460094129e-002	 1.9319438422e+000	 2.1755506156e-001
 5.4995283751e-002	 1.9325576201e+000	 2.4578024143e-001
 3.6595556372e-002	 1.9329935990e+000	 2.6104238837e-001
 1.8263087988e-002	 1.9332537326e+000	 2.5891006370e-001
 0.0000000000e+000	 1.9333400000e+000	 2.3511725722e-001
 1.8804555920e-001	 1.9509665248e+000	 3.9795805884e-002
 1.6897957288e-001	 1.9527102469e+000	 3.9280270132e-002
 1.4996517778e-001	 1.9542624571e+000	 5.5782863409e-002
 1.3100490823e-001	 1.9556249499e+000	 8.4009237653e-002
 1.1210124456e-001	 1.9567995547e+000	 1.1875427518e-001
 9.3256612718e-002	 1.9577881345e+000	 1.5491836118e-001
 7.4473383974e-002	 1.9585925840e+000	 1.8752257628e-001
 5.5753874700e-002	 1.9592148282e+000	 2.1172276104e-001
 3.7100346163e-002	 1.9596568208e+000	 2.2282241292e-001
 1.8515004376e-002	 1.9599205426e+000	 2.1628438461e-001
 0.0000000000e+000	 1.9600080000e+000	 1.8774133825e-001
 1.9060411966e-001	 1.9775115059e+000	 2.7615176188e-002
 1.7127872026e-001	 1.9792789532e+000	 1.9593209449e-002
 1.5200561402e-001	 1.9808522829e+000	 2.8774069318e-002
 1.3278736978e-001	 1.9822333139e+000	 4.9765351778e-002
 1.1362650160e-001	 1.9834239004e+000	 7.7259840422e-002
 9.4525468430e-002	 1.9844259308e+000	 1.0605322649e-001
 7.5486673818e-002	 1.9852413257e+000	 1.3106067500e-001
 5.6512465649e-002	 1.9858720362e+000	 1.4733218365e-001
 3.7605135955e-002	 1.9863200426e+000	 1.5006669062e-001
 1.8766920764e-002	 1.9865873527e+000	 1.3462489646e-001
 0.0000000000e+000	 1.9866760000e+000	 9.6540751867e-002
 1.9316268012e-001	 2.0040564870e+000	 6.2816949008e-003
 1.7357786763e-001	 2.0058476595e+000	-1.0669388726e-002
 1.5404605026e-001	 2.0074421087e+000	-1.0303263852e-002
 1.3456983133e-001	 2.0088416778e+000	 1.9241681946e-003
 1.1515175863e-001	 2.0100482461e+000	 2.0606098335e-002
 9.5794324142e-002	 2.0110637272e+000	 4.0403991040e-002
 7.6499963663e-002	 2.0118900675e+000	 5.6066726262e-002
 5.7271056599e-002	 2.0125292443e+000	 6.2449708209e-002
 3.8109925747e-002	 2.0129832645e+000	 5.4533942032e-002
 1.9018837152e-002	 2.0132541627e+000	 2.7445074392e-002
 0.0000000000e+000	 2.0133440000e+000	-2.3527633997e-002
 1.9572124058e-001	 2.0306014681e+000	-7.6261874631e-003
 1.7587701501e-001	 2.0324163658e+000	-2.8412375566e-002
 1.5608648651e-001	 2.0340319344e+000	-3.1236466960e-002
 1.3635229287e-001	 2.0354500417e+000	-2.1679294039e-002
 1.1667701567e-001	 2.0366725918e+000	-5.3059118149e-003
 9.7063179855e-002	 2.0377015236e+000	 1.2353786455e-002
 7.7513253509e-002	 2.0385388092e+000	 2.5824515078e-002
 5.8029647548e-002	 2.0391864523e+000	 2.9705112029e-002
 3.8614715539e-002	 2.0396464863e+000	 1.8688128294e-002
 1.9270753540e-002	 2.0399209728e+000	-1.2420512486e-002
 0.0000000000e+000	 2.0400120000e+000	-6.8681816249e-002
 1.9827980105e-001	 2.0571464492e+000	-8.5932640503e-003
 1.7817616239e-001	 2.0589850721e+000	-2.7439407163e-002
 1.5812692275e-001	 2.0606217602e+000	-2.7430356684e-002
 1.3813475442e-001	 2.0620584056e+000	-1.4237367166e-002
 1.1820227270e-001	 2.0632969374e+000	 6.4471004306e-003
 9.8332035568e-002	 2.0643393199e+000	 2.8928874032e-002
 7.8526543355e-002	 2.0651875510e+000	 4.7531739092e-002
 5.8788238498e-002	 2.0658436604e+000	 5.6617292515e-002
 3.9119505332e-002	 2.0663097081e+000	 5.0604986969e-002
 1.9522669929e-002	 2.0665877828e+000	 2.3992363951e-002
 0.0000000000e+000	 2.0666800000e+000	-2.8624556554e-002
 2.0666800000e+000	 0.0000000000e+000	 3.1887472637e+000
 2.0665877828e+000	 1.9522669929e-002	 3.1375947261e+000
 2.0663097081e+000	 3.9119505332e-002	 3.0888831097e+000
 2.0658436604e+000	 5.8788238498e-002	 3.0422588689e+000
 2.0651875510e+000	 7.8526543355e-002	 2.9971532094e+000
 2.0643393199e+000	 9.8332035568e-002	 2.9527996493e+000
 2.0632969374e+000	 1.1820227270e-001	 2.9082513716e+000
 2.0620584056e+000	 1.3813475442e-001	 2.8623983680e+000
 2.0606217602e+000	 1.5812692275e-001	 2.8139843919e+000
 2.0589850721e+000	 1.7817616239e-001	 2.7616237435e+000
 2.0571464492e+000	 1.9827980105e-001	 2.7038179269e+000
 2.0933440000e+000	 0.0000000000e+000	 3.0383003431e+000
 2.0932505931e+000	 1.9774548532e-002	 2.9995947773e+000
 2.0929689307e+000	 3.9624219410e-002	 2.9629679251e+000
 2.0924968700e+000	 5.9546715666e-002	 2.9279298608e+000
 2.0918322956e+000	 7.9539681215e-002	 2.8938066358e+000
 2.0909731208e+000	 9.9600700963e-002	 2.8597580191e+000
 2.0899172897e+000	 1.1972730096e-001	 2.8247948594e+000
 2.0886627785e+000	 1.3991694861e-001	 2.7877960694e+000
 2.0872075977e+000	 1.6016705295e-001	 2.7475252527e+000
 2.0855497932e+000	 1.8047496491e-001	 2.7026470027e+000
 2.0836874487e+000	 2.0083797774e-001	 2.6517429147e+000
 2.1200080000e+000	 0.0000000000e+000	 2.8957636502e+000
 2.1199134033e+000	 2.0026427135e-002	 2.8652947765e+000
 2.1196281532e+000	 4.0128933488e-002	 2.8369504689e+000
 2.1191500797e+000	 6.0305192834e-002	 2.8100859391e+000
 2.1184770403e+000	 8.0552819076e-002	 2.7839052224e+000
 2.1176069217e+000	 1.0086936636e-001	 2.7574790055e+000
 2.1165376419e+000	 1.2125232922e-001	 2.7297618919e+000
 2.1152671514e+000	 1.4169914281e-001	 2.6996091082e+000
 2.1137934352e+000	 1.6220718314e-001	 2.6657926727e+000
 2.1121145144e+000	 1.8277376743e-001	 2.6270170623e+000
 2.1102284483e+000	 2.0339615444e-001	 2.5819344243e+000
 2.1466720000e+000	 0.0000000000e+000	 2.7594074932e+000
 2.1465762135e+000	 2.0278305739e-002	 2.7341107230e+000
 2.1462873758e+000	 4.0633647567e-002	 2.7112846328e+000
 2.1458032894e+000	 6.1063670002e-002	 2.6901134078e+000
 2.1451217849e+000	 8.1565956938e-002	 2.6696647313e+000
 2.1442407226e+000	 1.0213803175e-001	 2.6489075976e+000
 2.1431579941e+000	 1.2277735748e-001	 2.6267293666e+000
 2.1418715243e+000	 1.4348133700e-001	 2.6019520602e+000
 2.1403792726e+000	 1.6424731334e-001	 2.5733479293e+000
 2.1386792356e+000	 1.8507256995e-001	 2.5396543304e+000
 2.1367694478e+000	 2.0595433114e-001	 2.4995879680e+000
 2.1733360000e+000	 0.0000000000e+000	 2.6277058481e+000
 2.1732390237e+000	 2.0530184342e-002	 2.6056264663e+000
 2.1729465983e+000	 4.1138361646e-002	 2.5865568186e+000
 2.1724564990e+000	 6.1822147171e-002	 2.5694963329e+000
 2.1717665295e+000	 8.2579094799e-002	 2.5533646474e+000
 2.1708745235e+000	 1.0340669715e-001	 2.5370192993e+000
 2.1697783463e+000	 1.2430238574e-001	 2.5192724405e+000
 2.1684758971e+000	 1.4526353119e-001	 2.4989065832e+000
 2.1669651101e+000	 1.6628744353e-001	 2.4746894084e+000
 2.1652439568e+000	 1.8737137247e-001	 2.4453876819e+000
 2.1633104473e+000	 2.0851250784e-001	 2.4097803412e+000
 2.2000000000e+000	 0.0000000000e+000	 2.4993240168e+000
 2.1999018340e+000	 2.0782062946e-002	 2.4795831826e+000
 2.1996058209e+000	 4.1643075725e-002	 2.4634771146e+000
 2.1991097087e+000	 6.2580624339e-002	 2.4498093047e+000
 2.1984112742e+000	 8.3592232661e-002	 2.4373424193e+000
 2.1975083244e+000	 1.0467536255e-001	 2.4248157438e+000
 2.1963986986e+000	 1.2582741400e-001	 2.4109614209e+000
 2.1950802700e+000	 1.4704572539e-001	 2.3945194926e+000
 2.1935509476e+000	 1.6832757373e-001	 2.3742517795e+000
 2.1918086779e+000	 1.8967017500e-001	 2.3489546507e+000
 2.1898514469e+000	 2.1107068453e-001	 2.3174707586e+000
 2.2266640000e+000	 0.0000000000e+000	 2.3731071715e+000
 2.2265646442e+000	 2.1033941550e-002	 2.3558696076e+000
 2.2262650434e+000	 4.2147789804e-002	 2.3428711074e+000
 2.2257629184e+000	 6.3339101508e-002	 2.3327107234e+000
 2.2250560188e+000	 8.4605370523e-002	 2.3239881183e+000
 2.2241421253e+000	 1.0594402794e-001	 2.3153206319e+000
 2.2230190508e+000	 1.2735244226e-001	 2.3053588948e+000
 2.2216846429e+000	 1.4882791958e-001	 2.2928009979e+000
 2.2201367851e+000	 1.7036770392e-001	 2.2764052599e+000
 2.2183733991e+000	 1.9196897752e-001	 2.2550016528e+000
 2.2163924464e+000	 2.1362886123e-001	 2.2275019670e+000
 2.2533280000e+000	 0.0000000000e+000	 2.2480697122e+000
 2.2532274544e+000	 2.1285820153e-002	 2.2345129641e+000
 2.2529242659e+000	 4.2652503883e-002	 2.2256722760e+000
 2.2524161280e+000	 6.4097578677e-002	 2.2199365640e+000
 2.2517007635e+000	 8.5618508384e-002	 2.2157394819e+000
 2.2507759262e+000	 1.0721269334e-001	 2.2115759690e+000
 2.2496394030e+000	 1.2887747052e-001	 2.2060170766e+000
 2.2482890157e+000	 1.5061011377e-001	 2.1977230857e+000
 2.2467226226e+000	 1.7240783412e-001	 2.1854549648e+000
 2.2449381203e+000	 1.9426778004e-001	 2.1680842351e+000
 2.2429334459e+000	 2.1618703793e-001	 2.1446013367e+000
 2.2799920000e+000	 0.0000000000e+000	 2.1233853717e+000
 2.2798902646e+000	 2.1537698757e-002	 2.1156705246e+000
 2.2795834885e+000	 4.3157217962e-002	 2.1129149203e+000
 2.2790693377e+000	 6.4856055845e-002	 2.1132945805e+000
 2.2783455081e+000	 8.6631646245e-002	 2.1150773106e+000
 2.2774097270e+000	 1.0848135873e-001	 2.1166385738e+000
 2.2762597552e+000	 1.3040249878e-001	 2.1164753563e+000
 2.2748933886e+000	 1.5239230797e-001	 2.1132180388e+000
 2.2733084601e+000	 1.7444796431e-001	 2.1056403319e+000
 2.2715028415e+000	 1.9656658256e-001	 2.0926673506e+000
 2.2694744455e+000	 2.1874521463e-001	 2.0733819334e+000
 2.3066560000e+000	 0.0000000000e+000	 1.9983780062e+000
 2.3065530749e+000	 2.1789577360e-002	 1.9996217608e+000
 2.3062427110e+000	 4.3661932041e-002	 2.0057275814e+000
 2.3057225474e+000	 6.5614533013e-002	 2.0146589154e+000
 2.3049902527e+000	 8.7644784106e-002	 2.0245211886e+000
 2.3040435279e+000	 1.0975002413e-001	 2.0335768392e+000
 2.3028801075e+000	 1.3192752703e-001	 2.0402580323e+000
 2.3014977615e+000	 1.5417450216e-001	 2.0431770789e+000
 2.2998942975e+000	 1.7648809451e-001	 2.0411346186e+000
 2.2980675626e+000	 1.9886538508e-001	 2.0331256568e+000
 2.2960154450e+000	 2.2130339132e-001	 2.0183435712e+000
 2.3333200000e+000	 0.0000000000e+000	 1.8725130180e+000
 2.3332158851e+000	 2.2041455963e-002	 1.8867610307e+000
 2.3329019336e+000	 4.4166646119e-002	 1.9053269133e+000
 2.3323757570e+000	 6.6373010180e-002	 1.9259650806e+000
 2.3316349974e+000	 8.8657921967e-002	 1.9466255036e+000
 2.3306773288e+000	 1.1101868952e-001	 1.9654677232e+000
 2.3295004597e+000	 1.3345255529e-001	 1.9808722139e+000
 2.3281021343e+000	 1.5595669635e-001	 1.9914491237e+000
 2.3264801350e+000	 1.7852822470e-001	 1.9960444621e+000
 2.3246322838e+000	 2.0116418761e-001	 1.9937438338e+000
 2.3225564445e+000	 2.2386156802e-001	 1.9838738497e+000
 2.0571464492e+000	 1.9827980105e-001	 2.7038179269e+000
 2.0551043599e+000	 2.1843209012e-001	 2.6443569993e+000
 2.0528567318e+000	 2.3863329325e-001	 2.5875297671e+000
 2.0504017950e+000	 2.5888061541e-001	 2.5325014764e+000
 2.0477378234e+000	 2.7917120795e-001	 2.4783996351e+000
 2.0448631363e+000	 2.9950216914e-001	 2.4243289629e+000
 2.0417760999e+000	 3.1987054498e-001	 2.3693865623e+000
 2.0384751296e+000	 3.4027332989e-001	 2.3126774158e+000
 2.0349586909e+000	 3.6070746753e-001	 2.2533303227e+000
 2.0312253015e+000	 3.8116985173e-001	 2.1905143954e+000
 2.0272735331e+000	 4.0165732735e-001	 2.1234562405e+000
 2.0836874487e+000	 2.0083797774e-001	 2.6517429147e+000
 2.0816190127e+000	 2.2125026867e-001	 2.5986853802e+000
 2.0793423861e+000	 2.4171210474e-001	 2.5477075794e+000
 2.0768557760e+000	 2.6222065487e-001	 2.4978838417e+000
 2.0741574342e+000	 2.8277303362e-001	 2.4482727253e+000
 2.0712456583e+000	 3.0336630188e-001	 2.3979309577e+000
 2.0681187935e+000	 3.2399746749e-001	 2.3459275156e+000
 2.0647752345e+000	 3.4466348611e-001	 2.2913579673e+000
 2.0612134272e+000	 3.6536126199e-001	 2.2333592032e+000
 2.0574318702e+000	 3.8608764884e-001	 2.1711246946e+000
 2.0534291166e+000	 4.0683945084e-001	 2.1039204205e+000
 2.1102284483e+000	 2.0339615444e-001	 2.5819344243e+000
 2.1081336655e+000	 2.2406844723e-001	 2.5344756851e+000
 2.1058280403e+000	 2.4479091623e-001	 2.4887990764e+000
 2.1033097570e+000	 2.6556069432e-001	 2.4438864864e+000
 2.1005770451e+000	 2.8637485930e-001	 2.3987262787e+000
 2.0976281804e+000	 3.0723043461e-001	 2.3523260210e+000
 2.0944614871e+000	 3.2812439000e-001	 2.3037252687e+000
 2.0910753395e+000	 3.4905364234e-001	 2.2520085388e+000
 2.0874681636e+000	 3.7001505644e-001	 2.1963186230e+000
 2.0836384389e+000	 3.9100544595e-001	 2.1358703923e+000
 2.0795847002e+000	 4.1202157433e-001	 2.0699652571e+000
 2.1367694478e+000	 2.0595433114e-001	 2.4995879680e+000
 2.1346483183e+000	 2.2688662578e-001	 2.4571195357e+000
 2.1323136945e+000	 2.4786972772e-001	 2.4163180495e+000
 2.1297637380e+000	 2.6890073377e-001	 2.3760750675e+000
 2.1269966559e+000	 2.8997668498e-001	 2.3353112220e+000
 2.1240107024e+000	 3.1109456735e-001	 2.2929875183e+000
 2.1208041806e+000	 3.3225131251e-001	 2.2481165969e+000
 2.1173754444e+000	 3.5344379857e-001	 2.1997741123e+000
 2.1137229000e+000	 3.7466885089e-001	 2.1471103958e+000
 2.1098450077e+000	 3.9592324306e-001	 2.0893625742e+000
 2.1057402838e+000	 4.1720369783e-001	 2.0258673309e+000
 2.1633104473e+000	 2.0851250784e-001	 2.4097803412e+000
 2.1611629711e+000	 2.2970480434e-001	 2.3718641728e+000
 2.1587993488e+000	 2.5094853921e-001	 2.3356098258e+000
 2.1562177190e+000	 2.7224077322e-001	 2.2998244097e+000
 2.1534162668e+000	 2.9357851066e-001	 2.2633671288e+000
 2.1503932245e+000	 3.1495870008e-001	 2.2251589164e+000
 2.1471468742e+000	 3.3637823502e-001	 2.1841919329e+000
 2.1436755493e+000	 3.5783395480e-001	 2.1395391042e+000
 2.1399776363e+000	 3.7932264534e-001	 2.0903638826e+000
 2.1360515764e+000	 4.0084104017e-001	 2.0359304306e+000
 2.1318958674e+000	 4.2238582132e-001	 1.9756144314e+000
 2.1898514469e+000	 2.1107068453e-001	 2.3174707586e+000
 2.1876776239e+000	 2.3252298289e-001	 2.2838144723e+000
 2.1852850030e+000	 2.5402735071e-001	 2.2518541097e+000
 2.1826717000e+000	 2.7558081267e-001	 2.2203221229e+000
 2.1798358776e+000	 2.9718033633e-001	 2.1880265694e+000
 2.1767757465e+000	 3.1882283282e-001	 2.1538588278e+000
 2.1734895678e+000	 3.4050515753e-001	 2.1168010726e+000
 2.1699756543e+000	 3.6222411102e-001	 2.0759337044e+000
 2.1662323727e+000	 3.8397643979e-001	 2.0304429429e+000
 2.1622581451e+000	 4.0575883728e-001	 1.9796288030e+000
 2.1580514510e+000	 4.2756794481e-001	 1.9229136862e+000
 2.2163924464e+000	 2.1362886123e-001	 2.2275019670e+000
 2.2141922767e+000	 2.3534116144e-001	 2.1979348919e+000
 2.2117706572e+000	 2.5710616220e-001	 2.1700677157e+000
 2.2091256810e+000	 2.7892085212e-001	 2.1425720791e+000
 2.2062554884e+000	 3.0078216201e-001	 2.1142192949e+000
 2.2031582686e+000	 3.2268696555e-001	 2.0838858713e+000
 2.1998322613e+000	 3.4463208005e-001	 2.0505586842e+000
 2.1962757592e+000	 3.6661426725e-001	 2.0133400147e+000
 2.1924871090e+000	 3.8863023425e-001	 1.9714526845e+000
 2.1884647138e+000	 4.1067663439e-001	 1.9242455346e+000
 2.1842070346e+000	 4.3275006830e-001	 1.8711995070e+000
 2.2429334459e+000	 2.1618703793e-001	 2.1446013367e+000
 2.2407069295e+000	 2.3815934000e-001	 2.1190513544e+000
 2.2382563115e+000	 2.6018497369e-001	 2.0951072022e+000
 2.2355796621e+000	 2.8226089157e-001	 2.0713977617e+000
 2.2326750993e+000	 3.0438398769e-001	 2.0466762706e+000
 2.2295407906e+000	 3.2655109828e-001	 2.0198233629e+000
 2.2261749549e+000	 3.4875900256e-001	 1.9898496379e+000
 2.2225758641e+000	 3.7100442348e-001	 1.9558980003e+000
 2.2187418454e+000	 3.9328402870e-001	 1.9172460276e+000
 2.2146712825e+000	 4.1559443150e-001	 1.8733086408e+000
 2.2103626182e+000	 4.3793219180e-001	 1.8236413655e+000
 2.2694744455e+000	 2.1874521463e-001	 2.0733819334e+000
 2.2672215823e+000	 2.4097751855e-001	 2.0518530720e+000
 2.2647419657e+000	 2.6326378518e-001	 2.0316714144e+000
 2.2620336431e+000	 2.8560093102e-001	 2.0114454957e+000
 2.2590947101e+000	 3.0798581336e-001	 1.9899335696e+000
 2.2559233126e+000	 3.3041523102e-001	 1.9660438528e+000
 2.2525176484e+000	 3.5288592506e-001	 1.9388341707e+000
 2.2488759691e+000	 3.7539457970e-001	 1.9075112722e+000
 2.2449965817e+000	 3.9793782315e-001	 1.8714300990e+000
 2.2408778513e+000	 4.2051222860e-001	 1.8300933155e+000
 2.2365182018e+000	 4.4311431529e-001	 1.7831514153e+000
 2.2960154450e+000	 2.2130339132e-001	 2.0183435712e+000
 2.2937362351e+000	 2.4379569710e-001	 2.0008943179e+000
 2.2912276199e+000	 2.6634259667e-001	 1.9843039435e+000
 2.2884876241e+000	 2.8894097047e-001	 1.9671875704e+000
 2.2855143209e+000	 3.1158763904e-001	 1.9483361385e+000
 2.2823058347e+000	 3.3427936375e-001	 1.9267135198e+000
 2.2788603420e+000	 3.5701284757e-001	 1.9014528987e+000
 2.2751760740e+000	 3.7978473593e-001	 1.8718527125e+000
 2.2712513181e+000	 4.0259161760e-001	 1.8373724702e+000
 2.2670844200e+000	 4.2543002571e-001	 1.7976287845e+000
 2.2626737853e+000	 4.4829643878e-001	 1.7523919706e+000
 2.3225564445e+000	 2.2386156802e-001	 1.9838738497e+000
 2.3202508879e+000	 2.4661387566e-001	 1.9705961476e+000
 2.3177132742e+000	 2.6942140816e-001	 1.9573955085e+000
 2.3149416051e+000	 2.9228100992e-001	 1.9429252623e+000
 2.3119339318e+000	 3.1518946472e-001	 1.9260414461e+000
 2.3086883567e+000	 3.3814349649e-001	 1.9057964348e+000
 2.3052030356e+000	 3.6113977008e-001	 1.8814316903e+000
 2.3014761789e+000	 3.8417489215e-001	 1.8523699568e+000
 2.2975060545e+000	 4.0724541205e-001	 1.8182072515e+000
 2.2932909887e+000	 4.3034782282e-001	 1.7787050212e+000
 2.2888293689e+000	 4.5347856227e-001	 1.7337828534e+000
 2.0272735331e+000	 4.0165732735e-001	 2.1234562405e+000
 2.0231013705e+000	 4.2216976871e-001	 2.0554368712e+000
 2.0187080752e+000	 4.4270084878e-001	 1.9897309107e+000
 2.0140923913e+000	 4.6324726543e-001	 1.9256623266e+000
 2.0092531230e+000	 4.8380567180e-001	 1.8626848377e+000
 2.0041891369e+000	 5.0437267753e-001	 1.8004046456e+000
 1.9988993627e+000	 5.2494485006e-001	 1.7385768781e+000
 1.9933827953e+000	 5.4551871594e-001	 1.6762658324e+000
 1.9876384961e+000	 5.6609076229e-001	 1.6131417346e+000
 1.9816655944e+000	 5.8665743822e-001	 1.5495996423e+000
 1.9754632889e+000	 6.0721515638e-001	 1.4863846660e+000
 2.0534291166e+000	 4.0683945084e-001	 2.1039204205e+000
 2.0492031255e+000	 4.2761654069e-001	 2.0350508251e+000
 2.0447531485e+000	 4.4841250972e-001	 1.9678284205e+000
 2.0400779137e+000	 4.6922401320e-001	 1.9016554689e+000
 2.0351762100e+000	 4.9004766109e-001	 1.8360723252e+000
 2.0300468890e+000	 5.1088001930e-001	 1.7707790890e+000
 2.0246888670e+000	 5.3171761096e-001	 1.7056588464e+000
 2.0191011256e+000	 5.5255691782e-001	 1.6408026455e+000
 2.0132827143e+000	 5.7339438167e-001	 1.5765363384e+000
 2.0072327511e+000	 5.9422640581e-001	 1.5134494181e+000
 2.0009504244e+000	 6.1504935661e-001	 1.4524259600e+000
 2.0795847002e+000	 4.1202157433e-001	 2.0699652571e+000
 2.0753048804e+000	 4.3306331268e-001	 2.0018959625e+000
 2.0707982218e+000	 4.5412417067e-001	 1.9349579746e+000
 2.0660634361e+000	 4.7520076098e-001	 1.8685968955e+000
 2.0610992969e+000	 4.9628965039e-001	 1.8024031183e+000
 2.0559046411e+000	 5.1738736106e-001	 1.7361322634e+000
 2.0504783712e+000	 5.3849037185e-001	 1.6697273234e+000
 2.0448194559e+000	 5.5959511969e-001	 1.6033426813e+000
 2.0389269325e+000	 5.8069800105e-001	 1.5373701587e+000
 2.0327999078e+000	 6.0179537340e-001	 1.4724672417e+000
 2.0264375598e+000	 6.2288355684e-001	 1.4095876175e+000
 2.1057402838e+000	 4.1720369783e-001	 2.0258673309e+000
 2.1014066354e+000	 4.3851008466e-001	 1.9598806855e+000
 2.0968432952e+000	 4.5983583161e-001	 1.8946369580e+000
 2.0920489586e+000	 4.8117750875e-001	 1.8295947544e+000
 2.0870223838e+000	 5.0253163969e-001	 1.7643624234e+000
 2.0817623933e+000	 5.2389470283e-001	 1.6987171230e+000
 2.0762678754e+000	 5.4526313275e-001	 1.6326257276e+000
 2.0705377862e+000	 5.6663332157e-001	 1.5662677633e+000
 2.0645711507e+000	 5.8800162042e-001	 1.5000605528e+000
 2.0583670645e+000	 6.0936434100e-001	 1.4346867397e+000
 2.0519246953e+000	 6.3071775708e-001	 1.3711243486e+000
 2.1318958674e+000	 4.2238582132e-001	 1.9756144314e+000
 2.1275083903e+000	 4.4395685664e-001	 1.9126200337e+000
 2.1228883685e+000	 4.6554749255e-001	 1.8500868841e+000
 2.1180344810e+000	 4.8715425653e-001	 1.7874609020e+000
 2.1129454707e+000	 5.0877362898e-001	 1.7243408401e+000
 2.1076201454e+000	 5.3040204460e-001	 1.6604958104e+000
 2.1020573797e+000	 5.5203589365e-001	 1.5958847943e+000
 2.0962561165e+000	 5.7367152344e-001	 1.5306783528e+000
 2.0902153689e+000	 5.9530523980e-001	 1.4652827416e+000
 2.0839342212e+000	 6.1693330859e-001	 1.4003666280e+000
 2.0774118308e+000	 6.3855195731e-001	 1.3368905883e+000
 2.1580514510e+000	 4.2756794481e-001	 1.9229136862e+000
 2.1536101453e+000	 4.4940362862e-001	 1.8634444096e+000
 2.1489334418e+000	 4.7125915350e-001	 1.8042427550e+000
 2.1440200035e+000	 4.9313100430e-001	 1.7447209437e+000
 2.1388685576e+000	 5.1501561828e-001	 1.6844451367e+000
 2.1334778975e+000	 5.3690938636e-001	 1.6231512293e+000
 2.1278468839e+000	 5.5880865454e-001	 1.5607627886e+000
 2.1219744468e+000	 5.8070972532e-001	 1.4974113762e+000
 2.1158595871e+000	 6.0260885918e-001	 1.4334594922e+000
 2.1095013779e+000	 6.2450227618e-001	 1.3695263616e+000
 2.1028989663e+000	 6.4638615754e-001	 1.3065167701e+000
 2.1842070346e+000	 4.3275006830e-001	 1.8711995070e+000
 2.1797119003e+000	 4.5485040060e-001	 1.8154081356e+000
 2.1749785151e+000	 4.7697081444e-001	 1.7597622712e+000
 2.1700055259e+000	 4.9910775208e-001	 1.7036241452e+000
 2.1647916446e+000	 5.2125760758e-001	 1.6465089184e+000
 2.1593356496e+000	 5.4341672813e-001	 1.5880985338e+000
 2.1536363881e+000	 5.6558141544e-001	 1.5282578843e+000
 2.1476927771e+000	 5.8774792719e-001	 1.4670535709e+000
 2.1415038053e+000	 6.0991247856e-001	 1.4047755144e+000
 2.1350685346e+000	 6.3207124377e-001	 1.3419616730e+000
 2.1283861017e+000	 6.5422035778e-001	 1.2794261012e+000
 2.2103626182e+000	 4.3793219180e-001	 1.8236413655e+000
 2.2058136552e+000	 4.6029717258e-001	 1.7712978568e+000
 2.2010235884e+000	 4.8268247538e-001	 1.7190349033e+000
 2.1959910484e+000	 5.0508449985e-001	 1.6661532242e+000
 2.1907147315e+000	 5.2749959687e-001	 1.6121031971e+000
 2.1851934017e+000	 5.4992406989e-001	 1.5564965384e+000
 2.1794258924e+000	 5.7235417633e-001	 1.4991204870e+000
 2.1734111074e+000	 5.9478612907e-001	 1.4399547983e+000
 2.1671480235e+000	 6.1721609793e-001	 1.3791918469e+000
 2.1606356913e+000	 6.3964021136e-001	 1.3172601202e+000
 2.1538732372e+000	 6.6205455801e-001	 1.2548513680e+000
 2.2365182018e+000	 4.4311431529e-001	 1.7831514153e+000
 2.2319154102e+000	 4.6574394456e-001	 1.7336408022e+000
 2.2270686617e+000	 4.8839413632e-001	 1.6841908388e+000
 2.2219765708e+000	 5.1106124762e-001	 1.6340340335e+000
 2.2166378184e+000	 5.3374158617e-001	 1.5825468692e+000
 2.2110511539e+000	 5.5643141166e-001	 1.5292590580e+000
 2.2052153966e+000	 5.7912693723e-001	 1.4738655054e+000
 2.1991294377e+000	 6.0182433094e-001	 1.4162413244e+000
 2.1927922417e+000	 6.2451971731e-001	 1.3564602314e+000
 2.1862028480e+000	 6.4720917895e-001	 1.2948166425e+000
 2.1793603727e+000	 6.6988875825e-001	 1.2318884088e+000
 2.2626737853e+000	 4.4829643878e-001	 1.7523919706e+000
 2.2580171652e+000	 4.7119071654e-001	 1.7047129149e+000
 2.2531137351e+000	 4.9410579726e-001	 1.6571098108e+000
 2.2479620932e+000	 5.1703799540e-001	 1.6087451439e+000
 2.2425609053e+000	 5.3998357546e-001	 1.5589171117e+000
 2.2369089060e+000	 5.6293875342e-001	 1.5070661813e+000
 2.2310049008e+000	 5.8589969813e-001	 1.4527845765e+000
 2.2248477680e+000	 6.0886253281e-001	 1.3958290736e+000
 2.2184364599e+000	 6.3182333669e-001	 1.3361374765e+000
 2.2117700047e+000	 6.5477814654e-001	 1.2738491248e+000
 2.2048475082e+000	 6.7772295848e-001	 1.2098244368e+000
 2.2888293689e+000	 4.5347856227e-001	 1.7337828534e+000
 2.2841189201e+000	 4.7663748852e-001	 1.6865468637e+000
 2.2791588084e+000	 4.9981745820e-001	 1.6394298222e+000
 2.2739476157e+000	 5.2301474317e-001	 1.5915273337e+000
 2.2684839922e+000	 5.4622556476e-001	 1.5420597001e+000
 2.2627666581e+000	 5.6944609519e-001	 1.4903754851e+000
 2.2567944051e+000	 5.9267245902e-001	 1.4359582461e+000
 2.2505660983e+000	 6.1590073469e-001	 1.3784368542e+000
 2.2440806781e+000	 6.3912695606e-001	 1.3175998130e+000
 2.2373371614e+000	 6.6234711413e-001	 1.2534139686e+000
 2.2303346436e+000	 6.8555715871e-001	 1.1876752057e+000
 1.9754632889e+000	 6.0721515638e-001	 1.4863846660e+000
 1.9690308487e+000	 6.2776029421e-001	 1.4197551961e+000
 1.9623676129e+000	 6.4828919468e-001	 1.3455682165e+000
 1.9554729937e+000	 6.6879816880e-001	 1.2645470694e+000
 1.9483464780e+000	 6.8928349765e-001	 1.1788854406e+000
 1.9409876284e+000	 7.0974143420e-001	 1.0904909197e+000
 1.9333960849e+000	 7.3016820514e-001	 1.0005550545e+000
 1.9255715656e+000	 7.5056001275e-001	 9.1034765755e-001
 1.9175138679e+000	 7.7091303689e-001	 8.2121362441e-001
 1.9092228696e+000	 7.9122343695e-001	 7.3456965520e-001
 1.9006985296e+000	 8.1148735391e-001	 6.5190089637e-001
 2.0009504244e+000	 6.1504935661e-001	 1.4524259600e+000
 1.9944349938e+000	 6.3585956478e-001	 1.3890365077e+000
 1.9876857899e+000	 6.5665332609e-001	 1.3177552224e+000
 1.9807022174e+000	 6.7742690396e-001	 1.2393540702e+000
 1.9734837563e+000	 6.9817653150e-001	 1.1563610674e+000
 1.9660299640e+000	 7.1889841332e-001	 1.0701723939e+000
 1.9583404755e+000	 7.3958872744e-001	 9.8202122550e-001
 1.9504150054e+000	 7.6024362714e-001	 8.9321923606e-001
 1.9422533485e+000	 7.8085924298e-001	 8.0515310308e-001
 1.9338553809e+000	 8.0143168483e-001	 7.1928092742e-001
 1.9252210612e+000	 8.2195704385e-001	 6.3712858447e-001
 2.0264375598e+000	 6.2288355684e-001	 1.4095876175e+000
 2.0198391388e+000	 6.4395883534e-001	 1.3449324612e+000
 2.0130039669e+000	 6.6501745749e-001	 1.2738873714e+000
 2.0059314410e+000	 6.8605563912e-001	 1.1977584546e+000
 1.9986210347e+000	 7.0706956534e-001	 1.1187552289e+000
 1.9910722996e+000	 7.2805539244e-001	 1.0367031393e+000
 1.9832848661e+000	 7.4900924974e-001	 9.5217430391e-001
 1.9752584453e+000	 7.6992724152e-001	 8.6648676478e-001
 1.9669928291e+000	 7.9080544908e-001	 7.8103362665e-001
 1.9584878923e+000	 8.1163993271e-001	 6.9727923125e-001
 1.9497435928e+000	 8.3242673380e-001	 6.1675527730e-001
 2.0519246953e+000	 6.3071775708e-001	 1.3711243486e+000
 2.0452432839e+000	 6.5205810591e-001	 1.3055608116e+000
 2.0383221439e+000	 6.7338158890e-001	 1.2333176974e+000
 2.0311606646e+000	 6.9468437428e-001	 1.1564986977e+000
 2.0237583131e+000	 7.1596259919e-001	 1.0766882208e+000
 2.0161146352e+000	 7.3721237157e-001	 9.9498254528e-001
 2.0082292568e+000	 7.5842977204e-001	 9.1252447344e-001
 2.0001018851e+000	 7.7961085591e-001	 8.3049828403e-001
 1.9917323097e+000	 8.0075165518e-001	 7.4914510765e-001
 1.9831204037e+000	 8.2184818059e-001	 6.6881684060e-001
 1.9742661244e+000	 8.4289642374e-001	 5.9101754651e-001
 2.0774118308e+000	 6.3855195731e-001	 1.3368905883e+000
 2.0706474290e+000	 6.6015737647e-001	 1.2710344856e+000
 2.0636403209e+000	 6.8174572031e-001	 1.1985428717e+000
 2.0563898883e+000	 7.0331310944e-001	 1.1218101196e+000
 2.0488955915e+000	 7.2485563304e-001	 1.0419701595e+000
 2.0411569708e+000	 7.4636935069e-001	 9.6008815558e-001
 2.0331736474e+000	 7.6785029434e-001	 8.7727334467e-001
 2.0249453249e+000	 7.8929447030e-001	 7.9467373101e-001
 2.0164717903e+000	 8.1069786128e-001	 7.1347095226e-001
 2.0077529150e+000	 8.3205642847e-001	 6.3487534764e-001
 1.9987886560e+000	 8.5336611368e-001	 5.6010360847e-001
 2.1028989663e+000	 6.4638615754e-001	 1.3065167701e+000
 2.0960515741e+000	 6.6825664704e-001	 1.2406203189e+000
 2.0889584979e+000	 6.9010985172e-001	 1.1686677156e+000
 2.0816191119e+000	 7.1194184460e-001	 1.0925918244e+000
 2.0740328699e+000	 7.3374866688e-001	 1.0133513920e+000
 2.0661993063e+000	 7.5552632981e-001	 9.3195217221e-001
 2.0581180380e+000	 7.7727081664e-001	 8.4944122674e-001
 2.0497887647e+000	 7.9897808469e-001	 7.6690140638e-001
 2.0412112709e+000	 8.2064406738e-001	 6.8544604649e-001
 2.0323854264e+000	 8.4226467635e-001	 6.0621390909e-001
 2.0233111876e+000	 8.6383580362e-001	 5.3036440068e-001
 2.1283861017e+000	 6.5422035778e-001	 1.2794261012e+000
 2.1214557192e+000	 6.7635591761e-001	 1.2136919895e+000
 2.1142766749e+000	 6.9847398312e-001	 1.1426732665e+000
 2.1068483355e+000	 7.2057057976e-001	 1.0676305545e+000
 2.0991701483e+000	 7.4264170073e-001	 9.8943929683e-001
 2.0912416419e+000	 7.6468330893e-001	 9.0901903855e-001
 2.0830624286e+000	 7.8669133894e-001	 8.2732751329e-001
 2.0746322046e+000	 8.0866169908e-001	 7.4535495465e-001
 2.0659507515e+000	 8.3059027348e-001	 6.6411866947e-001
 2.0570179378e+000	 8.5247292423e-001	 5.8465790694e-001
 2.0478337192e+000	 8.7430549357e-001	 5.0802905457e-001
 2.1538732372e+000	 6.6205455801e-001	 1.2548513680e+000
 2.1468598642e+000	 6.8445518817e-001	 1.1894397713e+000
 2.1395948519e+000	 7.0683811453e-001	 1.1194281168e+000
 2.1320775592e+000	 7.2919931492e-001	 1.0456048434e+000
 2.1243074266e+000	 7.5153473458e-001	 9.6873715675e-001
 2.1162839775e+000	 7.7384028805e-001	 8.8963302488e-001
 2.1080068192e+000	 7.9611186124e-001	 8.0913508843e-001
 2.0994756444e+000	 8.1834531347e-001	 7.2811484443e-001
 2.0906902321e+000	 8.4053647958e-001	 6.4746714428e-001
 2.0816504492e+000	 8.6268117211e-001	 5.6810504186e-001
 2.0723562508e+000	 8.8477518351e-001	 4.9095502428e-001
 2.1793603727e+000	 6.6988875825e-001	 1.2318884088e+000
 2.1722640093e+000	 6.9255445874e-001	 1.1668228670e+000
 2.1649130289e+000	 7.1520224594e-001	 1.0976924850e+000
 2.1573067828e+000	 7.3782805008e-001	 1.0250892423e+000
 2.1494447050e+000	 7.6042776842e-001	 9.4964858051e-001
 2.1413263131e+000	 7.8299726717e-001	 8.7204288859e-001
 2.1329512099e+000	 8.0553238355e-001	 7.9297527134e-001
 2.1243190842e+000	 8.2802892786e-001	 7.1317364640e-001
 2.1154297127e+000	 8.5048268568e-001	 6.3338521264e-001
 2.1062829605e+000	 8.7288941999e-001	 5.5437132802e-001
 2.0968787823e+000	 8.9524487345e-001	 4.7690283124e-001
 2.2048475082e+000	 6.7772295848e-001	 1.2098244368e+000
 2.1976681544e+000	 7.0065372930e-001	 1.1446916862e+000
 2.1902312059e+000	 7.2356637734e-001	 1.0761223420e+000
 2.1825360065e+000	 7.4645678524e-001	 1.0045586138e+000
 2.1745819834e+000	 7.6932080227e-001	 9.3048200232e-001
 2.1663686487e+000	 7.9215424629e-001	 8.5440661994e-001
 2.1578956005e+000	 8.1495290585e-001	 7.7687285170e-001
 2.1491625241e+000	 8.3771254225e-001	 6.9844140456e-001
 2.1401691933e+000	 8.6042889178e-001	 6.1968779073e-001
 2.1309154719e+000	 8.8309766787e-001	 5.4119728513e-001
 2.1214013139e+000	 9.0571456340e-001	 4.6356039312e-001
 2.2303346436e+000	 6.8555715871e-001	 1.1876752057e+000
 2.2230722995e+000	 7.0875299987e-001	 1.1217918761e+000
 2.2155493829e+000	 7.3193050875e-001	 1.0532735874e+000
 2.2077652301e+000	 7.5508552040e-001	 9.8239248796e-001
 2.1997192618e+000	 7.7821383611e-001	 9.0945525279e-001
 2.1914109843e+000	 8.0131122541e-001	 8.3479626653e-001
 2.1828399911e+000	 8.2437342815e-001	 7.5877120868e-001
 2.1740059639e+000	 8.4739615664e-001	 6.8175109326e-001
 2.1649086739e+000	 8.7037509788e-001	 6.0411681029e-001
 2.1555479833e+000	 8.9330591575e-001	 5.2625421183e-001
 2.1459238455e+000	 9.1618425334e-001	 4.4854978045e-001
 1.9006985296e+000	 8.1148735391e-001	 6.5190089637e-001
 1.8919422205e+000	 8.3169788466e-001	 5.7170560307e-001
 1.8829528065e+000	 8.5185418521e-001	 4.9114147837e-001
 1.8737304971e+000	 8.7195235673e-001	 4.0981961142e-001
 1.8642755859e+000	 8.9198849053e-001	 3.2741982453e-001
 1.8545884519e+000	 9.1195867032e-001	 2.4369092806e-001
 1.8446695596e+000	 9.3185897448e-001	 1.5845100489e-001
 1.8345194597e+000	 9.5168547831e-001	 7.1587726744e-002
 1.8241387894e+000	 9.7143425637e-001	-1.6941296677e-002
 1.8135282730e+000	 9.9110138481e-001	-1.0710813633e-001
 1.8026887218e+000	 1.0106829438e+000	-1.9881655554e-001
 1.9252210612e+000	 8.2195704385e-001	 6.3712858447e-001
 1.9163517795e+000	 8.4242832788e-001	 5.5754005635e-001
 1.9072463854e+000	 8.6284468205e-001	 4.7792910850e-001
 1.8979050911e+000	 8.8320215720e-001	 3.9781308812e-001
 1.8883281941e+000	 9.0349679424e-001	 3.1677933813e-001
 1.8785160781e+000	 9.2372462635e-001	 2.3448558230e-001
 1.8684692137e+000	 9.4388168129e-001	 1.5066035876e-001
 1.8581881587e+000	 9.6396398374e-001	 6.5103504471e-002
 1.8476735586e+000	 9.8396755761e-001	-2.2313308702e-002
 1.8369261468e+000	 1.0038884284e+000	-1.1164598715e-001
 1.8259467454e+000	 1.0237226258e+000	-2.0287961997e-001
 1.9497435928e+000	 8.3242673380e-001	 6.1675527730e-001
 1.9407613385e+000	 8.5315877110e-001	 5.3866940916e-001
 1.9315399643e+000	 8.7383517888e-001	 4.6075192098e-001
 1.9220796851e+000	 8.9445195768e-001	 3.8245497335e-001
 1.9123808022e+000	 9.1500509795e-001	 3.0330178611e-001
 1.9024437043e+000	 9.3549058237e-001	 2.2288710610e-001
 1.8922688678e+000	 9.5590438809e-001	 1.4087774371e-001
 1.8818568577e+000	 9.7624248917e-001	 5.7013180616e-002
 1.8712083277e+000	 9.9650085886e-001	-2.8893750265e-002
 1.8603240206e+000	 1.0166754721e+000	-1.1695878634e-001
 1.8492047689e+000	 1.0367623078e+000	-2.0721410415e-001
 1.9742661244e+000	 8.4289642374e-001	 5.9101754651e-001
 1.9651708975e+000	 8.6388921433e-001	 5.1532354031e-001
 1.9558335432e+000	 8.8482567572e-001	 4.3982755587e-001
 1.9462542791e+000	 9.0570175815e-001	 3.6394425382e-001
 1.9364334104e+000	 9.2651340167e-001	 2.8716020129e-001
 1.9263713305e+000	 9.4725653839e-001	 2.0903437583e-001
 1.9160685219e+000	 9.6792709490e-001	 1.2919875992e-001
 1.9055255567e+000	 9.8852099460e-001	 4.7359028752e-002
 1.8947430968e+000	 1.0090341601e+000	-3.6704668020e-002
 1.8837218945e+000	 1.0294625157e+000	-1.2313929085e-001
 1.8724627925e+000	 1.0498019898e+000	-2.1200750498e-001
 1.9987886560e+000	 8.5336611368e-001	 5.6010360847e-001
 1.9895804564e+000	 8.7461965755e-001	 4.8768167405e-001
 1.9801271221e+000	 8.9581617255e-001	 4.1532116560e-001
 1.9704288732e+000	 9.1695155863e-001	 3.4242610482e-001
 1.9604860185e+000	 9.3802170538e-001	 2.6847303272e-001
 1.9502989566e+000	 9.5902249441e-001	 1.9301150430e-001
 1.9398681760e+000	 9.7994980170e-001	 1.1566469722e-001
 1.9291942557e+000	 1.0007995000e+000	 3.6130137282e-002
 1.9182778660e+000	 1.0215674613e+000	-4.5822415267e-002
 1.9071197683e+000	 1.0422495593e+000	-1.3033746179e-001
 1.8957208160e+000	 1.0628416718e+000	-2.1749271899e-001
 2.0233111876e+000	 8.6383580362e-001	 5.3036440068e-001
 2.0139900154e+000	 8.8535010078e-001	 4.5793507269e-001
 2.0044207010e+000	 9.0680666939e-001	 3.8753549484e-001
 1.9946034672e+000	 9.2820135910e-001	 3.1799393254e-001
 1.9845386267e+000	 9.4953000909e-001	 2.4730645022e-001
 1.9742265828e+000	 9.7078845043e-001	 1.7485038347e-001
 1.9636678301e+000	 9.9197250851e-001	 1.0026528840e-001
 1.9528629547e+000	 1.0130780055e+000	 2.3261783572e-002
 1.9418126351e+000	 1.0341007626e+000	-5.6362498817e-002
 1.9305176421e+000	 1.0550366030e+000	-1.3874596100e-001
 1.9189788395e+000	 1.0758813538e+000	-2.2394478256e-001
 2.0478337192e+000	 8.7430549357e-001	 5.0802905457e-001
 2.0383995744e+000	 8.9608054400e-001	 4.3459444773e-001
 2.0287142799e+000	 9.1779716623e-001	 3.6339020392e-001
 2.0187780612e+000	 9.3945115958e-001	 2.9354408551e-001
 2.0085912348e+000	 9.6103831281e-001	 2.2420708330e-001
 1.9981542090e+000	 9.8255440646e-001	 1.5453328893e-001
 1.9874674842e+000	 1.0039952153e+000	 8.2941521447e-002
 1.9765316538e+000	 1.0253565109e+000	 8.6529381503e-003
 1.9653474042e+000	 1.0466340638e+000	-6.8494912835e-002
 1.9539155159e+000	 1.0678236466e+000	-1.4859977204e-001
 1.9422368631e+000	 1.0889210358e+000	-2.3167753999e-001
 2.0723562508e+000	 8.8477518351e-001	 4.9095502428e-001
 2.0628091334e+000	 9.0681098723e-001	 4.1666399540e-001
 2.0530078588e+000	 9.2878766306e-001	 3.4468899984e-001
 2.0429526552e+000	 9.5070096006e-001	 2.7422705462e-001
 2.0326438430e+000	 9.7254661652e-001	 2.0449430652e-001
 2.0220818352e+000	 9.9432036248e-001	 1.3472732477e-001
 2.0112671383e+000	 1.0160179221e+000	 6.4180914664e-002
 2.0002003528e+000	 1.0376350163e+000	-7.8527133547e-003
 1.9888821734e+000	 1.0591673651e+000	-8.2428390562e-002
 1.9773133897e+000	 1.0806106902e+000	-1.6017288649e-001
 1.9654948866e+000	 1.1019607178e+000	-2.4104024552e-001
 2.0968787823e+000	 8.9524487345e-001	 4.7690283124e-001
 2.0872186924e+000	 9.1754143045e-001	 4.0186072072e-001
 2.0773014377e+000	 9.3977815990e-001	 3.2910577552e-001
 2.0671272492e+000	 9.6195076053e-001	 2.5792777421e-001
 2.0566964511e+000	 9.8405492023e-001	 1.8763091817e-001
 2.0460094614e+000	 1.0060863185e+000	 1.1753510308e-001
 2.0350667924e+000	 1.0280406289e+000	 4.6974097333e-002
 2.0238690518e+000	 1.0499135217e+000	-2.4686545638e-002
 2.0124169425e+000	 1.0717006663e+000	-9.8071462149e-002
 2.0007112636e+000	 1.0933977339e+000	-1.7377427157e-001
 1.9887529101e+000	 1.1150003998e+000	-2.5241410465e-001
 2.1214013139e+000	 9.0571456340e-001	 4.6356039312e-001
 2.1116282514e+000	 9.2827187367e-001	 3.8783192809e-001
 2.1015950166e+000	 9.5076865673e-001	 3.1424814871e-001
 2.0913018433e+000	 9.7320056100e-001	 2.4221423001e-001
 2.0807490593e+000	 9.9556322394e-001	 1.7114441453e-001
 2.0699370875e+000	 1.0178522745e+000	 1.0045883738e-001
 2.0588664465e+000	 1.0400633357e+000	 2.9604088439e-002
 2.0475377508e+000	 1.0621920272e+000	-4.1974243733e-002
 2.0359517116e+000	 1.0842339676e+000	-1.1480717503e-001
 2.0241091374e+000	 1.1061847775e+000	-1.8940444324e-001
 2.0120109336e+000	 1.1280400818e+000	-2.6625035404e-001
 2.1459238455e+000	 9.1618425334e-001	 4.4854978045e-001
 2.1360378104e+000	 9.3900231690e-001	 3.7216248400e-001
 2.1258885955e+000	 9.6175915357e-001	 2.9766522296e-001
 2.1154764373e+000	 9.8445036148e-001	 2.2460034115e-001
 2.1048016674e+000	 1.0070715277e+000	 1.5251320458e-001
 2.0938647137e+000	 1.0296182305e+000	 8.0949363967e-002
 2.0826661006e+000	 1.0520860425e+000	 9.4734813026e-003
 2.0712064498e+000	 1.0744705326e+000	-6.2355503054e-002
 2.0594864808e+000	 1.0967672688e+000	-1.3496158804e-001
 2.0475070112e+000	 1.1189718211e+000	-2.0875317675e-001
 2.0352689572e+000	 1.1410797639e+000	-2.8411866068e-001
 1.8026887218e+000	 1.0106829438e+000	-1.9881655554e-001
 1.7916193577e+000	 1.0301779370e+000	-2.8889432441e-001
 1.7803227775e+000	 1.0495795149e+000	-3.7467722199e-001
 1.7688000574e+000	 1.0688837832e+000	-4.5674750616e-001
 1.7570523608e+000	 1.0880868613e+000	-5.3560958487e-001
 1.7450809388e+000	 1.1071848845e+000	-6.1168720761e-001
 1.7328871300e+000	 1.1261740068e+000	-6.8532066003e-001
 1.7204723598e+000	 1.1450504030e+000	-7.5676397960e-001
 1.7078381404e+000	 1.1638102713e+000	-8.2618221122e-001
 1.6949860702e+000	 1.1824498355e+000	-8.9364872319e-001
 1.6819178335e+000	 1.2009653480e+000	-9.5914260466e-001
 1.8259467454e+000	 1.0237226258e+000	-2.0287961997e-001
 1.8147345659e+000	 1.0434691405e+000	-2.9279244978e-001
 1.8032922390e+000	 1.0631210347e+000	-3.7858275035e-001
 1.7916208544e+000	 1.0826743639e+000	-4.6078143960e-001
 1.7797215907e+000	 1.1021251972e+000	-5.3984189235e-001
 1.7675957153e+000	 1.1214696203e+000	-6.1613704859e-001
 1.7552445837e+000	 1.1407037375e+000	-6.8995650926e-001
 1.7426696400e+000	 1.1598236741e+000	-7.6150363851e-001
 1.7298724157e+000	 1.1788255794e+000	-8.3089269290e-001
 1.7168545300e+000	 1.1977056286e+000	-8.9814599941e-001
 1.7036176889e+000	 1.2164600255e+000	-9.6319120511e-001
 1.8492047689e+000	 1.0367623078e+000	-2.0721410415e-001
 1.8378497742e+000	 1.0567603441e+000	-2.9642543022e-001
 1.8262617004e+000	 1.0766625546e+000	-3.8168862982e-001
 1.8144416513e+000	 1.0964649445e+000	-4.6347076239e-001
 1.8023908206e+000	 1.1161635331e+000	-5.4216213620e-001
 1.7901104917e+000	 1.1357543561e+000	-6.1807334499e-001
 1.7776020374e+000	 1.1552334681e+000	-6.9143227460e-001
 1.7648669201e+000	 1.1745969453e+000	-7.6238109980e-001
 1.7519066910e+000	 1.1938408876e+000	-8.3097329329e-001
 1.7387229899e+000	 1.2129614217e+000	-8.9717067034e-001
 1.7253175442e+000	 1.2319547029e+000	-9.6084049386e-001
 1.8724627925e+000	 1.0498019898e+000	-2.1200750498e-001
 1.8609649824e+000	 1.0700515476e+000	-3.0008112870e-001
 1.8492311618e+000	 1.0902040744e+000	-3.8439222862e-001
 1.8372624483e+000	 1.1102555251e+000	-4.6533201381e-001
 1.8250600506e+000	 1.1302018690e+000	-5.4321622435e-001
 1.8126252681e+000	 1.1500390919e+000	-6.1828210639e-001
 1.7999594911e+000	 1.1697631988e+000	-6.9068533754e-001
 1.7870642003e+000	 1.1893702164e+000	-7.6049692443e-001
 1.7739409664e+000	 1.2088561958e+000	-8.2770009589e-001
 1.7605914497e+000	 1.2282172147e+000	-8.9218721699e-001
 1.7470173996e+000	 1.2474493804e+000	-9.5375675054e-001
 1.8957208160e+000	 1.0628416718e+000	-2.1749271899e-001
 1.8840801906e+000	 1.0833427511e+000	-3.0408875470e-001
 1.8722006232e+000	 1.1037455942e+000	-3.8712763626e-001
 1.8600832453e+000	 1.1240461058e+000	-4.6691324622e-001
 1.8477292805e+000	 1.1442402050e+000	-5.4367577686e-001
 1.8351400445e+000	 1.1643238277e+000	-6.1756865167e-001
 1.8223169448e+000	 1.1842929294e+000	-6.8866537590e-001
 1.8092614805e+000	 1.2041434875e+000	-7.5695633910e-001
 1.7959752417e+000	 1.2238715039e+000	-8.2234559499e-001
 1.7824599095e+000	 1.2434730078e+000	-8.8464764566e-001
 1.7687172550e+000	 1.2629440579e+000	-9.4358425863e-001
 1.9189788395e+000	 1.0758813538e+000	-2.2394478256e-001
 1.9071953989e+000	 1.0966339547e+000	-3.0881556968e-001
 1.8951700847e+000	 1.1172871140e+000	-3.9036236331e-001
 1.8829040423e+000	 1.1378366864e+000	-4.6879075025e-001
 1.8703985105e+000	 1.1582785409e+000	-5.4423490904e-001
 1.8576548210e+000	 1.1786085635e+000	-6.1675448452e-001
 1.8446743986e+000	 1.1988226600e+000	-6.8633136784e-001
 1.8314587607e+000	 1.2189167586e+000	-7.5286640652e-001
 1.8180095171e+000	 1.2388868121e+000	-8.1617607156e-001
 1.8043283694e+000	 1.2587288009e+000	-8.7598911050e-001
 1.7904171104e+000	 1.2784387354e+000	-9.3194321716e-001
 1.9422368631e+000	 1.0889210358e+000	-2.3167753999e-001
 1.9303106071e+000	 1.1099251582e+000	-3.1466351024e-001
 1.9181395461e+000	 1.1308286339e+000	-3.9459394688e-001
 1.9057248393e+000	 1.1516272671e+000	-4.7156567114e-001
 1.8930677404e+000	 1.1723168768e+000	-5.4560688918e-001
 1.8801695974e+000	 1.1928932993e+000	-6.1667402444e-001
 1.8670318523e+000	 1.2133523907e+000	-6.8464842972e-001
 1.8536560409e+000	 1.2336900297e+000	-7.4933300533e-001
 1.8400437924e+000	 1.2539021203e+000	-8.1044875193e-001
 1.8261968292e+000	 1.2739845939e+000	-8.6763128924e-001
 1.8121169658e+000	 1.2939334128e+000	-9.2042737341e-001
 1.9654948866e+000	 1.1019607178e+000	-2.4104024552e-001
 1.9534258153e+000	 1.1232163617e+000	-3.2206573609e-001
 1.9411090075e+000	 1.1443701537e+000	-4.0034646954e-001
 1.9285456363e+000	 1.1654178477e+000	-4.7586052543e-001
 1.9157369704e+000	 1.1863552127e+000	-5.4852068117e-001
 1.9026843738e+000	 1.2071780351e+000	-6.1817120514e-001
 1.8893893060e+000	 1.2278821213e+000	-6.8458450163e-001
 1.8758533210e+000	 1.2484633008e+000	-7.4745763548e-001
 1.8620780678e+000	 1.2689174284e+000	-8.0640876738e-001
 1.8480652890e+000	 1.2892403870e+000	-8.6097353271e-001
 1.8338168211e+000	 1.3094280903e+000	-9.1060139947e-001
 1.9887529101e+000	 1.1150003998e+000	-2.5241410465e-001
 1.9765410235e+000	 1.1365075653e+000	-3.3148310865e-001
 1.9640784689e+000	 1.1579116735e+000	-4.0816699871e-001
 1.9513664333e+000	 1.1792084284e+000	-4.8231562595e-001
 1.9384062003e+000	 1.2003935486e+000	-5.5371738144e-001
 1.9251991503e+000	 1.2214627709e+000	-6.2209595126e-001
 1.9117467597e+000	 1.2424118520e+000	-6.8710689293e-001
 1.8980506012e+000	 1.2632365720e+000	-7.4833406339e-001
 1.8841123431e+000	 1.2839327366e+000	-8.0528593088e-001
 1.8699337489e+000	 1.3044961801e+000	-8.5739180662e-001
 1.8555166765e+000	 1.3249227678e+000	-9.0399803379e-001
 2.0120109336e+000	 1.1280400818e+000	-2.6625035404e-001
 1.9996562318e+000	 1.1497987688e+000	-3.4340060621e-001
 1.9870479304e+000	 1.1714531933e+000	-4.1862195314e-001
 1.9741872303e+000	 1.1929990090e+000	-4.9158542276e-001
 1.9610754303e+000	 1.2144318846e+000	-5.6194655891e-001
 1.9477139267e+000	 1.2357475067e+000	-6.2930054307e-001
 1.9341042134e+000	 1.2569415826e+000	-6.9317869929e-001
 1.9202478814e+000	 1.2780098431e+000	-7.5304481974e-001
 1.9061466185e+000	 1.2989480448e+000	-8.0829134573e-001
 1.8918022087e+000	 1.3197519731e+000	-8.5823544230e-001
 1.8772165319e+000	 1.3404174452e+000	-9.0222160561e-001
 2.0352689572e+000	 1.1410797639e+000	-2.8411866068e-001
 2.0227714400e+000	 1.1630899723e+000	-3.5929953304e-001
 2.0100173918e+000	 1.1849947132e+000	-4.3256788143e-001
 1.9970080273e+000	 1.2067895896e+000	-5.0433476654e-001
 1.9837446602e+000	 1.2284702205e+000	-5.7396250544e-001
 1.9702287031e+000	 1.2500322424e+000	-6.4063587842e-001
 1.9564616671e+000	 1.2714713133e+000	-7.0375510135e-001
 1.9424451616e+000	 1.2927831142e+000	-7.6265756188e-001
 1.9281808938e+000	 1.3139633529e+000	-8.1661385966e-001
 1.9136706685e+000	 1.3350077662e+000	-8.6482778504e-001
 1.8989163873e+000	 1.3559121227e+000	-9.0690637147e-001
 1.6819178335e+000	 1.2009653480e+000	-9.5914260466e-001
 1.6686351992e+000	 1.2193530910e+000	-1.0252097072e+000
 1.6551400189e+000	 1.2376093784e+000	-1.0933055751e+000
 1.6414342274e+000	 1.2557305588e+000	-1.1616536229e+000
 1.6275198424e+000	 1.2737130187e+000	-1.2284139812e+000
 1.6133989638e+000	 1.2915531845e+000	-1.2916844988e+000
 1.5990737725e+000	 1.3092475249e+000	-1.3495019040e+000
 1.5845465294e+000	 1.3267925536e+000	-1.3998431416e+000
 1.5698195741e+000	 1.3441848306e+000	-1.4416527795e+000
 1.5548953239e+000	 1.3614209657e+000	-1.4763038189e+000
 1.5397762725e+000	 1.3784976194e+000	-1.5012979207e+000
 1.7036176889e+000	 1.2164600255e+000	-9.6319120511e-001
 1.6901636840e+000	 1.2350850044e+000	-1.0290827426e+000
 1.6764943909e+000	 1.2535768317e+000	-1.0976470199e+000
 1.6626117692e+000	 1.2719318089e+000	-1.1668506289e+000
 1.6485178629e+000	 1.2901462759e+000	-1.2345992158e+000
 1.6342147989e+000	 1.3082166128e+000	-1.2987387559e+000
 1.6197047861e+000	 1.3261392431e+000	-1.3570569851e+000
 1.6049901146e+000	 1.3439106350e+000	-1.4081871493e+000
 1.5900731543e+000	 1.3615273047e+000	-1.4532128786e+000
 1.5749563537e+000	 1.3789858178e+000	-1.4894589187e+000
 1.5596422385e+000	 1.3962827920e+000	-1.5138454148e+000
 1.7253175442e+000	 1.2319547029e+000	-9.6084049386e-001
 1.7116921688e+000	 1.2508169178e+000	-1.0255846597e+000
 1.6978487628e+000	 1.2695442851e+000	-1.0937028435e+000
 1.6837893111e+000	 1.2881330591e+000	-1.1629906660e+000
 1.6695158835e+000	 1.3065795330e+000	-1.2311838165e+000
 1.6550306339e+000	 1.3248800412e+000	-1.2959594236e+000
 1.6403357996e+000	 1.3430309612e+000	-1.3556339083e+000
 1.6254336998e+000	 1.3610287165e+000	-1.4110660461e+000
 1.6103267345e+000	 1.3788697788e+000	-1.4595426818e+000
 1.5950173834e+000	 1.3965506700e+000	-1.4978290406e+000
 1.5795082045e+000	 1.4140679646e+000	-1.5227206164e+000
 1.7470173996e+000	 1.2474493804e+000	-9.5375675054e-001
 1.7332206536e+000	 1.2665488313e+000	-1.0165727072e+000
 1.7192031348e+000	 1.2855117384e+000	-1.0834838083e+000
 1.7049668530e+000	 1.3043343092e+000	-1.1521975036e+000
 1.6905139040e+000	 1.3230127902e+000	-1.2203610308e+000
 1.6758464690e+000	 1.3415434695e+000	-1.2860168606e+000
 1.6609668132e+000	 1.3599226793e+000	-1.3498113552e+000
 1.6458772850e+000	 1.3781467980e+000	-1.4091477048e+000
 1.6305803147e+000	 1.3962122529e+000	-1.4607062978e+000
 1.6150784131e+000	 1.4141155221e+000	-1.5011967957e+000
 1.5993741704e+000	 1.4318531372e+000	-1.5273629011e+000
 1.7687172550e+000	 1.2629440579e+000	-9.4358425863e-001
 1.7547491384e+000	 1.2822807447e+000	-1.0038731900e+000
 1.7405575068e+000	 1.3014791917e+000	-1.0689626860e+000
 1.7261443948e+000	 1.3205355593e+000	-1.1365519441e+000
 1.7115119245e+000	 1.3394460474e+000	-1.2045051898e+000
 1.6966623040e+000	 1.3582068979e+000	-1.2732090448e+000
 1.6815978267e+000	 1.3768143974e+000	-1.3403531022e+000
 1.6663208702e+000	 1.3952648795e+000	-1.4026064968e+000
 1.6508338949e+000	 1.4135547269e+000	-1.4566644966e+000
 1.6351394428e+000	 1.4316803742e+000	-1.4992533534e+000
 1.6192401364e+000	 1.4496383098e+000	-1.5271351007e+000
 1.7904171104e+000	 1.2784387354e+000	-9.3194321716e-001
 1.7762776232e+000	 1.2980126581e+000	-9.8927964048e-001
 1.7619118787e+000	 1.3174466451e+000	-1.0520725799e+000
 1.7473219367e+000	 1.3367368095e+000	-1.1181529885e+000
 1.7325099451e+000	 1.3558793046e+000	-1.1875484744e+000
 1.7174781390e+000	 1.3748703262e+000	-1.2584138770e+000
 1.7022288403e+000	 1.3937061155e+000	-1.3274833032e+000
 1.6867644554e+000	 1.4123829610e+000	-1.3915121574e+000
 1.6710874751e+000	 1.4308972010e+000	-1.4472819342e+000
 1.6552004726e+000	 1.4492452264e+000	-1.4916049727e+000
 1.6391061023e+000	 1.4674234824e+000	-1.5213291540e+000
 1.8121169658e+000	 1.2939334128e+000	-9.2042737341e-001
 1.7978061080e+000	 1.3137445715e+000	-9.7455068101e-001
 1.7832662507e+000	 1.3334140984e+000	-1.0347049772e+000
 1.7684994786e+000	 1.3529380596e+000	-1.1004312842e+000
 1.7535079656e+000	 1.3723125617e+000	-1.1705225000e+000
 1.7382939741e+000	 1.3915337546e+000	-1.2418557202e+000
 1.7228598538e+000	 1.4105978337e+000	-1.3113232562e+000
 1.7072080406e+000	 1.4295010425e+000	-1.3758372260e+000
 1.6913410553e+000	 1.4482396751e+000	-1.4323341212e+000
 1.6752615023e+000	 1.4668100785e+000	-1.4777793331e+000
 1.6589720683e+000	 1.4852086550e+000	-1.5091716224e+000
 1.8338168211e+000	 1.3094280903e+000	-9.1060139947e-001
 1.8193345928e+000	 1.3294764849e+000	-9.6140760274e-001
 1.8046206227e+000	 1.3493815518e+000	-1.0196173367e+000
 1.7896770205e+000	 1.3691393097e+000	-1.0846332039e+000
 1.7745059861e+000	 1.3887458189e+000	-1.1536117245e+000
 1.7591098091e+000	 1.4081971829e+000	-1.2236602874e+000
 1.7434908673e+000	 1.4274895518e+000	-1.2918988586e+000
 1.7276516258e+000	 1.4466191240e+000	-1.3554642153e+000
 1.7115946355e+000	 1.4655821492e+000	-1.4115141573e+000
 1.6953225320e+000	 1.4843749307e+000	-1.4572316777e+000
 1.6788380342e+000	 1.5029938276e+000	-1.4898290802e+000
 1.8555166765e+000	 1.3249227678e+000	-9.0399803379e-001
 1.8408630775e+000	 1.3452083983e+000	-9.5193047702e-001
 1.8259749946e+000	 1.3653490051e+000	-1.0083459223e+000
 1.8108545623e+000	 1.3853405599e+000	-1.0708713713e+000
 1.7955040066e+000	 1.4051790761e+000	-1.1369080318e+000
 1.7799256442e+000	 1.4248606113e+000	-1.2038619548e+000
 1.7641218809e+000	 1.4443812699e+000	-1.2691477894e+000
 1.7480952110e+000	 1.4637372054e+000	-1.3301925311e+000
 1.7318482157e+000	 1.4829246232e+000	-1.3844392510e+000
 1.7153835617e+000	 1.5019397828e+000	-1.4293507881e+000
 1.6987040002e+000	 1.5207790002e+000	-1.4624133908e+000
 1.8772165319e+000	 1.3404174452e+000	-9.0222160561e-001
 1.8623915623e+000	 1.3609403118e+000	-9.4784727066e-001
 1.8473293666e+000	 1.3813164584e+000	-1.0009066658e+000
 1.8320321042e+000	 1.4015418100e+000	-1.0591733145e+000
 1.8165020272e+000	 1.4216123332e+000	-1.1204177841e+000
 1.8007414792e+000	 1.4415240397e+000	-1.1824108109e+000
 1.7847528944e+000	 1.4612729880e+000	-1.2429264396e+000
 1.7685387962e+000	 1.4808552869e+000	-1.2997451621e+000
 1.7521017959e+000	 1.5002670973e+000	-1.3506570409e+000
 1.7354445915e+000	 1.5195046350e+000	-1.3934648013e+000
 1.7185699662e+000	 1.5385641728e+000	-1.4259868787e+000
 1.8989163873e+000	 1.3559121227e+000	-9.0690637147e-001
 1.8839200471e+000	 1.3766722252e+000	-9.4911592257e-001
 1.8686837386e+000	 1.3972839118e+000	-9.9723888655e-001
 1.8532096461e+000	 1.4177430601e+000	-1.0494881678e+000
 1.8375000477e+000	 1.4380455904e+000	-1.1040686269e+000
 1.8215573143e+000	 1.4581874680e+000	-1.1591794621e+000
 1.8053839080e+000	 1.4781647061e+000	-1.2130166117e+000
 1.7889823814e+000	 1.4979733684e+000	-1.2637751600e+000
 1.7723553761e+000	 1.5176095714e+000	-1.3096517354e+000
 1.7555056212e+000	 1.5370694871e+000	-1.3488468835e+000
 1.7384359321e+000	 1.5563493455e+000	-1.3795674040e+000
 1.5397762725e+000	 1.3784976194e+000	-1.5012979207e+000
 1.5244672996e+000	 1.3954089816e+000	-1.5253644113e+000
 1.5089687939e+000	 1.4121543980e+000	-1.5575527565e+000
 1.4932834697e+000	 1.4287306986e+000	-1.5954767207e+000
 1.4774141115e+000	 1.4451347731e+000	-1.6367623936e+000
 1.4613635726e+000	 1.4613635726e+000	-1.6790518135e+000
 1.4451347731e+000	 1.4774141115e+000	-1.7200065421e+000
 1.4287306986e+000	 1.4932834697e+000	-1.7573111824e+000
 1.4121543980e+000	 1.5089687939e+000	-1.7886768307e+000
 1.3954089816e+000	 1.5244672996e+000	-1.8118444556e+000
 1.3784976194e+000	 1.5397762725e+000	-1.8245881972e+000
 1.5596422385e+000	 1.3962827920e+000	-1.5138454148e+000
 1.5441357515e+000	 1.4134123421e+000	-1.5348307988e+000
 1.5284372864e+000	 1.4303738054e+000	-1.5617084241e+000
 1.5125495924e+000	 1.4471639710e+000	-1.5926664868e+000
 1.4964754901e+000	 1.4637796884e+000	-1.6258988087e+000
 1.4802178695e+000	 1.4802178695e+000	-1.6596074358e+000
 1.4637796884e+000	 1.4964754901e+000	-1.6920051976e+000
 1.4471639710e+000	 1.5125495924e+000	-1.7213182206e+000
 1.4303738054e+000	 1.5284372864e+000	-1.7457883892e+000
 1.4134123421e+000	 1.5441357515e+000	-1.7636757504e+000
 1.3962827920e+000	 1.5596422385e+000	-1.7732608537e+000
 1.5795082045e+000	 1.4140679646e+000	-1.5227206164e+000
 1.5638042033e+000	 1.4314157026e+000	-1.5422807592e+000
 1.5479057788e+000	 1.4485932128e+000	-1.5657979071e+000
 1.5318157151e+000	 1.4655972434e+000	-1.5919218631e+000
 1.5155368687e+000	 1.4824246038e+000	-1.6193024552e+000
 1.4990721664e+000	 1.4990721664e+000	-1.6465912975e+000
 1.4824246038e+000	 1.5155368687e+000	-1.6724435200e+000
 1.4655972434e+000	 1.5318157151e+000	-1.6955194602e+000
 1.4485932128e+000	 1.5479057788e+000	-1.7144863135e+000
 1.4314157026e+000	 1.5638042033e+000	-1.7280197364e+000
 1.4140679646e+000	 1.5795082045e+000	-1.7348054012e+000
 1.5993741704e+000	 1.4318531372e+000	-1.5273629011e+000
 1.5834726552e+000	 1.4494190631e+000	-1.5467918347e+000
 1.5673742712e+000	 1.4668126202e+000	-1.5685660118e+000
 1.5510818378e+000	 1.4840305158e+000	-1.5916881652e+000
 1.5345982472e+000	 1.5010695191e+000	-1.6151565231e+000
 1.5179264632e+000	 1.5179264632e+000	-1.6379659179e+000
 1.5010695191e+000	 1.5345982472e+000	-1.6591088670e+000
 1.4840305158e+000	 1.5510818378e+000	-1.6775766226e+000
 1.4668126202e+000	 1.5673742712e+000	-1.6923601853e+000
 1.4494190631e+000	 1.5834726552e+000	-1.7024512793e+000
 1.4318531372e+000	 1.5993741704e+000	-1.7068432875e+000
 1.6192401364e+000	 1.4496383098e+000	-1.5271351007e+000
 1.6031411070e+000	 1.4674224236e+000	-1.5473808062e+000
 1.5868427636e+000	 1.4850320276e+000	-1.5687111071e+000
 1.5703479605e+000	 1.5024637881e+000	-1.5903769330e+000
 1.5536596258e+000	 1.5197144344e+000	-1.6116212254e+000
 1.5367807601e+000	 1.5367807601e+000	-1.6316795742e+000
 1.5197144344e+000	 1.5536596258e+000	-1.6497808290e+000
 1.5024637881e+000	 1.5703479605e+000	-1.6651476804e+000
 1.4850320276e+000	 1.5868427636e+000	-1.6769972098e+000
 1.4674224236e+000	 1.6031411070e+000	-1.6845414034e+000
 1.4496383098e+000	 1.6192401364e+000	-1.6869876319e+000
 1.6391061023e+000	 1.4674234824e+000	-1.5213291540e+000
 1.6228095589e+000	 1.4854257841e+000	-1.5430084013e+000
 1.6063112560e+000	 1.5032514350e+000	-1.5648889714e+000
 1.5896140832e+000	 1.5208970605e+000	-1.5863690099e+000
 1.5727210044e+000	 1.5383593497e+000	-1.6068362133e+000
 1.5556350570e+000	 1.5556350570e+000	-1.6256681710e+000
 1.5383593497e+000	 1.5727210044e+000	-1.6422326804e+000
 1.5208970605e+000	 1.5896140832e+000	-1.6558880325e+000
 1.5032514350e+000	 1.6063112560e+000	-1.6659832648e+000
 1.4854257841e+000	 1.6228095589e+000	-1.6718583794e+000
 1.4674234824e+000	 1.6391061023e+000	-1.6728445270e+000
 1.6589720683e+000	 1.4852086550e+000	-1.5091716224e+000
 1.6424780107e+000	 1.5034291446e+000	-1.5325839385e+000
 1.6257797485e+000	 1.5214708424e+000	-1.5557166397e+000
 1.6088802058e+000	 1.5393303329e+000	-1.5780176789e+000
 1.5917823829e+000	 1.5570042650e+000	-1.5989230997e+000
 1.5744893539e+000	 1.5744893539e+000	-1.6178572576e+000
 1.5570042650e+000	 1.5917823829e+000	-1.6342330114e+000
 1.5393303329e+000	 1.6088802058e+000	-1.6474518794e+000
 1.5214708424e+000	 1.6257797485e+000	-1.6569041614e+000
 1.5034291446e+000	 1.6424780107e+000	-1.6619690215e+000
 1.4852086550e+000	 1.6589720683e+000	-1.6620145328e+000
 1.6788380342e+000	 1.5029938276e+000	-1.4898290802e+000
 1.6621464626e+000	 1.5214325051e+000	-1.5149699109e+000
 1.6452482409e+000	 1.5396902497e+000	-1.5397762506e+000
 1.6281463285e+000	 1.5577636052e+000	-1.5636518518e+000
 1.6108437615e+000	 1.5756491803e+000	-1.5859880795e+000
 1.5933436508e+000	 1.5933436508e+000	-1.6061641817e+000
 1.5756491803e+000	 1.6108437615e+000	-1.6235475239e+000
 1.5577636052e+000	 1.6281463285e+000	-1.6374937828e+000
 1.5396902497e+000	 1.6452482409e+000	-1.6473470973e+000
 1.5214325051e+000	 1.6621464626e+000	-1.6524401745e+000
 1.5029938276e+000	 1.6788380342e+000	-1.6520943493e+000
 1.6987040002e+000	 1.5207790002e+000	-1.4624133908e+000
 1.6818149144e+000	 1.5394358656e+000	-1.4889865161e+000
 1.6647167333e+000	 1.5579096571e+000	-1.5156188921e+000
 1.6474124512e+000	 1.5761968776e+000	-1.5415793059e+000
 1.6299051401e+000	 1.5942940957e+000	-1.5661246413e+000
 1.6121979477e+000	 1.6121979477e+000	-1.5885003670e+000
 1.5942940957e+000	 1.6299051401e+000	-1.6079409791e+000
 1.5761968776e+000	 1.6474124512e+000	-1.6236703938e+000
 1.5579096571e+000	 1.6647167333e+000	-1.6349022870e+000
 1.5394358656e+000	 1.6818149144e+000	-1.6408403771e+000
 1.5207790002e+000	 1.6987040002e+000	-1.6406786506e+000
 1.7185699662e+000	 1.5385641728e+000	-1.4259868787e+000
 1.7014833663e+000	 1.5574392261e+000	-1.4534161345e+000
 1.6841852257e+000	 1.5761290645e+000	-1.4817684478e+000
 1.6666785739e+000	 1.5946301500e+000	-1.5100899652e+000
 1.6489665187e+000	 1.6129390110e+000	-1.5374163606e+000
 1.6310522446e+000	 1.6310522446e+000	-1.5627737059e+000
 1.6129390110e+000	 1.6489665187e+000	-1.5851792834e+000
 1.5946301500e+000	 1.6666785739e+000	-1.6036423372e+000
 1.5761290645e+000	 1.6841852257e+000	-1.6171647560e+000
 1.5574392261e+000	 1.7014833663e+000	-1.6247416860e+000
 1.5385641728e+000	 1.7185699662e+000	-1.6253620694e+000
 1.7384359321e+000	 1.5563493455e+000	-1.3795674040e+000
 1.7211518181e+000	 1.5754425866e+000	-1.4070077630e+000
 1.7036537181e+000	 1.5943484719e+000	-1.4367254431e+000
 1.6859446966e+000	 1.6130634224e+000	-1.4674592229e+000
 1.6680278972e+000	 1.6315839263e+000	-1.4979397705e+000
 1.6499065415e+000	 1.6499065415e+000	-1.5268910577e+000
 1.6315839263e+000	 1.6680278972e+000	-1.5530317031e+000
 1.6130634224e+000	 1.6859446966e+000	-1.5750762375e+000
 1.5943484719e+000	 1.7036537181e+000	-1.5917362839e+000
 1.5754425866e+000	 1.7211518181e+000	-1.6017216485e+000
 1.5563493455e+000	 1.7384359321e+000	-1.6037413188e+000
 1.3784976194e+000	 1.5397762725e+000	-1.8245881972e+000
 1.3614209657e+000	 1.5548953239e+000	-1.8314290293e+000
 1.3441848306e+000	 1.5698195741e+000	-1.8373823897e+000
 1.3267925536e+000	 1.5845465294e+000	-1.8414493774e+000
 1.3092475249e+000	 1.5990737725e+000	-1.8467627036e+000
 1.2915531845e+000	 1.6133989638e+000	-1.8524981358e+000
 1.2737130187e+000	 1.6275198424e+000	-1.8564730769e+000
 1.2557305588e+000	 1.6414342274e+000	-1.8564834345e+000
 1.2376093784e+000	 1.6551400189e+000	-1.8503112538e+000
 1.2193530910e+000	 1.6686351992e+000	-1.8357323853e+000
 1.2009653480e+000	 1.6819178335e+000	-1.8105241584e+000
 1.3962827920e+000	 1.5596422385e+000	-1.7732608537e+000
 1.3789858178e+000	 1.5749563537e+000	-1.7790677147e+000
 1.3615273047e+000	 1.5900731543e+000	-1.7857000928e+000
 1.3439106350e+000	 1.6049901146e+000	-1.7915742854e+000
 1.3261392431e+000	 1.6197047861e+000	-1.7955716492e+000
 1.3082166128e+000	 1.6342147989e+000	-1.8001221052e+000
 1.2901462759e+000	 1.6485178629e+000	-1.8038919669e+000
 1.2719318089e+000	 1.6626117692e+000	-1.8044382913e+000
 1.2535768317e+000	 1.6764943909e+000	-1.7992994412e+000
 1.2350850044e+000	 1.6901636840e+000	-1.7860033433e+000
 1.2164600255e+000	 1.7036176889e+000	-1.7620757554e+000
 1.4140679646e+000	 1.5795082045e+000	-1.7348054012e+000
 1.3965506700e+000	 1.5950173834e+000	-1.7394127181e+000
 1.3788697788e+000	 1.6103267345e+000	-1.7461688250e+000
 1.3610287165e+000	 1.6254336998e+000	-1.7534006270e+000
 1.3430309612e+000	 1.6403357996e+000	-1.7594298303e+000
 1.3248800412e+000	 1.6550306339e+000	-1.7630958398e+000
 1.3065795330e+000	 1.6695158835e+000	-1.7660175386e+000
 1.2881330591e+000	 1.6837893111e+000	-1.7662947897e+000
 1.2695442851e+000	 1.6978487628e+000	-1.7612576366e+000
 1.2508169178e+000	 1.7116921688e+000	-1.7482215183e+000
 1.2319547029e+000	 1.7253175442e+000	-1.7244960700e+000
 1.4318531372e+000	 1.5993741704e+000	-1.7068432875e+000
 1.4141155221e+000	 1.6150784131e+000	-1.7101736473e+000
 1.3962122529e+000	 1.6305803147e+000	-1.7166047655e+000
 1.3781467980e+000	 1.6458772850e+000	-1.7244128220e+000
 1.3599226793e+000	 1.6609668132e+000	-1.7318663302e+000
 1.3415434695e+000	 1.6758464690e+000	-1.7372281710e+000
 1.3230127902e+000	 1.6905139040e+000	-1.7393356829e+000
 1.3043343092e+000	 1.7049668530e+000	-1.7388208523e+000
 1.2855117384e+000	 1.7192031348e+000	-1.7332490491e+000
 1.2665488313e+000	 1.7332206536e+000	-1.7197571416e+000
 1.2474493804e+000	 1.7470173996e+000	-1.6954725736e+000
 1.4496383098e+000	 1.6192401364e+000	-1.6869876319e+000
 1.4316803742e+000	 1.6351394428e+000	-1.6890452449e+000
 1.4135547269e+000	 1.6508338949e+000	-1.6948017849e+000
 1.3952648795e+000	 1.6663208702e+000	-1.7025201393e+000
 1.3768143974e+000	 1.6815978267e+000	-1.7104535895e+000
 1.3582068979e+000	 1.6966623040e+000	-1.7168478010e+000
 1.3394460474e+000	 1.7115119245e+000	-1.7199427828e+000
 1.3205355593e+000	 1.7261443948e+000	-1.7185388517e+000
 1.3014791917e+000	 1.7405575068e+000	-1.7120814265e+000
 1.2822807447e+000	 1.7547491384e+000	-1.6977146557e+000
 1.2629440579e+000	 1.7687172550e+000	-1.6724162834e+000
 1.4674234824e+000	 1.6391061023e+000	-1.6728445270e+000
 1.4492452264e+000	 1.6552004726e+000	-1.6737090192e+000
 1.4308972010e+000	 1.6710874751e+000	-1.6785334515e+000
 1.4123829610e+000	 1.6867644554e+000	-1.6856036845e+000
 1.3937061155e+000	 1.7022288403e+000	-1.6931945554e+000
 1.3748703262e+000	 1.7174781390e+000	-1.6995717562e+000
 1.3558793046e+000	 1.7325099451e+000	-1.7029936758e+000
 1.3367368095e+000	 1.7473219367e+000	-1.7017132084e+000
 1.3174466451e+000	 1.7619118787e+000	-1.6943184766e+000
 1.2980126581e+000	 1.7762776232e+000	-1.6789446324e+000
 1.2784387354e+000	 1.7904171104e+000	-1.6524741848e+000
 1.4852086550e+000	 1.6589720683e+000	-1.6620145328e+000
 1.4668100785e+000	 1.6752615023e+000	-1.6618350441e+000
 1.4482396751e+000	 1.6913410553e+000	-1.6655551804e+000
 1.4295010425e+000	 1.7072080406e+000	-1.6715189360e+000
 1.4105978337e+000	 1.7228598538e+000	-1.6780583838e+000
 1.3915337546e+000	 1.7382939741e+000	-1.6834953718e+000
 1.3723125617e+000	 1.7535079656e+000	-1.6861431799e+000
 1.3529380596e+000	 1.7684994786e+000	-1.6843081382e+000
 1.3334140984e+000	 1.7832662507e+000	-1.6762912075e+000
 1.3137445715e+000	 1.7978061080e+000	-1.6600555628e+000
 1.2939334128e+000	 1.8121169658e+000	-1.6325414793e+000
 1.5029938276e+000	 1.6788380342e+000	-1.6520943493e+000
 1.4843749307e+000	 1.6953225320e+000	-1.6510839147e+000
 1.4655821492e+000	 1.7115946355e+000	-1.6536065125e+000
 1.4466191240e+000	 1.7276516258e+000	-1.6580983841e+000
 1.4274895518e+000	 1.7434908673e+000	-1.6629834689e+000
 1.4081971829e+000	 1.7591098091e+000	-1.6666748507e+000
 1.3887458189e+000	 1.7745059861e+000	-1.6675761600e+000
 1.3691393097e+000	 1.7896770205e+000	-1.6640829317e+000
 1.3493815518e+000	 1.8046206227e+000	-1.6545839230e+000
 1.3294764849e+000	 1.8193345928e+000	-1.6374255295e+000
 1.3094280903e+000	 1.8338168211e+000	-1.6092736730e+000
 1.5207790002e+000	 1.6987040002e+000	-1.6406786506e+000
 1.5019397828e+000	 1.7153835617e+000	-1.6391088460e+000
 1.4829246232e+000	 1.7318482157e+000	-1.6404135126e+000
 1.4637372054e+000	 1.7480952110e+000	-1.6431542625e+000
 1.4443812699e+000	 1.7641218809e+000	-1.6458805396e+000
 1.4248606113e+000	 1.7799256442e+000	-1.6471307500e+000
 1.4051790761e+000	 1.7955040066e+000	-1.6454333409e+000
 1.3853405599e+000	 1.8108545623e+000	-1.6393078293e+000
 1.3653490051e+000	 1.8259749946e+000	-1.6272657858e+000
 1.3452083983e+000	 1.8408630775e+000	-1.6078117777e+000
 1.3249227678e+000	 1.8555166765e+000	-1.5790985184e+000
 1.5385641728e+000	 1.7185699662e+000	-1.6253620694e+000
 1.5195046350e+000	 1.7354445915e+000	-1.6235579018e+000
 1.5002670973e+000	 1.7521017959e+000	-1.6236912786e+000
 1.4808552869e+000	 1.7685387962e+000	-1.6244813670e+000
 1.4612729880e+000	 1.7847528944e+000	-1.6246358147e+000
 1.4415240397e+000	 1.8007414792e+000	-1.6228514977e+000
 1.4216123332e+000	 1.8165020272e+000	-1.6178152078e+000
 1.4015418100e+000	 1.8320321042e+000	-1.6082042843e+000
 1.3813164584e+000	 1.8473293666e+000	-1.5926871944e+000
 1.3609403118e+000	 1.8623915623e+000	-1.5699240686e+000
 1.3404174452e+000	 1.8772165319e+000	-1.5385671980e+000
 1.5563493455e+000	 1.7384359321e+000	-1.6037413188e+000
 1.5370694871e+000	 1.7555056212e+000	-1.6020763455e+000
 1.5176095714e+000	 1.7723553761e+000	-1.6011465505e+000
 1.4979733684e+000	 1.7889823814e+000	-1.5998599525e+000
 1.4781647061e+000	 1.8053839080e+000	-1.5971142137e+000
 1.4581874680e+000	 1.8215573143e+000	-1.5917969392e+000
 1.4380455904e+000	 1.8375000477e+000	-1.5827859076e+000
 1.4177430601e+000	 1.8532096461e+000	-1.5689492369e+000
 1.3972839118e+000	 1.8686837386e+000	-1.5491454929e+000
 1.3766722252e+000	 1.8839200471e+000	-1.5222237469e+000
 1.3559121227e+000	 1.8989163873e+000	-1.4870235924e+000
 1.2009653480e+000	 1.6819178335e+000	-1.8105241584e+000
 1.1824498355e+000	 1.6949860702e+000	-1.7822682276e+000
 1.1638102713e+000	 1.7078381404e+000	-1.7587514616e+000
 1.1450504030e+000	 1.7204723598e+000	-1.7381042876e+000
 1.1261740068e+000	 1.7328871300e+000	-1.7185155403e+000
 1.1071848845e+000	 1.7450809388e+000	-1.6982393846e+000
 1.0880868613e+000	 1.7570523608e+000	-1.6756020577e+000
 1.0688837832e+000	 1.7688000574e+000	-1.6490084098e+000
 1.0495795149e+000	 1.7803227775e+000	-1.6169482269e+000
 1.0301779370e+000	 1.7916193577e+000	-1.5780023208e+000
 1.0106829438e+000	 1.8026887218e+000	-1.5308483684e+000
 1.2164600255e+000	 1.7036176889e+000	-1.7620757554e+000
 1.1977056286e+000	 1.7168545300e+000	-1.7353682399e+000
 1.1788255794e+000	 1.7298724157e+000	-1.7140049306e+000
 1.1598236741e+000	 1.7426696400e+000	-1.6959620156e+000
 1.1407037375e+000	 1.7552445837e+000	-1.6792726406e+000
 1.1214696203e+000	 1.7675957153e+000	-1.6620342218e+000
 1.1021251972e+000	 1.7797215907e+000	-1.6424155725e+000
 1.0826743639e+000	 1.7916208544e+000	-1.6186638257e+000
 1.0631210347e+000	 1.8032922390e+000	-1.5891111339e+000
 1.0434691405e+000	 1.8147345659e+000	-1.5521811298e+000
 1.0237226258e+000	 1.8259467454e+000	-1.5063951333e+000
 1.2319547029e+000	 1.7253175442e+000	-1.7244960700e+000
 1.2129614217e+000	 1.7387229899e+000	-1.6982349935e+000
 1.1938408876e+000	 1.7519066910e+000	-1.6779172014e+000
 1.1745969453e+000	 1.7648669201e+000	-1.6613770744e+000
 1.1552334681e+000	 1.7776020374e+000	-1.6465032720e+000
 1.1357543561e+000	 1.7901104917e+000	-1.6312464205e+000
 1.1161635331e+000	 1.8023908206e+000	-1.6136266143e+000
 1.0964649445e+000	 1.8144416513e+000	-1.5917407103e+000
 1.0766625546e+000	 1.8262617004e+000	-1.5637693969e+000
 1.0567603441e+000	 1.8378497742e+000	-1.5279840217e+000
 1.0367623078e+000	 1.8492047689e+000	-1.4827531610e+000
 1.2474493804e+000	 1.7470173996e+000	-1.6954725736e+000
 1.2282172147e+000	 1.7605914497e+000	-1.6688669870e+000
 1.2088561958e+000	 1.7739409664e+000	-1.6487757148e+000
 1.1893702164e+000	 1.7870642003e+000	-1.6329031098e+000
 1.1697631988e+000	 1.7999594911e+000	-1.6190039239e+000
 1.1500390919e+000	 1.8126252681e+000	-1.6048913598e+000
 1.1302018690e+000	 1.8250600506e+000	-1.5884449343e+000
 1.1102555251e+000	 1.8372624483e+000	-1.5676181354e+000
 1.0902040744e+000	 1.8492311618e+000	-1.5404458523e+000
 1.0700515476e+000	 1.8609649824e+000	-1.5050515640e+000
 1.0498019898e+000	 1.8724627925e+000	-1.4596542678e+000
 1.2629440579e+000	 1.7687172550e+000	-1.6724162834e+000
 1.2434730078e+000	 1.7824599095e+000	-1.6449760717e+000
 1.2238715039e+000	 1.7959752417e+000	-1.6245723289e+000
 1.2041434875e+000	 1.8092614805e+000	-1.6087905429e+000
 1.1842929294e+000	 1.8223169448e+000	-1.5952615518e+000
 1.1643238277e+000	 1.8351400445e+000	-1.5816699437e+000
 1.1442402050e+000	 1.8477292805e+000	-1.5657622715e+000
 1.1240461058e+000	 1.8600832453e+000	-1.5453550615e+000
 1.1037455942e+000	 1.8722006232e+000	-1.5183425968e+000
 1.0833427511e+000	 1.8840801906e+000	-1.4827044596e+000
 1.0628416718e+000	 1.8957208160e+000	-1.4365128154e+000
 1.2784387354e+000	 1.7904171104e+000	-1.6524741848e+000
 1.2587288009e+000	 1.8043283694e+000	-1.6240003379e+000
 1.2388868121e+000	 1.8180095171e+000	-1.6030165801e+000
 1.2189167586e+000	 1.8314587607e+000	-1.5870001194e+000
 1.1988226600e+000	 1.8446743986e+000	-1.5734673231e+000
 1.1786085635e+000	 1.8576548210e+000	-1.5599824528e+000
 1.1582785409e+000	 1.8703985105e+000	-1.5441662172e+000
 1.1378366864e+000	 1.8829040423e+000	-1.5237041221e+000
 1.1172871140e+000	 1.8951700847e+000	-1.4963545981e+000
 1.0966339547e+000	 1.9071953989e+000	-1.4599568897e+000
 1.0758813538e+000	 1.9189788395e+000	-1.4124386891e+000
 1.2939334128e+000	 1.8121169658e+000	-1.6325414793e+000
 1.2739845939e+000	 1.8261968292e+000	-1.6031167820e+000
 1.2539021203e+000	 1.8400437924e+000	-1.5815486885e+000
 1.2336900297e+000	 1.8536560409e+000	-1.5652161687e+000
 1.2133523907e+000	 1.8670318523e+000	-1.5515300469e+000
 1.1928932993e+000	 1.8801695974e+000	-1.5379420588e+000
 1.1723168768e+000	 1.8930677404e+000	-1.5219537286e+000
 1.1516272671e+000	 1.9057248393e+000	-1.5011250493e+000
 1.1308286339e+000	 1.9181395461e+000	-1.4730829450e+000
 1.1099251582e+000	 1.9303106071e+000	-1.4355294987e+000
 1.0889210358e+000	 1.9422368631e+000	-1.3862499300e+000
 1.3094280903e+000	 1.8338168211e+000	-1.6092736730e+000
 1.2892403870e+000	 1.8480652890e+000	-1.5792537745e+000
 1.2689174284e+000	 1.8620780678e+000	-1.5573523286e+000
 1.2484633008e+000	 1.8758533210e+000	-1.5408595991e+000
 1.2278821213e+000	 1.8893893060e+000	-1.5270893149e+000
 1.2071780351e+000	 1.9026843738e+000	-1.5133880316e+000
 1.1863552127e+000	 1.9157369704e+000	-1.4971443213e+000
 1.1654178477e+000	 1.9285456363e+000	-1.4757977701e+000
 1.1443701537e+000	 1.9411090075e+000	-1.4468477650e+000
 1.1232163617e+000	 1.9534258153e+000	-1.4078620516e+000
 1.1019607178e+000	 1.9654948866e+000	-1.3564850489e+000
 1.3249227678e+000	 1.8555166765e+000	-1.5790985184e+000
 1.3044961801e+000	 1.8699337489e+000	-1.5491033442e+000
 1.2839327366e+000	 1.8841123431e+000	-1.5273671830e+000
 1.2632365720e+000	 1.8980506012e+000	-1.5111006498e+000
 1.2424118520e+000	 1.9117467597e+000	-1.4975283763e+000
 1.2214627709e+000	 1.9251991503e+000	-1.4838986628e+000
 1.2003935486e+000	 1.9384062003e+000	-1.4674929658e+000
 1.1792084284e+000	 1.9513664333e+000	-1.4456352001e+000
 1.1579116735e+000	 1.9640784689e+000	-1.4157008387e+000
 1.1365075653e+000	 1.9765410235e+000	-1.3751257916e+000
 1.1150003998e+000	 1.9887529101e+000	-1.3214150492e+000
 1.3404174452e+000	 1.8772165319e+000	-1.5385671980e+000
 1.3197519731e+000	 1.8918022087e+000	-1.5091332937e+000
 1.2989480448e+000	 1.9061466185e+000	-1.4883012996e+000
 1.2780098431e+000	 1.9202478814e+000	-1.4728714192e+000
 1.2569415826e+000	 1.9341042134e+000	-1.4599867693e+000
 1.2357475067e+000	 1.9477139267e+000	-1.4468039298e+000
 1.2144318846e+000	 1.9610754303e+000	-1.4305027133e+000
 1.1929990090e+000	 1.9741872303e+000	-1.4082957593e+000
 1.1714531933e+000	 1.9870479304e+000	-1.3774379342e+000
 1.1497987688e+000	 1.9996562318e+000	-1.3352355206e+000
 1.1280400818e+000	 2.0120109336e+000	-1.2792252598e+000
 1.3559121227e+000	 1.8989163873e+000	-1.4870235924e+000
 1.3350077662e+000	 1.9136706685e+000	-1.4556262215e+000
 1.3139633529e+000	 1.9281808938e+000	-1.4366432650e+000
 1.2927831142e+000	 1.9424451616e+000	-1.4228781879e+000
 1.2714713133e+000	 1.9564616671e+000	-1.4113727279e+000
 1.2500322424e+000	 1.9702287031e+000	-1.3991979201e+000
 1.2284702205e+000	 1.9837446602e+000	-1.3834370716e+000
 1.2067895896e+000	 1.9970080273e+000	-1.3611956327e+000
 1.1849947132e+000	 2.0100173918e+000	-1.3295690966e+000
 1.1630899723e+000	 2.0227714400e+000	-1.2858378673e+000
 1.1410797639e+000	 2.0352689572e+000	-1.2276028113e+000
 1.0106829438e+000	 1.8026887218e+000	-1.5308483684e+000
 9.9110138481e-001	 1.8135282730e+000	-1.4819533891e+000
 9.7143425637e-001	 1.8241387894e+000	-1.4372923964e+000
 9.5168547831e-001	 1.8345194597e+000	-1.3950909203e+000
 9.3185897448e-001	 1.8446695596e+000	-1.3537271140e+000
 9.1195867032e-001	 1.8545884519e+000	-1.3117483872e+000
 8.9198849053e-001	 1.8642755859e+000	-1.2678766709e+000
 8.7195235673e-001	 1.8737304971e+000	-1.2210132433e+000
 8.5185418521e-001	 1.8829528065e+000	-1.1702431101e+000
 8.3169788466e-001	 1.8919422205e+000	-1.1148389323e+000
 8.1148735391e-001	 1.9006985296e+000	-1.0542644949e+000
 1.0237226258e+000	 1.8259467454e+000	-1.5063951333e+000
 1.0038884284e+000	 1.8369261468e+000	-1.4586952901e+000
 9.8396755761e-001	 1.8476735586e+000	-1.4155632468e+000
 9.6396398374e-001	 1.8581881587e+000	-1.3751126427e+000
 9.4388168129e-001	 1.8684692137e+000	-1.3356142501e+000
 9.2372462635e-001	 1.8785160781e+000	-1.2955119140e+000
 9.0349679424e-001	 1.8883281941e+000	-1.2534280872e+000
 8.8320215720e-001	 1.8979050911e+000	-1.2081689176e+000
 8.6284468205e-001	 1.9072463854e+000	-1.1587288812e+000
 8.4242832788e-001	 1.9163517795e+000	-1.1042949525e+000
 8.2195704385e-001	 1.9252210612e+000	-1.0442503067e+000
 1.0367623078e+000	 1.8492047689e+000	-1.4827531610e+000
 1.0166754721e+000	 1.8603240206e+000	-1.4355108324e+000
 9.9650085886e-001	 1.8712083277e+000	-1.3932874950e+000
 9.7624248917e-001	 1.8818568577e+000	-1.3540230525e+000
 9.5590438809e-001	 1.8922688678e+000	-1.3158651991e+000
 9.3549058237e-001	 1.9024437043e+000	-1.2771273796e+000
 9.1500509795e-001	 1.9123808022e+000	-1.2363060950e+000
 8.9445195768e-001	 1.9220796851e+000	-1.1920862858e+000
 8.7383517888e-001	 1.9315399643e+000	-1.1433462494e+000
 8.5315877110e-001	 1.9407613385e+000	-1.0891620865e+000
 8.3242673380e-001	 1.9497435928e+000	-1.0288116685e+000
 1.0498019898e+000	 1.8724627925e+000	-1.4596542678e+000
 1.0294625157e+000	 1.8837218945e+000	-1.4122374410e+000
 1.0090341601e+000	 1.8947430968e+000	-1.3703680301e+000
 9.8852099460e-001	 1.9055255567e+000	-1.3318230143e+000
 9.6792709490e-001	 1.9160685219e+000	-1.2945879097e+000
 9.4725653839e-001	 1.9263713305e+000	-1.2568195157e+000
 9.2651340167e-001	 1.9364334104e+000	-1.2168624821e+000
 9.0570175815e-001	 1.9462542791e+000	-1.1732550205e+000
 8.8482567572e-001	 1.9558335432e+000	-1.1247341389e+000
 8.6388921433e-001	 1.9651708975e+000	-1.0702403948e+000
 8.4289642374e-001	 1.9742661244e+000	-1.0089221579e+000
 1.0628416718e+000	 1.8957208160e+000	-1.4365128154e+000
 1.0422495593e+000	 1.9071197683e+000	-1.3883616412e+000
 1.0215674613e+000	 1.9182778660e+000	-1.3463843758e+000
 1.0007995000e+000	 1.9291942557e+000	-1.3082048904e+000
 9.7994980170e-001	 1.9398681760e+000	-1.2715844860e+000
 9.5902249441e-001	 1.9502989566e+000	-1.2345096683e+000
 9.3802170538e-001	 1.9604860185e+000	-1.1951478896e+000
 9.1695155863e-001	 1.9704288732e+000	-1.1518656471e+000
 8.9581617255e-001	 1.9801271221e+000	-1.1032340663e+000
 8.7461965755e-001	 1.9895804564e+000	-1.0480339893e+000
 8.5336611368e-001	 1.9987886560e+000	-9.8526056373e-001
 1.0758813538e+000	 1.9189788395e+000	-1.4124386891e+000
 1.0550366030e+000	 1.9305176421e+000	-1.3630807487e+000
 1.0341007626e+000	 1.9418126351e+000	-1.3206541489e+000
 1.0130780055e+000	 1.9528629547e+000	-1.2825503567e+000
 9.9197250851e-001	 1.9636678301e+000	-1.2463625922e+000
 9.7078845043e-001	 1.9742265828e+000	-1.2098268429e+000
 9.4953000909e-001	 1.9845386267e+000	-1.1709225167e+000
 9.2820135910e-001	 1.9946034672e+000	-1.1278199292e+000
 9.0680666939e-001	 2.0044207010e+000	-1.0790660606e+000
 8.8535010078e-001	 2.0139900154e+000	-1.0245266331e+000
 8.6383580362e-001	 2.0233111876e+000	-9.6342133987e-001
 1.0889210358e+000	 1.9422368631e+000	-1.3862499300e+000
 1.0678236466e+000	 1.9539155159e+000	-1.3353025577e+000
 1.0466340638e+000	 1.9653474042e+000	-1.2921691753e+000
 1.0253565109e+000	 1.9765316538e+000	-1.2539990448e+000
 1.0039952153e+000	 1.9874674842e+000	-1.2181465591e+000
 9.8255440646e-001	 1.9981542090e+000	-1.1821184603e+000
 9.6103831281e-001	 2.0085912348e+000	-1.1441519322e+000
 9.3945115958e-001	 2.0187780612e+000	-1.1032424059e+000
 9.1779716623e-001	 2.0287142799e+000	-1.0577971048e+000
 8.9608054400e-001	 2.0383995744e+000	-1.0064132103e+000
 8.7430549357e-001	 2.0478337192e+000	-9.4790241697e-001
 1.1019607178e+000	 1.9654948866e+000	-1.3564850489e+000
 1.0806106902e+000	 1.9773133897e+000	-1.3036572729e+000
 1.0591673651e+000	 1.9888821734e+000	-1.2596587455e+000
 1.0376350163e+000	 2.0002003528e+000	-1.2213721424e+000
 1.0160179221e+000	 2.0112671383e+000	-1.1864704036e+000
 9.9432036248e-001	 2.0220818352e+000	-1.1529931664e+000
 9.7254661652e-001	 2.0326438430e+000	-1.1186645305e+000
 9.5070096006e-001	 2.0429526552e+000	-1.0814644353e+000
 9.2878766306e-001	 2.0530078588e+000	-1.0395713340e+000
 9.0681098723e-001	 2.0628091334e+000	-9.9138149093e-001
 8.8477518351e-001	 2.0723562508e+000	-9.3551279293e-001
 1.1150003998e+000	 1.9887529101e+000	-1.3214150492e+000
 1.0933977339e+000	 2.0007112636e+000	-1.2665104014e+000
 1.0717006663e+000	 2.0124169425e+000	-1.2220338742e+000
 1.0499135217e+000	 2.0238690518e+000	-1.1851513442e+000
 1.0280406289e+000	 2.0350667924e+000	-1.1529669397e+000
 1.0060863185e+000	 2.0460094614e+000	-1.1228048532e+000
 9.8405492023e-001	 2.0566964511e+000	-1.0921517973e+000
 9.6195076053e-001	 2.0671272492e+000	-1.0587534220e+000
 9.3977815990e-001	 2.0773014377e+000	-1.0205628859e+000
 9.1754143045e-001	 2.0872186924e+000	-9.7575864630e-001
 8.9524487345e-001	 2.0968787823e+000	-9.2274818494e-001
 1.1280400818e+000	 2.0120109336e+000	-1.2792252598e+000
 1.1061847775e+000	 2.0241091374e+000	-1.2228952113e+000
 1.0842339676e+000	 2.0359517116e+000	-1.1787899321e+000
 1.0621920272e+000	 2.0475377508e+000	-1.1435371679e+000
 1.0400633357e+000	 2.0588664465e+000	-1.1139676889e+000
 1.0178522745e+000	 2.0699370875e+000	-1.0871230978e+000
 9.9556322394e-001	 2.0807490593e+000	-1.0602829460e+000
 9.7320056100e-001	 2.0913018433e+000	-1.0308951774e+000
 9.5076865673e-001	 2.1015950166e+000	-9.9668729928e-001
 9.2827187367e-001	 2.1116282514e+000	-9.5560422003e-001
 9.0571456340e-001	 2.1214013139e+000	-9.0582753984e-001
 1.1410797639e+000	 2.0352689572e+000	-1.2276028113e+000
 1.1189718211e+000	 2.0475070112e+000	-1.1695904469e+000
 1.0967672688e+000	 2.0594864808e+000	-1.1255217871e+000
 1.0744705326e+000	 2.0712064498e+000	-1.0917262431e+000
 1.0520860425e+000	 2.0826661006e+000	-1.0647448112e+000
 1.0296182305e+000	 2.0938647137e+000	-1.0413378550e+000
 1.0070715277e+000	 2.1048016674e+000	-1.0185103350e+000
 9.8445036148e-001	 2.1154764373e+000	-9.9344916469e-001
 9.6175915357e-001	 2.1258885955e+000	-9.6362409817e-001
 9.3900231690e-001	 2.1360378104e+000	-9.2673193922e-001
 9.1618425334e-001	 2.1459238455e+000	-8.8071409019e-001
 8.1148735391e-001	 1.9006985296e+000	-1.0542644949e+000
 7.9122343695e-001	 1.9092228696e+000	-9.9488687414e-001
 7.7091303689e-001	 1.9175138679e+000	-9.4223443193e-001
 7.5056001275e-001	 1.9255715656e+000	-8.9480196023e-001
 7.3016820514e-001	 1.9333960849e+000	-8.5131705961e-001
 7.0974143420e-001	 1.9409876284e+000	-8.1074339406e-001
 6.8928349765e-001	 1.9483464780e+000	-7.7228337388e-001
 6.6879816880e-001	 1.9554729937e+000	-7.3538026643e-001
 6.4828919468e-001	 1.9623676129e+000	-6.9693196674e-001
 6.2776029421e-001	 1.9690308487e+000	-6.5279592027e-001
 6.0721515638e-001	 1.9754632889e+000	-6.0329377443e-001
 8.2195704385e-001	 1.9252210612e+000	-1.0442503067e+000
 8.0143168483e-001	 1.9338553809e+000	-9.8516470098e-001
 7.8085924298e-001	 1.9422533485e+000	-9.3274317406e-001
 7.6024362714e-001	 1.9504150054e+000	-8.8536838506e-001
 7.3958872744e-001	 1.9583404755e+000	-8.4166062368e-001
 7.1889841332e-001	 1.9660299640e+000	-8.0048139709e-001
 6.9817653150e-001	 1.9734837563e+000	-7.6093643334e-001
 6.7742690396e-001	 1.9807022174e+000	-7.2237810064e-001
 6.5665332609e-001	 1.9876857899e+000	-6.8355626530e-001
 6.3585956478e-001	 1.9944349938e+000	-6.3893837419e-001
 6.1504935661e-001	 2.0009504244e+000	-5.8799106360e-001
 8.3242673380e-001	 1.9497435928e+000	-1.0288116685e+000
 8.1163993271e-001	 1.9584878923e+000	-9.6902349650e-001
 7.9080544908e-001	 1.9669928291e+000	-9.1566469764e-001
 7.6992724152e-001	 1.9752584453e+000	-8.6702515246e-001
 7.4900924974e-001	 1.9832848661e+000	-8.2163722325e-001
 7.2805539244e-001	 1.9910722996e+000	-7.7827963776e-001
 7.0706956534e-001	 1.9986210347e+000	-7.3598077935e-001
 6.8605563912e-001	 2.0059314410e+000	-6.9457528562e-001
 6.6501745749e-001	 2.0130039669e+000	-6.5466700715e-001
 6.4395883534e-001	 2.0198391388e+000	-6.1171007121e-001
 6.2288355684e-001	 2.0264375598e+000	-5.6287871861e-001
 8.4289642374e-001	 1.9742661244e+000	-1.0089221579e+000
 8.2184818059e-001	 1.9831204037e+000	-9.4762196725e-001
 8.0075165518e-001	 1.9917323097e+000	-8.9235254384e-001
 7.7961085591e-001	 2.0001018851e+000	-8.4132932664e-001
 7.5842977204e-001	 2.0082292568e+000	-7.9392129629e-001
 7.3721237157e-001	 2.0161146352e+000	-7.4974538326e-001
 7.1596259919e-001	 2.0237583131e+000	-7.0781734894e-001
 6.9468437428e-001	 2.0311606646e+000	-6.6739417343e-001
 6.7338158890e-001	 2.0383221439e+000	-6.2797592865e-001
 6.5205810591e-001	 2.0452432839e+000	-5.8739661651e-001
 6.3071775708e-001	 2.0519246953e+000	-5.4017302258e-001
 8.5336611368e-001	 1.9987886560e+000	-9.8526056373e-001
 8.3205642847e-001	 2.0077529150e+000	-9.2248288644e-001
 8.1069786128e-001	 2.0164717903e+000	-8.6698797976e-001
 7.8929447030e-001	 2.0249453249e+000	-8.1705483956e-001
 7.6785029434e-001	 2.0331736474e+000	-7.7118284617e-001
 7.4636935069e-001	 2.0411569708e+000	-7.2811048899e-001
 7.2485563304e-001	 2.0488955915e+000	-6.8681827433e-001
 7.0331310944e-001	 2.0563898883e+000	-6.4653110223e-001
 6.8174572031e-001	 2.0636403209e+000	-6.0672013631e-001
 6.6015737647e-001	 2.0706474290e+000	-5.6670466415e-001
 6.3855195731e-001	 2.0774118308e+000	-5.2050160555e-001
 8.6383580362e-001	 2.0233111876e+000	-9.6342133987e-001
 8.4226467635e-001	 2.0323854264e+000	-9.0283926803e-001
 8.2064406738e-001	 2.0412112709e+000	-8.4916595983e-001
 7.9897808469e-001	 2.0497887647e+000	-8.0063933655e-001
 7.7727081664e-001	 2.0581180380e+000	-7.5573600071e-001
 7.5552632981e-001	 2.0661993063e+000	-7.1317458555e-001
 7.3374866688e-001	 2.0740328699e+000	-6.7191856266e-001
 7.1194184460e-001	 2.0816191119e+000	-6.3117853596e-001
 6.9010985172e-001	 2.0889584979e+000	-5.9041404837e-001
 6.6825664704e-001	 2.0960515741e+000	-5.4933492556e-001
 6.4638615754e-001	 2.1028989663e+000	-5.0399030755e-001
 8.7430549357e-001	 2.0478337192e+000	-9.4790241697e-001
 8.5247292423e-001	 2.0570179378e+000	-8.8935252420e-001
 8.3059027348e-001	 2.0659507515e+000	-8.3725492476e-001
 8.0866169908e-001	 2.0746322046e+000	-7.8984041384e-001
 7.8669133894e-001	 2.0830624286e+000	-7.4558124222e-001
 7.6468330893e-001	 2.0912416419e+000	-7.0319427622e-001
 7.4264170073e-001	 2.0991701483e+000	-6.6164363425e-001
 7.2057057976e-001	 2.1068483355e+000	-6.2014283140e-001
 6.9847398312e-001	 2.1142766749e+000	-5.7815646100e-001
 6.7635591761e-001	 2.1214557192e+000	-5.3540144000e-001
 6.5422035778e-001	 2.1283861017e+000	-4.9028788026e-001
 8.8477518351e-001	 2.0723562508e+000	-9.3551279293e-001
 8.6268117211e-001	 2.0816504492e+000	-8.7900897807e-001
 8.4053647958e-001	 2.0906902321e+000	-8.2844848366e-001
 8.1834531347e-001	 2.0994756444e+000	-7.8207331840e-001
 7.9611186124e-001	 2.1080068192e+000	-7.3836942727e-001
 7.7384028805e-001	 2.1162839775e+000	-6.9606958396e-001
 7.5153473458e-001	 2.1243074266e+000	-6.5415578277e-001
 7.2919931492e-001	 2.1320775592e+000	-6.1186116460e-001
 7.0683811453e-001	 2.1395948519e+000	-5.6867150938e-001
 6.8445518817e-001	 2.1468598642e+000	-5.2432632401e-001
 6.6205455801e-001	 2.1538732372e+000	-4.7859037794e-001
 8.9524487345e-001	 2.0968787823e+000	-9.2274818494e-001
 8.7288941999e-001	 2.1062829605e+000	-8.6848849259e-001
 8.5048268568e-001	 2.1154297127e+000	-8.1962541488e-001
 8.2802892786e-001	 2.1243190842e+000	-7.7443025635e-001
 8.0553238355e-001	 2.1329512099e+000	-7.3142041137e-001
 7.8299726717e-001	 2.1413263131e+000	-6.8936190791e-001
 7.6042776842e-001	 2.1494447050e+000	-6.4727147813e-001
 7.3782805008e-001	 2.1573067828e+000	-6.0441819406e-001
 7.1520224594e-001	 2.1649130289e+000	-5.6032470422e-001
 6.9255445874e-001	 2.1722640093e+000	-5.1476810304e-001
 6.6988875825e-001	 2.1793603727e+000	-4.6778046196e-001
 9.0571456340e-001	 2.1214013139e+000	-9.0582753984e-001
 8.8309766787e-001	 2.1309154719e+000	-8.5418498384e-001
 8.6042889178e-001	 2.1401691933e+000	-8.0736945947e-001
 8.3771254225e-001	 2.1491625241e+000	-7.6369948253e-001
 8.1495290585e-001	 2.1578956005e+000	-7.2174144999e-001
 7.9215424629e-001	 2.1663686487e+000	-6.8031175058e-001
 7.6932080227e-001	 2.1745819834e+000	-6.3847843409e-001
 7.4645678524e-001	 2.1825360065e+000	-5.9556248218e-001
 7.2356637734e-001	 2.1902312059e+000	-5.5113871981e-001
 7.0065372930e-001	 2.1976681544e+000	-5.0503640270e-001
 6.7772295848e-001	 2.2048475082e+000	-4.5733951209e-001
 9.1618425334e-001	 2.1459238455e+000	-8.8071409019e-001
 8.9330591575e-001	 2.1555479833e+000	-8.3222673923e-001
 8.7037509788e-001	 2.1649086739e+000	-7.8798891684e-001
 8.4739615664e-001	 2.1740059639e+000	-7.4638418858e-001
 8.2437342815e-001	 2.1828399911e+000	-7.0604539371e-001
 8.0131122541e-001	 2.1914109843e+000	-6.6585623416e-001
 7.7821383611e-001	 2.1997192618e+000	-6.2495245937e-001
 7.5508552040e-001	 2.2077652301e+000	-5.8272269421e-001
 7.3193050875e-001	 2.2155493829e+000	-5.3880895333e-001
 7.0875299987e-001	 2.2230722995e+000	-4.9310688053e-001
 6.8555715871e-001	 2.2303346436e+000	-4.4576574752e-001
 6.0721515638e-001	 1.9754632889e+000	-6.0329377443e-001
 5.8665743822e-001	 1.9816655944e+000	-5.5068526628e-001
 5.6609076229e-001	 1.9876384961e+000	-4.9690735235e-001
 5.4551871594e-001	 1.9933827953e+000	-4.4251118860e-001
 5.2494485006e-001	 1.9988993627e+000	-3.8849644286e-001
 5.0437267753e-001	 2.0041891369e+000	-3.3662749755e-001
 4.8380567180e-001	 2.0092531230e+000	-2.8934551423e-001
 4.6324726543e-001	 2.0140923913e+000	-2.4868938913e-001
 4.4270084878e-001	 2.0187080752e+000	-2.1699654484e-001
 4.2216976871e-001	 2.0231013705e+000	-1.9690541562e-001
 4.0165732735e-001	 2.0272735331e+000	-1.9133533764e-001
 6.1504935661e-001	 2.0009504244e+000	-5.8799106360e-001
 5.9422640581e-001	 2.0072327511e+000	-5.3451179514e-001
 5.7339438167e-001	 2.0132827143e+000	-4.8140566397e-001
 5.5255691782e-001	 2.0191011256e+000	-4.2903088220e-001
 5.3171761096e-001	 2.0246888670e+000	-3.7816894933e-001
 5.1088001930e-001	 2.0300468890e+000	-3.3000118057e-001
 4.9004766109e-001	 2.0351762100e+000	-2.8608616192e-001
 4.6922401320e-001	 2.0400779137e+000	-2.4833808213e-001
 4.4841250972e-001	 2.0447531485e+000	-2.1900588210e-001
 4.2761654069e-001	 2.0492031255e+000	-2.0065315563e-001
 4.0683945084e-001	 2.0534291166e+000	-1.9613872904e-001
 6.2288355684e-001	 2.0264375598e+000	-5.6287871861e-001
 6.0179537340e-001	 2.0327999078e+000	-5.1164427009e-001
 5.8069800105e-001	 2.0389269325e+000	-4.6085520584e-001
 5.5959511969e-001	 2.0448194559e+000	-4.1075414846e-001
 5.3849037185e-001	 2.0504783712e+000	-3.6201610308e-001
 5.1738736106e-001	 2.0559046411e+000	-3.1572525328e-001
 4.9628965039e-001	 2.0610992969e+000	-2.7335281607e-001
 4.7520076098e-001	 2.0660634361e+000	-2.3673589262e-001
 4.5412417067e-001	 2.0707982218e+000	-2.0805724260e-001
 4.3306331268e-001	 2.0753048804e+000	-1.8982590165e-001
 4.1202157433e-001	 2.0795847002e+000	-1.8485855547e-001
 6.3071775708e-001	 2.0519246953e+000	-5.4017302258e-001
 6.0936434100e-001	 2.0583670645e+000	-4.9000359872e-001
 5.8800162042e-001	 2.0645711507e+000	-4.4024626711e-001
 5.6663332157e-001	 2.0705377862e+000	-3.9105906115e-001
 5.4526313275e-001	 2.0762678754e+000	-3.4303899834e-001
 5.2389470283e-001	 2.0817623933e+000	-2.9719918928e-001
 5.0253163969e-001	 2.0870223838e+000	-2.5494715420e-001
 4.8117750875e-001	 2.0920489586e+000	-2.1806426999e-001
 4.5983583161e-001	 2.0968432952e+000	-1.8868626104e-001
 4.3851008466e-001	 2.1014066354e+000	-1.6928463812e-001
 4.1720369783e-001	 2.1057402838e+000	-1.6264898333e-001
 6.3855195731e-001	 2.0774118308e+000	-5.2050160555e-001
 6.1693330859e-001	 2.0839342212e+000	-4.7068143727e-001
 5.9530523980e-001	 2.0902153689e+000	-4.2112899334e-001
 5.7367152344e-001	 2.0962561165e+000	-3.7194625656e-001
 5.5203589365e-001	 2.1020573797e+000	-3.2367814921e-001
 5.3040204460e-001	 2.1076201454e+000	-2.7729000831e-001
 5.0877362898e-001	 2.1129454707e+000	-2.3414643457e-001
 4.8715425653e-001	 2.1180344810e+000	-1.9599142292e-001
 4.6554749255e-001	 2.1228883685e+000	-1.6492967185e-001
 4.4395685664e-001	 2.1275083903e+000	-1.4340895957e-001
 4.2238582132e-001	 2.1318958674e+000	-1.3420346774e-001
 6.4638615754e-001	 2.1028989663e+000	-5.0399030755e-001
 6.2450227618e-001	 2.1095013779e+000	-4.5425915393e-001
 6.0260885918e-001	 2.1158595871e+000	-4.0453764712e-001
 5.8070972532e-001	 2.1219744468e+000	-3.5489786454e-001
 5.5880865454e-001	 2.1278468839e+000	-3.0585596780e-001
 5.3690938636e-001	 2.1334778975e+000	-2.5835010598e-001
 5.1501561828e-001	 2.1388685576e+000	-2.1371987702e-001
 4.9313100430e-001	 2.1440200035e+000	-1.7368723886e-001
 4.7125915350e-001	 2.1489334418e+000	-1.4033875025e-001
 4.4940362862e-001	 2.1536101453e+000	-1.1610901142e-001
 4.2756794481e-001	 2.1580514510e+000	-1.0376516671e-001
 6.5422035778e-001	 2.1283861017e+000	-4.9028788026e-001
 6.3207124377e-001	 2.1350685346e+000	-4.4083107220e-001
 6.0991247856e-001	 2.1415038053e+000	-3.9101240608e-001
 5.8774792719e-001	 2.1476927771e+000	-3.4089787007e-001
 5.6558141544e-001	 2.1536363881e+000	-2.9099569482e-001
 5.4341672813e-001	 2.1593356496e+000	-2.4223475479e-001
 5.2125760758e-001	 2.1647916446e+000	-1.9594473166e-001
 4.9910775208e-001	 2.1700055259e+000	-1.5383791358e-001
 4.7697081444e-001	 2.1749785151e+000	-1.1799249159e-001
 4.5485040060e-001	 2.1797119003e+000	-9.0837203689e-002
 4.3275006830e-001	 2.1842070346e+000	-7.5137169104e-002
 6.6205455801e-001	 2.1538732372e+000	-4.7859037794e-001
 6.3964021136e-001	 2.1606356913e+000	-4.3002739766e-001
 6.1721609793e-001	 2.1671480235e+000	-3.8062084167e-001
 5.9478612907e-001	 2.1734111074e+000	-3.3045215727e-001
 5.7235417633e-001	 2.1794258924e+000	-2.8004001830e-001
 5.4992406989e-001	 2.1851934017e+000	-2.3031930349e-001
 5.2749959687e-001	 2.1907147315e+000	-1.8262206118e-001
 5.0508449985e-001	 2.1959910484e+000	-1.3866031487e-001
 4.8268247538e-001	 2.2010235884e+000	-1.0051055066e-001
 4.6029717258e-001	 2.2058136552e+000	-7.0599716199e-002
 4.3793219180e-001	 2.2103626182e+000	-5.1692551829e-002
 6.6988875825e-001	 2.1793603727e+000	-4.6778046196e-001
 6.4720917895e-001	 2.1862028480e+000	-4.2103685380e-001
 6.2451971731e-001	 2.1927922417e+000	-3.7297910491e-001
 6.0182433094e-001	 2.1991294377e+000	-3.2360826165e-001
 5.7912693723e-001	 2.2052153966e+000	-2.7346940589e-001
 5.5643141166e-001	 2.2110511539e+000	-2.2351609967e-001
 5.3374158617e-001	 2.2166378184e+000	-1.7509226041e-001
 5.1106124762e-001	 2.2219765708e+000	-1.2991610201e-001
 4.8839413632e-001	 2.2270686617e+000	-9.0065960636e-002
 4.6574394456e-001	 2.2319154102e+000	-5.7967812401e-002
 4.4311431529e-001	 2.2365182018e+000	-3.6384280168e-002
 6.7772295848e-001	 2.2048475082e+000	-4.5733951209e-001
 6.5477814654e-001	 2.2117700047e+000	-4.1262905069e-001
 6.3182333669e-001	 2.2184364599e+000	-3.6727284276e-001
 6.0886253281e-001	 2.2248477680e+000	-3.1997485428e-001
 5.8589969813e-001	 2.2310049008e+000	-2.7132017400e-001
 5.6293875342e-001	 2.2369089060e+000	-2.2229115779e-001
 5.3998357546e-001	 2.2425609053e+000	-1.7425033412e-001
 5.1703799540e-001	 2.2479620932e+000	-1.2892562091e-001
 4.9410579726e-001	 2.2531137351e+000	-8.8397649385e-002
 4.7119071654e-001	 2.2580171652e+000	-5.5088977335e-002
 4.4829643878e-001	 2.2626737853e+000	-3.1754963976e-002
 6.8555715871e-001	 2.2303346436e+000	-4.4576574752e-001
 6.6234711413e-001	 2.2373371614e+000	-4.0317660768e-001
 6.3912695606e-001	 2.2440806781e+000	-3.6227786674e-001
 6.1590073469e-001	 2.2505660983e+000	-3.1874097939e-001
 5.9267245902e-001	 2.2567944051e+000	-2.7320231472e-001
 5.6944609519e-001	 2.2627666581e+000	-2.2668059320e-001
 5.4622556476e-001	 2.2684839922e+000	-1.8056095260e-001
 5.2301474317e-001	 2.2739476157e+000	-1.3658159274e-001
 4.9981745820e-001	 2.2791588084e+000	-9.6822769465e-002
 4.7663748852e-001	 2.2841189201e+000	-6.3697893750e-002
 4.5347856227e-001	 2.2888293689e+000	-3.9946481263e-002
 4.0165732735e-001	 2.0272735331e+000	-1.9133533764e-001
 3.8116985173e-001	 2.0312253015e+000	-1.8634410062e-001
 3.6070746753e-001	 2.0349586909e+000	-1.6812257115e-001
 3.4027332989e-001	 2.0384751296e+000	-1.4016791404e-001
 3.1987054498e-001	 2.0417760999e+000	-1.0620324024e-001
 2.9950216914e-001	 2.0448631363e+000	-7.0159325024e-002
 2.7917120795e-001	 2.0477378234e+000	-3.6156515191e-002
 2.5888061541e-001	 2.0504017950e+000	-8.4867600093e-003
 2.3863329325e-001	 2.0528567318e+000	 8.4042962155e-003
 2.1843209012e-001	 2.0551043599e+000	 9.9352184361e-003
 1.9827980105e-001	 2.0571464492e+000	-8.5932640503e-003
 4.0683945084e-001	 2.0534291166e+000	-1.9613872904e-001
 3.8608764884e-001	 2.0574318702e+000	-1.9160944745e-001
 3.6536126199e-001	 2.0612134272e+000	-1.7334145448e-001
 3.4466348611e-001	 2.0647752345e+000	-1.4479480843e-001
 3.2399746749e-001	 2.0681187935e+000	-1.0968032832e-001
 3.0336630188e-001	 2.0712456583e+000	-7.1941995092e-002
 2.8277303362e-001	 2.0741574342e+000	-3.5739520963e-002
 2.6222065487e-001	 2.0768557760e+000	-5.4310096749e-003
 2.4171210474e-001	 2.0793423861e+000	 1.4444365535e-002
 2.2125026867e-001	 2.0816190127e+000	 1.9183735377e-002
 2.0083797774e-001	 2.0836874487e+000	 3.9380232204e-003
 4.1202157433e-001	 2.0795847002e+000	-1.8485855547e-001
 3.9100544595e-001	 2.0836384389e+000	-1.7950971728e-001
 3.7001505644e-001	 2.0874681636e+000	-1.6024636239e-001
 3.4905364234e-001	 2.0910753395e+000	-1.3048788083e-001
 3.2812439000e-001	 2.0944614871e+000	-9.3927210228e-002
 3.0723043461e-001	 2.0976281804e+000	-5.4514104485e-002
 2.8637485930e-001	 2.1005770451e+000	-1.6438552772e-002
 2.6556069432e-001	 2.1033097570e+000	 1.5885741021e-002
 2.4479091623e-001	 2.1058280403e+000	 3.7837904330e-002
 2.2406844723e-001	 2.1081336655e+000	 4.4606548273e-002
 2.0339615444e-001	 2.1102284483e+000	 3.1206601271e-002
 4.1720369783e-001	 2.1057402838e+000	-1.6264898333e-001
 3.9592324306e-001	 2.1098450077e+000	-1.5544177501e-001
 3.7466885089e-001	 2.1137229000e+000	-1.3440853310e-001
 3.5344379857e-001	 2.1173754444e+000	-1.0292159628e-001
 3.3225131251e-001	 2.1208041806e+000	-6.4647592240e-002
 3.1109456735e-001	 2.1240107024e+000	-2.3531769863e-002
 2.8997668498e-001	 2.1269966559e+000	 1.6217532243e-002
 2.6890073377e-001	 2.1297637380e+000	 5.0144385434e-002
 2.4786972772e-001	 2.1323136945e+000	 7.3560838476e-002
 2.2688662578e-001	 2.1346483183e+000	 8.1562646701e-002
 2.0595433114e-001	 2.1367694478e+000	 6.9045250148e-002
 4.2238582132e-001	 2.1318958674e+000	-1.3420346774e-001
 4.0084104017e-001	 2.1360515764e+000	-1.2436633678e-001
 3.7932264534e-001	 2.1399776363e+000	-1.0099219402e-001
 3.5783395480e-001	 2.1436755493e+000	-6.7397061108e-002
 3.3637823502e-001	 2.1471468742e+000	-2.7209918078e-002
 3.1495870008e-001	 2.1503932245e+000	 1.5641692131e-002
 2.9357851066e-001	 2.1534162668e+000	 5.6945933552e-002
 2.7224077322e-001	 2.1562177190e+000	 9.2220941587e-002
 2.5094853921e-001	 2.1587993488e+000	 1.1672919674e-001
 2.2970480434e-001	 2.1611629711e+000	 1.2549211605e-001
 2.0851250784e-001	 2.1633104473e+000	 1.1330496309e-001
 4.2756794481e-001	 2.1580514510e+000	-1.0376516671e-001
 4.0575883728e-001	 2.1622581451e+000	-9.0816782102e-002
 3.8397643979e-001	 2.1662323727e+000	-6.4761648375e-002
 3.6222411102e-001	 2.1699756543e+000	-2.8847257532e-002
 3.4050515753e-001	 2.1734895678e+000	 1.3349377549e-002
 3.1882283282e-001	 2.1767757465e+000	 5.7934624761e-002
 2.9718033633e-001	 2.1798358776e+000	 1.0071101567e-001
 2.7558081267e-001	 2.1826717000e+000	 1.3719004716e-001
 2.5402735071e-001	 2.1852850030e+000	 1.6260513321e-001
 2.3252298289e-001	 2.1876776239e+000	 1.7192483106e-001
 2.1107068453e-001	 2.1898514469e+000	 1.5986645759e-001
 4.3275006830e-001	 2.1842070346e+000	-7.5137169104e-002
 4.1067663439e-001	 2.1884647138e+000	-5.8907830781e-002
 3.8863023425e-001	 2.1924871090e+000	-3.0088291013e-002
 3.6661426725e-001	 2.1962757592e+000	 8.1577143511e-003
 3.4463208005e-001	 2.1998322613e+000	 5.2322516629e-002
 3.2268696555e-001	 2.2031582686e+000	 9.8565686970e-002
 3.0078216201e-001	 2.2062554884e+000	 1.4272509333e-001
 2.7892085212e-001	 2.2091256810e+000	 1.8032799815e-001
 2.5710616220e-001	 2.2117706572e+000	 2.0660234629e-001
 2.3534116144e-001	 2.2141922767e+000	 2.1648838480e-001
 2.1362886123e-001	 2.2163924464e+000	 2.0465074675e-001
 4.3793219180e-001	 2.2103626182e+000	-5.1692551829e-002
 4.1559443150e-001	 2.2146712825e+000	-3.2344095875e-002
 3.9328402870e-001	 2.2187418454e+000	-9.5755940223e-004
 3.7100442348e-001	 2.2225758641e+000	 3.9405388072e-002
 3.4875900256e-001	 2.2261749549e+000	 8.5326934932e-002
 3.2655109828e-001	 2.2295407906e+000	 1.3304232194e-001
 3.0438398769e-001	 2.2326750993e+000	 1.7844892012e-001
 2.8226089157e-001	 2.2355796621e+000	 2.1711536895e-001
 2.6018497369e-001	 2.2382563115e+000	 2.4429094431e-001
 2.3815934000e-001	 2.2407069295e+000	 2.5491531654e-001
 2.1618703793e-001	 2.2429334459e+000	 2.4362884877e-001
 4.4311431529e-001	 2.2365182018e+000	-3.6384280168e-002
 4.2051222860e-001	 2.2408778513e+000	-1.4428522790e-002
 3.9793782315e-001	 2.2449965817e+000	 1.9024175009e-002
 3.7539457970e-001	 2.2488759691e+000	 6.1035676202e-002
 3.5288592506e-001	 2.2525176484e+000	 1.0830175590e-001
 3.3041523102e-001	 2.2559233126e+000	 1.5715905380e-001
 3.0798581336e-001	 2.2590947101e+000	 2.0359190495e-001
 2.8560093102e-001	 2.2620336431e+000	 2.4323924820e-001
 2.6326378518e-001	 2.2647419657e+000	 2.7140180301e-001
 2.4097751855e-001	 2.2672215823e+000	 2.8304969578e-001
 2.1874521463e-001	 2.2694744455e+000	 2.7283070510e-001
 4.4829643878e-001	 2.2626737853e+000	-3.1754963976e-002
 4.2543002571e-001	 2.2670844200e+000	-8.0707237457e-003
 4.0259161760e-001	 2.2712513181e+000	 2.6622770181e-002
 3.7978473593e-001	 2.2751760740e+000	 6.9535610211e-002
 3.5701284757e-001	 2.2788603420e+000	 1.1750418810e-001
 3.3427936375e-001	 2.2823058347e+000	 1.6699562630e-001
 3.1158763904e-001	 2.2855143209e+000	 2.1411207830e-001
 2.8894097047e-001	 2.2884876241e+000	 2.5459512140e-001
 2.6634259667e-001	 2.2912276199e+000	 2.8383045599e-001
 2.4379569710e-001	 2.2937362351e+000	 2.9685311461e-001
 2.2130339132e-001	 2.2960154450e+000	 2.8835337137e-001
 4.5347856227e-001	 2.2888293689e+000	-3.9946481263e-002
 4.3034782282e-001	 2.2932909887e+000	-1.5795215965e-002
 4.0724541205e-001	 2.2975060545e+000	 1.8969527268e-002
 3.8417489215e-001	 2.3014761789e+000	 6.1734075209e-002
 3.6113977008e-001	 2.3052030356e+000	 1.0950585235e-001
 3.3814349649e-001	 2.3086883567e+000	 1.5891499628e-001
 3.1518946472e-001	 2.3119339318e+000	 2.0621582832e-001
 2.9228100992e-001	 2.3149416051e+000	 2.4728842866e-001
 2.6942140816e-001	 2.3177132742e+000	 2.7764055559e-001
 2.4661387566e-001	 2.3202508879e+000	 2.9241013576e-001
 2.2386156802e-001	 2.3225564445e+000	 2.8636853918e-001
 1.9827980105e-001	 2.0571464492e+000	-8.5932640503e-003
 1.7817616239e-001	 2.0589850721e+000	-2.7439407163e-002
 1.5812692275e-001	 2.0606217602e+000	-2.7430356684e-002
 1.3813475442e-001	 2.0620584056e+000	-1.4237367166e-002
 1.1820227270e-001	 2.0632969374e+000	 6.4471004306e-003
 9.8332035568e-002	 2.0643393199e+000	 2.8928874032e-002
 7.8526543355e-002	 2.0651875510e+000	 4.7531739092e-002
 5.8788238498e-002	 2.0658436604e+000	 5.6617292515e-002
 3.9119505332e-002	 2.0663097081e+000	 5.0604986969e-002
 1.9522669929e-002	 2.0665877828e+000	 2.3992363951e-002
 0.0000000000e+000	 2.0666800000e+000	-2.8624556554e-002
 2.0083797774e-001	 2.0836874487e+000	 3.9380232204e-003
 1.8047496491e-001	 2.0855497932e+000	-1.1255910023e-002
 1.6016705295e-001	 2.0872075977e+000	-6.8425093014e-003
 1.3991694861e-001	 2.0886627785e+000	 1.1439642945e-002
 1.1972730096e-001	 2.0899172897e+000	 3.7792204194e-002
 9.9600700963e-002	 2.0909731208e+000	 6.6376546081e-002
 7.9539681215e-002	 2.0918322956e+000	 9.1333523025e-002
 5.9546715666e-002	 2.0924968700e+000	 1.0680355071e-001
 3.9624219410e-002	 2.0929689307e+000	 1.0694700222e-001
 1.9774548532e-002	 2.0932505931e+000	 8.5964921816e-002
 0.0000000000e+000	 2.0933440000e+000	 3.8120024712e-002
 2.0339615444e-001	 2.1102284483e+000	 3.1206601271e-002
 1.8277376743e-001	 2.1121145144e+000	 1.7877468266e-002
 1.6220718314e-001	 2.1137934352e+000	 2.4463828841e-002
 1.4169914281e-001	 2.1152671514e+000	 4.5172376676e-002
 1.2125232922e-001	 2.1165376419e+000	 7.4111937779e-002
 1.0086936636e-001	 2.1176069217e+000	 1.0531275235e-001
 8.0552819076e-002	 2.1184770403e+000	 1.3274617918e-001
 6.0305192834e-002	 2.1191500797e+000	 1.5034484233e-001
 4.0128933488e-002	 2.1196281532e+000	 1.5202323108e-001
 2.0026427135e-002	 2.1199134033e+000	 1.3169875565e-001
 0.0000000000e+000	 2.1200080000e+000	 8.3313227678e-002
 2.0595433114e-001	 2.1367694478e+000	 6.9045250148e-002
 1.8507256995e-001	 2.1386792356e+000	 5.6366220844e-002
 1.6424731334e-001	 2.1403792726e+000	 6.3573822174e-002
 1.4348133700e-001	 2.1418715243e+000	 8.4835196277e-002
 1.2277735748e-001	 2.1431579941e+000	 1.1418184947e-001
 1.0213803175e-001	 2.1442407226e+000	 1.4552856048e-001
 8.1565956938e-002	 2.1451217849e+000	 1.7269284694e-001
 6.1063670002e-002	 2.1458032894e+000	 1.8941501490e-001
 4.0633647567e-002	 2.1462873758e+000	 1.8937880644e-001
 2.0278305739e-002	 2.1465762135e+000	 1.6623265041e-001
 0.0000000000e+000	 2.1466720000e+000	 1.1361148733e-001
 2.0851250784e-001	 2.1633104473e+000	 1.1330496309e-001
 1.8737137247e-001	 2.1652439568e+000	 1.0056713145e-001
 1.6628744353e-001	 2.1669651101e+000	 1.0745281885e-001
 1.4526353119e-001	 2.1684758971e+000	 1.2810747385e-001
 1.2430238574e-001	 2.1697783463e+000	 1.5650337723e-001
 1.0340669715e-001	 2.1708745235e+000	 1.8645798486e-001
 8.2579094799e-002	 2.1717665295e+000	 2.1165297258e-001
 6.1822147171e-002	 2.1724564990e+000	 2.2565401385e-001
 4.1138361646e-002	 2.1729465983e+000	 2.2193130968e-001
 2.0530184342e-002	 2.1732390237e+000	 1.9388087963e-001
 0.0000000000e+000	 2.1733360000e+000	 1.3484658667e-001
 2.1107068453e-001	 2.1898514469e+000	 1.5986645759e-001
 1.8967017500e-001	 2.1918086779e+000	 1.4680276888e-001
 1.6832757373e-001	 2.1935509476e+000	 1.5296401326e-001
 1.4704572539e-001	 2.1950802700e+000	 1.7249460934e-001
 1.2582741400e-001	 2.1963986986e+000	 1.9932841241e-001
 1.0467536255e-001	 2.1975083244e+000	 2.2720628894e-001
 8.3592232661e-002	 2.1984112742e+000	 2.4969454573e-001
 6.2580624339e-002	 2.1991097087e+000	 2.6020425083e-001
 4.1643075725e-002	 2.1996058209e+000	 2.5201147128e-001
 2.0782062946e-002	 2.1999018340e+000	 2.1827844043e-001
 0.0000000000e+000	 2.2000000000e+000	 1.5207563069e-001
 2.1362886123e-001	 2.2163924464e+000	 2.0465074675e-001
 1.9196897752e-001	 2.2183733991e+000	 1.9137485128e-001
 1.7036770392e-001	 2.2201367851e+000	 1.9688477117e-001
 1.4882791958e-001	 2.2216846429e+000	 2.1534748762e-001
 1.2735244226e-001	 2.2230190508e+000	 2.4068206239e-001
 1.0594402794e-001	 2.2241421253e+000	 2.6657622977e-001
 8.4605370523e-002	 2.2250560188e+000	 2.8650400456e-001
 6.3339101508e-002	 2.2257629184e+000	 2.9374435095e-001
 4.2147789804e-002	 2.2262650434e+000	 2.8140094349e-001
 2.1033941550e-002	 2.2265646442e+000	 2.4242303769e-001
 0.0000000000e+000	 2.2266640000e+000	 1.6962742960e-001
 2.1618703793e-001	 2.2429334459e+000	 2.4362884877e-001
 1.9426778004e-001	 2.2449381203e+000	 2.3057657369e-001
 1.7240783412e-001	 2.2467226226e+000	 2.3592172853e-001
 1.5061011377e-001	 2.2482890157e+000	 2.5388050397e-001
 1.2887747052e-001	 2.2496394030e+000	 2.7838376131e-001
 1.0721269334e-001	 2.2507759262e+000	 3.0309241506e-001
 8.5618508384e-002	 2.2517007635e+000	 3.2141400284e-001
 6.4097578677e-002	 2.2524161280e+000	 3.2652049581e-001
 4.2652503883e-002	 2.2529242659e+000	 3.1136738781e-001
 2.1285820153e-002	 2.2532274544e+000	 2.6871408640e-001
 0.0000000000e+000	 2.2533280000e+000	 1.9114558909e-001
 2.1874521463e-001	 2.2694744455e+000	 2.7283070510e-001
 1.9656658256e-001	 2.2715028415e+000	 2.6070398400e-001
 1.7444796431e-001	 2.2733084601e+000	 2.6672476397e-001
 1.5239230797e-001	 2.2748933886e+000	 2.8518827522e-001
 1.3040249878e-001	 2.2762597552e+000	 3.1006686418e-001
 1.0848135873e-001	 2.2774097270e+000	 3.3502392733e-001
 8.6631646245e-002	 2.2783455081e+000	 3.5342921377e-001
 6.4856055845e-002	 2.2790693377e+000	 3.5837555913e-001
 4.3157217962e-002	 2.2795834885e+000	 3.4269709691e-001
 2.1537698757e-002	 2.2798902646e+000	 2.9898897659e-001
 0.0000000000e+000	 2.2799920000e+000	 2.1962857680e-001
 2.2130339132e-001	 2.2960154450e+000	 2.8835337137e-001
 1.9886538508e-001	 2.2980675626e+000	 2.7806648402e-001
 1.7648809451e-001	 2.2998942975e+000	 2.8589993644e-001
 1.5417450216e-001	 2.3014977615e+000	 3.0626114276e-001
 1.3192752703e-001	 2.3028801075e+000	 3.3319684700e-001
 1.0975002413e-001	 2.3040435279e+000	 3.6040535542e-001
 8.7644784106e-002	 2.3049902527e+000	 3.8125032964e-001
 6.5614533013e-002	 2.3057225474e+000	 3.8877621383e-001
 4.3661932041e-002	 2.3062427110e+000	 3.7572535061e-001
 2.1789577360e-002	 2.3065530749e+000	 3.3455682207e-001
 0.0000000000e+000	 2.3066560000e+000	 2.5746701009e-001
 2.2386156802e-001	 2.3225564445e+000	 2.8636853918e-001
 2.0116418761e-001	 2.3246322838e+000	 2.7899652591e-001
 1.7852822470e-001	 2.3264801350e+000	 2.9002147067e-001
 1.5595669635e-001	 2.3281021343e+000	 3.1399956422e-001
 1.3345255529e-001	 2.3295004597e+000	 3.4508822452e-001
 1.1101868952e-001	 2.3306773288e+000	 3.7705636071e-001
 8.8657921967e-002	 2.3316349974e+000	 4.0329640151e-001
 6.6373010180e-002	 2.3323757570e+000	 4.1683817254e-001
 4.4166646119e-002	 2.3329019336e+000	 4.1036468706e-001
 2.2041455963e-002	 2.3332158851e+000	 3.7622989446e-001
 0.0000000000e+000	 2.3333200000e+000	 3.0647838699e-001
 2.3333200000e+000	 0.0000000000e+000	 1.8725130180e+000
 2.3332158851e+000	 2.2041455963e-002	 1.8867610307e+000
 2.3329019336e+000	 4.4166646119e-002	 1.9053269133e+000
 2.3323757570e+000	 6.6373010180e-002	 1.9259650806e+000
 2.3316349974e+000	 8.8657921967e-002	 1.9466255036e+000
 2.3306773288e+000	 1.1101868952e-001	 1.9654677232e+000
 2.3295004597e+000	 1.3345255529e-001	 1.9808722139e+000
 2.3281021343e+000	 1.5595669635e-001	 1.9914491237e+000
 2.3264801350e+000	 1.7852822470e-001	 1.9960444621e+000
 2.3246322838e+000	 2.0116418761e-001	 1.9937438338e+000
 2.3225564445e+000	 2.2386156802e-001	 1.9838738497e+000
 2.3599880000e+000	 0.0000000000e+000	 1.7672338220e+000
 2.3598826951e+000	 2.2293372352e-002	 1.7927911372e+000
 2.3595651554e+000	 4.4671435911e-002	 1.8222504232e+000
 2.3590329651e+000	 6.7131601130e-002	 1.8531423040e+000
 2.3582837391e+000	 8.9671211813e-002	 1.8832495673e+000
 2.3573151252e+000	 1.1228754524e-001	 1.9106199899e+000
 2.3561248054e+000	 1.3497781233e-001	 1.9335761586e+000
 2.3547104983e+000	 1.5773915790e-001	 1.9507223194e+000
 2.3530699608e+000	 1.8056866094e-001	 1.9609483371e+000
 2.3512009901e+000	 2.0346333498e-001	 1.9634308731e+000
 2.3491014256e+000	 2.2642012848e-001	 1.9576319292e+000
 2.3866560000e+000	 0.0000000000e+000	 1.7043085784e+000
 2.3865495052e+000	 2.2545288740e-002	 1.7336966381e+000
 2.3862283772e+000	 4.5176225704e-002	 1.7672659227e+000
 2.3856901731e+000	 6.7890192080e-002	 1.8022915776e+000
 2.3849324809e+000	 9.0684501658e-002	 1.8363602027e+000
 2.3839529215e+000	 1.1355640095e-001	 1.8673813285e+000
 2.3827491510e+000	 1.3650306936e-001	 1.8935955134e+000
 2.3813188622e+000	 1.5952161945e-001	 1.9135791003e+000
 2.3796597865e+000	 1.8260909719e-001	 1.9262457248e+000
 2.3777696964e+000	 2.0576248236e-001	 1.9308446970e+000
 2.3756464067e+000	 2.2897868894e-001	 1.9269564178e+000
 2.4133240000e+000	 0.0000000000e+000	 1.6838145890e+000
 2.4132163152e+000	 2.2797205128e-002	 1.7103902642e+000
 2.4128915991e+000	 4.5681015496e-002	 1.7420018953e+000
 2.4123473812e+000	 6.8648783029e-002	 1.7756428206e+000
 2.4115812226e+000	 9.1697791503e-002	 1.8086800768e+000
 2.4105907179e+000	 1.1482525666e-001	 1.8388643524e+000
 2.4093734967e+000	 1.3802832640e-001	 1.8643361620e+000
 2.4079272261e+000	 1.6130408099e-001	 1.8836282916e+000
 2.4062496123e+000	 1.8464953343e-001	 1.8956646125e+000
 2.4043384027e+000	 2.0806162973e-001	 1.8997554052e+000
 2.4021913878e+000	 2.3153724940e-001	 1.8955893681e+000
 2.4399920000e+000	 0.0000000000e+000	 1.7059316422e+000
 2.4398831253e+000	 2.3049121516e-002	 1.7238657333e+000
 2.4395548209e+000	 4.6185805287e-002	 1.7481464666e+000
 2.4390045892e+000	 6.9407373978e-002	 1.7754644899e+000
 2.4382299644e+000	 9.2711081348e-002	 1.8029496232e+000
 2.4372285143e+000	 1.1609411237e-001	 1.8281790976e+000
 2.4359978424e+000	 1.3955358343e-001	 1.8491815925e+000
 2.4345355900e+000	 1.6308654254e-001	 1.8644371283e+000
 2.4328394381e+000	 1.8668996967e-001	 1.8728729265e+000
 2.4309071089e+000	 2.1036077711e-001	 1.8738553911e+000
 2.4287363689e+000	 2.3409580986e-001	 1.8671784068e+000
 2.4666600000e+000	 0.0000000000e+000	 1.7709364727e+000
 2.4665499353e+000	 2.3301037904e-002	 1.7751930610e+000
 2.4662180427e+000	 4.6690595079e-002	 1.7874434807e+000
 2.4656617973e+000	 7.0165964927e-002	 1.8040603480e+000
 2.4648787062e+000	 9.3724371192e-002	 1.8219244342e+000
 2.4638663106e+000	 1.1736296808e-001	 1.8384309821e+000
 2.4626221881e+000	 1.4107884046e-001	 1.8514913724e+000
 2.4611439540e+000	 1.6486900409e-001	 1.8595302061e+000
 2.4594292638e+000	 1.8873040592e-001	 1.8614779273e+000
 2.4574758152e+000	 2.1265992448e-001	 1.8567591577e+000
 2.4552813499e+000	 2.3665437032e-001	 1.8452769572e+000
 2.4933280000e+000	 0.0000000000e+000	 1.8791975770e+000
 2.4932167454e+000	 2.3552954292e-002	 1.8655141715e+000
 2.4928812646e+000	 4.7195384870e-002	 1.8616888298e+000
 2.4923190053e+000	 7.0924555876e-002	 1.8637664413e+000
 2.4915274479e+000	 9.4737661037e-002	 1.8683728262e+000
 2.4905041070e+000	 1.1863182380e-001	 1.8727189038e+000
 2.4892465338e+000	 1.4260409750e-001	 1.8745997358e+000
 2.4877523179e+000	 1.6665146563e-001	 1.8723885200e+000
 2.4860190896e+000	 1.9077084216e-001	 1.8650256720e+000
 2.4840445215e+000	 2.1495907186e-001	 1.8520031845e+000
 2.4818263310e+000	 2.3921293079e-001	 1.8333445002e+000
 2.5199960000e+000	 0.0000000000e+000	 2.0311703578e+000
 2.5198835554e+000	 2.3804870680e-002	 1.9960387883e+000
 2.5195444864e+000	 4.7700174662e-002	 1.9727270177e+000
 2.5189762134e+000	 7.1683146825e-002	 1.9569482721e+000
 2.5181761897e+000	 9.5750950882e-002	 1.9450735636e+000
 2.5171419034e+000	 1.1990067951e-001	 1.9341334678e+000
 2.5158708794e+000	 1.4412935453e-001	 1.9218142727e+000
 2.5143606818e+000	 1.6843392718e-001	 1.9064485838e+000
 2.5126089153e+000	 1.9281127840e-001	 1.8870005390e+000
 2.5106132278e+000	 2.1725821923e-001	 1.8630458413e+000
 2.5083713121e+000	 2.4177149125e-001	 1.8347468692e+000
 2.5466640000e+000	 0.0000000000e+000	 2.2273925738e+000
 2.5465503655e+000	 2.4056787068e-002	 2.1680405824e+000
 2.5462077083e+000	 4.8204964454e-002	 2.1224479400e+000
 2.5456334215e+000	 7.2441737774e-002	 2.0859981508e+000
 2.5448249314e+000	 9.6764240726e-002	 2.0548137306e+000
 2.5437796997e+000	 1.2116953522e-001	 2.0257553334e+000
 2.5424952251e+000	 1.4565461156e-001	 1.9964147141e+000
 2.5409690458e+000	 1.7021638873e-001	 1.9651016238e+000
 2.5391987411e+000	 1.9485171464e-001	 1.9308248098e+000
 2.5371819341e+000	 2.1955736661e-001	 1.8932673457e+000
 2.5349162932e+000	 2.4433005171e-001	 1.8527565784e+000
 2.5733320000e+000	 0.0000000000e+000	 2.4684800728e+000
 2.5732171755e+000	 2.4308703457e-002	 2.3828535606e+000
 2.5728709301e+000	 4.8709754246e-002	 2.3127838658e+000
 2.5722906295e+000	 7.3200328724e-002	 2.2533327148e+000
 2.5714736732e+000	 9.7777530572e-002	 2.2003867396e+000
 2.5704174961e+000	 1.2243839093e-001	 2.1506536713e+000
 2.5691195708e+000	 1.4717986860e-001	 2.1016518049e+000
 2.5675774097e+000	 1.7199885027e-001	 2.0516928427e+000
 2.5657885669e+000	 1.9689215089e-001	 1.9998583054e+000
 2.5637506404e+000	 2.2185651398e-001	 1.9459697610e+000
 2.5614612743e+000	 2.4688861217e-001	 1.8905531801e+000
 2.6000000000e+000	 0.0000000000e+000	 2.7551227861e+000
 2.5998839856e+000	 2.4560619845e-002	 2.6418686761e+000
 2.5995341519e+000	 4.9214544039e-002	 2.5457066047e+000
 2.5989478376e+000	 7.3958919674e-002	 2.4613906026e+000
 2.5981224149e+000	 9.8790820418e-002	 2.3845904671e+000
 2.5970552924e+000	 1.2370724665e-001	 2.3118847240e+000
 2.5957439165e+000	 1.4870512563e-001	 2.2407462598e+000
 2.5941857736e+000	 1.7378131182e-001	 2.1695207470e+000
 2.5923783926e+000	 1.9893258713e-001	 2.0973980715e+000
 2.5903193466e+000	 2.2415566136e-001	 2.0243770317e+000
 2.5880062554e+000	 2.4944717263e-001	 1.9512236505e+000
 2.3225564445e+000	 2.2386156802e-001	 1.9838738497e+000
 2.3202508879e+000	 2.4661387566e-001	 1.9705961476e+000
 2.3177132742e+000	 2.6942140816e-001	 1.9573955085e+000
 2.3149416051e+000	 2.9228100992e-001	 1.9429252623e+000
 2.3119339318e+000	 3.1518946472e-001	 1.9260414461e+000
 2.3086883567e+000	 3.3814349649e-001	 1.9057964348e+000
 2.3052030356e+000	 3.6113977008e-001	 1.8814316903e+000
 2.3014761789e+000	 3.8417489215e-001	 1.8523699568e+000
 2.2975060545e+000	 4.0724541205e-001	 1.8182072515e+000
 2.2932909887e+000	 4.3034782282e-001	 1.7787050212e+000
 2.2888293689e+000	 4.5347856227e-001	 1.7337828534e+000
 2.3491014256e+000	 2.2642012848e-001	 1.9576319292e+000
 2.3467695183e+000	 2.4943247698e-001	 1.9477648920e+000
 2.3442029017e+000	 2.7250068152e-001	 1.9372629896e+000
 2.3413995546e+000	 2.9562155042e-001	 1.9248122760e+000
 2.3383575059e+000	 3.1879183072e-001	 1.9093287224e+000
 2.3350748366e+000	 3.4200820890e-001	 1.8899480426e+000
 2.3315496809e+000	 3.6526731169e-001	 1.8660144857e+000
 2.3277802293e+000	 3.8856570697e-001	 1.8370689531e+000
 2.3237647294e+000	 4.1189990463e-001	 1.8028368273e+000
 2.3195014888e+000	 4.3526635767e-001	 1.7632159176e+000
 2.3149888762e+000	 4.5866146316e-001	 1.7182649510e+000
 2.3756464067e+000	 2.2897868894e-001	 1.9269564178e+000
 2.3732881487e+000	 2.5225107830e-001	 1.9188196932e+000
 2.3706925291e+000	 2.7557995488e-001	 1.9097730171e+000
 2.3678575041e+000	 2.9896209093e-001	 1.8984947149e+000
 2.3647810801e+000	 3.2239419672e-001	 1.8839200928e+000
 2.3614613164e+000	 3.4587292131e-001	 1.8652271741e+000
 2.3578963263e+000	 3.6939485330e-001	 1.8418212440e+000
 2.3540842796e+000	 3.9295652178e-001	 1.8133185964e+000
 2.3500234044e+000	 4.1655439722e-001	 1.7795299055e+000
 2.3457119889e+000	 4.4018489252e-001	 1.7404436682e+000
 2.3411483836e+000	 4.6384436404e-001	 1.6962101865e+000
 2.4021913878e+000	 2.3153724940e-001	 1.8955893681e+000
 2.3998067791e+000	 2.5506967962e-001	 1.8874106596e+000
 2.3971821566e+000	 2.7865922823e-001	 1.8784267740e+000
 2.3943154536e+000	 3.0230263143e-001	 1.8672759291e+000
 2.3912046543e+000	 3.2599656273e-001	 1.8528803139e+000
 2.3878477962e+000	 3.4973763372e-001	 1.8344274246e+000
 2.3842429716e+000	 3.7352239491e-001	 1.8113500438e+000
 2.3803883299e+000	 3.9734733659e-001	 1.7833052962e+000
 2.3762820793e+000	 4.2120888981e-001	 1.7501532405e+000
 2.3719224890e+000	 4.4510342737e-001	 1.7119354874e+000
 2.3673078909e+000	 4.6902726493e-001	 1.6688543576e+000
 2.4287363689e+000	 2.3409580986e-001	 1.8671784068e+000
 2.4263254095e+000	 2.5788828094e-001	 1.8570778158e+000
 2.4236717841e+000	 2.8173850159e-001	 1.8466008681e+000
 2.4207734031e+000	 3.0564317194e-001	 1.8343214274e+000
 2.4176282285e+000	 3.2959892873e-001	 1.8191243146e+000
 2.4142342760e+000	 3.5360234613e-001	 1.8001819048e+000
 2.4105896170e+000	 3.7764993651e-001	 1.7769291969e+000
 2.4066923803e+000	 4.0173815140e-001	 1.7490378267e+000
 2.4025407543e+000	 4.2586338240e-001	 1.7163895284e+000
 2.3981329891e+000	 4.5002196221e-001	 1.6790495794e+000
 2.3934673982e+000	 4.7421016581e-001	 1.6372407855e+000
 2.4552813499e+000	 2.3665437032e-001	 1.8452769572e+000
 2.4528440399e+000	 2.6070688226e-001	 1.8312517252e+000
 2.4501614116e+000	 2.8481777495e-001	 1.8175483573e+000
 2.4472313525e+000	 3.0898371244e-001	 1.8026603176e+000
 2.4440518026e+000	 3.3320129473e-001	 1.7854190754e+000
 2.4406207558e+000	 3.5746705854e-001	 1.7649655960e+000
 2.4369362624e+000	 3.8177747812e-001	 1.7407201255e+000
 2.4329964306e+000	 4.0612896622e-001	 1.7123507834e+000
 2.4287994293e+000	 4.3051787498e-001	 1.6797415131e+000
 2.4243434892e+000	 4.5494049706e-001	 1.6429599714e+000
 2.4196269055e+000	 4.7939306669e-001	 1.6022259675e+000
 2.4818263310e+000	 2.3921293079e-001	 1.8333445002e+000
 2.4793626703e+000	 2.6352548358e-001	 1.8132541409e+000
 2.4766510391e+000	 2.8789704831e-001	 1.7943997944e+000
 2.4736893020e+000	 3.1232425294e-001	 1.7751867615e+000
 2.4704753768e+000	 3.3680366073e-001	 1.7543855201e+000
 2.4670072357e+000	 3.6133177094e-001	 1.7310977132e+000
 2.4632829077e+000	 3.8590501973e-001	 1.7047202452e+000
 2.4593004810e+000	 4.1051978103e-001	 1.6749080449e+000
 2.4550581042e+000	 4.3517236757e-001	 1.6415360930e+000
 2.4505539893e+000	 4.5985903191e-001	 1.6046613469e+000
 2.4457864128e+000	 4.8457596758e-001	 1.5644852252e+000
 2.5083713121e+000	 2.4177149125e-001	 1.8347468692e+000
 2.5058813007e+000	 2.6634408490e-001	 1.8062986817e+000
 2.5031406665e+000	 2.9097632166e-001	 1.7801642910e+000
 2.5001472515e+000	 3.1566479345e-001	 1.7546614438e+000
 2.4968989510e+000	 3.4040602674e-001	 1.7285004168e+000
 2.4933937155e+000	 3.6519648335e-001	 1.7007440769e+000
 2.4896295531e+000	 3.9003256133e-001	 1.6707658548e+000
 2.4856045313e+000	 4.1491059584e-001	 1.6382062378e+000
 2.4813167792e+000	 4.3982686015e-001	 1.6029284318e+000
 2.4767644894e+000	 4.6477756676e-001	 1.5649738785e+000
 2.4719459201e+000	 4.8975886846e-001	 1.5245183475e+000
 2.5349162932e+000	 2.4433005171e-001	 1.8527565784e+000
 2.5323999311e+000	 2.6916268622e-001	 1.8134915314e+000
 2.5296302940e+000	 2.9405559502e-001	 1.7777305985e+000
 2.5266052010e+000	 3.1900533395e-001	 1.7437130531e+000
 2.5233225252e+000	 3.4400839274e-001	 1.7100982880e+000
 2.5197801953e+000	 3.6906119576e-001	 1.6759194913e+000
 2.5159761984e+000	 3.9416010294e-001	 1.6405350312e+000
 2.5119085816e+000	 4.1930141065e-001	 1.6035782069e+000
 2.5075754541e+000	 4.4448135274e-001	 1.5649060698e+000
 2.5029749895e+000	 4.6969610161e-001	 1.5245480588e+000
 2.4981054275e+000	 4.9494176935e-001	 1.4826552290e+000
 2.5614612743e+000	 2.4688861217e-001	 1.8905531801e+000
 2.5589185615e+000	 2.7198128754e-001	 1.8378321606e+000
 2.5561199215e+000	 2.9713486838e-001	 1.7898682047e+000
 2.5530631505e+000	 3.2234587446e-001	 1.7448397750e+000
 2.5497460993e+000	 3.4761075874e-001	 1.7013733306e+000
 2.5461666751e+000	 3.7292590817e-001	 1.6584901301e+000
 2.5423228438e+000	 3.9828764455e-001	 1.6155505298e+000
 2.5382126320e+000	 4.2369222546e-001	 1.5721964883e+000
 2.5338341291e+000	 4.4913584533e-001	 1.5282930384e+000
 2.5291854896e+000	 4.7461463645e-001	 1.4838695328e+000
 2.5242649348e+000	 5.0012467023e-001	 1.4390615039e+000
 2.5880062554e+000	 2.4944717263e-001	 1.9512236505e+000
 2.5854371919e+000	 2.7479988887e-001	 1.8822140687e+000
 2.5826095490e+000	 3.0021414174e-001	 1.8192284455e+000
 2.5795211000e+000	 3.2568641496e-001	 1.7604107959e+000
 2.5761696735e+000	 3.5121312474e-001	 1.7043813427e+000
 2.5725531550e+000	 3.7679062058e-001	 1.6501759272e+000
 2.5686694892e+000	 4.0241518616e-001	 1.5971826891e+000
 2.5645166823e+000	 4.2808304028e-001	 1.5450767863e+000
 2.5600928041e+000	 4.5379033791e-001	 1.4937539761e+000
 2.5553959897e+000	 4.7953317130e-001	 1.4432639277e+000
 2.5504244421e+000	 5.0530757112e-001	 1.3937441763e+000
 2.2888293689e+000	 4.5347856227e-001	 1.7337828534e+000
 2.2841189201e+000	 4.7663748852e-001	 1.6865468637e+000
 2.2791588084e+000	 4.9981745820e-001	 1.6394298222e+000
 2.2739476157e+000	 5.2301474317e-001	 1.5915273337e+000
 2.2684839922e+000	 5.4622556476e-001	 1.5420597001e+000
 2.2627666581e+000	 5.6944609519e-001	 1.4903754851e+000
 2.2567944051e+000	 5.9267245902e-001	 1.4359582461e+000
 2.2505660983e+000	 6.1590073469e-001	 1.3784368542e+000
 2.2440806781e+000	 6.3912695606e-001	 1.3175998130e+000
 2.2373371614e+000	 6.6234711413e-001	 1.2534139686e+000
 2.2303346436e+000	 6.8555715871e-001	 1.1876752057e+000
 2.3149888762e+000	 4.5866146316e-001	 1.7182649510e+000
 2.3102245907e+000	 4.8208507759e-001	 1.6711526796e+000
 2.3052077888e+000	 5.0552997598e-001	 1.6242365121e+000
 2.2999370364e+000	 5.2899238754e-001	 1.5765352860e+000
 2.2944109680e+000	 5.5246849044e-001	 1.5271784269e+000
 2.2886282893e+000	 5.7595441315e-001	 1.4754062288e+000
 2.2825877781e+000	 5.9944623593e-001	 1.4205735584e+000
 2.2762882867e+000	 6.2293999239e-001	 1.3621574500e+000
 2.2697287433e+000	 6.4643167109e-001	 1.2997690422e+000
 2.2629081536e+000	 6.6991721718e-001	 1.2332122298e+000
 2.2558256026e+000	 6.9339253419e-001	 1.1659329161e+000
 2.3411483836e+000	 4.6384436404e-001	 1.6962101865e+000
 2.3363302614e+000	 4.8753266667e-001	 1.6500268073e+000
 2.3312567693e+000	 5.1124249375e-001	 1.6041610114e+000
 2.3259264570e+000	 5.3497003191e-001	 1.5575328833e+000
 2.3203379438e+000	 5.5871141613e-001	 1.5091555491e+000
 2.3144899205e+000	 5.8246273111e-001	 1.4581318853e+000
 2.3083811512e+000	 6.0622001284e-001	 1.4036549297e+000
 2.3020104752e+000	 6.2997925010e-001	 1.3450125071e+000
 2.2953768085e+000	 6.5373638611e-001	 1.2815965686e+000
 2.2884791457e+000	 6.7748732023e-001	 1.2134470624e+000
 2.2813165615e+000	 7.0122790966e-001	 1.1453564363e+000
 2.3673078909e+000	 4.6902726493e-001	 1.6688543576e+000
 2.3624359320e+000	 4.9298025574e-001	 1.6240989308e+000
 2.3573057498e+000	 5.1695501152e-001	 1.5798285367e+000
 2.3519158777e+000	 5.4094767629e-001	 1.5348489170e+000
 2.3462649196e+000	 5.6495434181e-001	 1.4880376734e+000
 2.3403515516e+000	 5.8897104907e-001	 1.4383370920e+000
 2.3341745242e+000	 6.1299378974e-001	 1.3847509692e+000
 2.3277326636e+000	 6.3701850780e-001	 1.3263460030e+000
 2.3210248737e+000	 6.6104110114e-001	 1.2622582950e+000
 2.3140501379e+000	 6.8505742327e-001	 1.1934109142e+000
 2.3068075204e+000	 7.0906328514e-001	 1.1251128447e+000
 2.3934673982e+000	 4.7421016581e-001	 1.6372407855e+000
 2.3885416026e+000	 4.9842784481e-001	 1.5941047503e+000
 2.3833547302e+000	 5.2266752930e-001	 1.5516712707e+000
 2.3779052983e+000	 5.4692532066e-001	 1.5086225892e+000
 2.3721918953e+000	 5.7119726749e-001	 1.4636877821e+000
 2.3662131828e+000	 5.9547936703e-001	 1.4156313600e+000
 2.3599678973e+000	 6.1976756665e-001	 1.3632461931e+000
 2.3534548520e+000	 6.4405776551e-001	 1.3053513757e+000
 2.3466729389e+000	 6.6834581616e-001	 1.2408076409e+000
 2.3396211300e+000	 6.9262752632e-001	 1.1722135287e+000
 2.3322984793e+000	 7.1689866062e-001	 1.1042527347e+000
 2.4196269055e+000	 4.7939306669e-001	 1.6022259675e+000
 2.4146472732e+000	 5.0387543389e-001	 1.5605925311e+000
 2.4094037107e+000	 5.2838004707e-001	 1.5199358677e+000
 2.4038947190e+000	 5.5290296503e-001	 1.4788120427e+000
 2.3981188711e+000	 5.7744019317e-001	 1.4357948630e+000
 2.3920748140e+000	 6.0198768499e-001	 1.3894598882e+000
 2.3857612703e+000	 6.2654134356e-001	 1.3383731113e+000
 2.3791770405e+000	 6.5109702321e-001	 1.2810849815e+000
 2.3723210042e+000	 6.7565053119e-001	 1.2165245442e+000
 2.3651921222e+000	 7.0019762936e-001	 1.1488541565e+000
 2.3577894383e+000	 7.2473403609e-001	 1.0817154635e+000
 2.4457864128e+000	 4.8457596758e-001	 1.5644852252e+000
 2.4407529438e+000	 5.0932302296e-001	 1.5239296432e+000
 2.4354526912e+000	 5.3409256484e-001	 1.4846909452e+000
 2.4298841397e+000	 5.5888060940e-001	 1.4452028729e+000
 2.4240458469e+000	 5.8368311886e-001	 1.4038835181e+000
 2.4179364451e+000	 6.0849600294e-001	 1.3591143503e+000
 2.4115546434e+000	 6.3331512046e-001	 1.3092242836e+000
 2.4048992289e+000	 6.5813628092e-001	 1.2524795161e+000
 2.3979690694e+000	 6.8295524621e-001	 1.1885083150e+000
 2.3907631144e+000	 7.0776773240e-001	 1.1222262683e+000
 2.3832803972e+000	 7.3256941157e-001	 1.0563343366e+000
 2.4719459201e+000	 4.8975886846e-001	 1.5245183475e+000
 2.4668586144e+000	 5.1477061203e-001	 1.4843090900e+000
 2.4615016716e+000	 5.3980508261e-001	 1.4458345609e+000
 2.4558735603e+000	 5.6485825377e-001	 1.4074166224e+000
 2.4499728226e+000	 5.8992604454e-001	 1.3673235506e+000
 2.4437980763e+000	 6.1500432090e-001	 1.3237436574e+000
 2.4373480164e+000	 6.4008889737e-001	 1.2747643469e+000
 2.4306214173e+000	 6.6517553862e-001	 1.2183574014e+000
 2.4236171346e+000	 6.9025996123e-001	 1.1556314662e+000
 2.4163341065e+000	 7.1533783545e-001	 1.0911222177e+000
 2.4087713561e+000	 7.4040478704e-001	 1.0268417302e+000
 2.4981054275e+000	 4.9494176935e-001	 1.4826552290e+000
 2.4929642851e+000	 5.2021820111e-001	 1.4417560297e+000
 2.4875506521e+000	 5.4551760038e-001	 1.4031016784e+000
 2.4818629810e+000	 5.7083589814e-001	 1.3649192596e+000
 2.4758997984e+000	 5.9616897022e-001	 1.3253395330e+000
 2.4696597075e+000	 6.2151263886e-001	 1.2823646985e+000
 2.4631413894e+000	 6.4686267428e-001	 1.2338420151e+000
 2.4563436058e+000	 6.7221479633e-001	 1.1776031376e+000
 2.4492651998e+000	 6.9756467626e-001	 1.1166693770e+000
 2.4419050987e+000	 7.2290793849e-001	 1.0542378583e+000
 2.4342623150e+000	 7.4824016252e-001	 9.9187415937e-001
 2.5242649348e+000	 5.0012467023e-001	 1.4390615039e+000
 2.5190699557e+000	 5.2566579018e-001	 1.3961342866e+000
 2.5135996326e+000	 5.5123011816e-001	 1.3560716203e+000
 2.5078524016e+000	 5.7681354251e-001	 1.3170296432e+000
 2.5018267742e+000	 6.0241189591e-001	 1.2770203586e+000
 2.4955213386e+000	 6.2802095682e-001	 1.2338730589e+000
 2.4889347625e+000	 6.5363645118e-001	 1.1852020547e+000
 2.4820657942e+000	 6.7925405403e-001	 1.1292748728e+000
 2.4749132650e+000	 7.0486939128e-001	 1.0703044643e+000
 2.4674760908e+000	 7.3047804154e-001	 1.0101771175e+000
 2.4597532740e+000	 7.5607553799e-001	 9.4997729240e-001
 2.5504244421e+000	 5.0530757112e-001	 1.3937441763e+000
 2.5451756263e+000	 5.3111337925e-001	 1.3471528565e+000
 2.5396486130e+000	 5.5694263593e-001	 1.3041755106e+000
 2.5338418223e+000	 5.8279118688e-001	 1.2629279724e+000
 2.5277537500e+000	 6.0865482159e-001	 1.2213287745e+000
 2.5213829698e+000	 6.3452927478e-001	 1.1770537203e+000
 2.5147281355e+000	 6.6041022809e-001	 1.1274972369e+000
 2.5077879826e+000	 6.8629331174e-001	 1.0720722586e+000
 2.5005613302e+000	 7.1217410630e-001	 1.0151303204e+000
 2.4930470830e+000	 7.3804814458e-001	 9.5745653055e-001
 2.4852442329e+000	 7.6391091347e-001	 8.9961091844e-001
 2.2303346436e+000	 6.8555715871e-001	 1.1876752057e+000
 2.2230722995e+000	 7.0875299987e-001	 1.1217918761e+000
 2.2155493829e+000	 7.3193050875e-001	 1.0532735874e+000
 2.2077652301e+000	 7.5508552040e-001	 9.8239248796e-001
 2.1997192618e+000	 7.7821383611e-001	 9.0945525279e-001
 2.1914109843e+000	 8.0131122541e-001	 8.3479626653e-001
 2.1828399911e+000	 8.2437342815e-001	 7.5877120868e-001
 2.1740059639e+000	 8.4739615664e-001	 6.8175109326e-001
 2.1649086739e+000	 8.7037509788e-001	 6.0411681029e-001
 2.1555479833e+000	 8.9330591575e-001	 5.2625421183e-001
 2.1459238455e+000	 9.1618425334e-001	 4.4854978045e-001
 2.2558256026e+000	 6.9339253419e-001	 1.1659329161e+000
 2.2484802556e+000	 7.1685348544e-001	 1.0991706041e+000
 2.2408713580e+000	 7.4029589490e-001	 1.0306252056e+000
 2.2329982385e+000	 7.6371555000e-001	 9.6040356508e-001
 2.2248603111e+000	 7.8710820405e-001	 8.8864147122e-001
 2.2164570766e+000	 8.1046957821e-001	 8.1549668205e-001
 2.2077881238e+000	 8.3379536366e-001	 7.4114242057e-001
 2.1988531306e+000	 8.5708122372e-001	 6.6576139534e-001
 2.1896518658e+000	 8.8032279606e-001	 5.8954039659e-001
 2.1801841899e+000	 9.0351569502e-001	 5.1266551312e-001
 2.1704500559e+000	 9.2665551389e-001	 4.3531800927e-001
 2.2813165615e+000	 7.0122790966e-001	 1.1453564363e+000
 2.2738882116e+000	 7.2495397102e-001	 1.0782414862e+000
 2.2661933331e+000	 7.4866128104e-001	 1.0101088331e+000
 2.2582312469e+000	 7.7234557960e-001	 9.4092874334e-001
 2.2500013605e+000	 7.9600257198e-001	 8.7069380565e-001
 2.2415031690e+000	 8.1962793101e-001	 7.9941173415e-001
 2.2327362564e+000	 8.4321729918e-001	 7.2709871381e-001
 2.2237002973e+000	 8.6676629079e-001	 6.5377334732e-001
 2.2143950577e+000	 8.9027049423e-001	 5.7945125661e-001
 2.2048203965e+000	 9.1372547428e-001	 5.0414038697e-001
 2.1949762662e+000	 9.3712677444e-001	 4.2783705506e-001
 2.3068075204e+000	 7.0906328514e-001	 1.1251128447e+000
 2.2992961677e+000	 7.3305445659e-001	 1.0581215595e+000
 2.2915153082e+000	 7.5702666719e-001	 9.9078444934e-001
 2.2834642553e+000	 7.8097560919e-001	 9.2296354226e-001
 2.2751424099e+000	 8.0489693991e-001	 8.5453548363e-001
 2.2665492613e+000	 8.2878628382e-001	 7.8538405174e-001
 2.2576843891e+000	 8.5263923470e-001	 7.1539329341e-001
 2.2485474640e+000	 8.7645135786e-001	 6.4444134264e-001
 2.2391382496e+000	 9.0021819241e-001	 5.7239497903e-001
 2.2294566031e+000	 9.2393525355e-001	 4.9910497663e-001
 2.2195024766e+000	 9.4759803499e-001	 4.2440228681e-001
 2.3322984793e+000	 7.1689866062e-001	 1.1042527347e+000
 2.3247041238e+000	 7.4115494217e-001	 1.0378105540e+000
 2.3168372833e+000	 7.6539205334e-001	 9.7159497087e-001
 2.3086972637e+000	 7.8960563879e-001	 9.0538775131e-001
 2.3002834592e+000	 8.1379130784e-001	 8.3897644434e-001
 2.2915953536e+000	 8.3794463662e-001	 7.7214654401e-001
 2.2826325217e+000	 8.6206117021e-001	 7.0467435549e-001
 2.2733946308e+000	 8.8613642494e-001	 6.3632063161e-001
 2.2638814415e+000	 9.1016589059e-001	 5.6682504033e-001
 2.2540928097e+000	 9.3414503282e-001	 4.9590151686e-001
 2.2440286869e+000	 9.5806929554e-001	 4.2323454646e-001
 2.3577894383e+000	 7.2473403609e-001	 1.0817154635e+000
 2.3501120799e+000	 7.4925542774e-001	 1.0161966400e+000
 2.3421592584e+000	 7.7375743949e-001	 9.5137247391e-001
 2.3339302721e+000	 7.9823566838e-001	 8.8697210467e-001
 2.3254245086e+000	 8.2268567577e-001	 8.2272044040e-001
 2.3166414459e+000	 8.4710298942e-001	 7.5832990184e-001
 2.3075806544e+000	 8.7148310573e-001	 6.9349295904e-001
 2.2982417975e+000	 8.9582149201e-001	 6.2787553222e-001
 2.2886246334e+000	 9.2011358876e-001	 5.6111132124e-001
 2.2787290163e+000	 9.4435481208e-001	 4.9279712051e-001
 2.2685548972e+000	 9.6854055608e-001	 4.2248916824e-001
 2.3832803972e+000	 7.3256941157e-001	 1.0563343366e+000
 2.3755200360e+000	 7.5735591331e-001	 9.9206209626e-001
 2.3674812335e+000	 7.8212282563e-001	 9.2884432967e-001
 2.3591632805e+000	 8.0686569798e-001	 8.6638486135e-001
 2.3505655579e+000	 8.3158004370e-001	 8.0437203968e-001
 2.3416875382e+000	 8.5626134222e-001	 7.4246999635e-001
 2.3325287870e+000	 8.8090504125e-001	 6.8031079423e-001
 2.3230889642e+000	 9.0550655908e-001	 6.1748753937e-001
 2.3133678253e+000	 9.3006128694e-001	 5.5354852607e-001
 2.3033652229e+000	 9.5456459135e-001	 4.8799247533e-001
 2.2930811076e+000	 9.7901181663e-001	 4.2026491818e-001
 2.4087713561e+000	 7.4040478704e-001	 1.0268417302e+000
 2.4009279921e+000	 7.6545639888e-001	 9.6408890884e-001
 2.3928032086e+000	 7.9048821178e-001	 9.0263925930e-001
 2.3843962889e+000	 8.1549572757e-001	 8.4219829800e-001
 2.3757066073e+000	 8.4047441163e-001	 7.8244353479e-001
 2.3667336306e+000	 8.6541969502e-001	 7.2301518223e-001
 2.3574769197e+000	 8.9032697676e-001	 6.6350785488e-001
 2.3479361309e+000	 9.1519162615e-001	 6.0346333994e-001
 2.3381110172e+000	 9.4000898511e-001	 5.4236451216e-001
 2.3280014296e+000	 9.6477437061e-001	 4.7963045745e-001
 2.3176073179e+000	 9.8948307718e-001	 4.1461285973e-001
 2.4342623150e+000	 7.4824016252e-001	 9.9187415937e-001
 2.4263359481e+000	 7.7355688446e-001	 9.3086430232e-001
 2.4181251837e+000	 7.9885359793e-001	 8.7129331429e-001
 2.4096292973e+000	 8.2412575717e-001	 8.1289512049e-001
 2.4008476566e+000	 8.4936877956e-001	 7.5536176682e-001
 2.3917797229e+000	 8.7457804782e-001	 6.9833351263e-001
 2.3824250523e+000	 8.9974891228e-001	 6.4139002204e-001
 2.3727832976e+000	 9.2487669322e-001	 5.8404274074e-001
 2.3628542091e+000	 9.4995668329e-001	 5.2572853594e-001
 2.3526376362e+000	 9.7498414988e-001	 4.6580466787e-001
 2.3421335283e+000	 9.9995433773e-001	 4.0354515075e-001
 2.4597532740e+000	 7.5607553799e-001	 9.4997729240e-001
 2.4517439042e+000	 7.8165737003e-001	 8.9088621033e-001
 2.4434471588e+000	 8.0721898407e-001	 8.3325578786e-001
 2.4348623057e+000	 8.3275578676e-001	 7.7687480047e-001
 2.4259887060e+000	 8.5826314749e-001	 7.2147486962e-001
 2.4168258152e+000	 8.8373640062e-001	 6.6671987234e-001
 2.4073731850e+000	 9.0917084779e-001	 6.1219656526e-001
 2.3976304643e+000	 9.3456176030e-001	 5.5740651556e-001
 2.3875974010e+000	 9.5990438146e-001	 5.0175942183e-001
 2.3772738428e+000	 9.8519392915e-001	 4.4456789732e-001
 2.3666597386e+000	 1.0104255983e+000	 3.8503706048e-001
 2.4852442329e+000	 7.6391091347e-001	 8.9961091844e-001
 2.4771518603e+000	 7.8975785560e-001	 8.4256868894e-001
 2.4687691339e+000	 8.1558437022e-001	 7.8689506203e-001
 2.4600953141e+000	 8.4138581636e-001	 7.3245984204e-001
 2.4511297553e+000	 8.6715751542e-001	 6.7905894033e-001
 2.4418719075e+000	 8.9289475342e-001	 6.2640303481e-001
 2.4323213176e+000	 9.1859278331e-001	 5.7410756732e-001
 2.4224776311e+000	 9.4424682737e-001	 5.2168417715e-001
 2.4123405929e+000	 9.6985207964e-001	 4.6853365935e-001
 2.4019100494e+000	 9.9540370841e-001	 4.1394052481e-001
 2.3911859489e+000	 1.0208968588e+000	 3.5706321909e-001
 2.1459238455e+000	 9.1618425334e-001	 4.4854978045e-001
 2.1360378104e+000	 9.3900231690e-001	 3.7216248400e-001
 2.1258885955e+000	 9.6175915357e-001	 2.9766522296e-001
 2.1154764373e+000	 9.8445036148e-001	 2.2460034115e-001
 2.1048016674e+000	 1.0070715277e+000	 1.5251320458e-001
 2.0938647137e+000	 1.0296182305e+000	 8.0949363967e-002
 2.0826661006e+000	 1.0520860425e+000	 9.4734813026e-003
 2.0712064498e+000	 1.0744705326e+000	-6.2355503054e-002
 2.0594864808e+000	 1.0967672688e+000	-1.3496158804e-001
 2.0475070112e+000	 1.1189718211e+000	-2.0875317675e-001
 2.0352689572e+000	 1.1410797639e+000	-2.8411866068e-001
 2.1704500559e+000	 9.2665551389e-001	 4.3531800927e-001
 2.1604510311e+000	 9.4973436985e-001	 3.5869995243e-001
 2.1501858188e+000	 9.7275129914e-001	 2.8366373435e-001
 2.1396546578e+000	 9.9570184959e-001	 2.0989205885e-001
 2.1288578838e+000	 1.0185815578e+000	 1.3705894826e-001
 2.1177959294e+000	 1.0413859516e+000	 6.4851381120e-002
 2.1064693250e+000	 1.0641105529e+000	-7.0616542562e-003
 2.0948786995e+000	 1.0867508800e+000	-7.9003069872e-002
 2.0830247805e+000	 1.1093024502e+000	-1.5129063148e-001
 2.0709083951e+000	 1.1317607830e+000	-2.2423290158e-001
 2.0585304698e+000	 1.1541214020e+000	-2.9812452213e-001
 2.1949762662e+000	 9.3712677444e-001	 4.2783705506e-001
 2.1848642519e+000	 9.6046642279e-001	 3.5174511758e-001
 2.1744830421e+000	 9.8374344471e-001	 2.7693326916e-001
 2.1638328784e+000	 1.0069533377e+000	 2.0320990328e-001
 2.1529141003e+000	 1.0300915879e+000	 1.3036733983e-001
 2.1417271451e+000	 1.0531536727e+000	 5.8201547649e-002
 2.1302725494e+000	 1.0761350633e+000	-1.3515744280e-002
 2.1185509491e+000	 1.0990312274e+000	-8.5012854940e-002
 2.1065630802e+000	 1.1218376317e+000	-1.5652034149e-001
 2.0943097789e+000	 1.1445497449e+000	-2.2826663601e-001
 2.0817919823e+000	 1.1671630402e+000	-3.0047295199e-001
 2.2195024766e+000	 9.4759803499e-001	 4.2440228681e-001
 2.2092774727e+000	 9.7119847574e-001	 3.4945863073e-001
 2.1987802654e+000	 9.9473559028e-001	 2.7550383003e-001
 2.1880110990e+000	 1.0182048258e+000	 2.0245229766e-001
 2.1769703167e+000	 1.0416016180e+000	 1.3021496649e-001
 2.1656583608e+000	 1.0649213938e+000	 5.8664643783e-002
 2.1540757738e+000	 1.0881595737e+000	-1.2336266837e-002
 2.1422231988e+000	 1.1113115748e+000	-8.2939665287e-002
 2.1301013799e+000	 1.1343728131e+000	-1.5330786285e-001
 2.1177111628e+000	 1.1573387067e+000	-2.2360884064e-001
 2.1050534949e+000	 1.1802046783e+000	-2.9401070220e-001
 2.2440286869e+000	 9.5806929554e-001	 4.2323454646e-001
 2.2336906935e+000	 9.8193052869e-001	 3.4993682242e-001
 2.2230774887e+000	 1.0057277359e+000	 2.7735174700e-001
 2.2121893196e+000	 1.0294563139e+000	 2.0549131404e-001
 2.2010265331e+000	 1.0531116482e+000	 1.3435245491e-001
 2.1895895765e+000	 1.0766891149e+000	 6.3885879465e-002
 2.1778789982e+000	 1.1001840841e+000	-5.9783581539e-003
 2.1658954485e+000	 1.1235919221e+000	-7.5333872610e-002
 2.1536396796e+000	 1.1469079945e+000	-1.4429368715e-001
 2.1411125466e+000	 1.1701276686e+000	-2.1298503882e-001
 2.1283150075e+000	 1.1932463165e+000	-2.8154329660e-001
 2.2685548972e+000	 9.6854055608e-001	 4.2248916824e-001
 2.2581039143e+000	 9.9266258164e-001	 3.5122093420e-001
 2.2473747120e+000	 1.0167198814e+000	 2.8040341795e-001
 2.2363675401e+000	 1.0407078020e+000	 2.1014922743e-001
 2.2250827495e+000	 1.0646216783e+000	 1.4050904695e-001
 2.2135207922e+000	 1.0884568360e+000	 7.1500963467e-002
 2.2016822226e+000	 1.1122085945e+000	 3.1054650201e-003
 2.1895676981e+000	 1.1358722695e+000	-6.4730926668e-002
 2.1771779793e+000	 1.1594431759e+000	-1.3209095630e-001
 2.1645139305e+000	 1.1829166305e+000	-1.9908090915e-001
 2.1515765201e+000	 1.2062879546e+000	-2.6582391082e-001
 2.2930811076e+000	 9.7901181663e-001	 4.2026491818e-001
 2.2825171351e+000	 1.0033946346e+000	 3.5130628212e-001
 2.2716719353e+000	 1.0277120270e+000	 2.8256808659e-001
 2.2605457607e+000	 1.0519592901e+000	 2.1423072603e-001
 2.2491389659e+000	 1.0761317084e+000	 1.4640242921e-001
 2.2374520078e+000	 1.1002245571e+000	 7.9146154327e-002
 2.2254854470e+000	 1.1242331049e+000	 1.2475577780e-002
 2.2132399478e+000	 1.1481526169e+000	-5.3640860986e-002
 2.2007162790e+000	 1.1719783574e+000	-1.1927474558e-001
 2.1879153143e+000	 1.1957055924e+000	-1.8453134471e-001
 2.1748380327e+000	 1.2193295928e+000	-2.4954220637e-001
 2.3176073179e+000	 9.8948307718e-001	 4.1461285973e-001
 2.3069303559e+000	 1.0141266875e+000	 3.4814517100e-001
 2.2959691586e+000	 1.0387041726e+000	 2.8171119199e-001
 2.2847239813e+000	 1.0632107782e+000	 2.1552669593e-001
 2.2731951823e+000	 1.0876417385e+000	 1.4974853403e-001
 2.2613832235e+000	 1.1119922782e+000	 8.4468294421e-002
 2.2492886714e+000	 1.1362576153e+000	 1.9715514563e-002
 2.2369121975e+000	 1.1604329643e+000	-4.4537791450e-002
 2.2242545787e+000	 1.1845135388e+000	-1.0837132757e-001
 2.2113166982e+000	 1.2084945542e+000	-1.7190948145e-001
 2.1980995453e+000	 1.2323712309e+000	-2.3531312232e-001
 2.3421335283e+000	 9.9995433773e-001	 4.0354515075e-001
 2.3313435766e+000	 1.0248587405e+000	 3.3968132592e-001
 2.3202663819e+000	 1.0496963181e+000	 2.7568825201e-001
 2.3089022019e+000	 1.0744622664e+000	 2.1182375137e-001
 2.2972513987e+000	 1.0991517687e+000	 1.4827131375e-001
 2.2853144392e+000	 1.1237599992e+000	 8.5134828432e-002
 2.2730918958e+000	 1.1482821256e+000	 2.2442232124e-002
 2.2605844471e+000	 1.1727133117e+000	-3.9849408300e-002
 2.2477928784e+000	 1.1970487202e+000	-1.0184741844e-001
 2.2347180820e+000	 1.2212835161e+000	-1.6371569796e-001
 2.2213610579e+000	 1.2454128691e+000	-2.2566562761e-001
 2.3666597386e+000	 1.0104255983e+000	 3.8503706048e-001
 2.3557567974e+000	 1.0355907934e+000	 3.2381979990e-001
 2.3445636051e+000	 1.0606884637e+000	 2.6234780389e-001
 2.3330804224e+000	 1.0857137545e+000	 2.0091373027e-001
 2.3213076151e+000	 1.1106617988e+000	 1.3971249028e-001
 2.3092456549e+000	 1.1355277203e+000	 7.8843807334e-002
 2.2968951202e+000	 1.1603066360e+000	 1.8316368327e-002
 2.2842566968e+000	 1.1849936591e+000	-4.1946462017e-002
 2.2713311781e+000	 1.2095839016e+000	-1.0209940793e-001
 2.2581194659e+000	 1.2340724780e+000	-1.6236658878e-001
 2.2446225705e+000	 1.2584545072e+000	-2.2303143690e-001
 2.3911859489e+000	 1.0208968588e+000	 3.5706321909e-001
 2.3801700182e+000	 1.0463228464e+000	 2.9846264225e-001
 2.3688608284e+000	 1.0716806093e+000	 2.3954060430e-001
 2.3572586430e+000	 1.0969652426e+000	 1.8060315744e-001
 2.3453638315e+000	 1.1221718289e+000	 1.2184128184e-001
 2.3331768706e+000	 1.1472954414e+000	 6.3333878933e-002
 2.3206983446e+000	 1.1723311464e+000	 5.0524970465e-003
 2.3079289465e+000	 1.1972740064e+000	-5.3132243528e-002
 2.2948694778e+000	 1.2221190831e+000	-1.1144257407e-001
 2.2815208497e+000	 1.2468614399e+000	-1.7018391308e-001
 2.2678840830e+000	 1.2714961454e+000	-2.2973369261e-001
 2.0352689572e+000	 1.1410797639e+000	-2.8411866068e-001
 2.0227714400e+000	 1.1630899723e+000	-3.5929953304e-001
 2.0100173918e+000	 1.1849947132e+000	-4.3256788143e-001
 1.9970080273e+000	 1.2067895896e+000	-5.0433476654e-001
 1.9837446602e+000	 1.2284702205e+000	-5.7396250544e-001
 1.9702287031e+000	 1.2500322424e+000	-6.4063587842e-001
 1.9564616671e+000	 1.2714713133e+000	-7.0375510135e-001
 1.9424451616e+000	 1.2927831142e+000	-7.6265756188e-001
 1.9281808938e+000	 1.3139633529e+000	-8.1661385966e-001
 1.9136706685e+000	 1.3350077662e+000	-8.6482778504e-001
 1.8989163873e+000	 1.3559121227e+000	-9.0690637147e-001
 2.0585304698e+000	 1.1541214020e+000	-2.9812452213e-001
 2.0458901159e+000	 1.1763831698e+000	-3.7142886477e-001
 2.0329902990e+000	 1.1985382644e+000	-4.4263198353e-001
 2.0198322477e+000	 1.2205822391e+000	-5.1208003544e-001
 2.0064172909e+000	 1.2425106623e+000	-5.8010966281e-001
 1.9927468571e+000	 1.2643191212e+000	-6.4672853500e-001
 1.9788224748e+000	 1.2860032236e+000	-7.1015910495e-001
 1.9646457717e+000	 1.3075586015e+000	-7.6941283829e-001
 1.9502184746e+000	 1.3289809136e+000	-8.2364940453e-001
 1.9355424090e+000	 1.3502658479e+000	-8.7203457429e-001
 1.9206194979e+000	 1.3714091246e+000	-9.1311563223e-001
 2.0817919823e+000	 1.1671630402e+000	-3.0047295199e-001
 2.0690087917e+000	 1.1896763672e+000	-3.7186910682e-001
 2.0559632062e+000	 1.2120818157e+000	-4.4120942018e-001
 2.0426564682e+000	 1.2343748885e+000	-5.0877801795e-001
 2.0290899215e+000	 1.2565511042e+000	-5.7485538792e-001
 2.0152650111e+000	 1.2786059999e+000	-6.3970953449e-001
 2.0011832824e+000	 1.3005351339e+000	-7.0358673431e-001
 1.9868463818e+000	 1.3223340888e+000	-7.6528995751e-001
 1.9722560554e+000	 1.3439984743e+000	-8.2232898987e-001
 1.9574141494e+000	 1.3655239295e+000	-8.7293410226e-001
 1.9423226086e+000	 1.3869061265e+000	-9.1487286003e-001
 2.1050534949e+000	 1.1802046783e+000	-2.9401070220e-001
 2.0921274676e+000	 1.2029695646e+000	-3.6354292031e-001
 2.0789361133e+000	 1.2256253669e+000	-4.3127068448e-001
 2.0654806886e+000	 1.2481675379e+000	-4.9745051962e-001
 2.0517625522e+000	 1.2705915461e+000	-5.6234056705e-001
 2.0377831651e+000	 1.2928928786e+000	-6.2619094995e-001
 2.0235440901e+000	 1.3150670442e+000	-6.8923369666e-001
 2.0090469919e+000	 1.3371095762e+000	-7.5165537486e-001
 1.9942936363e+000	 1.3590160350e+000	-8.1229581983e-001
 1.9792858898e+000	 1.3807820112e+000	-8.6632579913e-001
 1.9640257193e+000	 1.4024031284e+000	-9.1074751306e-001
 2.1283150075e+000	 1.1932463165e+000	-2.8154329660e-001
 2.1152461435e+000	 1.2162627620e+000	-3.4931999722e-001
 2.1019090205e+000	 1.2391689182e+000	-4.1572268472e-001
 2.0883049091e+000	 1.2619601874e+000	-4.8101437519e-001
 2.0744351829e+000	 1.2846319880e+000	-5.4546436787e-001
 2.0603013190e+000	 1.3071797573e+000	-6.0933768722e-001
 2.0459048977e+000	 1.3295989545e+000	-6.7288403817e-001
 2.0312476020e+000	 1.3518850635e+000	-7.3552595953e-001
 2.0163312171e+000	 1.3740335957e+000	-7.9527326430e-001
 2.0011576303e+000	 1.3960400929e+000	-8.5101474460e-001
 1.9857288300e+000	 1.4179001304e+000	-8.9930939384e-001
 2.1515765201e+000	 1.2062879546e+000	-2.6582391082e-001
 2.1383648193e+000	 1.2295559594e+000	-3.3200569873e-001
 2.1248819277e+000	 1.2527124694e+000	-3.9739708433e-001
 2.1111291295e+000	 1.2757528368e+000	-4.6230141029e-001
 2.0971078136e+000	 1.2986724299e+000	-5.2703241550e-001
 2.0828194730e+000	 1.3214666360e+000	-5.9190261589e-001
 2.0682657054e+000	 1.3441308648e+000	-6.5685698467e-001
 2.0534482121e+000	 1.3666605508e+000	-7.1937805118e-001
 2.0383687979e+000	 1.3890511563e+000	-7.7806505423e-001
 2.0230293707e+000	 1.4112981745e+000	-8.3188335256e-001
 2.0074319407e+000	 1.4333971323e+000	-8.7980796962e-001
 2.1748380327e+000	 1.2193295928e+000	-2.4954220637e-001
 2.1614834952e+000	 1.2428491568e+000	-3.1432963738e-001
 2.1478548349e+000	 1.2662560207e+000	-3.7903857891e-001
 2.1339533500e+000	 1.2895454862e+000	-4.4404635909e-001
 2.1197804442e+000	 1.3127128717e+000	-5.0974429511e-001
 2.1053376270e+000	 1.3357535147e+000	-5.7650252267e-001
 2.0906265131e+000	 1.3586627752e+000	-6.4209564057e-001
 2.0756488222e+000	 1.3814360382e+000	-7.0417510884e-001
 2.0604063787e+000	 1.4040687170e+000	-7.6177792754e-001
 2.0449011111e+000	 1.4265562562e+000	-8.1394354889e-001
 2.0291350514e+000	 1.4488941342e+000	-8.5971828833e-001
 2.1980995453e+000	 1.2323712309e+000	-2.3531312232e-001
 2.1846021710e+000	 1.2561423542e+000	-2.9893420698e-001
 2.1708277421e+000	 1.2797995719e+000	-3.6329311509e-001
 2.1567775704e+000	 1.3033381357e+000	-4.2887472136e-001
 2.1424530749e+000	 1.3267533136e+000	-4.9618099547e-001
 2.1278557810e+000	 1.3500403934e+000	-5.6436182266e-001
 2.1129873207e+000	 1.3731946855e+000	-6.2957696543e-001
 2.0978494323e+000	 1.3962115255e+000	-6.9078187006e-001
 2.0824439595e+000	 1.4190862777e+000	-7.4711440653e-001
 2.0667728516e+000	 1.4418143379e+000	-7.9771045908e-001
 2.0508381620e+000	 1.4643911361e+000	-8.4170852179e-001
 2.2213610579e+000	 1.2454128691e+000	-2.2566562761e-001
 2.2077208469e+000	 1.2694355516e+000	-2.8836306423e-001
 2.1938006493e+000	 1.2933431232e+000	-3.5269605533e-001
 2.1796017909e+000	 1.3171307851e+000	-4.1929056335e-001
 2.1651257056e+000	 1.3407937555e+000	-4.8848326540e-001
 2.1503739350e+000	 1.3643272722e+000	-5.5613349281e-001
 2.1353481284e+000	 1.3877265958e+000	-6.2020400986e-001
 2.1200500424e+000	 1.4109870128e+000	-6.7996850318e-001
 2.1044815404e+000	 1.4341038384e+000	-7.3468864101e-001
 2.0886445920e+000	 1.4570724195e+000	-7.8361824283e-001
 2.0725412727e+000	 1.4798881380e+000	-8.2600803772e-001
 2.2446225705e+000	 1.2584545072e+000	-2.2303143690e-001
 2.2308395228e+000	 1.2827287490e+000	-2.8504956556e-001
 2.2167735565e+000	 1.3068866744e+000	-3.4966029273e-001
 2.2024260114e+000	 1.3309234345e+000	-4.1766426669e-001
 2.1877983362e+000	 1.3548341974e+000	-4.8683025070e-001
 2.1728920890e+000	 1.3786141509e+000	-5.5273191581e-001
 2.1577089361e+000	 1.4022585061e+000	-6.1478441990e-001
 2.1422506525e+000	 1.4257625001e+000	-6.7241473405e-001
 2.1265191212e+000	 1.4491213991e+000	-7.2503043350e-001
 2.1105163324e+000	 1.4723305012e+000	-7.7202395774e-001
 2.0942443834e+000	 1.4953851399e+000	-8.1277751258e-001
 2.2678840830e+000	 1.2714961454e+000	-2.2973369261e-001
 2.2539581986e+000	 1.2960219464e+000	-2.9130516236e-001
 2.2397464637e+000	 1.3204302257e+000	-3.5646431936e-001
 2.2252502318e+000	 1.3447160840e+000	-4.2527967371e-001
 2.2104709669e+000	 1.3688746392e+000	-4.9193628083e-001
 2.1954102429e+000	 1.3929010296e+000	-5.5497633761e-001
 2.1800697437e+000	 1.4167904164e+000	-6.1403457235e-001
 2.1644512626e+000	 1.4405379875e+000	-6.6871394904e-001
 2.1485567020e+000	 1.4641389598e+000	-7.1858925536e-001
 2.1323880729e+000	 1.4875885829e+000	-7.6321143236e-001
 2.1159474941e+000	 1.5108821418e+000	-8.0211260333e-001
 1.8989163873e+000	 1.3559121227e+000	-9.0690637147e-001
 1.8839200471e+000	 1.3766722252e+000	-9.4911592257e-001
 1.8686837386e+000	 1.3972839118e+000	-9.9723888655e-001
 1.8532096461e+000	 1.4177430601e+000	-1.0494881678e+000
 1.8375000477e+000	 1.4380455904e+000	-1.1040686269e+000
 1.8215573143e+000	 1.4581874680e+000	-1.1591794621e+000
 1.8053839080e+000	 1.4781647061e+000	-1.2130166117e+000
 1.7889823814e+000	 1.4979733684e+000	-1.2637751600e+000
 1.7723553761e+000	 1.5176095714e+000	-1.3096517354e+000
 1.7555056212e+000	 1.5370694871e+000	-1.3488468835e+000
 1.7384359321e+000	 1.5563493455e+000	-1.3795674040e+000
 1.9206194979e+000	 1.3714091246e+000	-9.1311563223e-001
 1.9054517615e+000	 1.3924064986e+000	-9.5244437745e-001
 1.8900413140e+000	 1.4132537605e+000	-9.9610138953e-001
 1.8743903649e+000	 1.4339467407e+000	-1.0427198628e+000
 1.8585012183e+000	 1.4544813128e+000	-1.0909198628e+000
 1.8423762720e+000	 1.4748533961e+000	-1.1393099973e+000
 1.8260180165e+000	 1.4950589583e+000	-1.1864891123e+000
 1.8094290334e+000	 1.5150940179e+000	-1.2310479986e+000
 1.7926119946e+000	 1.5349546471e+000	-1.2715710948e+000
 1.7755696604e+000	 1.5546369742e+000	-1.3066381736e+000
 1.7583048783e+000	 1.5741371861e+000	-1.3348259976e+000
 1.9423226086e+000	 1.3869061265e+000	-9.1487286003e-001
 1.9269834759e+000	 1.4081407721e+000	-9.5352657649e-001
 1.9113988895e+000	 1.4292236092e+000	-9.9507539697e-001
 1.8955710837e+000	 1.4501504213e+000	-1.0384722491e+000
 1.8795023888e+000	 1.4709170352e+000	-1.0826528557e+000
 1.8631952297e+000	 1.4915193242e+000	-1.1265368806e+000
 1.8466521250e+000	 1.5119532104e+000	-1.1690291027e+000
 1.8298756855e+000	 1.5322146673e+000	-1.2090206043e+000
 1.8128686131e+000	 1.5522997228e+000	-1.2453899604e+000
 1.7956336995e+000	 1.5722044614e+000	-1.2770044147e+000
 1.7781738244e+000	 1.5919250267e+000	-1.3027210293e+000
 1.9640257193e+000	 1.4024031284e+000	-9.1074751306e-001
 1.9485151903e+000	 1.4238750455e+000	-9.5069840733e-001
 1.9327564649e+000	 1.4451934579e+000	-9.9229186258e-001
 1.9167518025e+000	 1.4663541018e+000	-1.0347032393e+000
 1.9005035594e+000	 1.4873527576e+000	-1.0770876053e+000
 1.8840141875e+000	 1.5081852524e+000	-1.1185805389e+000
 1.8672862335e+000	 1.5288474625e+000	-1.1582989623e+000
 1.8503223375e+000	 1.5493353168e+000	-1.1953419921e+000
 1.8331252317e+000	 1.5696447985e+000	-1.2287917913e+000
 1.8156977387e+000	 1.5897719485e+000	-1.2577144100e+000
 1.7980427706e+000	 1.6097128674e+000	-1.2811606005e+000
 1.9857288300e+000	 1.4179001304e+000	-8.9930939384e-001
 1.9700469047e+000	 1.4396093189e+000	-9.4230557700e-001
 1.9541140404e+000	 1.4611633066e+000	-9.8589973751e-001
 1.9379325214e+000	 1.4825577824e+000	-1.0293954737e+000
 1.9215047299e+000	 1.5037884800e+000	-1.0720739721e+000
 1.9048331452e+000	 1.5248511805e+000	-1.1131946478e+000
 1.8879203420e+000	 1.5457417147e+000	-1.1519958166e+000
 1.8707689896e+000	 1.5664559662e+000	-1.1876953839e+000
 1.8533818502e+000	 1.5869898742e+000	-1.2194915352e+000
 1.8357617779e+000	 1.6073394356e+000	-1.2465634134e+000
 1.8179117167e+000	 1.6275007080e+000	-1.2680717681e+000
 2.0074319407e+000	 1.4333971323e+000	-8.7980796962e-001
 1.9915786191e+000	 1.4553435924e+000	-9.2670571150e-001
 1.9754716158e+000	 1.4771331553e+000	-9.7406773381e-001
 1.9591132402e+000	 1.4987614629e+000	-1.0205578206e+000
 1.9425059005e+000	 1.5202242024e+000	-1.0654929948e+000
 1.9256521029e+000	 1.5415171086e+000	-1.1081673542e+000
 1.9085544505e+000	 1.5626359668e+000	-1.1478527587e+000
 1.8912156416e+000	 1.5835766157e+000	-1.1837995325e+000
 1.8736384687e+000	 1.6043349499e+000	-1.2152371653e+000
 1.8558258171e+000	 1.6249069228e+000	-1.2413749966e+000
 1.8377806629e+000	 1.6452885487e+000	-1.2614028659e+000
 2.0291350514e+000	 1.4488941342e+000	-8.5971828833e-001
 2.0131103335e+000	 1.4710778658e+000	-9.0459451714e-001
 1.9968291913e+000	 1.4931030040e+000	-9.5498618698e-001
 1.9802939590e+000	 1.5149651435e+000	-1.0062269965e+000
 1.9635070710e+000	 1.5366599249e+000	-1.0552583437e+000
 1.9464710607e+000	 1.5581830367e+000	-1.1013226447e+000
 1.9291885590e+000	 1.5795302189e+000	-1.1436402223e+000
 1.9116622936e+000	 1.6006972652e+000	-1.1814101942e+000
 1.8938950873e+000	 1.6216800256e+000	-1.2138113552e+000
 1.8758898563e+000	 1.6424744099e+000	-1.2400030356e+000
 1.8576496090e+000	 1.6630763893e+000	-1.2591259176e+000
 2.0508381620e+000	 1.4643911361e+000	-8.4170852179e-001
 2.0346420479e+000	 1.4868121393e+000	-8.8433117104e-001
 2.0181867667e+000	 1.5090728527e+000	-9.3174542124e-001
 2.0014746778e+000	 1.5311688241e+000	-9.8450268720e-001
 1.9845082416e+000	 1.5530956473e+000	-1.0393179002e+000
 1.9672900184e+000	 1.5748489648e+000	-1.0905218490e+000
 1.9498226675e+000	 1.5964244711e+000	-1.1371674925e+000
 1.9321089457e+000	 1.6178179146e+000	-1.1783217370e+000
 1.9141517058e+000	 1.6390251014e+000	-1.2130332796e+000
 1.8959538955e+000	 1.6600418970e+000	-1.2403338062e+000
 1.8775185552e+000	 1.6808642300e+000	-1.2592391373e+000
 2.0725412727e+000	 1.4798881380e+000	-8.2600803772e-001
 2.0561737623e+000	 1.5025464127e+000	-8.6685448534e-001
 2.0395443422e+000	 1.5250427014e+000	-9.1191089390e-001
 2.0226553967e+000	 1.5473725046e+000	-9.6155509116e-001
 2.0055094121e+000	 1.5695313697e+000	-1.0161567091e+000
 1.9881089761e+000	 1.5915148930e+000	-1.0736652703e+000
 1.9704567760e+000	 1.6133187232e+000	-1.1262843462e+000
 1.9525555977e+000	 1.6349385641e+000	-1.1723688748e+000
 1.9344083244e+000	 1.6563701771e+000	-1.2107605329e+000
 1.9160179347e+000	 1.6776093842e+000	-1.2402881829e+000
 1.8973875014e+000	 1.6986520706e+000	-1.2597695077e+000
 2.0942443834e+000	 1.4953851399e+000	-8.1277751258e-001
 2.0777054766e+000	 1.5182806861e+000	-8.5212768440e-001
 2.0609019176e+000	 1.5410125501e+000	-8.9541428380e-001
 2.0438361155e+000	 1.5635761852e+000	-9.4276103495e-001
 2.0265105827e+000	 1.5859670921e+000	-9.9428441728e-001
 2.0089279339e+000	 1.6081808211e+000	-1.0500997317e+000
 1.9910908845e+000	 1.6302129753e+000	-1.1088828119e+000
 1.9730022498e+000	 1.6520592135e+000	-1.1614285197e+000
 1.9546649429e+000	 1.6737152528e+000	-1.2048911572e+000
 1.9360819738e+000	 1.6951768713e+000	-1.2378239311e+000
 1.9172564475e+000	 1.7164399113e+000	-1.2587754338e+000
 2.1159474941e+000	 1.5108821418e+000	-8.0211260333e-001
 2.0992371910e+000	 1.5340149596e+000	-8.4005734368e-001
 2.0822594931e+000	 1.5569823987e+000	-8.8199582857e-001
 2.0650168343e+000	 1.5797798658e+000	-9.2771939727e-001
 2.0475117532e+000	 1.6024028145e+000	-9.7701373751e-001
 2.0297468916e+000	 1.6248467492e+000	-1.0296661845e+000
 2.0117249930e+000	 1.6471072275e+000	-1.0854733582e+000
 1.9934489018e+000	 1.6691798630e+000	-1.1434217415e+000
 1.9749215615e+000	 1.6910603285e+000	-1.1933657704e+000
 1.9561460130e+000	 1.7127443585e+000	-1.2309380879e+000
 1.9371253937e+000	 1.7342277519e+000	-1.2543494639e+000
 1.7384359321e+000	 1.5563493455e+000	-1.3795674040e+000
 1.7211518181e+000	 1.5754425866e+000	-1.4070077630e+000
 1.7036537181e+000	 1.5943484719e+000	-1.4367254431e+000
 1.6859446966e+000	 1.6130634224e+000	-1.4674592229e+000
 1.6680278972e+000	 1.6315839263e+000	-1.4979397705e+000
 1.6499065415e+000	 1.6499065415e+000	-1.5268910577e+000
 1.6315839263e+000	 1.6680278972e+000	-1.5530317031e+000
 1.6130634224e+000	 1.6859446966e+000	-1.5750762375e+000
 1.5943484719e+000	 1.7036537181e+000	-1.5917362839e+000
 1.5754425866e+000	 1.7211518181e+000	-1.6017216485e+000
 1.5563493455e+000	 1.7384359321e+000	-1.6037413188e+000
 1.7583048783e+000	 1.5741371861e+000	-1.3348259976e+000
 1.7408232205e+000	 1.5934486479e+000	-1.3614730110e+000
 1.7231251311e+000	 1.6125706125e+000	-1.3918388106e+000
 1.7052137095e+000	 1.6314994600e+000	-1.4243641861e+000
 1.6870921353e+000	 1.6502316386e+000	-1.4574842156e+000
 1.6687636668e+000	 1.6687636668e+000	-1.4896302201e+000
 1.6502316386e+000	 1.6870921353e+000	-1.5192316309e+000
 1.6314994600e+000	 1.7052137095e+000	-1.5447177632e+000
 1.6125706125e+000	 1.7231251311e+000	-1.5645194867e+000
 1.5934486479e+000	 1.7408232205e+000	-1.5770707867e+000
 1.5741371861e+000	 1.7583048783e+000	-1.5808102122e+000
 1.7781738244e+000	 1.5919250267e+000	-1.3027210293e+000
 1.7604946229e+000	 1.6114547092e+000	-1.3280947549e+000
 1.7425965441e+000	 1.6307927531e+000	-1.3582850951e+000
 1.7244827224e+000	 1.6499354976e+000	-1.3915343571e+000
 1.7061563734e+000	 1.6688793510e+000	-1.4260807087e+000
 1.6876207921e+000	 1.6876207921e+000	-1.4601605051e+000
 1.6688793510e+000	 1.7061563734e+000	-1.4920105159e+000
 1.6499354976e+000	 1.7244827224e+000	-1.5198700419e+000
 1.6307927531e+000	 1.7425965441e+000	-1.5419829121e+000
 1.6114547092e+000	 1.7604946229e+000	-1.5565993550e+000
 1.5919250267e+000	 1.7781738244e+000	-1.5619777362e+000
 1.7980427706e+000	 1.6097128674e+000	-1.2811606005e+000
 1.7801660254e+000	 1.6294607705e+000	-1.3049392210e+000
 1.7620679571e+000	 1.6490148936e+000	-1.3342682492e+000
 1.7437517353e+000	 1.6683715353e+000	-1.3672878435e+000
 1.7252206114e+000	 1.6875270633e+000	-1.4021347991e+000
 1.7064779174e+000	 1.7064779174e+000	-1.4369450845e+000
 1.6875270633e+000	 1.7252206114e+000	-1.4698562649e+000
 1.6683715353e+000	 1.7437517353e+000	-1.4990098016e+000
 1.6490148936e+000	 1.7620679571e+000	-1.5225532156e+000
 1.6294607705e+000	 1.7801660254e+000	-1.5386421098e+000
 1.6097128674e+000	 1.7980427706e+000	-1.5454420415e+000
 1.8179117167e+000	 1.6275007080e+000	-1.2680717681e+000
 1.7998374278e+000	 1.6474668317e+000	-1.2900831698e+000
 1.7815393701e+000	 1.6672370342e+000	-1.3179951241e+000
 1.7630207482e+000	 1.6868075729e+000	-1.3499389373e+000
 1.7442848495e+000	 1.7061747756e+000	-1.3840425639e+000
 1.7253350427e+000	 1.7253350427e+000	-1.4184331929e+000
 1.7061747756e+000	 1.7442848495e+000	-1.4512397093e+000
 1.6868075729e+000	 1.7630207482e+000	-1.4805950171e+000
 1.6672370342e+000	 1.7815393701e+000	-1.5046382133e+000
 1.6474668317e+000	 1.7998374278e+000	-1.5215166060e+000
 1.6275007080e+000	 1.8179117167e+000	-1.5293875681e+000
 1.8377806629e+000	 1.6452885487e+000	-1.2614028659e+000
 1.8195088302e+000	 1.6654728930e+000	-1.2816167122e+000
 1.8010107831e+000	 1.6854591748e+000	-1.3076787287e+000
 1.7822897611e+000	 1.7052436106e+000	-1.3378017579e+000
 1.7633490876e+000	 1.7248224880e+000	-1.3701945674e+000
 1.7441921681e+000	 1.7441921681e+000	-1.4030643305e+000
 1.7248224880e+000	 1.7633490876e+000	-1.4346189689e+000
 1.7052436106e+000	 1.7822897611e+000	-1.4630693448e+000
 1.6854591748e+000	 1.8010107831e+000	-1.4866312923e+000
 1.6654728930e+000	 1.8195088302e+000	-1.5035274784e+000
 1.6452885487e+000	 1.8377806629e+000	-1.5119890883e+000
 1.8576496090e+000	 1.6630763893e+000	-1.2591259176e+000
 1.8391802326e+000	 1.6834789543e+000	-1.2776461893e+000
 1.8204821961e+000	 1.7036813154e+000	-1.3015415269e+000
 1.8015587740e+000	 1.7236796482e+000	-1.3291939106e+000
 1.7824133256e+000	 1.7434702003e+000	-1.3589798187e+000
 1.7630492934e+000	 1.7630492934e+000	-1.3892724487e+000
 1.7434702003e+000	 1.7824133256e+000	-1.4184437888e+000
 1.7236796482e+000	 1.8015587740e+000	-1.4448665281e+000
 1.7036813154e+000	 1.8204821961e+000	-1.4669157934e+000
 1.6834789543e+000	 1.8391802326e+000	-1.4829707053e+000
 1.6630763893e+000	 1.8576496090e+000	-1.4914157460e+000
 1.8775185552e+000	 1.6808642300e+000	-1.2592391373e+000
 1.8588516350e+000	 1.7014850156e+000	-1.2762971107e+000
 1.8399536091e+000	 1.7219034560e+000	-1.2978187690e+000
 1.8208277868e+000	 1.7421156858e+000	-1.3224401592e+000
 1.8014775637e+000	 1.7621179126e+000	-1.3487897254e+000
 1.7819064187e+000	 1.7819064187e+000	-1.3754901194e+000
 1.7621179126e+000	 1.8014775637e+000	-1.4011598527e+000
 1.7421156858e+000	 1.8208277868e+000	-1.4244147749e+000
 1.7219034560e+000	 1.8399536091e+000	-1.4438693686e+000
 1.7014850156e+000	 1.8588516350e+000	-1.4581378537e+000
 1.6808642300e+000	 1.8775185552e+000	-1.4658350935e+000
 1.8973875014e+000	 1.6986520706e+000	-1.2597695077e+000
 1.8785230374e+000	 1.7194910769e+000	-1.2757171478e+000
 1.8594250221e+000	 1.7401255965e+000	-1.2947618555e+000
 1.8400967997e+000	 1.7605517235e+000	-1.3158761110e+000
 1.8205418018e+000	 1.7807656250e+000	-1.3380220440e+000
 1.8007635440e+000	 1.8007635440e+000	-1.3601526899e+000
 1.7807656250e+000	 1.8205418018e+000	-1.3812130733e+000
 1.7605517235e+000	 1.8400967997e+000	-1.4001411098e+000
 1.7401255965e+000	 1.8594250221e+000	-1.4158683146e+000
 1.7194910769e+000	 1.8785230374e+000	-1.4273203094e+000
 1.6986520706e+000	 1.8973875014e+000	-1.4334171255e+000
 1.9172564475e+000	 1.7164399113e+000	-1.2587754338e+000
 1.8981944399e+000	 1.7374971381e+000	-1.2740791775e+000
 1.8788964350e+000	 1.7583477371e+000	-1.2906417317e+000
 1.8593658126e+000	 1.7789877611e+000	-1.3078519140e+000
 1.8396060398e+000	 1.7994133373e+000	-1.3250848288e+000
 1.8196206693e+000	 1.8196206693e+000	-1.3417024235e+000
 1.7994133373e+000	 1.8396060398e+000	-1.3570538611e+000
 1.7789877611e+000	 1.8593658126e+000	-1.3704757026e+000
 1.7583477371e+000	 1.8788964350e+000	-1.3812918848e+000
 1.7374971381e+000	 1.8981944399e+000	-1.3888134915e+000
 1.7164399113e+000	 1.9172564475e+000	-1.3923383105e+000
 1.9371253937e+000	 1.7342277519e+000	-1.2543494639e+000
 1.9178658423e+000	 1.7555031994e+000	-1.2695843730e+000
 1.8983678480e+000	 1.7765698777e+000	-1.2837523085e+000
 1.8786348255e+000	 1.7974237988e+000	-1.2967359657e+000
 1.8586702779e+000	 1.8180610496e+000	-1.3084003773e+000
 1.8384777946e+000	 1.8384777946e+000	-1.3185926276e+000
 1.8180610496e+000	 1.8586702779e+000	-1.3271413755e+000
 1.7974237988e+000	 1.8786348255e+000	-1.3338561743e+000
 1.7765698777e+000	 1.8983678480e+000	-1.3385265816e+000
 1.7555031994e+000	 1.9178658423e+000	-1.3409210534e+000
 1.7342277519e+000	 1.9371253937e+000	-1.3407856200e+000
 1.5563493455e+000	 1.7384359321e+000	-1.6037413188e+000
 1.5370694871e+000	 1.7555056212e+000	-1.6020763455e+000
 1.5176095714e+000	 1.7723553761e+000	-1.6011465505e+000
 1.4979733684e+000	 1.7889823814e+000	-1.5998599525e+000
 1.4781647061e+000	 1.8053839080e+000	-1.5971142137e+000
 1.4581874680e+000	 1.8215573143e+000	-1.5917969392e+000
 1.4380455904e+000	 1.8375000477e+000	-1.5827859076e+000
 1.4177430601e+000	 1.8532096461e+000	-1.5689492369e+000
 1.3972839118e+000	 1.8686837386e+000	-1.5491454929e+000
 1.3766722252e+000	 1.8839200471e+000	-1.5222237469e+000
 1.3559121227e+000	 1.8989163873e+000	-1.4870235924e+000
 1.5741371861e+000	 1.7583048783e+000	-1.5808102122e+000
 1.5546369742e+000	 1.7755696604e+000	-1.5797288067e+000
 1.5349546471e+000	 1.7926119946e+000	-1.5782471087e+000
 1.5150940179e+000	 1.8094290334e+000	-1.5754450555e+000
 1.4950589583e+000	 1.8260180165e+000	-1.5703938031e+000
 1.4748533961e+000	 1.8423762720e+000	-1.5621555976e+000
 1.4544813128e+000	 1.8585012183e+000	-1.5497835671e+000
 1.4339467407e+000	 1.8743903649e+000	-1.5323214381e+000
 1.4132537605e+000	 1.8900413140e+000	-1.5088031865e+000
 1.3924064986e+000	 1.9054517615e+000	-1.4782526312e+000
 1.3714091246e+000	 1.9206194979e+000	-1.4396829814e+000
 1.5919250267e+000	 1.7781738244e+000	-1.5619777362e+000
 1.5722044614e+000	 1.7956336995e+000	-1.5618560064e+000
 1.5522997228e+000	 1.8128686131e+000	-1.5605908725e+000
 1.5322146673e+000	 1.8298756855e+000	-1.5573710431e+000
 1.5119532104e+000	 1.8466521250e+000	-1.5513783310e+000
 1.4915193242e+000	 1.8631952297e+000	-1.5417872005e+000
 1.4709170352e+000	 1.8795023888e+000	-1.5277642211e+000
 1.4501504213e+000	 1.8955710837e+000	-1.5084674344e+000
 1.4292236092e+000	 1.9113988895e+000	-1.4830456436e+000
 1.4081407721e+000	 1.9269834759e+000	-1.4506376369e+000
 1.3869061265e+000	 1.9423226086e+000	-1.4103713556e+000
 1.6097128674e+000	 1.7980427706e+000	-1.5454420415e+000
 1.5897719485e+000	 1.8156977387e+000	-1.5464961455e+000
 1.5696447985e+000	 1.8331252317e+000	-1.5460575125e+000
 1.5493353168e+000	 1.8503223375e+000	-1.5433626663e+000
 1.5288474625e+000	 1.8672862335e+000	-1.5376434326e+000
 1.5081852524e+000	 1.8840141875e+000	-1.5281262641e+000
 1.4873527576e+000	 1.9005035594e+000	-1.5140314545e+000
 1.4663541018e+000	 1.9167518025e+000	-1.4945722522e+000
 1.4451934579e+000	 1.9327564649e+000	-1.4689538826e+000
 1.4238750455e+000	 1.9485151903e+000	-1.4363724921e+000
 1.4024031284e+000	 1.9640257193e+000	-1.3960140262e+000
 1.6275007080e+000	 1.8179117167e+000	-1.5293875681e+000
 1.6073394356e+000	 1.8357617779e+000	-1.5316781296e+000
 1.5869898742e+000	 1.8533818502e+000	-1.5325216669e+000
 1.5664559662e+000	 1.8707689896e+000	-1.5311436650e+000
 1.5457417147e+000	 1.8879203420e+000	-1.5267674246e+000
 1.5248511805e+000	 1.9048331452e+000	-1.5186132629e+000
 1.5037884800e+000	 1.9215047299e+000	-1.5058975849e+000
 1.4825577824e+000	 1.9379325214e+000	-1.4878318380e+000
 1.4611633066e+000	 1.9541140404e+000	-1.4636213588e+000
 1.4396093189e+000	 1.9700469047e+000	-1.4324641264e+000
 1.4179001304e+000	 1.9857288300e+000	-1.3935494358e+000
 1.6452885487e+000	 1.8377806629e+000	-1.5119890883e+000
 1.6249069228e+000	 1.8558258171e+000	-1.5154253120e+000
 1.6043349499e+000	 1.8736384687e+000	-1.5178563828e+000
 1.5835766157e+000	 1.8912156416e+000	-1.5184399117e+000
 1.5626359668e+000	 1.9085544505e+000	-1.5163341585e+000
 1.5415171086e+000	 1.9256521029e+000	-1.5106972048e+000
 1.5202242024e+000	 1.9425059005e+000	-1.5006859776e+000
 1.4987614629e+000	 1.9591132402e+000	-1.4854551363e+000
 1.4771331553e+000	 1.9754716158e+000	-1.4641558327e+000
 1.4553435924e+000	 1.9915786191e+000	-1.4359343605e+000
 1.4333971323e+000	 2.0074319407e+000	-1.3996181768e+000
 1.6630763893e+000	 1.8576496090e+000	-1.4914157460e+000
 1.6424744099e+000	 1.8758898563e+000	-1.4957592533e+000
 1.6216800256e+000	 1.8938950873e+000	-1.4999365941e+000
 1.6006972652e+000	 1.9116622936e+000	-1.5029826088e+000
 1.5795302189e+000	 1.9291885590e+000	-1.5039359446e+000
 1.5581830367e+000	 1.9464710607e+000	-1.5018382941e+000
 1.5366599249e+000	 1.9635070710e+000	-1.4957334640e+000
 1.5149651435e+000	 1.9802939590e+000	-1.4846662833e+000
 1.4931030040e+000	 1.9968291913e+000	-1.4676813643e+000
 1.4710778658e+000	 2.0131103335e+000	-1.4427521777e+000
 1.4488941342e+000	 2.0291350514e+000	-1.4069495408e+000
 1.6808642300e+000	 1.8775185552e+000	-1.4658350935e+000
 1.6600418970e+000	 1.8959538955e+000	-1.4707034958e+000
 1.6390251014e+000	 1.9141517058e+000	-1.4766426302e+000
 1.6178179146e+000	 1.9321089457e+000	-1.4825115350e+000
 1.5964244711e+000	 1.9498226675e+000	-1.4871765424e+000
 1.5748489648e+000	 1.9672900184e+000	-1.4895106761e+000
 1.5530956473e+000	 1.9845082416e+000	-1.4883928546e+000
 1.5311688241e+000	 2.0014746778e+000	-1.4826921147e+000
 1.5090728527e+000	 2.0181867667e+000	-1.4691228693e+000
 1.4868121393e+000	 2.0346420479e+000	-1.4452556762e+000
 1.4643911361e+000	 2.0508381620e+000	-1.4103116621e+000
 1.6986520706e+000	 1.8973875014e+000	-1.4334171255e+000
 1.6776093842e+000	 1.9160179347e+000	-1.4382873508e+000
 1.6563701771e+000	 1.9344083244e+000	-1.4458637558e+000
 1.6349385641e+000	 1.9525555977e+000	-1.4547783379e+000
 1.6133187232e+000	 1.9704567760e+000	-1.4636742115e+000
 1.5915148930e+000	 1.9881089761e+000	-1.4712052561e+000
 1.5695313697e+000	 2.0055094121e+000	-1.4758172815e+000
 1.5473725046e+000	 2.0226553967e+000	-1.4731891559e+000
 1.5250427014e+000	 2.0395443422e+000	-1.4612995282e+000
 1.5025464127e+000	 2.0561737623e+000	-1.4391498471e+000
 1.4798881380e+000	 2.0725412727e+000	-1.4057427817e+000
 1.7164399113e+000	 1.9172564475e+000	-1.3923383105e+000
 1.6951768713e+000	 1.9360819738e+000	-1.3965497000e+000
 1.6737152528e+000	 1.9546649429e+000	-1.4055017380e+000
 1.6520592135e+000	 1.9730022498e+000	-1.4175498686e+000
 1.6302129753e+000	 1.9910908845e+000	-1.4310648196e+000
 1.6081808211e+000	 2.0089279339e+000	-1.4438337455e+000
 1.5859670921e+000	 2.0265105827e+000	-1.4508208973e+000
 1.5635761852e+000	 2.0438361155e+000	-1.4501548398e+000
 1.5410125501e+000	 2.0609019176e+000	-1.4405594812e+000
 1.5182806861e+000	 2.0777054766e+000	-1.4207602484e+000
 1.4953851399e+000	 2.0942443834e+000	-1.3894920151e+000
 1.7342277519e+000	 1.9371253937e+000	-1.3407856200e+000
 1.7127443585e+000	 1.9561460130e+000	-1.3435428072e+000
 1.6910603285e+000	 1.9749215615e+000	-1.3534744392e+000
 1.6691798630e+000	 1.9934489018e+000	-1.3686115565e+000
 1.6471072275e+000	 2.0117249930e+000	-1.3859358467e+000
 1.6248467492e+000	 2.0297468916e+000	-1.3998948084e+000
 1.6024028145e+000	 2.0475117532e+000	-1.4085511726e+000
 1.5797798658e+000	 2.0650168343e+000	-1.4102950517e+000
 1.5569823987e+000	 2.0822594931e+000	-1.4035170229e+000
 1.5340149596e+000	 2.0992371910e+000	-1.3866174636e+000
 1.5108821418e+000	 2.1159474941e+000	-1.3580154658e+000
 1.3559121227e+000	 1.8989163873e+000	-1.4870235924e+000
 1.3350077662e+000	 1.9136706685e+000	-1.4556262215e+000
 1.3139633529e+000	 1.9281808938e+000	-1.4366432650e+000
 1.2927831142e+000	 1.9424451616e+000	-1.4228781879e+000
 1.2714713133e+000	 1.9564616671e+000	-1.4113727279e+000
 1.2500322424e+000	 1.9702287031e+000	-1.3991979201e+000
 1.2284702205e+000	 1.9837446602e+000	-1.3834370716e+000
 1.2067895896e+000	 1.9970080273e+000	-1.3611956327e+000
 1.1849947132e+000	 2.0100173918e+000	-1.3295690966e+000
 1.1630899723e+000	 2.0227714400e+000	-1.2858378673e+000
 1.1410797639e+000	 2.0352689572e+000	-1.2276028113e+000
 1.3714091246e+000	 1.9206194979e+000	-1.4396829814e+000
 1.3502658479e+000	 1.9355424090e+000	-1.4052569491e+000
 1.3289809136e+000	 1.9502184746e+000	-1.3871580645e+000
 1.3075586015e+000	 1.9646457717e+000	-1.3769678347e+000
 1.2860032236e+000	 1.9788224748e+000	-1.3684584305e+000
 1.2643191212e+000	 1.9927468571e+000	-1.3586087046e+000
 1.2425106623e+000	 2.0064172909e+000	-1.3443223950e+000
 1.2205822391e+000	 2.0198322477e+000	-1.3222147793e+000
 1.1985382644e+000	 2.0329902990e+000	-1.2895793683e+000
 1.1763831698e+000	 2.0458901159e+000	-1.2438643939e+000
 1.1541214020e+000	 2.0585304698e+000	-1.1825686247e+000
 1.3869061265e+000	 1.9423226086e+000	-1.4103713556e+000
 1.3655239295e+000	 1.9574141494e+000	-1.3743416006e+000
 1.3439984743e+000	 1.9722560554e+000	-1.3548779570e+000
 1.3223340888e+000	 1.9868463818e+000	-1.3496472503e+000
 1.3005351339e+000	 2.0011832824e+000	-1.3467021992e+000
 1.2786059999e+000	 2.0152650111e+000	-1.3406592069e+000
 1.2565511042e+000	 2.0290899215e+000	-1.3281833340e+000
 1.2343748885e+000	 2.0426564682e+000	-1.3065454474e+000
 1.2120818157e+000	 2.0559632062e+000	-1.2730442905e+000
 1.1896763672e+000	 2.0690087917e+000	-1.2250177062e+000
 1.1671630402e+000	 2.0817919823e+000	-1.1598527052e+000
 1.4024031284e+000	 1.9640257193e+000	-1.3960140262e+000
 1.3807820112e+000	 1.9792858898e+000	-1.3597709974e+000
 1.3590160350e+000	 1.9942936363e+000	-1.3397890397e+000
 1.3371095762e+000	 2.0090469919e+000	-1.3352540702e+000
 1.3150670442e+000	 2.0235440901e+000	-1.3386704619e+000
 1.2928928786e+000	 2.0377831651e+000	-1.3372342877e+000
 1.2705915461e+000	 2.0517625522e+000	-1.3278383586e+000
 1.2481675379e+000	 2.0654806886e+000	-1.3076357025e+000
 1.2256253669e+000	 2.0789361133e+000	-1.2738088708e+000
 1.2029695646e+000	 2.0921274676e+000	-1.2235809946e+000
 1.1802046783e+000	 2.1050534949e+000	-1.1542256087e+000
 1.4179001304e+000	 1.9857288300e+000	-1.3935494358e+000
 1.3960400929e+000	 2.0011576303e+000	-1.3584408370e+000
 1.3740335957e+000	 2.0163312171e+000	-1.3377405433e+000
 1.3518850635e+000	 2.0312476020e+000	-1.3303506298e+000
 1.3295989545e+000	 2.0459048977e+000	-1.3359076334e+000
 1.3071797573e+000	 2.0603013190e+000	-1.3411055811e+000
 1.2846319880e+000	 2.0744351829e+000	-1.3364505023e+000
 1.2619601874e+000	 2.0883049091e+000	-1.3189688925e+000
 1.2391689182e+000	 2.1019090205e+000	-1.2857211841e+000
 1.2162627620e+000	 2.1152461435e+000	-1.2338125606e+000
 1.1932463165e+000	 2.1283150075e+000	-1.1604024518e+000
 1.4333971323e+000	 2.0074319407e+000	-1.3996181768e+000
 1.4112981745e+000	 2.0230293707e+000	-1.3643660502e+000
 1.3890511563e+000	 2.0383687979e+000	-1.3416378996e+000
 1.3666605508e+000	 2.0534482121e+000	-1.3314420432e+000
 1.3441308648e+000	 2.0682657054e+000	-1.3337350295e+000
 1.3214666360e+000	 2.0828194730e+000	-1.3452574943e+000
 1.2986724299e+000	 2.0971078136e+000	-1.3472612404e+000
 1.2757528368e+000	 2.1111291295e+000	-1.3340842507e+000
 1.2527124694e+000	 2.1248819277e+000	-1.3026600346e+000
 1.2295559594e+000	 2.1383648193e+000	-1.2499737279e+000
 1.2062879546e+000	 2.1515765201e+000	-1.1730711688e+000
 1.4488941342e+000	 2.0291350514e+000	-1.4069495408e+000
 1.4265562562e+000	 2.0449011111e+000	-1.3711769535e+000
 1.4040687170e+000	 2.0604063787e+000	-1.3468697256e+000
 1.3814360382e+000	 2.0756488222e+000	-1.3340733675e+000
 1.3586627752e+000	 2.0906265131e+000	-1.3327835621e+000
 1.3357535147e+000	 2.1053376270e+000	-1.3429494970e+000
 1.3127128717e+000	 2.1197804442e+000	-1.3536179823e+000
 1.2895454862e+000	 2.1339533500e+000	-1.3466044085e+000
 1.2662560207e+000	 2.1478548349e+000	-1.3185625733e+000
 1.2428491568e+000	 2.1614834952e+000	-1.2663566522e+000
 1.2193295928e+000	 2.1748380327e+000	-1.1869206024e+000
 1.4643911361e+000	 2.0508381620e+000	-1.4103116621e+000
 1.4418143379e+000	 2.0667728516e+000	-1.3746403427e+000
 1.4190862777e+000	 2.0824439595e+000	-1.3491816436e+000
 1.3962115255e+000	 2.0978494323e+000	-1.3340048657e+000
 1.3731946855e+000	 2.1129873207e+000	-1.3291335573e+000
 1.3500403934e+000	 2.1278557810e+000	-1.3345489788e+000
 1.3267533136e+000	 2.1424530749e+000	-1.3490016050e+000
 1.3033381357e+000	 2.1567775704e+000	-1.3502629105e+000
 1.2797995719e+000	 2.1708277421e+000	-1.3274518735e+000
 1.2561423542e+000	 2.1846021710e+000	-1.2773120365e+000
 1.2323712309e+000	 2.1980995453e+000	-1.1966684418e+000
 1.4798881380e+000	 2.0725412727e+000	-1.4057427817e+000
 1.4570724195e+000	 2.0886445920e+000	-1.3707385565e+000
 1.4341038384e+000	 2.1044815404e+000	-1.3445337256e+000
 1.4109870128e+000	 2.1200500424e+000	-1.3272083616e+000
 1.3877265958e+000	 2.1353481284e+000	-1.3188029759e+000
 1.3643272722e+000	 2.1503739350e+000	-1.3193221375e+000
 1.3407937555e+000	 2.1651257056e+000	-1.3287376414e+000
 1.3171307851e+000	 2.1796017909e+000	-1.3389317341e+000
 1.2933431232e+000	 2.1938006493e+000	-1.3234644670e+000
 1.2694355516e+000	 2.2077208469e+000	-1.2772767595e+000
 1.2454128691e+000	 2.2213610579e+000	-1.1970890187e+000
 1.4953851399e+000	 2.0942443834e+000	-1.3894920151e+000
 1.4723305012e+000	 2.1105163324e+000	-1.3556655486e+000
 1.4491213991e+000	 2.1265191212e+000	-1.3290967142e+000
 1.4257625001e+000	 2.1422506525e+000	-1.3098636962e+000
 1.4022585061e+000	 2.1577089361e+000	-1.2980134097e+000
 1.3786141509e+000	 2.1728920890e+000	-1.2935652954e+000
 1.3548341974e+000	 2.1877983362e+000	-1.2965146133e+000
 1.3309234345e+000	 2.2024260114e+000	-1.3066488111e+000
 1.3068866744e+000	 2.2167735565e+000	-1.3008778459e+000
 1.2827287490e+000	 2.2308395228e+000	-1.2608014234e+000
 1.2584545072e+000	 2.2446225705e+000	-1.1830409713e+000
 1.5108821418e+000	 2.1159474941e+000	-1.3580154658e+000
 1.4875885829e+000	 2.1323880729e+000	-1.3258230671e+000
 1.4641389598e+000	 2.1485567020e+000	-1.2992483472e+000
 1.4405379875e+000	 2.1644512626e+000	-1.2783552771e+000
 1.4167904164e+000	 2.1800697437e+000	-1.2631869363e+000
 1.3929010296e+000	 2.1954102429e+000	-1.2537695086e+000
 1.3688746392e+000	 2.2104709669e+000	-1.2501157186e+000
 1.3447160840e+000	 2.2252502318e+000	-1.2522276859e+000
 1.3204302257e+000	 2.2397464637e+000	-1.2541379290e+000
 1.2960219464e+000	 2.2539581986e+000	-1.2225778259e+000
 1.2714961454e+000	 2.2678840830e+000	-1.1494947857e+000
 1.1410797639e+000	 2.0352689572e+000	-1.2276028113e+000
 1.1189718211e+000	 2.0475070112e+000	-1.1695904469e+000
 1.0967672688e+000	 2.0594864808e+000	-1.1255217871e+000
 1.0744705326e+000	 2.0712064498e+000	-1.0917262431e+000
 1.0520860425e+000	 2.0826661006e+000	-1.0647448112e+000
 1.0296182305e+000	 2.0938647137e+000	-1.0413378550e+000
 1.0070715277e+000	 2.1048016674e+000	-1.0185103350e+000
 9.8445036148e-001	 2.1154764373e+000	-9.9344916469e-001
 9.6175915357e-001	 2.1258885955e+000	-9.6362409817e-001
 9.3900231690e-001	 2.1360378104e+000	-9.2673193922e-001
 9.1618425334e-001	 2.1459238455e+000	-8.8071409019e-001
 1.1541214020e+000	 2.0585304698e+000	-1.1825686247e+000
 1.1317607830e+000	 2.0709083951e+000	-1.1218775152e+000
 1.1093024502e+000	 2.0830247805e+000	-1.0768511778e+000
 1.0867508800e+000	 2.0948786995e+000	-1.0435351043e+000
 1.0641105529e+000	 2.1064693250e+000	-1.0181946693e+000
 1.0413859516e+000	 2.1177959294e+000	-9.9732279987e-001
 1.0185815578e+000	 2.1288578838e+000	-9.7764660655e-001
 9.9570184959e-001	 2.1396546578e+000	-9.5615473965e-001
 9.7275129914e-001	 2.1501858188e+000	-9.3002148156e-001
 9.4973436985e-001	 2.1604510311e+000	-8.9672377256e-001
 9.2665551389e-001	 2.1704500559e+000	-8.5397362244e-001
 1.1671630402e+000	 2.0817919823e+000	-1.1598527052e+000
 1.1445497449e+000	 2.0943097789e+000	-1.0953220181e+000
 1.1218376317e+000	 2.1065630802e+000	-1.0479837323e+000
 1.0990312274e+000	 2.1185509491e+000	-1.0136441725e+000
 1.0761350633e+000	 2.1302725494e+000	-9.8833684060e-001
 1.0531536727e+000	 2.1417271451e+000	-9.6832984430e-001
 1.0300915879e+000	 2.1529141003e+000	-9.5013224598e-001
 1.0069533377e+000	 2.1638328784e+000	-9.3051911649e-001
 9.8374344471e-001	 2.1744830421e+000	-9.0646295517e-001
 9.6046642279e-001	 2.1848642519e+000	-8.7523929834e-001
 9.3712677444e-001	 2.1949762662e+000	-8.3436587268e-001
 1.1802046783e+000	 2.1050534949e+000	-1.1542256087e+000
 1.1573387067e+000	 2.1177111628e+000	-1.0851961616e+000
 1.1343728131e+000	 2.1301013799e+000	-1.0346719376e+000
 1.1113115748e+000	 2.1422231988e+000	-9.9826455674e-001
 1.0881595737e+000	 2.1540757738e+000	-9.7181915710e-001
 1.0649213938e+000	 2.1656583608e+000	-9.5142144655e-001
 1.0416016180e+000	 2.1769703167e+000	-9.3340363686e-001
 1.0182048258e+000	 2.1880110990e+000	-9.1434934735e-001
 9.9473559028e-001	 2.1987802654e+000	-8.9112086091e-001
 9.7119847574e-001	 2.2092774727e+000	-8.6077580351e-001
 9.4759803499e-001	 2.2195024766e+000	-8.2069044459e-001
 1.1932463165e+000	 2.1283150075e+000	-1.1604024518e+000
 1.1701276686e+000	 2.1411125466e+000	-1.0866851949e+000
 1.1469079945e+000	 2.1536396796e+000	-1.0325504996e+000
 1.1235919221e+000	 2.1658954485e+000	-9.9345957222e-001
 1.1001840841e+000	 2.1778789982e+000	-9.6511257256e-001
 1.0766891149e+000	 2.1895895765e+000	-9.4345514833e-001
 1.0531116482e+000	 2.2010265331e+000	-9.2468381502e-001
 1.0294563139e+000	 2.2121893196e+000	-9.0525027921e-001
 1.0057277359e+000	 2.2230774887e+000	-8.8188593289e-001
 9.8193052869e-001	 2.2336906935e+000	-8.5152625581e-001
 9.5806929554e-001	 2.2440286869e+000	-8.1142152000e-001
 1.2062879546e+000	 2.1515765201e+000	-1.1730711688e+000
 1.1829166305e+000	 2.1645139305e+000	-1.0949160268e+000
 1.1594431759e+000	 2.1771779793e+000	-1.0371652482e+000
 1.1358722695e+000	 2.1895676981e+000	-9.9517386126e-001
 1.1122085945e+000	 2.2016822226e+000	-9.6454042676e-001
 1.0884568360e+000	 2.2135207922e+000	-9.4111290774e-001
 1.0646216783e+000	 2.2250827495e+000	-9.2099334941e-001
 1.0407078020e+000	 2.2363675401e+000	-9.0054147940e-001
 1.0167198814e+000	 2.2473747120e+000	-8.7637733872e-001
 9.9266258164e-001	 2.2581039143e+000	-8.4540815227e-001
 9.6854055608e-001	 2.2685548972e+000	-8.0473639304e-001
 1.2193295928e+000	 2.1748380327e+000	-1.1869206024e+000
 1.1957055924e+000	 2.1879153143e+000	-1.1049856100e+000
 1.1719783574e+000	 2.2007162790e+000	-1.0440017476e+000
 1.1481526169e+000	 2.2132399478e+000	-9.9926216129e-001
 1.1242331049e+000	 2.2254854470e+000	-9.6630730156e-001
 1.1002245571e+000	 2.2374520078e+000	-9.4092997311e-001
 1.0761317084e+000	 2.2491389659e+000	-9.1917916293e-001
 1.0519592901e+000	 2.2605457607e+000	-8.9736276777e-001
 1.0277120270e+000	 2.2716719353e+000	-8.7204934366e-001
 1.0033946346e+000	 2.2825171351e+000	-8.4009174863e-001
 9.7901181663e-001	 2.2930811076e+000	-7.9854335653e-001
 1.2323712309e+000	 2.1980995453e+000	-1.1966684418e+000
 1.2084945542e+000	 2.2113166982e+000	-1.1119891115e+000
 1.1845135388e+000	 2.2242545787e+000	-1.0485136343e+000
 1.1604329643e+000	 2.2369121975e+000	-1.0015177461e+000
 1.1362576153e+000	 2.2492886714e+000	-9.6652749927e-001
 1.1119922782e+000	 2.2613832235e+000	-9.3932333209e-001
 1.0876417385e+000	 2.2731951823e+000	-9.1594288496e-001
 1.0632107782e+000	 2.2847239813e+000	-8.9268269880e-001
 1.0387041726e+000	 2.2959691586e+000	-8.6609893009e-001
 1.0141266875e+000	 2.3069303559e+000	-8.3300721767e-001
 9.8948307718e-001	 2.3176073179e+000	-7.9050898848e-001
 1.2454128691e+000	 2.2213610579e+000	-1.1970890187e+000
 1.2212835161e+000	 2.2347180820e+000	-1.1110478842e+000
 1.1970487202e+000	 2.2477928784e+000	-1.0461507035e+000
 1.1727133117e+000	 2.2605844471e+000	-9.9770056406e-001
 1.1482821256e+000	 2.2730918958e+000	-9.6125317094e-001
 1.1237599992e+000	 2.2853144392e+000	-9.3261976675e-001
 1.0991517687e+000	 2.2972513987e+000	-9.0786876995e-001
 1.0744622664e+000	 2.3089022019e+000	-8.8332627972e-001
 1.0496963181e+000	 2.3202663819e+000	-8.5557559646e-001
 1.0248587405e+000	 2.3313435766e+000	-8.2145590586e-001
 9.9995433773e-001	 2.3421335283e+000	-7.7808488277e-001
 1.2584545072e+000	 2.2446225705e+000	-1.1830409713e+000
 1.2340724780e+000	 2.2581194659e+000	-1.0973372538e+000
 1.2095839016e+000	 2.2713311781e+000	-1.0323867606e+000
 1.1849936591e+000	 2.2842566968e+000	-9.8356509588e-001
 1.1603066360e+000	 2.2968951202e+000	-9.4650212000e-001
 1.1355277203e+000	 2.3092456549e+000	-9.1708354364e-001
 1.1106617988e+000	 2.3213076151e+000	-8.9145121356e-001
 1.0857137545e+000	 2.3330804224e+000	-8.6600225240e-001
 1.0606884637e+000	 2.3445636051e+000	-8.3738721658e-001
 1.0355907934e+000	 2.3557567974e+000	-8.0250743458e-001
 1.0104255983e+000	 2.3666597386e+000	-7.5851168534e-001
 1.2714961454e+000	 2.2678840830e+000	-1.1494947857e+000
 1.2468614399e+000	 2.2815208497e+000	-1.0661141349e+000
 1.2221190831e+000	 2.2948694778e+000	-1.0027472557e+000
 1.1972740064e+000	 2.3079289465e+000	-9.5488795110e-001
 1.1723311464e+000	 2.3206983446e+000	-9.1828530461e-001
 1.1472954414e+000	 2.3331768706e+000	-8.8894376471e-001
 1.1221718289e+000	 2.3453638315e+000	-8.6312189523e-001
 1.0969652426e+000	 2.3572586430e+000	-8.3732997031e-001
 1.0716806093e+000	 2.3688608284e+000	-8.0832659378e-001
 1.0463228464e+000	 2.3801700182e+000	-7.7311452068e-001
 1.0208968588e+000	 2.3911859489e+000	-7.2893585513e-001
 9.1618425334e-001	 2.1459238455e+000	-8.8071409019e-001
 8.9330591575e-001	 2.1555479833e+000	-8.3222673923e-001
 8.7037509788e-001	 2.1649086739e+000	-7.8798891684e-001
 8.4739615664e-001	 2.1740059639e+000	-7.4638418858e-001
 8.2437342815e-001	 2.1828399911e+000	-7.0604539371e-001
 8.0131122541e-001	 2.1914109843e+000	-6.6585623416e-001
 7.7821383611e-001	 2.1997192618e+000	-6.2495245937e-001
 7.5508552040e-001	 2.2077652301e+000	-5.8272269421e-001
 7.3193050875e-001	 2.2155493829e+000	-5.3880895333e-001
 7.0875299987e-001	 2.2230722995e+000	-4.9310688053e-001
 6.8555715871e-001	 2.2303346436e+000	-4.4576574752e-001
 9.2665551389e-001	 2.1704500559e+000	-8.5397362244e-001
 9.0351569502e-001	 2.1801841899e+000	-8.0823120988e-001
 8.8032279606e-001	 2.1896518658e+000	-7.6621714358e-001
 8.5708122372e-001	 2.1988531306e+000	-7.2638904571e-001
 8.3379536366e-001	 2.2077881238e+000	-6.8745398024e-001
 8.1046957821e-001	 2.2164570766e+000	-6.4836945823e-001
 7.8710820405e-001	 2.2248603111e+000	-6.0834408207e-001
 7.6371555000e-001	 2.2329982385e+000	-5.6683788094e-001
 7.4029589490e-001	 2.2408713580e+000	-5.2356238510e-001
 7.1685348544e-001	 2.2484802556e+000	-4.7848048131e-001
 6.9339253419e-001	 2.2558256026e+000	-4.3180608666e-001
 9.3712677444e-001	 2.1949762662e+000	-8.3436587268e-001
 9.1372547428e-001	 2.2048203965e+000	-7.9009852160e-001
 8.9027049423e-001	 2.2143950577e+000	-7.4913049233e-001
 8.6676629079e-001	 2.2237002973e+000	-7.0999419856e-001
 8.4321729918e-001	 2.2327362564e+000	-6.7146963373e-001
 8.1962793101e-001	 2.2415031690e+000	-6.3258475579e-001
 7.9600257198e-001	 2.2500013605e+000	-5.9261556117e-001
 7.7234557960e-001	 2.2582312469e+000	-5.5108590545e-001
 7.4866128104e-001	 2.2661933331e+000	-5.0776712299e-001
 7.2495397102e-001	 2.2738882116e+000	-4.6267749153e-001
 7.0122790966e-001	 2.2813165615e+000	-4.1608158231e-001
 9.4759803499e-001	 2.2195024766e+000	-8.2069044459e-001
 9.2393525355e-001	 2.2294566031e+000	-7.7690585819e-001
 9.0021819241e-001	 2.2391382496e+000	-7.3605743991e-001
 8.7645135786e-001	 2.2485474640e+000	-6.9675403605e-001
 8.5263923470e-001	 2.2576843891e+000	-6.5784817028e-001
 8.2878628382e-001	 2.2665492613e+000	-6.1843576542e-001
 8.0489693991e-001	 2.2751424099e+000	-5.7785561214e-001
 7.8097560919e-001	 2.2834642553e+000	-5.3568864768e-001
 7.5702666719e-001	 2.2915153082e+000	-4.9175710139e-001
 7.3305445659e-001	 2.2992961677e+000	-4.4612355757e-001
 7.0906328514e-001	 2.3068075204e+000	-3.9908997888e-001
 9.5806929554e-001	 2.2440286869e+000	-8.1142152000e-001
 9.3414503282e-001	 2.2540928097e+000	-7.6738568283e-001
 9.1016589059e-001	 2.2638814415e+000	-7.2596441786e-001
 8.8613642494e-001	 2.2733946308e+000	-6.8584560975e-001
 8.6206117021e-001	 2.2826325217e+000	-6.4595486449e-001
 8.3794463662e-001	 2.2915953536e+000	-6.0545452000e-001
 8.1379130784e-001	 2.3002834592e+000	-5.6374246908e-001
 7.8960563879e-001	 2.3086972637e+000	-5.2045086376e-001
 7.6539205334e-001	 2.3168372833e+000	-4.7544476280e-001
 7.4115494217e-001	 2.3247041238e+000	-4.2882077695e-001
 7.1689866062e-001	 2.3322984793e+000	-3.8090575905e-001
 9.6854055608e-001	 2.2685548972e+000	-8.0473639304e-001
 9.4435481208e-001	 2.2787290163e+000	-7.5995387430e-001
 9.2011358876e-001	 2.2886246334e+000	-7.1748346327e-001
 8.9582149201e-001	 2.2982417975e+000	-6.7609571380e-001
 8.7148310573e-001	 2.3075806544e+000	-6.3479087494e-001
 8.4710298942e-001	 2.3166414459e+000	-5.9279713616e-001
 8.2268567577e-001	 2.3254245086e+000	-5.4956875849e-001
 7.9823566838e-001	 2.3339302721e+000	-5.0478416673e-001
 7.7375743949e-001	 2.3421592584e+000	-4.5834406977e-001
 7.4925542774e-001	 2.3501120799e+000	-4.1036966830e-001
 7.2473403609e-001	 2.3577894383e+000	-3.6120100030e-001
 9.7901181663e-001	 2.2930811076e+000	-7.9854335653e-001
 9.5456459135e-001	 2.3033652229e+000	-7.5273719208e-001
 9.3006128694e-001	 2.3133678253e+000	-7.0893918094e-001
 9.0550655908e-001	 2.3230889642e+000	-6.6600726430e-001
 8.8090504125e-001	 2.3325287870e+000	-6.2301896280e-001
 8.5626134222e-001	 2.3416875382e+000	-5.7926879611e-001
 8.3158004370e-001	 2.3505655579e+000	-5.3426567028e-001
 8.0686569798e-001	 2.3591632805e+000	-4.8773031446e-001
 7.8212282563e-001	 2.3674812335e+000	-4.3959283998e-001
 7.5735591331e-001	 2.3755200360e+000	-3.8999048542e-001
 7.3256941157e-001	 2.3832803972e+000	-3.3926560225e-001
 9.8948307718e-001	 2.3176073179e+000	-7.9050898848e-001
 9.6477437061e-001	 2.3280014296e+000	-7.4360012026e-001
 9.4000898511e-001	 2.3381110172e+000	-6.9837506815e-001
 9.1519162615e-001	 2.3479361309e+000	-6.5378503013e-001
 8.9032697676e-001	 2.3574769197e+000	-6.0898855594e-001
 8.6541969502e-001	 2.3667336306e+000	-5.6334807418e-001
 8.4047441163e-001	 2.3757066073e+000	-5.1642647777e-001
 8.1549572757e-001	 2.3843962889e+000	-4.6798385634e-001
 7.9048821178e-001	 2.3928032086e+000	-4.1797445442e-001
 7.6545639888e-001	 2.4009279921e+000	-3.6654392419e-001
 7.4040478704e-001	 2.4087713561e+000	-3.1402693113e-001
 9.9995433773e-001	 2.3421335283e+000	-7.7808488277e-001
 9.7498414988e-001	 2.3526376362e+000	-7.3017113566e-001
 9.4995668329e-001	 2.3628542091e+000	-6.8357924842e-001
 9.2487669322e-001	 2.3727832976e+000	-6.3736076265e-001
 8.9974891228e-001	 2.3824250523e+000	-5.9076020655e-001
 8.7457804782e-001	 2.3917797229e+000	-5.4321065615e-001
 8.4936877956e-001	 2.4008476566e+000	-4.9432945464e-001
 8.2412575717e-001	 2.4096292973e+000	-4.4391418550e-001
 7.9885359793e-001	 2.4181251837e+000	-3.9193898480e-001
 7.7355688446e-001	 2.4263359481e+000	-3.3855126663e-001
 7.4824016252e-001	 2.4342623150e+000	-2.8406892439e-001
 1.0104255983e+000	 2.3666597386e+000	-7.5851168534e-001
 9.8519392915e-001	 2.3772738428e+000	-7.0986844198e-001
 9.5990438146e-001	 2.3875974010e+000	-6.6210965750e-001
 9.3456176030e-001	 2.3976304643e+000	-6.1441776799e-001
 9.0917084779e-001	 2.4073731850e+000	-5.6612948613e-001
 8.8373640062e-001	 2.4168258152e+000	-5.1675249543e-001
 8.5826314749e-001	 2.4259887060e+000	-4.6596023247e-001
 8.3275578676e-001	 2.4348623057e+000	-4.1358703989e-001
 8.0721898407e-001	 2.4434471588e+000	-3.5962378207e-001
 7.8165737003e-001	 2.4517439042e+000	-3.0421400314e-001
 7.5607553799e-001	 2.4597532740e+000	-2.4765069442e-001
 1.0208968588e+000	 2.3911859489e+000	-7.2893585513e-001
 9.9540370841e-001	 2.4019100494e+000	-6.7992520834e-001
 9.6985207964e-001	 2.4123405929e+000	-6.3131872060e-001
 9.4424682737e-001	 2.4224776311e+000	-5.8241496180e-001
 9.1859278331e-001	 2.4323213176e+000	-5.3265035844e-001
 8.9289475342e-001	 2.4418719075e+000	-4.8161244648e-001
 8.6715751542e-001	 2.4511297553e+000	-4.2903363898e-001
 8.4138581636e-001	 2.4600953141e+000	-3.7478549159e-001
 8.1558437022e-001	 2.4687691339e+000	-3.1887356507e-001
 7.8975785560e-001	 2.4771518603e+000	-2.6143297026e-001
 7.6391091347e-001	 2.4852442329e+000	-2.0272466740e-001
 6.8555715871e-001	 2.2303346436e+000	-4.4576574752e-001
 6.6234711413e-001	 2.2373371614e+000	-4.0317660768e-001
 6.3912695606e-001	 2.2440806781e+000	-3.6227786674e-001
 6.1590073469e-001	 2.2505660983e+000	-3.1874097939e-001
 5.9267245902e-001	 2.2567944051e+000	-2.7320231472e-001
 5.6944609519e-001	 2.2627666581e+000	-2.2668059320e-001
 5.4622556476e-001	 2.2684839922e+000	-1.8056095260e-001
 5.2301474317e-001	 2.2739476157e+000	-1.3658159274e-001
 4.9981745820e-001	 2.2791588084e+000	-9.6822769465e-002
 4.7663748852e-001	 2.2841189201e+000	-6.3697893750e-002
 4.5347856227e-001	 2.2888293689e+000	-3.9946481263e-002
 6.9339253419e-001	 2.2558256026e+000	-4.3180608666e-001
 6.6991721718e-001	 2.2629081536e+000	-3.9052529894e-001
 6.4643167109e-001	 2.2697287433e+000	-3.5496398915e-001
 6.2293999239e-001	 2.2762882867e+000	-3.1612286250e-001
 5.9944623593e-001	 2.2825877781e+000	-2.7457598915e-001
 5.7595441315e-001	 2.2886282893e+000	-2.3139582096e-001
 5.5246849044e-001	 2.2944109680e+000	-1.8800313063e-001
 5.2899238754e-001	 2.2999370364e+000	-1.4615523798e-001
 5.0552997598e-001	 2.3052077888e+000	-1.0793684971e-001
 4.8208507759e-001	 2.3102245907e+000	-7.5753240618e-002
 4.5866146316e-001	 2.3149888762e+000	-5.2325492185e-002
 7.0122790966e-001	 2.2813165615e+000	-4.1608158231e-001
 6.7748732023e-001	 2.2884791457e+000	-3.7527495298e-001
 6.5373638611e-001	 2.2953768085e+000	-3.4379096575e-001
 6.2997925010e-001	 2.3020104752e+000	-3.0963037923e-001
 6.0622001284e-001	 2.3083811512e+000	-2.7198793046e-001
 5.8246273111e-001	 2.3144899205e+000	-2.3201637800e-001
 5.5871141613e-001	 2.3203379438e+000	-1.9119360557e-001
 5.3497003191e-001	 2.3259264570e+000	-1.5131258492e-001
 5.1124249375e-001	 2.3312567693e+000	-1.1447424118e-001
 4.8753266667e-001	 2.3363302614e+000	-8.3082917936e-002
 4.6384436404e-001	 2.3411483836e+000	-5.9844127188e-002
 7.0906328514e-001	 2.3068075204e+000	-3.9908997888e-001
 6.8505742327e-001	 2.3140501379e+000	-3.5821135616e-001
 6.6104110114e-001	 2.3210248737e+000	-3.2912071080e-001
 6.3701850780e-001	 2.3277326636e+000	-2.9973645542e-001
 6.1299378974e-001	 2.3341745242e+000	-2.6601873527e-001
 5.8897104907e-001	 2.3403515516e+000	-2.2922385290e-001
 5.6495434181e-001	 2.3462649196e+000	-1.9090472713e-001
 5.4094767629e-001	 2.3519158777e+000	-1.5290276080e-001
 5.1695501152e-001	 2.3573057498e+000	-1.1734292518e-001
 4.9298025574e-001	 2.3624359320e+000	-8.6631725980e-002
 4.6902726493e-001	 2.3673078909e+000	-6.3457702564e-002
 7.1689866062e-001	 2.3322984793e+000	-3.8090575905e-001
 6.9262752632e-001	 2.3396211300e+000	-3.3946773080e-001
 6.6834581616e-001	 2.3466729389e+000	-3.1090885886e-001
 6.4405776551e-001	 2.3534548520e+000	-2.8646278130e-001
 6.1976756665e-001	 2.3599678973e+000	-2.5679791192e-001
 5.9547936703e-001	 2.3662131828e+000	-2.2325305261e-001
 5.7119726749e-001	 2.3721918953e+000	-1.8747057324e-001
 5.4692532066e-001	 2.3779052983e+000	-1.5134936459e-001
 5.2266752930e-001	 2.3833547302e+000	-1.1704234996e-001
 4.9842784481e-001	 2.3885416026e+000	-8.6957184392e-002
 4.7421016581e-001	 2.3934673982e+000	-6.3759757258e-002
 7.2473403609e-001	 2.3577894383e+000	-3.6120100030e-001
 7.0019762936e-001	 2.3651921222e+000	-3.1877624542e-001
 6.7565053119e-001	 2.3723210042e+000	-2.8981057236e-001
 6.5109702321e-001	 2.3791770405e+000	-2.6940383353e-001
 6.2654134356e-001	 2.3857612703e+000	-2.4402583520e-001
 6.0198768499e-001	 2.3920748140e+000	-2.1391187103e-001
 5.7744019317e-001	 2.3981188711e+000	-1.8080470942e-001
 5.5290296503e-001	 2.4038947190e+000	-1.4666609025e-001
 5.2838004707e-001	 2.4094037107e+000	-1.1367688653e-001
 5.0387543389e-001	 2.4146472732e+000	-8.4240784882e-002
 4.7939306669e-001	 2.4196269055e+000	-6.0991062414e-002
 7.3256941157e-001	 2.3832803972e+000	-3.3926560225e-001
 7.0776773240e-001	 2.3907631144e+000	-2.9548709799e-001
 6.8295524621e-001	 2.3979690694e+000	-2.6568237179e-001
 6.5813628092e-001	 2.4048992289e+000	-2.4775037609e-001
 6.3331512046e-001	 2.4115546434e+000	-2.2699522580e-001
 6.0849600294e-001	 2.4179364451e+000	-2.0060073362e-001
 5.8368311886e-001	 2.4240458469e+000	-1.7041758151e-001
 5.5888060940e-001	 2.4298841397e+000	-1.3847204644e-001
 5.3409256484e-001	 2.4354526912e+000	-1.0696905022e-001
 5.0932302296e-001	 2.4407529438e+000	-7.8299085512e-002
 4.8457596758e-001	 2.4457864128e+000	-5.5048555063e-002
 7.4040478704e-001	 2.4087713561e+000	-3.1402693113e-001
 7.1533783545e-001	 2.4163341065e+000	-2.6858704559e-001
 6.9025996123e-001	 2.4236171346e+000	-2.3756511901e-001
 6.6517553862e-001	 2.4306214173e+000	-2.2031247835e-001
 6.4008889737e-001	 2.4373480164e+000	-2.0461218963e-001
 6.1500432090e-001	 2.4437980763e+000	-1.8233164957e-001
 5.8992604454e-001	 2.4499728226e+000	-1.5543356873e-001
 5.6485825377e-001	 2.4558735603e+000	-1.2600679498e-001
 5.3980508261e-001	 2.4615016716e+000	-9.6272505258e-002
 5.1477061203e-001	 2.4668586144e+000	-6.8594658268e-002
 4.8975886846e-001	 2.4719459201e+000	-4.5494201568e-002
 7.4824016252e-001	 2.4342623150e+000	-2.8406892439e-001
 7.2290793849e-001	 2.4419050987e+000	-2.3671742091e-001
 6.9756467626e-001	 2.4492651998e+000	-2.0415425570e-001
 6.7221479633e-001	 2.4563436058e+000	-1.8610262706e-001
 6.4686267428e-001	 2.4631413894e+000	-1.7541684929e-001
 6.2151263886e-001	 2.4696597075e+000	-1.5774690030e-001
 5.9616897022e-001	 2.4758997984e+000	-1.3460772217e-001
 5.7083589814e-001	 2.4818629810e+000	-1.0814512883e-001
 5.4551760038e-001	 2.4875506521e+000	-8.0584868410e-002
 5.2021820111e-001	 2.4929642851e+000	-5.4246900699e-002
 4.9494176935e-001	 2.4981054275e+000	-3.1563795981e-002
 7.5607553799e-001	 2.4597532740e+000	-2.4765069442e-001
 7.3047804154e-001	 2.4674760908e+000	-1.9819167297e-001
 7.0486939128e-001	 2.4749132650e+000	-1.6381624096e-001
 6.7925405403e-001	 2.4820657942e+000	-1.4461891666e-001
 6.5363645118e-001	 2.4889347625e+000	-1.3760359739e-001
 6.2802095682e-001	 2.4955213386e+000	-1.2513739051e-001
 6.0241189591e-001	 2.5018267742e+000	-1.0634221127e-001
 5.7681354251e-001	 2.5078524016e+000	-8.3411608452e-002
 5.5123011816e-001	 2.5135996326e+000	-5.8560326093e-002
 5.2566579018e-001	 2.5190699557e+000	-3.4042721452e-002
 5.0012467023e-001	 2.5242649348e+000	-1.2175698013e-002
 7.6391091347e-001	 2.4852442329e+000	-2.0272466740e-001
 7.3804814458e-001	 2.4930470830e+000	-1.5101246609e-001
 7.1217410630e-001	 2.5005613302e+000	-1.1460457394e-001
 6.8629331174e-001	 2.5077879826e+000	-9.4005620740e-002
 6.6041022809e-001	 2.5147281355e+000	-8.9040998655e-002
 6.3452927478e-001	 2.5213829698e+000	-8.2460686238e-002
 6.0865482159e-001	 2.5277537500e+000	-6.8702499489e-002
 5.8279118688e-001	 2.5338418223e+000	-4.9994873839e-002
 5.5694263593e-001	 2.5396486130e+000	-2.8522078483e-002
 5.3111337925e-001	 2.5451756263e+000	-6.4471087829e-003
 5.0530757112e-001	 2.5504244421e+000	 1.4060485029e-002
 4.5347856227e-001	 2.2888293689e+000	-3.9946481263e-002
 4.3034782282e-001	 2.2932909887e+000	-1.5795215965e-002
 4.0724541205e-001	 2.2975060545e+000	 1.8969527268e-002
 3.8417489215e-001	 2.3014761789e+000	 6.1734075209e-002
 3.6113977008e-001	 2.3052030356e+000	 1.0950585235e-001
 3.3814349649e-001	 2.3086883567e+000	 1.5891499628e-001
 3.1518946472e-001	 2.3119339318e+000	 2.0621582832e-001
 2.9228100992e-001	 2.3149416051e+000	 2.4728842866e-001
 2.6942140816e-001	 2.3177132742e+000	 2.7764055559e-001
 2.4661387566e-001	 2.3202508879e+000	 2.9241013576e-001
 2.2386156802e-001	 2.3225564445e+000	 2.8636853918e-001
 4.5866146316e-001	 2.3149888762e+000	-5.2325492185e-002
 4.3526635767e-001	 2.3195014888e+000	-2.8426238019e-002
 4.1189990463e-001	 2.3237647294e+000	 5.7190951166e-003
 3.8856570697e-001	 2.3277802293e+000	 4.7681177124e-002
 3.6526731169e-001	 2.3315496809e+000	 9.4648415898e-002
 3.4200820890e-001	 2.3350748366e+000	 1.4342550311e-001
 3.1879183072e-001	 2.3383575059e+000	 1.9043179620e-001
 2.9562155042e-001	 2.3413995546e+000	 2.3169981396e-001
 2.7250068152e-001	 2.3442029017e+000	 2.6287411211e-001
 2.4943247698e-001	 2.3467695183e+000	 2.7921079184e-001
 2.2642012848e-001	 2.3491014256e+000	 2.7557787942e-001
 4.6384436404e-001	 2.3411483836e+000	-5.9844127188e-002
 4.4018489252e-001	 2.3457119889e+000	-3.6103173751e-002
 4.1655439722e-001	 2.3500234044e+000	-2.5590992941e-003
 3.9295652178e-001	 2.3540842796e+000	 3.8532636337e-002
 3.6939485330e-001	 2.3578963263e+000	 8.4532250613e-002
 3.4587292131e-001	 2.3614613164e+000	 1.3241090084e-001
 3.2239419672e-001	 2.3647810801e+000	 1.7874575802e-001
 2.9896209093e-001	 2.3678575041e+000	 2.1971519939e-001
 2.7557995488e-001	 2.3706925291e+000	 2.5109441485e-001
 2.5225107830e-001	 2.3732881487e+000	 2.6825170799e-001
 2.2897868894e-001	 2.3756464067e+000	 2.6614575607e-001
 4.6902726493e-001	 2.3673078909e+000	-6.3457702564e-002
 4.4510342737e-001	 2.3719224890e+000	-3.9792191849e-002
 4.2120888981e-001	 2.3762820793e+000	-6.8684241225e-003
 3.9734733659e-001	 2.3803883299e+000	 3.3226962475e-002
 3.7352239491e-001	 2.3842429716e+000	 7.8022373961e-002
 3.4973763372e-001	 2.3878477962e+000	 1.2465300635e-001
 3.2599656273e-001	 2.3912046543e+000	 1.6985237192e-001
 3.0230263143e-001	 2.3943154536e+000	 2.0994394518e-001
 2.7865922823e-001	 2.3971821566e+000	 2.4083325463e-001
 2.5506967962e-001	 2.3998067791e+000	 2.5800073045e-001
 2.3153724940e-001	 2.4021913878e+000	 2.5649560084e-001
 4.7421016581e-001	 2.3934673982e+000	-6.3759757258e-002
 4.5002196221e-001	 2.3981329891e+000	-4.0126058250e-002
 4.2586338240e-001	 2.4025407543e+000	-7.9087306741e-003
 4.0173815140e-001	 2.4066923803e+000	 3.0974789134e-002
 3.7764993651e-001	 2.4105896170e+000	 7.4223039752e-002
 3.5360234613e-001	 2.4142342760e+000	 1.1913851017e-001
 3.2959892873e-001	 2.4176282285e+000	 1.6261535850e-001
 3.0564317194e-001	 2.4207734031e+000	 2.0112724731e-001
 2.8173850159e-001	 2.4236717841e+000	 2.3071565443e-001
 2.5788828094e-001	 2.4263254095e+000	 2.4697900119e-001
 2.3409580986e-001	 2.4287363689e+000	 2.4506292047e-001
 4.7939306669e-001	 2.4196269055e+000	-6.0991062414e-002
 4.5494049706e-001	 2.4243434892e+000	-3.7410931697e-002
 4.3051787498e-001	 2.4287994293e+000	-6.0810314236e-003
 4.0612896622e-001	 2.4329964306e+000	 3.1256223369e-002
 3.8177747812e-001	 2.4369362624e+000	 7.2477031729e-002
 3.5746705854e-001	 2.4406207558e+000	 1.1506013746e-001
 3.3320129473e-001	 2.4440518026e+000	 1.5607045935e-001
 3.0898371244e-001	 2.4472313525e+000	 1.9214283052e-001
 2.8481777495e-001	 2.4501614116e+000	 2.1946624101e-001
 2.6070688226e-001	 2.4528440399e+000	 2.3376895910e-001
 2.3665437032e-001	 2.4552813499e+000	 2.3030488582e-001
 4.8457596758e-001	 2.4457864128e+000	-5.5048555063e-002
 4.5985903191e-001	 2.4505539893e+000	-3.1633168248e-002
 4.3517236757e-001	 2.4550581042e+000	-1.4922696715e-003
 4.1051978103e-001	 2.4593004810e+000	 3.3818022698e-002
 3.8590501973e-001	 2.4632829077e+000	 7.2364705265e-002
 3.6133177094e-001	 2.4670072357e+000	 1.1181747886e-001
 3.3680366073e-001	 2.4704753768e+000	 1.4942798788e-001
 3.1232425294e-001	 2.4736893020e+000	 1.8200915672e-001
 2.8789704831e-001	 2.4766510391e+000	 2.0591505500e-001
 2.6352548358e-001	 2.4793626703e+000	 2.1702170283e-001
 2.3921293079e-001	 2.4818263310e+000	 2.1070920502e-001
 4.8975886846e-001	 2.4719459201e+000	-4.5494201568e-002
 4.6477756676e-001	 2.4767644894e+000	-2.2466134086e-002
 4.3982686015e-001	 2.4813167792e+000	 6.0398259592e-003
 4.1491059584e-001	 2.4856045313e+000	 3.8670612383e-002
 3.9003256133e-001	 2.4896295531e+000	 7.3702795848e-002
 3.6519648335e-001	 2.4933937155e+000	 1.0901751561e-001
 3.4040602674e-001	 2.4968989510e+000	 1.4207500281e-001
 3.1566479345e-001	 2.5001472515e+000	 1.6988918475e-001
 2.9097632166e-001	 2.5031406665e+000	 1.8900284118e-001
 2.6634408490e-001	 2.5058813007e+000	 1.9546376229e-001
 2.4177149125e-001	 2.5083713121e+000	 1.8480233353e-001
 4.9494176935e-001	 2.4981054275e+000	-3.1563795981e-002
 4.6969610161e-001	 2.5029749895e+000	-9.2770260110e-003
 4.4448135274e-001	 2.5075754541e+000	 1.6981808408e-002
 4.1930141065e-001	 2.5119085816e+000	 4.6084954714e-002
 3.9416010294e-001	 2.5159761984e+000	 7.6543011427e-002
 3.6906119576e-001	 2.5197801953e+000	 1.0647486141e-001
 3.4400839274e-001	 2.5233225252e+000	 1.3357713188e-001
 3.1900533395e-001	 2.5266052010e+000	 1.5509371422e-001
 2.9405559502e-001	 2.5296302940e+000	 1.6778585701e-001
 2.6916268622e-001	 2.5323999311e+000	 1.6790332239e-001
 2.4433005171e-001	 2.5349162932e+000	 1.5115706981e-001
 5.0012467023e-001	 2.5242649348e+000	-1.2175698013e-002
 4.7461463645e-001	 2.5291854896e+000	 8.8663009491e-003
 4.4913584533e-001	 2.5338341291e+000	 3.2079506147e-002
 4.2369222546e-001	 2.5382126320e+000	 5.6589281026e-002
 3.9828764455e-001	 2.5423228438e+000	 8.1170424318e-002
 3.7292590817e-001	 2.5461666751e+000	 1.0421174160e-001
 3.4761075874e-001	 2.5497460993e+000	 1.2368007120e-001
 3.2234587446e-001	 2.5530631505e+000	 1.3708434385e-001
 2.9713486838e-001	 2.5561199215e+000	 1.4144023434e-001
 2.7198128754e-001	 2.5589185615e+000	 1.3323593861e-001
 2.4688861217e-001	 2.5614612743e+000	 1.0839958120e-001
 5.0530757112e-001	 2.5504244421e+000	 1.4060485029e-002
 4.7953317130e-001	 2.5553959897e+000	 3.3188499314e-002
 4.5379033791e-001	 2.5600928041e+000	 5.2352949481e-002
 4.2808304028e-001	 2.5645166823e+000	 7.0965696314e-002
 4.0241518616e-001	 2.5686694892e+000	 8.8101677057e-002
 3.7679062058e-001	 2.5725531550e+000	 1.0245772841e-001
 3.5121312474e-001	 2.5761696735e+000	 1.1231078356e-001
 3.2568641496e-001	 2.5795211000e+000	 1.1547607174e-001
 3.0021414174e-001	 2.5826095490e+000	 1.0926592640e-001
 2.7479988887e-001	 2.5854371919e+000	 9.0449780909e-002
 2.4944717263e-001	 2.5880062554e+000	 5.5215900806e-002
 2.2386156802e-001	 2.3225564445e+000	 2.8636853918e-001
 2.0116418761e-001	 2.3246322838e+000	 2.7899652591e-001
 1.7852822470e-001	 2.3264801350e+000	 2.9002147067e-001
 1.5595669635e-001	 2.3281021343e+000	 3.1399956422e-001
 1.3345255529e-001	 2.3295004597e+000	 3.4508822452e-001
 1.1101868952e-001	 2.3306773288e+000	 3.7705636071e-001
 8.8657921967e-002	 2.3316349974e+000	 4.0329640151e-001
 6.6373010180e-002	 2.3323757570e+000	 4.1683817254e-001
 4.4166646119e-002	 2.3329019336e+000	 4.1036468706e-001
 2.2041455963e-002	 2.3332158851e+000	 3.7622989446e-001
 0.0000000000e+000	 2.3333200000e+000	 3.0647838699e-001
 2.2642012848e-001	 2.3491014256e+000	 2.7557787942e-001
 2.0346333498e-001	 2.3512009901e+000	 2.7115142851e-001
 1.8056866094e-001	 2.3530699608e+000	 2.8543415008e-001
 1.5773915790e-001	 2.3547104983e+000	 3.1315450694e-001
 1.3497781233e-001	 2.3561248054e+000	 3.4860307611e-001
 1.1228754524e-001	 2.3573151252e+000	 3.8564060889e-001
 8.9671211813e-002	 2.3582837391e+000	 4.1770807037e-001
 6.7131601130e-002	 2.3590329651e+000	 4.3783875531e-001
 4.4671435911e-002	 2.3595651554e+000	 4.3867255574e-001
 2.2293372352e-002	 2.3598826951e+000	 4.1247243323e-001
 0.0000000000e+000	 2.3599880000e+000	 3.5114310338e-001
 2.2897868894e-001	 2.3756464067e+000	 2.6614575607e-001
 2.0576248236e-001	 2.3777696964e+000	 2.6357305992e-001
 1.8260909719e-001	 2.3796597865e+000	 2.7974958875e-001
 1.5952161945e-001	 2.3813188622e+000	 3.0958751291e-001
 1.3650306936e-001	 2.3827491510e+000	 3.4752033175e-001
 1.1355640095e-001	 2.3839529215e+000	 3.8750852405e-001
 9.0684501658e-002	 2.3849324809e+000	 4.2304740445e-001
 6.7890192080e-002	 2.3856901731e+000	 4.4717729680e-001
 4.5176225704e-002	 2.3862283772e+000	 4.5249611086e-001
 2.2545288740e-002	 2.3865495052e+000	 4.3117438516e-001
 0.0000000000e+000	 2.3866560000e+000	 3.7497281138e-001
 2.3153724940e-001	 2.4021913878e+000	 2.5649560084e-001
 2.0806162973e-001	 2.4043384027e+000	 2.5465990747e-001
 1.8464953343e-001	 2.4062496123e+000	 2.7136032894e-001
 1.6130408099e-001	 2.4079272261e+000	 3.0170942092e-001
 1.3802832640e-001	 2.4093734967e+000	 3.4029856003e-001
 1.1482525666e-001	 2.4105907179e+000	 3.8120096124e-001
 9.1697791503e-002	 2.4115812226e+000	 4.1797714046e-001
 6.8648783029e-002	 2.4123473812e+000	 4.4368294766e-001
 4.5681015496e-002	 2.4128915991e+000	 4.5088026962e-001
 2.2797205128e-002	 2.4132163152e+000	 4.3165047549e-001
 0.0000000000e+000	 2.4133240000e+000	 3.7761062910e-001
 2.3409580986e-001	 2.4287363689e+000	 2.4506292047e-001
 2.1036077711e-001	 2.4309071089e+000	 2.4278033507e-001
 1.8668996967e-001	 2.4328394381e+000	 2.5858595339e-001
 1.6308654254e-001	 2.4345355900e+000	 2.8781472103e-001
 1.3955358343e-001	 2.4359978424e+000	 3.2523612472e-001
 1.1609411237e-001	 2.4372285143e+000	 3.6505433537e-001
 9.2711081348e-002	 2.4382299644e+000	 4.0091104837e-001
 6.9407373978e-002	 2.4390045892e+000	 4.2589116219e-001
 4.6185805287e-002	 2.4395548209e+000	 4.3253140813e-001
 2.3049121516e-002	 2.4398831253e+000	 4.1283201535e-001
 0.0000000000e+000	 2.4399920000e+000	 3.5827144489e-001
 2.3665437032e-001	 2.4552813499e+000	 2.3030488582e-001
 2.1265992448e-001	 2.4574758152e+000	 2.2628371187e-001
 1.8873040592e-001	 2.4594292638e+000	 2.3968569695e-001
 1.6486900409e-001	 2.4611439540e+000	 2.6609559845e-001
 1.4107884046e-001	 2.4626221881e+000	 3.0048661624e-001
 1.1736296808e-001	 2.4638663106e+000	 3.3721740129e-001
 9.3724371192e-002	 2.4648787062e+000	 3.7003202728e-001
 7.0165964927e-002	 2.4656617973e+000	 3.9206308314e-001
 4.6690595079e-002	 2.4662180427e+000	 3.9583801402e-001
 2.3301037904e-002	 2.4665499353e+000	 3.7328880710e-001
 0.0000000000e+000	 2.4666600000e+000	 3.1576506610e-001
 2.3921293079e-001	 2.4818263310e+000	 2.1070920502e-001
 2.1495907186e-001	 2.4840445215e+000	 2.0351074728e-001
 1.9077084216e-001	 2.4860190896e+000	 2.1287018771e-001
 1.6665146563e-001	 2.4877523179e+000	 2.3465503075e-001
 1.4260409750e-001	 2.4892465338e+000	 2.6407326040e-001
 1.1863182380e-001	 2.4905041070e+000	 2.9566693531e-001
 9.4737661037e-002	 2.4915274479e+000	 3.2330902663e-001
 7.0924555876e-002	 2.4923190053e+000	 3.4020367511e-001
 4.7195384870e-002	 2.4928812646e+000	 3.3889001049e-001
 2.3552954292e-002	 2.4932167454e+000	 3.1124964306e-001
 0.0000000000e+000	 2.4933280000e+000	 2.4851788231e-001
 2.4177149125e-001	 2.5083713121e+000	 1.8480233353e-001
 2.1725821923e-001	 2.5106132278e+000	 1.7280309126e-001
 1.9281127840e-001	 2.5126089153e+000	 1.7631238246e-001
 1.6843392718e-001	 2.5143606818e+000	 1.9151900859e-001
 1.4412935453e-001	 2.5158708794e+000	 2.1390238025e-001
 1.1990067951e-001	 2.5171419034e+000	 2.3822239942e-001
 9.5750950882e-002	 2.5181761897e+000	 2.5851287956e-001
 7.1683146825e-002	 2.5189762134e+000	 2.6807869933e-001
 4.7700174662e-002	 2.5195444864e+000	 2.5949685023e-001
 2.3804870680e-002	 2.5198835554e+000	 2.2462150199e-001
 0.0000000000e+000	 2.5199960000e+000	 1.5459315299e-001
 2.4433005171e-001	 2.5349162932e+000	 1.5115706981e-001
 2.1955736661e-001	 2.5371819341e+000	 1.3251225372e-001
 1.9485171464e-001	 2.5391987411e+000	 1.2815775517e-001
 1.7021638873e-001	 2.5409690458e+000	 1.3464794427e-001
 1.4565461156e-001	 2.5424952251e+000	 1.4777598051e-001
 1.2116953522e-001	 2.5437796997e+000	 1.6255966287e-001
 9.6764240726e-002	 2.5448249314e+000	 1.7323112817e-001
 7.2441737774e-002	 2.5456334215e+000	 1.7323061471e-001
 4.8204964454e-002	 2.5462077083e+000	 1.5520446951e-001
 2.4056787068e-002	 2.5465503655e+000	 1.1100753861e-001
 0.0000000000e+000	 2.5466640000e+000	 3.1710020549e-002
 2.4688861217e-001	 2.5614612743e+000	 1.0839958120e-001
 2.2185651398e-001	 2.5637506404e+000	 8.1007892328e-002
 1.9689215089e-001	 2.5657885669e+000	 6.6533793001e-002
 1.7199885027e-001	 2.5675774097e+000	 6.1947326782e-002
 1.4717986860e-001	 2.5691195708e+000	 6.3403518057e-002
 1.2243839093e-001	 2.5704174961e+000	 6.6223849398e-002
 9.7777530572e-002	 2.5714736732e+000	 6.4881914036e-002
 7.3200328724e-002	 2.5722906295e+000	 5.2993483020e-002
 4.8709754246e-002	 2.5728709301e+000	 2.3311184900e-002
 2.4308703457e-002	 2.5732171755e+000	-3.2276046079e-002
 0.0000000000e+000	 2.5733320000e+000	-1.2273865889e-001
 2.4944717263e-001	 2.5880062554e+000	 5.5215900806e-002
 2.2415566136e-001	 2.5903193466e+000	 1.6685514263e-002
 1.9893258713e-001	 2.5923783926e+000	-1.0441150644e-002
 1.7378131182e-001	 2.5941857736e+000	-2.8722322191e-002
 1.4870512563e-001	 2.5957439165e+000	-4.1587082892e-002
 1.2370724665e-001	 2.5970552924e+000	-5.3358627032e-002
 9.8790820418e-002	 2.5981224149e+000	-6.9272999209e-002
 7.3958919674e-002	 2.5989478376e+000	-9.5493050185e-002
 4.9214544039e-002	 2.5995341519e+000	-1.3911739128e-001
 2.4560619845e-002	 2.5998839856e+000	-2.0818417353e-001
 0.0000000000e+000	 2.6000000000e+000	-3.1166958202e-001
 2.6000000000e+000	 0.0000000000e+000	 2.7551227861e+000
 2.5998839856e+000	 2.4560619845e-002	 2.6418686761e+000
 2.5995341519e+000	 4.9214544039e-002	 2.5457066047e+000
 2.5989478376e+000	 7.3958919674e-002	 2.4613906026e+000
 2.5981224149e+000	 9.8790820418e-002	 2.3845904671e+000
 2.5970552924e+000	 1.2370724665e-001	 2.3118847240e+000
 2.5957439165e+000	 1.4870512563e-001	 2.2407462598e+000
 2.5941857736e+000	 1.7378131182e-001	 2.1695207470e+000
 2.5923783926e+000	 1.9893258713e-001	 2.0973980715e+000
 2.5903193466e+000	 2.2415566136e-001	 2.0243770317e+000
 2.5880062554e+000	 2.4944717263e-001	 1.9512236505e+000
 2.6266680000e+000	 0.0000000000e+000	 2.8807300472e+000
 2.6265507956e+000	 2.4812536234e-002	 2.7572215523e+000
 2.6261973738e+000	 4.9719333832e-002	 2.6513462086e+000
 2.6256050456e+000	 7.4717510624e-002	 2.5575355602e+000
 2.6247711567e+000	 9.9804110264e-002	 2.4712326397e+000
 2.6236930888e+000	 1.2497610236e-001	 2.3888814139e+000
 2.6223682622e+000	 1.5023038267e-001	 2.3079082665e+000
 2.6207941375e+000	 1.7556377337e-001	 2.2266956560e+000
 2.6189682184e+000	 2.0097302338e-001	 2.1445481782e+000
 2.6168880529e+000	 2.2645480873e-001	 2.0616513270e+000
 2.6145512364e+000	 2.5200573309e-001	 1.9790233257e+000
 2.6533360000e+000	 0.0000000000e+000	 2.6399242922e+000
 2.6532176057e+000	 2.5064452623e-002	 2.5420948392e+000
 2.6528605956e+000	 5.0224123625e-002	 2.4607146669e+000
 2.6522622537e+000	 7.5476101575e-002	 2.3898504190e+000
 2.6514198985e+000	 1.0081740011e-001	 2.3246807256e+000
 2.6503308852e+000	 1.2624495807e-001	 2.2614818617e+000
 2.6489926079e+000	 1.5175563971e-001	 2.1976047784e+000
 2.6474025015e+000	 1.7734623492e-001	 2.1314436586e+000
 2.6455580441e+000	 2.0301345962e-001	 2.0623962484e+000
 2.6434567592e+000	 2.2875395611e-001	 1.9908162867e+000
 2.6410962175e+000	 2.5456429355e-001	 1.9179584326e+000
 2.6800040000e+000	 0.0000000000e+000	 2.0957138471e+000
 2.6798844157e+000	 2.5316369012e-002	 2.0530471190e+000
 2.6795238174e+000	 5.0728913418e-002	 2.0226496628e+000
 2.6789194617e+000	 7.6234692526e-002	 1.9988182511e+000
 2.6780686402e+000	 1.0183068996e-001	 1.9770250860e+000
 2.6769686815e+000	 1.2751381379e-001	 1.9538675951e+000
 2.6756169535e+000	 1.5328089674e-001	 1.9270170292e+000
 2.6740108654e+000	 1.7912869647e-001	 1.8951657189e+000
 2.6721478699e+000	 2.0505389587e-001	 1.8579728385e+000
 2.6700254655e+000	 2.3105310349e-001	 1.8160084929e+000
 2.6676411986e+000	 2.5712285401e-001	 1.7706959147e+000
 2.7066720000e+000	 0.0000000000e+000	 1.6134598744e+000
 2.7065512258e+000	 2.5568285401e-002	 1.6197817714e+000
 2.7061870393e+000	 5.1233703212e-002	 1.6332401827e+000
 2.7055766698e+000	 7.6993283478e-002	 1.6487119746e+000
 2.7047173820e+000	 1.0284397981e-001	 1.6622149096e+000
 2.7036064779e+000	 1.2878266950e-001	 1.6708570025e+000
 2.7022412992e+000	 1.5480615378e-001	 1.6727849838e+000
 2.7006192293e+000	 1.8091115802e-001	 1.6671317199e+000
 2.6987376957e+000	 2.0709433211e-001	 1.6539624249e+000
 2.6965941718e+000	 2.3335225087e-001	 1.6342194660e+000
 2.6941861797e+000	 2.5968141448e-001	 1.6096655291e+000
 2.7333400000e+000	 0.0000000000e+000	 1.2527988979e+000
 2.7332180358e+000	 2.5820201790e-002	 1.2962424772e+000
 2.7328502611e+000	 5.1738493006e-002	 1.3427962027e+000
 2.7322338778e+000	 7.7751874430e-002	 1.3878513517e+000
 2.7313661237e+000	 1.0385726965e-001	 1.4278988012e+000
 2.7302442743e+000	 1.3005152522e-001	 1.4604781939e+000
 2.7288656449e+000	 1.5633141081e-001	 1.4841265491e+000
 2.7272275933e+000	 1.8269361957e-001	 1.4983261621e+000
 2.7253275214e+000	 2.0913476836e-001	 1.5034516116e+000
 2.7231628781e+000	 2.3565139824e-001	 1.5007156612e+000
 2.7207311608e+000	 2.6223997494e-001	 1.4921138014e+000
 2.7600080000e+000	 0.0000000000e+000	 1.0121956943e+000
 2.7598848459e+000	 2.6072118180e-002	 1.0801318793e+000
 2.7595134829e+000	 5.2243282800e-002	 1.1483218806e+000
 2.7588910859e+000	 7.8510465381e-002	 1.2126058182e+000
 2.7580148655e+000	 1.0487055950e-001	 1.2698751567e+000
 2.7568820706e+000	 1.3132038093e-001	 1.3180219432e+000
 2.7554899906e+000	 1.5785666785e-001	 1.3558878633e+000
 2.7538359572e+000	 1.8447608112e-001	 1.3832129501e+000
 2.7519173472e+000	 2.1117520460e-001	 1.4005837520e+000
 2.7497315844e+000	 2.3795054562e-001	 1.4093807265e+000
 2.7472761419e+000	 2.6479853540e-001	 1.4117245852e+000
 2.7866760000e+000	 0.0000000000e+000	 8.9011038316e-001
 2.7865516559e+000	 2.6324034569e-002	 9.6915048050e-001
 2.7861767048e+000	 5.2748072593e-002	 1.0468244088e+000
 2.7855482939e+000	 7.9269056333e-002	 1.1193554114e+000
 2.7846636072e+000	 1.0588384935e-001	 1.1839626601e+000
 2.7835198670e+000	 1.3258923665e-001	 1.2388108390e+000
 2.7821143363e+000	 1.5938192489e-001	 1.2829599586e+000
 2.7804443211e+000	 1.8625854267e-001	 1.3163152220e+000
 2.7785071730e+000	 2.1321564085e-001	 1.3395767352e+000
 2.7763002906e+000	 2.4024969300e-001	 1.3541888082e+000
 2.7738211230e+000	 2.6735709587e-001	 1.3622885496e+000
 2.8133440000e+000	 0.0000000000e+000	 8.8499864769e-001
 2.8132184660e+000	 2.6575950958e-002	 9.6099688969e-001
 2.8128399266e+000	 5.3252862387e-002	 1.0353142448e+000
 2.8122055020e+000	 8.0027647284e-002	 1.1044909475e+000
 2.8113123490e+000	 1.0689713920e-001	 1.1660003700e+000
 2.8101576634e+000	 1.3385809236e-001	 1.2181992438e+000
 2.8087386819e+000	 1.6090718192e-001	 1.2602785593e+000
 2.8070526851e+000	 1.8804100421e-001	 1.2922149544e+000
 2.8050969987e+000	 2.1525607709e-001	 1.3147223668e+000
 2.8028689969e+000	 2.4254884037e-001	 1.3292036786e+000
 2.8003661041e+000	 2.6991565633e-001	 1.3377020272e+000
 2.8400120000e+000	 0.0000000000e+000	 9.9531194286e-001
 2.8398852760e+000	 2.6827867347e-002	 1.0533680536e+000
 2.8395031484e+000	 5.3757652180e-002	 1.1108053293e+000
 2.8388627100e+000	 8.0786238235e-002	 1.1644141873e+000
 2.8379610907e+000	 1.0791042904e-001	 1.2118477982e+000
 2.8367954597e+000	 1.3512694807e-001	 1.2515732516e+000
 2.8353630276e+000	 1.6243243896e-001	 1.2828238855e+000
 2.8336610490e+000	 1.8982346576e-001	 1.3055525794e+000
 2.8316868245e+000	 2.1729651334e-001	 1.3203857699e+000
 2.8294377032e+000	 2.4484798775e-001	 1.3285778922e+000
 2.8269110851e+000	 2.7247421679e-001	 1.3319658979e+000
 2.8666800000e+000	 0.0000000000e+000	 1.2194976922e+000
 2.8665520861e+000	 2.7079783735e-002	 1.2439594760e+000
 2.8661663703e+000	 5.4262441973e-002	 1.2703152914e+000
 2.8655199181e+000	 8.1544829185e-002	 1.2955379928e+000
 2.8646098325e+000	 1.0892371889e-001	 1.3173849833e+000
 2.8634332561e+000	 1.3639580379e-001	 1.3343506452e+000
 2.8619873733e+000	 1.6395769600e-001	 1.3456204611e+000
 2.8602694129e+000	 1.9160592731e-001	 1.3510266141e+000
 2.8582766502e+000	 2.1933694958e-001	 1.3510048047e+000
 2.8560064095e+000	 2.4714713513e-001	 1.3465519673e+000
 2.8534560662e+000	 2.7503277725e-001	 1.3391845054e+000
 2.5880062554e+000	 2.4944717263e-001	 1.9512236505e+000
 2.5854371919e+000	 2.7479988887e-001	 1.8822140687e+000
 2.5826095490e+000	 3.0021414174e-001	 1.8192284455e+000
 2.5795211000e+000	 3.2568641496e-001	 1.7604107959e+000
 2.5761696735e+000	 3.5121312474e-001	 1.7043813427e+000
 2.5725531550e+000	 3.7679062058e-001	 1.6501759272e+000
 2.5686694892e+000	 4.0241518616e-001	 1.5971826891e+000
 2.5645166823e+000	 4.2808304028e-001	 1.5450767863e+000
 2.5600928041e+000	 4.5379033791e-001	 1.4937539761e+000
 2.5553959897e+000	 4.7953317130e-001	 1.4432639277e+000
 2.5504244421e+000	 5.0530757112e-001	 1.3937441763e+000
 2.6145512364e+000	 2.5200573309e-001	 1.9790233257e+000
 2.6119558223e+000	 2.7761849019e-001	 1.9010008711e+000
 2.6090991765e+000	 3.0329341510e-001	 1.8293260429e+000
 2.6059790495e+000	 3.2902695547e-001	 1.7621729517e+000
 2.6025932477e+000	 3.5481549075e-001	 1.6982213702e+000
 2.5989396348e+000	 3.8065533300e-001	 1.6365881611e+000
 2.5950161345e+000	 4.0654272777e-001	 1.5767557351e+000
 2.5908207327e+000	 4.3247385509e-001	 1.5184983718e+000
 2.5863514790e+000	 4.5844483050e-001	 1.4618072893e+000
 2.5816064898e+000	 4.8445170615e-001	 1.4068154013e+000
 2.5765839494e+000	 5.1049047200e-001	 1.3537227432e+000
 2.6410962175e+000	 2.5456429355e-001	 1.9179584326e+000
 2.6384744527e+000	 2.8043709151e-001	 1.8482104494e+000
 2.6355888040e+000	 3.0637268845e-001	 1.7832479677e+000
 2.6324369990e+000	 3.3236749597e-001	 1.7213766217e+000
 2.6290168219e+000	 3.5841785675e-001	 1.6614392896e+000
 2.6253261146e+000	 3.8452004541e-001	 1.6027388768e+000
 2.6213627799e+000	 4.1067026938e-001	 1.5449578764e+000
 2.6171247830e+000	 4.3686466991e-001	 1.4880756002e+000
 2.6126101540e+000	 4.6309932309e-001	 1.4322840395e+000
 2.6078169899e+000	 4.8937024100e-001	 1.3779033625e+000
 2.6027434567e+000	 5.1567337289e-001	 1.3252981085e+000
 2.6676411986e+000	 2.5712285401e-001	 1.7706959147e+000
 2.6649930831e+000	 2.8325569283e-001	 1.7260718752e+000
 2.6620784314e+000	 3.0945196181e-001	 1.6828440723e+000
 2.6588949485e+000	 3.3570803648e-001	 1.6394739625e+000
 2.6554403960e+000	 3.6202022276e-001	 1.5950781154e+000
 2.6517125944e+000	 3.8838475782e-001	 1.5492575039e+000
 2.6477094252e+000	 4.1479781099e-001	 1.5020074544e+000
 2.6434288333e+000	 4.4125548472e-001	 1.4536250653e+000
 2.6388688289e+000	 4.6775381568e-001	 1.4046151235e+000
 2.6340274900e+000	 4.9428877585e-001	 1.3555956039e+000
 2.6289029640e+000	 5.2085627378e-001	 1.3072038912e+000
 2.6941861797e+000	 2.5968141448e-001	 1.6096655291e+000
 2.6915117135e+000	 2.8607429415e-001	 1.5846461330e+000
 2.6885680589e+000	 3.1253123517e-001	 1.5606059353e+000
 2.6853528980e+000	 3.3904857699e-001	 1.5359499417e+000
 2.6818639702e+000	 3.6562258876e-001	 1.5095707017e+000
 2.6780990742e+000	 3.9224947023e-001	 1.4807858782e+000
 2.6740560706e+000	 4.1892535260e-001	 1.4492724789e+000
 2.6697328837e+000	 4.4564629954e-001	 1.4149973197e+000
 2.6651275039e+000	 4.7240830827e-001	 1.3781192755e+000
 2.6602379901e+000	 4.9920731071e-001	 1.3388510139e+000
 2.6550624713e+000	 5.2603917466e-001	 1.2980703264e+000
 2.7207311608e+000	 2.6223997494e-001	 1.4921138014e+000
 2.7180303439e+000	 2.8889289548e-001	 1.4819665246e+000
 2.7150576864e+000	 3.1561050853e-001	 1.4716997420e+000
 2.7118108475e+000	 3.4238911749e-001	 1.4599025873e+000
 2.7082875444e+000	 3.6922495477e-001	 1.4456217095e+000
 2.7044855541e+000	 3.9611418264e-001	 1.4283012198e+000
 2.7004027160e+000	 4.2305289421e-001	 1.4077193904e+000
 2.6960369340e+000	 4.5003711435e-001	 1.3839216299e+000
 2.6913861789e+000	 4.7706280086e-001	 1.3571492382e+000
 2.6864484902e+000	 5.0412584556e-001	 1.3277634326e+000
 2.6812219787e+000	 5.3122207555e-001	 1.2961641196e+000
 2.7472761419e+000	 2.6479853540e-001	 1.4117245852e+000
 2.7445489743e+000	 2.9171149680e-001	 1.4118096992e+000
 2.7415473139e+000	 3.1868978189e-001	 1.4110023488e+000
 2.7382687970e+000	 3.4572965800e-001	 1.4080558012e+000
 2.7347111186e+000	 3.7282732077e-001	 1.4021491307e+000
 2.7308720339e+000	 3.9997889506e-001	 1.3928299583e+000
 2.7267493613e+000	 4.2718043582e-001	 1.3799540419e+000
 2.7223409843e+000	 4.5442792917e-001	 1.3636211970e+000
 2.7176448538e+000	 4.8171729345e-001	 1.3441070019e+000
 2.7126589902e+000	 5.0904438041e-001	 1.3217897267e+000
 2.7073814860e+000	 5.3640497644e-001	 1.2970719096e+000
 2.7738211230e+000	 2.6735709587e-001	 1.3622885496e+000
 2.7710676047e+000	 2.9453009812e-001	 1.3678426600e+000
 2.7680369414e+000	 3.2176905525e-001	 1.3721144718e+000
 2.7647267465e+000	 3.4907019851e-001	 1.3739971403e+000
 2.7611346927e+000	 3.7642968678e-001	 1.3727761980e+000
 2.7572585137e+000	 4.0384360747e-001	 1.3680755259e+000
 2.7530960067e+000	 4.3130797743e-001	 1.3598002867e+000
 2.7486450347e+000	 4.5881874398e-001	 1.3480762515e+000
 2.7439035288e+000	 4.8637178604e-001	 1.3331849204e+000
 2.7388694903e+000	 5.1396291526e-001	 1.3154938235e+000
 2.7335409933e+000	 5.4158787733e-001	 1.2953813666e+000
 2.8003661041e+000	 2.6991565633e-001	 1.3377020272e+000
 2.7975862351e+000	 2.9734869945e-001	 1.3438540982e+000
 2.7945265689e+000	 3.2484832861e-001	 1.3487742590e+000
 2.7911846960e+000	 3.5241073901e-001	 1.3514668565e+000
 2.7875582669e+000	 3.8003205278e-001	 1.3512934205e+000
 2.7836449935e+000	 4.0770831988e-001	 1.3479223337e+000
 2.7794426520e+000	 4.3543551904e-001	 1.3412755868e+000
 2.7749490850e+000	 4.6320955880e-001	 1.3314719984e+000
 2.7701622037e+000	 4.9102627863e-001	 1.3187662463e+000
 2.7650799904e+000	 5.1888145011e-001	 1.3034830351e+000
 2.7597005006e+000	 5.4677077822e-001	 1.2859457070e+000
 2.8269110851e+000	 2.7247421679e-001	 1.3319658979e+000
 2.8241048655e+000	 3.0016730077e-001	 1.3337529798e+000
 2.8210161963e+000	 3.2792760197e-001	 1.3348555568e+000
 2.8176426455e+000	 3.5575127952e-001	 1.3343558149e+000
 2.8139818411e+000	 3.8363441879e-001	 1.3316561244e+000
 2.8100314733e+000	 4.1157303229e-001	 1.3264329016e+000
 2.8057892974e+000	 4.3956306065e-001	 1.3185876942e+000
 2.8012531354e+000	 4.6760037362e-001	 1.3081948112e+000
 2.7964208787e+000	 4.9568077122e-001	 1.2954447869e+000
 2.7912904905e+000	 5.2379998497e-001	 1.2805829413e+000
 2.7858600079e+000	 5.5195367911e-001	 1.2638422798e+000
 2.8534560662e+000	 2.7503277725e-001	 1.3391845054e+000
 2.8506234959e+000	 3.0298590209e-001	 1.3315671728e+000
 2.8475058238e+000	 3.3100687533e-001	 1.3243662230e+000
 2.8441005950e+000	 3.5909182003e-001	 1.3167034651e+000
 2.8404054153e+000	 3.8723678479e-001	 1.3079820498e+000
 2.8364179532e+000	 4.1543774471e-001	 1.2978450464e+000
 2.8321359428e+000	 4.4369060226e-001	 1.2861313945e+000
 2.8275571857e+000	 4.7199118843e-001	 1.2728284899e+000
 2.8226795537e+000	 5.0033526381e-001	 1.2580206349e+000
 2.8175009906e+000	 5.2871851982e-001	 1.2418325468e+000
 2.8120195152e+000	 5.5713657999e-001	 1.2243671001e+000
 2.5504244421e+000	 5.0530757112e-001	 1.3937441763e+000
 2.5451756263e+000	 5.3111337925e-001	 1.3471528565e+000
 2.5396486130e+000	 5.5694263593e-001	 1.3041755106e+000
 2.5338418223e+000	 5.8279118688e-001	 1.2629279724e+000
 2.5277537500e+000	 6.0865482159e-001	 1.2213287745e+000
 2.5213829698e+000	 6.3452927478e-001	 1.1770537203e+000
 2.5147281355e+000	 6.6041022809e-001	 1.1274972369e+000
 2.5077879826e+000	 6.8629331174e-001	 1.0720722586e+000
 2.5005613302e+000	 7.1217410630e-001	 1.0151303204e+000
 2.4930470830e+000	 7.3804814458e-001	 9.5745653055e-001
 2.4852442329e+000	 7.6391091347e-001	 8.9961091844e-001
 2.5765839494e+000	 5.1049047200e-001	 1.3537227432e+000
 2.5712812969e+000	 5.3656096833e-001	 1.3041769982e+000
 2.5656975935e+000	 5.6265515370e-001	 1.2585880109e+000
 2.5598312430e+000	 5.8876883126e-001	 1.2151255221e+000
 2.5536807257e+000	 6.1489774727e-001	 1.1717040986e+000
 2.5472446010e+000	 6.4103759274e-001	 1.1259302281e+000
 2.5405215086e+000	 6.6718400500e-001	 1.0750580117e+000
 2.5335101711e+000	 6.9333256944e-001	 1.0205045649e+000
 2.5262093954e+000	 7.1947882133e-001	 9.6550648864e-001
 2.5186180751e+000	 7.4561824762e-001	 9.1015832114e-001
 2.5107351918e+000	 7.7174628894e-001	 8.5451604725e-001
 2.6027434567e+000	 5.1567337289e-001	 1.3252981085e+000
 2.5973869675e+000	 5.4200855740e-001	 1.2758474029e+000
 2.5917465740e+000	 5.6836767148e-001	 1.2297649066e+000
 2.5858206636e+000	 5.9474647563e-001	 1.1854297614e+000
 2.5796077015e+000	 6.2114067296e-001	 1.1409039661e+000
 2.5731062321e+000	 6.4754591070e-001	 1.0938712550e+000
 2.5663148816e+000	 6.7395778190e-001	 1.0418972520e+000
 2.5592323595e+000	 7.0037182715e-001	 9.8844537666e-001
 2.5518574606e+000	 7.2678353635e-001	 9.3515745727e-001
 2.5441890673e+000	 7.5318835067e-001	 8.8172208324e-001
 2.5362261507e+000	 7.7958166442e-001	 8.2777268514e-001
 2.6289029640e+000	 5.2085627378e-001	 1.3072038912e+000
 2.6234926381e+000	 5.4745614648e-001	 1.2605995407e+000
 2.6177955544e+000	 5.7408018925e-001	 1.2158852037e+000
 2.6118100843e+000	 6.0072412000e-001	 1.1718085376e+000
 2.6055346773e+000	 6.2738359864e-001	 1.1267336314e+000
 2.5989678633e+000	 6.5405422866e-001	 1.0785708985e+000
 2.5921082547e+000	 6.8073155881e-001	 1.0259524600e+000
 2.5849545479e+000	 7.0741108485e-001	 9.7353062300e-001
 2.5775055259e+000	 7.3408825138e-001	 9.2162807687e-001
 2.5697600595e+000	 7.6075845371e-001	 8.6960799273e-001
 2.5617171096e+000	 7.8741703990e-001	 8.1676115438e-001
 2.6550624713e+000	 5.2603917466e-001	 1.2980703264e+000
 2.6495983087e+000	 5.5290373556e-001	 1.2567734244e+000
 2.6438445349e+000	 5.7979270703e-001	 1.2150429673e+000
 2.6377995049e+000	 6.0670176438e-001	 1.1721581008e+000
 2.6314616530e+000	 6.3362652433e-001	 1.1269431491e+000
 2.6248294945e+000	 6.6056254662e-001	 1.0776877205e+000
 2.6179016277e+000	 6.8750533572e-001	 1.0249129528e+000
 2.6106767363e+000	 7.1445034256e-001	 9.7335271297e-001
 2.6031535911e+000	 7.4139296640e-001	 9.2242243647e-001
 2.5953310516e+000	 7.6832855676e-001	 8.7123898412e-001
 2.5872080686e+000	 7.9525241537e-001	 8.1882889439e-001
 2.6812219787e+000	 5.3122207555e-001	 1.2961641196e+000
 2.6757039793e+000	 5.5835132463e-001	 1.2622169254e+000
 2.6698935154e+000	 5.8550522480e-001	 1.2251713756e+000
 2.6637889256e+000	 6.1267940875e-001	 1.1843098711e+000
 2.6573886288e+000	 6.3986945001e-001	 1.1392352343e+000
 2.6506911256e+000	 6.6707086458e-001	 1.0888546791e+000
 2.6436950007e+000	 6.9427911263e-001	 1.0364242365e+000
 2.6363989248e+000	 7.2148960026e-001	 9.8546265093e-001
 2.6288016563e+000	 7.4869768143e-001	 9.3500631728e-001
 2.6209020438e+000	 7.7589865980e-001	 8.8400354576e-001
 2.6126990275e+000	 8.0308779085e-001	 8.3129359739e-001
 2.7073814860e+000	 5.3640497644e-001	 1.2970719096e+000
 2.7018096500e+000	 5.6379891371e-001	 1.2691885107e+000
 2.6959424958e+000	 5.9121774258e-001	 1.2370164835e+000
 2.6897783462e+000	 6.1865705312e-001	 1.2001267349e+000
 2.6833156046e+000	 6.4611237570e-001	 1.1576694158e+000
 2.6765527568e+000	 6.7357918254e-001	 1.1085759409e+000
 2.6694883738e+000	 7.0105288954e-001	 1.0579653751e+000
 2.6621211132e+000	 7.2852885797e-001	 1.0073722240e+000
 2.6544497215e+000	 7.5600239645e-001	 9.5680971508e-001
 2.6464730359e+000	 7.8346876285e-001	 9.0525858073e-001
 2.6381899864e+000	 8.1092316632e-001	 8.5144640743e-001
 2.7335409933e+000	 5.4158787733e-001	 1.2953813666e+000
 2.7279153206e+000	 5.6924650279e-001	 1.2713732480e+000
 2.7219914763e+000	 5.9693026035e-001	 1.2419341015e+000
 2.7157677669e+000	 6.2463469750e-001	 1.2070464077e+000
 2.7092425803e+000	 6.5235530138e-001	 1.1662682104e+000
 2.7024143880e+000	 6.8008750051e-001	 1.1198532294e+000
 2.6952817468e+000	 7.0782666644e-001	 1.0741682253e+000
 2.6878433016e+000	 7.3556811568e-001	 1.0288211038e+000
 2.6800977867e+000	 7.6330711148e-001	 9.8198275476e-001
 2.6720440281e+000	 7.9103886589e-001	 9.3179954968e-001
 2.6636809453e+000	 8.1875854180e-001	 8.7655517883e-001
 2.7597005006e+000	 5.4677077822e-001	 1.2859457070e+000
 2.7540209912e+000	 5.7469409187e-001	 1.2638889811e+000
 2.7480404567e+000	 6.0264277813e-001	 1.2353213697e+000
 2.7417571876e+000	 6.3061234187e-001	 1.2006656314e+000
 2.7351695561e+000	 6.5859822707e-001	 1.1599199947e+000
 2.7282760191e+000	 6.8659581847e-001	 1.1153265094e+000
 2.7210751199e+000	 7.1460044335e-001	 1.0732180643e+000
 2.7135654900e+000	 7.4260737338e-001	 1.0320855151e+000
 2.7057458519e+000	 7.7061182650e-001	 9.8992214421e-001
 2.6976150202e+000	 7.9860896894e-001	 9.4468670567e-001
 2.6891719043e+000	 8.2659391728e-001	 8.9429276807e-001
 2.7858600079e+000	 5.5195367911e-001	 1.2638422798e+000
 2.7801266618e+000	 5.8014168094e-001	 1.2420815014e+000
 2.7740894372e+000	 6.0835529590e-001	 1.2128049907e+000
 2.7677466082e+000	 6.3658998625e-001	 1.1768992088e+000
 2.7610965319e+000	 6.6484115276e-001	 1.1348298130e+000
 2.7541376503e+000	 6.9310413643e-001	 1.0914898142e+000
 2.7468684929e+000	 7.2137422026e-001	 1.0518093656e+000
 2.7392876785e+000	 7.4964663109e-001	 1.0137064077e+000
 2.7313939171e+000	 7.7791654153e-001	 9.7503819730e-001
 2.7231860124e+000	 8.0617907199e-001	 9.3361828249e-001
 2.7146628632e+000	 8.3442929275e-001	 8.8720675572e-001
 2.8120195152e+000	 5.5713657999e-001	 1.2243671001e+000
 2.8062323324e+000	 5.8558927002e-001	 1.2015184114e+000
 2.8001384177e+000	 6.1406781368e-001	 1.1702343692e+000
 2.7937360289e+000	 6.4256763062e-001	 1.1318831887e+000
 2.7870235076e+000	 6.7108407844e-001	 1.0875663105e+000
 2.7799992815e+000	 6.9961245439e-001	 1.0450266815e+000
 2.7726618660e+000	 7.2814799717e-001	 1.0068291025e+000
 2.7650098669e+000	 7.5668588880e-001	 9.7077837808e-001
 2.7570419823e+000	 7.8522125655e-001	 9.3463492654e-001
 2.7487570045e+000	 8.1374917503e-001	 8.9610715734e-001
 2.7401538221e+000	 8.4226466823e-001	 8.5284264494e-001
 2.4852442329e+000	 7.6391091347e-001	 8.9961091844e-001
 2.4771518603e+000	 7.8975785560e-001	 8.4256868894e-001
 2.4687691339e+000	 8.1558437022e-001	 7.8689506203e-001
 2.4600953141e+000	 8.4138581636e-001	 7.3245984204e-001
 2.4511297553e+000	 8.6715751542e-001	 6.7905894033e-001
 2.4418719075e+000	 8.9289475342e-001	 6.2640303481e-001
 2.4323213176e+000	 9.1859278331e-001	 5.7410756732e-001
 2.4224776311e+000	 9.4424682737e-001	 5.2168417715e-001
 2.4123405929e+000	 9.6985207964e-001	 4.6853365935e-001
 2.4019100494e+000	 9.9540370841e-001	 4.1394052481e-001
 2.3911859489e+000	 1.0208968588e+000	 3.5706321909e-001
 2.5107351918e+000	 7.7174628894e-001	 8.5451604725e-001
 2.5025598164e+000	 7.9785834117e-001	 7.9929373918e-001
 2.4940911090e+000	 8.2394975636e-001	 7.4522085872e-001
 2.4853283225e+000	 8.5001584595e-001	 6.9227623066e-001
 2.4762708047e+000	 8.7605188335e-001	 6.4034694690e-001
 2.4669179998e+000	 9.0205310622e-001	 5.8921621248e-001
 2.4572694503e+000	 9.2801471883e-001	 5.3855265967e-001
 2.4473247978e+000	 9.5393189444e-001	 4.8790123528e-001
 2.4370837848e+000	 9.7979977781e-001	 4.3667575518e-001
 2.4265462560e+000	 1.0056134877e+000	 3.8415320814e-001
 2.4157121593e+000	 1.0313681194e+000	 3.2946454399e-001
 2.5362261507e+000	 7.7958166442e-001	 8.2777268514e-001
 2.5279677725e+000	 8.0595882675e-001	 7.7376437001e-001
 2.5194130841e+000	 8.3231514251e-001	 7.2055920348e-001
 2.5105613309e+000	 8.5864587555e-001	 6.6827478764e-001
 2.5014118540e+000	 8.8494625128e-001	 6.1691840025e-001
 2.4919640921e+000	 9.1121145902e-001	 5.6637396675e-001
 2.4822175829e+000	 9.3743665434e-001	 5.1639063760e-001
 2.4721719645e+000	 9.6361696152e-001	 4.6657308289e-001
 2.4618269767e+000	 9.8974747599e-001	 4.1637360424e-001
 2.4511824626e+000	 1.0158232669e+000	 3.6507962190e-001
 2.4402383696e+000	 1.0418393799e+000	 3.1183761660e-001
 2.5617171096e+000	 7.8741703990e-001	 8.1676115438e-001
 2.5533757285e+000	 8.1405931232e-001	 7.6329342118e-001
 2.5447350592e+000	 8.4068052866e-001	 7.1017630256e-001
 2.5357943393e+000	 8.6727590514e-001	 6.5769561768e-001
 2.5265529034e+000	 8.9384061921e-001	 6.0600743153e-001
 2.5170101845e+000	 9.2036981182e-001	 5.5512409200e-001
 2.5071657156e+000	 9.4685858986e-001	 5.0490201673e-001
 2.4970191312e+000	 9.7330202859e-001	 4.5503134894e-001
 2.4865701686e+000	 9.9969517417e-001	 4.0502758852e-001
 2.4758186692e+000	 1.0260330462e+000	 3.5421949753e-001
 2.4647645800e+000	 1.0523106405e+000	 3.0176980647e-001
 2.5872080686e+000	 7.9525241537e-001	 8.1882889439e-001
 2.5787836846e+000	 8.2215979789e-001	 7.6516575795e-001
 2.5700570343e+000	 8.4904591481e-001	 7.1131551519e-001
 2.5610273477e+000	 8.7590593474e-001	 6.5776133561e-001
 2.5516939527e+000	 9.0273498714e-001	 6.0483627735e-001
 2.5420562768e+000	 9.2952816462e-001	 5.5270832781e-001
 2.5321138482e+000	 9.5628052538e-001	 5.0136734624e-001
 2.5218662979e+000	 9.8298709567e-001	 4.5061403498e-001
 2.5113133605e+000	 1.0096428723e+000	 4.0005105230e-001
 2.5004548758e+000	 1.0362428255e+000	 3.4907126369e-001
 2.4892907903e+000	 1.0627819010e+000	 2.9687536735e-001
 2.6126990275e+000	 8.0308779085e-001	 8.3129359739e-001
 2.6041916407e+000	 8.3026028347e-001	 7.7664175952e-001
 2.5953790094e+000	 8.5741130095e-001	 7.2120122279e-001
 2.5862603561e+000	 8.8453596434e-001	 6.6568134301e-001
 2.5768350021e+000	 9.1162935507e-001	 6.1061998888e-001
 2.5671023691e+000	 9.3868651742e-001	 5.5636752418e-001
 2.5570619809e+000	 9.6570246090e-001	 5.0307285226e-001
 2.5467134646e+000	 9.9267216274e-001	 4.5067165720e-001
 2.5360565524e+000	 1.0195905705e+000	 3.9887065218e-001
 2.5250910825e+000	 1.0464526048e+000	 3.4716764971e-001
 2.5138170006e+000	 1.0732531616e+000	 2.9480318089e-001
 2.6381899864e+000	 8.1092316632e-001	 8.5144640743e-001
 2.6295995968e+000	 8.3836076904e-001	 7.9496086870e-001
 2.6207009845e+000	 8.6577668710e-001	 7.3704275618e-001
 2.6114933645e+000	 8.9316599393e-001	 6.7865615845e-001
 2.6019760514e+000	 9.2052372300e-001	 6.2057118932e-001
 2.5921484614e+000	 9.4784487023e-001	 5.6334684912e-001
 2.5820101135e+000	 9.7512439641e-001	 5.0731611689e-001
 2.5715606314e+000	 1.0023572298e+000	 4.5257341654e-001
 2.5607997443e+000	 1.0295382687e+000	 3.9895902885e-001
 2.5497272891e+000	 1.0566623840e+000	 3.4607558549e-001
 2.5383432110e+000	 1.0837244221e+000	 2.9324450224e-001
 2.6636809453e+000	 8.1875854180e-001	 8.7655517883e-001
 2.6550075528e+000	 8.4646125462e-001	 8.1734519874e-001
 2.6460229596e+000	 8.7414207325e-001	 7.5603837676e-001
 2.6367263729e+000	 9.0179602353e-001	 6.9388179782e-001
 2.6271171008e+000	 9.2941809093e-001	 6.3190487684e-001
 2.6171945537e+000	 9.5700322303e-001	 5.7090103597e-001
 2.6069582462e+000	 9.8454633193e-001	 5.1141179050e-001
 2.5964077981e+000	 1.0120422969e+000	 4.5370650550e-001
 2.5855429362e+000	 1.0394859669e+000	 3.9780133301e-001
 2.5743634957e+000	 1.0668721633e+000	 3.4340341691e-001
 2.5628694213e+000	 1.0941956827e+000	 2.8994070725e-001
 2.6891719043e+000	 8.2659391728e-001	 8.9429276807e-001
 2.6804155089e+000	 8.5456174019e-001	 8.3741507725e-001
 2.6713449347e+000	 8.8250745940e-001	 7.7496888595e-001
 2.6619593813e+000	 9.1042605312e-001	 7.0855420146e-001
 2.6522581501e+000	 9.3831245886e-001	 6.4184326956e-001
 2.6422406460e+000	 9.6616157583e-001	 5.7629966770e-001
 2.6319063788e+000	 9.9396826745e-001	 5.1269733514e-001
 2.6212549648e+000	 1.0217273640e+000	 4.5151071233e-001
 2.6102861281e+000	 1.0494336651e+000	 3.9292954395e-001
 2.5989997023e+000	 1.0770819426e+000	 3.3680813107e-001
 2.5873956317e+000	 1.1046669432e+000	 2.8269104132e-001
 2.7146628632e+000	 8.3442929275e-001	 8.8720675572e-001
 2.7058234650e+000	 8.6266222576e-001	 8.3418646714e-001
 2.6966669098e+000	 8.9087284554e-001	 7.7537828711e-001
 2.6871923897e+000	 9.1905608272e-001	 7.1209303387e-001
 2.6773991995e+000	 9.4720682680e-001	 6.4554452622e-001
 2.6672867384e+000	 9.7531992863e-001	 5.7682642492e-001
 2.6568545115e+000	 1.0033902030e+000	 5.0853879698e-001
 2.6461021315e+000	 1.0314124310e+000	 4.4344079593e-001
 2.6350293200e+000	 1.0593813632e+000	 3.8192208792e-001
 2.6236359089e+000	 1.0872917218e+000	 3.2400259045e-001
 2.6119218420e+000	 1.1151382038e+000	 2.6936036962e-001
 2.7401538221e+000	 8.4226466823e-001	 8.5284264494e-001
 2.7312314211e+000	 8.7076271134e-001	 8.0296004154e-001
 2.7219888849e+000	 8.9923823169e-001	 7.4718852552e-001
 2.7124253981e+000	 9.2768611232e-001	 6.8697773348e-001
 2.7025402488e+000	 9.5610119473e-001	 6.2367705750e-001
 2.6923328307e+000	 9.8447828143e-001	 5.5851228912e-001
 2.6818026442e+000	 1.0128121385e+000	 4.9255363152e-001
 2.6709492982e+000	 1.0410974981e+000	 4.2671691276e-001
 2.6597725119e+000	 1.0693290614e+000	 3.6241058484e-001
 2.6482721155e+000	 1.0975015011e+000	 3.0276277568e-001
 2.6364480523e+000	 1.1256094643e+000	 2.4788692883e-001
 2.3911859489e+000	 1.0208968588e+000	 3.5706321909e-001
 2.3801700182e+000	 1.0463228464e+000	 2.9846264225e-001
 2.3688608284e+000	 1.0716806093e+000	 2.3954060430e-001
 2.3572586430e+000	 1.0969652426e+000	 1.8060315744e-001
 2.3453638315e+000	 1.1221718289e+000	 1.2184128184e-001
 2.3331768706e+000	 1.1472954414e+000	 6.3333878933e-002
 2.3206983446e+000	 1.1723311464e+000	 5.0524970465e-003
 2.3079289465e+000	 1.1972740064e+000	-5.3132243528e-002
 2.2948694778e+000	 1.2221190831e+000	-1.1144257407e-001
 2.2815208497e+000	 1.2468614399e+000	-1.7018391308e-001
 2.2678840830e+000	 1.2714961454e+000	-2.2973369261e-001
 2.4157121593e+000	 1.0313681194e+000	 3.2946454399e-001
 2.4045832390e+000	 1.0570548993e+000	 2.7309325737e-001
 2.3931580517e+000	 1.0826727548e+000	 2.1639711585e-001
 2.3814368636e+000	 1.1082167307e+000	 1.5966970403e-001
 2.3694200479e+000	 1.1336818591e+000	 1.0307060237e-001
 2.3571080863e+000	 1.1590631625e+000	 4.6628899774e-002
 2.3445015691e+000	 1.1843556568e+000	-9.7514121302e-003
 2.3316011962e+000	 1.2095543538e+000	-6.6284199408e-002
 2.3184077775e+000	 1.2346542645e+000	-1.2329215341e-001
 2.3049222336e+000	 1.2596504017e+000	-1.8119603469e-001
 2.2911455956e+000	 1.2845377836e+000	-2.4050227831e-001
 2.4402383696e+000	 1.0418393799e+000	 3.1183761660e-001
 2.4289964598e+000	 1.0677869523e+000	 2.5704652842e-001
 2.4174552750e+000	 1.0936649004e+000	 2.0199970214e-001
 2.4056150842e+000	 1.1194682188e+000	 1.4694098509e-001
 2.3934762643e+000	 1.1451918892e+000	 9.1959444387e-002
 2.3810393020e+000	 1.1708308836e+000	 3.6993505884e-002
 2.3683047935e+000	 1.1963801672e+000	-1.8162865329e-002
 2.3552734458e+000	 1.2218347012e+000	-7.3851982895e-002
 2.3419460772e+000	 1.2471894459e+000	-1.3054231310e-001
 2.3283236174e+000	 1.2724393636e+000	-1.8881647988e-001
 2.3144071082e+000	 1.2975794217e+000	-2.4935749323e-001
 2.4647645800e+000	 1.0523106405e+000	 3.0176980647e-001
 2.4534096806e+000	 1.0785190052e+000	 2.4802050611e-001
 2.4417524983e+000	 1.1046570460e+000	 1.9416077045e-001
 2.4297933047e+000	 1.1307197069e+000	 1.4034796839e-001
 2.4175324807e+000	 1.1567019193e+000	 8.6562014717e-002
 2.4049705176e+000	 1.1825986047e+000	 3.2610244728e-002
 2.3921080179e+000	 1.2084046776e+000	-2.1865498897e-002
 2.3789456955e+000	 1.2341150486e+000	-7.7379610812e-002
 2.3654843769e+000	 1.2597246273e+000	-1.3459136224e-001
 2.3517250013e+000	 1.2852283255e+000	-1.9429151637e-001
 2.3376686208e+000	 1.3106210599e+000	-2.5738702015e-001
 2.4892907903e+000	 1.0627819010e+000	 2.9687536735e-001
 2.4778229014e+000	 1.0892510582e+000	 2.4374766652e-001
 2.4660497216e+000	 1.1156491916e+000	 1.9073532366e-001
 2.4539715253e+000	 1.1419711950e+000	 1.3787294027e-001
 2.4415886971e+000	 1.1682119494e+000	 8.4993035802e-002
 2.4289017333e+000	 1.1943663258e+000	 3.1731769424e-002
 2.4159112423e+000	 1.2204291880e+000	-2.2462943746e-002
 2.4026179452e+000	 1.2463953960e+000	-7.8320970233e-002
 2.3890226766e+000	 1.2722598088e+000	-1.3673721835e-001
 2.3751263852e+000	 1.2980172874e+000	-1.9875670961e-001
 2.3609301334e+000	 1.3236626980e+000	-2.6555756994e-001
 2.5138170006e+000	 1.0732531616e+000	 2.9480318089e-001
 2.5022361221e+000	 1.0999831111e+000	 2.4200320724e-001
 2.4903469449e+000	 1.1266413371e+000	 1.8962980090e-001
 2.4781497459e+000	 1.1532226831e+000	 1.3755888438e-001
 2.4656449135e+000	 1.1797219796e+000	 8.5437657260e-002
 2.4528329490e+000	 1.2061340469e+000	 3.2691279220e-002
 2.4397144667e+000	 1.2324536984e+000	-2.1467858519e-002
 2.4262901949e+000	 1.2586757434e+000	-7.8028326552e-002
 2.4125609764e+000	 1.2847949902e+000	-1.3816539032e-001
 2.3985277690e+000	 1.3108062492e+000	-2.0322437916e-001
 2.3841916460e+000	 1.3367043362e+000	-2.7457625317e-001
 2.5383432110e+000	 1.0837244221e+000	 2.9324450224e-001
 2.5266493429e+000	 1.1107151641e+000	 2.4061333617e-001
 2.5146441682e+000	 1.1376334827e+000	 1.8881090251e-001
 2.5023279664e+000	 1.1644741712e+000	 1.3751883677e-001
 2.4897011299e+000	 1.1912320097e+000	 8.6161336430e-002
 2.4767641647e+000	 1.2179017679e+000	 3.3912922000e-002
 2.4635176911e+000	 1.2444782088e+000	-2.0291007465e-002
 2.4499624445e+000	 1.2709560908e+000	-7.7740882895e-002
 2.4360992761e+000	 1.2973301716e+000	-1.3993701930e-001
 2.4219291529e+000	 1.3235952111e+000	-2.0857111998e-001
 2.4074531586e+000	 1.3497459743e+000	-2.8235402554e-001
 2.5628694213e+000	 1.0941956827e+000	 2.8994070725e-001
 2.5510625637e+000	 1.1214472170e+000	 2.3746355343e-001
 2.5389413915e+000	 1.1486256283e+000	 1.8631440014e-001
 2.5265061870e+000	 1.1757256594e+000	 1.3594521890e-001
 2.5137573464e+000	 1.2027420398e+000	 8.5519690021e-002
 2.5006953804e+000	 1.2296694890e+000	 3.3922161362e-002
 2.4873209155e+000	 1.2565027191e+000	-2.0230380042e-002
 2.4736346942e+000	 1.2832364381e+000	-7.8573387442e-002
 2.4596375758e+000	 1.3098653530e+000	-1.4297697375e-001
 2.4453305367e+000	 1.3363841730e+000	-2.1541012771e-001
 2.4307146712e+000	 1.3627876125e+000	-2.8770241952e-001
 2.5873956317e+000	 1.1046669432e+000	 2.8269104132e-001
 2.5754757845e+000	 1.1321792700e+000	 2.3050692686e-001
 2.5632386148e+000	 1.1596177739e+000	 1.8025393314e-001
 2.5506844076e+000	 1.1869771475e+000	 1.3111915005e-001
 2.5378135628e+000	 1.2142520700e+000	 8.1968318757e-002
 2.5246265961e+000	 1.2414372101e+000	 3.1356110616e-002
 2.5111241399e+000	 1.2685272295e+000	-2.2460349467e-002
 2.4973069439e+000	 1.2955167855e+000	-8.1504785485e-002
 2.4831758755e+000	 1.3224005345e+000	-1.4806199500e-001
 2.4687319206e+000	 1.3491731349e+000	-2.2142384039e-001
 2.4539761837e+000	 1.3758292506e+000	-2.9031160882e-001
 2.6119218420e+000	 1.1151382038e+000	 2.6936036962e-001
 2.5998890053e+000	 1.1429113229e+000	 2.1777236151e-001
 2.5875358381e+000	 1.1706099194e+000	 1.6882979206e-001
 2.5748626282e+000	 1.1982286356e+000	 1.2141974058e-001
 2.5618697792e+000	 1.2257621001e+000	 7.4072606808e-002
 2.5485578118e+000	 1.2532049312e+000	 2.4973835874e-002
 2.5349273643e+000	 1.2805517399e+000	-2.8020867674e-002
 2.5209791935e+000	 1.3077971329e+000	-8.7366913267e-002
 2.5067141752e+000	 1.3349357159e+000	-1.5577348162e-001
 2.4921333044e+000	 1.3619620967e+000	-2.2529298196e-001
 2.4772376963e+000	 1.3888708888e+000	-2.8982697135e-001
 2.6364480523e+000	 1.1256094643e+000	 2.4788692883e-001
 2.6243022261e+000	 1.1536433759e+000	 1.9737286356e-001
 2.6118330614e+000	 1.1816020650e+000	 1.5033769015e-001
 2.5990408487e+000	 1.2094801237e+000	 1.0533336704e-001
 2.5859259956e+000	 1.2372721302e+000	 6.0517497632e-002
 2.5724890275e+000	 1.2649726523e+000	 1.3666630246e-002
 2.5587305887e+000	 1.2925762503e+000	-3.7806694290e-002
 2.5446514432e+000	 1.3200774803e+000	-9.6833230903e-002
 2.5302524749e+000	 1.3474708973e+000	-1.6388783164e-001
 2.5155346883e+000	 1.3747510586e+000	-2.2671989198e-001
 2.5004992089e+000	 1.4019125270e+000	-2.8585094202e-001
 2.2678840830e+000	 1.2714961454e+000	-2.2973369261e-001
 2.2539581986e+000	 1.2960219464e+000	-2.9130516236e-001
 2.2397464637e+000	 1.3204302257e+000	-3.5646431936e-001
 2.2252502318e+000	 1.3447160840e+000	-4.2527967371e-001
 2.2104709669e+000	 1.3688746392e+000	-4.9193628083e-001
 2.1954102429e+000	 1.3929010296e+000	-5.5497633761e-001
 2.1800697437e+000	 1.4167904164e+000	-6.1403457235e-001
 2.1644512626e+000	 1.4405379875e+000	-6.6871394904e-001
 2.1485567020e+000	 1.4641389598e+000	-7.1858925536e-001
 2.1323880729e+000	 1.4875885829e+000	-7.6321143236e-001
 2.1159474941e+000	 1.5108821418e+000	-8.0211260333e-001
 2.2911455956e+000	 1.2845377836e+000	-2.4050227831e-001
 2.2770768745e+000	 1.3093151438e+000	-3.0264891275e-001
 2.2627193709e+000	 1.3339737769e+000	-3.6946727318e-001
 2.2480744523e+000	 1.3585087334e+000	-4.3694640693e-001
 2.2331435976e+000	 1.3829150811e+000	-5.0070432714e-001
 2.2179283969e+000	 1.4071879083e+000	-5.6059433433e-001
 2.2024305514e+000	 1.4313223268e+000	-6.1642563171e-001
 2.1866518727e+000	 1.4553134748e+000	-6.6796612243e-001
 2.1705942828e+000	 1.4791565204e+000	-7.1494604983e-001
 2.1542598133e+000	 1.5028466645e+000	-7.5706244315e-001
 2.1376506048e+000	 1.5263791437e+000	-7.9398432343e-001
 2.3144071082e+000	 1.2975794217e+000	-2.4935749323e-001
 2.3001955503e+000	 1.3226083413e+000	-3.1380304658e-001
 2.2856922780e+000	 1.3475173282e+000	-3.8239134002e-001
 2.2708986727e+000	 1.3723013828e+000	-4.4782224903e-001
 2.2558162283e+000	 1.3969555230e+000	-5.0918080844e-001
 2.2404465509e+000	 1.4214747870e+000	-5.6646123285e-001
 2.2247913591e+000	 1.4458542371e+000	-6.1960388165e-001
 2.2088524828e+000	 1.4700889621e+000	-6.6849814794e-001
 2.1926318636e+000	 1.4941740811e+000	-7.1298626025e-001
 2.1761315537e+000	 1.5181047462e+000	-7.5286795700e-001
 2.1593537155e+000	 1.5418761456e+000	-7.8790598527e-001
 2.3376686208e+000	 1.3106210599e+000	-2.5738702015e-001
 2.3233142262e+000	 1.3359015387e+000	-3.2563145571e-001
 2.3086651852e+000	 1.3610608794e+000	-3.9381419544e-001
 2.2937228932e+000	 1.3860940323e+000	-4.5751161511e-001
 2.2784888589e+000	 1.4109959649e+000	-5.1688297804e-001
 2.2629647049e+000	 1.4357616657e+000	-5.7202160216e-001
 2.2471521667e+000	 1.4603861474e+000	-6.2295692509e-001
 2.2310530929e+000	 1.4848644494e+000	-6.6965759042e-001
 2.2146694445e+000	 1.5091916418e+000	-7.1203552063e-001
 2.1980032942e+000	 1.5333628279e+000	-7.4995093340e-001
 2.1810568261e+000	 1.5573731475e+000	-7.8321824951e-001
 2.3609301334e+000	 1.3236626980e+000	-2.6555756994e-001
 2.3464329021e+000	 1.3491947361e+000	-3.3651566187e-001
 2.3316380924e+000	 1.3746044307e+000	-4.0339532795e-001
 2.3165471136e+000	 1.3998866817e+000	-4.6557729141e-001
 2.3011614896e+000	 1.4250364067e+000	-5.2328986052e-001
 2.2854828589e+000	 1.4500485444e+000	-5.7668485162e-001
 2.2695129744e+000	 1.4749180577e+000	-6.2583987690e-001
 2.2532537030e+000	 1.4996399368e+000	-6.7076173407e-001
 2.2367070253e+000	 1.5242092025e+000	-7.1139086051e-001
 2.2198750346e+000	 1.5486209095e+000	-7.4760680519e-001
 2.2027599368e+000	 1.5728701494e+000	-7.7923466263e-001
 2.3841916460e+000	 1.3367043362e+000	-2.7457625317e-001
 2.3695515779e+000	 1.3624879335e+000	-3.4521097646e-001
 2.3546109996e+000	 1.3881479819e+000	-4.1075052033e-001
 2.3393713341e+000	 1.4136793311e+000	-4.7154207406e-001
 2.3238341203e+000	 1.4390768486e+000	-5.2784396081e-001
 2.3080010129e+000	 1.4643354232e+000	-5.7982703261e-001
 2.2918737821e+000	 1.4894499680e+000	-6.2757728279e-001
 2.2754543131e+000	 1.5144154241e+000	-6.7109964538e-001
 2.2587446061e+000	 1.5392267632e+000	-7.1032294112e-001
 2.2417467750e+000	 1.5638789912e+000	-7.4510591938e-001
 2.2244630475e+000	 1.5883671513e+000	-7.7524433602e-001
 2.4074531586e+000	 1.3497459743e+000	-2.8235402554e-001
 2.3926702538e+000	 1.3757811309e+000	-3.5139172077e-001
 2.3775839068e+000	 1.4016915332e+000	-4.1545352264e-001
 2.3621955545e+000	 1.4274719806e+000	-4.7489049748e-001
 2.3465067509e+000	 1.4531172905e+000	-5.2995306684e-001
 2.3305191669e+000	 1.4786223019e+000	-5.8079273652e-001
 2.3142345897e+000	 1.5039818783e+000	-6.2746513577e-001
 2.2976549232e+000	 1.5291909114e+000	-6.6993433339e-001
 2.2807821869e+000	 1.5542443239e+000	-7.0807838683e-001
 2.2636185155e+000	 1.5791370729e+000	-7.4169606932e-001
 2.2461661582e+000	 1.6038641532e+000	-7.7051471030e-001
 2.4307146712e+000	 1.3627876125e+000	-2.8770241952e-001
 2.4157889297e+000	 1.3890743283e+000	-3.5468795473e-001
 2.4005568140e+000	 1.4152350845e+000	-4.1703780441e-001
 2.3850197750e+000	 1.4412646300e+000	-4.7507064664e-001
 2.3691793816e+000	 1.4671577324e+000	-5.2899213974e-001
 2.3530373208e+000	 1.4929091806e+000	-5.7889708267e-001
 2.3365953974e+000	 1.5185137887e+000	-6.2477298369e-001
 2.3198555333e+000	 1.5439663988e+000	-6.6650500071e-001
 2.3028197677e+000	 1.5692618846e+000	-7.0388220544e-001
 2.2854902559e+000	 1.5943951545e+000	-7.3660511193e-001
 2.2678692689e+000	 1.6193611551e+000	-7.6429439929e-001
 2.4539761837e+000	 1.3758292506e+000	-2.9031160882e-001
 2.4389076055e+000	 1.4023675257e+000	-3.5468725325e-001
 2.4235297212e+000	 1.4287786357e+000	-4.1499838045e-001
 2.4078439955e+000	 1.4550572794e+000	-4.7149604747e-001
 2.3918520123e+000	 1.4811981742e+000	-5.2430528562e-001
 2.3755554748e+000	 1.5071960593e+000	-5.7342779024e-001
 2.3589562050e+000	 1.5330456990e+000	-6.1874612189e-001
 2.3420561434e+000	 1.5587418861e+000	-6.6002937929e-001
 2.3248573486e+000	 1.5842794452e+000	-6.9694029139e-001
 2.3073619963e+000	 1.6096532362e+000	-7.2904366447e-001
 2.2895723795e+000	 1.6348581571e+000	-7.5581610817e-001
 2.4772376963e+000	 1.3888708888e+000	-2.8982697135e-001
 2.4620262814e+000	 1.4156607231e+000	-3.5093654652e-001
 2.4465026284e+000	 1.4423221870e+000	-4.0879370578e-001
 2.4306682159e+000	 1.4688499289e+000	-4.6354763035e-001
 2.4145246430e+000	 1.4952386161e+000	-5.1520780365e-001
 2.3980736288e+000	 1.5214829380e+000	-5.6364732857e-001
 2.3813170127e+000	 1.5475776093e+000	-6.0860786522e-001
 2.3642567535e+000	 1.5735173734e+000	-6.4970614534e-001
 2.3468949294e+000	 1.5992970059e+000	-6.8644200644e-001
 2.3292337368e+000	 1.6249113179e+000	-7.1820787562e-001
 2.3112754902e+000	 1.6503551590e+000	-7.4429962113e-001
 2.5004992089e+000	 1.4019125270e+000	-2.8585094202e-001
 2.4851449573e+000	 1.4289539205e+000	-3.4294402021e-001
 2.4694755356e+000	 1.4558657382e+000	-3.9784763483e-001
 2.4534924364e+000	 1.4826425783e+000	-4.5057576192e-001
 2.4371972736e+000	 1.5092790580e+000	-5.0098830543e-001
 2.4205917828e+000	 1.5357698167e+000	-5.4879514091e-001
 2.4036778204e+000	 1.5621095196e+000	-5.9356189436e-001
 2.3864573637e+000	 1.5882928607e+000	-6.3471740834e-001
 2.3689325102e+000	 1.6143145666e+000	-6.7156283289e-001
 2.3511054772e+000	 1.6401693995e+000	-7.0328226590e-001
 2.3329786009e+000	 1.6658521609e+000	-7.2895485388e-001
 2.1159474941e+000	 1.5108821418e+000	-8.0211260333e-001
 2.0992371910e+000	 1.5340149596e+000	-8.4005734368e-001
 2.0822594931e+000	 1.5569823987e+000	-8.8199582857e-001
 2.0650168343e+000	 1.5797798658e+000	-9.2771939727e-001
 2.0475117532e+000	 1.6024028145e+000	-9.7701373751e-001
 2.0297468916e+000	 1.6248467492e+000	-1.0296661845e+000
 2.0117249930e+000	 1.6471072275e+000	-1.0854733582e+000
 1.9934489018e+000	 1.6691798630e+000	-1.1434217415e+000
 1.9749215615e+000	 1.6910603285e+000	-1.1933657704e+000
 1.9561460130e+000	 1.7127443585e+000	-1.2309380879e+000
 1.9371253937e+000	 1.7342277519e+000	-1.2543494639e+000
 2.1376506048e+000	 1.5263791437e+000	-7.9398432343e-001
 2.1207689054e+000	 1.5497492330e+000	-8.3049258678e-001
 2.1036170685e+000	 1.5729522474e+000	-8.7123708624e-001
 2.0861975531e+000	 1.5959835463e+000	-9.1566472612e-001
 2.0685129238e+000	 1.6188385369e+000	-9.6321830383e-001
 2.0505658493e+000	 1.6415126773e+000	-1.0133451152e+000
 2.0323591015e+000	 1.6640014796e+000	-1.0655059207e+000
 2.0138955539e+000	 1.6863005124e+000	-1.1191841861e+000
 1.9951781800e+000	 1.7084054042e+000	-1.1734229546e+000
 1.9762100522e+000	 1.7303118456e+000	-1.2173904180e+000
 1.9569943398e+000	 1.7520155926e+000	-1.2451299619e+000
 2.1593537155e+000	 1.5418761456e+000	-7.8790598527e-001
 2.1423006198e+000	 1.5654835065e+000	-8.2296217296e-001
 2.1249746440e+000	 1.5889220961e+000	-8.6251398757e-001
 2.1073782719e+000	 1.6121872269e+000	-9.0571542687e-001
 2.0895140944e+000	 1.6352742593e+000	-9.5171720488e-001
 2.0713848071e+000	 1.6581786054e+000	-9.9967662100e-001
 2.0529932100e+000	 1.6808957317e+000	-1.0487678141e+000
 2.0343422059e+000	 1.7034211619e+000	-1.0981923087e+000
 2.0154347985e+000	 1.7257504799e+000	-1.1471897559e+000
 1.9962740914e+000	 1.7478793327e+000	-1.1947524054e+000
 1.9768632860e+000	 1.7698034332e+000	-1.2294057523e+000
 2.1810568261e+000	 1.5573731475e+000	-7.8321824951e-001
 2.1638323342e+000	 1.5812177799e+000	-8.1682993301e-001
 2.1463322194e+000	 1.6048919448e+000	-8.5520216921e-001
 2.1285589908e+000	 1.6283909074e+000	-8.9724578367e-001
 2.1105152649e+000	 1.6517099817e+000	-9.4186842102e-001
 2.0922037648e+000	 1.6748445336e+000	-9.8798563907e-001
 2.0736273186e+000	 1.6977899839e+000	-1.0345324143e+000
 2.0547888580e+000	 1.7205418114e+000	-1.0804749579e+000
 2.0356914171e+000	 1.7430955556e+000	-1.1248227388e+000
 2.0163381306e+000	 1.7654468199e+000	-1.1666406045e+000
 1.9967322321e+000	 1.7875912739e+000	-1.2048222197e+000
 2.2027599368e+000	 1.5728701494e+000	-7.7923466263e-001
 2.1853640486e+000	 1.5969520533e+000	-8.1143289426e-001
 2.1676897948e+000	 1.6208617935e+000	-8.4865131182e-001
 2.1497397096e+000	 1.6445945880e+000	-8.8960555434e-001
 2.1315164355e+000	 1.6681457041e+000	-9.3300746282e-001
 2.1130227225e+000	 1.6915104617e+000	-9.7757736450e-001
 2.0942614271e+000	 1.7146842360e+000	-1.0220567972e+000
 2.0752355100e+000	 1.7376624608e+000	-1.0652215650e+000
 2.0559480356e+000	 1.7604406313e+000	-1.1058950127e+000
 2.0364021698e+000	 1.7830143070e+000	-1.1429614038e+000
 2.0166011783e+000	 1.8053791145e+000	-1.1753792847e+000
 2.2244630475e+000	 1.5883671513e+000	-7.7524433602e-001
 2.2068957630e+000	 1.6126863268e+000	-8.0608420284e-001
 2.1890473703e+000	 1.6368316422e+000	-8.4218827833e-001
 2.1709204284e+000	 1.6607982686e+000	-8.8212329400e-001
 2.1525176060e+000	 1.6845814265e+000	-9.2445084609e-001
 2.1338416803e+000	 1.7081763898e+000	-9.6774083961e-001
 2.1148955356e+000	 1.7315784881e+000	-1.0105854029e+000
 2.0956821621e+000	 1.7547831103e+000	-1.0516131560e+000
 2.0762046542e+000	 1.7777857070e+000	-1.0895037123e+000
 2.0564662089e+000	 1.8005817941e+000	-1.1230022889e+000
 2.0364701244e+000	 1.8231669552e+000	-1.1509343016e+000
 2.2461661582e+000	 1.6038641532e+000	-7.7051471030e-001
 2.2284274774e+000	 1.6284206002e+000	-8.0007612483e-001
 2.2104049457e+000	 1.6528014909e+000	-8.3512032618e-001
 2.1921011472e+000	 1.6770019491e+000	-8.7410974937e-001
 2.1735187766e+000	 1.7010171489e+000	-9.1549963635e-001
 2.1546606380e+000	 1.7248423179e+000	-9.5775261324e-001
 2.1355296441e+000	 1.7484727403e+000	-9.9935377079e-001
 2.1161288141e+000	 1.7719037597e+000	-1.0388261229e+000
 2.0964612727e+000	 1.7951307827e+000	-1.0747463143e+000
 2.0765302481e+000	 1.8181492813e+000	-1.1057604446e+000
 2.0563390706e+000	 1.8409547958e+000	-1.1305998746e+000
 2.2678692689e+000	 1.6193611551e+000	-7.6429439929e-001
 2.2499591918e+000	 1.6441548737e+000	-7.9268312115e-001
 2.2317625212e+000	 1.6687713396e+000	-8.2673838859e-001
 2.2132818661e+000	 1.6932056297e+000	-8.6486131912e-001
 2.1945199471e+000	 1.7174528713e+000	-9.0544305774e-001
 2.1754795957e+000	 1.7415082460e+000	-9.4688046506e-001
 2.1561637526e+000	 1.7653669924e+000	-9.8759234334e-001
 2.1365754661e+000	 1.7890244092e+000	-1.0260360669e+000
 2.1167178912e+000	 1.8124758584e+000	-1.0607244792e+000
 2.0965942873e+000	 1.8357167684e+000	-1.0902429150e+000
 2.0762080167e+000	 1.8587426365e+000	-1.1132662044e+000
 2.2895723795e+000	 1.6348581571e+000	-7.5581610817e-001
 2.2714909061e+000	 1.6598891471e+000	-7.8316499106e-001
 2.2531200966e+000	 1.6847411883e+000	-8.1632042032e-001
 2.2344625849e+000	 1.7094093102e+000	-8.5366357580e-001
 2.2155211177e+000	 1.7338885937e+000	-8.9356216237e-001
 2.1962985535e+000	 1.7581741742e+000	-9.3438719062e-001
 2.1767978611e+000	 1.7822612445e+000	-9.7453033245e-001
 2.1570221182e+000	 1.8061450586e+000	-1.0124217093e+000
 2.1369745098e+000	 1.8298209341e+000	-1.0465479662e+000
 2.1166583265e+000	 1.8532842555e+000	-1.0754704809e+000
 2.0960769629e+000	 1.8765304771e+000	-1.0978435551e+000
 2.3112754902e+000	 1.6503551590e+000	-7.4429962113e-001
 2.2930226205e+000	 1.6756234205e+000	-7.7077007997e-001
 2.2744776721e+000	 1.7007110370e+000	-8.0313480364e-001
 2.2556433037e+000	 1.7256129908e+000	-8.3979484536e-001
 2.2365222882e+000	 1.7503243161e+000	-8.7913355598e-001
 2.2171175112e+000	 1.7748401023e+000	-9.1953444319e-001
 2.1974319696e+000	 1.7991554966e+000	-9.5939964484e-001
 2.1774687702e+000	 1.8232657081e+000	-9.9716886513e-001
 2.1572311283e+000	 1.8471660099e+000	-1.0313386174e+000
 2.1367223657e+000	 1.8708517427e+000	-1.0604816135e+000
 2.1159459091e+000	 1.8943183178e+000	-1.0832661363e+000
 2.3329786009e+000	 1.6658521609e+000	-7.2895485388e-001
 2.3145543349e+000	 1.6913576940e+000	-7.5473854729e-001
 2.2958352475e+000	 1.7166808857e+000	-7.8644381061e-001
 2.2768240225e+000	 1.7418166714e+000	-8.2252984043e-001
 2.2575234588e+000	 1.7667600385e+000	-8.6143317630e-001
 2.2379364689e+000	 1.7915060304e+000	-9.0158662867e-001
 2.2180660781e+000	 1.8160497488e+000	-9.4143886241e-001
 2.1979154223e+000	 1.8403863575e+000	-9.7947447540e-001
 2.1774877469e+000	 1.8645110856e+000	-1.0142344062e+000
 2.1567864049e+000	 1.8884192298e+000	-1.0443365009e+000
 2.1358148552e+000	 1.9121061584e+000	-1.0684960661e+000
 1.9371253937e+000	 1.7342277519e+000	-1.2543494639e+000
 1.9178658423e+000	 1.7555031994e+000	-1.2695843730e+000
 1.8983678480e+000	 1.7765698777e+000	-1.2837523085e+000
 1.8786348255e+000	 1.7974237988e+000	-1.2967359657e+000
 1.8586702779e+000	 1.8180610496e+000	-1.3084003773e+000
 1.8384777946e+000	 1.8384777946e+000	-1.3185926276e+000
 1.8180610496e+000	 1.8586702779e+000	-1.3271413755e+000
 1.7974237988e+000	 1.8786348255e+000	-1.3338561743e+000
 1.7765698777e+000	 1.8983678480e+000	-1.3385265816e+000
 1.7555031994e+000	 1.9178658423e+000	-1.3409210534e+000
 1.7342277519e+000	 1.9371253937e+000	-1.3407856200e+000
 1.9569943398e+000	 1.7520155926e+000	-1.2451299619e+000
 1.9375372447e+000	 1.7735092607e+000	-1.2621228068e+000
 1.9178392610e+000	 1.7947920183e+000	-1.2755300001e+000
 1.8979038384e+000	 1.8158598364e+000	-1.2857224829e+000
 1.8777345160e+000	 1.8367087620e+000	-1.2930498581e+000
 1.8573349200e+000	 1.8573349200e+000	-1.2978392712e+000
 1.8367087620e+000	 1.8777345160e+000	-1.3003940878e+000
 1.8158598364e+000	 1.8979038384e+000	-1.3009923572e+000
 1.7947920183e+000	 1.9178392610e+000	-1.2998850554e+000
 1.7735092607e+000	 1.9375372447e+000	-1.2972941038e+000
 1.7520155926e+000	 1.9569943398e+000	-1.2934101611e+000
 1.9768632860e+000	 1.7698034332e+000	-1.2294057523e+000
 1.9572086471e+000	 1.7915153220e+000	-1.2510614873e+000
 1.9373106740e+000	 1.8130141588e+000	-1.2667370391e+000
 1.9171728513e+000	 1.8342958741e+000	-1.2772060465e+000
 1.8967987540e+000	 1.8553564743e+000	-1.2832182456e+000
 1.8761920453e+000	 1.8761920453e+000	-1.2854976695e+000
 1.8553564743e+000	 1.8967987540e+000	-1.2847406308e+000
 1.8342958741e+000	 1.9171728513e+000	-1.2816134735e+000
 1.8130141588e+000	 1.9373106740e+000	-1.2767500919e+000
 1.7915153220e+000	 1.9572086471e+000	-1.2707492098e+000
 1.7698034332e+000	 1.9768632860e+000	-1.2641714223e+000
 1.9967322321e+000	 1.7875912739e+000	-1.2048222197e+000
 1.9768800495e+000	 1.8095213832e+000	-1.2338939086e+000
 1.9567820870e+000	 1.8312362994e+000	-1.2547324400e+000
 1.9364418642e+000	 1.8527319117e+000	-1.2684311114e+000
 1.9158629921e+000	 1.8740041867e+000	-1.2760578567e+000
 1.8950491706e+000	 1.8950491706e+000	-1.2786529178e+000
 1.8740041867e+000	 1.9158629921e+000	-1.2772262773e+000
 1.8527319117e+000	 1.9364418642e+000	-1.2727548447e+000
 1.8312362994e+000	 1.9567820870e+000	-1.2661793887e+000
 1.8095213832e+000	 1.9768800495e+000	-1.2584012132e+000
 1.7875912739e+000	 1.9967322321e+000	-1.2502785775e+000
 2.0166011783e+000	 1.8053791145e+000	-1.1753792847e+000
 1.9965514519e+000	 1.8275274445e+000	-1.2081866142e+000
 1.9762535000e+000	 1.8494584400e+000	-1.2369524897e+000
 1.9557108771e+000	 1.8711679493e+000	-1.2567226461e+000
 1.9349272302e+000	 1.8926518990e+000	-1.2688036804e+000
 1.9139062959e+000	 1.9139062959e+000	-1.2744737565e+000
 1.8926518990e+000	 1.9349272302e+000	-1.2749796353e+000
 1.8711679493e+000	 1.9557108771e+000	-1.2715334355e+000
 1.8494584400e+000	 1.9762535000e+000	-1.2653091175e+000
 1.8275274445e+000	 1.9965514519e+000	-1.2574386886e+000
 1.8053791145e+000	 2.0166011783e+000	-1.2466930815e+000
 2.0364701244e+000	 1.8231669552e+000	-1.1509343016e+000
 2.0162228544e+000	 1.8455335058e+000	-1.1778405667e+000
 1.9957249130e+000	 1.8676805806e+000	-1.2109123106e+000
 1.9749798900e+000	 1.8896039870e+000	-1.2394875772e+000
 1.9539914682e+000	 1.9112996113e+000	-1.2587747439e+000
 1.9327634212e+000	 1.9327634212e+000	-1.2702139069e+000
 1.9112996113e+000	 1.9539914682e+000	-1.2752140027e+000
 1.8896039870e+000	 1.9749798900e+000	-1.2751492837e+000
 1.8676805806e+000	 1.9957249130e+000	-1.2713554885e+000
 1.8455335058e+000	 2.0162228544e+000	-1.2628921195e+000
 1.8231669552e+000	 2.0364701244e+000	-1.2465196188e+000
 2.0563390706e+000	 1.8409547958e+000	-1.1305998746e+000
 2.0358942568e+000	 1.8635395671e+000	-1.1529984440e+000
 2.0151963260e+000	 1.8859027211e+000	-1.1799227161e+000
 1.9942489029e+000	 1.9080400246e+000	-1.2142163751e+000
 1.9730557063e+000	 1.9299473237e+000	-1.2433756270e+000
 1.9516205466e+000	 1.9516205466e+000	-1.2632135563e+000
 1.9299473237e+000	 1.9730557063e+000	-1.2752288720e+000
 1.9080400246e+000	 1.9942489029e+000	-1.2808870758e+000
 1.8859027211e+000	 2.0151963260e+000	-1.2796391005e+000
 1.8635395671e+000	 2.0358942568e+000	-1.2678927346e+000
 1.8409547958e+000	 2.0563390706e+000	-1.2471360263e+000
 2.0762080167e+000	 1.8587426365e+000	-1.1132662044e+000
 2.0555656592e+000	 1.8815456284e+000	-1.1327062041e+000
 2.0346677390e+000	 1.9041248617e+000	-1.1547697601e+000
 2.0135179158e+000	 1.9264760623e+000	-1.1831824315e+000
 1.9921199444e+000	 1.9485950360e+000	-1.2200981127e+000
 1.9704776719e+000	 1.9704776719e+000	-1.2509009842e+000
 1.9485950360e+000	 1.9921199444e+000	-1.2724115757e+000
 1.9264760623e+000	 2.0135179158e+000	-1.2845398071e+000
 1.9041248617e+000	 2.0346677390e+000	-1.2832339234e+000
 1.8815456284e+000	 2.0555656592e+000	-1.2698697696e+000
 1.8587426365e+000	 2.0762080167e+000	-1.2461890883e+000
 2.0960769629e+000	 1.8765304771e+000	-1.0978435551e+000
 2.0752370616e+000	 1.8995516896e+000	-1.1157586557e+000
 2.0541391520e+000	 1.9223470023e+000	-1.1345909636e+000
 2.0327869287e+000	 1.9449120999e+000	-1.1580369723e+000
 2.0111841824e+000	 1.9672427483e+000	-1.1898585979e+000
 1.9893347972e+000	 1.9893347972e+000	-1.2307943196e+000
 1.9672427483e+000	 2.0111841824e+000	-1.2631489329e+000
 1.9449120999e+000	 2.0327869287e+000	-1.2790854612e+000
 1.9223470023e+000	 2.0541391520e+000	-1.2796056574e+000
 1.8995516896e+000	 2.0752370616e+000	-1.2665307397e+000
 1.8765304771e+000	 2.0960769629e+000	-1.2415005367e+000
 2.1159459091e+000	 1.8943183178e+000	-1.0832661363e+000
 2.0949084640e+000	 1.9175577509e+000	-1.1009808023e+000
 2.0736105650e+000	 1.9405691429e+000	-1.1181151981e+000
 2.0520559416e+000	 1.9633481375e+000	-1.1382636924e+000
 2.0302484205e+000	 1.9858904607e+000	-1.1650944460e+000
 2.0081919225e+000	 2.0081919225e+000	-1.2017665179e+000
 1.9858904607e+000	 2.0302484205e+000	-1.2403783670e+000
 1.9633481375e+000	 2.0520559416e+000	-1.2619756920e+000
 1.9405691429e+000	 2.0736105650e+000	-1.2665504334e+000
 1.9175577509e+000	 2.0949084640e+000	-1.2557557097e+000
 1.8943183178e+000	 2.1159459091e+000	-1.2310624723e+000
 2.1358148552e+000	 1.9121061584e+000	-1.0684960661e+000
 2.1145798665e+000	 1.9355638122e+000	-1.0872317309e+000
 2.0930819779e+000	 1.9587912834e+000	-1.1041108791e+000
 2.0713249545e+000	 1.9817841752e+000	-1.1225542956e+000
 2.0493126586e+000	 2.0045381730e+000	-1.1458822954e+000
 2.0270490478e+000	 2.0270490478e+000	-1.1718646568e+000
 2.0045381730e+000	 2.0493126586e+000	-1.2020173201e+000
 1.9817841752e+000	 2.0713249545e+000	-1.2311175506e+000
 1.9587912834e+000	 2.0930819779e+000	-1.2420329630e+000
 1.9355638122e+000	 2.1145798665e+000	-1.2355925409e+000
 1.9121061584e+000	 2.1358148552e+000	-1.2130328735e+000
 1.7342277519e+000	 1.9371253937e+000	-1.3407856200e+000
 1.7127443585e+000	 1.9561460130e+000	-1.3435428072e+000
 1.6910603285e+000	 1.9749215615e+000	-1.3534744392e+000
 1.6691798630e+000	 1.9934489018e+000	-1.3686115565e+000
 1.6471072275e+000	 2.0117249930e+000	-1.3859358467e+000
 1.6248467492e+000	 2.0297468916e+000	-1.3998948084e+000
 1.6024028145e+000	 2.0475117532e+000	-1.4085511726e+000
 1.5797798658e+000	 2.0650168343e+000	-1.4102950517e+000
 1.5569823987e+000	 2.0822594931e+000	-1.4035170229e+000
 1.5340149596e+000	 2.0992371910e+000	-1.3866174636e+000
 1.5108821418e+000	 2.1159474941e+000	-1.3580154658e+000
 1.7520155926e+000	 1.9569943398e+000	-1.2934101611e+000
 1.7303118456e+000	 1.9762100522e+000	-1.2945382415e+000
 1.7084054042e+000	 1.9951781800e+000	-1.3053388143e+000
 1.6863005124e+000	 2.0138955539e+000	-1.3219836626e+000
 1.6640014796e+000	 2.0323591015e+000	-1.3385282393e+000
 1.6415126773e+000	 2.0505658493e+000	-1.3528548066e+000
 1.6188385369e+000	 2.0685129238e+000	-1.3630187987e+000
 1.5959835463e+000	 2.0861975531e+000	-1.3670727019e+000
 1.5729522474e+000	 2.1036170685e+000	-1.3630768550e+000
 1.5497492330e+000	 2.1207689054e+000	-1.3491098479e+000
 1.5263791437e+000	 2.1376506048e+000	-1.3232784518e+000
 1.7698034332e+000	 1.9768632860e+000	-1.2641714223e+000
 1.7478793327e+000	 1.9962740914e+000	-1.2642820851e+000
 1.7257504799e+000	 2.0154347985e+000	-1.2743438834e+000
 1.7034211619e+000	 2.0343422059e+000	-1.2880855811e+000
 1.6808957317e+000	 2.0529932100e+000	-1.3031907245e+000
 1.6581786054e+000	 2.0713848071e+000	-1.3174352033e+000
 1.6352742593e+000	 2.0895140944e+000	-1.3285855699e+000
 1.6121872269e+000	 2.1073782719e+000	-1.3344112583e+000
 1.5889220961e+000	 2.1249746440e+000	-1.3326964337e+000
 1.5654835065e+000	 2.1423006198e+000	-1.3212513990e+000
 1.5418761456e+000	 2.1593537155e+000	-1.2979234837e+000
 1.7875912739e+000	 1.9967322321e+000	-1.2502785775e+000
 1.7654468199e+000	 2.0163381306e+000	-1.2478805250e+000
 1.7430955556e+000	 2.0356914171e+000	-1.2532510208e+000
 1.7205418114e+000	 2.0547888580e+000	-1.2638874507e+000
 1.6977899839e+000	 2.0736273186e+000	-1.2773441897e+000
 1.6748445336e+000	 2.0922037648e+000	-1.2911570745e+000
 1.6517099817e+000	 2.1105152649e+000	-1.3028569747e+000
 1.6283909074e+000	 2.1285589908e+000	-1.3099830447e+000
 1.6048919448e+000	 2.1463322194e+000	-1.3100955716e+000
 1.5812177799e+000	 2.1638323342e+000	-1.3007883353e+000
 1.5573731475e+000	 2.1810568261e+000	-1.2797004038e+000
 1.8053791145e+000	 2.0166011783e+000	-1.2466930815e+000
 1.7830143070e+000	 2.0364021698e+000	-1.2383087370e+000
 1.7604406313e+000	 2.0559480356e+000	-1.2392391029e+000
 1.7376624608e+000	 2.0752355100e+000	-1.2468776441e+000
 1.7146842360e+000	 2.0942614271e+000	-1.2585874502e+000
 1.6915104617e+000	 2.1130227225e+000	-1.2717160783e+000
 1.6681457041e+000	 2.1315164355e+000	-1.2836101397e+000
 1.6445945880e+000	 2.1497397096e+000	-1.2916295367e+000
 1.6208617935e+000	 2.1676897948e+000	-1.2931612566e+000
 1.5969520533e+000	 2.1853640486e+000	-1.2856326368e+000
 1.5728701494e+000	 2.2027599368e+000	-1.2665240171e+000
 1.8231669552e+000	 2.0364701244e+000	-1.2465196188e+000
 1.8005817941e+000	 2.0564662089e+000	-1.2328716487e+000
 1.7777857070e+000	 2.0762046542e+000	-1.2298556038e+000
 1.7547831103e+000	 2.0956821621e+000	-1.2347222368e+000
 1.7315784881e+000	 2.1148955356e+000	-1.2446936585e+000
 1.7081763898e+000	 2.1338416803e+000	-1.2569791741e+000
 1.6845814265e+000	 2.1525176060e+000	-1.2687908391e+000
 1.6607982686e+000	 2.1709204284e+000	-1.2773586340e+000
 1.6368316422e+000	 2.1890473703e+000	-1.2799451585e+000
 1.6126863268e+000	 2.2068957630e+000	-1.2738597546e+000
 1.5883671513e+000	 2.2244630475e+000	-1.2564719684e+000
 1.8409547958e+000	 2.0563390706e+000	-1.2471360263e+000
 1.8181492813e+000	 2.0765302481e+000	-1.2291690648e+000
 1.7951307827e+000	 2.0964612727e+000	-1.2228251572e+000
 1.7719037597e+000	 2.1161288141e+000	-1.2252611491e+000
 1.7484727403e+000	 2.1355296441e+000	-1.2336067616e+000
 1.7248423179e+000	 2.1546606380e+000	-1.2449813780e+000
 1.7010171489e+000	 2.1735187766e+000	-1.2565105256e+000
 1.6770019491e+000	 2.1921011472e+000	-1.2653419447e+000
 1.6528014909e+000	 2.2104049457e+000	-1.2686611400e+000
 1.6284206002e+000	 2.2284274774e+000	-1.2637063171e+000
 1.6038641532e+000	 2.2461661582e+000	-1.2477826109e+000
 1.8587426365e+000	 2.0762080167e+000	-1.2461890883e+000
 1.8357167684e+000	 2.0965942873e+000	-1.2249770432e+000
 1.8124758584e+000	 2.1167178912e+000	-1.2160454444e+000
 1.7890244092e+000	 2.1365754661e+000	-1.2165043485e+000
 1.7653669924e+000	 2.1561637526e+000	-1.2234380042e+000
 1.7415082460e+000	 2.1754795957e+000	-1.2339225506e+000
 1.7174528713e+000	 2.1945199471e+000	-1.2450433841e+000
 1.6932056297e+000	 2.2132818661e+000	-1.2539120817e+000
 1.6687713396e+000	 2.2317625212e+000	-1.2576827694e+000
 1.6441548737e+000	 2.2499591918e+000	-1.2535678321e+000
 1.6193611551e+000	 2.2678692689e+000	-1.2388528667e+000
 1.8765304771e+000	 2.0960769629e+000	-1.2415005367e+000
 1.8532842555e+000	 2.1166583265e+000	-1.2182435410e+000
 1.8298209341e+000	 2.1369745098e+000	-1.2075831508e+000
 1.8061450586e+000	 2.1570221182e+000	-1.2066281069e+000
 1.7822612445e+000	 2.1767978611e+000	-1.2124624746e+000
 1.7581741742e+000	 2.1962985535e+000	-1.2221642156e+000
 1.7338885937e+000	 2.2155211177e+000	-1.2328234044e+000
 1.7094093102e+000	 2.2344625849e+000	-1.2415599687e+000
 1.6847411883e+000	 2.2531200966e+000	-1.2455408372e+000
 1.6598891471e+000	 2.2714909061e+000	-1.2419963863e+000
 1.6348581571e+000	 2.2895723795e+000	-1.2282360797e+000
 1.8943183178e+000	 2.1159459091e+000	-1.2310624723e+000
 1.8708517427e+000	 2.1367223657e+000	-1.2070841394e+000
 1.8471660099e+000	 2.1572311283e+000	-1.1956699872e+000
 1.8232657081e+000	 2.1774687702e+000	-1.1939713103e+000
 1.7991554966e+000	 2.1974319696e+000	-1.1991156899e+000
 1.7748401023e+000	 2.2171175112e+000	-1.2082264069e+000
 1.7503243161e+000	 2.2365222882e+000	-1.2184414732e+000
 1.7256129908e+000	 2.2556433037e+000	-1.2269321567e+000
 1.7007110370e+000	 2.2744776721e+000	-1.2309208745e+000
 1.6756234205e+000	 2.2930226205e+000	-1.2276983413e+000
 1.6503551590e+000	 2.3112754902e+000	-1.2146398610e+000
 1.9121061584e+000	 2.1358148552e+000	-1.2130328735e+000
 1.8884192298e+000	 2.1567864049e+000	-1.1897778420e+000
 1.8645110856e+000	 2.1774877469e+000	-1.1786987726e+000
 1.8403863575e+000	 2.1979154223e+000	-1.1770318167e+000
 1.8160497488e+000	 2.2180660781e+000	-1.1819902193e+000
 1.7915060304e+000	 2.2379364689e+000	-1.1907845425e+000
 1.7667600385e+000	 2.2575234588e+000	-1.2006424831e+000
 1.7418166714e+000	 2.2768240225e+000	-1.2088281502e+000
 1.7166808857e+000	 2.2958352475e+000	-1.2126606744e+000
 1.6913576940e+000	 2.3145543349e+000	-1.2095320264e+000
 1.6658521609e+000	 2.3329786009e+000	-1.1969239282e+000
 1.5108821418e+000	 2.1159474941e+000	-1.3580154658e+000
 1.4875885829e+000	 2.1323880729e+000	-1.3258230671e+000
 1.4641389598e+000	 2.1485567020e+000	-1.2992483472e+000
 1.4405379875e+000	 2.1644512626e+000	-1.2783552771e+000
 1.4167904164e+000	 2.1800697437e+000	-1.2631869363e+000
 1.3929010296e+000	 2.1954102429e+000	-1.2537695086e+000
 1.3688746392e+000	 2.2104709669e+000	-1.2501157186e+000
 1.3447160840e+000	 2.2252502318e+000	-1.2522276859e+000
 1.3204302257e+000	 2.2397464637e+000	-1.2541379290e+000
 1.2960219464e+000	 2.2539581986e+000	-1.2225778259e+000
 1.2714961454e+000	 2.2678840830e+000	-1.1494947857e+000
 1.5263791437e+000	 2.1376506048e+000	-1.3232784518e+000
 1.5028466645e+000	 2.1542598133e+000	-1.2928968322e+000
 1.4791565204e+000	 2.1705942828e+000	-1.2665436141e+000
 1.4553134748e+000	 2.1866518727e+000	-1.2442396472e+000
 1.4313223268e+000	 2.2024305514e+000	-1.2259969943e+000
 1.4071879083e+000	 2.2179283969e+000	-1.2118231859e+000
 1.3829150811e+000	 2.2331435976e+000	-1.2017248530e+000
 1.3585087334e+000	 2.2480744523e+000	-1.1957107120e+000
 1.3339737769e+000	 2.2627193709e+000	-1.1937938828e+000
 1.3093151438e+000	 2.2770768745e+000	-1.1736006374e+000
 1.2845377836e+000	 2.2911455956e+000	-1.1079157740e+000
 1.5418761456e+000	 2.1593537155e+000	-1.2979234837e+000
 1.5181047462e+000	 2.1761315537e+000	-1.2692830475e+000
 1.4941740811e+000	 2.1926318636e+000	-1.2432678779e+000
 1.4700889621e+000	 2.2088524828e+000	-1.2198108856e+000
 1.4458542371e+000	 2.2247913591e+000	-1.1988496741e+000
 1.4214747870e+000	 2.2404465509e+000	-1.1803311477e+000
 1.3969555230e+000	 2.2558162283e+000	-1.1642154271e+000
 1.3723013828e+000	 2.2708986727e+000	-1.1504790461e+000
 1.3475173282e+000	 2.2856922780e+000	-1.1391174102e+000
 1.3226083413e+000	 2.3001955503e+000	-1.1254587408e+000
 1.2975794217e+000	 2.3144071082e+000	-1.0702845934e+000
 1.5573731475e+000	 2.1810568261e+000	-1.2797004038e+000
 1.5333628279e+000	 2.1980032942e+000	-1.2527270986e+000
 1.5091916418e+000	 2.2146694445e+000	-1.2271706527e+000
 1.4848644494e+000	 2.2310530929e+000	-1.2028324963e+000
 1.4603861474e+000	 2.2471521667e+000	-1.1795336119e+000
 1.4357616657e+000	 2.2629647049e+000	-1.1571195870e+000
 1.4109959649e+000	 2.2784888589e+000	-1.1354648995e+000
 1.3860940323e+000	 2.2937228932e+000	-1.1144764085e+000
 1.3610608794e+000	 2.3086651852e+000	-1.0940960273e+000
 1.3359015387e+000	 2.3233142262e+000	-1.0743025648e+000
 1.3106210599e+000	 2.3376686208e+000	-1.0325789317e+000
 1.5728701494e+000	 2.2027599368e+000	-1.2665240171e+000
 1.5486209095e+000	 2.2198750346e+000	-1.2411385569e+000
 1.5242092025e+000	 2.2367070253e+000	-1.2161642132e+000
 1.4996399368e+000	 2.2532537030e+000	-1.1912286103e+000
 1.4749180577e+000	 2.2695129744e+000	-1.1659951673e+000
 1.4500485444e+000	 2.2854828589e+000	-1.1401686874e+000
 1.4250364067e+000	 2.3011614896e+000	-1.1135001009e+000
 1.3998866817e+000	 2.3165471136e+000	-1.0857903295e+000
 1.3746044307e+000	 2.3316380924e+000	-1.0568932498e+000
 1.3491947361e+000	 2.3464329021e+000	-1.0267177391e+000
 1.3236626980e+000	 2.3609301334e+000	-9.9097743112e-001
 1.5883671513e+000	 2.2244630475e+000	-1.2564719684e+000
 1.5638789912e+000	 2.2417467750e+000	-1.2325892171e+000
 1.5392267632e+000	 2.2587446061e+000	-1.2083218186e+000
 1.5144154241e+000	 2.2754543131e+000	-1.1830824226e+000
 1.4894499680e+000	 2.2918737821e+000	-1.1563371034e+000
 1.4643354232e+000	 2.3080010129e+000	-1.1276115795e+000
 1.4390768486e+000	 2.3238341203e+000	-1.0964964994e+000
 1.4136793311e+000	 2.3393713341e+000	-1.0626517614e+000
 1.3881479819e+000	 2.3546109996e+000	-1.0258098417e+000
 1.3624879335e+000	 2.3695515779e+000	-9.8577811221e-001
 1.3367043362e+000	 2.3841916460e+000	-9.4244014203e-001
 1.6038641532e+000	 2.2461661582e+000	-1.2477826109e+000
 1.5791370729e+000	 2.2636185155e+000	-1.2253111218e+000
 1.5542443239e+000	 2.2807821869e+000	-1.2018759174e+000
 1.5291909114e+000	 2.2976549232e+000	-1.1766346026e+000
 1.5039818783e+000	 2.3142345897e+000	-1.1488172316e+000
 1.4786223019e+000	 2.3305191669e+000	-1.1177332490e+000
 1.4531172905e+000	 2.3465067509e+000	-1.0827774061e+000
 1.4274719806e+000	 2.3621955545e+000	-1.0434346162e+000
 1.4016915332e+000	 2.3775839068e+000	-9.9928372070e-001
 1.3757811309e+000	 2.3926702538e+000	-9.5000014897e-001
 1.3497459743e+000	 2.4074531586e+000	-8.9535745986e-001
 1.6193611551e+000	 2.2678692689e+000	-1.2388528667e+000
 1.5943951545e+000	 2.2854902559e+000	-1.2176945746e+000
 1.5692618846e+000	 2.3028197677e+000	-1.1952163338e+000
 1.5439663988e+000	 2.3198555333e+000	-1.1702816795e+000
 1.5185137887e+000	 2.3365953974e+000	-1.1418470218e+000
 1.4929091806e+000	 2.3530373208e+000	-1.1089694019e+000
 1.4671577324e+000	 2.3691793816e+000	-1.0708131250e+000
 1.4412646300e+000	 2.3850197750e+000	-1.0266552318e+000
 1.4152350845e+000	 2.4005568140e+000	-9.7588977725e-001
 1.3890743283e+000	 2.4157889297e+000	-9.1803089881e-001
 1.3627876125e+000	 2.4307146712e+000	-8.5271466021e-001
 1.6348581571e+000	 2.2895723795e+000	-1.2282360797e+000
 1.6096532362e+000	 2.3073619963e+000	-1.2082861402e+000
 1.5842794452e+000	 2.3248573486e+000	-1.1868884380e+000
 1.5587418861e+000	 2.3420561434e+000	-1.1625744045e+000
 1.5330456990e+000	 2.3589562050e+000	-1.1339901823e+000
 1.5071960593e+000	 2.3755554748e+000	-1.0999052879e+000
 1.4811981742e+000	 2.3918520123e+000	-1.0592200493e+000
 1.4550572794e+000	 2.4078439955e+000	-1.0109717732e+000
 1.4287786357e+000	 2.4235297212e+000	-9.5433961128e-001
 1.4023675257e+000	 2.4389076055e+000	-8.8864810374e-001
 1.3758292506e+000	 2.4539761837e+000	-8.1336938604e-001
 1.6503551590e+000	 2.3112754902e+000	-1.2146398610e+000
 1.6249113179e+000	 2.3292337368e+000	-1.1957866346e+000
 1.5992970059e+000	 2.3468949294e+000	-1.1755912998e+000
 1.5735173734e+000	 2.3642567535e+000	-1.1522160912e+000
 1.5475776093e+000	 2.3813170127e+000	-1.1239612094e+000
 1.5214829380e+000	 2.3980736288e+000	-1.0892744857e+000
 1.4952386161e+000	 2.4145246430e+000	-1.0467597092e+000
 1.4688499289e+000	 2.4306682159e+000	-9.9518357124e-001
 1.4423221870e+000	 2.4465026284e+000	-9.3348119376e-001
 1.4156607231e+000	 2.4620262814e+000	-8.6076021437e-001
 1.3888708888e+000	 2.4772376963e+000	-7.7630341706e-001
 1.6658521609e+000	 2.3329786009e+000	-1.1969239282e+000
 1.6401693995e+000	 2.3511054772e+000	-1.1790491050e+000
 1.6143145666e+000	 2.3689325102e+000	-1.1601758289e+000
 1.5882928607e+000	 2.3864573637e+000	-1.1380609351e+000
 1.5621095196e+000	 2.4036778204e+000	-1.1106239105e+000
 1.5357698167e+000	 2.4205917828e+000	-1.0759576525e+000
 1.5092790580e+000	 2.4371972736e+000	-1.0323377735e+000
 1.4826425783e+000	 2.4534924364e+000	-9.7823040449e-001
 1.4558657382e+000	 2.4694755356e+000	-9.1229845704e-001
 1.4289539205e+000	 2.4851449573e+000	-8.3340631956e-001
 1.4019125270e+000	 2.5004992089e+000	-7.4062297088e-001
 1.2714961454e+000	 2.2678840830e+000	-1.1494947857e+000
 1.2468614399e+000	 2.2815208497e+000	-1.0661141349e+000
 1.2221190831e+000	 2.2948694778e+000	-1.0027472557e+000
 1.1972740064e+000	 2.3079289465e+000	-9.5488795110e-001
 1.1723311464e+000	 2.3206983446e+000	-9.1828530461e-001
 1.1472954414e+000	 2.3331768706e+000	-8.8894376471e-001
 1.1221718289e+000	 2.3453638315e+000	-8.6312189523e-001
 1.0969652426e+000	 2.3572586430e+000	-8.3732997031e-001
 1.0716806093e+000	 2.3688608284e+000	-8.0832659378e-001
 1.0463228464e+000	 2.3801700182e+000	-7.7311452068e-001
 1.0208968588e+000	 2.3911859489e+000	-7.2893585513e-001
 1.2845377836e+000	 2.2911455956e+000	-1.1079157740e+000
 1.2596504017e+000	 2.3049222336e+000	-1.0292828972e+000
 1.2346542645e+000	 2.3184077775e+000	-9.6952633889e-001
 1.2095543538e+000	 2.3316011962e+000	-9.2431830522e-001
 1.1843556568e+000	 2.3445015691e+000	-8.8958577083e-001
 1.1590631625e+000	 2.3571080863e+000	-8.6150884819e-001
 1.1336818591e+000	 2.3694200479e+000	-8.3651780054e-001
 1.1082167307e+000	 2.3814368636e+000	-8.1128889482e-001
 1.0826727548e+000	 2.3931580517e+000	-7.8273929109e-001
 1.0570548993e+000	 2.4045832390e+000	-7.4802116255e-001
 1.0313681194e+000	 2.4157121593e+000	-7.0451523650e-001
 1.2975794217e+000	 2.3144071082e+000	-1.0702845934e+000
 1.2724393636e+000	 2.3283236174e+000	-9.9916839757e-001
 1.2471894459e+000	 2.3419460772e+000	-9.4531913833e-001
 1.2218347012e+000	 2.3552734458e+000	-9.0466169889e-001
 1.1963801672e+000	 2.3683047935e+000	-8.7337278759e-001
 1.1708308836e+000	 2.3810393020e+000	-8.4787736518e-001
 1.1451918892e+000	 2.3934762643e+000	-8.2484369880e-001
 1.1194682188e+000	 2.4056150842e+000	-8.0117725798e-001
 1.0936649004e+000	 2.4174552750e+000	-7.7401366688e-001
 1.0677869523e+000	 2.4289964598e+000	-7.4071092466e-001
 1.0418393799e+000	 2.4402383696e+000	-6.9884110093e-001
 1.3106210599e+000	 2.3376686208e+000	-1.0325789317e+000
 1.2852283255e+000	 2.3517250013e+000	-9.7184995503e-001
 1.2597246273e+000	 2.3654843769e+000	-9.2625316490e-001
 1.2341150486e+000	 2.3789456955e+000	-8.9204042814e-001
 1.2084046776e+000	 2.3921080179e+000	-8.6571015068e-001
 1.1825986047e+000	 2.4049705176e+000	-8.4400152684e-001
 1.1567019193e+000	 2.4175324807e+000	-8.2388740415e-001
 1.1307197069e+000	 2.4297933047e+000	-8.0256599855e-001
 1.1046570460e+000	 2.4417524983e+000	-7.7745169368e-001
 1.0785190052e+000	 2.4534096806e+000	-7.4616515442e-001
 1.0523106405e+000	 2.4647645800e+000	-7.0652297990e-001
 1.3236626980e+000	 2.3609301334e+000	-9.9097743112e-001
 1.2980172874e+000	 2.3751263852e+000	-9.4358116512e-001
 1.2722598088e+000	 2.3890226766e+000	-9.0860506720e-001
 1.2463953960e+000	 2.4026179452e+000	-8.8270247282e-001
 1.2204291880e+000	 2.4159112423e+000	-8.6276571480e-001
 1.1943663258e+000	 2.4289017333e+000	-8.4591794999e-001
 1.1682119494e+000	 2.4415886971e+000	-8.2950359549e-001
 1.1419711950e+000	 2.4539715253e+000	-8.1107763023e-001
 1.1156491916e+000	 2.4660497216e+000	-7.8839401601e-001
 1.0892510582e+000	 2.4778229014e+000	-7.5939348828e-001
 1.0627819010e+000	 2.4892907903e+000	-7.2219096068e-001
 1.3367043362e+000	 2.3841916460e+000	-9.4244014203e-001
 1.3108062492e+000	 2.3985277690e+000	-9.1081761955e-001
 1.2847949902e+000	 2.4125609764e+000	-8.8882793283e-001
 1.2586757434e+000	 2.4262901949e+000	-8.7304826293e-001
 1.2324536984e+000	 2.4397144667e+000	-8.6083750713e-001
 1.2061340469e+000	 2.4528329490e+000	-8.4977299894e-001
 1.1797219796e+000	 2.4656449135e+000	-8.3763826673e-001
 1.1532226831e+000	 2.4781497459e+000	-8.2240967921e-001
 1.1266413371e+000	 2.4903469449e+000	-8.0224225368e-001
 1.0999831111e+000	 2.5022361221e+000	-7.7545489840e-001
 1.0732531616e+000	 2.5138170006e+000	-7.4051535336e-001
 1.3497459743e+000	 2.4074531586e+000	-8.9535745986e-001
 1.3235952111e+000	 2.4219291529e+000	-8.7024446865e-001
 1.2973301716e+000	 2.4360992761e+000	-8.6357841687e-001
 1.2709560908e+000	 2.4499624445e+000	-8.5965726254e-001
 1.2444782088e+000	 2.4635176911e+000	-8.5637965499e-001
 1.2179017679e+000	 2.4767641647e+000	-8.5184794416e-001
 1.1912320097e+000	 2.4897011299e+000	-8.4435300274e-001
 1.1644741712e+000	 2.5023279664e+000	-8.3235796322e-001
 1.1376334827e+000	 2.5146441682e+000	-8.1448116881e-001
 1.1107151641e+000	 2.5266493429e+000	-7.8947863200e-001
 1.0837244221e+000	 2.5383432110e+000	-7.5622628664e-001
 1.3627876125e+000	 2.4307146712e+000	-8.5271466021e-001
 1.3363841730e+000	 2.4453305367e+000	-8.1929739779e-001
 1.3098653530e+000	 2.4596375758e+000	-8.2974370920e-001
 1.2832364381e+000	 2.4736346942e+000	-8.3931438358e-001
 1.2565027191e+000	 2.4873209155e+000	-8.4602814004e-001
 1.2296694890e+000	 2.5006953804e+000	-8.4858394994e-001
 1.2027420398e+000	 2.5137573464e+000	-8.4584909289e-001
 1.1757256594e+000	 2.5265061870e+000	-8.3683972258e-001
 1.1486256283e+000	 2.5389413915e+000	-8.2070070560e-001
 1.1214472170e+000	 2.5510625637e+000	-7.9668505072e-001
 1.0941956827e+000	 2.5628694213e+000	-7.6413323725e-001
 1.3758292506e+000	 2.4539761837e+000	-8.1336938604e-001
 1.3491731349e+000	 2.4687319206e+000	-7.6720091722e-001
 1.3224005345e+000	 2.4831758755e+000	-7.8446835133e-001
 1.2955167855e+000	 2.4973069439e+000	-8.0903624079e-001
 1.2685272295e+000	 2.5111241399e+000	-8.2662639048e-001
 1.2414372101e+000	 2.5246265961e+000	-8.3660690244e-001
 1.2142520700e+000	 2.5378135628e+000	-8.3849149279e-001
 1.1869771475e+000	 2.5506844076e+000	-8.3191661305e-001
 1.1596177739e+000	 2.5632386148e+000	-8.1661791142e-001
 1.1321792700e+000	 2.5754757845e+000	-7.9240637665e-001
 1.1046669432e+000	 2.5873956317e+000	-7.5914449741e-001
 1.3888708888e+000	 2.4772376963e+000	-7.7630341706e-001
 1.3619620967e+000	 2.4921333044e+000	-7.1772062658e-001
 1.3349357159e+000	 2.5067141752e+000	-7.2532967154e-001
 1.3077971329e+000	 2.5209791935e+000	-7.6609725815e-001
 1.2805517399e+000	 2.5349273643e+000	-7.9525072199e-001
 1.2532049312e+000	 2.5485578118e+000	-8.1275208861e-001
 1.2257621001e+000	 2.5618697792e+000	-8.1883264434e-001
 1.1982286356e+000	 2.5748626282e+000	-8.1381756975e-001
 1.1706099194e+000	 2.5875358381e+000	-7.9809874693e-001
 1.1429113229e+000	 2.5998890053e+000	-7.7210735097e-001
 1.1151382038e+000	 2.6119218420e+000	-7.3628658427e-001
 1.4019125270e+000	 2.5004992089e+000	-7.4062297088e-001
 1.3747510586e+000	 2.5155346883e+000	-6.7001434372e-001
 1.3474708973e+000	 2.5302524749e+000	-6.6105803465e-001
 1.3200774803e+000	 2.5446514432e+000	-7.0805563666e-001
 1.2925762503e+000	 2.5587305887e+000	-7.4923563721e-001
 1.2649726523e+000	 2.5724890275e+000	-7.7408873566e-001
 1.2372721302e+000	 2.5859259956e+000	-7.8363616313e-001
 1.2094801237e+000	 2.5990408487e+000	-7.7896155024e-001
 1.1816020650e+000	 2.6118330614e+000	-7.6117979248e-001
 1.1536433759e+000	 2.6243022261e+000	-7.3140581116e-001
 1.1256094643e+000	 2.6364480523e+000	-6.9072359531e-001
 1.0208968588e+000	 2.3911859489e+000	-7.2893585513e-001
 9.9540370841e-001	 2.4019100494e+000	-6.7992520834e-001
 9.6985207964e-001	 2.4123405929e+000	-6.3131872060e-001
 9.4424682737e-001	 2.4224776311e+000	-5.8241496180e-001
 9.1859278331e-001	 2.4323213176e+000	-5.3265035844e-001
 8.9289475342e-001	 2.4418719075e+000	-4.8161244648e-001
 8.6715751542e-001	 2.4511297553e+000	-4.2903363898e-001
 8.4138581636e-001	 2.4600953141e+000	-3.7478549159e-001
 8.1558437022e-001	 2.4687691339e+000	-3.1887356507e-001
 7.8975785560e-001	 2.4771518603e+000	-2.6143297026e-001
 7.6391091347e-001	 2.4852442329e+000	-2.0272466740e-001
 1.0313681194e+000	 2.4157121593e+000	-7.0451523650e-001
 1.0056134877e+000	 2.4265462560e+000	-6.5601214283e-001
 9.7979977781e-001	 2.4370837848e+000	-6.0740779877e-001
 9.5393189444e-001	 2.4473247978e+000	-5.5810932099e-001
 9.2801471883e-001	 2.4572694503e+000	-5.0764446016e-001
 9.0205310622e-001	 2.4669179998e+000	-4.5567145054e-001
 8.7605188335e-001	 2.4762708047e+000	-4.0197167731e-001
 8.5001584595e-001	 2.4853283225e+000	-3.4644297697e-001
 8.2394975636e-001	 2.4940911090e+000	-2.8909367746e-001
 7.9785834117e-001	 2.5025598164e+000	-2.3003746994e-001
 7.7174628894e-001	 2.5107351918e+000	-1.6948918912e-001
 1.0418393799e+000	 2.4402383696e+000	-6.9884110093e-001
 1.0158232669e+000	 2.4511824626e+000	-6.5186340102e-001
 9.8974747599e-001	 2.4618269767e+000	-6.0438186107e-001
 9.6361696152e-001	 2.4721719645e+000	-5.5582280779e-001
 9.3743665434e-001	 2.4822175829e+000	-5.0580320374e-001
 9.1121145902e-001	 2.4919640921e+000	-4.5402894193e-001
 8.8494625128e-001	 2.5014118540e+000	-4.0030795687e-001
 8.5864587555e-001	 2.5105613309e+000	-3.4454247170e-001
 8.3231514251e-001	 2.5194130841e+000	-2.8672213434e-001
 8.0595882675e-001	 2.5279677725e+000	-2.2691814127e-001
 7.7958166442e-001	 2.5362261507e+000	-1.6527843145e-001
 1.0523106405e+000	 2.4647645800e+000	-7.0652297990e-001
 1.0260330462e+000	 2.4758186692e+000	-6.6176080476e-001
 9.9969517417e-001	 2.4865701686e+000	-6.1615332239e-001
 9.7330202859e-001	 2.4970191312e+000	-5.6919594581e-001
 9.4685858986e-001	 2.5071657156e+000	-5.2054936045e-001
 9.2036981182e-001	 2.5170101845e+000	-4.6994621485e-001
 8.9384061921e-001	 2.5265529034e+000	-4.1720059095e-001
 8.6727590514e-001	 2.5357943393e+000	-3.6219910317e-001
 8.4068052866e-001	 2.5447350592e+000	-3.0489304260e-001
 8.1405931232e-001	 2.5533757285e+000	-2.4529167253e-001
 7.8741703990e-001	 2.5617171096e+000	-1.8345676368e-001
 1.0627819010e+000	 2.4892907903e+000	-7.2219096068e-001
 1.0362428255e+000	 2.5004548758e+000	-6.7993007666e-001
 1.0096428723e+000	 2.5113133605e+000	-6.3664032206e-001
 9.8298709567e-001	 2.5218662979e+000	-5.9186606654e-001
 9.5628052538e-001	 2.5321138482e+000	-5.4529265294e-001
 9.2952816462e-001	 2.5420562768e+000	-4.9666076368e-001
 9.0273498714e-001	 2.5516939527e+000	-4.4577229142e-001
 8.7590593474e-001	 2.5610273477e+000	-3.9248018827e-001
 8.4904591481e-001	 2.5700570343e+000	-3.3667952384e-001
 8.2215979789e-001	 2.5787836846e+000	-2.7829986638e-001
 7.9525241537e-001	 2.5872080686e+000	-2.1729908166e-001
 1.0732531616e+000	 2.5138170006e+000	-7.4051535336e-001
 1.0464526048e+000	 2.5250910825e+000	-7.0065298284e-001
 1.0195905705e+000	 2.5360565524e+000	-6.5976248588e-001
 9.9267216274e-001	 2.5467134646e+000	-6.1748295776e-001
 9.6570246090e-001	 2.5570619809e+000	-5.7344420867e-001
 9.3868651742e-001	 2.5671023691e+000	-5.2739961881e-001
 9.1162935507e-001	 2.5768350021e+000	-4.7912266721e-001
 8.8453596434e-001	 2.5862603561e+000	-4.2841657781e-001
 8.5741130095e-001	 2.5953790094e+000	-3.7510419059e-001
 8.3026028347e-001	 2.6041916407e+000	-3.1901933608e-001
 8.0308779085e-001	 2.6126990275e+000	-2.5999981511e-001
 1.0837244221e+000	 2.5383432110e+000	-7.5622628664e-001
 1.0566623840e+000	 2.5497272891e+000	-7.1826142998e-001
 1.0295382687e+000	 2.5607997443e+000	-6.7954483892e-001
 1.0023572298e+000	 2.5715606314e+000	-6.3972454195e-001
 9.7512439641e-001	 2.5820101135e+000	-5.9843106883e-001
 9.4784487023e-001	 2.5921484614e+000	-5.5539275937e-001
 9.2052372300e-001	 2.6019760514e+000	-5.1034061695e-001
 8.9316599393e-001	 2.6114933645e+000	-4.6301410784e-001
 8.6577668710e-001	 2.6207009845e+000	-4.1314973766e-001
 8.3836076904e-001	 2.6295995968e+000	-3.6047132098e-001
 8.1092316632e-001	 2.6381899864e+000	-3.0468205328e-001
 1.0941956827e+000	 2.5628694213e+000	-7.6413323725e-001
 1.0668721633e+000	 2.5743634957e+000	-7.2715565882e-001
 1.0394859669e+000	 2.5855429362e+000	-6.9000050925e-001
 1.0120422969e+000	 2.5964077981e+000	-6.5228926843e-001
 9.8454633193e-001	 2.6069582462e+000	-6.1371074905e-001
 9.5700322303e-001	 2.6171945537e+000	-5.7388659771e-001
 9.2941809093e-001	 2.6271171008e+000	-5.3251680931e-001
 9.0179602353e-001	 2.6367263729e+000	-4.8926515058e-001
 8.7414207325e-001	 2.6460229596e+000	-4.4376964105e-001
 8.4646125462e-001	 2.6550075528e+000	-3.9563161297e-001
 8.1875854180e-001	 2.6636809453e+000	-3.4440678118e-001
 1.1046669432e+000	 2.5873956317e+000	-7.5914449741e-001
 1.0770819426e+000	 2.5989997023e+000	-7.2182240862e-001
 1.0494336651e+000	 2.6102861281e+000	-6.8523971349e-001
 1.0217273640e+000	 2.6212549648e+000	-6.4900767283e-001
 9.9396826745e-001	 2.6319063788e+000	-6.1278584847e-001
 9.6616157583e-001	 2.6422406460e+000	-5.7615753086e-001
 9.3831245886e-001	 2.6522581501e+000	-5.3875624525e-001
 9.1042605312e-001	 2.6619593813e+000	-5.0016025841e-001
 8.8250745940e-001	 2.6713449347e+000	-4.5956547292e-001
 8.5456174019e-001	 2.6804155089e+000	-4.1456192208e-001
 8.2659391728e-001	 2.6891719043e+000	-3.6457478201e-001
 1.1151382038e+000	 2.6119218420e+000	-7.3628658427e-001
 1.0872917218e+000	 2.6236359089e+000	-6.9685305418e-001
 1.0593813632e+000	 2.6350293200e+000	-6.5946298555e-001
 1.0314124310e+000	 2.6461021315e+000	-6.2371035882e-001
 1.0033902030e+000	 2.6568545115e+000	-5.8921870392e-001
 9.7531992863e-001	 2.6672867384e+000	-5.5552053475e-001
 9.4720682680e-001	 2.6773991995e+000	-5.2050749213e-001
 9.1905608272e-001	 2.6871923897e+000	-4.8249281118e-001
 8.9087284554e-001	 2.6966669098e+000	-4.4117622106e-001
 8.6266222576e-001	 2.7058234650e+000	-3.9623931811e-001
 8.3442929275e-001	 2.7146628632e+000	-3.4733912115e-001
 1.1256094643e+000	 2.6364480523e+000	-6.9072359531e-001
 1.0975015011e+000	 2.6482721155e+000	-6.4696171749e-001
 1.0693290614e+000	 2.6597725119e+000	-6.0697809518e-001
 1.0410974981e+000	 2.6709492982e+000	-5.7010830729e-001
 1.0128121385e+000	 2.6818026442e+000	-5.3357244626e-001
 9.8447828143e-001	 2.6923328307e+000	-4.9642506648e-001
 9.5610119473e-001	 2.7025402488e+000	-4.5824789315e-001
 9.2768611232e-001	 2.7124253981e+000	-4.1868509443e-001
 8.9923823169e-001	 2.7219888849e+000	-3.7733617806e-001
 8.7076271134e-001	 2.7312314211e+000	-3.3377145219e-001
 8.4226466823e-001	 2.7401538221e+000	-2.8752520508e-001
 7.6391091347e-001	 2.4852442329e+000	-2.0272466740e-001
 7.3804814458e-001	 2.4930470830e+000	-1.5101246609e-001
 7.1217410630e-001	 2.5005613302e+000	-1.1460457394e-001
 6.8629331174e-001	 2.5077879826e+000	-9.4005620740e-002
 6.6041022809e-001	 2.5147281355e+000	-8.9040998655e-002
 6.3452927478e-001	 2.5213829698e+000	-8.2460686238e-002
 6.0865482159e-001	 2.5277537500e+000	-6.8702499489e-002
 5.8279118688e-001	 2.5338418223e+000	-4.9994873839e-002
 5.5694263593e-001	 2.5396486130e+000	-2.8522078483e-002
 5.3111337925e-001	 2.5451756263e+000	-6.4471087829e-003
 5.0530757112e-001	 2.5504244421e+000	 1.4060485029e-002
 7.7174628894e-001	 2.5107351918e+000	-1.6948918912e-001
 7.4561824762e-001	 2.5186180751e+000	-1.1567877970e-001
 7.1947882133e-001	 2.5262093954e+000	-7.7206698638e-002
 6.9333256944e-001	 2.5335101711e+000	-5.4976209037e-002
 6.6718400500e-001	 2.5405215086e+000	-4.9969141169e-002
 6.4103759274e-001	 2.5472446010e+000	-4.9537769987e-002
 6.1489774727e-001	 2.5536807257e+000	-4.0815153011e-002
 5.8876883126e-001	 2.5598312430e+000	-2.5999896460e-002
 5.6265515370e-001	 2.5656975935e+000	-7.1808342538e-003
 5.3656096833e-001	 2.5712812969e+000	 1.3640217464e-002
 5.1049047200e-001	 2.5765839494e+000	 3.4515317777e-002
 7.7958166442e-001	 2.5362261507e+000	-1.6527843145e-001
 7.5318835067e-001	 2.5441890673e+000	-1.0993645639e-001
 7.2678353635e-001	 2.5518574606e+000	-6.9696493362e-002
 7.0037182715e-001	 2.5592323595e+000	-4.5800804467e-002
 6.7395778190e-001	 2.5663148816e+000	-3.9535126515e-002
 6.4754591070e-001	 2.5731062321e+000	-4.4171429650e-002
 6.2114067296e-001	 2.5796077015e+000	-4.0051790986e-002
 5.9474647563e-001	 2.5858206636e+000	-2.8080418058e-002
 5.6836767148e-001	 2.5917465740e+000	-1.0142042162e-002
 5.4200855740e-001	 2.5973869675e+000	 1.2034852277e-002
 5.1567337289e-001	 2.6027434567e+000	 3.6839096929e-002
 7.8741703990e-001	 2.5617171096e+000	-1.8345676368e-001
 7.6075845371e-001	 2.5697600595e+000	-1.2735225924e-001
 7.3408825138e-001	 2.5775055259e+000	-8.5888109747e-002
 7.0741108485e-001	 2.5849545479e+000	-6.0588229463e-002
 6.8073155881e-001	 2.5921082547e+000	-5.2984324451e-002
 6.5405422866e-001	 2.5989678633e+000	-6.0921537869e-002
 6.2738359864e-001	 2.6055346773e+000	-6.1452522816e-002
 6.0072412000e-001	 2.6118100843e+000	-5.1837389768e-002
 5.7408018925e-001	 2.6177955544e+000	-3.3646783918e-002
 5.4745614648e-001	 2.6234926381e+000	-8.2220212136e-003
 5.2085627378e-001	 2.6289029640e+000	 2.3279698699e-002
 7.9525241537e-001	 2.5872080686e+000	-2.1729908166e-001
 7.6832855676e-001	 2.5953310516e+000	-1.6138870175e-001
 7.4139296640e-001	 2.6031535911e+000	-1.1947695011e-001
 7.1445034256e-001	 2.6106767363e+000	-9.3314317114e-002
 6.8750533572e-001	 2.6179016277e+000	-8.4622663975e-002
 6.6056254662e-001	 2.6248294945e+000	-9.4182717740e-002
 6.3362652433e-001	 2.6314616530e+000	-9.9866259317e-002
 6.0670176438e-001	 2.6377995049e+000	-9.2656719011e-002
 5.7979270703e-001	 2.6438445349e+000	-7.3699238444e-002
 5.5290373556e-001	 2.6495983087e+000	-4.3832315471e-002
 5.2603917466e-001	 2.6550624713e+000	-3.6398133209e-003
 8.0308779085e-001	 2.6126990275e+000	-2.5999981511e-001
 7.7589865980e-001	 2.6209020438e+000	-2.0541243669e-001
 7.4869768143e-001	 2.6288016563e+000	-1.6404748949e-001
 7.2148960026e-001	 2.6363989248e+000	-1.3782922260e-001
 6.9427911263e-001	 2.6436950007e+000	-1.2861594632e-001
 6.6707086458e-001	 2.6506911256e+000	-1.3819984451e-001
 6.3986945001e-001	 2.6573886288e+000	-1.4996173733e-001
 6.1267940875e-001	 2.6637889256e+000	-1.4571947648e-001
 5.8550522480e-001	 2.6698935154e+000	-1.2601245350e-001
 5.5835132463e-001	 2.6757039793e+000	-9.0930730895e-002
 5.3122207555e-001	 2.6812219787e+000	-4.0878912674e-002
 8.1092316632e-001	 2.6381899864e+000	-3.0468205328e-001
 7.8346876285e-001	 2.6464730359e+000	-2.5270275934e-001
 7.5600239645e-001	 2.6544497215e+000	-2.1308120617e-001
 7.2852885797e-001	 2.6621211132e+000	-1.8786483467e-001
 7.0105288954e-001	 2.6694883738e+000	-1.7889765969e-001
 6.7357918254e-001	 2.6765527568e+000	-1.8718447141e-001
 6.4611237570e-001	 2.6833156046e+000	-2.0337048435e-001
 6.1865705312e-001	 2.6897783462e+000	-2.0126654973e-001
 5.9121774258e-001	 2.6959424958e+000	-1.8022758988e-001
 5.6379891371e-001	 2.7018096500e+000	-1.4050240132e-001
 5.3640497644e-001	 2.7073814860e+000	-8.2060399921e-002
 8.1875854180e-001	 2.6636809453e+000	-3.4440678118e-001
 7.9103886589e-001	 2.6720440281e+000	-2.9603185863e-001
 7.6330711148e-001	 2.6800977867e+000	-2.5737303017e-001
 7.3556811568e-001	 2.6878433016e+000	-2.3089310833e-001
 7.0782666644e-001	 2.6952817468e+000	-2.1909965525e-001
 6.8008750051e-001	 2.7024143880e+000	-2.2439982507e-001
 6.5235530138e-001	 2.7092425803e+000	-2.4336008091e-001
 6.2463469750e-001	 2.7157677669e+000	-2.4532308869e-001
 5.9693026035e-001	 2.7219914763e+000	-2.2546664657e-001
 5.6924650279e-001	 2.7279153206e+000	-1.8353020681e-001
 5.4158787733e-001	 2.7335409933e+000	-1.1895789084e-001
 8.2659391728e-001	 2.6891719043e+000	-3.6457478201e-001
 7.9860896894e-001	 2.6976150202e+000	-3.1573478285e-001
 7.7061182650e-001	 2.7057458519e+000	-2.7620145766e-001
 7.4260737338e-001	 2.7135654900e+000	-2.4868986586e-001
 7.1460044335e-001	 2.7210751199e+000	-2.3578969019e-001
 6.8659581847e-001	 2.7282760191e+000	-2.3996029351e-001
 6.5859822707e-001	 2.7351695561e+000	-2.6162188879e-001
 6.3061234187e-001	 2.7417571876e+000	-2.7019572997e-001
 6.0264277813e-001	 2.7480404567e+000	-2.5396624576e-001
 5.7469409187e-001	 2.7540209912e+000	-2.1214448775e-001
 5.4677077822e-001	 2.7597005006e+000	-1.4363309356e-001
 8.3442929275e-001	 2.7146628632e+000	-3.4733912115e-001
 8.0617907199e-001	 2.7231860124e+000	-2.9987180707e-001
 7.7791654153e-001	 2.7313939171e+000	-2.6141313650e-001
 7.4964663109e-001	 2.7392876785e+000	-2.3475612915e-001
 7.2137422026e-001	 2.7468684929e+000	-2.2254005184e-001
 6.9310413643e-001	 2.7541376503e+000	-2.2724487822e-001
 6.6484115276e-001	 2.7610965319e+000	-2.5108296461e-001
 6.3658998625e-001	 2.7677466082e+000	-2.6862789304e-001
 6.0835529590e-001	 2.7740894372e+000	-2.5831259585e-001
 5.8014168094e-001	 2.7801266618e+000	-2.1880510766e-001
 5.5195367911e-001	 2.7858600079e+000	-1.4845495741e-001
 8.4226466823e-001	 2.7401538221e+000	-2.8752520508e-001
 8.1374917503e-001	 2.7487570045e+000	-2.4313094082e-001
 7.8522125655e-001	 2.7570419823e+000	-2.0743377286e-001
 7.5668588880e-001	 2.7650098669e+000	-1.8327300073e-001
 7.2814799717e-001	 2.7726618660e+000	-1.7330674846e-001
 6.9961245439e-001	 2.7799992815e+000	-1.8000583913e-001
 6.7108407844e-001	 2.7870235076e+000	-2.0564879243e-001
 6.4256763062e-001	 2.7937360289e+000	-2.3372579471e-001
 6.1406781368e-001	 2.8001384177e+000	-2.3143776278e-001
 5.8558927002e-001	 2.8062323324e+000	-1.9629854299e-001
 5.5713657999e-001	 2.8120195152e+000	-1.2609758115e-001
 5.0530757112e-001	 2.5504244421e+000	 1.4060485029e-002
 4.7953317130e-001	 2.5553959897e+000	 3.3188499314e-002
 4.5379033791e-001	 2.5600928041e+000	 5.2352949481e-002
 4.2808304028e-001	 2.5645166823e+000	 7.0965696314e-002
 4.0241518616e-001	 2.5686694892e+000	 8.8101677057e-002
 3.7679062058e-001	 2.5725531550e+000	 1.0245772841e-001
 3.5121312474e-001	 2.5761696735e+000	 1.1231078356e-001
 3.2568641496e-001	 2.5795211000e+000	 1.1547607174e-001
 3.0021414174e-001	 2.5826095490e+000	 1.0926592640e-001
 2.7479988887e-001	 2.5854371919e+000	 9.0449780909e-002
 2.4944717263e-001	 2.5880062554e+000	 5.5215900806e-002
 5.1049047200e-001	 2.5765839494e+000	 3.4515317777e-002
 4.8445170615e-001	 2.5816064898e+000	 5.3812278776e-002
 4.5844483050e-001	 2.5863514790e+000	 7.1166127068e-002
 4.3247385509e-001	 2.5908207327e+000	 8.6326365935e-002
 4.0654272777e-001	 2.5950161345e+000	 9.8722273113e-002
 3.8065533300e-001	 2.5989396348e+000	 1.0741552720e-001
 3.5481549075e-001	 2.6025932477e+000	 1.1105211997e-001
 3.2902695547e-001	 2.6059790495e+000	 1.0781423529e-001
 3.0329341510e-001	 2.6090991765e+000	 9.5372751253e-002
 2.7761849019e-001	 2.6119558223e+000	 7.0840993120e-002
 2.5200573309e-001	 2.6145512364e+000	 3.0730332495e-002
 5.1567337289e-001	 2.6027434567e+000	 3.6839096929e-002
 4.8937024100e-001	 2.6078169899e+000	 6.0689203322e-002
 4.6309932309e-001	 2.6126101540e+000	 8.1276442510e-002
 4.3686466991e-001	 2.6171247830e+000	 9.8756045358e-002
 4.1067026938e-001	 2.6213627799e+000	 1.1298327279e-001
 3.8452004541e-001	 2.6253261146e+000	 1.2345933670e-001
 3.5841785675e-001	 2.6290168219e+000	 1.2927651102e-001
 3.3236749597e-001	 2.6324369990e+000	 1.2906316895e-001
 3.0637268845e-001	 2.6355888040e+000	 1.2092945658e-001
 2.8043709151e-001	 2.6384744527e+000	 1.0241428235e-001
 2.5456429355e-001	 2.6410962175e+000	 7.0434266846e-002
 5.2085627378e-001	 2.6289029640e+000	 2.3279698699e-002
 4.9428877585e-001	 2.6340274900e+000	 5.5225582041e-002
 4.6775381568e-001	 2.6388688289e+000	 8.3228777042e-002
 4.4125548472e-001	 2.6434288333e+000	 1.0792278071e-001
 4.1479781099e-001	 2.6477094252e+000	 1.2966513567e-001
 3.8838475782e-001	 2.6517125944e+000	 1.4847611261e-001
 3.6202022276e-001	 2.6554403960e+000	 1.6397647898e-001
 3.3570803648e-001	 2.6588949485e+000	 1.7532514877e-001
 3.0945196181e-001	 2.6620784314e+000	 1.8115748044e-001
 2.8325569283e-001	 2.6649930831e+000	 1.7952495712e-001
 2.5712285401e-001	 2.6676411986e+000	 1.6777367277e-001
 5.2603917466e-001	 2.6550624713e+000	-3.6398133209e-003
 4.9920731071e-001	 2.6602379901e+000	 3.9118643698e-002
 4.7240830827e-001	 2.6651275039e+000	 7.7871254625e-002
 4.4564629954e-001	 2.6697328837e+000	 1.1369369235e-001
 4.1892535260e-001	 2.6740560706e+000	 1.4690989954e-001
 3.9224947023e-001	 2.6780990742e+000	 1.7757922291e-001
 3.6562258876e-001	 2.6818639702e+000	 2.0538724644e-001
 3.3904857699e-001	 2.6853528980e+000	 2.2957720388e-001
 3.1253123517e-001	 2.6885680589e+000	 2.4890309459e-001
 2.8607429415e-001	 2.6915117135e+000	 2.6158527940e-001
 2.5968141448e-001	 2.6941861797e+000	 2.6526823606e-001
 5.3122207555e-001	 2.6812219787e+000	-4.0878912674e-002
 5.0412584556e-001	 2.6864484902e+000	 1.3543515436e-002
 4.7706280086e-001	 2.6913861789e+000	 6.2758854756e-002
 4.5003711435e-001	 2.6960369340e+000	 1.0778387233e-001
 4.2305289421e-001	 2.7004027160e+000	 1.4936801714e-001
 3.9611418264e-001	 2.7044855541e+000	 1.8793879559e-001
 3.6922495477e-001	 2.7082875444e+000	 2.2355070156e-001
 3.4238911749e-001	 2.7118108475e+000	 2.5583730061e-001
 3.1561050853e-001	 2.7150576864e+000	 2.8396608144e-001
 2.8889289548e-001	 2.7180303439e+000	 3.0659570428e-001
 2.6223997494e-001	 2.7207311608e+000	 3.2183529548e-001
 5.3640497644e-001	 2.7073814860e+000	-8.2060399921e-002
 5.0904438041e-001	 2.7126589902e+000	-1.8067285528e-002
 4.8171729345e-001	 2.7176448538e+000	 3.9173601605e-002
 4.5442792917e-001	 2.7223409843e+000	 9.0965890660e-002
 4.2718043582e-001	 2.7267493613e+000	 1.3836284466e-001
 3.9997889506e-001	 2.7308720339e+000	 1.8211484982e-001
 3.7282732077e-001	 2.7347111186e+000	 2.2262047547e-001
 3.4572965800e-001	 2.7382687970e+000	 2.5988066579e-001
 3.1868978189e-001	 2.7415473139e+000	 2.9345563942e-001
 2.9171149680e-001	 2.7445489743e+000	 3.2242409232e-001
 2.6479853540e-001	 2.7472761419e+000	 3.4534432085e-001
 5.4158787733e-001	 2.7335409933e+000	-1.1895789084e-001
 5.1396291526e-001	 2.7388694903e+000	-4.7594555493e-002
 4.8637178604e-001	 2.7439035288e+000	 1.5383198483e-002
 4.5881874398e-001	 2.7486450347e+000	 7.1534017912e-002
 4.3130797743e-001	 2.7530960067e+000	 1.2218396418e-001
 4.0384360747e-001	 2.7572585137e+000	 1.6837646883e-001
 3.7642968678e-001	 2.7611346927e+000	 2.1082587190e-001
 3.4907019851e-001	 2.7647267465e+000	 2.4987406304e-001
 3.2176905525e-001	 2.7680369414e+000	 2.8544976243e-001
 2.9453009812e-001	 2.7710676047e+000	 3.1703000011e-001
 2.6735709587e-001	 2.7738211230e+000	 3.4360337628e-001
 5.4677077822e-001	 2.7597005006e+000	-1.4363309356e-001
 5.1888145011e-001	 2.7650799904e+000	-6.7053221602e-002
 4.9102627863e-001	 2.7701622037e+000	-5.8576345074e-004
 4.6320955880e-001	 2.7749490850e+000	 5.7547637694e-002
 4.3543551904e-001	 2.7794426520e+000	 1.0891128663e-001
 4.0770831988e-001	 2.7836449935e+000	 1.5480823225e-001
 3.8003205278e-001	 2.7875582669e+000	 1.9623665446e-001
 3.5241073901e-001	 2.7911846960e+000	 2.3384931813e-001
 3.2484832861e-001	 2.7945265689e+000	 2.6791558964e-001
 2.9734869945e-001	 2.7975862351e+000	 2.9828553525e-001
 2.6991565633e-001	 2.8003661041e+000	 3.2435564780e-001
 5.5195367911e-001	 2.7858600079e+000	-1.4845495741e-001
 5.2379998497e-001	 2.7912904905e+000	-6.8741810172e-002
 4.9568077122e-001	 2.7964208787e+000	-9.6618052477e-004
 4.6760037362e-001	 2.8012531354e+000	 5.6831078616e-002
 4.3956306065e-001	 2.8057892974e+000	 1.0641426872e-001
 4.1157303229e-001	 2.8100314733e+000	 1.4930887905e-001
 3.8363441879e-001	 2.8139818411e+000	 1.8676121477e-001
 3.5575127952e-001	 2.8176426455e+000	 2.1970104937e-001
 3.2792760197e-001	 2.8210161963e+000	 2.4870675285e-001
 3.0016730077e-001	 2.8241048655e+000	 2.7397237338e-001
 2.7247421679e-001	 2.8269110851e+000	 2.9527618002e-001
 5.5713657999e-001	 2.8120195152e+000	-1.2609758115e-001
 5.2871851982e-001	 2.8175009906e+000	-4.5241141408e-002
 5.0033526381e-001	 2.8226795537e+000	 2.1750147448e-002
 4.7199118843e-001	 2.8275571857e+000	 7.6973540458e-002
 4.4369060226e-001	 2.8321359428e+000	 1.2235124289e-001
 4.1543774471e-001	 2.8364179532e+000	 1.5959010101e-001
 3.8723678479e-001	 2.8404054153e+000	 1.9014488712e-001
 3.5909182003e-001	 2.8441005950e+000	 2.1518455889e-001
 3.3100687533e-001	 2.8475058238e+000	 2.3556089791e-001
 3.0298590209e-001	 2.8506234959e+000	 2.5177896065e-001
 2.7503277725e-001	 2.8534560662e+000	 2.6396880859e-001
 2.4944717263e-001	 2.5880062554e+000	 5.5215900806e-002
 2.2415566136e-001	 2.5903193466e+000	 1.6685514263e-002
 1.9893258713e-001	 2.5923783926e+000	-1.0441150644e-002
 1.7378131182e-001	 2.5941857736e+000	-2.8722322191e-002
 1.4870512563e-001	 2.5957439165e+000	-4.1587082892e-002
 1.2370724665e-001	 2.5970552924e+000	-5.3358627032e-002
 9.8790820418e-002	 2.5981224149e+000	-6.9272999209e-002
 7.3958919674e-002	 2.5989478376e+000	-9.5493050185e-002
 4.9214544039e-002	 2.5995341519e+000	-1.3911739128e-001
 2.4560619845e-002	 2.5998839856e+000	-2.0818417353e-001
 0.0000000000e+000	 2.6000000000e+000	-3.1166958202e-001
 2.5200573309e-001	 2.6145512364e+000	 3.0730332495e-002
 2.2645480873e-001	 2.6168880529e+000	-1.2847341322e-002
 2.0097302338e-001	 2.6189682184e+000	-4.6043161429e-002
 1.7556377337e-001	 2.6207941375e+000	-7.0915342667e-002
 1.5023038267e-001	 2.6223682622e+000	-9.0449145496e-002
 1.2497610236e-001	 2.6236930888e+000	-1.0858525505e-001
 9.9804110264e-002	 2.6247711567e+000	-1.3024328216e-001
 7.4717510624e-002	 2.6256050456e+000	-1.6134009685e-001
 4.9719333832e-002	 2.6261973738e+000	-2.0880275298e-001
 2.4812536234e-002	 2.6265507956e+000	-2.8057581109e-001
 0.0000000000e+000	 2.6266680000e+000	-3.8562293350e-001
 2.5456429355e-001	 2.6410962175e+000	 7.0434266846e-002
 2.2875395611e-001	 2.6434567592e+000	 3.6067970599e-002
 2.0301345962e-001	 2.6455580441e+000	 1.2230250939e-002
 1.7734623492e-001	 2.6474025015e+000	-2.6355496609e-003
 1.5175563971e-001	 2.6489926079e+000	-1.1068058474e-002
 1.2624495807e-001	 2.6503308852e+000	-1.6621784520e-002
 1.0081740011e-001	 2.6514198985e+000	-2.3895780226e-002
 7.5476101575e-002	 2.6522622537e+000	-3.8556735472e-002
 5.0224123625e-002	 2.6528605956e+000	-6.7356238526e-002
 2.5064452623e-002	 2.6532176057e+000	-1.1814199018e-001
 0.0000000000e+000	 2.6533360000e+000	-1.9986282718e-001
 2.5712285401e-001	 2.6676411986e+000	 1.6777367277e-001
 2.3105310349e-001	 2.6700254655e+000	 1.5521709396e-001
 2.0505389587e-001	 2.6721478699e+000	 1.5348944177e-001
 1.7912869647e-001	 2.6740108654e+000	 1.6150748637e-001
 1.5328089674e-001	 2.6756169535e+000	 1.7723804798e-001
 1.2751381379e-001	 2.6769686815e+000	 1.9766114326e-001
 1.0183068996e-001	 2.6780686402e+000	 2.1873440276e-001
 7.6234692526e-002	 2.6789194617e+000	 2.3535861209e-001
 5.0728913418e-002	 2.6795238174e+000	 2.4134425348e-001
 2.5316369012e-002	 2.6798844157e+000	 2.2937894839e-001
 0.0000000000e+000	 2.6800040000e+000	 1.9099570844e-001
 2.5968141448e-001	 2.6941861797e+000	 2.6526823606e-001
 2.3335225087e-001	 2.6965941718e+000	 2.6875162121e-001
 2.0709433211e-001	 2.6987376957e+000	 2.8283554656e-001
 1.8091115802e-001	 2.7006192293e+000	 3.0703504555e-001
 1.5480615378e-001	 2.7022412992e+000	 3.3993781575e-001
 1.2878266950e-001	 2.7036064779e+000	 3.7916777472e-001
 1.0284397981e-001	 2.7047173820e+000	 4.2134967429e-001
 7.6993283478e-002	 2.7055766698e+000	 4.6207461427e-001
 5.1233703212e-002	 2.7061870393e+000	 4.9586632328e-001
 2.5568285401e-002	 2.7065512258e+000	 5.1614810072e-001
 0.0000000000e+000	 2.7066720000e+000	 5.1521032542e-001
 2.6223997494e-001	 2.7207311608e+000	 3.2183529548e-001
 2.3565139824e-001	 2.7231628781e+000	 3.3736494636e-001
 2.0913476836e-001	 2.7253275214e+000	 3.6287268614e-001
 1.8269361957e-001	 2.7272275933e+000	 3.9839685298e-001
 1.5633141081e-001	 2.7288656449e+000	 4.4307735014e-001
 1.3005152522e-001	 2.7302442743e+000	 4.9511984118e-001
 1.0385726965e-001	 2.7313661237e+000	 5.5176076504e-001
 7.7751874430e-002	 2.7322338778e+000	 6.0923299986e-001
 5.1738493006e-002	 2.7328502611e+000	 6.6273203344e-001
 2.5820201790e-002	 2.7332180358e+000	 7.0638252769e-001
 0.0000000000e+000	 2.7333400000e+000	 7.3320518022e-001
 2.6479853540e-001	 2.7472761419e+000	 3.4534432085e-001
 2.3795054562e-001	 2.7497315844e+000	 3.6873570173e-001
 2.1117520460e-001	 2.7519173472e+000	 4.0108936576e-001
 1.8447608112e-001	 2.7538359572e+000	 4.4289103022e-001
 1.5785666785e-001	 2.7554899906e+000	 4.9376323060e-001
 1.3132038093e-001	 2.7568820706e+000	 5.5243039961e-001
 1.0487055950e-001	 2.7580148655e+000	 6.1668450092e-001
 7.8510465381e-002	 2.7588910859e+000	 6.8335103343e-001
 5.2243282800e-002	 2.7595134829e+000	 7.4825525386e-001
 2.6072118180e-002	 2.7598848459e+000	 8.0618849759e-001
 0.0000000000e+000	 2.7600080000e+000	 8.5087449859e-001
 2.6735709587e-001	 2.7738211230e+000	 3.4360337628e-001
 2.4024969300e-001	 2.7763002906e+000	 3.7050221510e-001
 2.1321564085e-001	 2.7785071730e+000	 4.0495219554e-001
 1.8625854267e-001	 2.7804443211e+000	 4.4780929433e-001
 1.5938192489e-001	 2.7821143363e+000	 4.9910798182e-001
 1.3258923665e-001	 2.7835198670e+000	 5.5802744455e-001
 1.0588384935e-001	 2.7846636072e+000	 6.2285806977e-001
 7.9269056333e-002	 2.7855482939e+000	 6.9096799403e-001
 5.2748072593e-002	 2.7861767048e+000	 7.5876955267e-001
 2.6324034569e-002	 2.7865516559e+000	 8.2168550251e-001
 0.0000000000e+000	 2.7866760000e+000	 8.7411491581e-001
 2.6991565633e-001	 2.8003661041e+000	 3.2435564780e-001
 2.4254884037e-001	 2.8028689969e+000	 3.5025883001e-001
 2.1525607709e-001	 2.8050969987e+000	 3.8190212152e-001
 1.8804100421e-001	 2.8070526851e+000	 4.2043321886e-001
 1.6090718192e-001	 2.8087386819e+000	 4.6622648499e-001
 1.3385809236e-001	 2.8101576634e+000	 5.1885059087e-001
 1.0689713920e-001	 2.8113123490e+000	 5.7703609784e-001
 8.0027647284e-002	 2.8122055020e+000	 6.3864276817e-001
 5.3252862387e-002	 2.8128399266e+000	 7.0062642929e-001
 2.6575950958e-002	 2.8132184660e+000	 7.5900525550e-001
 0.0000000000e+000	 2.8133440000e+000	 8.0882536248e-001
 2.7247421679e-001	 2.8269110851e+000	 2.9527618002e-001
 2.4484798775e-001	 2.8294377032e+000	 3.1555244243e-001
 2.1729651334e-001	 2.8316868245e+000	 3.3935087473e-001
 1.8982346576e-001	 2.8336610490e+000	 3.6803070881e-001
 1.6243243896e-001	 2.8353630276e+000	 4.0223259293e-001
 1.3512694807e-001	 2.8367954597e+000	 4.4184794414e-001
 1.0791042904e-001	 2.8379610907e+000	 4.8598789102e-001
 8.0786238235e-002	 2.8388627100e+000	 5.3295157828e-001
 5.3757652180e-002	 2.8395031484e+000	 5.8019364681e-001
 2.6827867347e-002	 2.8398852760e+000	 6.2429074408e-001
 0.0000000000e+000	 2.8400120000e+000	 6.6090695679e-001
 2.7503277725e-001	 2.8534560662e+000	 2.6396880859e-001
 2.4714713513e-001	 2.8560064095e+000	 2.7387923991e-001
 2.1933694958e-001	 2.8582766502e+000	 2.8467762432e-001
 1.9160592731e-001	 2.8602694129e+000	 2.9785267568e-001
 1.6395769600e-001	 2.8619873733e+000	 3.1423593573e-001
 1.3639580379e-001	 2.8634332561e+000	 3.3397314617e-001
 1.0892371889e-001	 2.8646098325e+000	 3.5649483008e-001
 8.1544829185e-002	 2.8655199181e+000	 3.8048583774e-001
 5.4262441973e-002	 2.8661663703e+000	 4.0385365739e-001
 2.7079783735e-002	 2.8665520861e+000	 4.2369533666e-001
 0.0000000000e+000	 2.8666800000e+000	 4.3626290272e-001
 2.8666800000e+000	 0.0000000000e+000	 1.2194976922e+000
 2.8665520861e+000	 2.7079783735e-002	 1.2439594760e+000
 2.8661663703e+000	 5.4262441973e-002	 1.2703152914e+000
 2.8655199181e+000	 8.1544829185e-002	 1.2955379928e+000
 2.8646098325e+000	 1.0892371889e-001	 1.3173849833e+000
 2.8634332561e+000	 1.3639580379e-001	 1.3343506452e+000
 2.8619873733e+000	 1.6395769600e-001	 1.3456204611e+000
 2.8602694129e+000	 1.9160592731e-001	 1.3510266141e+000
 2.8582766502e+000	 2.1933694958e-001	 1.3510048047e+000
 2.8560064095e+000	 2.4714713513e-001	 1.3465519673e+000
 2.8534560662e+000	 2.7503277725e-001	 1.3391845054e+000
 2.8933440000e+000	 0.0000000000e+000	 1.4693613250e+000
 2.8932148963e+000	 2.7331662338e-002	 1.4581251973e+000
 2.8928255928e+000	 5.4767156051e-002	 1.4513968700e+000
 2.8921731278e+000	 8.2303306352e-002	 1.4463387877e+000
 2.8912545771e+000	 1.0993685675e-001	 1.4408142073e+000
 2.8900670570e+000	 1.3766446918e-001	 1.4333411639e+000
 2.8886077255e+000	 1.6548272425e-001	 1.4230486892e+000
 2.8868737858e+000	 1.9338812150e-001	 1.4096350601e+000
 2.8848624877e+000	 2.2137707978e-001	 1.3933277924e+000
 2.8825711307e+000	 2.4944593765e-001	 1.3748450380e+000
 2.8799970658e+000	 2.7759095395e-001	 1.3553579756e+000
 2.9200080000e+000	 0.0000000000e+000	 1.6581900622e+000
 2.9198777065e+000	 2.7583540941e-002	 1.6224506205e+000
 2.9194848154e+000	 5.5271870128e-002	 1.5926292816e+000
 2.9188263374e+000	 8.3061783519e-002	 1.5661568204e+000
 2.9178993218e+000	 1.1094999461e-001	 1.5410777509e+000
 2.9167008579e+000	 1.3893313458e-001	 1.5160060482e+000
 2.9152280777e+000	 1.6700775251e-001	 1.4900837186e+000
 2.9134781587e+000	 1.9517031570e-001	 1.4629419791e+000
 2.9114483252e+000	 2.2341720997e-001	 1.4346647422e+000
 2.9091358519e+000	 2.5174474017e-001	 1.4057540342e+000
 2.9065380653e+000	 2.8014913065e-001	 1.3770969083e+000
 2.9466720000e+000	 0.0000000000e+000	 1.7864651952e+000
 2.9465405168e+000	 2.7835419544e-002	 1.7363219717e+000
 2.9461440379e+000	 5.5776584205e-002	 1.6924465782e+000
 2.9454795471e+000	 8.3820260685e-002	 1.6526106255e+000
 2.9445440664e+000	 1.1196313247e-001	 1.6151087120e+000
 2.9433346587e+000	 1.4020179997e-001	 1.5787161434e+000
 2.9418484300e+000	 1.6853278077e-001	 1.5426501290e+000
 2.9400825315e+000	 1.9695250989e-001	 1.5065341996e+000
 2.9380341627e+000	 2.2545734016e-001	 1.4703655204e+000
 2.9357005730e+000	 2.5404354269e-001	 1.4344846993e+000
 2.9330790648e+000	 2.8270730734e-001	 1.3995476152e+000
 2.9733360000e+000	 0.0000000000e+000	 1.8545913442e+000
 2.9732033270e+000	 2.8087298146e-002	 1.7990640739e+000
 2.9728032604e+000	 5.6281298282e-002	 1.7492368870e+000
 2.9721327568e+000	 8.4578737851e-002	 1.7032884034e+000
 2.9711888111e+000	 1.1297627033e-001	 1.6598254557e+000
 2.9699684596e+000	 1.4147046536e-001	 1.6178430681e+000
 2.9684687822e+000	 1.7005780903e-001	 1.5766885756e+000
 2.9666869044e+000	 1.9873470408e-001	 1.5360296115e+000
 2.9646200002e+000	 2.2749747036e-001	 1.4958256123e+000
 2.9622652942e+000	 2.5634234521e-001	 1.4563024094e+000
 2.9596200644e+000	 2.8526548404e-001	 1.4179293959e+000
 3.0000000000e+000	 0.0000000000e+000	 1.8628998652e+000
 2.9998661372e+000	 2.8339176748e-002	 1.8099432113e+000
 2.9994624830e+000	 5.6786012359e-002	 1.7613448012e+000
 2.9987859664e+000	 8.5337215017e-002	 1.7157500002e+000
 2.9978335557e+000	 1.1398940818e-001	 1.6721332385e+000
 2.9966022605e+000	 1.4273913076e-001	 1.6297605307e+000
 2.9950891344e+000	 1.7158283728e-001	 1.5881568383e+000
 2.9932912773e+000	 2.0051689827e-001	 1.5470779816e+000
 2.9912058377e+000	 2.2953760055e-001	 1.5064867270e+000
 2.9888300154e+000	 2.5864114773e-001	 1.4665325841e+000
 2.9861610639e+000	 2.8782366074e-001	 1.4275347640e+000
 3.0266640000e+000	 0.0000000000e+000	 1.8116520772e+000
 3.0265289474e+000	 2.8591055351e-002	 1.7681698420e+000
 3.0261217055e+000	 5.7290726436e-002	 1.7270736440e+000
 3.0254391761e+000	 8.6095692183e-002	 1.6875287829e+000
 3.0244783003e+000	 1.1500254604e-001	 1.6489257462e+000
 3.0232360614e+000	 1.4400779615e-001	 1.6108455751e+000
 3.0217094866e+000	 1.7310786554e-001	 1.5730308112e+000
 3.0198956501e+000	 2.0229909246e-001	 1.5353617162e+000
 3.0177916751e+000	 2.3157773074e-001	 1.4978373565e+000
 3.0153947365e+000	 2.6093995025e-001	 1.4605610570e+000
 3.0127020634e+000	 2.9038183743e-001	 1.4237296340e+000
 3.0533280000e+000	 0.0000000000e+000	 1.7010423203e+000
 3.0531917577e+000	 2.8842933953e-002	 1.6729011681e+000
 3.0527809281e+000	 5.7795440513e-002	 1.6446876142e+000
 3.0520923857e+000	 8.6854169349e-002	 1.6161334148e+000
 3.0511230450e+000	 1.1601568390e-001	 1.5870865490e+000
 3.0498698623e+000	 1.4527646154e-001	 1.5574797556e+000
 3.0483298389e+000	 1.7463289379e-001	 1.5273054339e+000
 3.0465000230e+000	 2.0408128665e-001	 1.4965965754e+000
 3.0443775126e+000	 2.3361786093e-001	 1.4654132916e+000
 3.0419594577e+000	 2.6323875277e-001	 1.4338344054e+000
 3.0392430630e+000	 2.9294001413e-001	 1.4019534708e+000
 3.0799920000e+000	 0.0000000000e+000	 1.5312008551e+000
 3.0798545679e+000	 2.9094812556e-002	 1.5232435729e+000
 3.0794401506e+000	 5.8300154590e-002	 1.5124138196e+000
 3.0787455954e+000	 8.7612646515e-002	 1.4990495390e+000
 3.0777677896e+000	 1.1702882176e-001	 1.4834904791e+000
 3.0765036632e+000	 1.4654512693e-001	 1.4660502498e+000
 3.0749501911e+000	 1.7615792205e-001	 1.4469955690e+000
 3.0731043959e+000	 2.0586348084e-001	 1.4265323403e+000
 3.0709633501e+000	 2.3565799112e-001	 1.4047980979e+000
 3.0685241789e+000	 2.6553755529e-001	 1.3818602444e+000
 3.0657840625e+000	 2.9549819082e-001	 1.3577194048e+000
 3.1066560000e+000	 0.0000000000e+000	 1.3021966124e+000
 3.1065173781e+000	 2.9346691158e-002	 1.3182549324e+000
 3.1060993732e+000	 5.8804868668e-002	 1.3284442063e+000
 3.1053988051e+000	 8.8371123681e-002	 1.3337413740e+000
 3.1044125343e+000	 1.1804195962e-001	 1.3350049368e+000
 3.1031374641e+000	 1.4781379233e-001	 1.3329509093e+000
 3.1015705433e+000	 1.7768295031e-001	 1.3281368284e+000
 3.0997087687e+000	 2.0764567503e-001	 1.3209534380e+000
 3.0975491876e+000	 2.3769812132e-001	 1.3116235530e+000
 3.0950889001e+000	 2.6783635781e-001	 1.3002074862e+000
 3.0923250620e+000	 2.9805636752e-001	 1.2866143138e+000
 3.1333200000e+000	 0.0000000000e+000	 1.0140398028e+000
 3.1331801883e+000	 2.9598569761e-002	 1.0569468083e+000
 3.1327585957e+000	 5.9309582745e-002	 1.0909373887e+000
 3.1320520147e+000	 8.9129600848e-002	 1.1176532273e+000
 3.1310572789e+000	 1.1905509748e-001	 1.1384911274e+000
 3.1297712650e+000	 1.4908245772e-001	 1.1545832548e+000
 3.1281908955e+000	 1.7920797856e-001	 1.1667863530e+000
 3.1263131416e+000	 2.0942786922e-001	 1.1756795250e+000
 3.1241350251e+000	 2.3973825151e-001	 1.1815700486e+000
 3.1216536212e+000	 2.7013516033e-001	 1.1845065665e+000
 3.1188660616e+000	 3.0061454421e-001	 1.1842988746e+000
 2.8534560662e+000	 2.7503277725e-001	 1.3391845054e+000
 2.8506234959e+000	 3.0298590209e-001	 1.3315671728e+000
 2.8475058238e+000	 3.3100687533e-001	 1.3243662230e+000
 2.8441005950e+000	 3.5909182003e-001	 1.3167034651e+000
 2.8404054153e+000	 3.8723678479e-001	 1.3079820498e+000
 2.8364179532e+000	 4.1543774471e-001	 1.2978450464e+000
 2.8321359428e+000	 4.4369060226e-001	 1.2861313945e+000
 2.8275571857e+000	 4.7199118843e-001	 1.2728284899e+000
 2.8226795537e+000	 5.0033526381e-001	 1.2580206349e+000
 2.8175009906e+000	 5.2871851982e-001	 1.2418325468e+000
 2.8120195152e+000	 5.5713657999e-001	 1.2243671001e+000
 2.8799970658e+000	 2.7759095395e-001	 1.3553579756e+000
 2.8771381487e+000	 3.0580408065e-001	 1.3369720093e+000
 2.8739914781e+000	 3.3408568682e-001	 1.3201089391e+000
 2.8705545760e+000	 3.6243185948e-001	 1.3039427557e+000
 2.8668250261e+000	 3.9083861047e-001	 1.2878889305e+000
 2.8628004752e+000	 4.1930187744e-001	 1.2715681843e+000
 2.8584786363e+000	 4.4781752477e-001	 1.2547677895e+000
 2.8538572906e+000	 4.7638134466e-001	 1.2373996076e+000
 2.8489342900e+000	 5.0498905826e-001	 1.2194540216e+000
 2.8437075593e+000	 5.3363631693e-001	 1.2009488900e+000
 2.8381750988e+000	 5.6231870349e-001	 1.1818726233e+000
 2.9065380653e+000	 2.8014913065e-001	 1.3770969083e+000
 2.9036528015e+000	 3.0862225920e-001	 1.3502949877e+000
 2.9004771323e+000	 3.3716449831e-001	 1.3255828005e+000
 2.8970085570e+000	 3.6577189893e-001	 1.3022474880e+000
 2.8932446369e+000	 3.9444043615e-001	 1.2797775867e+000
 2.8891829973e+000	 4.2316601018e-001	 1.2578324189e+000
 2.8848213299e+000	 4.5194444728e-001	 1.2362091878e+000
 2.8801573956e+000	 4.8077150089e-001	 1.2148069099e+000
 2.8751890264e+000	 5.0964285272e-001	 1.1935862761e+000
 2.8699141281e+000	 5.3855411404e-001	 1.1725244922e+000
 2.8643306824e+000	 5.6750082698e-001	 1.1515641259e+000
 2.9330790648e+000	 2.8270730734e-001	 1.3995476152e+000
 2.9301674543e+000	 3.1144043775e-001	 1.3666949357e+000
 2.9269627865e+000	 3.4024330980e-001	 1.3360181467e+000
 2.9234625380e+000	 3.6911193838e-001	 1.3069698579e+000
 2.9196642478e+000	 3.9804226183e-001	 1.2791636960e+000
 2.9155655193e+000	 4.2703014291e-001	 1.2523497838e+000
 2.9111640234e+000	 4.5607136979e-001	 1.2263881016e+000
 2.9064575005e+000	 4.8516165711e-001	 1.2012187957e+000
 2.9014437627e+000	 5.1429664717e-001	 1.1768284473e+000
 2.8961206968e+000	 5.4347191115e-001	 1.1532112794e+000
 2.8904862660e+000	 5.7268295047e-001	 1.1303242431e+000
 2.9596200644e+000	 2.8526548404e-001	 1.4179293959e+000
 2.9566821071e+000	 3.1425861630e-001	 1.3814164077e+000
 2.9534484408e+000	 3.4332212130e-001	 1.3467432162e+000
 2.9499165190e+000	 3.7245197783e-001	 1.3135714586e+000
 2.9460838586e+000	 4.0164408750e-001	 1.2816830539e+000
 2.9419480414e+000	 4.3089427565e-001	 1.2509622712e+000
 2.9375067170e+000	 4.6019829230e-001	 1.2213758677e+000
 2.9327576054e+000	 4.8955181334e-001	 1.1929502870e+000
 2.9276984991e+000	 5.1895044162e-001	 1.1657448558e+000
 2.9223272655e+000	 5.4838970826e-001	 1.1398198697e+000
 2.9166418496e+000	 5.7786507396e-001	 1.1151984269e+000
 2.9861610639e+000	 2.8782366074e-001	 1.4275347640e+000
 2.9831967599e+000	 3.1707679486e-001	 1.3897897195e+000
 2.9799340950e+000	 3.4640093279e-001	 1.3531839685e+000
 2.9763705001e+000	 3.7579201728e-001	 1.3176228598e+000
 2.9725034694e+000	 4.0524591318e-001	 1.2830908715e+000
 2.9683305634e+000	 4.3475840838e-001	 1.2496408028e+000
 2.9638494106e+000	 4.6432521481e-001	 1.2173812348e+000
 2.9590577103e+000	 4.9394196957e-001	 1.1864611726e+000
 2.9539532354e+000	 5.2360423607e-001	 1.1570507219e+000
 2.9485338342e+000	 5.5330750536e-001	 1.1293166078e+000
 2.9427974332e+000	 5.8304719746e-001	 1.1033912991e+000
 3.0127020634e+000	 2.9038183743e-001	 1.4237296340e+000
 3.0097114127e+000	 3.1989497341e-001	 1.3872309446e+000
 3.0064197492e+000	 3.4947974428e-001	 1.3508638668e+000
 3.0028244811e+000	 3.7913205673e-001	 1.3148031477e+000
 2.9989230803e+000	 4.0884773886e-001	 1.2792610337e+000
 2.9947130855e+000	 4.3862254111e-001	 1.2444841589e+000
 2.9901921041e+000	 4.6845213732e-001	 1.2107489117e+000
 2.9853578153e+000	 4.9833212579e-001	 1.1783541103e+000
 2.9802079718e+000	 5.2825803052e-001	 1.1476097533e+000
 2.9747404029e+000	 5.5822530247e-001	 1.1188205599e+000
 2.9689530167e+000	 5.8822932095e-001	 1.0922629695e+000
 3.0392430630e+000	 2.9294001413e-001	 1.4019534708e+000
 3.0362260655e+000	 3.2271315196e-001	 1.3692418740e+000
 3.0329054035e+000	 3.5255855577e-001	 1.3354036256e+000
 3.0292784621e+000	 3.8247209617e-001	 1.3008994275e+000
 3.0253426911e+000	 4.1244956453e-001	 1.2661853190e+000
 3.0210956075e+000	 4.4248667385e-001	 1.2317178699e+000
 3.0165347977e+000	 4.7257905983e-001	 1.1979580748e+000
 3.0116579202e+000	 5.0272228202e-001	 1.1653726913e+000
 3.0064627082e+000	 5.3291182497e-001	 1.1344316953e+000
 3.0009469717e+000	 5.6314309958e-001	 1.1056004738e+000
 2.9951086003e+000	 5.9341144444e-001	 1.0793253211e+000
 3.0657840625e+000	 2.9549819082e-001	 1.3577194048e+000
 3.0627407183e+000	 3.2553133051e-001	 1.3314099418e+000
 3.0593910577e+000	 3.5563736725e-001	 1.3025209222e+000
 3.0557324431e+000	 3.8581213562e-001	 1.2718062917e+000
 3.0517623019e+000	 4.1605139021e-001	 1.2399725847e+000
 3.0474781295e+000	 4.4635080658e-001	 1.2076930716e+000
 3.0428774912e+000	 4.7670598234e-001	 1.1756208408e+000
 3.0379580251e+000	 5.0711243824e-001	 1.1443994672e+000
 3.0327174445e+000	 5.3756561942e-001	 1.1146698457e+000
 3.0271535404e+000	 5.6806089669e-001	 1.0870717054e+000
 3.0212641839e+000	 5.9859356793e-001	 1.0622382659e+000
 3.0923250620e+000	 2.9805636752e-001	 1.2866143138e+000
 3.0892553711e+000	 3.2834950906e-001	 1.2694081184e+000
 3.0858767119e+000	 3.5871617874e-001	 1.2480300782e+000
 3.0821864241e+000	 3.8915217507e-001	 1.2235252556e+000
 3.0781819128e+000	 4.1965321588e-001	 1.1968479185e+000
 3.0738606516e+000	 4.5021493931e-001	 1.1688853271e+000
 3.0692201848e+000	 4.8083290485e-001	 1.1404807041e+000
 3.0642581301e+000	 5.1150259447e-001	 1.1124539438e+000
 3.0589721809e+000	 5.4221941387e-001	 1.0856185361e+000
 3.0533601091e+000	 5.7297869379e-001	 1.0607931130e+000
 3.0474197675e+000	 6.0377569142e-001	 1.0388059708e+000
 3.1188660616e+000	 3.0061454421e-001	 1.1842988746e+000
 3.1157700239e+000	 3.3116768761e-001	 1.1789947743e+000
 3.1123623662e+000	 3.6179499023e-001	 1.1678417087e+000
 3.1086404051e+000	 3.9249221452e-001	 1.1521641622e+000
 3.1046015236e+000	 4.2325504155e-001	 1.1331517588e+000
 3.1002431736e+000	 4.5407907204e-001	 1.1118934157e+000
 3.0955628784e+000	 4.8495982735e-001	 1.0894109425e+000
 3.0905582350e+000	 5.1589275069e-001	 1.0666905427e+000
 3.0852269172e+000	 5.4687320832e-001	 1.0447105820e+000
 3.0795666778e+000	 5.7789649090e-001	 1.0244639229e+000
 3.0735753511e+000	 6.0895781491e-001	 1.0069730571e+000
 2.8120195152e+000	 5.5713657999e-001	 1.2243671001e+000
 2.8062323324e+000	 5.8558927002e-001	 1.2015184114e+000
 2.8001384177e+000	 6.1406781368e-001	 1.1702343692e+000
 2.7937360289e+000	 6.4256763062e-001	 1.1318831887e+000
 2.7870235076e+000	 6.7108407844e-001	 1.0875663105e+000
 2.7799992815e+000	 6.9961245439e-001	 1.0450266815e+000
 2.7726618660e+000	 7.2814799717e-001	 1.0068291025e+000
 2.7650098669e+000	 7.5668588880e-001	 9.7077837808e-001
 2.7570419823e+000	 7.8522125655e-001	 9.3463492654e-001
 2.7487570045e+000	 8.1374917503e-001	 8.9610715734e-001
 2.7401538221e+000	 8.4226466823e-001	 8.5284264494e-001
 2.8381750988e+000	 5.6231870349e-001	 1.1818726233e+000
 2.8323340874e+000	 5.9103604200e-001	 1.1571160931e+000
 2.8261834910e+000	 6.1977947462e-001	 1.1230309176e+000
 2.8197215513e+000	 6.4854437840e-001	 1.0814854236e+000
 2.8129465945e+000	 6.7732606774e-001	 1.0348188526e+000
 2.8058570336e+000	 7.0611979615e-001	 9.9248776936e-001
 2.7984513702e+000	 7.3492075806e-001	 9.5504773624e-001
 2.7907281972e+000	 7.6372409067e-001	 9.2025788248e-001
 2.7826862005e+000	 7.9252487593e-001	 8.8582455610e-001
 2.7743241612e+000	 8.2131814262e-001	 8.4939471663e-001
 2.7656409576e+000	 8.5009886846e-001	 8.0854803336e-001
 2.8643306824e+000	 5.6750082698e-001	 1.1515641259e+000
 2.8584358423e+000	 5.9648281398e-001	 1.1246100371e+000
 2.8522285643e+000	 6.2549113556e-001	 1.0873979302e+000
 2.8457070738e+000	 6.5452112617e-001	 1.0423147066e+000
 2.8388696815e+000	 6.8356805703e-001	 9.9358023846e-001
 2.8317147857e+000	 7.1262713792e-001	 9.5106053342e-001
 2.8242408744e+000	 7.4169351896e-001	 9.1383334769e-001
 2.8164465275e+000	 7.7076229254e-001	 8.7965729390e-001
 2.8083304187e+000	 7.9982849530e-001	 8.4623076062e-001
 2.7998913179e+000	 8.2888711020e-001	 8.1118632936e-001
 2.7911280930e+000	 8.5793306869e-001	 7.7208379593e-001
 2.8904862660e+000	 5.7268295047e-001	 1.1303242431e+000
 2.8845375973e+000	 6.0192958596e-001	 1.1011087781e+000
 2.8782736376e+000	 6.3120279650e-001	 1.0606716794e+000
 2.8716925962e+000	 6.6049787394e-001	 1.0119308415e+000
 2.8647927684e+000	 6.8981004632e-001	 9.6162058034e-001
 2.8575725378e+000	 7.1913447968e-001	 9.1866247380e-001
 2.8500303787e+000	 7.4846627985e-001	 8.8125294214e-001
 2.8421648578e+000	 7.7780049441e-001	 8.4719252504e-001
 2.8339746369e+000	 8.0713211467e-001	 8.1421510363e-001
 2.8254584746e+000	 8.3645607779e-001	 7.7998335743e-001
 2.8166152285e+000	 8.6576726892e-001	 7.4208271374e-001
 2.9166418496e+000	 5.7786507396e-001	 1.1151984269e+000
 2.9106393523e+000	 6.0737635794e-001	 1.0838859509e+000
 2.9043187109e+000	 6.3691445745e-001	 1.0403534025e+000
 2.8976781186e+000	 6.6647462171e-001	 9.8805594218e-001
 2.8907158553e+000	 6.9605203562e-001	 9.3685339293e-001
 2.8834302899e+000	 7.2564182144e-001	 8.9335902914e-001
 2.8758198829e+000	 7.5523904074e-001	 8.5552547780e-001
 2.8678831881e+000	 7.8483869628e-001	 8.2123497239e-001
 2.8596188551e+000	 8.1443573404e-001	 7.8829772184e-001
 2.8510256313e+000	 8.4402504538e-001	 7.5444842950e-001
 2.8421023640e+000	 8.7360146914e-001	 7.1734118194e-001
 2.9427974332e+000	 5.8304719746e-001	 1.1033912991e+000
 2.9367411072e+000	 6.1282312992e-001	 1.0703758894e+000
 2.9303637842e+000	 6.4262611839e-001	 1.0241040889e+000
 2.9236636411e+000	 6.7245136949e-001	 9.6885922512e-001
 2.9166389422e+000	 7.0229402491e-001	 9.1733300366e-001
 2.9092880420e+000	 7.3214916321e-001	 8.7336061277e-001
 2.9016093871e+000	 7.6201180164e-001	 8.3501850683e-001
 2.8936015184e+000	 7.9187689815e-001	 8.0030773864e-001
 2.8852630733e+000	 8.2173935342e-001	 7.6715310242e-001
 2.8765927880e+000	 8.5159401296e-001	 7.3340074401e-001
 2.8675894995e+000	 8.8143566937e-001	 6.9681400676e-001
 2.9689530167e+000	 5.8822932095e-001	 1.0922629695e+000
 2.9628428622e+000	 6.1826990190e-001	 1.0581691944e+000
 2.9564088576e+000	 6.4833777933e-001	 1.0097392416e+000
 2.9496491635e+000	 6.7842811726e-001	 9.5270765624e-001
 2.9425620291e+000	 7.0853601420e-001	 9.0125194237e-001
 2.9351457942e+000	 7.3865650497e-001	 8.5701963140e-001
 2.9273988914e+000	 7.6878456253e-001	 8.1824480238e-001
 2.9193198487e+000	 7.9891510002e-001	 7.8308184443e-001
 2.9109072915e+000	 8.2904297279e-001	 7.4960585356e-001
 2.9021599447e+000	 8.5916298055e-001	 7.1581137008e-001
 2.8930766349e+000	 8.8926986960e-001	 6.7960920593e-001
 2.9951086003e+000	 5.9341144444e-001	 1.0793253211e+000
 2.9889446171e+000	 6.2371667388e-001	 1.0450082739e+000
 2.9824539309e+000	 6.5404944027e-001	 9.9522361277e-001
 2.9756346860e+000	 6.8440486503e-001	 9.3776901829e-001
 2.9684851161e+000	 7.1477800350e-001	 8.8693831151e-001
 2.9610035463e+000	 7.4516384673e-001	 8.4282748745e-001
 2.9531883956e+000	 7.7555732342e-001	 8.0385897220e-001
 2.9450381790e+000	 8.0595330189e-001	 7.6837243018e-001
 2.9365515097e+000	 8.3634659216e-001	 7.3462646887e-001
 2.9277271014e+000	 8.6673194813e-001	 7.0079854656e-001
 2.9185637704e+000	 8.9710406983e-001	 6.6498281192e-001
 3.0212641839e+000	 5.9859356793e-001	 1.0622382659e+000
 3.0150463721e+000	 6.2916344586e-001	 1.0287828549e+000
 3.0084990042e+000	 6.5976110121e-001	 9.7866591522e-001
 3.0016202084e+000	 6.9038161280e-001	 9.2233989884e-001
 2.9944082030e+000	 7.2101999279e-001	 8.7285313827e-001
 2.9868612984e+000	 7.5167118849e-001	 8.2941156596e-001
 2.9789778998e+000	 7.8233008431e-001	 7.9065405985e-001
 2.9707565093e+000	 8.1299150376e-001	 7.5513494859e-001
 2.9621957279e+000	 8.4365021153e-001	 7.2132708597e-001
 2.9532942581e+000	 8.7430091572e-001	 6.8762297912e-001
 2.9440509059e+000	 9.0493827006e-001	 6.5233367808e-001
 3.0474197675e+000	 6.0377569142e-001	 1.0388059708e+000
 3.0411481271e+000	 6.3461021783e-001	 1.0075254710e+000
 3.0345440775e+000	 6.6547276215e-001	 9.5831351201e-001
 3.0276057309e+000	 6.9635836057e-001	 9.0484380262e-001
 3.0203312899e+000	 7.2726198208e-001	 8.5758770956e-001
 3.0127190505e+000	 7.5817853025e-001	 8.1553220705e-001
 3.0047674041e+000	 7.8910284520e-001	 7.7755813406e-001
 2.9964748396e+000	 8.2002970563e-001	 7.4246134827e-001
 2.9878399461e+000	 8.5095383090e-001	 7.0895723948e-001
 2.9788614148e+000	 8.8186988331e-001	 6.7568313580e-001
 2.9695380413e+000	 9.1277247028e-001	 6.4119828743e-001
 3.0735753511e+000	 6.0895781491e-001	 1.0069730571e+000
 3.0672498820e+000	 6.4005698981e-001	 9.7940692571e-001
 3.0605891508e+000	 6.7118442308e-001	 9.3274575193e-001
 3.0535912533e+000	 7.0233510834e-001	 8.8382881228e-001
 3.0462543768e+000	 7.3350397137e-001	 8.3986089098e-001
 3.0385768026e+000	 7.6468587201e-001	 8.0007966476e-001
 3.0305569083e+000	 7.9587560609e-001	 7.6363086712e-001
 3.0221931699e+000	 8.2706790750e-001	 7.2957624913e-001
 3.0134841643e+000	 8.5825745028e-001	 6.9689960896e-001
 3.0044285715e+000	 8.8943885089e-001	 6.6451054073e-001
 2.9950251768e+000	 9.2060667051e-001	 6.3124556391e-001
 2.7401538221e+000	 8.4226466823e-001	 8.5284264494e-001
 2.7312314211e+000	 8.7076271134e-001	 8.0296004154e-001
 2.7219888849e+000	 8.9923823169e-001	 7.4718852552e-001
 2.7124253981e+000	 9.2768611232e-001	 6.8697773348e-001
 2.7025402488e+000	 9.5610119473e-001	 6.2367705750e-001
 2.6923328307e+000	 9.8447828143e-001	 5.5851228912e-001
 2.6818026442e+000	 1.0128121385e+000	 4.9255363152e-001
 2.6709492982e+000	 1.0410974981e+000	 4.2671691276e-001
 2.6597725119e+000	 1.0693290614e+000	 3.6241058484e-001
 2.6482721155e+000	 1.0975015011e+000	 3.0276277568e-001
 2.6364480523e+000	 1.1256094643e+000	 2.4788692883e-001
 2.7656409576e+000	 8.5009886846e-001	 8.0854803336e-001
 2.7566355662e+000	 8.7886198190e-001	 7.6117275284e-001
 2.7473070619e+000	 9.0760236309e-001	 7.0789853565e-001
 2.7376546217e+000	 9.3631484747e-001	 6.5029740923e-001
 2.7276775272e+000	 9.6499422857e-001	 5.8983889016e-001
 2.7173751663e+000	 9.9363526055e-001	 5.2786648419e-001
 2.7067470348e+000	 1.0222326608e+000	 4.6556621013e-001
 2.6957927380e+000	 1.0507811125e+000	 4.0396379936e-001
 2.6845119925e+000	 1.0792752675e+000	 3.4385364130e-001
 2.6729046269e+000	 1.1077097490e+000	 2.8579633425e-001
 2.6609705839e+000	 1.1360791543e+000	 2.3049557415e-001
 2.7911280930e+000	 8.5793306869e-001	 7.7208379593e-001
 2.7820397112e+000	 8.8696125246e-001	 7.2662032882e-001
 2.7726252389e+000	 9.1596649450e-001	 6.7530782749e-001
 2.7628838453e+000	 9.4494358263e-001	 6.1980363527e-001
 2.7528148056e+000	 9.7388726241e-001	 5.6166110857e-001
 2.7424175019e+000	 1.0027922397e+000	 5.0230605849e-001
 2.7316914254e+000	 1.0316531831e+000	 4.4300578818e-001
 2.7206361779e+000	 1.0604647269e+000	 3.8486263676e-001
 2.7092514731e+000	 1.0892214736e+000	 3.2874740265e-001
 2.6975371383e+000	 1.1179179968e+000	 2.7529241125e-001
 2.6854931155e+000	 1.1465488442e+000	 2.2484855519e-001
 2.8166152285e+000	 8.6576726892e-001	 7.4208271374e-001
 2.8074438563e+000	 8.9506052302e-001	 6.9806235965e-001
 2.7979434159e+000	 9.2433062590e-001	 6.4830364927e-001
 2.7881130690e+000	 9.5357231778e-001	 5.9451230147e-001
 2.7779520840e+000	 9.8278029625e-001	 5.3828945869e-001
 2.7674598375e+000	 1.0119492188e+000	 4.8110172582e-001
 2.7566358160e+000	 1.0410737054e+000	 4.2428288195e-001
 2.7454796177e+000	 1.0701483413e+000	 3.6895980999e-001
 2.7339909537e+000	 1.0991676797e+000	 3.1605431212e-001
 2.7221696496e+000	 1.1281262447e+000	 2.6623987909e-001
 2.7100156471e+000	 1.1570185342e+000	 2.1990501413e-001
 2.8421023640e+000	 8.7360146914e-001	 7.1734118194e-001
 2.8328480014e+000	 9.0315979358e-001	 6.7442388080e-001
 2.8232615929e+000	 9.3269475730e-001	 6.2593978627e-001
 2.8133422926e+000	 9.6220105294e-001	 5.7360616171e-001
 2.8030893623e+000	 9.9167333009e-001	 5.1903609094e-001
 2.7925021731e+000	 1.0211061979e+000	 4.6370944884e-001
 2.7815802066e+000	 1.0504942277e+000	 4.0897106713e-001
 2.7703230575e+000	 1.0798319557e+000	 3.5596185289e-001
 2.7587304343e+000	 1.1091138858e+000	 3.0561615076e-001
 2.7468021610e+000	 1.1383344926e+000	 2.5861877718e-001
 2.7345381787e+000	 1.1674882241e+000	 2.1536732648e-001
 2.8675894995e+000	 8.8143566937e-001	 6.9681400676e-001
 2.8582521465e+000	 9.1125906414e-001	 6.5478963994e-001
 2.8485797698e+000	 9.4105888870e-001	 6.0743028336e-001
 2.8385715162e+000	 9.7082978809e-001	 5.5642799904e-001
 2.8282266407e+000	 1.0005663639e+000	 5.0337215661e-001
 2.8175445086e+000	 1.0302631770e+000	 4.4972135128e-001
 2.8065245973e+000	 1.0599147500e+000	 3.9679840985e-001
 2.7951664974e+000	 1.0895155700e+000	 3.4572628621e-001
 2.7834699149e+000	 1.1190600919e+000	 2.9742134405e-001
 2.7714346724e+000	 1.1485427405e+000	 2.5255060791e-001
 2.7590607103e+000	 1.1779579140e+000	 2.1149307015e-001
 2.8930766349e+000	 8.8926986960e-001	 6.7960920593e-001
 2.8836562915e+000	 9.1935833470e-001	 6.3839837270e-001
 2.8738979468e+000	 9.4942302010e-001	 5.9214318160e-001
 2.8638007399e+000	 9.7945852325e-001	 5.4247381014e-001
 2.8533639191e+000	 1.0094593978e+000	 4.9092042851e-001
 2.8425868442e+000	 1.0394201561e+000	 4.3888608503e-001
 2.8314689879e+000	 1.0693352723e+000	 3.8763893071e-001
 2.8200099372e+000	 1.0991991844e+000	 3.3825249212e-001
 2.8082093955e+000	 1.1290062980e+000	 2.9159524197e-001
 2.7960671837e+000	 1.1587509884e+000	 2.4828801875e-001
 2.7835832419e+000	 1.1884276040e+000	 2.0866435193e-001
 2.9185637704e+000	 8.9710406983e-001	 6.6498281192e-001
 2.9090604366e+000	 9.2745760526e-001	 6.2463708664e-001
 2.8992161238e+000	 9.5778715150e-001	 5.7959426828e-001
 2.8890299635e+000	 9.8808725840e-001	 5.3138600803e-001
 2.8785011975e+000	 1.0183524316e+000	 4.8144242864e-001
 2.8676291798e+000	 1.0485771352e+000	 4.3109358152e-001
 2.8564133785e+000	 1.0787557946e+000	 3.8150409962e-001
 2.8448533770e+000	 1.1088827988e+000	 3.3367262317e-001
 2.8329488761e+000	 1.1389525041e+000	 2.8839043623e-001
 2.8206996951e+000	 1.1689592362e+000	 2.4620452395e-001
 2.8081057735e+000	 1.1988972939e+000	 2.0737693153e-001
 2.9440509059e+000	 9.0493827006e-001	 6.5233367808e-001
 2.9344645817e+000	 9.3555687582e-001	 6.1303535298e-001
 2.9245343008e+000	 9.6615128290e-001	 5.6944083943e-001
 2.9142591871e+000	 9.9671599356e-001	 5.2294664182e-001
 2.9036384759e+000	 1.0272454655e+000	 4.7485388000e-001
 2.8926715154e+000	 1.0577341144e+000	 4.2636715063e-001
 2.8813577691e+000	 1.0881763169e+000	 3.7853435982e-001
 2.8696968168e+000	 1.1185664132e+000	 3.3224254345e-001
 2.8576883567e+000	 1.1488987102e+000	 2.8817711256e-001
 2.8453322065e+000	 1.1791674841e+000	 2.4678426351e-001
 2.8326283051e+000	 1.2093669839e+000	 2.0822938455e-001
 2.9695380413e+000	 9.1277247028e-001	 6.4119828743e-001
 2.9598687268e+000	 9.4365614638e-001	 6.0325960563e-001
 2.9498524778e+000	 9.7451541430e-001	 5.6147547415e-001
 2.9394884108e+000	 1.0053447287e+000	 5.1707063261e-001
 2.9287757543e+000	 1.0361384993e+000	 4.7118205219e-001
 2.9177138510e+000	 1.0668910935e+000	 4.2485560360e-001
 2.9063021597e+000	 1.0975968391e+000	 3.7899067906e-001
 2.8945402567e+000	 1.1282500276e+000	 3.3433280010e-001
 2.8824278373e+000	 1.1588449163e+000	 2.9143343591e-001
 2.8699647178e+000	 1.1893757320e+000	 2.5061179713e-001
 2.8571508367e+000	 1.2198366738e+000	 2.1191230195e-001
 2.9950251768e+000	 9.2060667051e-001	 6.3124556391e-001
 2.9852728719e+000	 9.5175541694e-001	 5.9510744705e-001
 2.9751706548e+000	 9.8287954570e-001	 5.5561981997e-001
 2.9647176344e+000	 1.0139734639e+000	 5.1379352256e-001
 2.9539130326e+000	 1.0450315331e+000	 4.7058285005e-001
 2.9427561866e+000	 1.0760480726e+000	 4.2682539828e-001
 2.9312465504e+000	 1.1070173614e+000	 3.8324612656e-001
 2.9193836965e+000	 1.1379336420e+000	 3.4041962329e-001
 2.9071673179e+000	 1.1687911224e+000	 2.9873596657e-001
 2.8945972292e+000	 1.1995839799e+000	 2.5836193103e-001
 2.8816733683e+000	 1.2303063637e+000	 2.1919752390e-001
 2.6364480523e+000	 1.1256094643e+000	 2.4788692883e-001
 2.6243022261e+000	 1.1536433759e+000	 1.9737286356e-001
 2.6118330614e+000	 1.1816020650e+000	 1.5033769015e-001
 2.5990408487e+000	 1.2094801237e+000	 1.0533336704e-001
 2.5859259956e+000	 1.2372721302e+000	 6.0517497632e-002
 2.5724890275e+000	 1.2649726523e+000	 1.3666630246e-002
 2.5587305887e+000	 1.2925762503e+000	-3.7806694290e-002
 2.5446514432e+000	 1.3200774803e+000	-9.6833230903e-002
 2.5302524749e+000	 1.3474708973e+000	-1.6388783164e-001
 2.5155346883e+000	 1.3747510586e+000	-2.2671989198e-001
 2.5004992089e+000	 1.4019125270e+000	-2.8585094202e-001
 2.6609705839e+000	 1.1360791543e+000	 2.3049557415e-001
 2.6487117851e+000	 1.1643738191e+000	 1.8032535189e-001
 2.6361266403e+000	 1.1925925618e+000	 1.3441812814e-001
 2.6232154428e+000	 1.2207299242e+000	 9.1001871855e-002
 2.6099786037e+000	 1.2487804339e+000	 4.7870990841e-002
 2.5964166536e+000	 1.2767386083e+000	 2.4012667264e-003
 2.5825302428e+000	 1.3045989571e+000	-4.8431192114e-002
 2.5683201422e+000	 1.3323559857e+000	-1.0802707065e-001
 2.5537872440e+000	 1.3600041986e+000	-1.6991994019e-001
 2.5389325621e+000	 1.3875381023e+000	-2.2608611988e-001
 2.5237572325e+000	 1.4149522090e+000	-2.7992656700e-001
 2.6854931155e+000	 1.1465488442e+000	 2.2484855519e-001
 2.6731213441e+000	 1.1751042623e+000	 1.7687945061e-001
 2.6604202192e+000	 1.2035830587e+000	 1.3039302055e-001
 2.6473900368e+000	 1.2319797246e+000	 8.6245846036e-002
 2.6340312119e+000	 1.2602887376e+000	 4.2389214219e-002
 2.6203442798e+000	 1.2885045643e+000	-4.1478604774e-003
 2.6063298969e+000	 1.3166216639e+000	-5.6772459944e-002
 2.5919888412e+000	 1.3446344912e+000	-1.1742441512e-001
 2.5773220132e+000	 1.3725374998e+000	-1.7321851470e-001
 2.5623304359e+000	 1.4003251459e+000	-2.2408768408e-001
 2.5470152560e+000	 1.4279918910e+000	-2.7388609430e-001
 2.7100156471e+000	 1.1570185342e+000	 2.1990501413e-001
 2.6975309030e+000	 1.1858347055e+000	 1.7615436498e-001
 2.6847137981e+000	 1.2145735555e+000	 1.3309881030e-001
 2.6715646308e+000	 1.2432295251e+000	 8.9072377658e-002
 2.6580838200e+000	 1.2717970413e+000	 4.2523508171e-002
 2.6442719060e+000	 1.3002705204e+000	-7.2747750771e-003
 2.6301295510e+000	 1.3286443707e+000	-6.3849616198e-002
 2.6156575402e+000	 1.3569129966e+000	-1.2303195176e-001
 2.6008567823e+000	 1.3850708010e+000	-1.7400796238e-001
 2.5857283097e+000	 1.4131121895e+000	-2.2081918871e-001
 2.5702732795e+000	 1.4410315730e+000	-2.6769639705e-001
 2.7345381787e+000	 1.1674882241e+000	 2.1536732648e-001
 2.7219404620e+000	 1.1965651487e+000	 1.7456424697e-001
 2.7090073770e+000	 1.2255640523e+000	 1.3384912816e-001
 2.6957392248e+000	 1.2544793256e+000	 9.1449694292e-002
 2.6821364282e+000	 1.2833053451e+000	 4.5083035595e-002
 2.6681995322e+000	 1.3120364764e+000	-8.0932500275e-003
 2.6539292051e+000	 1.3406670775e+000	-6.9645355128e-002
 2.6393262393e+000	 1.3691915020e+000	-1.2512294899e-001
 2.6243915514e+000	 1.3976041023e+000	-1.7244920338e-001
 2.6091261836e+000	 1.4258992331e+000	-2.1631719620e-001
 2.5935313031e+000	 1.4540712550e+000	-2.6127204774e-001
 2.7590607103e+000	 1.1779579140e+000	 2.1149307015e-001
 2.7463500210e+000	 1.2072955920e+000	 1.7251126266e-001
 2.7333009559e+000	 1.2365545492e+000	 1.3279180007e-001
 2.7199138188e+000	 1.2657291261e+000	 9.0515752693e-002
 2.7061890363e+000	 1.2948136488e+000	 4.3343753074e-002
 2.6921271584e+000	 1.3238024324e+000	-1.1635097879e-002
 2.6777288592e+000	 1.3526897843e+000	-7.2155145668e-002
 2.6629949383e+000	 1.3814700074e+000	-1.2391757456e-001
 2.6479263206e+000	 1.4101374035e+000	-1.6864250934e-001
 2.6325240574e+000	 1.4386862768e+000	-2.1056306987e-001
 2.6167893266e+000	 1.4671109370e+000	-2.5447816206e-001
 2.7835832419e+000	 1.1884276040e+000	 2.0866435193e-001
 2.7707595800e+000	 1.2180260352e+000	 1.7051450250e-001
 2.7575945348e+000	 1.2475450460e+000	 1.3059449215e-001
 2.7440884129e+000	 1.2769789265e+000	 8.7097355240e-002
 2.7302416445e+000	 1.3063219525e+000	 3.7688182209e-002
 2.7160547845e+000	 1.3355683884e+000	-2.0469015134e-002
 2.7015285133e+000	 1.3647124911e+000	-7.5825099627e-002
 2.6866636373e+000	 1.3937485129e+000	-1.2164011483e-001
 2.6714610897e+000	 1.4226707048e+000	-1.6274282459e-001
 2.6559219312e+000	 1.4514733204e+000	-2.0348580592e-001
 2.6400473501e+000	 1.4801506190e+000	-2.4713323897e-001
 2.8081057735e+000	 1.1988972939e+000	 2.0737693153e-001
 2.7951691390e+000	 1.2287564784e+000	 1.6919851465e-001
 2.7818881137e+000	 1.2585355428e+000	 1.2802106095e-001
 2.7682630069e+000	 1.2882287270e+000	 8.2107250765e-002
 2.7542942527e+000	 1.3178302562e+000	 2.9186690912e-002
 2.7399824107e+000	 1.3473343444e+000	-3.0510734663e-002
 2.7253281674e+000	 1.3767351979e+000	-8.0354650661e-002
 2.7103323363e+000	 1.4060270183e+000	-1.2126970800e-001
 2.6949958588e+000	 1.4352040060e+000	-1.5807625135e-001
 2.6793198050e+000	 1.4642603640e+000	-1.9568209022e-001
 2.6633053737e+000	 1.4931903010e+000	-2.3901199746e-001
 2.8326283051e+000	 1.2093669839e+000	 2.0822938455e-001
 2.8195786980e+000	 1.2394869216e+000	 1.6928187780e-001
 2.8061816926e+000	 1.2695260397e+000	 1.2591954856e-001
 2.7924376009e+000	 1.2994785275e+000	 7.6531562775e-002
 2.7783468608e+000	 1.3293385599e+000	 1.8971343460e-002
 2.7639100369e+000	 1.3591003005e+000	-3.9071688108e-002
 2.7491278215e+000	 1.3887579047e+000	-8.4473552630e-002
 2.7340010353e+000	 1.4183055237e+000	-1.2162739893e-001
 2.7185306280e+000	 1.4477373073e+000	-1.5528212397e-001
 2.7027176788e+000	 1.4770474077e+000	-1.9027603850e-001
 2.6865633972e+000	 1.5062299830e+000	-2.3151784887e-001
 2.8571508367e+000	 1.2198366738e+000	 2.1191230195e-001
 2.8439882570e+000	 1.2502173649e+000	 1.7156581126e-001
 2.8304752715e+000	 1.2805165365e+000	 1.2521021429e-001
 2.8166121949e+000	 1.3107283279e+000	 7.1417252599e-002
 2.8023994690e+000	 1.3408468636e+000	 9.1216708758e-003
 2.7878376631e+000	 1.3708662565e+000	-4.4945900399e-002
 2.7729274756e+000	 1.4007806115e+000	-8.7000055041e-002
 2.7576697343e+000	 1.4305840291e+000	-1.2154771054e-001
 2.7420653971e+000	 1.4602706085e+000	-1.5320471626e-001
 2.7261155527e+000	 1.4898344513e+000	-1.8667802109e-001
 2.7098214207e+000	 1.5192696650e+000	-2.2674636844e-001
 2.8816733683e+000	 1.2303063637e+000	 2.1919752390e-001
 2.8683978159e+000	 1.2609478081e+000	 1.7692281994e-001
 2.8547688504e+000	 1.2915070333e+000	 1.2687360072e-001
 2.8407867890e+000	 1.3219781284e+000	 6.7859615362e-002
 2.8264520771e+000	 1.3523551673e+000	 3.8392699781e-003
 2.8117652893e+000	 1.3826322125e+000	-4.7011858729e-002
 2.7967271297e+000	 1.4128033184e+000	-8.6838748794e-002
 2.7813384333e+000	 1.4428625346e+000	-1.1995346940e-001
 2.7656001662e+000	 1.4728039098e+000	-1.5077860841e-001
 2.7495134265e+000	 1.5026214949e+000	-1.8382931867e-001
 2.7330794442e+000	 1.5323093471e+000	-2.2369380115e-001
 2.5004992089e+000	 1.4019125270e+000	-2.8585094202e-001
 2.4851449573e+000	 1.4289539205e+000	-3.4294402021e-001
 2.4694755356e+000	 1.4558657382e+000	-3.9784763483e-001
 2.4534924364e+000	 1.4826425783e+000	-4.5057576192e-001
 2.4371972736e+000	 1.5092790580e+000	-5.0098830543e-001
 2.4205917828e+000	 1.5357698167e+000	-5.4879514091e-001
 2.4036778204e+000	 1.5621095196e+000	-5.9356189436e-001
 2.3864573637e+000	 1.5882928607e+000	-6.3471740834e-001
 2.3689325102e+000	 1.6143145666e+000	-6.7156283289e-001
 2.3511054772e+000	 1.6401693995e+000	-7.0328226590e-001
 2.3329786009e+000	 1.6658521609e+000	-7.2895485388e-001
 2.5237572325e+000	 1.4149522090e+000	-2.7992656700e-001
 2.5082601655e+000	 1.4422451241e+000	-3.3316866526e-001
 2.4924449970e+000	 1.4694072580e+000	-3.8530760665e-001
 2.4763132334e+000	 1.4964331589e+000	-4.3621661640e-001
 2.4598665036e+000	 1.5233173939e+000	-4.8560001271e-001
 2.4431065592e+000	 1.5500545525e+000	-5.3299802845e-001
 2.4260352741e+000	 1.5766392503e+000	-5.7779348796e-001
 2.4086546438e+000	 1.6030661319e+000	-6.1922028618e-001
 2.3909667855e+000	 1.6293298748e+000	-6.5637360261e-001
 2.3729739370e+000	 1.6554251926e+000	-6.8822176815e-001
 2.3546784563e+000	 1.6813468383e+000	-7.1361968906e-001
 2.5470152560e+000	 1.4279918910e+000	-2.7388609430e-001
 2.5313753737e+000	 1.4555363276e+000	-3.2433628752e-001
 2.5154144584e+000	 1.4829487779e+000	-3.7456942935e-001
 2.4991340303e+000	 1.5102237396e+000	-4.2433912366e-001
 2.4825357335e+000	 1.5373557298e+000	-4.7321500205e-001
 2.4656213356e+000	 1.5643392883e+000	-5.2058832938e-001
 2.4483927278e+000	 1.5911689809e+000	-5.6567958864e-001
 2.4308519240e+000	 1.6178394030e+000	-6.0754798767e-001
 2.4130010609e+000	 1.6443451829e+000	-6.4510281440e-001
 2.3948423969e+000	 1.6706809857e+000	-6.7711655251e-001
 2.3763783116e+000	 1.6968415158e+000	-7.0223965411e-001
 2.5702732795e+000	 1.4410315730e+000	-2.6769639705e-001
 2.5544905819e+000	 1.4688275311e+000	-3.1629541796e-001
 2.5383839198e+000	 1.4964902977e+000	-3.6537838816e-001
 2.5219548273e+000	 1.5240143202e+000	-4.1459971693e-001
 2.5052049635e+000	 1.5513940657e+000	-4.6341449866e-001
 2.4881361121e+000	 1.5786240241e+000	-5.1108491034e-001
 2.4707501815e+000	 1.6056987115e+000	-5.5668871727e-001
 2.4530492042e+000	 1.6326126741e+000	-5.9912982431e-001
 2.4350353362e+000	 1.6593604911e+000	-6.3715079402e-001
 2.4167108567e+000	 1.6859367787e+000	-6.6934723625e-001
 2.3980781670e+000	 1.7123361933e+000	-6.9418395865e-001
 2.5935313031e+000	 1.4540712550e+000	-2.6127204774e-001
 2.5776057902e+000	 1.4821187347e+000	-3.0884804722e-001
 2.5613533813e+000	 1.5100318175e+000	-3.5743878581e-001
 2.5447756243e+000	 1.5378049009e+000	-4.0661920833e-001
 2.5278741934e+000	 1.5654324017e+000	-4.5574927721e-001
 2.5106508885e+000	 1.5929087599e+000	-5.0398117235e-001
 2.4931076352e+000	 1.6202284422e+000	-5.5026873276e-001
 2.4752464844e+000	 1.6473859452e+000	-5.9337907259e-001
 2.4570696116e+000	 1.6743757993e+000	-6.3190628628e-001
 2.4385793165e+000	 1.7011925718e+000	-6.6428714070e-001
 2.4197780224e+000	 1.7278308708e+000	-6.8881863575e-001
 2.6167893266e+000	 1.4671109370e+000	-2.5447816206e-001
 2.6007209984e+000	 1.4954099382e+000	-3.0175247919e-001
 2.5843228427e+000	 1.5235733373e+000	-3.5041682340e-001
 2.5675964213e+000	 1.5515954815e+000	-3.9998571355e-001
 2.5505434234e+000	 1.5794707376e+000	-4.4974264554e-001
 2.5331656649e+000	 1.6071934957e+000	-4.9874810731e-001
 2.5154650889e+000	 1.6347581728e+000	-5.4584997448e-001
 2.4974437645e+000	 1.6621592163e+000	-5.8969621369e-001
 2.4791038869e+000	 1.6893911074e+000	-6.2874980234e-001
 2.4604477764e+000	 1.7164483649e+000	-6.6130575499e-001
 2.4414778778e+000	 1.7433255482e+000	-6.8551012970e-001
 2.6400473501e+000	 1.4801506190e+000	-2.4713323897e-001
 2.6238362066e+000	 1.5087011417e+000	-2.9472618748e-001
 2.6072923041e+000	 1.5371148572e+000	-3.4394349005e-001
 2.5904172183e+000	 1.5653860622e+000	-3.9425759018e-001
 2.5732126533e+000	 1.5935090735e+000	-4.4489344610e-001
 2.5556804414e+000	 1.6214782315e+000	-4.9483737613e-001
 2.5378225426e+000	 1.6492879035e+000	-5.4284842883e-001
 2.5196410447e+000	 1.6769324874e+000	-5.8747219949e-001
 2.5011381623e+000	 1.7044064156e+000	-6.2705699482e-001
 2.4823162362e+000	 1.7317041579e+000	-6.5977222867e-001
 2.4631777331e+000	 1.7588202257e+000	-6.8362891348e-001
 2.6633053737e+000	 1.4931903010e+000	-2.3901199746e-001
 2.6469514149e+000	 1.5219923453e+000	-2.8744867486e-001
 2.6302617655e+000	 1.5506563770e+000	-3.3761746085e-001
 2.6132380153e+000	 1.5791766428e+000	-3.8896638904e-001
 2.5958818832e+000	 1.6075474094e+000	-4.4067907442e-001
 2.5781952178e+000	 1.6357629673e+000	-4.9168440675e-001
 2.5601799963e+000	 1.6638176341e+000	-5.4066891856e-001
 2.5418383249e+000	 1.6917057586e+000	-5.8609174339e-001
 2.5231724376e+000	 1.7194217238e+000	-6.2620205917e-001
 2.5041846960e+000	 1.7469599510e+000	-6.5905889169e-001
 2.4848775885e+000	 1.7743149032e+000	-6.8255313382e-001
 2.6865633972e+000	 1.5062299830e+000	-2.3151784887e-001
 2.6700666231e+000	 1.5352835488e+000	-2.7961354032e-001
 2.6532312270e+000	 1.5641978968e+000	-3.3100800248e-001
 2.6360588123e+000	 1.5929672234e+000	-3.8361981760e-001
 2.6185511132e+000	 1.6215857453e+000	-4.3655851333e-001
 2.6007099942e+000	 1.6500477031e+000	-4.8871151120e-001
 2.5825374500e+000	 1.6783473647e+000	-5.3870831338e-001
 2.5640356051e+000	 1.7064790297e+000	-5.8493663430e-001
 2.5452067129e+000	 1.7344370319e+000	-6.2556115973e-001
 2.5260531559e+000	 1.7622157441e+000	-6.5854479983e-001
 2.5065774439e+000	 1.7898095807e+000	-6.8167228248e-001
 2.7098214207e+000	 1.5192696650e+000	-2.2674636844e-001
 2.6931818313e+000	 1.5485747523e+000	-2.7358278963e-001
 2.6762006884e+000	 1.5777394166e+000	-3.2404984003e-001
 2.6588796093e+000	 1.6067578041e+000	-3.7770471477e-001
 2.6412203431e+000	 1.6356240813e+000	-4.3197538205e-001
 2.6232247706e+000	 1.6643324389e+000	-4.8533102034e-001
 2.6048949037e+000	 1.6928770954e+000	-5.3635876065e-001
 2.5862328852e+000	 1.7212523008e+000	-5.8338907252e-001
 2.5672409883e+000	 1.7494523401e+000	-6.2451587890e-001
 2.5479216157e+000	 1.7774715371e+000	-6.5761930420e-001
 2.5282772993e+000	 1.8053042581e+000	-6.8039089193e-001
 2.7330794442e+000	 1.5323093471e+000	-2.2369380115e-001
 2.7162970396e+000	 1.5618659559e+000	-2.7008873867e-001
 2.6991701498e+000	 1.5912809365e+000	-3.1950005940e-001
 2.6817004063e+000	 1.6205483847e+000	-3.7169915240e-001
 2.6638895731e+000	 1.6496624172e+000	-4.2636099928e-001
 2.6457395471e+000	 1.6786171747e+000	-4.8094843526e-001
 2.6272523575e+000	 1.7074068260e+000	-5.3301093498e-001
 2.6084301654e+000	 1.7360255719e+000	-5.8083502616e-001
 2.5892752636e+000	 1.7644676483e+000	-6.2245668805e-001
 2.5697900756e+000	 1.7927273302e+000	-6.5568564336e-001
 2.5499771547e+000	 1.8207989356e+000	-6.7813225412e-001
 2.3329786009e+000	 1.6658521609e+000	-7.2895485388e-001
 2.3145543349e+000	 1.6913576940e+000	-7.5473854729e-001
 2.2958352475e+000	 1.7166808857e+000	-7.8644381061e-001
 2.2768240225e+000	 1.7418166714e+000	-8.2252984043e-001
 2.2575234588e+000	 1.7667600385e+000	-8.6143317630e-001
 2.2379364689e+000	 1.7915060304e+000	-9.0158662867e-001
 2.2180660781e+000	 1.8160497488e+000	-9.4143886241e-001
 2.1979154223e+000	 1.8403863575e+000	-9.7947447540e-001
 2.1774877469e+000	 1.8645110856e+000	-1.0142344062e+000
 2.1567864049e+000	 1.8884192298e+000	-1.0443365009e+000
 2.1358148552e+000	 1.9121061584e+000	-1.0684960661e+000
 2.3546784563e+000	 1.6813468383e+000	-7.1361968906e-001
 2.3360828197e+000	 1.7070896074e+000	-7.3880280615e-001
 2.3171896195e+000	 1.7326483391e+000	-7.6987825790e-001
 2.2980015644e+000	 1.7580179215e+000	-8.0539941842e-001
 2.2785214793e+000	 1.7831932957e+000	-8.4389136588e-001
 2.2587523040e+000	 1.8081694587e+000	-8.8387087435e-001
 2.2386970916e+000	 1.8329414669e+000	-9.2386710514e-001
 2.2183590075e+000	 1.8575044390e+000	-9.6244282719e-001
 2.1977413270e+000	 1.8818535596e+000	-9.9821599066e-001
 2.1768474346e+000	 1.9059840820e+000	-1.0298814734e+000
 2.1556808212e+000	 1.9298913311e+000	-1.0562328176e+000
 2.3763783116e+000	 1.6968415158e+000	-7.0223965411e-001
 2.3576113045e+000	 1.7228215208e+000	-7.2677311831e-001
 2.3385439915e+000	 1.7486157924e+000	-7.5711858263e-001
 2.3191791063e+000	 1.7742191716e+000	-7.9195745474e-001
 2.2995194998e+000	 1.7996265529e+000	-8.2993656298e-001
 2.2795681390e+000	 1.8248328871e+000	-8.6968921291e-001
 2.2593281052e+000	 1.8498331850e+000	-9.0985698929e-001
 2.2388025927e+000	 1.8746225205e+000	-9.4911212311e-001
 2.2179949072e+000	 1.8991960337e+000	-9.8618023738e-001
 2.1969084643e+000	 1.9235489341e+000	-1.0198632809e+000
 2.1755467871e+000	 1.9476765037e+000	-1.0490624560e+000
 2.3980781670e+000	 1.7123361933e+000	-6.9418395865e-001
 2.3791397893e+000	 1.7385534342e+000	-7.1800893999e-001
 2.3598983634e+000	 1.7645832457e+000	-7.4750919433e-001
 2.3403566481e+000	 1.7904204218e+000	-7.8152656403e-001
 2.3205175204e+000	 1.8160598101e+000	-8.1886137905e-001
 2.3003839741e+000	 1.8414963155e+000	-8.5829458328e-001
 2.2799591187e+000	 1.8667249031e+000	-8.9861065451e-001
 2.2592461779e+000	 1.8917406020e+000	-9.3862112732e-001
 2.2382484874e+000	 1.9165385078e+000	-9.7718852184e-001
 2.2169694940e+000	 1.9411137862e+000	-1.0132504765e+000
 2.1954127531e+000	 1.9654616763e+000	-1.0458438799e+000
 2.4197780224e+000	 1.7278308708e+000	-6.8881863575e-001
 2.4006682741e+000	 1.7542853477e+000	-7.1187071043e-001
 2.3812527354e+000	 1.7805506991e+000	-7.4039990112e-001
 2.3615341900e+000	 1.8066216719e+000	-7.7343944906e-001
 2.3415155409e+000	 1.8324930672e+000	-8.0997349490e-001
 2.3211998091e+000	 1.8581597438e+000	-8.4896028420e-001
 2.3005901323e+000	 1.8836166213e+000	-8.8935621724e-001
 2.2796897631e+000	 1.9088586835e+000	-9.3014054145e-001
 2.2585020676e+000	 1.9338809819e+000	-9.7034047840e-001
 2.2370305238e+000	 1.9586786384e+000	-1.0090565719e+000
 2.2152787191e+000	 1.9832468489e+000	-1.0454880410e+000
 2.4414778778e+000	 1.7433255482e+000	-6.8551012970e-001
 2.4221967589e+000	 1.7700172611e+000	-7.0772356114e-001
 2.4026071074e+000	 1.7965181524e+000	-7.3514972690e-001
 2.3827117319e+000	 1.8228229220e+000	-7.6704281046e-001
 2.3625135614e+000	 1.8489263244e+000	-8.0259964553e-001
 2.3420156442e+000	 1.8748231722e+000	-8.4098401473e-001
 2.3212211458e+000	 1.9005083394e+000	-8.8135184549e-001
 2.3001333483e+000	 1.9259767650e+000	-9.2287709036e-001
 2.2787556478e+000	 1.9512234559e+000	-9.6477807193e-001
 2.2570915535e+000	 1.9762434905e+000	-1.0063440674e+000
 2.2351446850e+000	 2.0010320215e+000	-1.0469518359e+000
 2.4631777331e+000	 1.7588202257e+000	-6.8362891348e-001
 2.4437252437e+000	 1.7857491745e+000	-7.0494105538e-001
 2.4239614793e+000	 1.8124856058e+000	-7.3113076007e-001
 2.4038892737e+000	 1.8390241722e+000	-7.6170128983e-001
 2.3835115820e+000	 1.8653595816e+000	-7.9608964102e-001
 2.3628314792e+000	 1.8914866005e+000	-8.3369195433e-001
 2.3418521594e+000	 1.9174000575e+000	-8.7388987773e-001
 2.3205769335e+000	 1.9430948465e+000	-9.1607765749e-001
 2.2990092280e+000	 1.9685659300e+000	-9.5968972560e-001
 2.2771525832e+000	 1.9938083427e+000	-1.0042285459e+000
 2.2550106510e+000	 2.0188171941e+000	-1.0459910200e+000
 2.4848775885e+000	 1.7743149032e+000	-6.8255313382e-001
 2.4652537285e+000	 1.8014810879e+000	-7.0290895594e-001
 2.4453158513e+000	 1.8284530591e+000	-7.2773203166e-001
 2.4250668156e+000	 1.8552254223e+000	-7.5680144413e-001
 2.4045096025e+000	 1.8817928388e+000	-7.8982042116e-001
 2.3836473142e+000	 1.9081500289e+000	-8.2644288005e-001
 2.3624831729e+000	 1.9342917756e+000	-8.6630098308e-001
 2.3410205187e+000	 1.9602129280e+000	-9.0903346689e-001
 2.3192628082e+000	 1.9859084041e+000	-9.5431450139e-001
 2.2972136130e+000	 2.0113731948e+000	-1.0006521433e+000
 2.2748766169e+000	 2.0366023667e+000	-1.0392589389e+000
 2.5065774439e+000	 1.7898095807e+000	-6.8167228248e-001
 2.4867822132e+000	 1.8172130013e+000	-7.0102901955e-001
 2.4666702233e+000	 1.8444205124e+000	-7.2436342112e-001
 2.4462443575e+000	 1.8714266724e+000	-7.5175574942e-001
 2.4255076230e+000	 1.8982260959e+000	-7.8320014195e-001
 2.4044631493e+000	 1.9248134572e+000	-8.1863231870e-001
 2.3831141864e+000	 1.9511834937e+000	-8.5795836045e-001
 2.3614641039e+000	 1.9773310094e+000	-9.0108430878e-001
 2.3395163884e+000	 2.0032508782e+000	-9.4784369669e-001
 2.3172746427e+000	 2.0289380470e+000	-9.9068648603e-001
 2.2947425829e+000	 2.0543875393e+000	-1.0261805634e+000
 2.5282772993e+000	 1.8053042581e+000	-6.8039089193e-001
 2.5083106980e+000	 1.8329449147e+000	-6.9872281632e-001
 2.4880245952e+000	 1.8603879658e+000	-7.2045958830e-001
 2.4674218994e+000	 1.8876279226e+000	-7.4600663226e-001
 2.4465056436e+000	 1.9146593531e+000	-7.7567229180e-001
 2.4252789843e+000	 1.9414768856e+000	-8.0969673172e-001
 2.4037452000e+000	 1.9680752119e+000	-8.4828197416e-001
 2.3819076891e+000	 1.9944490909e+000	-8.9162280641e-001
 2.3597699686e+000	 2.0205933522e+000	-9.3587702987e-001
 2.3373356724e+000	 2.0465028991e+000	-9.7351608115e-001
 2.3146085489e+000	 2.0721727119e+000	-1.0062612093e+000
 2.5499771547e+000	 1.8207989356e+000	-6.7813225412e-001
 2.5298391828e+000	 1.8486768282e+000	-6.9543557268e-001
 2.5093789672e+000	 1.8763554191e+000	-7.1548392972e-001
 2.4885994412e+000	 1.9038291727e+000	-7.3903052709e-001
 2.4675036641e+000	 1.9310926103e+000	-7.6671983596e-001
 2.4460948194e+000	 1.9581403139e+000	-7.9911773093e-001
 2.4243762135e+000	 1.9849669300e+000	-8.3674282386e-001
 2.4023512743e+000	 2.0115671724e+000	-8.7879088138e-001
 2.3800235488e+000	 2.0379358263e+000	-9.1612097089e-001
 2.3573967021e+000	 2.0640677512e+000	-9.4876890794e-001
 2.3344745148e+000	 2.0899578845e+000	-9.7908283265e-001
 2.1358148552e+000	 1.9121061584e+000	-1.0684960661e+000
 2.1145798665e+000	 1.9355638122e+000	-1.0872317309e+000
 2.0930819779e+000	 1.9587912834e+000	-1.1041108791e+000
 2.0713249545e+000	 1.9817841752e+000	-1.1225542956e+000
 2.0493126586e+000	 2.0045381730e+000	-1.1458822954e+000
 2.0270490478e+000	 2.0270490478e+000	-1.1718646568e+000
 2.0045381730e+000	 2.0493126586e+000	-1.2020173201e+000
 1.9817841752e+000	 2.0713249545e+000	-1.2311175506e+000
 1.9587912834e+000	 2.0930819779e+000	-1.2420329630e+000
 1.9355638122e+000	 2.1145798665e+000	-1.2355925409e+000
 1.9121061584e+000	 2.1358148552e+000	-1.2130328735e+000
 2.1556808212e+000	 1.9298913311e+000	-1.0562328176e+000
 2.1342483183e+000	 1.9535671727e+000	-1.0770666950e+000
 2.1125504704e+000	 1.9770106908e+000	-1.0950092124e+000
 2.0905910772e+000	 2.0002174476e+000	-1.1132377047e+000
 2.0683740371e+000	 2.0231830883e+000	-1.1302825944e+000
 2.0459033447e+000	 2.0459033447e+000	-1.1455994196e+000
 2.0231830883e+000	 2.0683740371e+000	-1.1634904032e+000
 2.0002174476e+000	 2.0905910772e+000	-1.1881657326e+000
 1.9770106908e+000	 2.1125504704e+000	-1.2077926257e+000
 1.9535671727e+000	 2.1342483183e+000	-1.2079079329e+000
 1.9298913311e+000	 2.1556808212e+000	-1.1894504884e+000
 2.1755467871e+000	 1.9476765037e+000	-1.0490624560e+000
 2.1539167702e+000	 1.9715705332e+000	-1.0729171235e+000
 2.1320189628e+000	 1.9952300982e+000	-1.0931118782e+000
 2.1098571999e+000	 2.0186507199e+000	-1.1093992786e+000
 2.0874354157e+000	 2.0418280036e+000	-1.1188539596e+000
 2.0647576416e+000	 2.0647576416e+000	-1.1253279652e+000
 2.0418280036e+000	 2.0874354157e+000	-1.1328087674e+000
 2.0186507199e+000	 2.1098571999e+000	-1.1451966613e+000
 1.9952300982e+000	 2.1320189628e+000	-1.1655971958e+000
 1.9715705332e+000	 2.1539167702e+000	-1.1746262334e+000
 1.9476765037e+000	 2.1755467871e+000	-1.1624446393e+000
 2.1954127531e+000	 1.9654616763e+000	-1.0458438799e+000
 2.1735852220e+000	 1.9895738937e+000	-1.0735323171e+000
 2.1514874552e+000	 2.0134495056e+000	-1.0954305637e+000
 2.1291233226e+000	 2.0370839923e+000	-1.1068179988e+000
 2.1064967943e+000	 2.0604729190e+000	-1.1104089936e+000
 2.0836119385e+000	 2.0836119385e+000	-1.1098833408e+000
 2.0604729190e+000	 2.1064967943e+000	-1.1088526367e+000
 2.0370839923e+000	 2.1291233226e+000	-1.1108476080e+000
 2.0134495056e+000	 2.1514874552e+000	-1.1193058077e+000
 1.9895738937e+000	 2.1735852220e+000	-1.1341349012e+000
 1.9654616763e+000	 2.1954127531e+000	-1.1305573979e+000
 2.2152787191e+000	 1.9832468489e+000	-1.0454880410e+000
 2.1932536739e+000	 2.0075772542e+000	-1.0771881943e+000
 2.1709559476e+000	 2.0316689130e+000	-1.0966216917e+000
 2.1483894453e+000	 2.0555172647e+000	-1.1044214169e+000
 2.1255581729e+000	 2.0791178343e+000	-1.1038724584e+000
 2.1024662354e+000	 2.1024662354e+000	-1.0982117560e+000
 2.0791178343e+000	 2.1255581729e+000	-1.0906154605e+000
 2.0555172647e+000	 2.1483894453e+000	-1.0841865759e+000
 2.0316689130e+000	 2.1709559476e+000	-1.0819429739e+000
 2.0075772542e+000	 2.1932536739e+000	-1.0868058632e+000
 1.9832468489e+000	 2.2152787191e+000	-1.0924825718e+000
 2.2351446850e+000	 2.0010320215e+000	-1.0469518359e+000
 2.2129221257e+000	 2.0255806147e+000	-1.0783686565e+000
 2.1904244401e+000	 2.0498883204e+000	-1.0955316215e+000
 2.1676555679e+000	 2.0739505371e+000	-1.1012427176e+000
 2.1446195514e+000	 2.0977627496e+000	-1.0982765168e+000
 2.1213205323e+000	 2.1213205323e+000	-1.0893677462e+000
 2.0977627496e+000	 2.1446195514e+000	-1.0771990473e+000
 2.0739505371e+000	 2.1676555679e+000	-1.0643890188e+000
 2.0498883204e+000	 2.1904244401e+000	-1.0534806333e+000
 2.0255806147e+000	 2.2129221257e+000	-1.0469301151e+000
 2.0010320215e+000	 2.2351446850e+000	-1.0470963629e+000
 2.2550106510e+000	 2.0188171941e+000	-1.0459910200e+000
 2.2325905776e+000	 2.0435839752e+000	-1.0752478602e+000
 2.2098929325e+000	 2.0681077278e+000	-1.0913151058e+000
 2.1869216906e+000	 2.0923838094e+000	-1.0964161757e+000
 2.1636809300e+000	 2.1164076649e+000	-1.0927560712e+000
 2.1401748292e+000	 2.1401748292e+000	-1.0825094352e+000
 2.1164076649e+000	 2.1636809300e+000	-1.0678087952e+000
 2.0923838094e+000	 2.1869216906e+000	-1.0507330883e+000
 2.0681077278e+000	 2.2098929325e+000	-1.0332965602e+000
 2.0435839752e+000	 2.2325905776e+000	-1.0174381307e+000
 2.0188171941e+000	 2.2550106510e+000	-1.0050113110e+000
 2.2748766169e+000	 2.0366023667e+000	-1.0392589389e+000
 2.2522590294e+000	 2.0615873357e+000	-1.0671120965e+000
 2.2293614249e+000	 2.0863271352e+000	-1.0832212871e+000
 2.2061878133e+000	 2.1108170818e+000	-1.0891727036e+000
 2.1827423086e+000	 2.1350525802e+000	-1.0865441938e+000
 2.1590291261e+000	 2.1590291261e+000	-1.0768938895e+000
 2.1350525802e+000	 2.1827423086e+000	-1.0617490142e+000
 2.1108170818e+000	 2.2061878133e+000	-1.0425949687e+000
 2.0863271352e+000	 2.2293614249e+000	-1.0208647907e+000
 2.0615873357e+000	 2.2522590294e+000	-9.9792908422e-001
 2.0366023667e+000	 2.2748766169e+000	-9.7508650607e-001
 2.2947425829e+000	 2.0543875393e+000	-1.0261805634e+000
 2.2719274813e+000	 2.0795906962e+000	-1.0533350912e+000
 2.2488299173e+000	 2.1045465426e+000	-1.0705894768e+000
 2.2254539360e+000	 2.1292503542e+000	-1.0788354812e+000
 2.2018036872e+000	 2.1536974956e+000	-1.0789676436e+000
 2.1778834230e+000	 2.1778834230e+000	-1.0718725605e+000
 2.1536974956e+000	 2.2018036872e+000	-1.0584183341e+000
 2.1292503542e+000	 2.2254539360e+000	-1.0394442944e+000
 2.1045465426e+000	 2.2488299173e+000	-1.0157510954e+000
 2.0795906962e+000	 2.2719274813e+000	-9.8809128123e-001
 2.0543875393e+000	 2.2947425829e+000	-9.5716041536e-001
 2.3146085489e+000	 2.0721727119e+000	-1.0062612093e+000
 2.2915959331e+000	 2.0975940567e+000	-1.0333740362e+000
 2.2682984098e+000	 2.1227659500e+000	-1.0528450096e+000
 2.2447200587e+000	 2.1476836265e+000	-1.0648156641e+000
 2.2208650657e+000	 2.1723424109e+000	-1.0694424642e+000
 2.1967377199e+000	 2.1967377199e+000	-1.0668868083e+000
 2.1723424109e+000	 2.2208650657e+000	-1.0573051930e+000
 2.1476836265e+000	 2.2447200587e+000	-1.0408396446e+000
 2.1227659500e+000	 2.2682984098e+000	-1.0176085234e+000
 2.0975940567e+000	 2.2915959331e+000	-9.8769779849e-001
 2.0721727119e+000	 2.3146085489e+000	-9.5115288974e-001
 2.3344745148e+000	 2.0899578845e+000	-9.7908283265e-001
 2.3112643850e+000	 2.1155974172e+000	-1.0067656836e+000
 2.2877669022e+000	 2.1409853574e+000	-1.0294951662e+000
 2.2639861814e+000	 2.1661168989e+000	-1.0466081662e+000
 2.2399264443e+000	 2.1909873262e+000	-1.0574696576e+000
 2.2155920168e+000	 2.2155920168e+000	-1.0614635024e+000
 2.1909873262e+000	 2.2399264443e+000	-1.0579834025e+000
 2.1661168989e+000	 2.2639861814e+000	-1.0464241112e+000
 2.1409853574e+000	 2.2877669022e+000	-1.0261730147e+000
 2.1155974172e+000	 2.3112643850e+000	-9.9660218394e-001
 2.0899578845e+000	 2.3344745148e+000	-9.5706099722e-001
 1.9121061584e+000	 2.1358148552e+000	-1.2130328735e+000
 1.8884192298e+000	 2.1567864049e+000	-1.1897778420e+000
 1.8645110856e+000	 2.1774877469e+000	-1.1786987726e+000
 1.8403863575e+000	 2.1979154223e+000	-1.1770318167e+000
 1.8160497488e+000	 2.2180660781e+000	-1.1819902193e+000
 1.7915060304e+000	 2.2379364689e+000	-1.1907845425e+000
 1.7667600385e+000	 2.2575234588e+000	-1.2006424831e+000
 1.7418166714e+000	 2.2768240225e+000	-1.2088281502e+000
 1.7166808857e+000	 2.2958352475e+000	-1.2126606744e+000
 1.6913576940e+000	 2.3145543349e+000	-1.2095320264e+000
 1.6658521609e+000	 2.3329786009e+000	-1.1969239282e+000
 1.9298913311e+000	 2.1556808212e+000	-1.1894504884e+000
 1.9059840820e+000	 2.1768474346e+000	-1.1685638309e+000
 1.8818535596e+000	 2.1977413270e+000	-1.1591154987e+000
 1.8575044390e+000	 2.2183590075e+000	-1.1584636966e+000
 1.8329414669e+000	 2.2386970916e+000	-1.1639439520e+000
 1.8081694587e+000	 2.2587523040e+000	-1.1728901321e+000
 1.7831932957e+000	 2.2785214793e+000	-1.1826550296e+000
 1.7580179215e+000	 2.2980015644e+000	-1.1906303769e+000
 1.7326483391e+000	 2.3171896195e+000	-1.1942661548e+000
 1.7070896074e+000	 2.3360828197e+000	-1.1910890640e+000
 1.6813468383e+000	 2.3546784563e+000	-1.1787200407e+000
 1.9476765037e+000	 2.1755467871e+000	-1.1624446393e+000
 1.9235489341e+000	 2.1969084643e+000	-1.1458008964e+000
 1.8991960337e+000	 2.2179949072e+000	-1.1395036118e+000
 1.8746225205e+000	 2.2388025927e+000	-1.1410653420e+000
 1.8498331850e+000	 2.2593281052e+000	-1.1479752063e+000
 1.8248328871e+000	 2.2795681390e+000	-1.1577206914e+000
 1.7996265529e+000	 2.2995194998e+000	-1.1678090011e+000
 1.7742191716e+000	 2.3191791063e+000	-1.1757878048e+000
 1.7486157924e+000	 2.3385439915e+000	-1.1792652419e+000
 1.7228215208e+000	 2.3576113045e+000	-1.1759290463e+000
 1.6968415158e+000	 2.3763783116e+000	-1.1635646631e+000
 1.9654616763e+000	 2.1954127531e+000	-1.1305573979e+000
 1.9411137862e+000	 2.2169694940e+000	-1.1201908978e+000
 1.9165385078e+000	 2.2382484874e+000	-1.1187016725e+000
 1.8917406020e+000	 2.2592461779e+000	-1.1237876722e+000
 1.8667249031e+000	 2.2799591187e+000	-1.1331216892e+000
 1.8414963155e+000	 2.3003839741e+000	-1.1443739478e+000
 1.8160598101e+000	 2.3205175204e+000	-1.1552342172e+000
 1.7904204218e+000	 2.3403566481e+000	-1.1634332935e+000
 1.7645832457e+000	 2.3598983634e+000	-1.1667637016e+000
 1.7385534342e+000	 2.3791397893e+000	-1.1630994725e+000
 1.7123361933e+000	 2.3980781670e+000	-1.1504148638e+000
 1.9832468489e+000	 2.2152787191e+000	-1.0924825718e+000
 1.9586786384e+000	 2.2370305238e+000	-1.0905844212e+000
 1.9338809819e+000	 2.2585020676e+000	-1.0956946649e+000
 1.9088586835e+000	 2.2796897631e+000	-1.1057264529e+000
 1.8836166213e+000	 2.3005901323e+000	-1.1185651237e+000
 1.8581597438e+000	 2.3211998091e+000	-1.1320915803e+000
 1.8324930672e+000	 2.3415155409e+000	-1.1442051686e+000
 1.8066216719e+000	 2.3615341900e+000	-1.1528458962e+000
 1.7805506991e+000	 2.3812527354e+000	-1.1560158342e+000
 1.7542853477e+000	 2.4006682741e+000	-1.1517995528e+000
 1.7278308708e+000	 2.4197780224e+000	-1.1383834484e+000
 2.0010320215e+000	 2.2351446850e+000	-1.0470963629e+000
 1.9762434905e+000	 2.2570915535e+000	-1.0559768132e+000
 1.9512234559e+000	 2.2787556478e+000	-1.0696103066e+000
 1.9259767650e+000	 2.3001333483e+000	-1.0861188516e+000
 1.9005083394e+000	 2.3212211458e+000	-1.1036280165e+000
 1.8748231722e+000	 2.3420156442e+000	-1.1202561650e+000
 1.8489263244e+000	 2.3625135614e+000	-1.1341381050e+000
 1.8228229220e+000	 2.3827117319e+000	-1.1434480504e+000
 1.7965181524e+000	 2.4026071074e+000	-1.1464217301e+000
 1.7700172611e+000	 2.4221967589e+000	-1.1413774875e+000
 1.7433255482e+000	 2.4414778778e+000	-1.1267362218e+000
 2.0188171941e+000	 2.2550106510e+000	-1.0050113110e+000
 1.9938083427e+000	 2.2771525832e+000	-1.0155042677e+000
 1.9685659300e+000	 2.2990092280e+000	-1.0397154013e+000
 1.9430948465e+000	 2.3205769335e+000	-1.0643400264e+000
 1.9174000575e+000	 2.3418521594e+000	-1.0877704520e+000
 1.8914866005e+000	 2.3628314792e+000	-1.1083881409e+000
 1.8653595816e+000	 2.3835115820e+000	-1.1245881383e+000
 1.8390241722e+000	 2.4038892737e+000	-1.1348027844e+000
 1.8124856058e+000	 2.4239614793e+000	-1.1375245413e+000
 1.7857491745e+000	 2.4437252437e+000	-1.1313277655e+000
 1.7588202257e+000	 2.4631777331e+000	-1.1148892734e+000
 2.0366023667e+000	 2.2748766169e+000	-9.7508650607e-001
 2.0113731948e+000	 2.2972136130e+000	-9.7283897912e-001
 1.9859084041e+000	 2.3192628082e+000	-1.0054122311e+000
 1.9602129280e+000	 2.3410205187e+000	-1.0398997455e+000
 1.9342917756e+000	 2.3624831729e+000	-1.0705869094e+000
 1.9081500289e+000	 2.3836473142e+000	-1.0961427951e+000
 1.8817928388e+000	 2.4045096025e+000	-1.1152463628e+000
 1.8552254223e+000	 2.4250668156e+000	-1.1266109385e+000
 1.8284530591e+000	 2.4453158513e+000	-1.1290077689e+000
 1.8014810879e+000	 2.4652537285e+000	-1.1212884817e+000
 1.7743149032e+000	 2.4848775885e+000	-1.1024062869e+000
 2.0543875393e+000	 2.2947425829e+000	-9.5716041536e-001
 2.0289380470e+000	 2.3172746427e+000	-9.4292557862e-001
 2.0032508782e+000	 2.3395163884e+000	-9.6660317634e-001
 1.9773310094e+000	 2.3614641039e+000	-1.0124390358e+000
 1.9511834937e+000	 2.3831141864e+000	-1.0518031034e+000
 1.9248134572e+000	 2.4044631493e+000	-1.0833072648e+000
 1.8982260959e+000	 2.4255076230e+000	-1.1059369899e+000
 1.8714266724e+000	 2.4462443575e+000	-1.1187083991e+000
 1.8444205124e+000	 2.4666702233e+000	-1.1206925643e+000
 1.8172130013e+000	 2.4867822132e+000	-1.1110386707e+000
 1.7898095807e+000	 2.5065774439e+000	-1.0889958703e+000
 2.0721727119e+000	 2.3146085489e+000	-9.5115288974e-001
 2.0465028991e+000	 2.3373356724e+000	-9.2712773274e-001
 2.0205933522e+000	 2.3597699686e+000	-9.3674091815e-001
 1.9944490909e+000	 2.3819076891e+000	-9.8172685942e-001
 1.9680752119e+000	 2.4037452000e+000	-1.0312728456e+000
 1.9414768856e+000	 2.4252789843e+000	-1.0697975576e+000
 1.9146593531e+000	 2.4465056436e+000	-1.0966144962e+000
 1.8876279226e+000	 2.4674218994e+000	-1.1110633468e+000
 1.8603879658e+000	 2.4880245952e+000	-1.1125350444e+000
 1.8329449147e+000	 2.5083106980e+000	-1.1004956569e+000
 1.8053042581e+000	 2.5282772993e+000	-1.0745089076e+000
 2.0899578845e+000	 2.3344745148e+000	-9.5706099722e-001
 2.0640677512e+000	 2.3573967021e+000	-9.2559143687e-001
 2.0379358263e+000	 2.3800235488e+000	-9.2296310416e-001
 2.0115671724e+000	 2.4023512743e+000	-9.5245671048e-001
 1.9849669300e+000	 2.4243762135e+000	-1.0089749261e+000
 1.9581403139e+000	 2.4460948194e+000	-1.0556555862e+000
 1.9310926103e+000	 2.4675036641e+000	-1.0873607857e+000
 1.9038291727e+000	 2.4885994412e+000	-1.1037735157e+000
 1.8763554191e+000	 2.5093789672e+000	-1.1046236197e+000
 1.8486768282e+000	 2.5298391828e+000	-1.0897124196e+000
 1.8207989356e+000	 2.5499771547e+000	-1.0589359293e+000
 1.6658521609e+000	 2.3329786009e+000	-1.1969239282e+000
 1.6401693995e+000	 2.3511054772e+000	-1.1790491050e+000
 1.6143145666e+000	 2.3689325102e+000	-1.1601758289e+000
 1.5882928607e+000	 2.3864573637e+000	-1.1380609351e+000
 1.5621095196e+000	 2.4036778204e+000	-1.1106239105e+000
 1.5357698167e+000	 2.4205917828e+000	-1.0759576525e+000
 1.5092790580e+000	 2.4371972736e+000	-1.0323377735e+000
 1.4826425783e+000	 2.4534924364e+000	-9.7823040449e-001
 1.4558657382e+000	 2.4694755356e+000	-9.1229845704e-001
 1.4289539205e+000	 2.4851449573e+000	-8.3340631956e-001
 1.4019125270e+000	 2.5004992089e+000	-7.4062297088e-001
 1.6813468383e+000	 2.3546784563e+000	-1.1787200407e+000
 1.6554251926e+000	 2.3729739370e+000	-1.1617097555e+000
 1.6293298748e+000	 2.3909667855e+000	-1.1442943254e+000
 1.6030661319e+000	 2.4086546438e+000	-1.1238359504e+000
 1.5766392503e+000	 2.4260352741e+000	-1.0978839269e+000
 1.5500545525e+000	 2.4431065592e+000	-1.0641865234e+000
 1.5233173939e+000	 2.4598665036e+000	-1.0207012846e+000
 1.4964331589e+000	 2.4763132334e+000	-9.6560371045e-001
 1.4694072580e+000	 2.4924449970e+000	-8.9729426928e-001
 1.4422451241e+000	 2.5082601655e+000	-8.1440371602e-001
 1.4149522090e+000	 2.5237572325e+000	-7.1579669856e-001
 1.6968415158e+000	 2.3763783116e+000	-1.1635646631e+000
 1.6706809857e+000	 2.3948423969e+000	-1.1472241964e+000
 1.6443451829e+000	 2.4130010609e+000	-1.1312968773e+000
 1.6178394030e+000	 2.4308519240e+000	-1.1128061138e+000
 1.5911689809e+000	 2.4483927278e+000	-1.0889849923e+000
 1.5643392883e+000	 2.4656213356e+000	-1.0572892264e+000
 1.5373557298e+000	 2.4825357335e+000	-1.0154084156e+000
 1.5102237396e+000	 2.4991340303e+000	-9.6127555854e-001
 1.4829487779e+000	 2.5154144584e+000	-8.9307477391e-001
 1.4555363276e+000	 2.5313753737e+000	-8.0924720062e-001
 1.4279918910e+000	 2.5470152560e+000	-7.0849505620e-001
 1.7123361933e+000	 2.3980781670e+000	-1.1504148638e+000
 1.6859367787e+000	 2.4167108567e+000	-1.1344185577e+000
 1.6593604911e+000	 2.4350353362e+000	-1.1198292629e+000
 1.6326126741e+000	 2.4530492042e+000	-1.1033856890e+000
 1.6056987115e+000	 2.4707501815e+000	-1.0820570180e+000
 1.5786240241e+000	 2.4881361121e+000	-1.0530568839e+000
 1.5513940657e+000	 2.5052049635e+000	-1.0138555455e+000
 1.5240143202e+000	 2.5219548273e+000	-9.6219019205e-001
 1.4964902977e+000	 2.5383839198e+000	-8.9607333340e-001
 1.4688275311e+000	 2.5544905819e+000	-8.1379924177e-001
 1.4410315730e+000	 2.5702732795e+000	-7.1394842408e-001
 1.7278308708e+000	 2.4197780224e+000	-1.1383834484e+000
 1.7011925718e+000	 2.4385793165e+000	-1.1222798654e+000
 1.6743757993e+000	 2.4570696116e+000	-1.1087047476e+000
 1.6473859452e+000	 2.4752464844e+000	-1.0941644969e+000
 1.6202284422e+000	 2.4931076352e+000	-1.0754150670e+000
 1.5929087599e+000	 2.5106508885e+000	-1.0494769337e+000
 1.5654324017e+000	 2.5278741934e+000	-1.0136481433e+000
 1.5378049009e+000	 2.5447756243e+000	-9.6551537246e-001
 1.5100318175e+000	 2.5613533813e+000	-9.0296294972e-001
 1.4821187347e+000	 2.5776057902e+000	-8.2417980144e-001
 1.4540712550e+000	 2.5935313031e+000	-7.2766430079e-001
 1.7433255482e+000	 2.4414778778e+000	-1.1267362218e+000
 1.7164483649e+000	 2.4604477764e+000	-1.1099532290e+000
 1.6893911074e+000	 2.4791038869e+000	-1.0969011282e+000
 1.6621592163e+000	 2.4974437645e+000	-1.0839047459e+000
 1.6347581728e+000	 2.5154650889e+000	-1.0675558955e+000
 1.6071934957e+000	 2.5331656649e+000	-1.0447293036e+000
 1.5794707376e+000	 2.5505434234e+000	-1.0125964965e+000
 1.5515954815e+000	 2.5675964213e+000	-9.6863757905e-001
 1.5235733373e+000	 2.5843228427e+000	-9.1065085121e-001
 1.4954099382e+000	 2.6007209984e+000	-8.3676022263e-001
 1.4671109370e+000	 2.6167893266e+000	-7.4542040267e-001
 1.7588202257e+000	 2.4631777331e+000	-1.1148892734e+000
 1.7317041579e+000	 2.4823162362e+000	-1.0967390623e+000
 1.7044064156e+000	 2.5011381623e+000	-1.0835578240e+000
 1.6769324874e+000	 2.5196410447e+000	-1.0715379230e+000
 1.6492879035e+000	 2.5378225426e+000	-1.0571545741e+000
 1.6214782315e+000	 2.5556804414e+000	-1.0371826896e+000
 1.5935090735e+000	 2.5732126533e+000	-1.0087115711e+000
 1.5653860622e+000	 2.5904172183e+000	-9.6915737305e-001
 1.5371148572e+000	 2.6072923041e+000	-9.1627328059e-001
 1.5087011417e+000	 2.6238362066e+000	-8.4815735921e-001
 1.4801506190e+000	 2.6400473501e+000	-7.6325805149e-001
 1.7743149032e+000	 2.4848775885e+000	-1.1024062869e+000
 1.7469599510e+000	 2.5041846960e+000	-1.0820903354e+000
 1.7194217238e+000	 2.5231724376e+000	-1.0679730081e+000
 1.6917057586e+000	 2.5418383249e+000	-1.0561617417e+000
 1.6638176341e+000	 2.5601799963e+000	-1.0430611844e+000
 1.6357629673e+000	 2.5781952178e+000	-1.0253909324e+000
 1.6075474094e+000	 2.5958818832e+000	-1.0002009959e+000
 1.5791766428e+000	 2.6132380153e+000	-9.6488491593e-001
 1.5506563770e+000	 2.6302617655e+000	-9.1719047170e-001
 1.5219923453e+000	 2.6469514149e+000	-8.5522793329e-001
 1.4931903010e+000	 2.6633053737e+000	-7.7747583259e-001
 1.7898095807e+000	 2.5065774439e+000	-1.0889958703e+000
 1.7622157441e+000	 2.5260531559e+000	-1.0656098551e+000
 1.7344370319e+000	 2.5452067129e+000	-1.0496007794e+000
 1.7064790297e+000	 2.5640356051e+000	-1.0370371436e+000
 1.6783473647e+000	 2.5825374500e+000	-1.0242975870e+000
 1.6500477031e+000	 2.6007099942e+000	-1.0080894856e+000
 1.6215857453e+000	 2.6185511132e+000	-9.8546516319e-001
 1.5929672234e+000	 2.6360588123e+000	-9.5383563280e-001
 1.5641978968e+000	 2.6532312270e+000	-9.1098180361e-001
 1.5352835488e+000	 2.6700666231e+000	-8.5503834914e-001
 1.5062299830e+000	 2.6865633972e+000	-7.8388667675e-001
 1.8053042581e+000	 2.5282772993e+000	-1.0745089076e+000
 1.7774715371e+000	 2.5479216157e+000	-1.0470475728e+000
 1.7494523401e+000	 2.5672409883e+000	-1.0280483715e+000
 1.7212523008e+000	 2.5862328852e+000	-1.0135853500e+000
 1.6928770954e+000	 2.6048949037e+000	-1.0000542555e+000
 1.6643324389e+000	 2.6232247706e+000	-9.8419196971e-001
 1.6356240813e+000	 2.6412203431e+000	-9.6309343875e-001
 1.6067578041e+000	 2.6588796093e+000	-9.3422601201e-001
 1.5777394166e+000	 2.6762006884e+000	-8.9528946919e-001
 1.5485747523e+000	 2.6931818313e+000	-8.4407573715e-001
 1.5192696650e+000	 2.7098214207e+000	-7.7975122117e-001
 1.8207989356e+000	 2.5499771547e+000	-1.0589359293e+000
 1.7927273302e+000	 2.5697900756e+000	-1.0262979187e+000
 1.7644676483e+000	 2.5892752636e+000	-1.0030733966e+000
 1.7360255719e+000	 2.6084301654e+000	-9.8538496065e-001
 1.7074068260e+000	 2.6272523575e+000	-9.6968717329e-001
 1.6786171747e+000	 2.6457395471e+000	-9.5278680811e-001
 1.6496624172e+000	 2.6638895731e+000	-9.3186047518e-001
 1.6205483847e+000	 2.6817004063e+000	-9.0417649373e-001
 1.5912809365e+000	 2.6991701498e+000	-8.6767022294e-001
 1.5618659559e+000	 2.7162970396e+000	-8.2147025694e-001
 1.5323093471e+000	 2.7330794442e+000	-7.6496387943e-001
 1.4019125270e+000	 2.5004992089e+000	-7.4062297088e-001
 1.3747510586e+000	 2.5155346883e+000	-6.7001434372e-001
 1.3474708973e+000	 2.5302524749e+000	-6.6105803465e-001
 1.3200774803e+000	 2.5446514432e+000	-7.0805563666e-001
 1.2925762503e+000	 2.5587305887e+000	-7.4923563721e-001
 1.2649726523e+000	 2.5724890275e+000	-7.7408873566e-001
 1.2372721302e+000	 2.5859259956e+000	-7.8363616313e-001
 1.2094801237e+000	 2.5990408487e+000	-7.7896155024e-001
 1.1816020650e+000	 2.6118330614e+000	-7.6117979248e-001
 1.1536433759e+000	 2.6243022261e+000	-7.3140581116e-001
 1.1256094643e+000	 2.6364480523e+000	-6.9072359531e-001
 1.4149522090e+000	 2.5237572325e+000	-7.1579669856e-001
 1.3875381023e+000	 2.5389325621e+000	-6.3553995955e-001
 1.3600041986e+000	 2.5537872440e+000	-6.1178508249e-001
 1.3323559857e+000	 2.5683201422e+000	-6.4964903985e-001
 1.3045989571e+000	 2.5825302428e+000	-7.0563119805e-001
 1.2767386083e+000	 2.5964166536e+000	-7.3997715067e-001
 1.2487804339e+000	 2.6099786037e+000	-7.5449370906e-001
 1.2207299242e+000	 2.6232154428e+000	-7.5102039008e-001
 1.1925925618e+000	 2.6361266403e+000	-7.3139411238e-001
 1.1643738191e+000	 2.6487117851e+000	-6.9741390018e-001
 1.1360791543e+000	 2.6609705839e+000	-6.5080600876e-001
 1.4279918910e+000	 2.5470152560e+000	-7.0849505620e-001
 1.4003251459e+000	 2.5623304359e+000	-6.2249971270e-001
 1.3725374998e+000	 2.5773220132e+000	-5.8758878858e-001
 1.3446344912e+000	 2.5919888412e+000	-6.0962154281e-001
 1.3166216639e+000	 2.6063298969e+000	-6.7762364647e-001
 1.2885045643e+000	 2.6203442798e+000	-7.2581800965e-001
 1.2602887376e+000	 2.6340312119e+000	-7.4904245452e-001
 1.2319797246e+000	 2.6473900368e+000	-7.4982042346e-001
 1.2035830587e+000	 2.6604202192e+000	-7.3064486295e-001
 1.1751042623e+000	 2.6731213441e+000	-6.9355222141e-001
 1.1465488442e+000	 2.6854931155e+000	-6.3858754184e-001
 1.4410315730e+000	 2.5702732795e+000	-7.1394842408e-001
 1.4131121895e+000	 2.5857283097e+000	-6.2550493328e-001
 1.3850708010e+000	 2.6008567823e+000	-5.8255150615e-001
 1.3569129966e+000	 2.6156575402e+000	-5.9151631059e-001
 1.3286443707e+000	 2.6301295510e+000	-6.5740770120e-001
 1.3002705204e+000	 2.6442719060e+000	-7.2335812813e-001
 1.2717970413e+000	 2.6580838200e+000	-7.5869214702e-001
 1.2432295251e+000	 2.6715646308e+000	-7.6637381011e-001
 1.2145735555e+000	 2.6847137981e+000	-7.4750892924e-001
 1.1858347055e+000	 2.6975309030e+000	-7.0443737232e-001
 1.1570185342e+000	 2.7100156471e+000	-6.3985373972e-001
 1.4540712550e+000	 2.5935313031e+000	-7.2766430079e-001
 1.4258992331e+000	 2.6091261836e+000	-6.3946280066e-001
 1.3976041023e+000	 2.6243915514e+000	-5.9106651078e-001
 1.3691915020e+000	 2.6393262393e+000	-5.8935465170e-001
 1.3406670775e+000	 2.6539292051e+000	-6.4110685890e-001
 1.3120364764e+000	 2.6681995322e+000	-7.2488334595e-001
 1.2833053451e+000	 2.6821364282e+000	-7.7396141610e-001
 1.2544793256e+000	 2.6957392248e+000	-7.8770258925e-001
 1.2255640523e+000	 2.7090073770e+000	-7.6957732853e-001
 1.1965651487e+000	 2.7219404620e+000	-7.2286477879e-001
 1.1674882241e+000	 2.7345381787e+000	-6.5063468423e-001
 1.4671109370e+000	 2.6167893266e+000	-7.4542040267e-001
 1.4386862768e+000	 2.6325240574e+000	-6.5956868421e-001
 1.4101374035e+000	 2.6479263206e+000	-6.0782973427e-001
 1.3814700074e+000	 2.6629949383e+000	-5.9741907061e-001
 1.3526897843e+000	 2.6777288592e+000	-6.3491023882e-001
 1.3238024324e+000	 2.6921271584e+000	-7.2036439480e-001
 1.2948136488e+000	 2.7061890363e+000	-7.8430195492e-001
 1.2657291261e+000	 2.7199138188e+000	-8.0730029171e-001
 1.2365545492e+000	 2.7333009559e+000	-7.9317798719e-001
 1.2072955920e+000	 2.7463500210e+000	-7.4554161375e-001
 1.1779579140e+000	 2.7590607103e+000	-6.6776740829e-001
 1.4801506190e+000	 2.6400473501e+000	-7.6325805149e-001
 1.4514733204e+000	 2.6559219312e+000	-6.8129881651e-001
 1.4226707048e+000	 2.6714610897e+000	-6.2775352554e-001
 1.3937485129e+000	 2.6866636373e+000	-6.0896144392e-001
 1.3647124911e+000	 2.7015285133e+000	-6.3204029580e-001
 1.3355683884e+000	 2.7160547845e+000	-7.0425524942e-001
 1.3063219525e+000	 2.7302416445e+000	-7.8657015991e-001
 1.2769789265e+000	 2.7440884129e+000	-8.2237491623e-001
 1.2475450460e+000	 2.7575945348e+000	-8.1543364937e-001
 1.2180260352e+000	 2.7707595800e+000	-7.6960754356e-001
 1.1884276040e+000	 2.7835832419e+000	-6.8851241802e-001
 1.4931903010e+000	 2.6633053737e+000	-7.7747583259e-001
 1.4642603640e+000	 2.6793198050e+000	-6.9999154524e-001
 1.4352040060e+000	 2.6949958588e+000	-6.4443744164e-001
 1.4060270183e+000	 2.7103323363e+000	-6.1860281958e-001
 1.3767351979e+000	 2.7253281674e+000	-6.3005777281e-001
 1.3473343444e+000	 2.7399824107e+000	-6.8609856658e-001
 1.3178302562e+000	 2.7542942527e+000	-7.7856794887e-001
 1.2882287270e+000	 2.7682630069e+000	-8.3054667236e-001
 1.2585355428e+000	 2.7818881137e+000	-8.3387946689e-001
 1.2287564784e+000	 2.7951691390e+000	-7.9261098977e-001
 1.1988972939e+000	 2.8081057735e+000	-7.1053133949e-001
 1.5062299830e+000	 2.6865633972e+000	-7.8388667675e-001
 1.4770474077e+000	 2.7027176788e+000	-7.1083916416e-001
 1.4477373073e+000	 2.7185306280e+000	-6.5531405785e-001
 1.4183055237e+000	 2.7340010353e+000	-6.2505590825e-001
 1.3887579047e+000	 2.7491278215e+000	-6.2756113391e-001
 1.3591003005e+000	 2.7639100369e+000	-6.7005545108e-001
 1.3293385599e+000	 2.7783468608e+000	-7.5847902245e-001
 1.2994785275e+000	 2.7924376009e+000	-8.2982234144e-001
 1.2695260397e+000	 2.8061816926e+000	-8.4643839679e-001
 1.2394869216e+000	 2.8195786980e+000	-8.1248572012e-001
 1.2093669839e+000	 2.8326283051e+000	-7.3186486158e-001
 1.5192696650e+000	 2.7098214207e+000	-7.7975122117e-001
 1.4898344513e+000	 2.7261155527e+000	-7.1288021264e-001
 1.4602706085e+000	 2.7420653971e+000	-6.5950779159e-001
 1.4305840291e+000	 2.7576697343e+000	-6.2719240277e-001
 1.4007806115e+000	 2.7729274756e+000	-6.2325271893e-001
 1.3708662565e+000	 2.7878376631e+000	-6.5474467840e-001
 1.3408468636e+000	 2.8023994690e+000	-7.2844001853e-001
 1.3107283279e+000	 2.8166121949e+000	-8.1856998466e-001
 1.2805165365e+000	 2.8304752715e+000	-8.5139693130e-001
 1.2502173649e+000	 2.8439882570e+000	-8.2752774899e-001
 1.2198366738e+000	 2.8571508367e+000	-7.5091095722e-001
 1.5323093471e+000	 2.7330794442e+000	-7.6496387943e-001
 1.5026214949e+000	 2.7495134265e+000	-7.0564393622e-001
 1.4728039098e+000	 2.7656001662e+000	-6.5622583793e-001
 1.4428625346e+000	 2.7813384333e+000	-6.2397566716e-001
 1.4128033184e+000	 2.7967271297e+000	-6.1593272466e-001
 1.3826322125e+000	 2.8117652893e+000	-6.3888627859e-001
 1.3523551673e+000	 2.8264520771e+000	-6.9935384864e-001
 1.3219781284e+000	 2.8407867890e+000	-7.9549397749e-001
 1.2915070333e+000	 2.8547688504e+000	-8.4738114026e-001
 1.2609478081e+000	 2.8683978159e+000	-8.3637252891e-001
 1.2303063637e+000	 2.8816733683e+000	-7.6640336626e-001
 1.1256094643e+000	 2.6364480523e+000	-6.9072359531e-001
 1.0975015011e+000	 2.6482721155e+000	-6.4696171749e-001
 1.0693290614e+000	 2.6597725119e+000	-6.0697809518e-001
 1.0410974981e+000	 2.6709492982e+000	-5.7010830729e-001
 1.0128121385e+000	 2.6818026442e+000	-5.3357244626e-001
 9.8447828143e-001	 2.6923328307e+000	-4.9642506648e-001
 9.5610119473e-001	 2.7025402488e+000	-4.5824789315e-001
 9.2768611232e-001	 2.7124253981e+000	-4.1868509443e-001
 8.9923823169e-001	 2.7219888849e+000	-3.7733617806e-001
 8.7076271134e-001	 2.7312314211e+000	-3.3377145219e-001
 8.4226466823e-001	 2.7401538221e+000	-2.8752520508e-001
 1.1360791543e+000	 2.6609705839e+000	-6.5080600876e-001
 1.1077097490e+000	 2.6729046269e+000	-6.0094043490e-001
 1.0792752675e+000	 2.6845119925e+000	-5.5387737049e-001
 1.0507811125e+000	 2.6957927380e+000	-5.0884612126e-001
 1.0222326608e+000	 2.7067470348e+000	-4.6544304363e-001
 9.9363526055e-001	 2.7173751663e+000	-4.2328870546e-001
 9.6499422857e-001	 2.7276775272e+000	-3.8191392534e-001
 9.3631484747e-001	 2.7376546217e+000	-3.4089340397e-001
 9.0760236309e-001	 2.7473070619e+000	-2.9974923594e-001
 8.7886198190e-001	 2.7566355662e+000	-2.5796340551e-001
 8.5009886846e-001	 2.7656409576e+000	-2.1497056684e-001
 1.1465488442e+000	 2.6854931155e+000	-6.3858754184e-001
 1.1179179968e+000	 2.6975371383e+000	-5.7736835133e-001
 1.0892214736e+000	 2.7092514731e+000	-5.2021555781e-001
 1.0604647269e+000	 2.7206361779e+000	-4.6675040861e-001
 1.0316531831e+000	 2.7316914254e+000	-4.1658994253e-001
 1.0027922397e+000	 2.7424175019e+000	-3.6936165696e-001
 9.7388726241e-001	 2.7528148056e+000	-3.2460063975e-001
 9.4494358263e-001	 2.7628838453e+000	-2.8186676213e-001
 9.1596649450e-001	 2.7726252389e+000	-2.4065795481e-001
 8.8696125246e-001	 2.7820397112e+000	-2.0041990106e-001
 8.5793306869e-001	 2.7911280930e+000	-1.6053837666e-001
 1.1570185342e+000	 2.7100156471e+000	-6.3985373972e-001
 1.1281262447e+000	 2.7221696496e+000	-5.6810920744e-001
 1.0991676797e+000	 2.7339909537e+000	-5.0168872209e-001
 1.0701483413e+000	 2.7454796177e+000	-4.4030251173e-001
 1.0410737054e+000	 2.7566358160e+000	-3.8364513978e-001
 1.0119492188e+000	 2.7674598375e+000	-3.3138427217e-001
 9.8278029625e-001	 2.7779520840e+000	-2.8318200171e-001
 9.5357231778e-001	 2.7881130690e+000	-2.3856887899e-001
 9.2433062590e-001	 2.7979434159e+000	-1.9709405496e-001
 8.9506052302e-001	 2.8074438563e+000	-1.5821836210e-001
 8.6576726892e-001	 2.8166152285e+000	-1.2132896904e-001
 1.1674882241e+000	 2.7345381787e+000	-6.5063468423e-001
 1.1383344926e+000	 2.7468021610e+000	-5.6974323520e-001
 1.1091138858e+000	 2.7587304343e+000	-4.9505001941e-001
 1.0798319557e+000	 2.7703230575e+000	-4.2641103123e-001
 1.0504942277e+000	 2.7815802066e+000	-3.6365420965e-001
 1.0211061979e+000	 2.7925021731e+000	-3.0656789913e-001
 9.9167333009e-001	 2.8030893623e+000	-2.5491854300e-001
 9.6220105294e-001	 2.8133422926e+000	-2.0833668703e-001
 9.3269475730e-001	 2.8232615929e+000	-1.6644923465e-001
 9.0315979358e-001	 2.8328480014e+000	-1.2878304227e-001
 8.7360146914e-001	 2.8421023640e+000	-9.4776457958e-002
 1.1779579140e+000	 2.7590607103e+000	-6.6776740829e-001
 1.1485427405e+000	 2.7714346724e+000	-5.7928422983e-001
 1.1190600919e+000	 2.7834699149e+000	-4.9747372162e-001
 1.0895155700e+000	 2.7951664974e+000	-4.2239334927e-001
 1.0599147500e+000	 2.8065245973e+000	-3.5405927150e-001
 1.0302631770e+000	 2.8175445086e+000	-2.9243448477e-001
 1.0005663639e+000	 2.8282266407e+000	-2.3744310428e-001
 9.7082978809e-001	 2.8385715162e+000	-1.8886740839e-001
 9.4105888870e-001	 2.8485797698e+000	-1.4646351726e-001
 9.1125906414e-001	 2.8582521465e+000	-1.0987460542e-001
 8.8143566937e-001	 2.8675894995e+000	-7.8639499648e-002
 1.1884276040e+000	 2.7835832419e+000	-6.8851241802e-001
 1.1587509884e+000	 2.7960671837e+000	-5.9415837812e-001
 1.1290062980e+000	 2.8082093955e+000	-5.0653551393e-001
 1.0991991844e+000	 2.8200099372e+000	-4.2595736648e-001
 1.0693352723e+000	 2.8314689879e+000	-3.5268213278e-001
 1.0394201561e+000	 2.8425868442e+000	-2.8690048952e-001
 1.0094593978e+000	 2.8533639191e+000	-2.2874668101e-001
 9.7945852325e-001	 2.8638007399e+000	-1.7820569214e-001
 9.4942302010e-001	 2.8738979468e+000	-1.3521363668e-001
 9.1935833470e-001	 2.8836562915e+000	-9.9579713513e-002
 8.8926986960e-001	 2.8930766349e+000	-7.0992035264e-002
 1.1988972939e+000	 2.8081057735e+000	-7.1053133949e-001
 1.1689592362e+000	 2.8206996951e+000	-6.1218336242e-001
 1.1389525041e+000	 2.8329488761e+000	-5.2019303005e-001
 1.1088827988e+000	 2.8448533770e+000	-4.3518343904e-001
 1.0787557946e+000	 2.8564133785e+000	-3.5770759659e-001
 1.0485771352e+000	 2.8676291798e+000	-2.8823592322e-001
 1.0183524316e+000	 2.8785011975e+000	-2.2714421593e-001
 9.8808725840e-001	 2.8890299635e+000	-1.7473081732e-001
 9.5778715150e-001	 2.8992161238e+000	-1.3110145854e-001
 9.2745760526e-001	 2.9090604366e+000	-9.6300622123e-002
 8.9710406983e-001	 2.9185637704e+000	-7.0214014557e-002
 1.2093669839e+000	 2.8326283051e+000	-7.3186486158e-001
 1.1791674841e+000	 2.8453322065e+000	-6.3154772376e-001
 1.1488987102e+000	 2.8576883567e+000	-5.3676661038e-001
 1.1185664132e+000	 2.8696968168e+000	-4.4850650418e-001
 1.0881763169e+000	 2.8813577691e+000	-3.6766692385e-001
 1.0577341144e+000	 2.8926715154e+000	-2.9504911104e-001
 1.0272454655e+000	 2.9036384759e+000	-2.3134361732e-001
 9.9671599356e-001	 2.9142591871e+000	-1.7714395771e-001
 9.6615128290e-001	 2.9245343008e+000	-1.3284243511e-001
 9.3555687582e-001	 2.9344645817e+000	-9.8744783095e-002
 9.0493827006e-001	 2.9440509059e+000	-7.4982101743e-002
 1.2198366738e+000	 2.8571508367e+000	-7.5091095722e-001
 1.1893757320e+000	 2.8699647178e+000	-6.5079046839e-001
 1.1588449163e+000	 2.8824278373e+000	-5.5492026979e-001
 1.1282500276e+000	 2.8945402567e+000	-4.6469838247e-001
 1.0975968391e+000	 2.9063021597e+000	-3.8142144085e-001
 1.0668910935e+000	 2.9177138510e+000	-3.0627157436e-001
 1.0361384993e+000	 2.9287757543e+000	-2.4030362175e-001
 1.0053447287e+000	 2.9394884108e+000	-1.8445550464e-001
 9.7451541430e-001	 2.9498524778e+000	-1.3945409192e-001
 9.4365614638e-001	 2.9598687268e+000	-1.0591445389e-001
 9.1277247028e-001	 2.9695380413e+000	-8.4260364643e-002
 1.2303063637e+000	 2.8816733683e+000	-7.6640336626e-001
 1.1995839799e+000	 2.8945972292e+000	-6.6878090330e-001
 1.1687911224e+000	 2.9071673179e+000	-5.7364286263e-001
 1.1379336420e+000	 2.9193836965e+000	-4.8285024653e-001
 1.1070173614e+000	 2.9312465504e+000	-3.9814628336e-001
 1.0760480726e+000	 2.9427561866e+000	-3.2114301972e-001
 1.0450315331e+000	 2.9539130326e+000	-2.5330817037e-001
 1.0139734639e+000	 2.9647176344e+000	-1.9595217724e-001
 9.8287954570e-001	 2.9751706548e+000	-1.5024454403e-001
 9.5175541694e-001	 2.9852728719e+000	-1.1709631328e-001
 9.2060667051e-001	 2.9950251768e+000	-9.7290948065e-002
 8.4226466823e-001	 2.7401538221e+000	-2.8752520508e-001
 8.1374917503e-001	 2.7487570045e+000	-2.4313094082e-001
 7.8522125655e-001	 2.7570419823e+000	-2.0743377286e-001
 7.5668588880e-001	 2.7650098669e+000	-1.8327300073e-001
 7.2814799717e-001	 2.7726618660e+000	-1.7330674846e-001
 6.9961245439e-001	 2.7799992815e+000	-1.8000583913e-001
 6.7108407844e-001	 2.7870235076e+000	-2.0564879243e-001
 6.4256763062e-001	 2.7937360289e+000	-2.3372579471e-001
 6.1406781368e-001	 2.8001384177e+000	-2.3143776278e-001
 5.8558927002e-001	 2.8062323324e+000	-1.9629854299e-001
 5.5713657999e-001	 2.8120195152e+000	-1.2609758115e-001
 8.5009886846e-001	 2.7656409576e+000	-2.1497056684e-001
 8.2131814262e-001	 2.7743241612e+000	-1.7433256100e-001
 7.9252487593e-001	 2.7826862005e+000	-1.4202127157e-001
 7.6372409067e-001	 2.7907281972e+000	-1.2089571944e-001
 7.3492075806e-001	 2.7984513702e+000	-1.1360721008e-001
 7.0611979615e-001	 2.8058570336e+000	-1.2259263302e-001
 6.7732606774e-001	 2.8129465945e+000	-1.5006889435e-001
 6.4854437840e-001	 2.8197215513e+000	-1.8713728574e-001
 6.1977947462e-001	 2.8261834910e+000	-1.9371122895e-001
 5.9103604200e-001	 2.8323340874e+000	-1.6370419120e-001
 5.6231870349e-001	 2.8381750988e+000	-9.4346037271e-002
 8.5793306869e-001	 2.7911280930e+000	-1.6053837666e-001
 8.2888711020e-001	 2.7998913179e+000	-1.2352932624e-001
 7.9982849530e-001	 2.8083304187e+000	-9.4369257898e-002
 7.7076229254e-001	 2.8164465275e+000	-7.5915422673e-002
 7.4169351896e-001	 2.8242408744e+000	-7.0791626265e-002
 7.1262713792e-001	 2.8317147857e+000	-8.1380961975e-002
 6.8356805703e-001	 2.8388696815e+000	-1.0981967823e-001
 6.5452112617e-001	 2.8457070738e+000	-1.5293363717e-001
 6.2549113556e-001	 2.8522285643e+000	-1.6810924417e-001
 5.9648281398e-001	 2.8584358423e+000	-1.4288624057e-001
 5.6750082698e-001	 2.8643306824e+000	-7.3942823178e-002
 8.6576726892e-001	 2.8166152285e+000	-1.2132896904e-001
 8.3645607779e-001	 2.8254584746e+000	-8.7837197093e-002
 8.0713211467e-001	 2.8339746369e+000	-6.1618857932e-002
 7.7780049441e-001	 2.8421648578e+000	-4.5509535914e-002
 7.4846627985e-001	 2.8500303787e+000	-4.2086495088e-002
 7.1913447968e-001	 2.8575725378e+000	-5.3660852107e-002
 6.8981004632e-001	 2.8647927684e+000	-8.2270877059e-002
 6.6049787394e-001	 2.8716925962e+000	-1.2832607284e-001
 6.3120279650e-001	 2.8782736376e+000	-1.5190884314e-001
 6.0192958596e-001	 2.8845375973e+000	-1.3120636530e-001
 5.7268295047e-001	 2.8904862660e+000	-6.2358024955e-002
 8.7360146914e-001	 2.8421023640e+000	-9.4776457958e-002
 8.4402504538e-001	 2.8510256313e+000	-6.4692390955e-002
 8.1443573404e-001	 2.8596188551e+000	-4.1216850379e-002
 7.8483869628e-001	 2.8678831881e+000	-2.7145393823e-002
 7.5523904074e-001	 2.8758198829e+000	-2.4991287451e-002
 7.2564182144e-001	 2.8834302899e+000	-3.6977123859e-002
 6.9605203562e-001	 2.8907158553e+000	-6.5027552352e-002
 6.6647462171e-001	 2.8976781186e+000	-1.1076138445e-001
 6.3691445745e-001	 2.9043187109e+000	-1.4259857893e-001
 6.0737635794e-001	 2.9106393523e+000	-1.2621146694e-001
 5.7786507396e-001	 2.9166418496e+000	-5.7218522383e-002
 8.8143566937e-001	 2.8675894995e+000	-7.8639499648e-002
 8.5159401296e-001	 2.8765927880e+000	-5.1843301424e-002
 8.2173935342e-001	 2.8852630733e+000	-3.0908741386e-002
 7.9187689815e-001	 2.8936015184e+000	-1.8574470155e-002
 7.6201180164e-001	 2.9016093871e+000	-1.7273832834e-002
 7.3214916321e-001	 2.9092880420e+000	-2.9125935207e-002
 7.0229402491e-001	 2.9166389422e+000	-5.5927797512e-002
 6.7245136949e-001	 2.9236636411e+000	-9.9147653220e-002
 6.4262611839e-001	 2.9303637842e+000	-1.3788015476e-001
 6.1282312992e-001	 2.9367411072e+000	-1.2563649401e-001
 5.8304719746e-001	 2.9427974332e+000	-5.6311981013e-002
 8.8926986960e-001	 2.8930766349e+000	-7.0992035264e-002
 8.5916298055e-001	 2.9021599447e+000	-4.7342369795e-002
 8.2904297279e-001	 2.9109072915e+000	-2.8731762789e-002
 7.9891510002e-001	 2.9193198487e+000	-1.7826501547e-002
 7.6878456253e-001	 2.9273988914e+000	-1.6965568261e-002
 7.3865650497e-001	 2.9351457942e+000	-2.8151156333e-002
 7.0853601420e-001	 2.9425620291e+000	-5.3040239704e-002
 6.7842811726e-001	 2.9496491635e+000	-9.2937258801e-002
 6.4833777933e-001	 2.9564088576e+000	-1.3566978427e-001
 6.1826990190e-001	 2.9628428622e+000	-1.2740695294e-001
 5.8822932095e-001	 2.9689530167e+000	-5.7590496788e-002
 8.9710406983e-001	 2.9185637704e+000	-7.0214014557e-002
 8.6673194813e-001	 2.9277271014e+000	-4.9537911506e-002
 8.3634659216e-001	 2.9365515097e+000	-3.3007798459e-002
 8.0595330189e-001	 2.9450381790e+000	-2.3203511648e-002
 7.7555732342e-001	 2.9531883956e+000	-2.2356658846e-002
 7.4516384673e-001	 2.9610035463e+000	-3.2340586069e-002
 7.1477800350e-001	 2.9684851161e+000	-5.4661352510e-002
 6.8440486503e-001	 2.9756346860e+000	-9.0449783917e-002
 6.5404944027e-001	 2.9824539309e+000	-1.3409929703e-001
 6.2371667388e-001	 2.9889446171e+000	-1.2964112927e-001
 5.9341144444e-001	 2.9951086003e+000	-5.9173914462e-002
 9.0493827006e-001	 2.9440509059e+000	-7.4982101743e-002
 8.7430091572e-001	 2.9532942581e+000	-5.7065900281e-002
 8.4365021153e-001	 2.9621957279e+000	-4.2336243112e-002
 8.1299150376e-001	 2.9707565093e+000	-3.3273741618e-002
 7.8233008431e-001	 2.9789778998e+000	-3.1990997713e-002
 7.5167118849e-001	 2.9868612984e+000	-4.0222019693e-002
 7.2101999279e-001	 2.9944082030e+000	-5.9312590845e-002
 6.9038161280e-001	 3.0016202084e+000	-9.0211668079e-002
 6.5976110121e-001	 3.0084990042e+000	-1.3151700459e-001
 6.2916344586e-001	 3.0150463721e+000	-1.3065203656e-001
 5.9859356793e-001	 3.0212641839e+000	-5.9352839580e-002
 9.1277247028e-001	 2.9695380413e+000	-8.4260364643e-002
 8.8186988331e-001	 2.9788614148e+000	-6.8841712530e-002
 8.5095383090e-001	 2.9878399461e+000	-5.5586797634e-002
 8.2002970563e-001	 2.9964748396e+000	-4.6865492625e-002
 7.8910284520e-001	 3.0047674041e+000	-4.4661092526e-002
 7.5817853025e-001	 3.0127190505e+000	-5.0559177006e-002
 7.2726198208e-001	 3.0203312899e+000	-6.5737358801e-002
 6.9635836057e-001	 3.0276057309e+000	-9.0956002976e-002
 6.6547276215e-001	 3.0345440775e+000	-1.2648834150e-001
 6.3461021783e-001	 3.0411481271e+000	-1.2894910951e-001
 6.0377569142e-001	 3.0474197675e+000	-5.6591362429e-002
 9.2060667051e-001	 2.9950251768e+000	-9.7290948065e-002
 8.8943885089e-001	 3.0044285715e+000	-8.4051834353e-002
 8.5825745028e-001	 3.0134841643e+000	-7.1892204702e-002
 8.2706790750e-001	 3.0221931699e+000	-6.3060885589e-002
 7.9587560609e-001	 3.0305569083e+000	-5.9402845385e-002
 7.6468587201e-001	 3.0385768026e+000	-6.2347499019e-002
 7.3350397137e-001	 3.0462543768e+000	-7.2897820385e-002
 7.0233510834e-001	 3.0535912533e+000	-9.1620355193e-002
 6.7118442308e-001	 3.0605891508e+000	-1.1863623466e-001
 6.4005698981e-001	 3.0672498820e+000	-1.2323965637e-001
 6.0895781491e-001	 3.0735753511e+000	-4.9529511139e-002
 5.5713657999e-001	 2.8120195152e+000	-1.2609758115e-001
 5.2871851982e-001	 2.8175009906e+000	-4.5241141408e-002
 5.0033526381e-001	 2.8226795537e+000	 2.1750147448e-002
 4.7199118843e-001	 2.8275571857e+000	 7.6973540458e-002
 4.4369060226e-001	 2.8321359428e+000	 1.2235124289e-001
 4.1543774471e-001	 2.8364179532e+000	 1.5959010101e-001
 3.8723678479e-001	 2.8404054153e+000	 1.9014488712e-001
 3.5909182003e-001	 2.8441005950e+000	 2.1518455889e-001
 3.3100687533e-001	 2.8475058238e+000	 2.3556089791e-001
 3.0298590209e-001	 2.8506234959e+000	 2.5177896065e-001
 2.7503277725e-001	 2.8534560662e+000	 2.6396880859e-001
 5.6231870349e-001	 2.8381750988e+000	-9.4346037271e-002
 5.3363631693e-001	 2.8437075593e+000	-1.3016466998e-002
 5.0498905826e-001	 2.8489342900e+000	 5.2493183194e-002
 4.7638134466e-001	 2.8538572906e+000	 1.0441070622e-001
 4.4781752477e-001	 2.8584786363e+000	 1.4480948285e-001
 4.1930187744e-001	 2.8628004752e+000	 1.7557219753e-001
 3.9083861047e-001	 2.8668250261e+000	 1.9835814495e-001
 3.6243185948e-001	 2.8705545760e+000	 2.1457345524e-001
 3.3408568682e-001	 2.8739914781e+000	 2.2534359293e-001
 3.0580408065e-001	 2.8771381487e+000	 2.3148751643e-001
 2.7759095395e-001	 2.8799970658e+000	 2.3349292097e-001
 5.6750082698e-001	 2.8643306824e+000	-7.3942823178e-002
 5.3855411404e-001	 2.8699141281e+000	 8.3536967585e-003
 5.0964285272e-001	 2.8751890264e+000	 7.2950750813e-002
 4.8077150089e-001	 2.8801573956e+000	 1.2223249374e-001
 4.5194444728e-001	 2.8848213299e+000	 1.5845039716e-001
 4.2316601018e-001	 2.8891829973e+000	 1.8369130915e-001
 3.9444043615e-001	 2.8932446369e+000	 1.9984909936e-001
 3.6577189893e-001	 2.8970085570e+000	 2.0859916252e-001
 3.3716449831e-001	 2.9004771323e+000	 2.1137508298e-001
 3.0862225920e-001	 2.9036528015e+000	 2.0934679774e-001
 2.8014913065e-001	 2.9065380653e+000	 2.0339963509e-001
 5.7268295047e-001	 2.8904862660e+000	-6.2358024955e-002
 5.4347191115e-001	 2.8961206968e+000	 2.1297944056e-002
 5.1429664717e-001	 2.9014437627e+000	 8.5487101392e-002
 4.8516165711e-001	 2.9064575005e+000	 1.3276922986e-001
 4.5607136979e-001	 2.9111640234e+000	 1.6559414712e-001
 4.2703014291e-001	 2.9155655193e+000	 1.8627445541e-001
 3.9804226183e-001	 2.9196642478e+000	 1.9696186978e-001
 3.6911193838e-001	 2.9234625380e+000	 1.9962633948e-001
 3.4024330980e-001	 2.9269627865e+000	 1.9603720993e-001
 3.1144043775e-001	 2.9301674543e+000	 1.8774571073e-001
 2.8270730734e-001	 2.9330790648e+000	 1.7606809818e-001
 5.7786507396e-001	 2.9166418496e+000	-5.7218522383e-002
 5.4838970826e-001	 2.9223272655e+000	 2.8117251788e-002
 5.1895044162e-001	 2.9276984991e+000	 9.2367419853e-002
 4.8955181334e-001	 2.9327576054e+000	 1.3828002742e-001
 4.6019829230e-001	 2.9375067170e+000	 1.6851675558e-001
 4.3089427565e-001	 2.9419480414e+000	 1.8563073542e-001
 4.0164408750e-001	 2.9460838586e+000	 1.9204793203e-001
 3.7245197783e-001	 2.9499165190e+000	 1.9005125127e-001
 3.4332212130e-001	 2.9534484408e+000	 1.8176655838e-001
 3.1425861630e-001	 2.9566821071e+000	 1.6914983919e-001
 2.8526548404e-001	 2.9596200644e+000	 1.5397478096e-001
 5.8304719746e-001	 2.9427974332e+000	-5.6311981013e-002
 5.5330750536e-001	 2.9485338342e+000	 3.0979884574e-002
 5.2360423607e-001	 2.9539532354e+000	 9.5751748994e-002
 4.9394196957e-001	 2.9590577103e+000	 1.4094584479e-001
 4.6432521481e-001	 2.9638494106e+000	 1.6944241277e-001
 4.3475840838e-001	 2.9683305634e+000	 1.8404298500e-001
 4.0524591318e-001	 2.9725034694e+000	 1.8745722609e-001
 3.7579201728e-001	 2.9763705001e+000	 1.8229242123e-001
 3.4640093279e-001	 2.9799340950e+000	 1.7104473881e-001
 3.1707679486e-001	 2.9831967599e+000	 1.5609144046e-001
 2.8782366074e-001	 2.9861610639e+000	 1.3968326153e-001
 5.8822932095e-001	 2.9689530167e+000	-5.7590496788e-002
 5.5822530247e-001	 2.9747404029e+000	 3.1916684637e-002
 5.2825803052e-001	 2.9802079718e+000	 9.7689331546e-002
 4.9833212579e-001	 2.9853578153e+000	 1.4286299243e-001
 4.6845213732e-001	 2.9901921041e+000	 1.7053625432e-001
 4.3862254111e-001	 2.9947130855e+000	 1.8375992766e-001
 4.0884773886e-001	 2.9989230803e+000	 1.8552977573e-001
 3.7913205673e-001	 3.0028244811e+000	 1.7878180922e-001
 3.4947974428e-001	 3.0064197492e+000	 1.6638920887e-001
 3.1989497341e-001	 3.0097114127e+000	 1.5115998811e-001
 2.9038183743e-001	 3.0127020634e+000	 1.3583456203e-001
 5.9341144444e-001	 2.9951086003e+000	-5.9173914462e-002
 5.6314309958e-001	 3.0009469717e+000	 3.2816723014e-002
 5.3291182497e-001	 3.0064627082e+000	 1.0011334469e-001
 5.0272228202e-001	 3.0116579202e+000	 1.4603705928e-001
 4.7257905983e-001	 3.0165347977e+000	 1.7389758286e-001
 4.4248667385e-001	 3.0210956075e+000	 1.8698878920e-001
 4.1244956453e-001	 3.0253426911e+000	 1.8858778869e-001
 3.8247209617e-001	 3.0292784621e+000	 1.8195648434e-001
 3.5255855577e-001	 3.0329054035e+000	 1.7034459996e-001
 3.2271315196e-001	 3.0362260655e+000	 1.5699322810e-001
 2.9294001413e-001	 3.0392430630e+000	 1.4513800420e-001
 5.9859356793e-001	 3.0212641839e+000	-5.9352839580e-002
 5.6806089669e-001	 3.0271535404e+000	 3.5423290191e-002
 5.3756561942e-001	 3.0327174445e+000	 1.0483600323e-001
 5.0711243824e-001	 3.0379580251e+000	 1.5237723348e-001
 4.7670598234e-001	 3.0428774912e+000	 1.8155350603e-001
 4.4635080658e-001	 3.0474781295e+000	 1.9588834789e-001
 4.1605139021e-001	 3.0517623019e+000	 1.9892820833e-001
 3.8581213562e-001	 3.0557324431e+000	 1.9425076206e-001
 3.5563736725e-001	 3.0593910577e+000	 1.8547451847e-001
 3.2553133051e-001	 3.0627407183e+000	 1.7626871709e-001
 2.9549819082e-001	 3.0657840625e+000	 1.7036255260e-001
 6.0377569142e-001	 3.0474197675e+000	-5.6591362429e-002
 5.7297869379e-001	 3.0533601091e+000	 4.1330205776e-002
 5.4221941387e-001	 3.0589721809e+000	 1.1354400934e-001
 5.1150259447e-001	 3.0642581301e+000	 1.6369099367e-001
 4.8083290485e-001	 3.0692201848e+000	 1.9545296618e-001
 4.5021493931e-001	 3.0738606516e+000	 2.1256239400e-001
 4.1965321588e-001	 3.0781819128e+000	 2.1881568957e-001
 3.8915217507e-001	 3.0821864241e+000	 2.1808877784e-001
 3.5871617874e-001	 3.0858767119e+000	 2.1435379309e-001
 3.2834950906e-001	 3.0892553711e+000	 2.1169581425e-001
 2.9805636752e-001	 3.0923250620e+000	 2.1432861594e-001
 6.0895781491e-001	 3.0735753511e+000	-4.9529511139e-002
 5.7789649090e-001	 3.0795666778e+000	 5.1978428193e-002
 5.4687320832e-001	 3.0852269172e+000	 1.2779432807e-001
 5.1589275069e-001	 3.0905582350e+000	 1.8167914889e-001
 4.8495982735e-001	 3.0955628784e+000	 2.1746113815e-001
 4.5407907204e-001	 3.1002431736e+000	 2.3905357435e-001
 4.2325504155e-001	 3.1046015236e+000	 2.5047597389e-001
 3.9249221452e-001	 3.1086404051e+000	 2.5587747134e-001
 3.6179499023e-001	 3.1123623662e+000	 2.5956114174e-001
 3.3116768761e-001	 3.1157700239e+000	 2.6600809924e-001
 3.0061454421e-001	 3.1188660616e+000	 2.7990027941e-001
 2.7503277725e-001	 2.8534560662e+000	 2.6396880859e-001
 2.4714713513e-001	 2.8560064095e+000	 2.7387923991e-001
 2.1933694958e-001	 2.8582766502e+000	 2.8467762432e-001
 1.9160592731e-001	 2.8602694129e+000	 2.9785267568e-001
 1.6395769600e-001	 2.8619873733e+000	 3.1423593573e-001
 1.3639580379e-001	 2.8634332561e+000	 3.3397314617e-001
 1.0892371889e-001	 2.8646098325e+000	 3.5649483008e-001
 8.1544829185e-002	 2.8655199181e+000	 3.8048583774e-001
 5.4262441973e-002	 2.8661663703e+000	 4.0385365739e-001
 2.7079783735e-002	 2.8665520861e+000	 4.2369533666e-001
 0.0000000000e+000	 2.8666800000e+000	 4.3626290272e-001
 2.7759095395e-001	 2.8799970658e+000	 2.3349292097e-001
 2.4944593765e-001	 2.8825711307e+000	 2.3198802168e-001
 2.2137707978e-001	 2.8848624877e+000	 2.2880430419e-001
 1.9338812150e-001	 2.8868737858e+000	 2.2554334955e-001
 1.6548272425e-001	 2.8886077255e+000	 2.2321558461e-001
 1.3766446918e-001	 2.8900670570e+000	 2.2221394661e-001
 1.0993685675e-001	 2.8912545771e+000	 2.2228634992e-001
 8.2303306352e-002	 2.8921731278e+000	 2.2250669208e-001
 5.4767156051e-002	 2.8928255928e+000	 2.2124418597e-001
 2.7331662338e-002	 2.8932148963e+000	 2.1613085399e-001
 0.0000000000e+000	 2.8933440000e+000	 2.0402706767e-001
 2.8014913065e-001	 2.9065380653e+000	 2.0339963509e-001
 2.5174474017e-001	 2.9091358519e+000	 1.9313343647e-001
 2.2341720997e-001	 2.9114483252e+000	 1.7913659890e-001
 1.9517031570e-001	 2.9134781587e+000	 1.6316970591e-001
 1.6700775251e-001	 2.9152280777e+000	 1.4647083343e-001
 1.3893313458e-001	 2.9167008579e+000	 1.2973174648e-001
 1.1094999461e-001	 2.9178993218e+000	 1.1307246774e-001
 8.3061783519e-002	 2.9188263374e+000	 9.6013936694e-002
 5.5271870128e-002	 2.9194848154e+000	 7.7448531161e-002
 2.7583540941e-002	 2.9198777065e+000	 5.5608276313e-002
 0.0000000000e+000	 2.9200080000e+000	 2.8030619881e-002
 2.8270730734e-001	 2.9330790648e+000	 1.7606809818e-001
 2.5404354269e-001	 2.9357005730e+000	 1.5964419159e-001
 2.2545734016e-001	 2.9380341627e+000	 1.3788847758e-001
 1.9695250989e-001	 2.9400825315e+000	 1.1276050290e-001
 1.6853278077e-001	 2.9418484300e+000	 8.5768758311e-002
 1.4020179997e-001	 2.9433346587e+000	 5.7949666838e-002
 1.1196313247e-001	 2.9445440664e+000	 2.9844489941e-002
 8.3820260685e-002	 2.9454795471e+000	 1.4738501511e-003
 5.5776584205e-002	 2.9461440379e+000	-2.7690373677e-002
 2.7835419544e-002	 2.9465405168e+000	-5.8755965157e-002
 0.0000000000e+000	 2.9466720000e+000	-9.3444229986e-002
 2.8526548404e-001	 2.9596200644e+000	 1.5397478096e-001
 2.5634234521e-001	 2.9622652942e+000	 1.3396620825e-001
 2.2749747036e-001	 2.9646200002e+000	 1.0741078229e-001
 1.9873470408e-001	 2.9666869044e+000	 7.6500707294e-002
 1.7005780903e-001	 2.9684687822e+000	 4.3051565732e-002
 1.4147046536e-001	 2.9699684596e+000	 8.4843783733e-003
 1.1297627033e-001	 2.9711888111e+000	-2.6194896806e-002
 8.4578737851e-002	 2.9721327568e+000	-6.0418749745e-002
 5.6281298282e-002	 2.9728032604e+000	-9.4084648149e-002
 2.8087298146e-002	 2.9732033270e+000	-1.2758491122e-001
 0.0000000000e+000	 2.9733360000e+000	-1.6184006030e-001
 2.8782366074e-001	 2.9861610639e+000	 1.3968326153e-001
 2.5864114773e-001	 2.9888300154e+000	 1.1865223511e-001
 2.2953760055e-001	 2.9912058377e+000	 9.0180679583e-002
 2.0051689827e-001	 2.9932912773e+000	 5.6720786541e-002
 1.7158283728e-001	 2.9950891344e+000	 2.0425721846e-002
 1.4273913076e-001	 2.9966022605e+000	-1.6864941062e-002
 1.1398940818e-001	 2.9978335557e+000	-5.3642854356e-002
 8.5337215017e-002	 2.9987859664e+000	-8.8751941239e-002
 5.6786012359e-002	 2.9994624830e+000	-1.2141313232e-001
 2.8339176748e-002	 2.9998661372e+000	-1.5125300541e-001
 0.0000000000e+000	 3.0000000000e+000	-1.7833646886e-001
 2.9038183743e-001	 3.0127020634e+000	 1.3583456203e-001
 2.6093995025e-001	 3.0153947365e+000	 1.1635201943e-001
 2.3157773074e-001	 3.0177916751e+000	 8.8791674999e-002
 2.0229909246e-001	 3.0198956501e+000	 5.5886569884e-002
 1.7310786554e-001	 3.0217094866e+000	 2.0151657870e-002
 1.4400779615e-001	 3.0232360614e+000	-1.6127064665e-002
 1.1500254604e-001	 3.0244783003e+000	-5.0907028313e-002
 8.6095692183e-002	 3.0254391761e+000	-8.2407529642e-002
 5.7290726436e-002	 3.0261217055e+000	-1.0913243760e-001
 2.8591055351e-002	 3.0265289474e+000	-1.2989739413e-001
 0.0000000000e+000	 3.0266640000e+000	-1.4386165675e-001
 2.9294001413e-001	 3.0392430630e+000	 1.4513800420e-001
 2.6323875277e-001	 3.0419594577e+000	 1.2980300177e-001
 2.3361786093e-001	 3.0443775126e+000	 1.0594415625e-001
 2.0408128665e-001	 3.0465000230e+000	 7.6589643880e-002
 1.7463289379e-001	 3.0483298389e+000	 4.4634016437e-002
 1.4527646154e-001	 3.0498698623e+000	 1.2831373619e-002
 1.1601568390e-001	 3.0511230450e+000	-1.6215625985e-002
 8.6854169349e-002	 3.0520923857e+000	-4.0071310995e-002
 5.7795440513e-002	 3.0527809281e+000	-5.6487418813e-002
 2.8842933953e-002	 3.0531917577e+000	-6.3428634805e-002
 0.0000000000e+000	 3.0533280000e+000	-5.9103405340e-002
 2.9549819082e-001	 3.0657840625e+000	 1.7036255260e-001
 2.6553755529e-001	 3.0685241789e+000	 1.6182150249e-001
 2.3565799112e-001	 3.0709633501e+000	 1.4443643289e-001
 2.0586348084e-001	 3.0731043959e+000	 1.2153824986e-001
 1.7615792205e-001	 3.0749501911e+000	 9.6412406096e-002
 1.4654512693e-001	 3.0765036632e+000	 7.2296484679e-002
 1.1702882176e-001	 3.0777677896e+000	 5.2373029161e-002
 8.7612646515e-002	 3.0787455954e+000	 3.9757197205e-002
 5.8300154590e-002	 3.0794401506e+000	 3.7478897599e-002
 2.9094812556e-002	 3.0798545679e+000	 4.8459152160e-002
 0.0000000000e+000	 3.0799920000e+000	 7.5480516963e-002
 2.9805636752e-001	 3.0923250620e+000	 2.1432861594e-001
 2.6783635781e-001	 3.0950889001e+000	 2.1529437047e-001
 2.3769812132e-001	 3.0975491876e+000	 2.0715624279e-001
 2.0764567503e-001	 3.0997087687e+000	 1.9354865320e-001
 1.7768295031e-001	 3.1015705433e+000	 1.7815263343e-001
 1.4781379233e-001	 3.1031374641e+000	 1.6469821415e-001
 1.1804195962e-001	 3.1044125343e+000	 1.5696143511e-001
 8.8371123681e-002	 3.1053988051e+000	 1.5875552624e-001
 5.8804868668e-002	 3.1060993732e+000	 1.7391589644e-001
 2.9346691158e-002	 3.1065173781e+000	 2.0627865415e-001
 0.0000000000e+000	 3.1066560000e+000	 2.5965248387e-001
 3.0061454421e-001	 3.1188660616e+000	 2.7990027941e-001
 2.7013516033e-001	 3.1216536212e+000	 2.9317106665e-001
 2.3973825151e-001	 3.1241350251e+000	 2.9707269747e-001
 2.0942786922e-001	 3.1263131416e+000	 2.9553695630e-001
 1.7920797856e-001	 3.1281908955e+000	 2.9263838437e-001
 1.4908245772e-001	 3.1297712650e+000	 2.9260188780e-001
 1.1905509748e-001	 3.1310572789e+000	 2.9980431161e-001
 8.9129600848e-002	 3.1320520147e+000	 3.1876949747e-001
 5.9309582745e-002	 3.1327585957e+000	 3.5415643735e-001
 2.9598569761e-002	 3.1331801883e+000	 4.1074022873e-001
 0.0000000000e+000	 3.1333200000e+000	 4.9338564436e-001
 3.1333200000e+000	 0.0000000000e+000	 1.0140398028e+000
 3.1331801883e+000	 2.9598569761e-002	 1.0569468083e+000
 3.1327585957e+000	 5.9309582745e-002	 1.0909373887e+000
 3.1320520147e+000	 8.9129600848e-002	 1.1176532273e+000
 3.1310572789e+000	 1.1905509748e-001	 1.1384911274e+000
 3.1297712650e+000	 1.4908245772e-001	 1.1545832548e+000
 3.1281908955e+000	 1.7920797856e-001	 1.1667863530e+000
 3.1263131416e+000	 2.0942786922e-001	 1.1756795250e+000
 3.1241350251e+000	 2.3973825151e-001	 1.1815700486e+000
 3.1216536212e+000	 2.7013516033e-001	 1.1845065665e+000
 3.1188660616e+000	 3.0061454421e-001	 1.1842988746e+000
 3.1599880000e+000	 0.0000000000e+000	 7.4817593136e-001
 3.1598469984e+000	 2.9850486150e-002	 8.1542062751e-001
 3.1594218175e+000	 5.9814372538e-002	 8.7071973447e-001
 3.1587092228e+000	 8.9888191798e-002	 9.1642756447e-001
 3.1577060207e+000	 1.2006838732e-001	 9.5452108411e-001
 3.1564090613e+000	 1.5035131343e-001	 9.8658483922e-001
 3.1548152412e+000	 1.8073323560e-001	 1.0138058155e+000
 3.1529215055e+000	 2.1121033076e-001	 1.0369778013e+000
 3.1507248508e+000	 2.4177868775e-001	 1.0565146820e+000
 3.1482223275e+000	 2.7243430770e-001	 1.0724719621e+000
 3.1454110426e+000	 3.0317310467e-001	 1.0845756843e+000
 3.1866560000e+000	 0.0000000000e+000	 5.8679801650e-001
 3.1865138084e+000	 3.0102402539e-002	 6.7047606140e-001
 3.1860850394e+000	 6.0319162331e-002	 7.3927279900e-001
 3.1853664308e+000	 9.0646782748e-002	 7.9632386113e-001
 3.1843547624e+000	 1.2108167717e-001	 8.4424923890e-001
 3.1830468577e+000	 1.5162016914e-001	 8.8514327520e-001
 3.1814395869e+000	 1.8225849263e-001	 9.2057560375e-001
 3.1795298695e+000	 2.1299279231e-001	 9.5160257178e-001
 3.1773146766e+000	 2.4381912399e-001	 9.7878853543e-001
 3.1747910338e+000	 2.7473345507e-001	 1.0022362780e+000
 3.1719560237e+000	 3.0573166513e-001	 1.0216256614e+000
 3.2133240000e+000	 0.0000000000e+000	 5.3078719521e-001
 3.2131806185e+000	 3.0354318928e-002	 6.2195369521e-001
 3.2127482612e+000	 6.0823952124e-002	 6.9555111003e-001
 3.2120236389e+000	 9.1405373698e-002	 7.5555614016e-001
 3.2110035042e+000	 1.2209496702e-001	 8.0528530602e-001
 3.2096846540e+000	 1.5288902486e-001	 8.4739042093e-001
 3.2080639326e+000	 1.8378374966e-001	 8.8386607084e-001
 3.2061382334e+000	 2.1477525386e-001	 9.1606860693e-001
 3.2039045023e+000	 2.4585956023e-001	 9.4474599848e-001
 3.2013597401e+000	 2.7703260245e-001	 9.7007774553e-001
 3.1985010048e+000	 3.0829022558e-001	 9.9172390202e-001
 3.2399920000e+000	 0.0000000000e+000	 5.8094104374e-001
 3.2398474285e+000	 3.0606235317e-002	 6.6962401536e-001
 3.2394114830e+000	 6.1328741917e-002	 7.3845309954e-001
 3.2386808470e+000	 9.2163964649e-002	 7.9229675801e-001
 3.2376522459e+000	 1.2310825686e-001	 8.3521206947e-001
 3.2363224504e+000	 1.5415788057e-001	 8.7044612336e-001
 3.2346882783e+000	 1.8530900670e-001	 9.0045053275e-001
 3.2327465973e+000	 2.1655771540e-001	 9.2690853923e-001
 3.2304943281e+000	 2.4789999647e-001	 9.5077401348e-001
 3.2279284464e+000	 2.7933174982e-001	 9.7232149769e-001
 3.2250459859e+000	 3.1084878604e-001	 9.9120627760e-001
 3.2666600000e+000	 0.0000000000e+000	 7.3797698845e-001
 3.2665142386e+000	 3.0858151706e-002	 8.1319039507e-001
 3.2660747049e+000	 6.1833531710e-002	 8.6682371330e-001
 3.2653380550e+000	 9.2922555600e-002	 9.0467868035e-001
 3.2643009877e+000	 1.2412154671e-001	 9.3158735892e-001
 3.2629602468e+000	 1.5542673628e-001	 9.5141992086e-001
 3.2613126239e+000	 1.8683426373e-001	 9.6710671636e-001
 3.2593549612e+000	 2.1834017695e-001	 9.8067406659e-001
 3.2570841539e+000	 2.4994043271e-001	 9.9329303736e-001
 3.2544971527e+000	 2.8163089719e-001	 1.0053402838e+000
 3.2515909670e+000	 3.1340734650e-001	 1.0164698877e+000
 3.2933280000e+000	 0.0000000000e+000	 1.0025355509e+000
 3.2931810486e+000	 3.1110068095e-002	 1.0522919347e+000
 3.2927379267e+000	 6.2338321504e-002	 1.0794568935e+000
 3.2919952631e+000	 9.3681146551e-002	 1.0907976465e+000
 3.2909497294e+000	 1.2513483655e-001	 1.0919459282e+000
 3.2895980431e+000	 1.5669559199e-001	 1.0874126602e+000
 3.2879369696e+000	 1.8835952077e-001	 1.0806181317e+000
 3.2859633252e+000	 2.2012263849e-001	 1.0739370891e+000
 3.2836739796e+000	 2.5198086895e-001	 1.0687579440e+000
 3.2810658589e+000	 2.8393004456e-001	 1.0655551306e+000
 3.2781359481e+000	 3.1596590696e-001	 1.0639734652e+000
 3.3199960000e+000	 0.0000000000e+000	 1.3751834366e+000
 3.3198478587e+000	 3.1361984484e-002	 1.3865061653e+000
 3.3194011485e+000	 6.2843111297e-002	 1.3750979418e+000
 3.3186524711e+000	 9.4439737501e-002	 1.3487142291e+000
 3.3175984712e+000	 1.2614812640e-001	 1.3138012415e+000
 3.3162358395e+000	 1.5796444771e-001	 1.2755180324e+000
 3.3145613153e+000	 1.8988477780e-001	 1.2377753730e+000
 3.3125716891e+000	 2.2190510004e-001	 1.2032907828e+000
 3.3102638054e+000	 2.5402130520e-001	 1.1736588704e+000
 3.3076345652e+000	 2.8622919194e-001	 1.1494359535e+000
 3.3046809291e+000	 3.1852446741e-001	 1.1302377373e+000
 3.3466640000e+000	 0.0000000000e+000	 1.8033996862e+000
 3.3465146687e+000	 3.1613900873e-002	 1.7692703217e+000
 3.3460643704e+000	 6.3347901090e-002	 1.7144192784e+000
 3.3453096792e+000	 9.5198328452e-002	 1.6468447707e+000
 3.3442472129e+000	 1.2716141625e-001	 1.5731327207e+000
 3.3428736359e+000	 1.5923330342e-001	 1.4985280779e+000
 3.3411856610e+000	 1.9141003483e-001	 1.4270094510e+000
 3.3391800530e+000	 2.2368756159e-001	 1.3613674427e+000
 3.3368536311e+000	 2.5606174144e-001	 1.3032871117e+000
 3.3342032715e+000	 2.8852833931e-001	 1.2534350365e+000
 3.3312259102e+000	 3.2108302787e-001	 1.2118457439e+000
 3.3733320000e+000	 0.0000000000e+000	 1.9704814107e+000
 3.3731814788e+000	 3.1865817262e-002	 1.9185811478e+000
 3.3727275922e+000	 6.3852690883e-002	 1.8477280023e+000
 3.3719668872e+000	 9.5956919402e-002	 1.7657533073e+000
 3.3708959547e+000	 1.2817470609e-001	 1.6790994799e+000
 3.3695114322e+000	 1.6050215913e-001	 1.5928903543e+000
 3.3678100066e+000	 1.9293529187e-001	 1.5110044964e+000
 3.3657884170e+000	 2.2547002313e-001	 1.4361519105e+000
 3.3634434569e+000	 2.5810217768e-001	 1.3699545850e+000
 3.3607719778e+000	 2.9082748668e-001	 1.3130313786e+000
 3.3577708913e+000	 3.2364158833e-001	 1.2650878005e+000
 3.4000000000e+000	 0.0000000000e+000	 1.8230827873e+000
 3.3998482888e+000	 3.2117733651e-002	 1.7861113137e+000
 3.3993908141e+000	 6.4357480676e-002	 1.7295744215e+000
 3.3986240953e+000	 9.6715510352e-002	 1.6612172436e+000
 3.3975446965e+000	 1.2918799594e-001	 1.5874258893e+000
 3.3961492286e+000	 1.6177101484e-001	 1.5132964995e+000
 3.3944343523e+000	 1.9446054890e-001	 1.4427069193e+000
 3.3923967809e+000	 2.2725248468e-001	 1.3783914171e+000
 3.3900332827e+000	 2.6014261392e-001	 1.3220189222e+000
 3.3873406841e+000	 2.9312663406e-001	 1.2742753108e+000
 3.3843158724e+000	 3.2620014879e-001	 1.2349503285e+000
 3.1188660616e+000	 3.0061454421e-001	 1.1842988746e+000
 3.1157700239e+000	 3.3116768761e-001	 1.1789947743e+000
 3.1123623662e+000	 3.6179499023e-001	 1.1678417087e+000
 3.1086404051e+000	 3.9249221452e-001	 1.1521641622e+000
 3.1046015236e+000	 4.2325504155e-001	 1.1331517588e+000
 3.1002431736e+000	 4.5407907204e-001	 1.1118934157e+000
 3.0955628784e+000	 4.8495982735e-001	 1.0894109425e+000
 3.0905582350e+000	 5.1589275069e-001	 1.0666905427e+000
 3.0852269172e+000	 5.4687320832e-001	 1.0447105820e+000
 3.0795666778e+000	 5.7789649090e-001	 1.0244639229e+000
 3.0735753511e+000	 6.0895781491e-001	 1.0069730571e+000
 3.1454110426e+000	 3.0317310467e-001	 1.0845756843e+000
 3.1422886543e+000	 3.3398628893e-001	 1.0903275387e+000
 3.1388519936e+000	 3.6487426358e-001	 1.0887285133e+000
 3.1350983546e+000	 3.9583275502e-001	 1.0813613505e+000
 3.1310250978e+000	 4.2685740756e-001	 1.0696292608e+000
 3.1266296535e+000	 4.5794378445e-001	 1.0548012168e+000
 3.1219095237e+000	 4.8908736896e-001	 1.0380569727e+000
 3.1168622853e+000	 5.2028356550e-001	 1.0205301553e+000
 3.1114855922e+000	 5.5152770090e-001	 1.0033476830e+000
 3.1057771779e+000	 5.8281502575e-001	 9.8766368916e-001
 3.0997348584e+000	 6.1414071579e-001	 9.7468606109e-001
 3.1719560237e+000	 3.0573166513e-001	 1.0216256614e+000
 3.1688072847e+000	 3.3680489025e-001	 1.0339022898e+000
 3.1653416211e+000	 3.6795353694e-001	 1.0377654350e+000
 3.1615563041e+000	 3.9917329552e-001	 1.0350252578e+000
 3.1574486720e+000	 4.3045977356e-001	 1.0272671995e+000
 3.1530161333e+000	 4.6180849686e-001	 1.0159092361e+000
 3.1482561691e+000	 4.9321491056e-001	 1.0022591518e+000
 3.1431663357e+000	 5.2467438031e-001	 9.8757006657e-001
 3.1377442671e+000	 5.5618219349e-001	 9.7309235506e-001
 3.1319876780e+000	 5.8773356059e-001	 9.6012000882e-001
 3.1258943657e+000	 6.1932361667e-001	 9.5002942328e-001
 3.1985010048e+000	 3.0829022558e-001	 9.9172390202e-001
 3.1953259151e+000	 3.3962349156e-001	 1.0060563248e+000
 3.1918312486e+000	 3.7103281029e-001	 1.0114105572e+000
 3.1880142536e+000	 4.0251383602e-001	 1.0097833321e+000
 3.1838722461e+000	 4.3406213955e-001	 1.0029009149e+000
 3.1794026131e+000	 4.6567320926e-001	 9.9228918027e-001
 3.1746028144e+000	 4.9734245217e-001	 9.7934401929e-001
 3.1694703860e+000	 5.2906519512e-001	 9.6540019359e-001
 3.1640029421e+000	 5.6083668607e-001	 9.5179664943e-001
 3.1581981781e+000	 5.9265209544e-001	 9.3993621354e-001
 3.1520538730e+000	 6.2450651756e-001	 9.3133751493e-001
 3.2250459859e+000	 3.1084878604e-001	 9.9120627760e-001
 3.2218445455e+000	 3.4244209288e-001	 1.0032008560e+000
 3.2183208761e+000	 3.7411208365e-001	 1.0062079988e+000
 3.2144722031e+000	 4.0585437652e-001	 1.0023599747e+000
 3.2102958203e+000	 4.3766450555e-001	 9.9347223647e-001
 3.2057890929e+000	 4.6953792167e-001	 9.8112722616e-001
 3.2009494598e+000	 5.0146999377e-001	 9.6675884007e-001
 3.1957744364e+000	 5.3345600993e-001	 9.5173554534e-001
 3.1902616171e+000	 5.6549117866e-001	 9.3744003118e-001
 3.1844086782e+000	 5.9757063029e-001	 9.2534317891e-001
 3.1782133803e+000	 6.2968941844e-001	 9.1707005223e-001
 3.2515909670e+000	 3.1340734650e-001	 1.0164698877e+000
 3.2483631759e+000	 3.4526069420e-001	 1.0218211855e+000
 3.2448105036e+000	 3.7719135700e-001	 1.0187877903e+000
 3.2409301526e+000	 4.0919491702e-001	 1.0095760932e+000
 3.2367193945e+000	 4.4126687155e-001	 9.9602868200e-001
 3.2321755727e+000	 4.7340263408e-001	 9.7972282732e-001
 3.2272961052e+000	 5.0559753538e-001	 9.6206997485e-001
 3.2220784867e+000	 5.3784682474e-001	 9.4441410765e-001
 3.2165202920e+000	 5.7014567124e-001	 9.2812672327e-001
 3.2106191783e+000	 6.0248916513e-001	 9.1469606653e-001
 3.2043728877e+000	 6.3487231932e-001	 9.0580816920e-001
 3.2781359481e+000	 3.1596590696e-001	 1.0639734652e+000
 3.2748818063e+000	 3.4807929552e-001	 1.0584768361e+000
 3.2713001311e+000	 3.8027063035e-001	 1.0458657114e+000
 3.2673881021e+000	 4.1253545752e-001	 1.0283486192e+000
 3.2631429687e+000	 4.4486923755e-001	 1.0077226237e+000
 3.2585620526e+000	 4.7726734648e-001	 9.8548749045e-001
 3.2536427505e+000	 5.0972507698e-001	 9.6296122326e-001
 3.2483825370e+000	 5.4223763955e-001	 9.4139470291e-001
 3.2427789670e+000	 5.7480016382e-001	 9.2208302753e-001
 3.2368296784e+000	 6.0740769998e-001	 9.0647104509e-001
 3.2305323950e+000	 6.4005522020e-001	 8.9625047219e-001
 3.3046809291e+000	 3.1852446741e-001	 1.1302377373e+000
 3.3014004367e+000	 3.5089789683e-001	 1.1098016433e+000
 3.2977897585e+000	 3.8334990371e-001	 1.0842430931e+000
 3.2938460516e+000	 4.1587599802e-001	 1.0556899938e+000
 3.2895665428e+000	 4.4847160355e-001	 1.0258104244e+000
 3.2849485324e+000	 4.8113205889e-001	 9.9594352406e-001
 3.2799893959e+000	 5.1385261859e-001	 9.6723214089e-001
 3.2746865874e+000	 5.4662845436e-001	 9.4075482591e-001
 3.2690376420e+000	 5.7945465641e-001	 9.1765462374e-001
 3.2630401785e+000	 6.1232623482e-001	 8.9926199174e-001
 3.2566919023e+000	 6.4523812109e-001	 8.8720907711e-001
 3.3312259102e+000	 3.2108302787e-001	 1.2118457439e+000
 3.3279190671e+000	 3.5371649815e-001	 1.1725038088e+000
 3.3242793860e+000	 3.8642917706e-001	 1.1308065847e+000
 3.3203040011e+000	 4.1921653852e-001	 1.0887076216e+000
 3.3159901170e+000	 4.5207396955e-001	 1.0476515448e+000
 3.3113350122e+000	 4.8499677130e-001	 1.0087227608e+000
 3.3063360413e+000	 5.1798016019e-001	 9.7279633214e-001
 3.3009906377e+000	 5.5101926917e-001	 9.4068845711e-001
 3.2952963169e+000	 5.8410914899e-001	 9.1330384801e-001
 3.2892506786e+000	 6.1724476967e-001	 8.9177717468e-001
 3.2828514096e+000	 6.5042102197e-001	 8.7760563021e-001
 3.3577708913e+000	 3.2364158833e-001	 1.2650878005e+000
 3.3544376975e+000	 3.5653509947e-001	 1.2186891869e+000
 3.3507690135e+000	 3.8950845042e-001	 1.1689130509e+000
 3.3467619505e+000	 4.2255707902e-001	 1.1181823840e+000
 3.3424136912e+000	 4.5567633555e-001	 1.0684183967e+000
 3.3377214920e+000	 4.8886148370e-001	 1.0211569337e+000
 3.3326826866e+000	 5.2210770180e-001	 9.7767971975e-001
 3.3272946881e+000	 5.5541008398e-001	 9.3950385452e-001
 3.3215549919e+000	 5.8876364158e-001	 9.0760695151e-001
 3.3154611787e+000	 6.2216330452e-001	 8.8283591816e-001
 3.3090109169e+000	 6.5560392285e-001	 8.6646731346e-001
 3.3843158724e+000	 3.2620014879e-001	 1.2349503285e+000
 3.3809563279e+000	 3.5935370079e-001	 1.1960365593e+000
 3.3772586410e+000	 3.9258772377e-001	 1.1520731542e+000
 3.3732199000e+000	 4.2589761953e-001	 1.1056311578e+000
 3.3688372654e+000	 4.5927870155e-001	 1.0587834779e+000
 3.3641079719e+000	 4.9272619611e-001	 1.0132176490e+000
 3.3590293320e+000	 5.2623524340e-001	 9.7035763383e-001
 3.3535987384e+000	 5.5980089879e-001	 9.3149557498e-001
 3.3478136668e+000	 5.9341813416e-001	 8.9793443485e-001
 3.3416716788e+000	 6.2708183937e-001	 8.7114247378e-001
 3.3351704242e+000	 6.6078682374e-001	 8.5292052383e-001
 3.0735753511e+000	 6.0895781491e-001	 1.0069730571e+000
 3.0672498820e+000	 6.4005698981e-001	 9.7940692571e-001
 3.0605891508e+000	 6.7118442308e-001	 9.3274575193e-001
 3.0535912533e+000	 7.0233510834e-001	 8.8382881228e-001
 3.0462543768e+000	 7.3350397137e-001	 8.3986089098e-001
 3.0385768026e+000	 7.6468587201e-001	 8.0007966476e-001
 3.0305569083e+000	 7.9587560609e-001	 7.6363086712e-001
 3.0221931699e+000	 8.2706790750e-001	 7.2957624913e-001
 3.0134841643e+000	 8.5825745028e-001	 6.9689960896e-001
 3.0044285715e+000	 8.8943885089e-001	 6.6451054073e-001
 2.9950251768e+000	 9.2060667051e-001	 6.3124556391e-001
 3.0997348584e+000	 6.1414071579e-001	 9.7468606109e-001
 3.0933555526e+000	 6.4550457888e-001	 9.5092792468e-001
 3.0866381313e+000	 6.7689694086e-001	 9.0761241371e-001
 3.0795806740e+000	 7.0831275271e-001	 8.6337059320e-001
 3.0721813526e+000	 7.3974689706e-001	 8.2275375921e-001
 3.0644384338e+000	 7.7119418997e-001	 7.8526091591e-001
 3.0563502813e+000	 8.0264938300e-001	 7.5029980426e-001
 3.0479153583e+000	 8.3410716520e-001	 7.1719666460e-001
 3.0391322295e+000	 8.6556216530e-001	 6.8520390840e-001
 3.0299995637e+000	 8.9700895394e-001	 6.5350532386e-001
 3.0205161357e+000	 9.2844204599e-001	 6.2121845197e-001
 3.1258943657e+000	 6.1932361667e-001	 9.5002942328e-001
 3.1194612233e+000	 6.5095216796e-001	 9.2871841022e-001
 3.1126871118e+000	 6.8260945863e-001	 8.8826034420e-001
 3.1055700946e+000	 7.1429039708e-001	 8.4766537433e-001
 3.0981083284e+000	 7.4598982274e-001	 8.0947769823e-001
 3.0903000650e+000	 7.7770250793e-001	 7.7342834335e-001
 3.0821436544e+000	 8.0942315991e-001	 7.3915911035e-001
 3.0736375467e+000	 8.4114642290e-001	 7.0623432143e-001
 3.0647802947e+000	 8.7286688032e-001	 6.7415030811e-001
 3.0555705559e+000	 9.0457905698e-001	 6.4234223609e-001
 3.0460070947e+000	 9.3627742146e-001	 6.1018787740e-001
 3.1520538730e+000	 6.2450651756e-001	 9.3133751493e-001
 3.1455668939e+000	 6.5639975703e-001	 9.1132265251e-001
 3.1387360922e+000	 6.8832197640e-001	 8.7340601270e-001
 3.1315595153e+000	 7.2026804145e-001	 8.3561166013e-001
 3.1240353041e+000	 7.5223274842e-001	 7.9912152480e-001
 3.1161616961e+000	 7.8421082589e-001	 7.6386795248e-001
 3.1079370274e+000	 8.1619693681e-001	 7.2969753709e-001
 3.0993597352e+000	 8.4818568061e-001	 6.9638504624e-001
 3.0904283599e+000	 8.8017159535e-001	 6.6364490595e-001
 3.0811415480e+000	 9.1214916002e-001	 6.3113981372e-001
 3.0714980536e+000	 9.4411279694e-001	 5.9848606239e-001
 3.1782133803e+000	 6.2968941844e-001	 9.1707005223e-001
 3.1716725645e+000	 6.6184734610e-001	 8.9740534089e-001
 3.1647850727e+000	 6.9403449417e-001	 8.6187906963e-001
 3.1575489359e+000	 7.2624568582e-001	 8.2622336471e-001
 3.1499622799e+000	 7.5847567410e-001	 7.9089071054e-001
 3.1420233273e+000	 7.9071914385e-001	 7.5598263404e-001
 3.1337304005e+000	 8.2297071372e-001	 7.2151990975e-001
 3.1250819236e+000	 8.5522493831e-001	 6.8745886159e-001
 3.1160764251e+000	 8.8747631037e-001	 6.5370503263e-001
 3.1067125402e+000	 9.1971926307e-001	 6.2012376212e-001
 3.0969890125e+000	 9.5194817241e-001	 5.8654722293e-001
 3.2043728877e+000	 6.3487231932e-001	 9.0580816920e-001
 3.1977782351e+000	 6.6729493517e-001	 8.8575070187e-001
 3.1908340532e+000	 6.9974701194e-001	 8.5262022445e-001
 3.1835383566e+000	 7.3222333019e-001	 8.1862738165e-001
 3.1758892557e+000	 7.6471859979e-001	 7.8410463663e-001
 3.1678849585e+000	 7.9722746181e-001	 7.4928909677e-001
 3.1595237735e+000	 8.2974449062e-001	 7.1434373072e-001
 3.1508041120e+000	 8.6226419602e-001	 6.7937625326e-001
 3.1417244903e+000	 8.9478102539e-001	 6.4445517573e-001
 3.1322835323e+000	 9.2728936611e-001	 6.0962252967e-001
 3.1224799714e+000	 9.5978354789e-001	 5.7490278580e-001
 3.2305323950e+000	 6.4005522020e-001	 8.9625047219e-001
 3.2238839057e+000	 6.7274252424e-001	 8.7562013763e-001
 3.2168830336e+000	 7.0545952971e-001	 8.4467910982e-001
 3.2095277773e+000	 7.3820097456e-001	 8.1206114134e-001
 3.2018162314e+000	 7.7096152547e-001	 7.7819383708e-001
 3.1937465896e+000	 8.0373577976e-001	 7.4341478899e-001
 3.1853171466e+000	 8.3651826753e-001	 7.0799577173e-001
 3.1765263004e+000	 8.6930345372e-001	 6.7216442556e-001
 3.1673725556e+000	 9.0208574042e-001	 6.3612289056e-001
 3.1578545245e+000	 9.3485946916e-001	 6.0006286643e-001
 3.1479709303e+000	 9.6761892336e-001	 5.6417658788e-001
 3.2566919023e+000	 6.4523812109e-001	 8.8720907711e-001
 3.2499895763e+000	 6.7819011332e-001	 8.6623860609e-001
 3.2429320141e+000	 7.1117204748e-001	 8.3721213257e-001
 3.2355171979e+000	 7.4417861893e-001	 8.0587015670e-001
 3.2277432072e+000	 7.7720445115e-001	 7.7269723104e-001
 3.2196082208e+000	 8.1024409772e-001	 7.3809480952e-001
 3.2111105196e+000	 8.4329204444e-001	 7.0240865534e-001
 3.2022484889e+000	 8.7634271142e-001	 6.6595354520e-001
 3.1930206208e+000	 9.0939045544e-001	 6.2903469814e-001
 3.1834255166e+000	 9.4242957220e-001	 5.9196536852e-001
 3.1734618893e+000	 9.7545429884e-001	 5.5508005883e-001
 3.2828514096e+000	 6.5042102197e-001	 8.7760563021e-001
 3.2760952470e+000	 6.8363770239e-001	 8.5668195391e-001
 3.2689809945e+000	 7.1688456525e-001	 8.2948031244e-001
 3.2615066186e+000	 7.5015626330e-001	 7.9950555777e-001
 3.2536701830e+000	 7.8344737683e-001	 7.6725934501e-001
 3.2454698520e+000	 8.1675241568e-001	 7.3316880883e-001
 3.2369038926e+000	 8.5006582134e-001	 6.9761742637e-001
 3.2279706773e+000	 8.8338196913e-001	 6.6097297435e-001
 3.2186686860e+000	 9.1669517046e-001	 6.2361197148e-001
 3.2089965088e+000	 9.4999967524e-001	 5.8594000879e-001
 3.1989528482e+000	 9.8328967431e-001	 5.4840738802e-001
 3.3090109169e+000	 6.5560392285e-001	 8.6646731346e-001
 3.3022009176e+000	 6.8908529146e-001	 8.4612677892e-001
 3.2950299750e+000	 7.2259708303e-001	 8.2084710902e-001
 3.2874960392e+000	 7.5613390767e-001	 7.9252161590e-001
 3.2795971588e+000	 7.8969030251e-001	 7.6162752522e-001
 3.2713314832e+000	 8.2326073364e-001	 7.2857788072e-001
 3.2626972657e+000	 8.5683959825e-001	 6.9375611373e-001
 3.2536928657e+000	 8.9042122683e-001	 6.5754749357e-001
 3.2443167512e+000	 9.2399988549e-001	 6.2036681040e-001
 3.2345675009e+000	 9.5756977829e-001	 5.8268165480e-001
 3.2244438071e+000	 9.9112504979e-001	 5.4503067658e-001
 3.3351704242e+000	 6.6078682374e-001	 8.5292052383e-001
 3.3283065882e+000	 6.9453288053e-001	 8.3384853865e-001
 3.3210789555e+000	 7.2830960080e-001	 8.1077623781e-001
 3.3134854599e+000	 7.6211155205e-001	 7.8457325803e-001
 3.3055241345e+000	 7.9593322820e-001	 7.5564914097e-001
 3.2971931143e+000	 8.2976905160e-001	 7.2436144513e-001
 3.2884906387e+000	 8.6361337515e-001	 6.9105428330e-001
 3.2794150542e+000	 8.9746048454e-001	 6.5609351514e-001
 3.2699648164e+000	 9.3130460051e-001	 6.1989790584e-001
 3.2601384931e+000	 9.6513988133e-001	 5.8296557451e-001
 3.2499347660e+000	 9.9896042527e-001	 5.4589507546e-001
 2.9950251768e+000	 9.2060667051e-001	 6.3124556391e-001
 2.9852728719e+000	 9.5175541694e-001	 5.9510744705e-001
 2.9751706548e+000	 9.8287954570e-001	 5.5561981997e-001
 2.9647176344e+000	 1.0139734639e+000	 5.1379352256e-001
 2.9539130326e+000	 1.0450315331e+000	 4.7058285005e-001
 2.9427561866e+000	 1.0760480726e+000	 4.2682539828e-001
 2.9312465504e+000	 1.1070173614e+000	 3.8324612656e-001
 2.9193836965e+000	 1.1379336420e+000	 3.4041962329e-001
 2.9071673179e+000	 1.1687911224e+000	 2.9873596657e-001
 2.8945972292e+000	 1.1995839799e+000	 2.5836193103e-001
 2.8816733683e+000	 1.2303063637e+000	 2.1919752390e-001
 3.0205161357e+000	 9.2844204599e-001	 6.2121845197e-001
 3.0106808279e+000	 9.5985590252e-001	 5.8664198084e-001
 3.0004926299e+000	 9.9124493185e-001	 5.4925041613e-001
 2.9899506428e+000	 1.0226034935e+000	 5.0983169142e-001
 2.9790540820e+000	 1.0539259011e+000	 4.6912522804e-001
 2.9678022789e+000	 1.0852064254e+000	 4.2776744801e-001
 2.9561946830e+000	 1.1164392970e+000	 3.8629274539e-001
 2.9442308632e+000	 1.1476187090e+000	 3.4509681207e-001
 2.9319105098e+000	 1.1787388205e+000	 3.0440225687e-001
 2.9192334358e+000	 1.2097937591e+000	 2.6421921443e-001
 2.9061995786e+000	 1.2407776243e+000	 2.2430091965e-001
 3.0460070947e+000	 9.3627742146e-001	 6.1018787740e-001
 3.0360887840e+000	 9.6795638809e-001	 5.7630904438e-001
 3.0258146050e+000	 9.9961031800e-001	 5.4017392432e-001
 3.0151836512e+000	 1.0312335231e+000	 5.0235300882e-001
 3.0041951313e+000	 1.0628202690e+000	 4.6337834490e-001
 2.9928483712e+000	 1.0943647782e+000	 4.2369426625e-001
 2.9811428157e+000	 1.1258612325e+000	 3.8365561763e-001
 2.9690780299e+000	 1.1573037761e+000	 3.4349204546e-001
 2.9566537017e+000	 1.1886865187e+000	 3.0327334575e-001
 2.9438696424e+000	 1.2200035384e+000	 2.6286942425e-001
 2.9307257889e+000	 1.2512488848e+000	 2.2190483676e-001
 3.0714980536e+000	 9.4411279694e-001	 5.9848606239e-001
 3.0614967401e+000	 9.7605687366e-001	 5.6464703995e-001
 3.0511365801e+000	 1.0079757041e+000	 5.2911842954e-001
 3.0404166596e+000	 1.0398635527e+000	 4.9225765819e-001
 3.0293361807e+000	 1.0717146369e+000	 4.5439593584e-001
 3.0178944636e+000	 1.1035231310e+000	 4.1579378444e-001
 3.0060909483e+000	 1.1352831680e+000	 3.7663684627e-001
 2.9939251966e+000	 1.1669888432e+000	 3.3700104937e-001
 2.9813968936e+000	 1.1986342169e+000	 2.9681765564e-001
 2.9685058490e+000	 1.2302133177e+000	 2.5583252147e-001
 2.9552519993e+000	 1.2617201454e+000	 2.1355953065e-001
 3.0969890125e+000	 9.5194817241e-001	 5.8654722293e-001
 3.0869046962e+000	 9.8415735924e-001	 5.5229033231e-001
 3.0764585552e+000	 1.0163410903e+000	 5.1689649751e-001
 3.0656496680e+000	 1.0484935822e+000	 4.8052799087e-001
 3.0544772300e+000	 1.0806090049e+000	 4.4330618592e-001
 3.0429405559e+000	 1.1126814838e+000	 4.0532015695e-001
 3.0310390810e+000	 1.1447051035e+000	 3.6659605539e-001
 3.0187723634e+000	 1.1766739103e+000	 3.2706793270e-001
 3.0061400855e+000	 1.2085819151e+000	 2.8654246072e-001
 2.9931420557e+000	 1.2404230969e+000	 2.4465744206e-001
 2.9797782096e+000	 1.2721914059e+000	 2.0083406134e-001
 3.1224799714e+000	 9.5978354789e-001	 5.7490278580e-001
 3.1123126523e+000	 9.9225784481e-001	 5.3996409144e-001
 3.1017805303e+000	 1.0247064764e+000	 5.0441971384e-001
 3.0908826764e+000	 1.0571236118e+000	 4.6822253529e-001
 3.0796182794e+000	 1.0895033728e+000	 4.3130527949e-001
 3.0679866482e+000	 1.1218398366e+000	 3.9358682139e-001
 3.0559872136e+000	 1.1541270390e+000	 3.5494293213e-001
 3.0436195301e+000	 1.1863589773e+000	 3.1517718152e-001
 3.0308832774e+000	 1.2185296133e+000	 2.7398530390e-001
 3.0177782623e+000	 1.2506328762e+000	 2.3091290726e-001
 3.0043044200e+000	 1.2826626665e+000	 1.8530646768e-001
 3.1479709303e+000	 9.6761892336e-001	 5.6417658788e-001
 3.1377206083e+000	 1.0003583304e+000	 5.2847911513e-001
 3.1271025054e+000	 1.0330718626e+000	 4.9266193393e-001
 3.1161156848e+000	 1.0657536414e+000	 4.5646998280e-001
 3.1047593287e+000	 1.0983977407e+000	 4.1965092523e-001
 3.0930327405e+000	 1.1309981894e+000	 3.8195953452e-001
 3.0809353463e+000	 1.1635489746e+000	 3.4312974460e-001
 3.0684666968e+000	 1.1960440444e+000	 3.0284563035e-001
 3.0556264693e+000	 1.2284773114e+000	 2.6070539264e-001
 3.0424144689e+000	 1.2608426555e+000	 2.1617821534e-001
 3.0288306303e+000	 1.2931339270e+000	 1.6855392660e-001
 3.1734618893e+000	 9.7545429884e-001	 5.5508005883e-001
 3.1631285644e+000	 1.0084588160e+000	 5.1872663271e-001
 3.1524244805e+000	 1.0414372487e+000	 4.8267519033e-001
 3.1413486932e+000	 1.0743836710e+000	 4.4646315137e-001
 3.1299003781e+000	 1.1072921087e+000	 4.0965585841e-001
 3.1180788328e+000	 1.1401565422e+000	 3.7184938498e-001
 3.1058834789e+000	 1.1729709101e+000	 3.3264383725e-001
 3.0933138635e+000	 1.2057291115e+000	 2.9161441189e-001
 3.0803696612e+000	 1.2384250096e+000	 2.4827497507e-001
 3.0670506755e+000	 1.2710524347e+000	 2.0203401608e-001
 3.0533568406e+000	 1.3036051876e+000	 1.5214289813e-001
 3.1989528482e+000	 9.8328967431e-001	 5.4840738802e-001
 3.1885365205e+000	 1.0165593015e+000	 5.1166869992e-001
 3.1777464556e+000	 1.0498026349e+000	 4.7557849636e-001
 3.1665817016e+000	 1.0830137006e+000	 4.3945292836e-001
 3.1550414274e+000	 1.1161864766e+000	 4.0268132147e-001
 3.1431249251e+000	 1.1493148950e+000	 3.6470578434e-001
 3.1308316116e+000	 1.1823928456e+000	 3.2500010473e-001
 3.1181610302e+000	 1.2154141786e+000	 2.8304088634e-001
 3.1051128531e+000	 1.2483727078e+000	 2.3827069726e-001
 3.0916868821e+000	 1.2812622140e+000	 1.9005306879e-001
 3.0778830510e+000	 1.3140764481e+000	 1.3761925707e-001
 3.2244438071e+000	 9.9112504979e-001	 5.4503067658e-001
 3.2139444766e+000	 1.0246597871e+000	 5.0835109446e-001
 3.2030684307e+000	 1.0581680210e+000	 4.7255220543e-001
 3.1918147100e+000	 1.0916437302e+000	 4.3674219367e-001
 3.1801824768e+000	 1.1250808445e+000	 4.0013052426e-001
 3.1681710175e+000	 1.1584732478e+000	 3.6200943756e-001
 3.1557797442e+000	 1.1918147811e+000	 3.2173344563e-001
 3.1430081969e+000	 1.2250992456e+000	 2.7869055149e-001
 3.1298560450e+000	 1.2583204060e+000	 2.3226494289e-001
 3.1163230887e+000	 1.2914719933e+000	 1.8179098485e-001
 3.1024092613e+000	 1.3245477087e+000	 1.2649841207e-001
 3.2499347660e+000	 9.9896042527e-001	 5.4589507546e-001
 3.2393524327e+000	 1.0327602727e+000	 5.0986996984e-001
 3.2283904058e+000	 1.0665334072e+000	 4.7483235262e-001
 3.2170477184e+000	 1.1002737598e+000	 4.3967972414e-001
 3.2053235261e+000	 1.1339752124e+000	 4.0344208496e-001
 3.1932171098e+000	 1.1676316006e+000	 3.6526529391e-001
 3.1807278769e+000	 1.2012367166e+000	 3.2439119716e-001
 3.1678553637e+000	 1.2347843127e+000	 2.8012893464e-001
 3.1545992369e+000	 1.2682681041e+000	 2.3181715618e-001
 3.1409592953e+000	 1.3016817725e+000	 1.7877695560e-001
 3.1269354717e+000	 1.3350189692e+000	 1.2029522834e-001
 2.8816733683e+000	 1.2303063637e+000	 2.1919752390e-001
 2.8683978159e+000	 1.2609478081e+000	 1.7692281994e-001
 2.8547688504e+000	 1.2915070333e+000	 1.2687360072e-001
 2.8407867890e+000	 1.3219781284e+000	 6.7859615362e-002
 2.8264520771e+000	 1.3523551673e+000	 3.8392699781e-003
 2.8117652893e+000	 1.3826322125e+000	-4.7011858729e-002
 2.7967271297e+000	 1.4128033184e+000	-8.6838748794e-002
 2.7813384333e+000	 1.4428625346e+000	-1.1995346940e-001
 2.7656001662e+000	 1.4728039098e+000	-1.5077860841e-001
 2.7495134265e+000	 1.5026214949e+000	-1.8382931867e-001
 2.7330794442e+000	 1.5323093471e+000	-2.2369380115e-001
 2.9061995786e+000	 1.2407776243e+000	 2.2430091965e-001
 2.8928110367e+000	 1.2716798610e+000	 1.7978241419e-001
 2.8790660737e+000	 1.3024991789e+000	 1.2572249625e-001
 2.8649650095e+000	 1.3332296165e+000	 6.1198958350e-002
 2.8505082935e+000	 1.3638651974e+000	-8.0200138349e-004
 2.8356965050e+000	 1.3943999336e+000	-4.8853561197e-002
 2.8205303541e+000	 1.4248278287e+000	-8.6912022984e-002
 2.8050106830e+000	 1.4551428820e+000	-1.1906219222e-001
 2.7891384659e+000	 1.4853390912e+000	-1.4950096536e-001
 2.7729148103e+000	 1.5154104568e+000	-1.8251928681e-001
 2.7563409568e+000	 1.5453509852e+000	-2.2248244811e-001
 2.9307257889e+000	 1.2512488848e+000	 2.2190483676e-001
 2.9172242575e+000	 1.2824119140e+000	 1.7499621485e-001
 2.9033632970e+000	 1.3134913245e+000	 1.1694163239e-001
 2.8891432301e+000	 1.3444811046e+000	 4.9030786767e-002
 2.8745645099e+000	 1.3753752276e+000	-8.8102158632e-003
 2.8596277206e+000	 1.4061676547e+000	-5.3940708591e-002
 2.8443335785e+000	 1.4368523391e+000	-9.0082235618e-002
 2.8286829326e+000	 1.4674232293e+000	-1.2108660369e-001
 2.8126767656e+000	 1.4978742726e+000	-1.5091954623e-001
 2.7963161942e+000	 1.5281994187e+000	-1.8364257812e-001
 2.7796024694e+000	 1.5583926234e+000	-2.2339309255e-001
 2.9552519993e+000	 1.2617201454e+000	 2.1355953065e-001
 2.9416374783e+000	 1.2931439669e+000	 1.6413216908e-001
 2.9276605203e+000	 1.3244834701e+000	 1.0211315424e-001
 2.9133214507e+000	 1.3557325927e+000	 3.4791968198e-002
 2.8986207263e+000	 1.3868852577e+000	-1.8907400725e-002
 2.8835589363e+000	 1.4179353758e+000	-6.1108302002e-002
 2.8681368029e+000	 1.4488768495e+000	-9.5291382286e-002
 2.8523551823e+000	 1.4797035767e+000	-1.2506969794e-001
 2.8362150654e+000	 1.5104094540e+000	-1.5417236966e-001
 2.8197175780e+000	 1.5409883806e+000	-1.8642632108e-001
 2.8028639820e+000	 1.5714342615e+000	-2.2573615383e-001
 2.9797782096e+000	 1.2721914059e+000	 2.0083406134e-001
 2.9660506991e+000	 1.3038760199e+000	 1.4876633967e-001
 2.9519577435e+000	 1.3354756156e+000	 8.2888075554e-002
 2.9374996712e+000	 1.3669840809e+000	 1.9790715819e-002
 2.9226769427e+000	 1.3983952878e+000	-2.9902909357e-002
 2.9074901520e+000	 1.4297030969e+000	-6.9277227661e-002
 2.8919400273e+000	 1.4609013599e+000	-1.0156587583e-001
 2.8760274320e+000	 1.4919839241e+000	-1.3013739799e-001
 2.8597533651e+000	 1.5229446355e+000	-1.5847888168e-001
 2.8431189619e+000	 1.5537773424e+000	-1.9017756534e-001
 2.8261254946e+000	 1.5844758997e+000	-2.2890047082e-001
 3.0043044200e+000	 1.2826626665e+000	 1.8530646768e-001
 2.9904639199e+000	 1.3146080728e+000	 1.3047242588e-001
 2.9762549668e+000	 1.3464677612e+000	 6.3195957635e-002
 2.9616778918e+000	 1.3782355690e+000	 5.2486989000e-003
 2.9467331591e+000	 1.4099053180e+000	-4.0691073591e-002
 2.9314213677e+000	 1.4414708180e+000	-7.7451821339e-002
 2.9157432517e+000	 1.4729258703e+000	-1.0801401400e-001
 2.8996996817e+000	 1.5042642715e+000	-1.3549591809e-001
 2.8832916648e+000	 1.5354798169e+000	-1.6313720458e-001
 2.8665203457e+000	 1.5665663043e+000	-1.9428040923e-001
 2.8493870072e+000	 1.5975175378e+000	-2.3235030040e-001
 3.0288306303e+000	 1.2931339270e+000	 1.6855392660e-001
 3.0148771406e+000	 1.3253401258e+000	 1.1081127284e-001
 3.0005521901e+000	 1.3574599068e+000	 4.5505157191e-002
 2.9858561124e+000	 1.3894870571e+000	-7.6966152645e-003
 2.9707893755e+000	 1.4214153481e+000	-5.0248858168e-002
 2.9553525834e+000	 1.4532385390e+000	-8.4717432394e-002
 2.9395464761e+000	 1.4849503807e+000	-1.1382344450e-001
 2.9233719313e+000	 1.5165446189e+000	-1.4042912152e-001
 2.9068299645e+000	 1.5480149983e+000	-1.6752137952e-001
 2.8899217296e+000	 1.5793552662e+000	-1.9819311955e-001
 2.8726485198e+000	 1.6105591760e+000	-2.3562230733e-001
 3.0533568406e+000	 1.3036051876e+000	 1.5214289813e-001
 3.0392903614e+000	 1.3360721787e+000	 9.1431599279e-002
 3.0248494134e+000	 1.3684520523e+000	 3.0990007188e-002
 3.0100343330e+000	 1.4007385452e+000	-1.7989702046e-002
 2.9948455920e+000	 1.4329253782e+000	-5.7633517225e-002
 2.9792837991e+000	 1.4650062601e+000	-9.0237987477e-002
 2.9633497005e+000	 1.4969748911e+000	-1.1825862761e-001
 2.9470441810e+000	 1.5288249663e+000	-1.4429587418e-001
 2.9303682642e+000	 1.5605501797e+000	-1.7107860336e-001
 2.9133231134e+000	 1.5921442281e+000	-2.0144524433e-001
 2.8959100323e+000	 1.6236008141e+000	-2.3832254590e-001
 3.0778830510e+000	 1.3140764481e+000	 1.3761925707e-001
 3.0637035822e+000	 1.3468042317e+000	 7.6060237897e-002
 3.0491466367e+000	 1.3794441979e+000	 2.0743485392e-002
 3.0342125535e+000	 1.4119900333e+000	-2.4654724567e-002
 3.0189018084e+000	 1.4444354083e+000	-6.1980252689e-002
 3.0032150148e+000	 1.4767739812e+000	-9.3253553927e-002
 2.9871529249e+000	 1.5089994015e+000	-1.2065829656e-001
 2.9707164307e+000	 1.5411053137e+000	-1.4652739410e-001
 2.9539065639e+000	 1.5730853612e+000	-1.7332645994e-001
 2.9367244973e+000	 1.6049331899e+000	-2.0363471880e-001
 2.9191715449e+000	 1.6366424523e+000	-2.4012343383e-001
 3.1024092613e+000	 1.3245477087e+000	 1.2649841207e-001
 3.0881168030e+000	 1.3575362846e+000	 6.6776439285e-002
 3.0734438600e+000	 1.3904363435e+000	 1.5779384436e-002
 3.0583907741e+000	 1.4232415214e+000	-2.6793282935e-002
 3.0429580248e+000	 1.4559454385e+000	-6.2499874481e-002
 3.0271462304e+000	 1.4885417023e+000	-9.3077902856e-002
 3.0109561493e+000	 1.5210239119e+000	-1.2043291569e-001
 2.9943886803e+000	 1.5533856610e+000	-1.4662459719e-001
 2.9774448636e+000	 1.5856205426e+000	-1.7385014622e-001
 2.9601258812e+000	 1.6177221518e+000	-2.0442496503e-001
 2.9424330575e+000	 1.6496840905e+000	-2.4076071898e-001
 3.1269354717e+000	 1.3350189692e+000	 1.2029522834e-001
 3.1125300238e+000	 1.3682683376e+000	 6.4636700220e-002
 3.0977410833e+000	 1.4014284891e+000	 1.7034475522e-002
 3.0825689947e+000	 1.4344930095e+000	-2.3582167397e-002
 3.0670142412e+000	 1.4674554686e+000	-5.8476462423e-002
 3.0510774461e+000	 1.5003094234e+000	-8.9096071959e-002
 3.0347593738e+000	 1.5330484222e+000	-1.1706213655e-001
 3.0180609300e+000	 1.5656660084e+000	-1.4415543942e-001
 3.0009831633e+000	 1.5981557240e+000	-1.7229969350e-001
 2.9835272650e+000	 1.6305111137e+000	-2.0354198554e-001
 2.9656945701e+000	 1.6627257286e+000	-2.4003043902e-001
 2.7330794442e+000	 1.5323093471e+000	-2.2369380115e-001
 2.7162970396e+000	 1.5618659559e+000	-2.7008873867e-001
 2.6991701498e+000	 1.5912809365e+000	-3.1950005940e-001
 2.6817004063e+000	 1.6205483847e+000	-3.7169915240e-001
 2.6638895731e+000	 1.6496624172e+000	-4.2636099928e-001
 2.6457395471e+000	 1.6786171747e+000	-4.8094843526e-001
 2.6272523575e+000	 1.7074068260e+000	-5.3301093498e-001
 2.6084301654e+000	 1.7360255719e+000	-5.8083502616e-001
 2.5892752636e+000	 1.7644676483e+000	-6.2245668805e-001
 2.5697900756e+000	 1.7927273302e+000	-6.5568564336e-001
 2.5499771547e+000	 1.8207989356e+000	-6.7813225412e-001
 2.7563409568e+000	 1.5453509852e+000	-2.2248244811e-001
 2.7394157154e+000	 1.5751591533e+000	-2.6865643042e-001
 2.7221430570e+000	 1.6048244877e+000	-3.1719301828e-001
 2.7045246267e+000	 1.6343410342e+000	-3.6781944739e-001
 2.6865622037e+000	 1.6637028591e+000	-4.2020816674e-001
 2.6682577011e+000	 1.6929040534e+000	-4.7395771606e-001
 2.6496131651e+000	 1.7219387363e+000	-5.2694133967e-001
 2.6306307755e+000	 1.7508010592e+000	-5.7558717097e-001
 2.6113128445e+000	 1.7794852089e+000	-6.1788155779e-001
 2.5916618160e+000	 1.8079854119e+000	-6.5158374767e-001
 2.5716802653e+000	 1.8362959375e+000	-6.7424199159e-001
 2.7796024694e+000	 1.5583926234e+000	-2.2339309255e-001
 2.7625343913e+000	 1.5884523507e+000	-2.6901740299e-001
 2.7451159642e+000	 1.6183680390e+000	-3.1638976141e-001
 2.7273488472e+000	 1.6481336836e+000	-3.6522687339e-001
 2.7092348344e+000	 1.6777433009e+000	-4.1519437556e-001
 2.6907758550e+000	 1.7071909321e+000	-4.6588678727e-001
 2.6719739728e+000	 1.7364706467e+000	-5.1680651129e-001
 2.6528313856e+000	 1.7655765466e+000	-5.6618033068e-001
 2.6333504253e+000	 1.7945027696e+000	-6.0949738699e-001
 2.6135335564e+000	 1.8232434935e+000	-6.4433868959e-001
 2.5933833760e+000	 1.8517929394e+000	-6.6821624331e-001
 2.8028639820e+000	 1.5714342615e+000	-2.2573615383e-001
 2.7856530671e+000	 1.6017455481e+000	-2.7055955243e-001
 2.7680888714e+000	 1.6319115902e+000	-3.1654923339e-001
 2.7501730676e+000	 1.6619263330e+000	-3.6344424618e-001
 2.7319074651e+000	 1.6917837428e+000	-4.1093654532e-001
 2.7132940090e+000	 1.7214778108e+000	-4.5864990161e-001
 2.6943347804e+000	 1.7510025570e+000	-5.0611777392e-001
 2.6750319957e+000	 1.7803520339e+000	-5.5276030775e-001
 2.6553880061e+000	 1.8095203303e+000	-5.9702347428e-001
 2.6354052969e+000	 1.8385015752e+000	-6.3365586646e-001
 2.6150864867e+000	 1.8672899413e+000	-6.5973756691e-001
 2.8261254946e+000	 1.5844758997e+000	-2.2890047082e-001
 2.8087717430e+000	 1.6150387455e+000	-2.7274771144e-001
 2.7910617786e+000	 1.6454551415e+000	-3.1720588780e-001
 2.7729972881e+000	 1.6757189825e+000	-3.6206856071e-001
 2.7545800958e+000	 1.7058241847e+000	-4.0708645312e-001
 2.7358121630e+000	 1.7357646895e+000	-4.5194520479e-001
 2.7166955881e+000	 1.7655344673e+000	-4.9624199360e-001
 2.6972326058e+000	 1.7951275212e+000	-5.3946119878e-001
 2.6774255869e+000	 1.8245378910e+000	-5.8094929701e-001
 2.6572770373e+000	 1.8537596569e+000	-6.1926128245e-001
 2.6367895974e+000	 1.8827869432e+000	-6.4851643188e-001
 2.8493870072e+000	 1.5975175378e+000	-2.3235030040e-001
 2.8318904189e+000	 1.6283319429e+000	-2.7512051169e-001
 2.8140346857e+000	 1.6589986927e+000	-3.1796640537e-001
 2.7958215085e+000	 1.6895116319e+000	-3.6076755633e-001
 2.7772527264e+000	 1.7198646266e+000	-4.0336526947e-001
 2.7583303170e+000	 1.7500515682e+000	-4.4553905996e-001
 2.7390563958e+000	 1.7800663776e+000	-4.8698190070e-001
 2.7194332159e+000	 1.8099030085e+000	-5.2727442188e-001
 2.6994631677e+000	 1.8395554517e+000	-5.6585826403e-001
 2.6791487777e+000	 1.8690177385e+000	-6.0200880156e-001
 2.6584927081e+000	 1.8982839451e+000	-6.3429528058e-001
 2.8726485198e+000	 1.6105591760e+000	-2.3562230733e-001
 2.8550090947e+000	 1.6416251403e+000	-2.7728723658e-001
 2.8370075929e+000	 1.6725422440e+000	-3.1850640207e-001
 2.8186457290e+000	 1.7033042813e+000	-3.5927627188e-001
 2.7999253571e+000	 1.7339050684e+000	-3.9955995115e-001
 2.7808484710e+000	 1.7643384469e+000	-4.3926226841e-001
 2.7614172034e+000	 1.7945982879e+000	-4.7820352385e-001
 2.7416338260e+000	 1.8246784959e+000	-5.1609209465e-001
 2.7215007486e+000	 1.8545730124e+000	-5.5249610996e-001
 2.7010205182e+000	 1.8842758202e+000	-5.8681442442e-001
 2.6801958187e+000	 1.9137809471e+000	-6.1824713393e-001
 2.8959100323e+000	 1.6236008141e+000	-2.3832254590e-001
 2.8781277706e+000	 1.6549183377e+000	-2.7892466507e-001
 2.8599805001e+000	 1.6860857952e+000	-3.1856712783e-001
 2.8414699494e+000	 1.7170969308e+000	-3.5739359117e-001
 2.8225979878e+000	 1.7479455103e+000	-3.9551962477e-001
 2.8033666250e+000	 1.7786253257e+000	-4.3300628177e-001
 2.7837780111e+000	 1.8091301983e+000	-4.6983222054e-001
 2.7638344362e+000	 1.8394539832e+000	-5.0586458303e-001
 2.7435383294e+000	 1.8695905731e+000	-5.4082885413e-001
 2.7228922586e+000	 1.8995339019e+000	-5.7427794356e-001
 2.7018989294e+000	 1.9292779490e+000	-6.0556074776e-001
 2.9191715449e+000	 1.6366424523e+000	-2.4012343383e-001
 2.9012464465e+000	 1.6682115351e+000	-2.7977390705e-001
 2.8829534073e+000	 1.6996293465e+000	-3.1795215621e-001
 2.8642941699e+000	 1.7308895802e+000	-3.5497877943e-001
 2.8452706184e+000	 1.7619859522e+000	-3.9115196154e-001
 2.8258847789e+000	 1.7929122044e+000	-4.2671940606e-001
 2.8061388188e+000	 1.8236621086e+000	-4.6184870085e-001
 2.7860350463e+000	 1.8542294705e+000	-4.9659633439e-001
 2.7655759102e+000	 1.8846081337e+000	-5.3087559938e-001
 2.7447639990e+000	 1.9147919835e+000	-5.6442363879e-001
 2.7236020401e+000	 1.9447749509e+000	-5.9676790594e-001
 2.9424330575e+000	 1.6496840905e+000	-2.4076071898e-001
 2.9243651223e+000	 1.6815047326e+000	-2.7963723060e-001
 2.9059263145e+000	 1.7131728977e+000	-3.1652406576e-001
 2.8871183903e+000	 1.7446822296e+000	-3.5194801119e-001
 2.8679432491e+000	 1.7760263941e+000	-3.8641954377e-001
 2.8484029329e+000	 1.8071990831e+000	-4.2040299822e-001
 2.8284996264e+000	 1.8381940189e+000	-4.5428504477e-001
 2.8082356564e+000	 1.8690049578e+000	-4.8834170580e-001
 2.7876134910e+000	 1.8996256944e+000	-5.2270416099e-001
 2.7666357395e+000	 1.9300500652e+000	-5.5732361031e-001
 2.7453051508e+000	 1.9602719528e+000	-5.9193548145e-001
 2.9656945701e+000	 1.6627257286e+000	-2.4003043902e-001
 2.9474837982e+000	 1.6947979300e+000	-2.7837488182e-001
 2.9288992217e+000	 1.7267164490e+000	-3.1420111329e-001
 2.9099426108e+000	 1.7584748791e+000	-3.4827089007e-001
 2.8906158798e+000	 1.7900668359e+000	-3.8133622350e-001
 2.8709210869e+000	 1.8214859618e+000	-4.1410765533e-001
 2.8508604341e+000	 1.8527259292e+000	-4.4722071327e-001
 2.8304362665e+000	 1.8837804452e+000	-4.8120078775e-001
 2.8096510718e+000	 1.9146432551e+000	-5.1642669312e-001
 2.7885074799e+000	 1.9453081468e+000	-5.5309319747e-001
 2.7670082615e+000	 1.9757689547e+000	-5.9117282355e-001
 2.5499771547e+000	 1.8207989356e+000	-6.7813225412e-001
 2.5298391828e+000	 1.8486768282e+000	-6.9543557268e-001
 2.5093789672e+000	 1.8763554191e+000	-7.1548392972e-001
 2.4885994412e+000	 1.9038291727e+000	-7.3903052709e-001
 2.4675036641e+000	 1.9310926103e+000	-7.6671983596e-001
 2.4460948194e+000	 1.9581403139e+000	-7.9911773093e-001
 2.4243762135e+000	 1.9849669300e+000	-8.3674282386e-001
 2.4023512743e+000	 2.0115671724e+000	-8.7879088138e-001
 2.3800235488e+000	 2.0379358263e+000	-9.1612097089e-001
 2.3573967021e+000	 2.0640677512e+000	-9.4876890794e-001
 2.3344745148e+000	 2.0899578845e+000	-9.7908283265e-001
 2.5716802653e+000	 1.8362959375e+000	-6.7424199159e-001
 2.5513708972e+000	 1.8644111016e+000	-6.9117625403e-001
 2.5307365427e+000	 1.8923252678e+000	-7.1021575193e-001
 2.5097801601e+000	 1.9200328533e+000	-7.3242415706e-001
 2.4885048347e+000	 1.9475283327e+000	-7.5874446525e-001
 2.4669137771e+000	 1.9748062421e+000	-7.9003051340e-001
 2.4450103220e+000	 2.0018611821e+000	-8.2704523522e-001
 2.4227979263e+000	 2.0286878219e+000	-8.6273388521e-001
 2.4002801674e+000	 2.0552809020e+000	-8.9314463150e-001
 2.3774607413e+000	 2.0816352384e+000	-9.2089369440e-001
 2.3543434610e+000	 2.1077457252e+000	-9.4862112008e-001
 2.5933833760e+000	 1.8517929394e+000	-6.6821624331e-001
 2.5729026116e+000	 1.8801453750e+000	-6.8606969576e-001
 2.5520941181e+000	 1.9082951165e+000	-7.0552779581e-001
 2.5309608789e+000	 1.9362365338e+000	-7.2786930756e-001
 2.5095060052e+000	 1.9639640551e+000	-7.5424047166e-001
 2.4877327348e+000	 1.9914721702e+000	-7.8568816763e-001
 2.4656444305e+000	 2.0187554343e+000	-8.1973532860e-001
 2.4432445784e+000	 2.0458084713e+000	-8.4776477046e-001
 2.4205367859e+000	 2.0726259777e+000	-8.7183184578e-001
 2.3975247805e+000	 2.0992027255e+000	-8.9476624093e-001
 2.3742124071e+000	 2.1255335658e+000	-9.1941795122e-001
 2.6150864867e+000	 1.8672899413e+000	-6.5973756691e-001
 2.5944343260e+000	 1.8958796485e+000	-6.7977718100e-001
 2.5734516935e+000	 1.9242649652e+000	-7.0107410807e-001
 2.5521415977e+000	 1.9524402144e+000	-7.2502833281e-001
 2.5305071758e+000	 1.9803997775e+000	-7.5289554668e-001
 2.5085516926e+000	 2.0081380983e+000	-7.8515890442e-001
 2.4862785390e+000	 2.0356496864e+000	-8.1255222785e-001
 2.4636912304e+000	 2.0629291208e+000	-8.3398819820e-001
 2.4407934044e+000	 2.0899710534e+000	-8.5239333441e-001
 2.4175888197e+000	 2.1167702127e+000	-8.7072943419e-001
 2.3940813533e+000	 2.1433214065e+000	-8.9197659924e-001
 2.6367895974e+000	 1.8827869432e+000	-6.4851643188e-001
 2.6159660404e+000	 1.9116139219e+000	-6.7199523758e-001
 2.5948092690e+000	 1.9402348139e+000	-6.9655088746e-001
 2.5733223165e+000	 1.9686438949e+000	-7.2361212816e-001
 2.5515083463e+000	 1.9968354999e+000	-7.5445170115e-001
 2.5293706503e+000	 2.0248040264e+000	-7.8414199853e-001
 2.5069126475e+000	 2.0525439385e+000	-8.0556954329e-001
 2.4841378824e+000	 2.0800497702e+000	-8.2155808886e-001
 2.4610500230e+000	 2.1073161292e+000	-8.3508649725e-001
 2.4376528589e+000	 2.1343376998e+000	-8.4916939964e-001
 2.4139502994e+000	 2.1611092471e+000	-8.6683921839e-001
 2.6584927081e+000	 1.8982839451e+000	-6.3429528058e-001
 2.6374977548e+000	 1.9273481954e+000	-6.6245974647e-001
 2.6161668444e+000	 1.9562046626e+000	-6.9170065512e-001
 2.5945030353e+000	 1.9848475755e+000	-7.2338437935e-001
 2.5725095169e+000	 2.0132712223e+000	-7.5693995346e-001
 2.5501896080e+000	 2.0414699545e+000	-7.8196315620e-001
 2.5275467561e+000	 2.0694381906e+000	-7.9890927822e-001
 2.5045845345e+000	 2.0971704197e+000	-8.1067495583e-001
 2.4813066415e+000	 2.1246612049e+000	-8.2021275988e-001
 2.4577168980e+000	 2.1519051869e+000	-8.3051289913e-001
 2.4338192456e+000	 2.1788970878e+000	-8.4458433366e-001
 2.6801958187e+000	 1.9137809471e+000	-6.1824713393e-001
 2.6590294692e+000	 1.9430824688e+000	-6.5095005876e-001
 2.6375244199e+000	 1.9721745113e+000	-6.8631643692e-001
 2.6156837542e+000	 2.0010512561e+000	-7.2415457383e-001
 2.5935106874e+000	 2.0297069447e+000	-7.5677540644e-001
 2.5710085658e+000	 2.0581358826e+000	-7.7873314253e-001
 2.5481808646e+000	 2.0863324428e+000	-7.9273919916e-001
 2.5250311865e+000	 2.1142910692e+000	-8.0158325083e-001
 2.5015632601e+000	 2.1420062806e+000	-8.0811492759e-001
 2.4777809372e+000	 2.1694726741e+000	-8.1522472986e-001
 2.4536881917e+000	 2.1966849284e+000	-8.2582432384e-001
 2.7018989294e+000	 1.9292779490e+000	-6.0556074776e-001
 2.6805611835e+000	 1.9588167422e+000	-6.3886142425e-001
 2.6588819953e+000	 1.9881443600e+000	-6.8024595683e-001
 2.6368644730e+000	 2.0172549366e+000	-7.2284407344e-001
 2.6145118580e+000	 2.0461426671e+000	-7.5397253448e-001
 2.5918275235e+000	 2.0748018108e+000	-7.7460707016e-001
 2.5688149731e+000	 2.1032266949e+000	-7.8727021978e-001
 2.5454778386e+000	 2.1314117186e+000	-7.9456872044e-001
 2.5218198786e+000	 2.1593513563e+000	-7.9917454644e-001
 2.4978449764e+000	 2.1870401612e+000	-8.0380512463e-001
 2.4735571379e+000	 2.2144727691e+000	-8.1120289823e-001
 2.7236020401e+000	 1.9447749509e+000	-5.9676790594e-001
 2.7020928979e+000	 1.9745510157e+000	-6.3165296188e-001
 2.6802395708e+000	 2.0041142087e+000	-6.7480246841e-001
 2.6580451918e+000	 2.0334586172e+000	-7.1722047753e-001
 2.6355130285e+000	 2.0625783895e+000	-7.4869022016e-001
 2.6126464812e+000	 2.0914677389e+000	-7.6978185382e-001
 2.5894490816e+000	 2.1201209470e+000	-7.8275379784e-001
 2.5659244906e+000	 2.1485323681e+000	-7.8995577319e-001
 2.5420764971e+000	 2.1766964320e+000	-7.9380927100e-001
 2.5179090156e+000	 2.2046076483e+000	-7.9678715329e-001
 2.4934260840e+000	 2.2322606097e+000	-8.0139256755e-001
 2.7453051508e+000	 1.9602719528e+000	-5.9193548145e-001
 2.7236246123e+000	 1.9902852891e+000	-6.2986364160e-001
 2.7015971462e+000	 2.0200840574e+000	-6.7221328097e-001
 2.6792259106e+000	 2.0496622977e+000	-7.0886832500e-001
 2.6565141991e+000	 2.0790141119e+000	-7.4112738063e-001
 2.6334654390e+000	 2.1081336670e+000	-7.6449367832e-001
 2.6100831901e+000	 2.1370151992e+000	-7.7947934433e-001
 2.5863711426e+000	 2.1656530175e+000	-7.8810485661e-001
 2.5623331157e+000	 2.1940415077e+000	-7.9247023841e-001
 2.5379730548e+000	 2.2221751355e+000	-7.9473412543e-001
 2.5132950302e+000	 2.2500484504e+000	-7.9709210921e-001
 2.7670082615e+000	 1.9757689547e+000	-5.9117282355e-001
 2.7451563267e+000	 2.0060195626e+000	-6.3323162184e-001
 2.7229547217e+000	 2.0360539061e+000	-6.7183700304e-001
 2.7004066295e+000	 2.0658659783e+000	-7.0399240912e-001
 2.6775153696e+000	 2.0954498343e+000	-7.3260454451e-001
 2.6542843967e+000	 2.1247995951e+000	-7.5901547891e-001
 2.6307172986e+000	 2.1539094513e+000	-7.7777164425e-001
 2.6068177947e+000	 2.1827736670e+000	-7.8940984365e-001
 2.5825897342e+000	 2.2113865834e+000	-7.9563944835e-001
 2.5580370939e+000	 2.2397426226e+000	-7.9823699405e-001
 2.5331639763e+000	 2.2678362910e+000	-7.9902402735e-001
 2.3344745148e+000	 2.0899578845e+000	-9.7908283265e-001
 2.3112643850e+000	 2.1155974172e+000	-1.0067656836e+000
 2.2877669022e+000	 2.1409853574e+000	-1.0294951662e+000
 2.2639861814e+000	 2.1661168989e+000	-1.0466081662e+000
 2.2399264443e+000	 2.1909873262e+000	-1.0574696576e+000
 2.2155920168e+000	 2.2155920168e+000	-1.0614635024e+000
 2.1909873262e+000	 2.2399264443e+000	-1.0579834025e+000
 2.1661168989e+000	 2.2639861814e+000	-1.0464241112e+000
 2.1409853574e+000	 2.2877669022e+000	-1.0261730147e+000
 2.1155974172e+000	 2.3112643850e+000	-9.9660218394e-001
 2.0899578845e+000	 2.3344745148e+000	-9.5706099722e-001
 2.3543434610e+000	 2.1077457252e+000	-9.4862112008e-001
 2.3309357874e+000	 2.1336034785e+000	-9.7663747372e-001
 2.3072383152e+000	 2.1592074979e+000	-1.0025204164e+000
 2.2832551943e+000	 2.1845529366e+000	-1.0248421949e+000
 2.2589906824e+000	 2.2096350385e+000	-1.0422156296e+000
 2.2344491421e+000	 2.2344491421e+000	-1.0532856119e+000
 2.2096350385e+000	 2.2589906824e+000	-1.0567207454e+000
 2.1845529366e+000	 2.2832551943e+000	-1.0512052440e+000
 2.1592074979e+000	 2.3072383152e+000	-1.0354311984e+000
 2.1336034785e+000	 2.3309357874e+000	-1.0080913179e+000
 2.1077457252e+000	 2.3543434610e+000	-9.6787224942e-001
 2.3742124071e+000	 2.1255335658e+000	-9.1941795122e-001
 2.3506071898e+000	 2.1516095398e+000	-9.4681796670e-001
 2.3267097282e+000	 2.1774296385e+000	-9.7469906346e-001
 2.3025242072e+000	 2.2029889742e+000	-1.0010004340e+000
 2.2780549204e+000	 2.2282827509e+000	-1.0237120132e+000
 2.2533062674e+000	 2.2533062674e+000	-1.0408664061e+000
 2.2282827509e+000	 2.2780549204e+000	-1.0505309556e+000
 2.2029889742e+000	 2.3025242072e+000	-1.0508000698e+000
 2.1774296385e+000	 2.3267097282e+000	-1.0397879257e+000
 2.1516095398e+000	 2.3506071898e+000	-1.0156216583e+000
 2.1255335658e+000	 2.3742124071e+000	-9.7643514384e-001
 2.3940813533e+000	 2.1433214065e+000	-8.9197659924e-001
 2.3702785922e+000	 2.1696156011e+000	-9.1796687351e-001
 2.3461811411e+000	 2.1956517791e+000	-9.4680762837e-001
 2.3217932201e+000	 2.2214250118e+000	-9.7593336349e-001
 2.2971191585e+000	 2.2469304632e+000	-1.0028372081e+000
 2.2721633927e+000	 2.2721633927e+000	-1.0250630112e+000
 2.2469304632e+000	 2.2971191585e+000	-1.0401975754e+000
 2.2214250118e+000	 2.3217932201e+000	-1.0458631590e+000
 2.1956517791e+000	 2.3461811411e+000	-1.0397103677e+000
 2.1696156011e+000	 2.3702785922e+000	-1.0194115523e+000
 2.1433214065e+000	 2.3940813533e+000	-9.8265482411e-001
 2.4139502994e+000	 2.1611092471e+000	-8.6683921839e-001
 2.3899499946e+000	 2.1876216623e+000	-8.9077858237e-001
 2.3656525541e+000	 2.2138739197e+000	-9.1965444601e-001
 2.3410622330e+000	 2.2398610495e+000	-9.5052187261e-001
 2.3161833966e+000	 2.2655781755e+000	-9.8050019204e-001
 2.2910205180e+000	 2.2910205180e+000	-1.0067649886e+000
 2.2655781755e+000	 2.3161833966e+000	-1.0265402405e+000
 2.2398610495e+000	 2.3410622330e+000	-1.0370907431e+000
 2.2138739197e+000	 2.3656525541e+000	-1.0357149424e+000
 2.1876216623e+000	 2.3899499946e+000	-1.0197383030e+000
 2.1611092471e+000	 2.4139502994e+000	-9.8650732497e-001
 2.4338192456e+000	 2.1788970878e+000	-8.4458433366e-001
 2.4096213971e+000	 2.2056277236e+000	-8.6597973836e-001
 2.3851239671e+000	 2.2320960602e+000	-8.9407728491e-001
 2.3603312458e+000	 2.2582970871e+000	-9.2567486477e-001
 2.3352476346e+000	 2.2842258879e+000	-9.5763805373e-001
 2.3098776433e+000	 2.3098776433e+000	-9.8689173291e-001
 2.2842258879e+000	 2.3352476346e+000	-1.0104118755e+000
 2.2582970871e+000	 2.3603312458e+000	-1.0252176380e+000
 2.2320960602e+000	 2.3851239671e+000	-1.0283638916e+000
 2.2056277236e+000	 2.4096213971e+000	-1.0169343209e+000
 2.1788970878e+000	 2.4338192456e+000	-9.8803521583e-001
 2.4536881917e+000	 2.1966849284e+000	-8.2582432384e-001
 2.4292927995e+000	 2.2236337849e+000	-8.4432680865e-001
 2.4045953801e+000	 2.2503182008e+000	-8.7094094712e-001
 2.3796002587e+000	 2.2767331247e+000	-9.0232684100e-001
 2.3543118727e+000	 2.3028736002e+000	-9.3521350371e-001
 2.3287347687e+000	 2.3287347687e+000	-9.6638985135e-001
 2.3028736002e+000	 2.3543118727e+000	-9.9269587875e-001
 2.2767331247e+000	 2.3796002587e+000	-1.0110141679e+000
 2.2503182008e+000	 2.4045953801e+000	-1.0182618715e+000
 2.2236337849e+000	 2.4292927995e+000	-1.0113833082e+000
 2.1966849284e+000	 2.4536881917e+000	-9.8734329974e-001
 2.4735571379e+000	 2.2144727691e+000	-8.1120289823e-001
 2.4489642019e+000	 2.2416398462e+000	-8.2660363403e-001
 2.4240667931e+000	 2.2685403414e+000	-8.5113484972e-001
 2.3988692716e+000	 2.2951691624e+000	-8.8143546235e-001
 2.3733761107e+000	 2.3215213125e+000	-9.1421236533e-001
 2.3475918940e+000	 2.3475918940e+000	-9.4623052673e-001
 2.3215213125e+000	 2.3733761107e+000	-9.7430329787e-001
 2.2951691624e+000	 2.3988692716e+000	-9.9528308816e-001
 2.2685403414e+000	 2.4240667931e+000	-1.0060525578e+000
 2.2416398462e+000	 2.4489642019e+000	-1.0035164734e+000
 2.2144727691e+000	 2.4735571379e+000	-9.8459436479e-001
 2.4934260840e+000	 2.2322606097e+000	-8.0139256755e-001
 2.4686356043e+000	 2.2596459074e+000	-8.1361896775e-001
 2.4435382061e+000	 2.2867624820e+000	-8.3557058861e-001
 2.4181382845e+000	 2.3136052000e+000	-8.6397909257e-001
 2.3924403488e+000	 2.3401690249e+000	-8.9564104621e-001
 2.3664490193e+000	 2.3664490193e+000	-9.2740686430e-001
 2.3401690249e+000	 2.3924403488e+000	-9.5616999446e-001
 2.3136052000e+000	 2.4181382845e+000	-9.7885650860e-001
 2.2867624820e+000	 2.4435382061e+000	-9.9241526214e-001
 2.2596459074e+000	 2.4686356043e+000	-9.9380877557e-001
 2.2322606097e+000	 2.4934260840e+000	-9.8000498484e-001
 2.5132950302e+000	 2.2500484504e+000	-7.9709210921e-001
 2.4883070067e+000	 2.2776519687e+000	-8.0620400211e-001
 2.4630096191e+000	 2.3049846225e+000	-8.2517948601e-001
 2.4374072974e+000	 2.3320412377e+000	-8.5095432216e-001
 2.4115045869e+000	 2.3588167372e+000	-8.8052399159e-001
 2.3853061446e+000	 2.3853061446e+000	-9.1093122350e-001
 2.3588167372e+000	 2.4115045869e+000	-9.3925380037e-001
 2.3320412377e+000	 2.4374072974e+000	-9.6259281658e-001
 2.3049846225e+000	 2.4630096191e+000	-9.7806156225e-001
 2.2776519687e+000	 2.4883070067e+000	-9.8277519660e-001
 2.2500484504e+000	 2.5132950302e+000	-9.7384136707e-001
 2.5331639763e+000	 2.2678362910e+000	-7.9902402735e-001
 2.5079784091e+000	 2.2956580300e+000	-8.0520988363e-001
 2.4824810320e+000	 2.3232067631e+000	-8.2091012210e-001
 2.4566763103e+000	 2.3504772753e+000	-8.4337347489e-001
 2.4305688249e+000	 2.3774644495e+000	-8.6990112045e-001
 2.4041632699e+000	 2.4041632699e+000	-8.9783253550e-001
 2.3774644495e+000	 2.4305688249e+000	-9.2453166513e-001
 2.3504772753e+000	 2.4566763103e+000	-9.4737359981e-001
 2.3232067631e+000	 2.4824810320e+000	-9.6373194213e-001
 2.2956580300e+000	 2.5079784091e+000	-9.7096703874e-001
 2.2678362910e+000	 2.5331639763e+000	-9.6641524359e-001
 2.0899578845e+000	 2.3344745148e+000	-9.5706099722e-001
 2.0640677512e+000	 2.3573967021e+000	-9.2559143687e-001
 2.0379358263e+000	 2.3800235488e+000	-9.2296310416e-001
 2.0115671724e+000	 2.4023512743e+000	-9.5245671048e-001
 1.9849669300e+000	 2.4243762135e+000	-1.0089749261e+000
 1.9581403139e+000	 2.4460948194e+000	-1.0556555862e+000
 1.9310926103e+000	 2.4675036641e+000	-1.0873607857e+000
 1.9038291727e+000	 2.4885994412e+000	-1.1037735157e+000
 1.8763554191e+000	 2.5093789672e+000	-1.1046236197e+000
 1.8486768282e+000	 2.5298391828e+000	-1.0897124196e+000
 1.8207989356e+000	 2.5499771547e+000	-1.0589359293e+000
 2.1077457252e+000	 2.3543434610e+000	-9.6787224942e-001
 2.0816352384e+000	 2.3774607413e+000	-9.3144867626e-001
 2.0552809020e+000	 2.4002801674e+000	-9.1893309588e-001
 2.0286878219e+000	 2.4227979263e+000	-9.3400970893e-001
 2.0018611821e+000	 2.4450103220e+000	-9.8018091062e-001
 1.9748062421e+000	 2.4669137771e+000	-1.0372837770e+000
 1.9475283327e+000	 2.4885048347e+000	-1.0759415997e+000
 1.9200328533e+000	 2.5097801601e+000	-1.0960093232e+000
 1.8923252678e+000	 2.5307365427e+000	-1.0975126078e+000
 1.8644111016e+000	 2.5513708972e+000	-1.0805466760e+000
 1.8362959375e+000	 2.5716802653e+000	-1.0453003345e+000
 2.1255335658e+000	 2.3742124071e+000	-9.7643514384e-001
 2.0992027255e+000	 2.3975247805e+000	-9.3737225481e-001
 2.0726259777e+000	 2.4205367859e+000	-9.1757490309e-001
 2.0458084713e+000	 2.4432445784e+000	-9.2101536039e-001
 2.0187554343e+000	 2.4656444305e+000	-9.5147097538e-001
 1.9914721702e+000	 2.4877327348e+000	-1.0098100534e+000
 1.9639640551e+000	 2.5095060052e+000	-1.0587403627e+000
 1.9362365338e+000	 2.5309608789e+000	-1.0855010023e+000
 1.9082951165e+000	 2.5520941181e+000	-1.0903100952e+000
 1.8801453750e+000	 2.5729026116e+000	-1.0734575077e+000
 1.8517929394e+000	 2.5933833760e+000	-1.0353298925e+000
 2.1433214065e+000	 2.3940813533e+000	-9.8265482411e-001
 2.1167702127e+000	 2.4175888197e+000	-9.4294045027e-001
 2.0899710534e+000	 2.4407934044e+000	-9.1818075889e-001
 2.0629291208e+000	 2.4636912304e+000	-9.1252319703e-001
 2.0356496864e+000	 2.4862785390e+000	-9.2990939499e-001
 2.0081380983e+000	 2.5085516926e+000	-9.7406368227e-001
 1.9803997775e+000	 2.5305071758e+000	-1.0340004047e+000
 1.9524402144e+000	 2.5521415977e+000	-1.0704275662e+000
 1.9242649652e+000	 2.5734516935e+000	-1.0811810556e+000
 1.8958796485e+000	 2.5944343260e+000	-1.0666479981e+000
 1.8672899413e+000	 2.6150864867e+000	-1.0273197777e+000
 2.1611092471e+000	 2.4139502994e+000	-9.8650732497e-001
 2.1343376998e+000	 2.4376528589e+000	-9.4781492680e-001
 2.1073161292e+000	 2.4610500230e+000	-9.2013754695e-001
 2.0800497702e+000	 2.4841378824e+000	-9.0768735300e-001
 2.0525439385e+000	 2.5069126475e+000	-9.1446195698e-001
 2.0248040264e+000	 2.5293706503e+000	-9.4423239693e-001
 1.9968354999e+000	 2.5515083463e+000	-1.0001538847e+000
 1.9686438949e+000	 2.5733223165e+000	-1.0491622357e+000
 1.9402348139e+000	 2.5948092690e+000	-1.0684881299e+000
 1.9116139219e+000	 2.6159660404e+000	-1.0585203503e+000
 1.8827869432e+000	 2.6367895974e+000	-1.0197636437e+000
 2.1788970878e+000	 2.4338192456e+000	-9.8803521583e-001
 2.1519051869e+000	 2.4577168980e+000	-9.5173585676e-001
 2.1246612049e+000	 2.4813066415e+000	-9.2292146108e-001
 2.0971704197e+000	 2.5045845345e+000	-9.0576082468e-001
 2.0694381906e+000	 2.5275467561e+000	-9.0420153595e-001
 2.0414699545e+000	 2.5501896080e+000	-9.2195757298e-001
 2.0132712223e+000	 2.5725095169e+000	-9.6249859045e-001
 1.9848475755e+000	 2.5945030353e+000	-1.0202666682e+000
 1.9562046626e+000	 2.6161668444e+000	-1.0507859084e+000
 1.9273481954e+000	 2.6374977548e+000	-1.0476703011e+000
 1.8982839451e+000	 2.6584927081e+000	-1.0113482512e+000
 2.1966849284e+000	 2.4536881917e+000	-9.8734329974e-001
 2.1694726741e+000	 2.4777809372e+000	-9.5451712155e-001
 2.1420062806e+000	 2.5015632601e+000	-9.2609276472e-001
 2.1142910692e+000	 2.5250311865e+000	-9.0608984894e-001
 2.0863324428e+000	 2.5481808646e+000	-8.9830215395e-001
 2.0581358826e+000	 2.5710085658e+000	-9.0628497927e-001
 2.0297069447e+000	 2.5935106874e+000	-9.3334428014e-001
 2.0010512561e+000	 2.6156837542e+000	-9.8252765142e-001
 1.9721745113e+000	 2.6375244199e+000	-1.0268153716e+000
 1.9430824688e+000	 2.6590294692e+000	-1.0328816924e+000
 1.9137809471e+000	 2.6801958187e+000	-1.0006539932e+000
 2.2144727691e+000	 2.4735571379e+000	-9.8459436479e-001
 2.1870401612e+000	 2.4978449764e+000	-9.5604158710e-001
 2.1593513563e+000	 2.5218198786e+000	-9.2929064456e-001
 2.1314117186e+000	 2.5454778386e+000	-9.0810839248e-001
 2.1032266949e+000	 2.5688149731e+000	-8.9603316629e-001
 2.0748018108e+000	 2.5918275235e+000	-8.9636204779e-001
 2.0461426671e+000	 2.6145118580e+000	-9.1213999313e-001
 2.0172549366e+000	 2.6368644730e+000	-9.4615089741e-001
 1.9881443600e+000	 2.6588819953e+000	-9.9549848297e-001
 1.9588167422e+000	 2.6805611835e+000	-1.0127828446e+000
 1.9292779490e+000	 2.7018989294e+000	-9.8613377159e-001
 2.2322606097e+000	 2.4934260840e+000	-9.8000498484e-001
 2.2046076483e+000	 2.5179090156e+000	-9.5625644965e-001
 2.1766964320e+000	 2.5420764971e+000	-9.3222815333e-001
 2.1485323681e+000	 2.5659244906e+000	-9.1133274639e-001
 2.1201209470e+000	 2.5894490816e+000	-8.9675356579e-001
 2.0914677389e+000	 2.6126464812e+000	-8.9143194849e-001
 2.0625783895e+000	 2.6355130285e+000	-8.9805649189e-001
 2.0334586172e+000	 2.6580451918e+000	-9.1905433860e-001
 2.0041142087e+000	 2.6802395708e+000	-9.5623362956e-001
 1.9745510157e+000	 2.7020928979e+000	-9.8579901340e-001
 1.9447749509e+000	 2.7236020401e+000	-9.6798150242e-001
 2.2500484504e+000	 2.5132950302e+000	-9.7384136707e-001
 2.2221751355e+000	 2.5379730548e+000	-9.5516864812e-001
 2.1940415077e+000	 2.5623331157e+000	-9.3468723649e-001
 2.1656530175e+000	 2.5863711426e+000	-9.1535621982e-001
 2.1370151992e+000	 2.6100831901e+000	-8.9990639876e-001
 2.1081336670e+000	 2.6334654390e+000	-8.9082778590e-001
 2.0790141119e+000	 2.6565141991e+000	-8.9035913612e-001
 2.0496622977e+000	 2.6792259106e+000	-9.0015626020e-001
 2.0200840574e+000	 2.7015971462e+000	-9.2098915380e-001
 1.9902852891e+000	 2.7236246123e+000	-9.5209447574e-001
 1.9602719528e+000	 2.7453051508e+000	-9.4656865566e-001
 2.2678362910e+000	 2.5331639763e+000	-9.6641524359e-001
 2.2397426226e+000	 2.5580370939e+000	-9.5284033935e-001
 2.2113865834e+000	 2.5825897342e+000	-9.3651383854e-001
 2.1827736670e+000	 2.6068177947e+000	-9.1984392744e-001
 2.1539094513e+000	 2.6307172986e+000	-9.0501328677e-001
 2.1247995951e+000	 2.6542843967e+000	-8.9396691084e-001
 2.0954498343e+000	 2.6775153696e+000	-8.8814519637e-001
 2.0658659783e+000	 2.7004066295e+000	-8.8777481868e-001
 2.0360539061e+000	 2.7229547217e+000	-8.9526760131e-001
 2.0060195626e+000	 2.7451563267e+000	-9.1339569043e-001
 1.9757689547e+000	 2.7670082615e+000	-9.2230404012e-001
 1.8207989356e+000	 2.5499771547e+000	-1.0589359293e+000
 1.7927273302e+000	 2.5697900756e+000	-1.0262979187e+000
 1.7644676483e+000	 2.5892752636e+000	-1.0030733966e+000
 1.7360255719e+000	 2.6084301654e+000	-9.8538496065e-001
 1.7074068260e+000	 2.6272523575e+000	-9.6968717329e-001
 1.6786171747e+000	 2.6457395471e+000	-9.5278680811e-001
 1.6496624172e+000	 2.6638895731e+000	-9.3186047518e-001
 1.6205483847e+000	 2.6817004063e+000	-9.0417649373e-001
 1.5912809365e+000	 2.6991701498e+000	-8.6767022294e-001
 1.5618659559e+000	 2.7162970396e+000	-8.2147025694e-001
 1.5323093471e+000	 2.7330794442e+000	-7.6496387943e-001
 1.8362959375e+000	 2.5716802653e+000	-1.0453003345e+000
 1.8079854119e+000	 2.5916618160e+000	-1.0073549080e+000
 1.7794852089e+000	 2.6113128445e+000	-9.7942013097e-001
 1.7508010592e+000	 2.6306307755e+000	-9.5770360427e-001
 1.7219387363e+000	 2.6496131651e+000	-9.3875471786e-001
 1.6929040534e+000	 2.6682577011e+000	-9.1948193684e-001
 1.6637028591e+000	 2.6865622037e+000	-8.9677956207e-001
 1.6343410342e+000	 2.7045246267e+000	-8.6878253394e-001
 1.6048244877e+000	 2.7221430570e+000	-8.3450607567e-001
 1.5751591533e+000	 2.7394157154e+000	-7.9322351209e-001
 1.5453509852e+000	 2.7563409568e+000	-7.4444666549e-001
 1.8517929394e+000	 2.5933833760e+000	-1.0353298925e+000
 1.8232434935e+000	 2.6135335564e+000	-9.9305702664e-001
 1.7945027696e+000	 2.6333504253e+000	-9.6083522722e-001
 1.7655765466e+000	 2.6528313856e+000	-9.3498724594e-001
 1.7364706467e+000	 2.6719739728e+000	-9.1214818365e-001
 1.7071909321e+000	 2.6907758550e+000	-8.8897430674e-001
 1.6777433009e+000	 2.7092348344e+000	-8.6370485903e-001
 1.6481336836e+000	 2.7273488472e+000	-8.3525159412e-001
 1.6183680390e+000	 2.7451159642e+000	-8.0279916334e-001
 1.5884523507e+000	 2.7625343913e+000	-7.6578409192e-001
 1.5583926234e+000	 2.7796024694e+000	-7.2387410784e-001
 1.8672899413e+000	 2.6150864867e+000	-1.0273197777e+000
 1.8385015752e+000	 2.6354052969e+000	-9.8181308882e-001
 1.8095203303e+000	 2.6553880061e+000	-9.4582834144e-001
 1.7803520339e+000	 2.6750319957e+000	-9.1573640686e-001
 1.7510025570e+000	 2.6943347804e+000	-8.8803210921e-001
 1.7214778108e+000	 2.7132940090e+000	-8.6098521596e-001
 1.6917837428e+000	 2.7319074651e+000	-8.3342630413e-001
 1.6619263330e+000	 2.7501730676e+000	-8.0447540548e-001
 1.6319115902e+000	 2.7680888714e+000	-7.7351946374e-001
 1.6017455481e+000	 2.7856530671e+000	-7.4019008696e-001
 1.5714342615e+000	 2.8028639820e+000	-7.0434172880e-001
 1.8827869432e+000	 2.6367895974e+000	-1.0197636437e+000
 1.8537596569e+000	 2.6572770373e+000	-9.7222869790e-001
 1.8245378910e+000	 2.6774255869e+000	-9.3294181992e-001
 1.7951275212e+000	 2.6972326058e+000	-8.9825682952e-001
 1.7655344673e+000	 2.7166955881e+000	-8.6643534269e-001
 1.7357646895e+000	 2.7358121630e+000	-8.3624686499e-001
 1.7058241847e+000	 2.7545800958e+000	-8.0676900653e-001
 1.6757189825e+000	 2.7729972881e+000	-7.7736333223e-001
 1.6454551415e+000	 2.7910617786e+000	-7.4765143280e-001
 1.6150387455e+000	 2.8087717430e+000	-7.1749136670e-001
 1.5844758997e+000	 2.8261254946e+000	-6.8695461271e-001
 1.8982839451e+000	 2.6584927081e+000	-1.0113482512e+000
 1.8690177385e+000	 2.6791487777e+000	-9.6286957669e-001
 1.8395554517e+000	 2.6994631677e+000	-9.2058427800e-001
 1.8099030085e+000	 2.7194332159e+000	-8.8272469077e-001
 1.7800663776e+000	 2.7390563958e+000	-8.4801653105e-001
 1.7500515682e+000	 2.7583303170e+000	-8.1551468959e-001
 1.7198646266e+000	 2.7772527264e+000	-7.8457740151e-001
 1.6895116319e+000	 2.7958215085e+000	-7.5484054350e-001
 1.6589986927e+000	 2.8140346857e+000	-7.2619222600e-001
 1.6283319429e+000	 2.8318904189e+000	-6.9874783751e-001
 1.5975175378e+000	 2.8493870072e+000	-6.7282568674e-001
 1.9137809471e+000	 2.6801958187e+000	-1.0006539932e+000
 1.8842758202e+000	 2.7010205182e+000	-9.5219390439e-001
 1.8545730124e+000	 2.7215007486e+000	-9.0898553240e-001
 1.8246784959e+000	 2.7416338260e+000	-8.6972462144e-001
 1.7945982879e+000	 2.7614172034e+000	-8.3345989958e-001
 1.7643384469e+000	 2.7808484710e+000	-7.9956551220e-001
 1.7339050684e+000	 2.7999253571e+000	-7.6771346862e-001
 1.7033042813e+000	 2.8186457290e+000	-7.3784628763e-001
 1.6725422440e+000	 2.8370075929e+000	-7.1015001746e-001
 1.6416251403e+000	 2.8550090947e+000	-6.8502779445e-001
 1.6105591760e+000	 2.8726485198e+000	-6.6307409258e-001
 1.9292779490e+000	 2.7018989294e+000	-9.8613377159e-001
 1.8995339019e+000	 2.7228922586e+000	-9.4043018929e-001
 1.8695905731e+000	 2.7435383294e+000	-8.9865697549e-001
 1.8394539832e+000	 2.7638344362e+000	-8.5986945176e-001
 1.8091301983e+000	 2.7837780111e+000	-8.2347343989e-001
 1.7786253257e+000	 2.8033666250e+000	-7.8919580032e-001
 1.7479455103e+000	 2.8225979878e+000	-7.5705505125e-001
 1.7170969308e+000	 2.8414699494e+000	-7.2733226296e-001
 1.6860857952e+000	 2.8599805001e+000	-7.0054241125e-001
 1.6549183377e+000	 2.8781277706e+000	-6.7740636167e-001
 1.6236008141e+000	 2.8959100323e+000	-6.5882364361e-001
 1.9447749509e+000	 2.7236020401e+000	-9.6798150242e-001
 1.9147919835e+000	 2.7447639990e+000	-9.2801845383e-001
 1.8846081337e+000	 2.7655759102e+000	-8.9014105714e-001
 1.8542294705e+000	 2.7860350463e+000	-8.5379843359e-001
 1.8236621086e+000	 2.8061388188e+000	-8.1878720481e-001
 1.7929122044e+000	 2.8258847789e+000	-7.8522002609e-001
 1.7619859522e+000	 2.8452706184e+000	-7.5349427220e-001
 1.7308895802e+000	 2.8642941699e+000	-7.2426107997e-001
 1.6996293465e+000	 2.8829534073e+000	-6.9839493990e-001
 1.6682115351e+000	 2.9012464465e+000	-6.7696401645e-001
 1.6366424523e+000	 2.9191715449e+000	-6.6120136300e-001
 1.9602719528e+000	 2.7453051508e+000	-9.4656865566e-001
 1.9300500652e+000	 2.7666357395e+000	-9.1543283581e-001
 1.8996256944e+000	 2.7876134910e+000	-8.8400954021e-001
 1.8690049578e+000	 2.8082356564e+000	-8.5217556952e-001
 1.8381940189e+000	 2.8284996264e+000	-8.2015170429e-001
 1.8071990831e+000	 2.8484029329e+000	-7.8846912139e-001
 1.7760263941e+000	 2.8679432491e+000	-7.5793603975e-001
 1.7446822296e+000	 2.8871183903e+000	-7.2960480942e-001
 1.7131728977e+000	 2.9059263145e+000	-7.0473964513e-001
 1.6815047326e+000	 2.9243651223e+000	-6.8478519222e-001
 1.6496840905e+000	 2.9424330575e+000	-6.7133609815e-001
 1.9757689547e+000	 2.7670082615e+000	-9.2230404012e-001
 1.9453081468e+000	 2.7885074799e+000	-9.0317987720e-001
 1.9146432551e+000	 2.8096510718e+000	-8.8086186285e-001
 1.8837804452e+000	 2.8304362665e+000	-8.5568804292e-001
 1.8527259292e+000	 2.8508604341e+000	-8.2833639665e-001
 1.8214859618e+000	 2.8709210869e+000	-7.9978902324e-001
 1.7900668359e+000	 2.8906158798e+000	-7.7129663942e-001
 1.7584748791e+000	 2.9099426108e+000	-7.4434361204e-001
 1.7267164490e+000	 2.9288992217e+000	-7.2061373636e-001
 1.6947979300e+000	 2.9474837982e+000	-7.0195695627e-001
 1.6627257286e+000	 2.9656945701e+000	-6.9035720736e-001
 1.5323093471e+000	 2.7330794442e+000	-7.6496387943e-001
 1.5026214949e+000	 2.7495134265e+000	-7.0564393622e-001
 1.4728039098e+000	 2.7656001662e+000	-6.5622583793e-001
 1.4428625346e+000	 2.7813384333e+000	-6.2397566716e-001
 1.4128033184e+000	 2.7967271297e+000	-6.1593272466e-001
 1.3826322125e+000	 2.8117652893e+000	-6.3888627859e-001
 1.3523551673e+000	 2.8264520771e+000	-6.9935384864e-001
 1.3219781284e+000	 2.8407867890e+000	-7.9549397749e-001
 1.2915070333e+000	 2.8547688504e+000	-8.4738114026e-001
 1.2609478081e+000	 2.8683978159e+000	-8.3637252891e-001
 1.2303063637e+000	 2.8816733683e+000	-7.6640336626e-001
 1.5453509852e+000	 2.7563409568e+000	-7.4444666549e-001
 1.5154104568e+000	 2.7729148103e+000	-6.9279150746e-001
 1.4853390912e+000	 2.7891384659e+000	-6.4778140455e-001
 1.4551428820e+000	 2.8050106830e+000	-6.1633668359e-001
 1.4248278287e+000	 2.8205303541e+000	-6.0516643547e-001
 1.3943999336e+000	 2.8356965050e+000	-6.2074501976e-001
 1.3638651974e+000	 2.8505082935e+000	-6.6929014087e-001
 1.3332296165e+000	 2.8649650095e+000	-7.5674223927e-001
 1.3024991789e+000	 2.8790660737e+000	-8.2945956999e-001
 1.2716798610e+000	 2.8928110367e+000	-8.3324268908e-001
 1.2407776243e+000	 2.9061995786e+000	-7.7198891110e-001
 1.5583926234e+000	 2.7796024694e+000	-7.2387410784e-001
 1.5281994187e+000	 2.7963161942e+000	-6.7903257658e-001
 1.4978742726e+000	 2.8126767656e+000	-6.3779285754e-001
 1.4674232293e+000	 2.8286829326e+000	-6.0672753800e-001
 1.4368523391e+000	 2.8443335785e+000	-5.9221403960e-001
 1.4061676547e+000	 2.8596277206e+000	-6.0041086321e-001
 1.3753752276e+000	 2.8745645099e+000	-6.3723544419e-001
 1.3444811046e+000	 2.8891432301e+000	-7.0834367160e-001
 1.3134913245e+000	 2.9033632970e+000	-7.9483479312e-001
 1.2824119140e+000	 2.9172242575e+000	-8.1443568759e-001
 1.2512488848e+000	 2.9307257889e+000	-7.6328017778e-001
 1.5714342615e+000	 2.8028639820e+000	-7.0434172880e-001
 1.5409883806e+000	 2.8197175780e+000	-6.6552109128e-001
 1.5104094540e+000	 2.8362150654e+000	-6.2748573953e-001
 1.4797035767e+000	 2.8523551823e+000	-5.9645869127e-001
 1.4488768495e+000	 2.8681368029e+000	-5.7848436023e-001
 1.4179353758e+000	 2.8835589363e+000	-5.7940452602e-001
 1.3868852577e+000	 2.8986207263e+000	-6.0483595542e-001
 1.3557325927e+000	 2.9133214507e+000	-6.6014972926e-001
 1.3244834701e+000	 2.9276605203e+000	-7.4570040938e-001
 1.2931439669e+000	 2.9416374783e+000	-7.8207738700e-001
 1.2617201454e+000	 2.9552519993e+000	-7.4234348224e-001
 1.5844758997e+000	 2.8261254946e+000	-6.8695461271e-001
 1.5537773424e+000	 2.8431189619e+000	-6.5341844961e-001
 1.5229446355e+000	 2.8597533651e+000	-6.1809064244e-001
 1.4919839241e+000	 2.8760274320e+000	-5.8684296260e-001
 1.4609013599e+000	 2.8919400273e+000	-5.6538559749e-001
 1.4297030969e+000	 2.9074901520e+000	-5.5924282969e-001
 1.3983952878e+000	 2.9226769427e+000	-5.7373041088e-001
 1.3669840809e+000	 2.9374996712e+000	-6.1393468568e-001
 1.3354756156e+000	 2.9519577435e+000	-6.8469350646e-001
 1.3038760199e+000	 2.9660506991e+000	-7.3845876778e-001
 1.2721914059e+000	 2.9797782096e+000	-7.1141657572e-001
 1.5975175378e+000	 2.8493870072e+000	-6.7282568674e-001
 1.5665663043e+000	 2.8665203457e+000	-6.4389180580e-001
 1.5354798169e+000	 2.8832916648e+000	-6.1084155637e-001
 1.5042642715e+000	 2.8996996817e+000	-5.7919394013e-001
 1.4729258703e+000	 2.9157432517e+000	-5.5432381949e-001
 1.4414708180e+000	 2.9314213677e+000	-5.4143729013e-001
 1.4099053180e+000	 2.9467331591e+000	-5.4554879420e-001
 1.3782355690e+000	 2.9616778918e+000	-5.7146003015e-001
 1.3464677612e+000	 2.9762549668e+000	-6.2374070047e-001
 1.3146080728e+000	 2.9904639199e+000	-6.8601782545e-001
 1.2826626665e+000	 3.0043044200e+000	-6.7289150417e-001
 1.6105591760e+000	 2.8726485198e+000	-6.6307409258e-001
 1.5793552662e+000	 2.8899217296e+000	-6.3811246362e-001
 1.5480149983e+000	 2.9068299645e+000	-6.0697430235e-001
 1.5165446189e+000	 2.9233719313e+000	-5.7482447058e-001
 1.4849503807e+000	 2.9395464761e+000	-5.4670152657e-001
 1.4532385390e+000	 2.9553525834e+000	-5.2749277466e-001
 1.4214153481e+000	 2.9707893755e+000	-5.2191110406e-001
 1.3894870571e+000	 2.9858561124e+000	-5.3447367385e-001
 1.3574599068e+000	 3.0005521901e+000	-5.6948248542e-001
 1.3253401258e+000	 3.0148771406e+000	-6.2732150135e-001
 1.2931339270e+000	 3.0288306303e+000	-6.2929749085e-001
 1.6236008141e+000	 2.8959100323e+000	-6.5882364361e-001
 1.5921442281e+000	 2.9133231134e+000	-6.3725435242e-001
 1.5605501797e+000	 2.9303682642e+000	-6.0772504386e-001
 1.5288249663e+000	 2.9470441810e+000	-5.7504522324e-001
 1.4969748911e+000	 2.9633497005e+000	-5.4391628493e-001
 1.4650062601e+000	 2.9792837991e+000	-5.1890622229e-001
 1.4329253782e+000	 2.9948455920e+000	-5.0442617843e-001
 1.4007385452e+000	 3.0100343330e+000	-5.0470889536e-001
 1.3684520523e+000	 3.0248494134e+000	-5.2378910319e-001
 1.3360721787e+000	 3.0392903614e+000	-5.6548587572e-001
 1.3036051876e+000	 3.0533568406e+000	-5.8328384063e-001
 1.6366424523e+000	 2.9191715449e+000	-6.6120136300e-001
 1.6049331899e+000	 2.9367244973e+000	-6.4249258123e-001
 1.5730853612e+000	 2.9539065639e+000	-6.1432887301e-001
 1.5411053137e+000	 2.9707164307e+000	-5.8116332444e-001
 1.5089994015e+000	 2.9871529249e+000	-5.4735942557e-001
 1.4767739812e+000	 3.0032150148e+000	-5.1716542374e-001
 1.4444354083e+000	 3.0189018084e+000	-4.9469057218e-001
 1.4119900333e+000	 3.0342125535e+000	-4.8388333253e-001
 1.3794441979e+000	 3.0491466367e+000	-4.8851157292e-001
 1.3468042317e+000	 3.0637035822e+000	-5.1214478748e-001
 1.3140764481e+000	 3.0778830510e+000	-5.3760286497e-001
 1.6496840905e+000	 2.9424330575e+000	-6.7133609815e-001
 1.6177221518e+000	 2.9601258812e+000	-6.5500206660e-001
 1.5856205426e+000	 2.9774448636e+000	-6.2801846711e-001
 1.5533856610e+000	 2.9943886803e+000	-5.9448105830e-001
 1.5210239119e+000	 3.0109561493e+000	-5.5841480508e-001
 1.4885417023e+000	 3.0271462304e+000	-5.2374785789e-001
 1.4559454385e+000	 3.0429580248e+000	-4.9428748513e-001
 1.4232415214e+000	 3.0583907741e+000	-4.7369801803e-001
 1.3904363435e+000	 3.0734438600e+000	-4.6548085002e-001
 1.3575362846e+000	 3.0881168030e+000	-4.7295651553e-001
 1.3245477087e+000	 3.1024092613e+000	-4.9509282635e-001
 1.6627257286e+000	 2.9656945701e+000	-6.9035720736e-001
 1.6305111137e+000	 2.9835272650e+000	-6.7595623006e-001
 1.5981557240e+000	 3.0009831633e+000	-6.5002281174e-001
 1.5656660084e+000	 3.0180609300e+000	-6.1629463041e-001
 1.5330484222e+000	 3.0347593738e+000	-5.7845762478e-001
 1.5003094234e+000	 3.0510774461e+000	-5.4011958163e-001
 1.4674554686e+000	 3.0670142412e+000	-5.0478573774e-001
 1.4344930095e+000	 3.0825689947e+000	-4.7583645623e-001
 1.4014284891e+000	 3.0977410833e+000	-4.5650701957e-001
 1.3682683376e+000	 3.1125300238e+000	-4.4986956365e-001
 1.3350189692e+000	 3.1269354717e+000	-4.5881716018e-001
 1.2303063637e+000	 2.8816733683e+000	-7.6640336626e-001
 1.1995839799e+000	 2.8945972292e+000	-6.6878090330e-001
 1.1687911224e+000	 2.9071673179e+000	-5.7364286263e-001
 1.1379336420e+000	 2.9193836965e+000	-4.8285024653e-001
 1.1070173614e+000	 2.9312465504e+000	-3.9814628336e-001
 1.0760480726e+000	 2.9427561866e+000	-3.2114301972e-001
 1.0450315331e+000	 2.9539130326e+000	-2.5330817037e-001
 1.0139734639e+000	 2.9647176344e+000	-1.9595217724e-001
 9.8287954570e-001	 2.9751706548e+000	-1.5024454403e-001
 9.5175541694e-001	 2.9852728719e+000	-1.1709631328e-001
 9.2060667051e-001	 2.9950251768e+000	-9.7290948065e-002
 1.2407776243e+000	 2.9061995786e+000	-7.7198891110e-001
 1.2097937591e+000	 2.9192334358e+000	-6.7884023939e-001
 1.1787388205e+000	 2.9319105098e+000	-5.8612290652e-001
 1.1476187090e+000	 2.9442308632e+000	-4.9618943025e-001
 1.1164392970e+000	 2.9561946830e+000	-4.1125762173e-001
 1.0852064254e+000	 2.9678022789e+000	-3.3339694451e-001
 1.0539259011e+000	 2.9790540820e+000	-2.6451504762e-001
 1.0226034935e+000	 2.9899506428e+000	-2.0634441901e-001
 9.9124493185e-001	 3.0004926299e+000	-1.6045512322e-001
 9.5985590252e-001	 3.0106808279e+000	-1.2814823498e-001
 9.2844204599e-001	 3.0205161357e+000	-1.1056984232e-001
 1.2512488848e+000	 2.9307257889e+000	-7.6328017778e-001
 1.2200035384e+000	 2.9438696424e+000	-6.7611693074e-001
 1.1886865187e+000	 2.9566537017e+000	-5.8722972206e-001
 1.1573037761e+000	 2.9690780299e+000	-4.9947012539e-001
 1.1258612325e+000	 2.9811428157e+000	-4.1553745810e-001
 1.0943647782e+000	 2.9928483712e+000	-3.3796500337e-001
 1.0628202690e+000	 3.0041951313e+000	-2.6910631317e-001
 1.0312335231e+000	 3.0151836512e+000	-2.1112153257e-001
 9.9961031800e-001	 3.0258146050e+000	-1.6598685383e-001
 9.6795638809e-001	 3.0360887840e+000	-1.3539800615e-001
 9.3627742146e-001	 3.0460070947e+000	-1.2086880676e-001
 1.2617201454e+000	 2.9552519993e+000	-7.4234348224e-001
 1.2302133177e+000	 2.9685058490e+000	-6.6260746317e-001
 1.1986342169e+000	 2.9813968936e+000	-5.7886141974e-001
 1.1669888432e+000	 2.9939251966e+000	-4.9446307792e-001
 1.1352831680e+000	 3.0060909483e+000	-4.1259983338e-001
 1.1035231310e+000	 3.0178944636e+000	-3.3627493804e-001
 1.0717146369e+000	 3.0293361807e+000	-2.6829366410e-001
 1.0398635527e+000	 3.0404166596e+000	-2.1124937974e-001
 1.0079757041e+000	 3.0511365801e+000	-1.6753002674e-001
 9.7605687366e-001	 3.0614967401e+000	-1.3923080816e-001
 9.4411279694e-001	 3.0714980536e+000	-1.2823865458e-001
 1.2721914059e+000	 2.9797782096e+000	-7.1141657572e-001
 1.2404230969e+000	 2.9931420557e+000	-6.4048589296e-001
 1.2085819151e+000	 3.0061400855e+000	-5.6310014485e-001
 1.1766739103e+000	 3.0187723634e+000	-4.8312979247e-001
 1.1447051035e+000	 3.0310390810e+000	-4.0425646308e-001
 1.1126814838e+000	 3.0429405559e+000	-3.2995920793e-001
 1.0806090049e+000	 3.0544772300e+000	-2.6350062330e-001
 1.0484935822e+000	 3.0656496680e+000	-2.0791276207e-001
 1.0163410903e+000	 3.0764585552e+000	-1.6598278821e-001
 9.8415735924e-001	 3.0869046962e+000	-1.4026478440e-001
 9.5194817241e-001	 3.0969890125e+000	-1.3296996795e-001
 1.2826626665e+000	 3.0043044200e+000	-6.7289150417e-001
 1.2506328762e+000	 3.0177782623e+000	-6.1208765798e-001
 1.2185296133e+000	 3.0308832774e+000	-5.4219680442e-001
 1.1863589773e+000	 3.0436195301e+000	-4.6760813811e-001
 1.1541270390e+000	 3.0559872136e+000	-3.9250318392e-001
 1.1218398366e+000	 3.0679866482e+000	-3.2084223858e-001
 1.0895033728e+000	 3.0796182794e+000	-2.5635054966e-001
 1.0571236118e+000	 3.0908826764e+000	-2.0250415190e-001
 1.0247064764e+000	 3.1017805303e+000	-1.6251530808e-001
 9.9225784481e-001	 3.1123126523e+000	-1.3934108776e-001
 9.5978354789e-001	 3.1224799714e+000	-1.3558373929e-001
 1.2931339270e+000	 3.0288306303e+000	-6.2929749085e-001
 1.2608426555e+000	 3.0424144689e+000	-5.7989340179e-001
 1.2284773114e+000	 3.0556264693e+000	-5.1855579865e-001
 1.1960440444e+000	 3.0684666968e+000	-4.5019795154e-001
 1.1635489746e+000	 3.0809353463e+000	-3.7950639213e-001
 1.1309981894e+000	 3.0930327405e+000	-3.1092765743e-001
 1.0983977407e+000	 3.1047593287e+000	-2.4865463283e-001
 1.0657536414e+000	 3.1161156848e+000	-1.9661240654e-001
 1.0330718626e+000	 3.1271025054e+000	-1.5844357709e-001
 1.0003583304e+000	 3.1377206083e+000	-1.3751391235e-001
 9.6761892336e-001	 3.1479709303e+000	-1.3682199961e-001
 1.3036051876e+000	 3.0533568406e+000	-5.8328384063e-001
 1.2710524347e+000	 3.0670506755e+000	-5.4651281003e-001
 1.2384250096e+000	 3.0803696612e+000	-4.9471975638e-001
 1.2057291115e+000	 3.0933138635e+000	-4.3334663763e-001
 1.1729709101e+000	 3.1058834789e+000	-3.6758947385e-001
 1.1401565422e+000	 3.1180788328e+000	-3.0238551775e-001
 1.1072921087e+000	 3.1299003781e+000	-2.4239987333e-001
 1.0743836710e+000	 3.1413486932e+000	-1.9201146655e-001
 1.0414372487e+000	 3.1524244805e+000	-1.5529830348e-001
 1.0084588160e+000	 3.1631285644e+000	-1.3604051049e-001
 9.7545429884e-001	 3.1734618893e+000	-1.3763843450e-001
 1.3140764481e+000	 3.0778830510e+000	-5.3760286497e-001
 1.2812622140e+000	 3.0916868821e+000	-5.1466845846e-001
 1.2483727078e+000	 3.1051128531e+000	-4.7335427464e-001
 1.2154141786e+000	 3.1181610302e+000	-4.1963476757e-001
 1.1823928456e+000	 3.1308316116e+000	-3.5921922794e-001
 1.1493148950e+000	 3.1431249251e+000	-2.9753951119e-001
 1.1161864766e+000	 3.1550414274e+000	-2.3973704893e-001
 1.0830137006e+000	 3.1665817016e+000	-1.9064903889e-001
 1.0498026349e+000	 3.1777464556e+000	-1.5479374200e-001
 1.0165593015e+000	 3.1885365205e+000	-1.3635484947e-001
 9.8328967431e-001	 3.1989528482e+000	-1.3918898860e-001
 1.3245477087e+000	 3.1024092613e+000	-4.9509282635e-001
 1.2914719933e+000	 3.1163230887e+000	-4.8717967196e-001
 1.2583204060e+000	 3.1298560450e+000	-4.5723266181e-001
 1.2250992456e+000	 3.1430081969e+000	-4.1176167472e-001
 1.1918147811e+000	 3.1557797442e+000	-3.5699228185e-001
 1.1584732478e+000	 3.1681710175e+000	-2.9885416979e-001
 1.1250808445e+000	 3.1801824768e+000	-2.4296866797e-001
 1.0916437302e+000	 3.1918147100e+000	-1.9463526590e-001
 1.0581680210e+000	 3.2030684307e+000	-1.5881704193e-001
 1.0246597871e+000	 3.2139444766e+000	-1.4012496184e-001
 9.9112504979e-001	 3.2244438071e+000	-1.4282245900e-001
 1.3350189692e+000	 3.1269354717e+000	-4.5881716018e-001
 1.3016817725e+000	 3.1409592953e+000	-4.6694639386e-001
 1.2682681041e+000	 3.1545992369e+000	-4.4922068437e-001
 1.2347843127e+000	 3.1678553637e+000	-4.1253104836e-001
 1.2012367166e+000	 3.1807278769e+000	-3.6362150072e-001
 1.1676316006e+000	 3.1932171098e+000	-3.0892205786e-001
 1.1339752124e+000	 3.2053235261e+000	-2.5453691034e-001
 1.1002737598e+000	 3.2170477184e+000	-2.0623138079e-001
 1.0665334072e+000	 3.2283904058e+000	-1.6941758155e-001
 1.0327602727e+000	 3.2393524327e+000	-1.4913872546e-001
 9.9896042527e-001	 3.2499347660e+000	-1.5007107840e-001
 9.2060667051e-001	 2.9950251768e+000	-9.7290948065e-002
 8.8943885089e-001	 3.0044285715e+000	-8.4051834353e-002
 8.5825745028e-001	 3.0134841643e+000	-7.1892204702e-002
 8.2706790750e-001	 3.0221931699e+000	-6.3060885589e-002
 7.9587560609e-001	 3.0305569083e+000	-5.9402845385e-002
 7.6468587201e-001	 3.0385768026e+000	-6.2347499019e-002
 7.3350397137e-001	 3.0462543768e+000	-7.2897820385e-002
 7.0233510834e-001	 3.0535912533e+000	-9.1620355193e-002
 6.7118442308e-001	 3.0605891508e+000	-1.1863623466e-001
 6.4005698981e-001	 3.0672498820e+000	-1.2323965637e-001
 6.0895781491e-001	 3.0735753511e+000	-4.9529511139e-002
 9.2844204599e-001	 3.0205161357e+000	-1.1056984232e-001
 8.9700895394e-001	 3.0299995637e+000	-9.9850016665e-002
 8.6556216530e-001	 3.0391322295e+000	-8.9103251750e-002
 8.3410716520e-001	 3.0479153583e+000	-8.0458703128e-002
 8.0264938300e-001	 3.0563502813e+000	-7.5626151184e-002
 7.7119418997e-001	 3.0644384338e+000	-7.5883713072e-002
 7.3974689706e-001	 3.0721813526e+000	-8.2066271782e-002
 7.0831275271e-001	 3.0795806740e+000	-9.4554723576e-002
 6.7689694086e-001	 3.0866381313e+000	-1.1326615368e-001
 6.4550457888e-001	 3.0933555526e+000	-1.1820651079e-001
 6.1414071579e-001	 3.0997348584e+000	-4.4238058108e-002
 9.3627742146e-001	 3.0460070947e+000	-1.2086880676e-001
 9.0457905698e-001	 3.0555705559e+000	-1.1347626374e-001
 8.7286688032e-001	 3.0647802947e+000	-1.0498043594e-001
 8.4114642290e-001	 3.0736375467e+000	-9.7403368272e-002
 8.0942315991e-001	 3.0821436544e+000	-9.2334454421e-002
 7.7770250793e-001	 3.0903000650e+000	-9.0917490772e-002
 7.4598982274e-001	 3.0981083284e+000	-9.3838344096e-002
 7.1429039708e-001	 3.1055700946e+000	-1.0131334337e-001
 6.8260945863e-001	 3.1126871118e+000	-1.1307851587e-001
 6.5095216796e-001	 3.1194612233e+000	-1.1755378618e-001
 6.1932361667e-001	 3.1258943657e+000	-4.5711324853e-002
 9.4411279694e-001	 3.0714980536e+000	-1.2823865458e-001
 9.1214916002e-001	 3.0811415480e+000	-1.2464176654e-001
 8.8017159535e-001	 3.0904283599e+000	-1.1891401450e-001
 8.4818568061e-001	 3.0993597352e+000	-1.1298323492e-001
 8.1619693681e-001	 3.1079370274e+000	-1.0833365548e-001
 7.8421082589e-001	 3.1161616961e+000	-1.0599222520e-001
 7.5223274842e-001	 3.1240353041e+000	-1.0651544173e-001
 7.2026804145e-001	 3.1315595153e+000	-1.0997679574e-001
 6.8832197640e-001	 3.1387360922e+000	-1.1595496371e-001
 6.5639975703e-001	 3.1455668939e+000	-1.1886123336e-001
 6.2450651756e-001	 3.1520538730e+000	-5.1287356097e-002
 9.5194817241e-001	 3.0969890125e+000	-1.3296996795e-001
 9.1971926307e-001	 3.1067125402e+000	-1.3330331603e-001
 8.8747631037e-001	 3.1160764251e+000	-1.3054388630e-001
 8.5522493831e-001	 3.1250819236e+000	-1.2653852194e-001
 8.2297071372e-001	 3.1337304005e+000	-1.2268190066e-001
 7.9071914385e-001	 3.1420233273e+000	-1.1990207497e-001
 7.5847567410e-001	 3.1499622799e+000	-1.1864637886e-001
 7.2624568582e-001	 3.1575489359e+000	-1.1886783151e-001
 6.9403449417e-001	 3.1647850727e+000	-1.2001218078e-001
 6.6184734610e-001	 3.1716725645e+000	-1.1996714484e-001
 6.2968941844e-001	 3.1782133803e+000	-5.8548288737e-002
 9.5978354789e-001	 3.1224799714e+000	-1.3558373929e-001
 9.2728936611e-001	 3.1322835323e+000	-1.3965452656e-001
 8.9478102539e-001	 3.1417244903e+000	-1.3975141662e-001
 8.6226419602e-001	 3.1508041120e+000	-1.3765375768e-001
 8.2974449062e-001	 3.1595237735e+000	-1.3468266422e-001
 7.9722746181e-001	 3.1678849585e+000	-1.3168570078e-001
 7.6471859979e-001	 3.1758892557e+000	-1.2902178697e-001
 7.3222333019e-001	 3.1835383566e+000	-1.2654646544e-001
 6.9974701194e-001	 3.1908340532e+000	-1.2359768793e-001
 6.6729493517e-001	 3.1977782351e+000	-1.1898228587e-001
 6.3487231932e-001	 3.2043728877e+000	-6.5319196244e-002
 9.6761892336e-001	 3.1479709303e+000	-1.3682199961e-001
 9.3485946916e-001	 3.1578545245e+000	-1.4411704874e-001
 9.0208574042e-001	 3.1673725556e+000	-1.4665125193e-001
 8.6930345372e-001	 3.1765263004e+000	-1.4615021340e-001
 8.3651826753e-001	 3.1853171466e+000	-1.4387781634e-001
 8.0373577976e-001	 3.1937465896e+000	-1.4061998325e-001
 7.7096152547e-001	 3.2018162314e+000	-1.3666849708e-001
 7.3820097456e-001	 3.2095277773e+000	-1.3180503679e-001
 7.0545952971e-001	 3.2168830336e+000	-1.2528559567e-001
 6.7274252424e-001	 3.2238839057e+000	-1.1582546333e-001
 6.4005522020e-001	 3.2305323950e+000	-6.9666863736e-002
 9.7545429884e-001	 3.1734618893e+000	-1.3763843450e-001
 9.4242957220e-001	 3.1834255166e+000	-1.4733177221e-001
 9.0939045544e-001	 3.1930206208e+000	-1.5158312522e-001
 8.7634271142e-001	 3.2022484889e+000	-1.5207832616e-001
 8.4329204444e-001	 3.2111105196e+000	-1.5004067785e-001
 8.1024409772e-001	 3.2196082208e+000	-1.4621372295e-001
 7.7720445115e-001	 3.2277432072e+000	-1.4084389799e-001
 7.4417861893e-001	 3.2355171979e+000	-1.3366323814e-001
 7.1117204748e-001	 3.2429320141e+000	-1.2387231520e-001
 6.7819011332e-001	 3.2499895763e+000	-1.1012360483e-001
 6.4523812109e-001	 3.2566919023e+000	-6.9898497621e-002
 9.8328967431e-001	 3.1989528482e+000	-1.3918898860e-001
 9.4999967524e-001	 3.2089965088e+000	-1.5015001906e-001
 9.1669517046e-001	 3.2186686860e+000	-1.5510365258e-001
 8.8338196913e-001	 3.2279706773e+000	-1.5571011184e-001
 8.5006582134e-001	 3.2369038926e+000	-1.5316906238e-001
 8.1675241568e-001	 3.2454698520e+000	-1.4820132368e-001
 7.8344737683e-001	 3.2536701830e+000	-1.4103027199e-001
 7.5015626330e-001	 3.2615066186e+000	-1.3136311419e-001
 7.1688456525e-001	 3.2689809945e+000	-1.1837223043e-001
 6.8363770239e-001	 3.2760952470e+000	-1.0067679767e-001
 6.5042102197e-001	 3.2828514096e+000	-6.4560373464e-002
 9.9112504979e-001	 3.2244438071e+000	-1.4282245900e-001
 9.5756977829e-001	 3.2345675009e+000	-1.5362472822e-001
 9.2399988549e-001	 3.2443167512e+000	-1.5797812121e-001
 8.9042122683e-001	 3.2536928657e+000	-1.5753156881e-001
 8.5683959825e-001	 3.2626972657e+000	-1.5347830669e-001
 8.2326073364e-001	 3.2713314832e+000	-1.4653645995e-001
 7.8969030251e-001	 3.2795971588e+000	-1.3692910926e-001
 7.5613390767e-001	 3.2874960392e+000	-1.2436403222e-001
 7.2259708303e-001	 3.2950299750e+000	-1.0801333319e-001
 6.8908529146e-001	 3.3022009176e+000	-8.6493191053e-002
 6.5560392285e-001	 3.3090109169e+000	-5.2436425494e-002
 9.9896042527e-001	 3.2499347660e+000	-1.5007107840e-001
 9.6513988133e-001	 3.2601384931e+000	-1.5900163152e-001
 9.3130460051e-001	 3.2699648164e+000	-1.6117226963e-001
 8.9746048454e-001	 3.2794150542e+000	-1.5823507264e-001
 8.6361337515e-001	 3.2884906387e+000	-1.5139428980e-001
 8.2976905160e-001	 3.2971931143e+000	-1.4138572941e-001
 7.9593322820e-001	 3.3055241345e+000	-1.2845540204e-001
 7.6211155205e-001	 3.3134854599e+000	-1.1233762578e-001
 7.2830960080e-001	 3.3210789555e+000	-9.2232823471e-002
 6.9453288053e-001	 3.3283065882e+000	-6.6785259713e-002
 6.6078682374e-001	 3.3351704242e+000	-3.2540125042e-002
 6.0895781491e-001	 3.0735753511e+000	-4.9529511139e-002
 5.7789649090e-001	 3.0795666778e+000	 5.1978428193e-002
 5.4687320832e-001	 3.0852269172e+000	 1.2779432807e-001
 5.1589275069e-001	 3.0905582350e+000	 1.8167914889e-001
 4.8495982735e-001	 3.0955628784e+000	 2.1746113815e-001
 4.5407907204e-001	 3.1002431736e+000	 2.3905357435e-001
 4.2325504155e-001	 3.1046015236e+000	 2.5047597389e-001
 3.9249221452e-001	 3.1086404051e+000	 2.5587747134e-001
 3.6179499023e-001	 3.1123623662e+000	 2.5956114174e-001
 3.3116768761e-001	 3.1157700239e+000	 2.6600809924e-001
 3.0061454421e-001	 3.1188660616e+000	 2.7990027941e-001
 6.1414071579e-001	 3.0997348584e+000	-4.4238058108e-002
 5.8281502575e-001	 3.1057771779e+000	 5.9779549983e-002
 5.5152770090e-001	 3.1114855922e+000	 1.3837135353e-001
 5.2028356550e-001	 3.1168622853e+000	 1.9538776372e-001
 4.8908736896e-001	 3.1219095237e+000	 2.3477163283e-001
 4.5794378445e-001	 3.1266296535e+000	 2.6058456234e-001
 4.2685740756e-001	 3.1310250978e+000	 2.7703664750e-001
 3.9583275502e-001	 3.1350983546e+000	 2.8851828090e-001
 3.6487426358e-001	 3.1388519936e+000	 2.9963270032e-001
 3.3398628893e-001	 3.1422886543e+000	 3.1522803661e-001
 3.0317310467e-001	 3.1454110426e+000	 3.4042769556e-001
 6.1932361667e-001	 3.1258943657e+000	-4.5711324853e-002
 5.8773356059e-001	 3.1319876780e+000	 5.8298180570e-002
 5.5618219349e-001	 3.1377442671e+000	 1.3725510831e-001
 5.2467438031e-001	 3.1431663357e+000	 1.9506700026e-001
 4.9321491056e-001	 3.1482561691e+000	 2.3575631299e-001
 4.6180849686e-001	 3.1530161333e+000	 2.6349596491e-001
 4.3045977356e-001	 3.1574486720e+000	 2.8264829280e-001
 3.9917329552e-001	 3.1615563041e+000	 2.9780594789e-001
 3.6795353694e-001	 3.1653416211e+000	 3.1383332928e-001
 3.3680489025e-001	 3.1688072847e+000	 3.3590722739e-001
 3.0573166513e-001	 3.1719560237e+000	 3.6955543443e-001
 6.2450651756e-001	 3.1520538730e+000	-5.1287356097e-002
 5.9265209544e-001	 3.1581981781e+000	 5.0423690340e-002
 5.6083668607e-001	 3.1640029421e+000	 1.2754819918e-001
 5.2906519512e-001	 3.1694703860e+000	 1.8401093633e-001
 4.9734245217e-001	 3.1746028144e+000	 2.2387127061e-001
 4.6567320926e-001	 3.1794026131e+000	 2.5136866885e-001
 4.3406213955e-001	 3.1838722461e+000	 2.7097157248e-001
 4.0251383602e-001	 3.1880142536e+000	 2.8742808909e-001
 3.7103281029e-001	 3.1918312486e+000	 3.0581700409e-001
 3.3962349156e-001	 3.1953259151e+000	 3.3159769857e-001
 3.0829022558e-001	 3.1985010048e+000	 3.7065764886e-001
 6.2968941844e-001	 3.1782133803e+000	-5.8548288737e-002
 5.9757063029e-001	 3.1844086782e+000	 3.8818239984e-002
 5.6549117866e-001	 3.1902616171e+000	 1.1214498077e-001
 5.3345600993e-001	 3.1957744364e+000	 1.6532631074e-001
 5.0146999377e-001	 3.2009494598e+000	 2.0240800130e-001
 4.6953792167e-001	 3.2057890929e+000	 2.2764340486e-001
 4.3766450555e-001	 3.2102958203e+000	 2.4555299452e-001
 4.0585437652e-001	 3.2144722031e+000	 2.6098558801e-001
 3.7411208365e-001	 3.2183208761e+000	 2.7917966441e-001
 3.4244209288e-001	 3.2218445455e+000	 3.0582326818e-001
 3.1084878604e-001	 3.2250459859e+000	 3.4711109048e-001
 6.3487231932e-001	 3.2043728877e+000	-6.5319196244e-002
 6.0248916513e-001	 3.2106191783e+000	 2.5917231301e-002
 5.7014567124e-001	 3.2165202920e+000	 9.3731323718e-002
 5.3784682474e-001	 3.2220784867e+000	 1.4193162681e-001
 5.0559753538e-001	 3.2272961052e+000	 1.7449185695e-001
 4.7340263408e-001	 3.2321755727e+000	 1.9561855904e-001
 4.4126687155e-001	 3.2367193945e+000	 2.0982208756e-001
 4.0919491702e-001	 3.2409301526e+000	 2.2198913528e-001
 3.7719135700e-001	 3.2448105036e+000	 2.3745511616e-001
 3.4526069420e-001	 3.2483631759e+000	 2.6207480125e-001
 3.1340734650e-001	 3.2515909670e+000	 3.0228970765e-001
 6.4005522020e-001	 3.2305323950e+000	-6.9666863736e-002
 6.0740769998e-001	 3.2368296784e+000	 1.3929842355e-002
 5.7480016382e-001	 3.2427789670e+000	 7.4784483187e-002
 5.4223763955e-001	 3.2483825370e+000	 1.1655637322e-001
 5.0972507698e-001	 3.2536427505e+000	 1.4308063398e-001
 4.7726734648e-001	 3.2585620526e+000	 1.5844813919e-001
 4.4486923755e-001	 3.2631429687e+000	 1.6708875208e-001
 4.1253545752e-001	 3.2673881021e+000	 1.7385596697e-001
 3.8027063035e-001	 3.2713001311e+000	 1.8411115514e-001
 3.4807929552e-001	 3.2748818063e+000	 2.0380571287e-001
 3.1596590696e-001	 3.2781359481e+000	 2.3955951768e-001
 6.4523812109e-001	 3.2566919023e+000	-6.9898497621e-002
 6.1232623482e-001	 3.2630401785e+000	 4.8396422562e-003
 5.7945465641e-001	 3.2690376420e+000	 5.7573062017e-002
 5.4662845436e-001	 3.2746865874e+000	 9.1740355680e-002
 5.1385261859e-001	 3.2799893959e+000	 1.1096328941e-001
 4.8113205889e-001	 3.2849485324e+000	 1.1913988739e-001
 4.4847160355e-001	 3.2895665428e+000	 1.2054077725e-001
 4.1587599802e-001	 3.2938460516e+000	 1.1990678968e-001
 3.8334990371e-001	 3.2977897585e+000	 1.2254590000e-001
 3.5089789683e-001	 3.3014004367e+000	 1.3442770445e-001
 3.1852446741e-001	 3.3046809291e+000	 1.6227373785e-001
 6.5042102197e-001	 3.2828514096e+000	-6.4560373464e-002
 6.1724476967e-001	 3.2892506786e+000	 4.0528109629e-004
 5.8410914899e-001	 3.2952963169e+000	 4.4157063315e-002
 5.5101926917e-001	 3.3009906377e+000	 6.9833133061e-002
 5.1798016019e-001	 3.3063360413e+000	 8.0758777737e-002
 4.8499677130e-001	 3.3113350122e+000	 8.0553530628e-002
 4.5207396955e-001	 3.3159901170e+000	 7.3241514530e-002
 4.1921653852e-001	 3.3203040011e+000	 6.3362881966e-002
 3.8642917706e-001	 3.3242793860e+000	 5.6084322667e-002
 3.5371649815e-001	 3.3279190671e+000	 5.7306720133e-002
 3.2108302787e-001	 3.3312259102e+000	 7.3768160713e-002
 6.5560392285e-001	 3.3090109169e+000	-5.2436425494e-002
 6.2216330452e-001	 3.3154611787e+000	 2.1612509067e-003
 5.8876364158e-001	 3.3215549919e+000	 3.6388027486e-002
 5.5541008398e-001	 3.3272946881e+000	 5.2993552395e-002
 5.2210770180e-001	 3.3326826866e+000	 5.4915001851e-002
 4.8886148370e-001	 3.3377214920e+000	 4.5748783438e-002
 4.5567633555e-001	 3.3424136912e+000	 3.0038723156e-002
 4.2255707902e-001	 3.3467619505e+000	 1.2604063803e-002
 3.8950845042e-001	 3.3507690135e+000	-1.0280394633e-003
 3.5653509947e-001	 3.3544376975e+000	-4.5291089504e-003
 3.2364158833e-001	 3.3577708913e+000	 9.3087500321e-003
 6.6078682374e-001	 3.3351704242e+000	-3.2540125042e-002
 6.2708183937e-001	 3.3416716788e+000	 1.1693605919e-002
 5.9341813416e-001	 3.3478136668e+000	 3.7248370182e-002
 5.5980089879e-001	 3.3535987384e+000	 4.7025564393e-002
 5.2623524340e-001	 3.3590293320e+000	 4.4236070613e-002
 4.9272619611e-001	 3.3641079719e+000	 3.2535119460e-002
 4.5927870155e-001	 3.3688372654e+000	 1.6142765193e-002
 4.2589761953e-001	 3.3732199000e+000	-4.8908087081e-005
 3.9258772377e-001	 3.3772586410e+000	-1.0380758895e-002
 3.5935370079e-001	 3.3809563279e+000	-8.3426852567e-003
 3.2620014879e-001	 3.3843158724e+000	 1.3500165936e-002
 3.0061454421e-001	 3.1188660616e+000	 2.7990027941e-001
 2.7013516033e-001	 3.1216536212e+000	 2.9317106665e-001
 2.3973825151e-001	 3.1241350251e+000	 2.9707269747e-001
 2.0942786922e-001	 3.1263131416e+000	 2.9553695630e-001
 1.7920797856e-001	 3.1281908955e+000	 2.9263838437e-001
 1.4908245772e-001	 3.1297712650e+000	 2.9260188780e-001
 1.1905509748e-001	 3.1310572789e+000	 2.9980431161e-001
 8.9129600848e-002	 3.1320520147e+000	 3.1876949747e-001
 5.9309582745e-002	 3.1327585957e+000	 3.5415643735e-001
 2.9598569761e-002	 3.1331801883e+000	 4.1074022873e-001
 0.0000000000e+000	 3.1333200000e+000	 4.9338564436e-001
 3.0317310467e-001	 3.1454110426e+000	 3.4042769556e-001
 2.7243430770e-001	 3.1482223275e+000	 3.6595326716e-001
 2.4177868775e-001	 3.1507248508e+000	 3.8166258464e-001
 2.1121033076e-001	 3.1529215055e+000	 3.9179198175e-001
 1.8073323560e-001	 3.1548152412e+000	 4.0082036619e-001
 1.5035131343e-001	 3.1564090613e+000	 4.1348247324e-001
 1.2006838732e-001	 3.1577060207e+000	 4.3477539568e-001
 8.9888191798e-002	 3.1587092228e+000	 4.6995787560e-001
 5.9814372538e-002	 3.1594218175e+000	 5.2454194416e-001
 2.9850486150e-002	 3.1598469984e+000	 6.0427659522e-001
 0.0000000000e+000	 3.1599880000e+000	 7.1512329383e-001
 3.0573166513e-001	 3.1719560237e+000	 3.6955543443e-001
 2.7473345507e-001	 3.1747910338e+000	 4.0418016919e-001
 2.4381912399e-001	 3.1773146766e+000	 4.2817361337e-001
 2.1299279231e-001	 3.1795298695e+000	 4.4609621063e-001
 1.8225849263e-001	 3.1814395869e+000	 4.6285404748e-001
 1.5162016914e-001	 3.1830468577e+000	 4.8371818497e-001
 1.2108167717e-001	 3.1843547624e+000	 5.1433654432e-001
 9.0646782748e-002	 3.1853664308e+000	 5.6073779794e-001
 6.0319162331e-002	 3.1860850394e+000	 6.2932682437e-001
 3.0102402539e-002	 3.1865138084e+000	 7.2687139194e-001
 0.0000000000e+000	 3.1866560000e+000	 8.6047985917e-001
 3.0829022558e-001	 3.1985010048e+000	 3.7065764886e-001
 2.7703260245e-001	 3.2013597401e+000	 4.1097026109e-001
 2.4585956023e-001	 3.2039045023e+000	 4.3938832981e-001
 2.1477525386e-001	 3.2061382334e+000	 4.6080755236e-001
 1.8378374966e-001	 3.2080639326e+000	 4.8057580612e-001
 1.5288902486e-001	 3.2096846540e+000	 5.0451901737e-001
 1.2209496702e-001	 3.2110035042e+000	 5.3895882751e-001
 9.1405373698e-002	 3.2120236389e+000	 5.9072147203e-001
 6.0823952124e-002	 3.2127482612e+000	 6.6713740156e-001
 3.0354318928e-002	 3.2131806185e+000	 7.7603128738e-001
 0.0000000000e+000	 3.2133240000e+000	 9.2570218536e-001
 3.1084878604e-001	 3.2250459859e+000	 3.4711109048e-001
 2.7933174982e-001	 3.2279284464e+000	 3.8947608719e-001
 2.4789999647e-001	 3.2304943281e+000	 4.1815512926e-001
 2.1655771540e-001	 3.2327465973e+000	 4.3838178674e-001
 1.8530900670e-001	 3.2346882783e+000	 4.5595203273e-001
 1.5415788057e-001	 3.2363224504e+000	 4.7725713567e-001
 1.2310825686e-001	 3.2376522459e+000	 5.0930755684e-001
 9.2163964649e-002	 3.2386808470e+000	 5.5974723009e-001
 6.1328741917e-002	 3.2394114830e+000	 6.3685772240e-001
 3.0606235317e-002	 3.2398474285e+000	 7.4955189388e-001
 0.0000000000e+000	 3.2399920000e+000	 9.0735681573e-001
 3.1340734650e-001	 3.2515909670e+000	 3.0228970765e-001
 2.8163089719e-001	 3.2544971527e+000	 3.4287817906e-001
 2.4994043271e-001	 3.2570841539e+000	 3.6738151439e-001
 2.1834017695e-001	 3.2593549612e+000	 3.8136513688e-001
 1.8683426373e-001	 3.2613126239e+000	 3.9107100010e-001
 1.5542673628e-001	 3.2629602468e+000	 4.0345801798e-001
 1.2412154671e-001	 3.2643009877e+000	 4.2623267053e-001
 9.2922555600e-002	 3.2653380550e+000	 4.6786912183e-001
 6.1833531710e-002	 3.2660747049e+000	 5.3761831662e-001
 3.0858151706e-002	 3.2665142386e+000	 6.4550564856e-001
 0.0000000000e+000	 3.2666600000e+000	 8.0231694237e-001
 3.1596590696e-001	 3.2781359481e+000	 2.3955951768e-001
 2.8393004456e-001	 3.2810658589e+000	 2.7437928963e-001
 2.5198086895e-001	 3.2836739796e+000	 2.9002768608e-001
 2.2012263849e-001	 3.2859633252e+000	 2.9238720578e-001
 1.8835952077e-001	 3.2879369696e+000	 2.8813512904e-001
 1.5669559199e-001	 3.2895980431e+000	 2.8479202825e-001
 1.2513483655e-001	 3.2909497294e+000	 2.9075958569e-001
 9.3681146551e-002	 3.2919952631e+000	 3.1534701284e-001
 6.2338321504e-002	 3.2927379267e+000	 3.6878550289e-001
 3.1110068095e-002	 3.2931810486e+000	 4.6223028295e-001
 0.0000000000e+000	 3.2933280000e+000	 6.0774999052e-001
 3.1852446741e-001	 3.3046809291e+000	 1.6227373785e-001
 2.8622919194e-001	 3.3076345652e+000	 1.8719891302e-001
 2.5402130520e-001	 3.3102638054e+000	 1.8910044801e-001
 2.2190510004e-001	 3.3125716891e+000	 1.7415425624e-001
 1.8988477780e-001	 3.3145613153e+000	 1.4945362841e-001
 1.5796444771e-001	 3.3162358395e+000	 1.2306639575e-001
 1.2614812640e-001	 3.3175984712e+000	 1.0408049142e-001
 9.4439737501e-002	 3.3186524711e+000	 1.0263715999e-001
 6.2843111297e-002	 3.3194011485e+000	 1.2995121001e-001
 3.1361984484e-002	 3.3198478587e+000	 1.9831784835e-001
 0.0000000000e+000	 3.3199960000e+000	 3.2110580142e-001
 3.2108302787e-001	 3.3312259102e+000	 7.3768160713e-002
 2.8852833931e-001	 3.3342032715e+000	 8.4620634119e-002
 2.5606174144e-001	 3.3368536311e+000	 6.8608820542e-002
 2.2368756159e-001	 3.3391800530e+000	 3.2527474290e-002
 1.9141003483e-001	 3.3411856610e+000	-1.6113199266e-002
 1.5923330342e-001	 3.3428736359e+000	-6.8803118572e-002
 1.2716141625e-001	 3.3442472129e+000	-1.1598594853e-001
 9.5198328452e-002	 3.3453096792e+000	-1.4701789033e-001
 6.3347901090e-002	 3.3460643704e+000	-1.5013113340e-001
 3.1613900873e-002	 3.3465146687e+000	-1.1240151603e-001
 0.0000000000e+000	 3.3466640000e+000	-1.9719964213e-002
 3.2364158833e-001	 3.3577708913e+000	 9.3087500321e-003
 2.9082748668e-001	 3.3607719778e+000	 1.7905964524e-002
 2.5810217768e-001	 3.3634434569e+000	-2.5144947518e-003
 2.2547002313e-001	 3.3657884170e+000	-4.5126607400e-002
 1.9293529187e-001	 3.3678100066e+000	-1.0212604672e-001
 1.6050215913e-001	 3.3695114322e+000	-1.6468107850e-001
 1.2817470609e-001	 3.3708959547e+000	-2.2288895206e-001
 9.5956919402e-002	 3.3719668872e+000	-2.6573720559e-001
 6.3852690883e-002	 3.3727275922e+000	-2.8106936355e-001
 3.1865817262e-002	 3.3731814788e+000	-2.5555455984e-001
 0.0000000000e+000	 3.3733320000e+000	-1.7466064790e-001
 3.2620014879e-001	 3.3843158724e+000	 1.3500165936e-002
 2.9312663406e-001	 3.3873406841e+000	 3.0643401015e-002
 2.6014261392e-001	 3.3900332827e+000	 1.7420893182e-002
 2.2725248468e-001	 3.3923967809e+000	-1.9003066277e-002
 1.9446054890e-001	 3.3944343523e+000	-7.0459252403e-002
 1.6177101484e-001	 3.3961492286e+000	-1.2772770919e-001
 1.2918799594e-001	 3.3975446965e+000	-1.8049717986e-001
 9.6715510352e-002	 3.3986240953e+000	-2.1732916504e-001
 6.4357480676e-002	 3.3993908141e+000	-2.2562606959e-001
 3.2117733651e-002	 3.3998482888e+000	-1.9160295894e-001
 0.0000000000e+000	 3.4000000000e+000	-1.0026247778e-001
 3.4000000000e+000	 0.0000000000e+000	 1.8230827873e+000
 3.3998482888e+000	 3.2117733651e-002	 1.7861113137e+000
 3.3993908141e+000	 6.4357480676e-002	 1.7295744215e+000
 3.3986240953e+000	 9.6715510352e-002	 1.6612172436e+000
 3.3975446965e+000	 1.2918799594e-001	 1.5874258893e+000
 3.3961492286e+000	 1.6177101484e-001	 1.5132964995e+000
 3.3944343523e+000	 1.9446054890e-001	 1.4427069193e+000
 3.3923967809e+000	 2.2725248468e-001	 1.3783914171e+000
 3.3900332827e+000	 2.6014261392e-001	 1.3220189222e+000
 3.3873406841e+000	 2.9312663406e-001	 1.2742753108e+000
 3.3843158724e+000	 3.2620014879e-001	 1.2349503285e+000
 3.4266680000e+000	 0.0000000000e+000	 1.5374894200e+000
 3.4265150989e+000	 3.2369650039e-002	 1.5288609312e+000
 3.4260540359e+000	 6.4862270468e-002	 1.4990984754e+000
 3.4252813033e+000	 9.7474101301e-002	 1.4558963718e+000
 3.4241934382e+000	 1.3020128578e-001	 1.4056243089e+000
 3.4227870249e+000	 1.6303987056e-001	 1.3533948483e+000
 3.4210586980e+000	 1.9598580593e-001	 1.3031331501e+000
 3.4190051448e+000	 2.2903494622e-001	 1.2576493699e+000
 3.4166231084e+000	 2.6218305016e-001	 1.2187142228e+000
 3.4139093904e+000	 2.9542578143e-001	 1.1871382771e+000
 3.4108608535e+000	 3.2875870925e-001	 1.1628555995e+000
 3.4533360000e+000	 0.0000000000e+000	 1.2903140694e+000
 3.4531819089e+000	 3.2621566427e-002	 1.3043746976e+000
 3.4527172577e+000	 6.5367060260e-002	 1.2961616636e+000
 3.4519385114e+000	 9.8232692251e-002	 1.2733104103e+000
 3.4508421800e+000	 1.3121457563e-001	 1.2421686761e+000
 3.4494248213e+000	 1.6430872627e-001	 1.2078621909e+000
 3.4476830437e+000	 1.9751106297e-001	 1.1743621690e+000
 3.4456135087e+000	 2.3081740777e-001	 1.1445550702e+000
 3.4432129342e+000	 2.6422348640e-001	 1.1203151533e+000
 3.4404780966e+000	 2.9772492880e-001	 1.1025804125e+000
 3.4374058346e+000	 3.3131726971e-001	 1.0914325594e+000
 3.4800040000e+000	 0.0000000000e+000	 1.0810888532e+000
 3.4798487190e+000	 3.2873482815e-002	 1.1128050180e+000
 3.4793804796e+000	 6.5871850052e-002	 1.1214532011e+000
 3.4785957194e+000	 9.8991283199e-002	 1.1146042029e+000
 3.4774909217e+000	 1.3222786547e-001	 1.0985807943e+000
 3.4760626177e+000	 1.6557758198e-001	 1.0785213341e+000
 3.4743073894e+000	 1.9903632000e-001	 1.0584447325e+000
 3.4722218727e+000	 2.3259986931e-001	 1.0413172491e+000
 3.4698027599e+000	 2.6626392265e-001	 1.0291216798e+000
 3.4670468029e+000	 3.0002407618e-001	 1.0229295581e+000
 3.4639508156e+000	 3.3387583017e-001	 1.0229770679e+000
 3.5066720000e+000	 0.0000000000e+000	 9.0927270394e-001
 3.5065155291e+000	 3.3125399203e-002	 9.5423546315e-001
 3.5060437014e+000	 6.6376639843e-002	 9.7559731851e-001
 3.5052529275e+000	 9.9749874148e-002	 9.8086105825e-001
 3.5041396635e+000	 1.3324115532e-001	 9.7632408172e-001
 3.5027004140e+000	 1.6684643769e-001	 9.6713965954e-001
 3.5009317350e+000	 2.0056157703e-001	 9.5737905298e-001
 3.4988302366e+000	 2.3438233086e-001	 9.5009500824e-001
 3.4963925857e+000	 2.6830435889e-001	 9.4738720666e-001
 3.4936155092e+000	 3.0232322355e-001	 9.5047033162e-001
 3.4904957967e+000	 3.3643439063e-001	 9.5974549103e-001
 3.5333400000e+000	 0.0000000000e+000	 7.7425413069e-001
 3.5331823391e+000	 3.3377315591e-002	 8.2868360572e-001
 3.5327069232e+000	 6.6881429635e-002	 8.5915613253e-001
 3.5319101355e+000	 1.0050846510e-001	 8.7310561363e-001
 3.5307884052e+000	 1.3425444516e-001	 8.7680639391e-001
 3.5293382104e+000	 1.6811529340e-001	 8.7543186823e-001
 3.5275560807e+000	 2.0208683407e-001	 8.7311343160e-001
 3.5254386005e+000	 2.3616479241e-001	 8.7300031179e-001
 3.5229824115e+000	 2.7034479513e-001	 8.7732089583e-001
 3.5201842155e+000	 3.0462237093e-001	 8.8744624786e-001
 3.5170407778e+000	 3.3899295109e-001	 9.0395659934e-001
 3.5600080000e+000	 0.0000000000e+000	 6.7535385680e-001
 3.5598491492e+000	 3.3629231979e-002	 7.3610372910e-001
 3.5593701451e+000	 6.7386219427e-002	 7.7263238572e-001
 3.5585673436e+000	 1.0126705605e-001	 7.9230656984e-001
 3.5574371470e+000	 1.3526773500e-001	 8.0138271592e-001
 3.5559760068e+000	 1.6938414911e-001	 8.0506259759e-001
 3.5541804264e+000	 2.0361209110e-001	 8.0754876807e-001
 3.5520469645e+000	 2.3794725395e-001	 8.1210035797e-001
 3.5495722372e+000	 2.7238523137e-001	 8.2108987429e-001
 3.5467529218e+000	 3.0692151830e-001	 8.3606173563e-001
 3.5435857589e+000	 3.4155151155e-001	 8.5779336961e-001
 3.5866760000e+000	 0.0000000000e+000	 6.1182733994e-001
 3.5865159592e+000	 3.3881148367e-002	 6.7638941472e-001
 3.5860333669e+000	 6.7891009218e-002	 7.1647206374e-001
 3.5852245516e+000	 1.0202564699e-001	 7.3937930133e-001
 3.5840858887e+000	 1.3628102485e-001	 7.5135773183e-001
 3.5826138031e+000	 1.7065300483e-001	 7.5764891723e-001
 3.5808047721e+000	 2.0513734813e-001	 7.6254095229e-001
 3.5786553284e+000	 2.3972971550e-001	 7.6941983848e-001
 3.5761620630e+000	 2.7442566762e-001	 7.8082133391e-001
 3.5733216281e+000	 3.0922066568e-001	 7.9848405410e-001
 3.5701307400e+000	 3.4411007201e-001	 8.2340469581e-001
 3.6133440000e+000	 0.0000000000e+000	 5.8286718056e-001
 3.6131827693e+000	 3.4133064755e-002	 6.4937601490e-001
 3.6126965887e+000	 6.8395799010e-002	 6.9106689573e-001
 3.6118817597e+000	 1.0278423794e-001	 7.1518834934e-001
 3.6107346305e+000	 1.3729431469e-001	 7.2798827745e-001
 3.6092515995e+000	 1.7192186054e-001	 7.3476271006e-001
 3.6074291178e+000	 2.0666260517e-001	 7.3990314464e-001
 3.6052636923e+000	 2.4151217705e-001	 7.4694309047e-001
 3.6027518887e+000	 2.7646610386e-001	 7.5860453017e-001
 3.5998903343e+000	 3.1151981305e-001	 7.7684511491e-001
 3.5966757211e+000	 3.4666863247e-001	 8.0290701368e-001
 3.6400120000e+000	 0.0000000000e+000	 5.8760542442e-001
 3.6398495793e+000	 3.4384981144e-002	 6.5484301665e-001
 3.6393598106e+000	 6.8900588802e-002	 6.9675674394e-001
 3.6385389677e+000	 1.0354282889e-001	 7.2054980370e-001
 3.6373833723e+000	 1.3830760454e-001	 7.3248568232e-001
 3.6358893958e+000	 1.7319071625e-001	 7.3793294452e-001
 3.6340534634e+000	 2.0818786220e-001	 7.4140795033e-001
 3.6318720562e+000	 2.4329463859e-001	 7.4661614700e-001
 3.6293417145e+000	 2.7850654010e-001	 7.5649268455e-001
 3.6264590406e+000	 3.1381896043e-001	 7.7324321460e-001
 3.6232207021e+000	 3.4922719293e-001	 7.9838584334e-001
 3.6666800000e+000	 0.0000000000e+000	 6.2511576471e-001
 3.6665163894e+000	 3.4636897532e-002	 6.9251630212e-001
 3.6660230324e+000	 6.9405378595e-002	 7.3383188829e-001
 3.6651961758e+000	 1.0430141984e-001	 7.5623357892e-001
 3.6640321140e+000	 1.3932089439e-001	 7.6601800665e-001
 3.6625271922e+000	 1.7445957196e-001	 7.6864784351e-001
 3.6606778091e+000	 2.0971311924e-001	 7.6878949331e-001
 3.6584804202e+000	 2.4507710014e-001	 7.7034869098e-001
 3.6559315402e+000	 2.8054697635e-001	 7.7650479561e-001
 3.6530277469e+000	 3.1611810781e-001	 7.8974468199e-001
 3.6497656832e+000	 3.5178575339e-001	 8.1189725408e-001
 3.3843158724e+000	 3.2620014879e-001	 1.2349503285e+000
 3.3809563279e+000	 3.5935370079e-001	 1.1960365593e+000
 3.3772586410e+000	 3.9258772377e-001	 1.1520731542e+000
 3.3732199000e+000	 4.2589761953e-001	 1.1056311578e+000
 3.3688372654e+000	 4.5927870155e-001	 1.0587834779e+000
 3.3641079719e+000	 4.9272619611e-001	 1.0132176490e+000
 3.3590293320e+000	 5.2623524340e-001	 9.7035763383e-001
 3.3535987384e+000	 5.5980089879e-001	 9.3149557498e-001
 3.3478136668e+000	 5.9341813416e-001	 8.9793443485e-001
 3.3416716788e+000	 6.2708183937e-001	 8.7114247378e-001
 3.3351704242e+000	 6.6078682374e-001	 8.5292052383e-001
 3.4108608535e+000	 3.2875870925e-001	 1.1628555995e+000
 3.4074749583e+000	 3.6217230211e-001	 1.1373318945e+000
 3.4037482685e+000	 3.9566699713e-001	 1.1045808231e+000
 3.3996778495e+000	 4.2923816003e-001	 1.0673316514e+000
 3.3952608395e+000	 4.6288106755e-001	 1.0278199039e+000
 3.3904944517e+000	 4.9659090852e-001	 9.8789605425e-001
 3.3853759773e+000	 5.3036278501e-001	 9.4914327410e-001
 3.3799027887e+000	 5.6419171360e-001	 9.1300522170e-001
 3.3740723418e+000	 5.9807262675e-001	 8.8092487492e-001
 3.3678821789e+000	 6.3200037421e-001	 8.5449543327e-001
 3.3613299316e+000	 6.6596972462e-001	 8.3562432067e-001
 3.4374058346e+000	 3.3131726971e-001	 1.0914325594e+000
 3.4339935887e+000	 3.6499090342e-001	 1.0778105622e+000
 3.4302378959e+000	 3.9874627048e-001	 1.0551640885e+000
 3.4261357990e+000	 4.3257870053e-001	 1.0263268883e+000
 3.4216844137e+000	 4.6648343355e-001	 9.9364301546e-001
 3.4168809315e+000	 5.0045562093e-001	 9.5907109197e-001
 3.4117226227e+000	 5.3449032662e-001	 9.2429764660e-001
 3.4062068391e+000	 5.6858252842e-001	 8.9086057717e-001
 3.4003310168e+000	 6.0272711934e-001	 8.6028381570e-001
 3.3940926790e+000	 6.3691890906e-001	 8.3422429626e-001
 3.3874894389e+000	 6.7115262551e-001	 8.1482998047e-001
 3.4639508156e+000	 3.3387583017e-001	 1.0229770679e+000
 3.4605122191e+000	 3.6780950474e-001	 1.0196942011e+000
 3.4567275234e+000	 4.0182554384e-001	 1.0059467547e+000
 3.4525937485e+000	 4.3591924104e-001	 9.8462439091e-001
 3.4481079879e+000	 4.7008579956e-001	 9.5813080831e-001
 3.4432674113e+000	 5.0432033334e-001	 9.2848320274e-001
 3.4380692681e+000	 5.3861786822e-001	 8.9742081222e-001
 3.4325108894e+000	 5.7297334323e-001	 8.6652366687e-001
 3.4265896917e+000	 6.0738161193e-001	 8.3734269951e-001
 3.4203031791e+000	 6.4183744391e-001	 8.1154239646e-001
 3.4136489462e+000	 6.7633552640e-001	 7.9196041552e-001
 3.4904957967e+000	 3.3643439063e-001	 9.5974549103e-001
 3.4870308495e+000	 3.7062810607e-001	 9.6516877474e-001
 3.4832171509e+000	 4.0490481720e-001	 9.5902052550e-001
 3.4790516980e+000	 4.3925978154e-001	 9.4420299371e-001
 3.4745315620e+000	 4.7368816556e-001	 9.2313592055e-001
 3.4696538911e+000	 5.0818504575e-001	 8.9785079597e-001
 3.4644159134e+000	 5.4274540983e-001	 8.7009420190e-001
 3.4588149398e+000	 5.7736415804e-001	 8.4144143831e-001
 3.4528483667e+000	 6.1203610452e-001	 8.1342166713e-001
 3.4465136792e+000	 6.4675597877e-001	 7.8765583749e-001
 3.4398084535e+000	 6.8151842728e-001	 7.6809388492e-001
 3.5170407778e+000	 3.3899295109e-001	 9.0395659934e-001
 3.5135494799e+000	 3.7344670739e-001	 9.1638623896e-001
 3.5097067784e+000	 4.0798409055e-001	 9.1644645559e-001
 3.5055096475e+000	 4.4260032205e-001	 9.0701409411e-001
 3.5009551362e+000	 4.7729053156e-001	 8.9048670321e-001
 3.4960403710e+000	 5.1204975816e-001	 8.6887116519e-001
 3.4907625588e+000	 5.4687295144e-001	 8.4388140490e-001
 3.4851189901e+000	 5.8175497286e-001	 8.1704645441e-001
 3.4791070416e+000	 6.1669059710e-001	 7.8983019240e-001
 3.4727241793e+000	 6.5167451362e-001	 7.6376410867e-001
 3.4659679608e+000	 6.8670132817e-001	 7.4430170080e-001
 3.5435857589e+000	 3.4155151155e-001	 8.5779336961e-001
 3.5400681103e+000	 3.7626530871e-001	 8.7546612399e-001
 3.5361964059e+000	 4.1106336391e-001	 8.8025632440e-001
 3.5319675970e+000	 4.4594086255e-001	 8.7498283531e-001
 3.5273787104e+000	 4.8089289757e-001	 8.6198823220e-001
 3.5224268508e+000	 5.1591447057e-001	 8.4322135312e-001
 3.5171092041e+000	 5.5100049305e-001	 8.2032891471e-001
 3.5114230404e+000	 5.8614578767e-001	 7.9475755204e-001
 3.5053657166e+000	 6.2134508969e-001	 7.6786768866e-001
 3.4989346794e+000	 6.5659304847e-001	 7.4106067848e-001
 3.4921274681e+000	 6.9188422906e-001	 7.2165367506e-001
 3.5701307400e+000	 3.4411007201e-001	 8.2340469581e-001
 3.5665867407e+000	 3.7908391003e-001	 8.4449703421e-001
 3.5626860333e+000	 4.1414263727e-001	 8.5245393746e-001
 3.5584255465e+000	 4.4928140306e-001	 8.5000922516e-001
 3.5538022846e+000	 4.8449526357e-001	 8.3942326472e-001
 3.5488133306e+000	 5.1977918299e-001	 8.2255896914e-001
 3.5434558495e+000	 5.5512803466e-001	 8.0096683505e-001
 3.5377270908e+000	 5.9053660249e-001	 7.7598046748e-001
 3.5316243916e+000	 6.2599958229e-001	 7.4882408841e-001
 3.5251451795e+000	 6.6151158332e-001	 7.2073356675e-001
 3.5182869755e+000	 6.9706712995e-001	 7.0121815422e-001
 3.5966757211e+000	 3.4666863247e-001	 8.0290701368e-001
 3.5931053711e+000	 3.8190251135e-001	 8.2553807028e-001
 3.5891756608e+000	 4.1722191063e-001	 8.3501635855e-001
 3.5848834960e+000	 4.5262194356e-001	 8.3396919425e-001
 3.5802258587e+000	 4.8809762958e-001	 8.2455314290e-001
 3.5751998104e+000	 5.2364389540e-001	 8.0852296168e-001
 3.5698024949e+000	 5.5925557627e-001	 7.8730954786e-001
 3.5640311411e+000	 5.9492741731e-001	 7.6210843047e-001
 3.5578830665e+000	 6.3065407488e-001	 7.3398039762e-001
 3.5513556796e+000	 6.6643011817e-001	 7.0396589677e-001
 3.5444464828e+000	 7.0225003084e-001	 6.8406203847e-001
 3.6232207021e+000	 3.4922719293e-001	 7.9838584334e-001
 3.6196240015e+000	 3.8472111267e-001	 8.2062017775e-001
 3.6156652883e+000	 4.2030118399e-001	 8.2989507632e-001
 3.6113414455e+000	 4.5596248407e-001	 8.2871559639e-001
 3.6066494329e+000	 4.9169999558e-001	 8.1911864734e-001
 3.6015862902e+000	 5.2750860781e-001	 8.0273434783e-001
 3.5961491402e+000	 5.6338311789e-001	 7.8085634533e-001
 3.5903351915e+000	 5.9931823212e-001	 7.5452272868e-001
 3.5841417415e+000	 6.3530856747e-001	 7.2460922590e-001
 3.5775661797e+000	 6.7134865303e-001	 6.9210497932e-001
 3.5706059901e+000	 7.0743293173e-001	 6.7125078601e-001
 3.6497656832e+000	 3.5178575339e-001	 8.1189725408e-001
 3.6461426319e+000	 3.8753971400e-001	 8.3174742561e-001
 3.6421549158e+000	 4.2338045735e-001	 8.3901710869e-001
 3.6377993950e+000	 4.5930302458e-001	 8.3607915434e-001
 3.6330730071e+000	 4.9530236159e-001	 8.2484080324e-001
 3.6279727701e+000	 5.3137332022e-001	 8.0679690230e-001
 3.6224957856e+000	 5.6751065950e-001	 7.8309202770e-001
 3.6166392418e+000	 6.0370904694e-001	 7.5459324382e-001
 3.6104004164e+000	 6.3996306006e-001	 7.2197529393e-001
 3.6037766798e+000	 6.7626718788e-001	 6.8650502764e-001
 3.5967654974e+000	 7.1261583262e-001	 6.6384840309e-001
 3.3351704242e+000	 6.6078682374e-001	 8.5292052383e-001
 3.3283065882e+000	 6.9453288053e-001	 8.3384853865e-001
 3.3210789555e+000	 7.2830960080e-001	 8.1077623781e-001
 3.3134854599e+000	 7.6211155205e-001	 7.8457325803e-001
 3.3055241345e+000	 7.9593322820e-001	 7.5564914097e-001
 3.2971931143e+000	 8.2976905160e-001	 7.2436144513e-001
 3.2884906387e+000	 8.6361337515e-001	 6.9105428330e-001
 3.2794150542e+000	 8.9746048454e-001	 6.5609351514e-001
 3.2699648164e+000	 9.3130460051e-001	 6.1989790584e-001
 3.2601384931e+000	 9.6513988133e-001	 5.8296557451e-001
 3.2499347660e+000	 9.9896042527e-001	 5.4589507546e-001
 3.3613299316e+000	 6.6596972462e-001	 8.3562432067e-001
 3.3544122588e+000	 6.9998046961e-001	 8.1818965999e-001
 3.3471279360e+000	 7.3402211857e-001	 7.9645132705e-001
 3.3394748806e+000	 7.6808919642e-001	 7.7156416318e-001
 3.3314511103e+000	 8.0217615388e-001	 7.4444021691e-001
 3.3230547455e+000	 8.3627736956e-001	 7.1520143734e-001
 3.3142840118e+000	 8.7038715206e-001	 6.8390818854e-001
 3.3051372426e+000	 9.0449974224e-001	 6.5084595819e-001
 3.2956128816e+000	 9.3860931553e-001	 6.1637896605e-001
 3.2857094853e+000	 9.7270998438e-001	 5.8098004204e-001
 3.2754257250e+000	 1.0067958007e+000	 5.4525477400e-001
 3.3874894389e+000	 6.7115262551e-001	 8.1482998047e-001
 3.3805179294e+000	 7.0542805868e-001	 7.9921459987e-001
 3.3731769164e+000	 7.3973463634e-001	 7.7847644852e-001
 3.3654643012e+000	 7.7406684079e-001	 7.5390139446e-001
 3.3573780861e+000	 8.0841907956e-001	 7.2656024866e-001
 3.3489163767e+000	 8.4278568752e-001	 6.9733156952e-001
 3.3400773848e+000	 8.7716092897e-001	 6.6692685524e-001
 3.3308594310e+000	 9.1153899995e-001	 6.3587630843e-001
 3.3212609468e+000	 9.4591403056e-001	 6.0376127955e-001
 3.3112804774e+000	 9.8028008742e-001	 5.7063163851e-001
 3.3009166839e+000	 1.0146311762e+000	 5.3701935366e-001
 3.4136489462e+000	 6.7633552640e-001	 7.9196041552e-001
 3.4066236000e+000	 7.1087564776e-001	 7.7796168531e-001
 3.3992258969e+000	 7.4544715412e-001	 7.5824529589e-001
 3.3914537219e+000	 7.8004448516e-001	 7.3419398939e-001
 3.3833050618e+000	 8.1466200525e-001	 7.0697767831e-001
 3.3747780078e+000	 8.4929400548e-001	 6.7757562431e-001
 3.3658707579e+000	 8.8393470588e-001	 6.4680105740e-001
 3.3565816195e+000	 9.1857825765e-001	 6.1532841440e-001
 3.3469090120e+000	 9.5321874558e-001	 5.8372336922e-001
 3.3368514696e+000	 9.8785019047e-001	 5.5247581968e-001
 3.3264076428e+000	 1.0224665517e+000	 5.2174059533e-001
 3.4398084535e+000	 6.8151842728e-001	 7.6809388492e-001
 3.4327292707e+000	 7.1632323683e-001	 7.5543330929e-001
 3.4252748774e+000	 7.5115967189e-001	 7.3668376754e-001
 3.4174431425e+000	 7.8602212954e-001	 7.1328688119e-001
 3.4092320376e+000	 8.2090493093e-001	 6.8647317250e-001
 3.4006396390e+000	 8.5580232344e-001	 6.5728360036e-001
 3.3916641309e+000	 8.9070848278e-001	 6.2659359285e-001
 3.3823038079e+000	 9.2561751536e-001	 5.9513976883e-001
 3.3725570773e+000	 9.6052346061e-001	 5.6354953570e-001
 3.3624224617e+000	 9.9542029351e-001	 5.3237374180e-001
 3.3518986017e+000	 1.0303019272e+000	 5.0211943881e-001
 3.4659679608e+000	 6.8670132817e-001	 7.4430170080e-001
 3.4588349413e+000	 7.2177082591e-001	 7.3263146524e-001
 3.4513238578e+000	 7.5687218967e-001	 7.1471849359e-001
 3.4434325632e+000	 7.9199977391e-001	 6.9202683834e-001
 3.4351590134e+000	 8.2714785662e-001	 6.6581068511e-001
 3.4265012702e+000	 8.6231064140e-001	 6.3713522424e-001
 3.4174575040e+000	 8.9748225969e-001	 6.0690007815e-001
 3.4080259963e+000	 9.3265677307e-001	 5.7586549179e-001
 3.3982051425e+000	 9.6782817563e-001	 5.4468148793e-001
 3.3879934539e+000	 1.0029903966e+000	 5.1392018069e-001
 3.3773895607e+000	 1.0381373026e+000	 4.8410871192e-001
 3.4921274681e+000	 6.9188422906e-001	 7.2165367506e-001
 3.4849406119e+000	 7.2721841499e-001	 7.1055769276e-001
 3.4773728383e+000	 7.6258470745e-001	 6.9327667942e-001
 3.4694219839e+000	 7.9797741829e-001	 6.7126221020e-001
 3.4610859892e+000	 8.3339078231e-001	 6.4575672668e-001
 3.4523629013e+000	 8.6881895936e-001	 6.1781371761e-001
 3.4432508770e+000	 9.0425603660e-001	 5.8832051794e-001
 3.4337481848e+000	 9.3969603077e-001	 5.5802394888e-001
 3.4238532077e+000	 9.7513289066e-001	 5.2755901609e-001
 3.4135644460e+000	 1.0105604996e+000	 4.9747705960e-001
 3.4028805196e+000	 1.0459726781e+000	 4.6829789502e-001
 3.5182869755e+000	 6.9706712995e-001	 7.0121815422e-001
 3.5110462825e+000	 7.3266600407e-001	 6.9021301115e-001
 3.5034218188e+000	 7.6829722522e-001	 6.7328594101e-001
 3.4954114045e+000	 8.0395506266e-001	 6.5184266885e-001
 3.4870129649e+000	 8.3963370799e-001	 6.2708001848e-001
 3.4782245325e+000	 8.7532727733e-001	 6.0000537088e-001
 3.4690442501e+000	 9.1102981351e-001	 5.7145880677e-001
 3.4594703732e+000	 9.4673528848e-001	 5.4213817214e-001
 3.4495012729e+000	 9.8243760569e-001	 5.1262730000e-001
 3.4391354382e+000	 1.0181306026e+000	 4.8342426129e-001
 3.4283714785e+000	 1.0538080536e+000	 4.5499127002e-001
 3.5444464828e+000	 7.0225003084e-001	 6.8406203847e-001
 3.5371519531e+000	 7.3811359314e-001	 6.7259784126e-001
 3.5294707992e+000	 7.7400974300e-001	 6.5567413263e-001
 3.5214008252e+000	 8.0993270704e-001	 6.3461894714e-001
 3.5129399407e+000	 8.4587663368e-001	 6.1055114678e-001
 3.5040861637e+000	 8.8183559529e-001	 5.8439912072e-001
 3.4948376231e+000	 9.1780359042e-001	 5.5692223824e-001
 3.4851925616e+000	 9.5377454619e-001	 5.2873531062e-001
 3.4751493381e+000	 9.8974232071e-001	 5.0033631209e-001
 3.4647064304e+000	 1.0257007057e+000	 4.7213466396e-001
 3.4538624374e+000	 1.0616434291e+000	 4.4449910010e-001
 3.5706059901e+000	 7.0743293173e-001	 6.7125078601e-001
 3.5632576237e+000	 7.4356118222e-001	 6.5871191631e-001
 3.5555197797e+000	 7.7972226078e-001	 6.4136916742e-001
 3.5473902459e+000	 8.1591035141e-001	 6.2044257331e-001
 3.5388669165e+000	 8.5211955937e-001	 5.9694221724e-001
 3.5299477948e+000	 8.8834391325e-001	 5.7168613122e-001
 3.5206309962e+000	 9.2457736733e-001	 5.4532102120e-001
 3.5109147501e+000	 9.6081380390e-001	 5.1834609102e-001
 3.5007974033e+000	 9.9704703574e-001	 4.9114023327e-001
 3.4902774225e+000	 1.0332708087e+000	 4.6399027834e-001
 3.4793533964e+000	 1.0694788046e+000	 4.3713699309e-001
 3.5967654974e+000	 7.1261583262e-001	 6.6384840309e-001
 3.5893632944e+000	 7.4900877130e-001	 6.4955418211e-001
 3.5815687602e+000	 7.8543477855e-001	 6.3129883090e-001
 3.5733796665e+000	 8.2188799579e-001	 6.1016560228e-001
 3.5647938922e+000	 8.5836248506e-001	 5.8702650948e-001
 3.5558094260e+000	 8.9485223122e-001	 5.6255937859e-001
 3.5464243692e+000	 9.3135114424e-001	 5.3726780254e-001
 3.5366369385e+000	 9.6785306161e-001	 5.1150428789e-001
 3.5264454685e+000	 1.0043517508e+000	 4.8549688097e-001
 3.5158484147e+000	 1.0408409118e+000	 4.5937731276e-001
 3.5048443553e+000	 1.0773141800e+000	 4.3322528140e-001
 3.2499347660e+000	 9.9896042527e-001	 5.4589507546e-001
 3.2393524327e+000	 1.0327602727e+000	 5.0986996984e-001
 3.2283904058e+000	 1.0665334072e+000	 4.7483235262e-001
 3.2170477184e+000	 1.1002737598e+000	 4.3967972414e-001
 3.2053235261e+000	 1.1339752124e+000	 4.0344208496e-001
 3.1932171098e+000	 1.1676316006e+000	 3.6526529391e-001
 3.1807278769e+000	 1.2012367166e+000	 3.2439119716e-001
 3.1678553637e+000	 1.2347843127e+000	 2.8012893464e-001
 3.1545992369e+000	 1.2682681041e+000	 2.3181715618e-001
 3.1409592953e+000	 1.3016817725e+000	 1.7877695560e-001
 3.1269354717e+000	 1.3350189692e+000	 1.2029522834e-001
 3.2754257250e+000	 1.0067958007e+000	 5.4525477400e-001
 3.2647603887e+000	 1.0408607582e+000	 5.1057131569e-001
 3.2537123809e+000	 1.0748987933e+000	 4.7687354397e-001
 3.2422807268e+000	 1.1089037894e+000	 4.4284617643e-001
 3.2304645755e+000	 1.1428695804e+000	 4.0734137624e-001
 3.2182632021e+000	 1.1767899534e+000	 3.6936396529e-001
 3.2056760095e+000	 1.2106586521e+000	 3.2805222453e-001
 3.1927025304e+000	 1.2444693798e+000	 2.8264929741e-001
 3.1793424288e+000	 1.2782158023e+000	 2.3246490809e-001
 3.1655955019e+000	 1.3118915518e+000	 1.7682718635e-001
 3.1514616820e+000	 1.3454902298e+000	 1.1695132353e-001
 3.3009166839e+000	 1.0146311762e+000	 5.3701935366e-001
 3.2901683448e+000	 1.0489612438e+000	 5.0440683884e-001
 3.2790343560e+000	 1.0832641795e+000	 4.7269172975e-001
 3.2675137352e+000	 1.1175338190e+000	 4.4034852021e-001
 3.2556056248e+000	 1.1517639483e+000	 4.0605437317e-001
 3.2433092944e+000	 1.1859483062e+000	 3.6868025048e-001
 3.2306241422e+000	 1.2200805877e+000	 3.2727242959e-001
 3.2175496971e+000	 1.2541544469e+000	 2.8102401844e-001
 3.2040856206e+000	 1.2881635005e+000	 2.2923615849e-001
 3.1902317086e+000	 1.3221013311e+000	 1.7126869079e-001
 3.1759878923e+000	 1.3559614903e+000	 1.1287421935e-001
 3.3264076428e+000	 1.0224665517e+000	 5.2174059533e-001
 3.3155763009e+000	 1.0570617294e+000	 4.9198304393e-001
 3.3043563311e+000	 1.0916295656e+000	 4.6294807598e-001
 3.2927467436e+000	 1.1261638486e+000	 4.3289296233e-001
 3.2807466742e+000	 1.1606583162e+000	 4.0032192407e-001
 3.2683553867e+000	 1.1951066590e+000	 3.6397863644e-001
 3.2555722748e+000	 1.2295025232e+000	 3.2282850972e-001
 3.2423968638e+000	 1.2638395139e+000	 2.7603033151e-001
 3.2288288125e+000	 1.2981111987e+000	 2.2289693795e-001
 3.2148679152e+000	 1.3323111103e+000	 1.6284467046e-001
 3.2005141027e+000	 1.3664327509e+000	 1.0843150661e-001
 3.3518986017e+000	 1.0303019272e+000	 5.0211943881e-001
 3.3409842570e+000	 1.0651622150e+000	 4.7428954254e-001
 3.3296783062e+000	 1.0999949518e+000	 4.4835817123e-001
 3.3179797520e+000	 1.1347938782e+000	 4.2122967499e-001
 3.3058877235e+000	 1.1695526842e+000	 3.9091713117e-001
 3.2934014791e+000	 1.2042650118e+000	 3.5604292931e-001
 3.2805204075e+000	 1.2389244587e+000	 3.1550235995e-001
 3.2672440305e+000	 1.2735245810e+000	 2.6843540197e-001
 3.2535720044e+000	 1.3080588968e+000	 2.1418684567e-001
 3.2395041218e+000	 1.3425208896e+000	 1.5325622308e-001
 3.2250403130e+000	 1.3769040114e+000	 1.0393616947e-001
 3.3773895607e+000	 1.0381373026e+000	 4.8410871192e-001
 3.3663922131e+000	 1.0732627005e+000	 4.5687227141e-001
 3.3550002813e+000	 1.1083603379e+000	 4.3181656428e-001
 3.3432127604e+000	 1.1434239078e+000	 4.0651131299e-001
 3.3310287729e+000	 1.1784470521e+000	 3.7863783210e-001
 3.3184475714e+000	 1.2134233646e+000	 3.4566823808e-001
 3.3054685401e+000	 1.2483463942e+000	 3.0607255135e-001
 3.2920911972e+000	 1.2832096481e+000	 2.5898729232e-001
 3.2783151963e+000	 1.3180065950e+000	 2.0380949511e-001
 3.2641403284e+000	 1.3527306689e+000	 1.4439347728e-001
 3.2495665234e+000	 1.3873752720e+000	 9.9647885227e-002
 3.4028805196e+000	 1.0459726781e+000	 4.6829789502e-001
 3.3918001691e+000	 1.0813631861e+000	 4.4170858822e-001
 3.3803222564e+000	 1.1167257241e+000	 4.1737839043e-001
 3.3684457688e+000	 1.1520539374e+000	 3.9283053848e-001
 3.3561698223e+000	 1.1873414200e+000	 3.6571078293e-001
 3.3434936637e+000	 1.2225817174e+000	 3.3384727643e-001
 3.3304166728e+000	 1.2577683297e+000	 2.9530583497e-001
 3.3169383640e+000	 1.2928947151e+000	 2.4840595298e-001
 3.3030583882e+000	 1.3279542932e+000	 1.9242298385e-001
 3.2887765350e+000	 1.3629404481e+000	 1.3653180671e-001
 3.2740927337e+000	 1.3978465325e+000	 9.5774345702e-002
 3.4283714785e+000	 1.0538080536e+000	 4.5499127002e-001
 3.4172081252e+000	 1.0894636717e+000	 4.2904237865e-001
 3.4056442315e+000	 1.1250911102e+000	 4.0529603480e-001
 3.3936787772e+000	 1.1606839670e+000	 3.8124772207e-001
 3.3813108716e+000	 1.1962357880e+000	 3.5451127868e-001
 3.3685397560e+000	 1.2317400702e+000	 3.2287937564e-001
 3.3553648054e+000	 1.2671902652e+000	 2.8438857945e-001
 3.3417855307e+000	 1.3025797822e+000	 2.3738904222e-001
 3.3278015801e+000	 1.3379019914e+000	 1.8085287168e-001
 3.3134127416e+000	 1.3731502274e+000	 1.2988382314e-001
 3.2986189440e+000	 1.4083177931e+000	 9.2472599142e-002
 3.4538624374e+000	 1.0616434291e+000	 4.4449910010e-001
 3.4426160813e+000	 1.0975641573e+000	 4.1912400680e-001
 3.4309662066e+000	 1.1334564964e+000	 3.9576734685e-001
 3.4189117856e+000	 1.1693139966e+000	 3.7191558578e-001
 3.4064519210e+000	 1.2051301559e+000	 3.4516914606e-001
 3.3935858483e+000	 1.2408984230e+000	 3.1330341145e-001
 3.3803129381e+000	 1.2766122007e+000	 2.7433454133e-001
 3.3666326974e+000	 1.3122648493e+000	 2.2659014964e-001
 3.3525447720e+000	 1.3478496895e+000	 1.7090138323e-001
 3.3380489483e+000	 1.3833600067e+000	 1.2459178263e-001
 3.3231451544e+000	 1.4187890536e+000	 8.9850411542e-002
 3.4793533964e+000	 1.0694788046e+000	 4.3713699309e-001
 3.4680240374e+000	 1.1056646428e+000	 4.1220967323e-001
 3.4562881817e+000	 1.1418218825e+000	 3.8899646958e-001
 3.4441447940e+000	 1.1779440262e+000	 3.6499359268e-001
 3.4315929703e+000	 1.2140245238e+000	 3.3780651441e-001
 3.4186319407e+000	 1.2500567758e+000	 3.0521143192e-001
 3.4052610708e+000	 1.2860341363e+000	 2.6522177527e-001
 3.3914798641e+000	 1.3219499164e+000	 2.1615982582e-001
 3.3772879639e+000	 1.3577973877e+000	 1.6244066913e-001
 3.3626851549e+000	 1.3935697859e+000	 1.1997121987e-001
 3.3476713647e+000	 1.4292603142e+000	 8.7706917483e-002
 3.5048443553e+000	 1.0773141800e+000	 4.3322528140e-001
 3.4934319935e+000	 1.1137651284e+000	 4.0856079106e-001
 3.4816101568e+000	 1.1501872686e+000	 3.8519322580e-001
 3.4693778024e+000	 1.1865740558e+000	 3.6064735713e-001
 3.4567340197e+000	 1.2229188917e+000	 3.3255216366e-001
 3.4436780330e+000	 1.2592151286e+000	 2.9870268528e-001
 3.4302092034e+000	 1.2954560718e+000	 2.5712716338e-001
 3.4163270308e+000	 1.3316349834e+000	 2.0615954686e-001
 3.4020311558e+000	 1.3677450859e+000	 1.5524403324e-001
 3.3873213615e+000	 1.4037795652e+000	 1.1551572358e-001
 3.3721975751e+000	 1.4397315747e+000	 8.4882356526e-002
 3.1269354717e+000	 1.3350189692e+000	 1.2029522834e-001
 3.1125300238e+000	 1.3682683376e+000	 6.4636700220e-002
 3.0977410833e+000	 1.4014284891e+000	 1.7034475522e-002
 3.0825689947e+000	 1.4344930095e+000	-2.3582167397e-002
 3.0670142412e+000	 1.4674554686e+000	-5.8476462423e-002
 3.0510774461e+000	 1.5003094234e+000	-8.9096071959e-002
 3.0347593738e+000	 1.5330484222e+000	-1.1706213655e-001
 3.0180609300e+000	 1.5656660084e+000	-1.4415543942e-001
 3.0009831633e+000	 1.5981557240e+000	-1.7229969350e-001
 2.9835272650e+000	 1.6305111137e+000	-2.0354198554e-001
 2.9656945701e+000	 1.6627257286e+000	-2.4003043902e-001
 3.1514616820e+000	 1.3454902298e+000	 1.1695132353e-001
 3.1369432446e+000	 1.3790003905e+000	 6.5780509648e-002
 3.1220383066e+000	 1.4124206346e+000	 2.1030756517e-002
 3.1067472152e+000	 1.4457444976e+000	-1.8075508764e-002
 3.0910704576e+000	 1.4789654987e+000	-5.2514242731e-002
 3.0750086618e+000	 1.5120771445e+000	-8.3452052645e-002
 3.0585625982e+000	 1.5450729326e+000	-1.1223543789e-001
 3.0417331797e+000	 1.5779463558e+000	-1.4037698473e-001
 3.0245214630e+000	 1.6106909054e+000	-1.6953852095e-001
 3.0069286489e+000	 1.6433000755e+000	-2.0151126515e-001
 2.9889560827e+000	 1.6757673668e+000	-2.3819303419e-001
 3.1759878923e+000	 1.3559614903e+000	 1.1287421935e-001
 3.1613564654e+000	 1.3897324435e+000	 6.5919763078e-002
 3.1463355299e+000	 1.4234127802e+000	 2.3905464171e-002
 3.1309254358e+000	 1.4569959857e+000	-1.3674349473e-002
 3.1151266740e+000	 1.4904755289e+000	-4.7531005877e-002
 3.0989398775e+000	 1.5238448656e+000	-7.8574068678e-002
 3.0823658226e+000	 1.5570974430e+000	-1.0790072213e-001
 3.0654054293e+000	 1.5902267032e+000	-1.3678193797e-001
 3.0480597627e+000	 1.6232260869e+000	-1.6664542955e-001
 3.0303300327e+000	 1.6560890374e+000	-1.9905542850e-001
 3.0122175953e+000	 1.6888090049e+000	-2.3568934922e-001
 3.2005141027e+000	 1.3664327509e+000	 1.0843150661e-001
 3.1857696862e+000	 1.4004644964e+000	 6.5369822226e-002
 3.1706327532e+000	 1.4344049258e+000	 2.5919915813e-002
 3.1551036564e+000	 1.4682474739e+000	-1.0172386833e-002
 3.1391828904e+000	 1.5019855590e+000	-4.3375629688e-002
 3.1228710932e+000	 1.5356125867e+000	-7.4365581021e-002
 3.1061690470e+000	 1.5691219534e+000	-1.0401471397e-001
 3.0890776790e+000	 1.6025070506e+000	-1.3337828719e-001
 3.0715980624e+000	 1.6357612683e+000	-1.6367703004e-001
 3.0537314166e+000	 1.6688779993e+000	-1.9627646795e-001
 3.0354791079e+000	 1.7018506431e+000	-2.3266295538e-001
 3.2250403130e+000	 1.3769040114e+000	 1.0393616947e-001
 3.2101829069e+000	 1.4111965494e+000	 6.4391300593e-002
 3.1949299765e+000	 1.4453970713e+000	 2.7280916448e-002
 3.1792818770e+000	 1.4794989620e+000	-7.4172426939e-003
 3.1632391068e+000	 1.5134955891e+000	-3.9950004078e-002
 3.1468023089e+000	 1.5473803077e+000	-7.0781854418e-002
 3.1299722714e+000	 1.5811464638e+000	-1.0058446811e-001
 3.1127499287e+000	 1.6147873980e+000	-1.3022264318e-001
 3.0951363621e+000	 1.6482964497e+000	-1.6073664848e-001
 3.0771328004e+000	 1.6816669612e+000	-1.9332101829e-001
 3.0587406205e+000	 1.7148922812e+000	-2.2929986421e-001
 3.2495665234e+000	 1.3873752720e+000	 9.9647885227e-002
 3.2345961277e+000	 1.4219286023e+000	 6.3191520102e-002
 3.2192271998e+000	 1.4563892169e+000	 2.8142370442e-002
 3.2034600975e+000	 1.4907504501e+000	-5.3086979339e-003
 3.1872953232e+000	 1.5250056192e+000	-3.7207112320e-002
 3.1707335246e+000	 1.5591480288e+000	-6.7827885489e-002
 3.1537754958e+000	 1.5931709742e+000	-9.7665143663e-002
 3.1364221784e+000	 1.6270677453e+000	-1.2741785901e-001
 3.1186746618e+000	 1.6608316311e+000	-1.5797178919e-001
 3.1005341843e+000	 1.6944559230e+000	-1.9037766101e-001
 3.0820021331e+000	 1.7279339194e+000	-2.2582567027e-001
 3.2740927337e+000	 1.3978465325e+000	 9.5774345702e-002
 3.2590093485e+000	 1.4326606553e+000	 6.1925987930e-002
 3.2435244231e+000	 1.4673813625e+000	 2.8606912219e-002
 3.2276383181e+000	 1.5020019382e+000	-3.7969088768e-003
 3.2113515396e+000	 1.5365156494e+000	-3.5149095013e-002
 3.1946647403e+000	 1.5709157499e+000	-6.5556314133e-002
 3.1775787202e+000	 1.6051954846e+000	-9.5357762319e-002
 3.1600944280e+000	 1.6393480927e+000	-1.2511063376e-001
 3.1422129615e+000	 1.6733668126e+000	-1.5557158247e-001
 3.1239355681e+000	 1.7072448849e+000	-1.8767421364e-001
 3.1052636456e+000	 1.7409755575e+000	-2.2250267945e-001
 3.2986189440e+000	 1.4083177931e+000	 9.2472599142e-002
 3.2834225693e+000	 1.4433927082e+000	 6.0699892482e-002
 3.2678216464e+000	 1.4783735081e+000	 2.8727554999e-002
 3.2518165387e+000	 1.5132534263e+000	-2.8806065868e-003
 3.2354077560e+000	 1.5480256795e+000	-3.3825297668e-002
 3.2185959559e+000	 1.5826834710e+000	-6.4065319137e-002
 3.2013819446e+000	 1.6172199950e+000	-9.3806951214e-002
 3.1837666777e+000	 1.6516284401e+000	-1.2348910145e-001
 3.1657512612e+000	 1.6859019940e+000	-1.5376421770e-001
 3.1473369520e+000	 1.7200338468e+000	-1.8547500491e-001
 3.1285251582e+000	 1.7540171957e+000	-2.1962702347e-001
 3.3231451544e+000	 1.4187890536e+000	 8.9850411542e-002
 3.3078357901e+000	 1.4541247611e+000	 5.9569617511e-002
 3.2921188697e+000	 1.4893656536e+000	 2.8509356619e-002
 3.2759947593e+000	 1.5245049144e+000	-2.6052799226e-003
 3.2594639724e+000	 1.5595357096e+000	-3.3330302731e-002
 3.2425271716e+000	 1.5944511921e+000	-6.3496498786e-002
 3.2251851690e+000	 1.6292445053e+000	-9.3198671264e-002
 3.2074389274e+000	 1.6639087875e+000	-1.2278040573e-001
 3.1892895609e+000	 1.6984371754e+000	-1.5281436268e-001
 3.1707383359e+000	 1.7328228087e+000	-1.8407813650e-001
 3.1517866708e+000	 1.7670588338e+000	-2.1752576137e-001
 3.3476713647e+000	 1.4292603142e+000	 8.7706917483e-002
 3.3322490109e+000	 1.4648568141e+000	 5.8544273462e-002
 3.3164160930e+000	 1.5003577992e+000	 2.7911101586e-002
 3.3001729799e+000	 1.5357564025e+000	-3.0613431841e-003
 3.2835201888e+000	 1.5710457397e+000	-3.3801946859e-002
 3.2664583873e+000	 1.6062189132e+000	-6.4032737252e-002
 3.2489883934e+000	 1.6412690157e+000	-9.3757931708e-002
 3.2311111771e+000	 1.6761891349e+000	-1.2324826118e-001
 3.2128278607e+000	 1.7109723568e+000	-1.5302056993e-001
 3.1941397197e+000	 1.7456117705e+000	-1.8381273201e-001
 3.1750481834e+000	 1.7801004720e+000	-2.1655396863e-001
 3.3721975751e+000	 1.4397315747e+000	 8.4882356526e-002
 3.3566622317e+000	 1.4755888670e+000	 5.6818723723e-002
 3.3407133163e+000	 1.5113499448e+000	 2.6769097672e-002
 3.3243512004e+000	 1.5470078906e+000	-4.3822891370e-003
 3.3075764053e+000	 1.5825557699e+000	-3.5419324199e-002
 3.2903896030e+000	 1.6179866343e+000	-6.5896057483e-002
 3.2727916178e+000	 1.6532935261e+000	-9.5746491562e-002
 3.2547834267e+000	 1.6884694823e+000	-1.2519050193e-001
 3.2363661604e+000	 1.7235075382e+000	-1.5471267048e-001
 3.2175411036e+000	 1.7584007324e+000	-1.8503617391e-001
 3.1983096960e+000	 1.7931421101e+000	-2.1709181451e-001
 2.9656945701e+000	 1.6627257286e+000	-2.4003043902e-001
 2.9474837982e+000	 1.6947979300e+000	-2.7837488182e-001
 2.9288992217e+000	 1.7267164490e+000	-3.1420111329e-001
 2.9099426108e+000	 1.7584748791e+000	-3.4827089007e-001
 2.8906158798e+000	 1.7900668359e+000	-3.8133622350e-001
 2.8709210869e+000	 1.8214859618e+000	-4.1410765533e-001
 2.8508604341e+000	 1.8527259292e+000	-4.4722071327e-001
 2.8304362665e+000	 1.8837804452e+000	-4.8120078775e-001
 2.8096510718e+000	 1.9146432551e+000	-5.1642669312e-001
 2.7885074799e+000	 1.9453081468e+000	-5.5309319747e-001
 2.7670082615e+000	 1.9757689547e+000	-5.9117282355e-001
 2.9889560827e+000	 1.6757673668e+000	-2.3819303419e-001
 2.9706024740e+000	 1.7080911274e+000	-2.7606555539e-001
 2.9518721289e+000	 1.7402600002e+000	-3.1094682092e-001
 2.9327668313e+000	 1.7722675285e+000	-3.4383882023e-001
 2.9132885105e+000	 1.8041072778e+000	-3.7574077931e-001
 2.8934392409e+000	 1.8357728405e+000	-4.0761545583e-001
 2.8732212418e+000	 1.8672578395e+000	-4.4035347759e-001
 2.8526368766e+000	 1.8985559325e+000	-4.7473597867e-001
 2.8316886526e+000	 1.9296608158e+000	-5.1139581074e-001
 2.8103792203e+000	 1.9605662285e+000	-5.5077762929e-001
 2.7887113722e+000	 1.9912659566e+000	-5.9309717371e-001
 3.0122175953e+000	 1.6888090049e+000	-2.3568934922e-001
 2.9937211499e+000	 1.7213843248e+000	-2.7295222327e-001
 2.9748450361e+000	 1.7538035515e+000	-3.0687341618e-001
 2.9555910517e+000	 1.7860601779e+000	-3.3867764506e-001
 2.9359611411e+000	 1.8181477197e+000	-3.6959422169e-001
 2.9159573949e+000	 1.8500597192e+000	-4.0082131663e-001
 2.8955820494e+000	 1.8817897498e+000	-4.3348812407e-001
 2.8748374867e+000	 1.9133314198e+000	-4.6861519515e-001
 2.8537262335e+000	 1.9446783765e+000	-5.0707323234e-001
 2.8322509608e+000	 1.9758243102e+000	-5.4954066029e-001
 2.8104144828e+000	 2.0067629585e+000	-5.9600477372e-001
 3.0354791079e+000	 1.7018506431e+000	-2.3266295538e-001
 3.0168398258e+000	 1.7346775222e+000	-2.6921505008e-001
 2.9978179433e+000	 1.7673471027e+000	-3.0219227314e-001
 2.9784152722e+000	 1.7998528273e+000	-3.3302525510e-001
 2.9586337718e+000	 1.8321881615e+000	-3.6315699265e-001
 2.9384755489e+000	 1.8643465979e+000	-3.9400502771e-001
 2.9179428571e+000	 1.8963216601e+000	-4.2692137829e-001
 2.8970380968e+000	 1.9281069071e+000	-4.6315050304e-001
 2.8757638143e+000	 1.9596959371e+000	-5.0378560717e-001
 2.8541227012e+000	 1.9910823918e+000	-5.4972362196e-001
 2.8321175935e+000	 2.0222599604e+000	-5.9674053230e-001
 3.0587406205e+000	 1.7148922812e+000	-2.2929986421e-001
 3.0399585016e+000	 1.7479707196e+000	-2.6507436642e-001
 3.0207908505e+000	 1.7808906540e+000	-2.9715262120e-001
 3.0012394926e+000	 1.8136454768e+000	-3.2715505402e-001
 2.9813064025e+000	 1.8462286034e+000	-3.5672267909e-001
 2.9609937029e+000	 1.8786334766e+000	-3.8747713577e-001
 2.9403036647e+000	 1.9108535705e+000	-4.2097832148e-001
 2.9192387069e+000	 1.9428823945e+000	-4.5867991720e-001
 2.8978013951e+000	 1.9747134978e+000	-5.0188312926e-001
 2.8759944416e+000	 2.0063404735e+000	-5.5129542207e-001
 2.8538207042e+000	 2.0377569623e+000	-5.9506946515e-001
 3.0820021331e+000	 1.7279339194e+000	-2.2582567027e-001
 3.0630771775e+000	 1.7612639170e+000	-2.6078764601e-001
 3.0437637577e+000	 1.7944342052e+000	-2.9203835227e-001
 3.0240637131e+000	 1.8274381262e+000	-3.2137259217e-001
 3.0039790332e+000	 1.8602690453e+000	-3.5061446977e-001
 2.9835118568e+000	 1.8929203553e+000	-3.8157522278e-001
 2.9626644724e+000	 1.9253854808e+000	-4.1600848940e-001
 2.9414393170e+000	 1.9576578818e+000	-4.5556332041e-001
 2.9198389759e+000	 1.9897310585e+000	-5.0173527690e-001
 2.8978661821e+000	 2.0215985551e+000	-5.5130328856e-001
 2.8755238149e+000	 2.0532539642e+000	-5.9152865867e-001
 3.1052636456e+000	 1.7409755575e+000	-2.2250267945e-001
 3.0861958534e+000	 1.7745571144e+000	-2.5664646897e-001
 3.0667366648e+000	 1.8079777565e+000	-2.8716481472e-001
 3.0468879335e+000	 1.8412307756e+000	-3.1601218760e-001
 3.0266516638e+000	 1.8743094872e+000	-3.4518160080e-001
 3.0060300108e+000	 1.9072072340e+000	-3.7666017393e-001
 2.9850252801e+000	 1.9399173911e+000	-4.1238196164e-001
 2.9636399271e+000	 1.9724333691e+000	-4.5417837385e-001
 2.9418765567e+000	 2.0047486192e+000	-5.0351076068e-001
 2.9197379225e+000	 2.0368566368e+000	-5.4950953589e-001
 2.8972269256e+000	 2.0687509661e+000	-5.8665733863e-001
 3.1285251582e+000	 1.7540171957e+000	-2.1962702347e-001
 3.1093145292e+000	 1.7878503118e+000	-2.5297347185e-001
 3.0897095720e+000	 1.8215213077e+000	-2.8287559468e-001
 3.0697121540e+000	 1.8550234251e+000	-3.1143353529e-001
 3.0493242945e+000	 1.8883499290e+000	-3.4079579016e-001
 3.0285481648e+000	 1.9214941128e+000	-3.7311243552e-001
 3.0073860877e+000	 1.9544493014e+000	-4.1048544193e-001
 2.9858405372e+000	 1.9872088564e+000	-4.5491641956e-001
 2.9639141376e+000	 2.0197661799e+000	-5.0456086698e-001
 2.9416096629e+000	 2.0521147185e+000	-5.4646602159e-001
 2.9189300362e+000	 2.0842479680e+000	-5.8099578913e-001
 3.1517866708e+000	 1.7670588338e+000	-2.1752576137e-001
 3.1324332051e+000	 1.8011435092e+000	-2.5011928508e-001
 3.1126824792e+000	 1.8350648590e+000	-2.7953928546e-001
 3.0925363745e+000	 1.8688160745e+000	-3.0801830524e-001
 3.0719969252e+000	 1.9023903709e+000	-3.3784766174e-001
 3.0510663188e+000	 1.9357809915e+000	-3.7132826342e-001
 3.0297468954e+000	 1.9689812117e+000	-4.1071832992e-001
 3.0080411473e+000	 2.0019843437e+000	-4.5814176301e-001
 2.9859517184e+000	 2.0347837405e+000	-5.0442801512e-001
 2.9634814034e+000	 2.0673728001e+000	-5.4272501562e-001
 2.9406331469e+000	 2.0997449699e+000	-5.7508426692e-001
 3.1750481834e+000	 1.7801004720e+000	-2.1655396863e-001
 3.1555518810e+000	 1.8144367066e+000	-2.4845945857e-001
 3.1356553864e+000	 1.8486084102e+000	-2.7754624562e-001
 3.1153605949e+000	 1.8826087239e+000	-3.0616672979e-001
 3.0946695558e+000	 1.9164308128e+000	-3.3674315970e-001
 3.0735844728e+000	 1.9500678702e+000	-3.7171596245e-001
 3.0521077031e+000	 1.9835131220e+000	-4.1348878477e-001
 3.0302417574e+000	 2.0167598311e+000	-4.6179503623e-001
 3.0079892992e+000	 2.0498013012e+000	-5.0367664747e-001
 2.9853531438e+000	 2.0826308818e+000	-5.3883816161e-001
 2.9623362576e+000	 2.1152419718e+000	-5.6946191129e-001
 3.1983096960e+000	 1.7931421101e+000	-2.1709181451e-001
 3.1786705568e+000	 1.8277299040e+000	-2.4839137592e-001
 3.1586282936e+000	 1.8621519615e+000	-2.7730534633e-001
 3.1381848154e+000	 1.8964013734e+000	-3.0629418100e-001
 3.1173421865e+000	 1.9304712547e+000	-3.3789995327e-001
 3.0961026268e+000	 1.9643547489e+000	-3.7469211724e-001
 3.0744685107e+000	 1.9980450323e+000	-4.1920978108e-001
 3.0524423675e+000	 2.0315353184e+000	-4.6491021189e-001
 3.0300268800e+000	 2.0648188619e+000	-5.0287008184e-001
 3.0072248842e+000	 2.0978889635e+000	-5.3535543298e-001
 2.9840393683e+000	 2.1307389737e+000	-5.6466564970e-001
 2.7670082615e+000	 1.9757689547e+000	-5.9117282355e-001
 2.7451563267e+000	 2.0060195626e+000	-6.3323162184e-001
 2.7229547217e+000	 2.0360539061e+000	-6.7183700304e-001
 2.7004066295e+000	 2.0658659783e+000	-7.0399240912e-001
 2.6775153696e+000	 2.0954498343e+000	-7.3260454451e-001
 2.6542843967e+000	 2.1247995951e+000	-7.5901547891e-001
 2.6307172986e+000	 2.1539094513e+000	-7.7777164425e-001
 2.6068177947e+000	 2.1827736670e+000	-7.8940984365e-001
 2.5825897342e+000	 2.2113865834e+000	-7.9563944835e-001
 2.5580370939e+000	 2.2397426226e+000	-7.9823699405e-001
 2.5331639763e+000	 2.2678362910e+000	-7.9902402735e-001
 2.7887113722e+000	 1.9912659566e+000	-5.9309717371e-001
 2.7666880411e+000	 2.0217538360e+000	-6.3620084274e-001
 2.7443122971e+000	 2.0520237548e+000	-6.7124923528e-001
 2.7215873483e+000	 2.0820696589e+000	-7.0012716160e-001
 2.6985165402e+000	 2.1118855567e+000	-7.2539883988e-001
 2.6751033544e+000	 2.1414655232e+000	-7.4952638214e-001
 2.6513514071e+000	 2.1708037034e+000	-7.7258361727e-001
 2.6272644467e+000	 2.1998943164e+000	-7.8839427381e-001
 2.6028463527e+000	 2.2287316591e+000	-7.9758015175e-001
 2.5781011331e+000	 2.2573101097e+000	-8.0150878390e-001
 2.5530329225e+000	 2.2856241316e+000	-8.0160142208e-001
 2.8104144828e+000	 2.0067629585e+000	-5.9600477372e-001
 2.7882197555e+000	 2.0374881094e+000	-6.3618536615e-001
 2.7656698726e+000	 2.0679936035e+000	-6.6816766228e-001
 2.7427680671e+000	 2.0982733394e+000	-6.9428010505e-001
 2.7195177107e+000	 2.1283212791e+000	-7.1676008350e-001
 2.6959223122e+000	 2.1581314513e+000	-7.3774135731e-001
 2.6719855156e+000	 2.1876979556e+000	-7.5924183468e-001
 2.6477110988e+000	 2.2170149659e+000	-7.7964043067e-001
 2.6231029713e+000	 2.2460767348e+000	-7.9255281689e-001
 2.5981651723e+000	 2.2748775969e+000	-7.9868163382e-001
 2.5729018686e+000	 2.3034119723e+000	-7.9906055848e-001
 2.8321175935e+000	 2.0222599604e+000	-5.9674053230e-001
 2.8097514699e+000	 2.0532223829e+000	-6.3370408656e-001
 2.7870274480e+000	 2.0839634522e+000	-6.6309898433e-001
 2.7639487859e+000	 2.1144770200e+000	-6.8694400398e-001
 2.7405188813e+000	 2.1447570015e+000	-7.0716512322e-001
 2.7167412699e+000	 2.1747973795e+000	-7.2558298015e-001
 2.6926196241e+000	 2.2045922077e+000	-7.4390069973e-001
 2.6681577508e+000	 2.2341356153e+000	-7.6369218038e-001
 2.6433595898e+000	 2.2634218105e+000	-7.8107471325e-001
 2.6182292115e+000	 2.2924450840e+000	-7.9026241344e-001
 2.5927708148e+000	 2.3211998129e+000	-7.9189337234e-001
 2.8538207042e+000	 2.0377569623e+000	-5.9506946515e-001
 2.8312831843e+000	 2.0689566563e+000	-6.2927998450e-001
 2.8083850235e+000	 2.0999333008e+000	-6.5655385594e-001
 2.7851295047e+000	 2.1306807005e+000	-6.7861552938e-001
 2.7615200518e+000	 2.1611927239e+000	-6.9709476525e-001
 2.7375602276e+000	 2.1914633076e+000	-7.1351408451e-001
 2.7132537326e+000	 2.2214864598e+000	-7.2927659662e-001
 2.6886044029e+000	 2.2512562648e+000	-7.4565430368e-001
 2.6636162084e+000	 2.2807668862e+000	-7.6368481321e-001
 2.6382932507e+000	 2.3100125711e+000	-7.7677986748e-001
 2.6126397609e+000	 2.3389876536e+000	-7.8061403312e-001
 2.8755238149e+000	 2.0532539642e+000	-5.9152865867e-001
 2.8528148987e+000	 2.0846909297e+000	-6.2343900089e-001
 2.8297425989e+000	 2.1159031495e+000	-6.4904570463e-001
 2.8063102236e+000	 2.1468843811e+000	-6.6979402076e-001
 2.7825212224e+000	 2.1776284463e+000	-6.8703247785e-001
 2.7583791854e+000	 2.2081292357e+000	-7.0200027292e-001
 2.7338878411e+000	 2.2383807119e+000	-7.1581505312e-001
 2.7090510549e+000	 2.2683769142e+000	-7.2946119028e-001
 2.6838728269e+000	 2.2981119619e+000	-7.4377864890e-001
 2.6583572899e+000	 2.3275800583e+000	-7.5878185034e-001
 2.6325087071e+000	 2.3567754942e+000	-7.6575605273e-001
 2.8972269256e+000	 2.0687509661e+000	-5.8665733863e-001
 2.8743466130e+000	 2.1004252032e+000	-6.1670890738e-001
 2.8511001744e+000	 2.1318729982e+000	-6.4108954675e-001
 2.8274909424e+000	 2.1630880617e+000	-6.6098024639e-001
 2.8035223929e+000	 2.1940641687e+000	-6.7746309462e-001
 2.7791981431e+000	 2.2247951638e+000	-6.9150856120e-001
 2.7545219496e+000	 2.2552749641e+000	-7.0396318415e-001
 2.7294977070e+000	 2.2854975637e+000	-7.1553776690e-001
 2.7041294454e+000	 2.3154570376e+000	-7.2679619001e-001
 2.6784213290e+000	 2.3451475454e+000	-7.3814493947e-001
 2.6523776532e+000	 2.3745633349e+000	-7.4786940534e-001
 2.9189300362e+000	 2.0842479680e+000	-5.8099578913e-001
 2.8958783274e+000	 2.1161594766e+000	-6.0961817262e-001
 2.8724577498e+000	 2.1478428469e+000	-6.3320080049e-001
 2.8486716612e+000	 2.1792917422e+000	-6.5267516188e-001
 2.8245235635e+000	 2.2104998912e+000	-6.6887151739e-001
 2.8000171008e+000	 2.2414610919e+000	-6.8250602405e-001
 2.7751560581e+000	 2.2721692162e+000	-6.9416827817e-001
 2.7499443590e+000	 2.3026182132e+000	-7.0430938649e-001
 2.7243860640e+000	 2.3328021133e+000	-7.1323067406e-001
 2.6984853682e+000	 2.3627150325e+000	-7.2107313492e-001
 2.6722465994e+000	 2.3923511755e+000	-7.2780772798e-001
 2.9406331469e+000	 2.0997449699e+000	-5.7508426692e-001
 2.9174100418e+000	 2.1318937500e+000	-6.0269482493e-001
 2.8938153252e+000	 2.1638126956e+000	-6.2589409607e-001
 2.8698523800e+000	 2.1954954228e+000	-6.4537866717e-001
 2.8455247340e+000	 2.2269356136e+000	-6.6174141870e-001
 2.8208360586e+000	 2.2581270200e+000	-6.7545844157e-001
 2.7957901666e+000	 2.2890634683e+000	-6.8687638600e-001
 2.7703910110e+000	 2.3197388626e+000	-6.9620035735e-001
 2.7446426825e+000	 2.3501471890e+000	-7.0348247186e-001
 2.7185494074e+000	 2.3802825197e+000	-7.0861118253e-001
 2.6921155456e+000	 2.4101390162e+000	-7.1130148190e-001
 2.9623362576e+000	 2.1152419718e+000	-5.6946191129e-001
 2.9389417562e+000	 2.1476280235e+000	-5.9646531137e-001
 2.9151729007e+000	 2.1797825443e+000	-6.1968208354e-001
 2.8910330989e+000	 2.2116991033e+000	-6.3958836205e-001
 2.8665259046e+000	 2.2433713360e+000	-6.5655394400e-001
 2.8416550163e+000	 2.2747929482e+000	-6.7082894672e-001
 2.8164242751e+000	 2.3059577205e+000	-6.8253091189e-001
 2.7908376631e+000	 2.3368595121e+000	-6.9163247595e-001
 2.7648993011e+000	 2.3674922647e+000	-6.9794972452e-001
 2.7386134466e+000	 2.3978500068e+000	-7.0113134572e-001
 2.7119844917e+000	 2.4279268568e+000	-7.0064869335e-001
 2.9840393683e+000	 2.1307389737e+000	-5.6466564970e-001
 2.9604734706e+000	 2.1633622969e+000	-5.9145335349e-001
 2.9365304761e+000	 2.1957523930e+000	-6.1507423801e-001
 2.9122138177e+000	 2.2279027839e+000	-6.3579830016e-001
 2.8875270751e+000	 2.2598070584e+000	-6.5378641339e-001
 2.8624739740e+000	 2.2914588763e+000	-6.6907667360e-001
 2.8370583836e+000	 2.3228519726e+000	-6.8157120683e-001
 2.8112843151e+000	 2.3539801615e+000	-6.9102356341e-001
 2.7851559196e+000	 2.3848373405e+000	-6.9702682114e-001
 2.7586774858e+000	 2.4154174939e+000	-6.9900251732e-001
 2.7318534379e+000	 2.4457146975e+000	-6.9619052531e-001
 2.5331639763e+000	 2.2678362910e+000	-7.9902402735e-001
 2.5079784091e+000	 2.2956580300e+000	-8.0520988363e-001
 2.4824810320e+000	 2.3232067631e+000	-8.2091012210e-001
 2.4566763103e+000	 2.3504772753e+000	-8.4337347489e-001
 2.4305688249e+000	 2.3774644495e+000	-8.6990112045e-001
 2.4041632699e+000	 2.4041632699e+000	-8.9783253550e-001
 2.3774644495e+000	 2.4305688249e+000	-9.2453166513e-001
 2.3504772753e+000	 2.4566763103e+000	-9.4737359981e-001
 2.3232067631e+000	 2.4824810320e+000	-9.6373194213e-001
 2.2956580300e+000	 2.5079784091e+000	-9.7096703874e-001
 2.2678362910e+000	 2.5331639763e+000	-9.6641524359e-001
 2.5530329225e+000	 2.2856241316e+000	-8.0160142208e-001
 2.5276498115e+000	 2.3136640913e+000	-8.0550132022e-001
 2.5019524450e+000	 2.3414289037e+000	-8.1826227073e-001
 2.4759453232e+000	 2.3689133129e+000	-8.3749113012e-001
 2.4496330630e+000	 2.3961121619e+000	-8.6083892648e-001
 2.4230203952e+000	 2.4230203952e+000	-8.8598488488e-001
 2.3961121619e+000	 2.4496330630e+000	-9.1062081615e-001
 2.3689133129e+000	 2.4759453232e+000	-9.3243607007e-001
 2.3414289037e+000	 2.5019524450e+000	-9.4910324773e-001
 2.3136640913e+000	 2.5276498115e+000	-9.5826485994e-001
 2.2856241316e+000	 2.5530329225e+000	-9.5752110896e-001
 2.5729018686e+000	 2.3034119723e+000	-7.9906055848e-001
 2.5473212140e+000	 2.3316701525e+000	-8.0167170322e-001
 2.5214238580e+000	 2.3596510443e+000	-8.1239280706e-001
 2.4952143361e+000	 2.3873493506e+000	-8.2917223527e-001
 2.4686973011e+000	 2.4147598742e+000	-8.4999431202e-001
 2.4418775206e+000	 2.4418775206e+000	-8.7286147835e-001
 2.4147598742e+000	 2.4686973011e+000	-8.9577686023e-001
 2.3873493506e+000	 2.4952143361e+000	-9.1672746039e-001
 2.3596510443e+000	 2.5214238580e+000	-9.3366818125e-001
 2.3316701525e+000	 2.5473212140e+000	-9.4450687763e-001
 2.3034119723e+000	 2.5729018686e+000	-9.4709062767e-001
 2.5927708148e+000	 2.3211998129e+000	-7.9189337234e-001
 2.5669926164e+000	 2.3496762138e+000	-7.9419749536e-001
 2.5408952710e+000	 2.3778731848e+000	-8.0376661508e-001
 2.5144833490e+000	 2.4057853882e+000	-8.1887450212e-001
 2.4877615391e+000	 2.4334075865e+000	-8.3782272119e-001
 2.4607346459e+000	 2.4607346459e+000	-8.5892087786e-001
 2.4334075865e+000	 2.4877615391e+000	-8.8046732367e-001
 2.4057853882e+000	 2.5144833490e+000	-9.0073054657e-001
 2.3778731848e+000	 2.5408952710e+000	-9.1793146675e-001
 2.3496762138e+000	 2.5669926164e+000	-9.3022684892e-001
 2.3211998129e+000	 2.5927708148e+000	-9.3569403126e-001
 2.6126397609e+000	 2.3389876536e+000	-7.8061403312e-001
 2.5866640188e+000	 2.3676822751e+000	-7.8357783363e-001
 2.5603666840e+000	 2.3960953254e+000	-7.9287165768e-001
 2.5337523619e+000	 2.4242214259e+000	-8.0707909083e-001
 2.5068257772e+000	 2.4520552989e+000	-8.2480338121e-001
 2.4795917712e+000	 2.4795917712e+000	-8.4464572854e-001
 2.4520552989e+000	 2.5068257772e+000	-8.6518408124e-001
 2.4242214259e+000	 2.5337523619e+000	-8.8495268264e-001
 2.3960953254e+000	 2.5603666840e+000	-9.0242259957e-001
 2.3676822751e+000	 2.5866640188e+000	-9.1598345710e-001
 2.3389876536e+000	 2.6126397609e+000	-9.2392659177e-001
 2.6325087071e+000	 2.3567754942e+000	-7.6575605273e-001
 2.6063354212e+000	 2.3856883364e+000	-7.7033151416e-001
 2.5798380970e+000	 2.4143174660e+000	-7.8021584452e-001
 2.5530213748e+000	 2.4426574635e+000	-7.9428736816e-001
 2.5258900153e+000	 2.4707030112e+000	-8.1143595909e-001
 2.4984488965e+000	 2.4984488965e+000	-8.3053932249e-001
 2.4707030112e+000	 2.5258900153e+000	-8.5043983613e-001
 2.4426574635e+000	 2.5530213748e+000	-8.6992220673e-001
 2.4143174660e+000	 2.5798380970e+000	-8.8769218843e-001
 2.3856883364e+000	 2.6063354212e+000	-9.0235660043e-001
 2.3567754942e+000	 2.6325087071e+000	-9.1240486853e-001
 2.6523776532e+000	 2.3745633349e+000	-7.4786940534e-001
 2.6260068236e+000	 2.4036943977e+000	-7.5499399050e-001
 2.5993095100e+000	 2.4325396066e+000	-7.6632391544e-001
 2.5722903877e+000	 2.4610935011e+000	-7.8101768337e-001
 2.5449542533e+000	 2.4893507235e+000	-7.9823723767e-001
 2.5173060218e+000	 2.5173060218e+000	-8.1712218338e-001
 2.4893507235e+000	 2.5449542533e+000	-8.3676462206e-001
 2.4610935011e+000	 2.5722903877e+000	-8.5618487000e-001
 2.4325396066e+000	 2.5993095100e+000	-8.7430832109e-001
 2.4036943977e+000	 2.6260068236e+000	-8.8994370512e-001
 2.3745633349e+000	 2.6523776532e+000	-9.0176297926e-001
 2.6722465994e+000	 2.3923511755e+000	-7.2780772798e-001
 2.6456782260e+000	 2.4217004589e+000	-7.3811438460e-001
 2.6187809230e+000	 2.4507617471e+000	-7.5173433875e-001
 2.5915594006e+000	 2.4795295388e+000	-7.6780216074e-001
 2.5640184914e+000	 2.5079984359e+000	-7.8573781012e-001
 2.5361631471e+000	 2.5361631471e+000	-8.0492867093e-001
 2.5079984359e+000	 2.5640184914e+000	-8.2470232638e-001
 2.4795295388e+000	 2.5915594006e+000	-8.4430028763e-001
 2.4507617471e+000	 2.6187809230e+000	-8.6285295280e-001
 2.4217004589e+000	 2.6456782260e+000	-8.7935606122e-001
 2.3923511755e+000	 2.6722465994e+000	-8.9257164224e-001
 2.6921155456e+000	 2.4101390162e+000	-7.1130148190e-001
 2.6653496285e+000	 2.4397065202e+000	-7.2025250985e-001
 2.6382523360e+000	 2.4689838877e+000	-7.3699622345e-001
 2.6108284135e+000	 2.4979655764e+000	-7.5518350798e-001
 2.5830827295e+000	 2.5266461482e+000	-7.7447879177e-001
 2.5550202725e+000	 2.5550202725e+000	-7.9450360417e-001
 2.5266461482e+000	 2.5830827295e+000	-8.1480723312e-001
 2.4979655764e+000	 2.6108284135e+000	-8.3483841045e-001
 2.4689838877e+000	 2.6382523360e+000	-8.5391831596e-001
 2.4397065202e+000	 2.6653496285e+000	-8.7121518023e-001
 2.4101390162e+000	 2.6921155456e+000	-8.8419325716e-001
 2.7119844917e+000	 2.4279268568e+000	-7.0064869335e-001
 2.6850210309e+000	 2.4577125815e+000	-7.0504581446e-001
 2.6577237489e+000	 2.4872060283e+000	-7.2266624492e-001
 2.6300974264e+000	 2.5164016141e+000	-7.4371183960e-001
 2.6021469675e+000	 2.5452938605e+000	-7.6500854854e-001
 2.5738773978e+000	 2.5738773978e+000	-7.8639890250e-001
 2.5452938605e+000	 2.6021469675e+000	-8.0764058492e-001
 2.5164016141e+000	 2.6300974264e+000	-8.2837601641e-001
 2.4872060283e+000	 2.6577237489e+000	-8.4810335021e-001
 2.4577125815e+000	 2.6850210309e+000	-8.6534080325e-001
 2.4279268568e+000	 2.7119844917e+000	-8.7706668661e-001
 2.7318534379e+000	 2.4457146975e+000	-6.9619052531e-001
 2.7046924333e+000	 2.4757186428e+000	-6.9689678860e-001
 2.6771951619e+000	 2.5054281689e+000	-7.1028817544e-001
 2.6493664393e+000	 2.5348376517e+000	-7.3394151465e-001
 2.6212112056e+000	 2.5639415729e+000	-7.5787944100e-001
 2.5927345231e+000	 2.5927345231e+000	-7.8117024370e-001
 2.5639415729e+000	 2.6212112056e+000	-8.0376716286e-001
 2.5348376517e+000	 2.6493664393e+000	-8.2549322074e-001
 2.5054281689e+000	 2.6771951619e+000	-8.4574244762e-001
 2.4757186428e+000	 2.7046924333e+000	-8.6148648961e-001
 2.4457146975e+000	 2.7318534379e+000	-8.7212114616e-001
 2.2678362910e+000	 2.5331639763e+000	-9.6641524359e-001
 2.2397426226e+000	 2.5580370939e+000	-9.5284033935e-001
 2.2113865834e+000	 2.5825897342e+000	-9.3651383854e-001
 2.1827736670e+000	 2.6068177947e+000	-9.1984392744e-001
 2.1539094513e+000	 2.6307172986e+000	-9.0501328677e-001
 2.1247995951e+000	 2.6542843967e+000	-8.9396691084e-001
 2.0954498343e+000	 2.6775153696e+000	-8.8814519637e-001
 2.0658659783e+000	 2.7004066295e+000	-8.8777481868e-001
 2.0360539061e+000	 2.7229547217e+000	-8.9526760131e-001
 2.0060195626e+000	 2.7451563267e+000	-9.1339569043e-001
 1.9757689547e+000	 2.7670082615e+000	-9.2230404012e-001
 2.2856241316e+000	 2.5530329225e+000	-9.5752110896e-001
 2.2573101097e+000	 2.5781011331e+000	-9.4868872684e-001
 2.2287316591e+000	 2.6028463527e+000	-9.3652659281e-001
 2.1998943164e+000	 2.6272644467e+000	-9.2284819023e-001
 2.1708037034e+000	 2.6513514071e+000	-9.0924469970e-001
 2.1414655232e+000	 2.6751033544e+000	-8.9690954928e-001
 2.1118855567e+000	 2.6985165402e+000	-8.8551311116e-001
 2.0820696589e+000	 2.7215873483e+000	-8.7684479141e-001
 2.0520237548e+000	 2.7443122971e+000	-8.7330634473e-001
 2.0217538360e+000	 2.7666880411e+000	-8.7727695727e-001
 1.9912659566e+000	 2.7887113722e+000	-8.8818569040e-001
 2.3034119723e+000	 2.5729018686e+000	-9.4709062767e-001
 2.2748775969e+000	 2.5981651723e+000	-9.4245531410e-001
 2.2460767348e+000	 2.6231029713e+000	-9.3403084842e-001
 2.2170149659e+000	 2.6477110988e+000	-9.2304419750e-001
 2.1876979556e+000	 2.6719855156e+000	-9.1043464248e-001
 2.1581314513e+000	 2.6959223122e+000	-8.9542378004e-001
 2.1283212791e+000	 2.7195177107e+000	-8.7902611171e-001
 2.0982733394e+000	 2.7427680671e+000	-8.6324714752e-001
 2.0679936035e+000	 2.7656698726e+000	-8.5009032437e-001
 2.0374881094e+000	 2.7882197555e+000	-8.4155347821e-001
 2.0067629585e+000	 2.8104144828e+000	-8.3962523303e-001
 2.3211998129e+000	 2.5927708148e+000	-9.3569403126e-001
 2.2924450840e+000	 2.6182292115e+000	-9.3474869122e-001
 2.2634218105e+000	 2.6433595898e+000	-9.2966943284e-001
 2.2341356153e+000	 2.6681577508e+000	-9.2109921498e-001
 2.2045922077e+000	 2.6926196241e+000	-9.0801427841e-001
 2.1747973795e+000	 2.7167412699e+000	-8.9045807310e-001
 2.1447570015e+000	 2.7405188813e+000	-8.7001652809e-001
 2.1144770200e+000	 2.7639487859e+000	-8.4829247545e-001
 2.0839634522e+000	 2.7870274480e+000	-8.2690277762e-001
 2.0532223829e+000	 2.8097514699e+000	-8.0747531236e-001
 2.0222599604e+000	 2.8321175935e+000	-7.9164583554e-001
 2.3389876536e+000	 2.6126397609e+000	-9.2392659177e-001
 2.3100125711e+000	 2.6382932507e+000	-9.2620273886e-001
 2.2807668862e+000	 2.6636162084e+000	-9.2411103797e-001
 2.2512562648e+000	 2.6886044029e+000	-9.1662586900e-001
 2.2214864598e+000	 2.7132537326e+000	-9.0264716564e-001
 2.1914633076e+000	 2.7375602276e+000	-8.8329591112e-001
 2.1611927239e+000	 2.7615200518e+000	-8.5975195785e-001
 2.1306807005e+000	 2.7851295047e+000	-8.3322731025e-001
 2.0999333008e+000	 2.8083850235e+000	-8.0496378392e-001
 2.0689566563e+000	 2.8312831843e+000	-7.7623048342e-001
 2.0377569623e+000	 2.8538207042e+000	-7.4832111903e-001
 2.3567754942e+000	 2.6325087071e+000	-9.1240486853e-001
 2.3275800583e+000	 2.6583572899e+000	-9.1747283805e-001
 2.2981119619e+000	 2.6838728269e+000	-9.1734164489e-001
 2.2683769142e+000	 2.7090510549e+000	-9.0987066592e-001
 2.2383807119e+000	 2.7338878411e+000	-8.9556332143e-001
 2.2081292357e+000	 2.7583791854e+000	-8.7515662030e-001
 2.1776284463e+000	 2.7825212224e+000	-8.4943626850e-001
 2.1468843811e+000	 2.8063102236e+000	-8.1923507917e-001
 2.1159031495e+000	 2.8297425989e+000	-7.8543114359e-001
 2.0846909297e+000	 2.8528148987e+000	-7.4894578175e-001
 2.0532539642e+000	 2.8755238149e+000	-7.1074129308e-001
 2.3745633349e+000	 2.6523776532e+000	-9.0176297926e-001
 2.3451475454e+000	 2.6784213290e+000	-9.0889402877e-001
 2.3154570376e+000	 2.7041294454e+000	-9.0908691052e-001
 2.2854975637e+000	 2.7294977070e+000	-9.0200644737e-001
 2.2552749641e+000	 2.7545219496e+000	-8.8792947935e-001
 2.2247951638e+000	 2.7791981431e+000	-8.6719644733e-001
 2.1940641687e+000	 2.8035223929e+000	-8.4021062856e-001
 2.1630880617e+000	 2.8274909424e+000	-8.0743707767e-001
 2.1318729982e+000	 2.8511001744e+000	-7.6940128940e-001
 2.1004252032e+000	 2.8743466130e+000	-7.2668760182e-001
 2.0687509661e+000	 2.8972269256e+000	-6.7993736081e-001
 2.3923511755e+000	 2.6722465994e+000	-8.9257164224e-001
 2.3627150325e+000	 2.6984853682e+000	-8.9984491644e-001
 2.3328021133e+000	 2.7243860640e+000	-9.0043503224e-001
 2.3026182132e+000	 2.7499443590e+000	-8.9414389926e-001
 2.2721692162e+000	 2.7751560581e+000	-8.8085022780e-001
 2.2414610919e+000	 2.8000171008e+000	-8.6050966199e-001
 2.2104998912e+000	 2.8245235635e+000	-8.3315456561e-001
 2.1792917422e+000	 2.8486716612e+000	-7.9889347411e-001
 2.1478428469e+000	 2.8724577498e+000	-7.5791022892e-001
 2.1161594766e+000	 2.8958783274e+000	-7.1046281292e-001
 2.0842479680e+000	 2.9189300362e+000	-6.5688190831e-001
 2.4101390162e+000	 2.6921155456e+000	-8.8419325716e-001
 2.3802825197e+000	 2.7185494074e+000	-8.9119249229e-001
 2.3501471890e+000	 2.7446426825e+000	-8.9243797308e-001
 2.3197388626e+000	 2.7703910110e+000	-8.8733274049e-001
 2.2890634683e+000	 2.7957901666e+000	-8.7536917185e-001
 2.2581270200e+000	 2.8208360586e+000	-8.5612968405e-001
 2.2269356136e+000	 2.8455247340e+000	-8.2928705008e-001
 2.1954954228e+000	 2.8698523800e+000	-7.9460434195e-001
 2.1638126956e+000	 2.8938153252e+000	-7.5193451627e-001
 2.1318937500e+000	 2.9174100418e+000	-7.0121966150e-001
 2.0997449699e+000	 2.9406331469e+000	-6.4248992856e-001
 2.4279268568e+000	 2.7119844917e+000	-8.7706668661e-001
 2.3978500068e+000	 2.7386134466e+000	-8.8392802085e-001
 2.3674922647e+000	 2.7648993011e+000	-8.8608811421e-001
 2.3368595121e+000	 2.7908376631e+000	-8.8256293306e-001
 2.3059577205e+000	 2.8164242751e+000	-8.7247011704e-001
 2.2747929482e+000	 2.8416550163e+000	-8.5503023317e-001
 2.2433713360e+000	 2.8665259046e+000	-8.2956760328e-001
 2.2116991033e+000	 2.8910330989e+000	-7.9551071769e-001
 2.1797825443e+000	 2.9151729007e+000	-7.5239225163e-001
 2.1476280235e+000	 2.9389417562e+000	-6.9984870358e-001
 2.1152419718e+000	 2.9623362576e+000	-6.3761967775e-001
 2.4457146975e+000	 2.7318534379e+000	-8.7212114616e-001
 2.4154174939e+000	 2.7586774858e+000	-8.7898474294e-001
 2.3848373405e+000	 2.7851559196e+000	-8.8231950358e-001
 2.3539801615e+000	 2.8112843151e+000	-8.8076591233e-001
 2.3228519726e+000	 2.8370583836e+000	-8.7307827423e-001
 2.2914588763e+000	 2.8624739740e+000	-8.5812650080e-001
 2.2598070584e+000	 2.8875270751e+000	-8.3489742861e-001
 2.2279027839e+000	 2.9122138177e+000	-8.0249568351e-001
 2.1957523930e+000	 2.9365304761e+000	-7.6014410719e-001
 2.1633622969e+000	 2.9604734706e+000	-7.0718376567e-001
 2.1307389737e+000	 2.9840393683e+000	-6.4307356264e-001
 1.9757689547e+000	 2.7670082615e+000	-9.2230404012e-001
 1.9453081468e+000	 2.7885074799e+000	-9.0317987720e-001
 1.9146432551e+000	 2.8096510718e+000	-8.8086186285e-001
 1.8837804452e+000	 2.8304362665e+000	-8.5568804292e-001
 1.8527259292e+000	 2.8508604341e+000	-8.2833639665e-001
 1.8214859618e+000	 2.8709210869e+000	-7.9978902324e-001
 1.7900668359e+000	 2.8906158798e+000	-7.7129663942e-001
 1.7584748791e+000	 2.9099426108e+000	-7.4434361204e-001
 1.7267164490e+000	 2.9288992217e+000	-7.2061373636e-001
 1.6947979300e+000	 2.9474837982e+000	-7.0195695627e-001
 1.6627257286e+000	 2.9656945701e+000	-6.9035720736e-001
 1.9912659566e+000	 2.7887113722e+000	-8.8818569040e-001
 1.9605662285e+000	 2.8103792203e+000	-8.8382263387e-001
 1.9296608158e+000	 2.8316886526e+000	-8.7296519136e-001
 1.8985559325e+000	 2.8526368766e+000	-8.5642035171e-001
 1.8672578395e+000	 2.8732212418e+000	-8.3533106555e-001
 1.8357728405e+000	 2.8934392409e+000	-8.1113812621e-001
 1.8041072778e+000	 2.9132885105e+000	-7.8554244656e-001
 1.7722675285e+000	 2.9327668313e+000	-7.6046796652e-001
 1.7402600002e+000	 2.9518721289e+000	-7.3802541149e-001
 1.7080911274e+000	 2.9706024740e+000	-7.2047710678e-001
 1.6757673668e+000	 2.9889560827e+000	-7.1020303658e-001
 2.0067629585e+000	 2.8104144828e+000	-8.3962523303e-001
 1.9758243102e+000	 2.8322509608e+000	-8.5048653070e-001
 1.9446783765e+000	 2.8537262335e+000	-8.5305385103e-001
 1.9133314198e+000	 2.8748374867e+000	-8.4684023625e-001
 1.8817897498e+000	 2.8955820494e+000	-8.3343685232e-001
 1.8500597192e+000	 2.9159573949e+000	-8.1472705259e-001
 1.8181477197e+000	 2.9359611411e+000	-7.9284639659e-001
 1.7860601779e+000	 2.9555910517e+000	-7.7014339734e-001
 1.7538035515e+000	 2.9748450361e+000	-7.4914122743e-001
 1.7213843248e+000	 2.9937211499e+000	-7.3250059807e-001
 1.6888090049e+000	 3.0122175953e+000	-7.2298400753e-001
 2.0222599604e+000	 2.8321175935e+000	-7.9164583554e-001
 1.9910823918e+000	 2.8541227012e+000	-8.0454732181e-001
 1.9596959371e+000	 2.8757638143e+000	-8.2244989754e-001
 1.9281069071e+000	 2.8970380968e+000	-8.2822779713e-001
 1.8963216601e+000	 2.9179428571e+000	-8.2390444912e-001
 1.8643465979e+000	 2.9384755489e+000	-8.1179040633e-001
 1.8321881615e+000	 2.9586337718e+000	-7.9444106662e-001
 1.7998528273e+000	 2.9784152722e+000	-7.7461522282e-001
 1.7673471027e+000	 2.9978179433e+000	-7.5523468210e-001
 1.7346775222e+000	 3.0168398258e+000	-7.3934517815e-001
 1.7018506431e+000	 3.0354791079e+000	-7.3007878101e-001
 2.0377569623e+000	 2.8538207042e+000	-7.4832111903e-001
 2.0063404735e+000	 2.8759944416e+000	-7.4889627303e-001
 1.9747134978e+000	 2.8978013951e+000	-7.8247774393e-001
 1.9428823945e+000	 2.9192387069e+000	-8.0186476140e-001
 1.9108535705e+000	 2.9403036647e+000	-8.0798515818e-001
 1.8786334766e+000	 2.9609937029e+000	-8.0356209302e-001
 1.8462286034e+000	 2.9813064025e+000	-7.9155672855e-001
 1.8136454768e+000	 3.0012394926e+000	-7.7512454426e-001
 1.7808906540e+000	 3.0207908505e+000	-7.5757283267e-001
 1.7479707196e+000	 3.0399585016e+000	-7.4231961154e-001
 1.7148922812e+000	 3.0587406205e+000	-7.3285416532e-001
 2.0532539642e+000	 2.8755238149e+000	-7.1074129308e-001
 2.0215985551e+000	 2.8978661821e+000	-6.9781031895e-001
 1.9897310585e+000	 2.9198389759e+000	-7.3446372120e-001
 1.9576578818e+000	 2.9414393170e+000	-7.6903395201e-001
 1.9253854808e+000	 2.9626644724e+000	-7.8693028477e-001
 1.8929203553e+000	 2.9835118568e+000	-7.9127465226e-001
 1.8602690453e+000	 3.0039790332e+000	-7.8542063713e-001
 1.8274381262e+000	 3.0240637131e+000	-7.7290750644e-001
 1.7944342052e+000	 3.0437637577e+000	-7.5741554613e-001
 1.7612639170e+000	 3.0630771775e+000	-7.4272293814e-001
 1.7279339194e+000	 3.0820021331e+000	-7.3266440209e-001
 2.0687509661e+000	 2.8972269256e+000	-6.7993736081e-001
 2.0368566368e+000	 2.9197379225e+000	-6.5529893148e-001
 2.0047486192e+000	 2.9418765567e+000	-6.8056689363e-001
 1.9724333691e+000	 2.9636399271e+000	-7.3101880239e-001
 1.9399173911e+000	 2.9850252801e+000	-7.6199057670e-001
 1.9072072340e+000	 3.0060300108e+000	-7.7615863683e-001
 1.8743094872e+000	 3.0266516638e+000	-7.7725636453e-001
 1.8412307756e+000	 3.0468879335e+000	-7.6919460399e-001
 1.8079777565e+000	 3.0667366648e+000	-7.5601479419e-001
 1.7745571144e+000	 3.0861958534e+000	-7.4184377398e-001
 1.7409755575e+000	 3.1052636456e+000	-7.3085049096e-001
 2.0842479680e+000	 2.9189300362e+000	-6.5688190831e-001
 2.0521147185e+000	 2.9416096629e+000	-6.2230330394e-001
 2.0197661799e+000	 2.9639141376e+000	-6.3389711666e-001
 1.9872088564e+000	 2.9858405372e+000	-6.8910291388e-001
 1.9544493014e+000	 3.0073860877e+000	-7.3441570755e-001
 1.9214941128e+000	 3.0285481648e+000	-7.5944203629e-001
 1.8883499290e+000	 3.0493242945e+000	-7.6828317914e-001
 1.8550234251e+000	 3.0697121540e+000	-7.6521003096e-001
 1.8215213077e+000	 3.0897095720e+000	-7.5461398987e-001
 1.7878503118e+000	 3.1093145292e+000	-7.4095965164e-001
 1.7540171957e+000	 3.1285251582e+000	-7.2873955091e-001
 2.0997449699e+000	 2.9406331469e+000	-6.4248992856e-001
 2.0673728001e+000	 2.9634814034e+000	-5.9970803312e-001
 2.0347837405e+000	 2.9859517184e+000	-5.9923902455e-001
 2.0019843437e+000	 3.0080411473e+000	-6.4471092076e-001
 1.9689812117e+000	 3.0297468954e+000	-7.0545380160e-001
 1.9357809915e+000	 3.0510663188e+000	-7.4234974254e-001
 1.9023903709e+000	 3.0719969252e+000	-7.5971546636e-001
 1.8688160745e+000	 3.0925363745e+000	-7.6217107168e-001
 1.8350648590e+000	 3.1126824792e+000	-7.5444736394e-001
 1.8011435092e+000	 3.1324332051e+000	-7.4133639823e-001
 1.7670588338e+000	 3.1517866708e+000	-7.2764421652e-001
 2.1152419718e+000	 2.9623362576e+000	-6.3761967775e-001
 2.0826308818e+000	 2.9853531438e+000	-5.8834189952e-001
 2.0498013012e+000	 3.0079892992e+000	-5.7740276493e-001
 2.0167598311e+000	 3.0302417574e+000	-6.0866839698e-001
 1.9835131220e+000	 3.0521077031e+000	-6.7635099830e-001
 1.9500678702e+000	 3.0735844728e+000	-7.2610305541e-001
 1.9164308128e+000	 3.0946695558e+000	-7.5276218898e-001
 1.8826087239e+000	 3.1153605949e+000	-7.6128753054e-001
 1.8486084102e+000	 3.1356553864e+000	-7.5673937895e-001
 1.8144367066e+000	 3.1555518810e+000	-7.4422754914e-001
 1.7801004720e+000	 3.1750481834e+000	-7.2886206719e-001
 2.1307389737e+000	 2.9840393683e+000	-6.4307356264e-001
 2.0978889635e+000	 3.0072248842e+000	-5.8897868077e-001
 2.0648188619e+000	 3.0300268800e+000	-5.6914406805e-001
 2.0315353184e+000	 3.0524423675e+000	-5.8765512135e-001
 1.9980450323e+000	 3.0744685107e+000	-6.4835105414e-001
 1.9643547489e+000	 3.0961026268e+000	-7.1191922607e-001
 1.9304712547e+000	 3.1173421865e+000	-7.4862638548e-001
 1.8964013734e+000	 3.1381848154e+000	-7.6376119880e-001
 1.8621519615e+000	 3.1586282936e+000	-7.6270417898e-001
 1.8277299040e+000	 3.1786705568e+000	-7.5087379561e-001
 1.7931421101e+000	 3.1983096960e+000	-7.3367508781e-001
 1.6627257286e+000	 2.9656945701e+000	-6.9035720736e-001
 1.6305111137e+000	 2.9835272650e+000	-6.7595623006e-001
 1.5981557240e+000	 3.0009831633e+000	-6.5002281174e-001
 1.5656660084e+000	 3.0180609300e+000	-6.1629463041e-001
 1.5330484222e+000	 3.0347593738e+000	-5.7845762478e-001
 1.5003094234e+000	 3.0510774461e+000	-5.4011958163e-001
 1.4674554686e+000	 3.0670142412e+000	-5.0478573774e-001
 1.4344930095e+000	 3.0825689947e+000	-4.7583645623e-001
 1.4014284891e+000	 3.0977410833e+000	-4.5650701957e-001
 1.3682683376e+000	 3.1125300238e+000	-4.4986956365e-001
 1.3350189692e+000	 3.1269354717e+000	-4.5881716018e-001
 1.6757673668e+000	 2.9889560827e+000	-7.1020303658e-001
 1.6433000755e+000	 3.0069286489e+000	-6.9717623579e-001
 1.6106909054e+000	 3.0245214630e+000	-6.7201048516e-001
 1.5779463558e+000	 3.0417331797e+000	-6.3810971537e-001
 1.5450729326e+000	 3.0585625982e+000	-5.9884387882e-001
 1.5120771445e+000	 3.0750086618e+000	-5.5752210290e-001
 1.4789654987e+000	 3.0910704576e+000	-5.1736792561e-001
 1.4457444976e+000	 3.1067472152e+000	-4.8149667448e-001
 1.4124206346e+000	 3.1220383066e+000	-4.5289503074e-001
 1.3790003905e+000	 3.1369432446e+000	-4.3440280266e-001
 1.3454902298e+000	 3.1514616820e+000	-4.2869691399e-001
 1.6888090049e+000	 3.0122175953e+000	-7.2298400753e-001
 1.6560890374e+000	 3.0303300327e+000	-7.1066412964e-001
 1.6232260869e+000	 3.0480597627e+000	-6.8581049252e-001
 1.5902267032e+000	 3.0654054293e+000	-6.5154197034e-001
 1.5570974430e+000	 3.0823658226e+000	-6.1095841267e-001
 1.5238448656e+000	 3.0989398775e+000	-5.6711329705e-001
 1.4904755289e+000	 3.1151266740e+000	-5.2298854175e-001
 1.4569959857e+000	 3.1309254358e+000	-4.8147154019e-001
 1.4234127802e+000	 3.1463355299e+000	-4.4533445944e-001
 1.3897324435e+000	 3.1613564654e+000	-4.1721582534e-001
 1.3559614903e+000	 3.1759878923e+000	-3.9960439911e-001
 1.7018506431e+000	 3.0354791079e+000	-7.3007878101e-001
 1.6688779993e+000	 3.0537314166e+000	-7.1785248352e-001
 1.6357612683e+000	 3.0715980624e+000	-6.9287768474e-001
 1.6025070506e+000	 3.0890776790e+000	-6.5803598175e-001
 1.5691219534e+000	 3.1061690470e+000	-6.1620210327e-001
 1.5356125867e+000	 3.1228710932e+000	-5.7021599523e-001
 1.5019855590e+000	 3.1391828904e+000	-5.2285715417e-001
 1.4682474739e+000	 3.1551036564e+000	-4.7682127094e-001
 1.4344049258e+000	 3.1706327532e+000	-4.3469922671e-001
 1.4004644964e+000	 3.1857696862e+000	-3.9895846336e-001
 1.3664327509e+000	 3.2005141027e+000	-3.7192673105e-001
 1.7148922812e+000	 3.0587406205e+000	-7.3285416532e-001
 1.6816669612e+000	 3.0771328004e+000	-7.2015955073e-001
 1.6482964497e+000	 3.0951363621e+000	-6.9465128771e-001
 1.6147873980e+000	 3.1127499287e+000	-6.5902059803e-001
 1.5811464638e+000	 3.1299722714e+000	-6.1596120193e-001
 1.5473803077e+000	 3.1468023089e+000	-5.6814077053e-001
 1.5134955891e+000	 3.1632391068e+000	-5.1817472376e-001
 1.4794989620e+000	 3.1792818770e+000	-4.6860243724e-001
 1.4453970713e+000	 3.1949299765e+000	-4.2186589988e-001
 1.4111965494e+000	 3.2101829069e+000	-3.8029084333e-001
 1.3769040114e+000	 3.2250403130e+000	-3.4607034423e-001
 1.7279339194e+000	 3.0820021331e+000	-7.3266440209e-001
 1.6944559230e+000	 3.1005341843e+000	-7.1898857027e-001
 1.6608316311e+000	 3.1186746618e+000	-6.9255418814e-001
 1.6270677453e+000	 3.1364221784e+000	-6.5590815898e-001
 1.5931709742e+000	 3.1537754958e+000	-6.1160646819e-001
 1.5591480288e+000	 3.1707335246e+000	-5.6218493635e-001
 1.5250056192e+000	 3.1872953232e+000	-5.1013242593e-001
 1.4907504501e+000	 3.2034600975e+000	-4.5786656563e-001
 1.4563892169e+000	 3.2192271998e+000	-4.0771203409e-001
 1.4219286023e+000	 3.2345961277e+000	-3.6188142294e-001
 1.3873752720e+000	 3.2495665234e+000	-3.2245867809e-001
 1.7409755575e+000	 3.1052636456e+000	-7.3085049096e-001
 1.7072448849e+000	 3.1239355681e+000	-7.1572710729e-001
 1.6733668126e+000	 3.1422129615e+000	-6.8799225465e-001
 1.6393480927e+000	 3.1600944280e+000	-6.5009376139e-001
 1.6051954846e+000	 3.1775787202e+000	-6.0449234272e-001
 1.5709157499e+000	 3.1946647403e+000	-5.5363158841e-001
 1.5365156494e+000	 3.2113515396e+000	-4.9991052265e-001
 1.5020019382e+000	 3.2276383181e+000	-4.4565880064e-001
 1.4673813625e+000	 3.2435244231e+000	-3.9311458335e-001
 1.4326606553e+000	 3.2590093485e+000	-3.4440510935e-001
 1.3978465325e+000	 3.2740927337e+000	-3.0152996030e-001
 1.7540171957e+000	 3.1285251582e+000	-7.2873955091e-001
 1.7200338468e+000	 3.1473369520e+000	-7.1174642781e-001
 1.6859019940e+000	 3.1657512612e+000	-6.8235369237e-001
 1.6516284401e+000	 3.1837666777e+000	-6.4295455901e-001
 1.6172199950e+000	 3.2013819446e+000	-5.9595615721e-001
 1.5826834710e+000	 3.2185959559e+000	-5.4374868813e-001
 1.5480256795e+000	 3.2354077560e+000	-4.8867728210e-001
 1.5132534263e+000	 3.2518165387e+000	-4.3301662257e-001
 1.4783735081e+000	 3.2678216464e+000	-3.7894837746e-001
 1.4433927082e+000	 3.2834225693e+000	-3.2854145551e-001
 1.4083177931e+000	 3.2986189440e+000	-2.8373508190e-001
 1.7670588338e+000	 3.1517866708e+000	-7.2764421652e-001
 1.7328228087e+000	 3.1707383359e+000	-7.0840090590e-001
 1.6984371754e+000	 3.1892895609e+000	-6.7700842920e-001
 1.6639087875e+000	 3.2074389274e+000	-6.3584909496e-001
 1.6292445053e+000	 3.2251851690e+000	-5.8731737926e-001
 1.5944511921e+000	 3.2425271716e+000	-5.3378818533e-001
 1.5595357096e+000	 3.2594639724e+000	-4.7758794358e-001
 1.5245049144e+000	 3.2759947593e+000	-4.2096861827e-001
 1.4893656536e+000	 3.2921188697e+000	-3.6608466151e-001
 1.4541247611e+000	 3.3078357901e+000	-3.1497293042e-001
 1.4187890536e+000	 3.3231451544e+000	-2.6953555971e-001
 1.7801004720e+000	 3.1750481834e+000	-7.2886206719e-001
 1.7456117705e+000	 3.1941397197e+000	-7.0702746175e-001
 1.7109723568e+000	 3.2128278607e+000	-6.7330753219e-001
 1.6761891349e+000	 3.2311111771e+000	-6.3011666517e-001
 1.6412690157e+000	 3.2489883934e+000	-5.7987689053e-001
 1.6062189132e+000	 3.2664583873e+000	-5.2498517810e-001
 1.5710457397e+000	 3.2835201888e+000	-4.6778372526e-001
 1.5357564025e+000	 3.3001729799e+000	-4.1053330213e-001
 1.5003577992e+000	 3.3164160930e+000	-3.5538969459e-001
 1.4648568141e+000	 3.3322490109e+000	-3.0438325950e-001
 1.4292603142e+000	 3.3476713647e+000	-2.5922039335e-001
 1.7931421101e+000	 3.1983096960e+000	-7.3367508781e-001
 1.7584007324e+000	 3.2175411036e+000	-7.0894502895e-001
 1.7235075382e+000	 3.2363661604e+000	-6.7258265246e-001
 1.6884694823e+000	 3.2547834267e+000	-6.2707671104e-001
 1.6532935261e+000	 3.2727916178e+000	-5.7491629650e-001
 1.6179866343e+000	 3.2903896030e+000	-5.1855710809e-001
 1.5825557699e+000	 3.3075764053e+000	-4.6039087270e-001
 1.5470078906e+000	 3.3243512004e+000	-4.0271798468e-001
 1.5113499448e+000	 3.3407133163e+000	-3.4764154275e-001
 1.4755888670e+000	 3.3566622317e+000	-2.9679599303e-001
 1.4397315747e+000	 3.3721975751e+000	-2.5248579859e-001
 1.3350189692e+000	 3.1269354717e+000	-4.5881716018e-001
 1.3016817725e+000	 3.1409592953e+000	-4.6694639386e-001
 1.2682681041e+000	 3.1545992369e+000	-4.4922068437e-001
 1.2347843127e+000	 3.1678553637e+000	-4.1253104836e-001
 1.2012367166e+000	 3.1807278769e+000	-3.6362150072e-001
 1.1676316006e+000	 3.1932171098e+000	-3.0892205786e-001
 1.1339752124e+000	 3.2053235261e+000	-2.5453691034e-001
 1.1002737598e+000	 3.2170477184e+000	-2.0623138079e-001
 1.0665334072e+000	 3.2283904058e+000	-1.6941758155e-001
 1.0327602727e+000	 3.2393524327e+000	-1.4913872546e-001
 9.9896042527e-001	 3.2499347660e+000	-1.5007107840e-001
 1.3454902298e+000	 3.1514616820e+000	-4.2869691399e-001
 1.3118915518e+000	 3.1655955019e+000	-4.4703016527e-001
 1.2782158023e+000	 3.1793424288e+000	-4.4278626726e-001
 1.2444693798e+000	 3.1927025304e+000	-4.1587809274e-001
 1.2106586521e+000	 3.2056760095e+000	-3.7354596604e-001
 1.1767899534e+000	 3.2182632021e+000	-3.2270080435e-001
 1.1428695804e+000	 3.2304645755e+000	-2.6991306753e-001
 1.1089037894e+000	 3.2422807268e+000	-2.2140026848e-001
 1.0748987933e+000	 3.2537123809e+000	-1.8301295034e-001
 1.0408607582e+000	 3.2647603887e+000	-1.6021907928e-001
 1.0067958007e+000	 3.2754257250e+000	-1.5810363935e-001
 1.3559614903e+000	 3.1759878923e+000	-3.9960439911e-001
 1.3221013311e+000	 3.1902317086e+000	-4.1916356953e-001
 1.2881635005e+000	 3.2040856206e+000	-4.2985872074e-001
 1.2541544469e+000	 3.2175496971e+000	-4.1403618737e-001
 1.2200805877e+000	 3.2306241422e+000	-3.7938661449e-001
 1.1859483062e+000	 3.2433092944e+000	-3.3326086306e-001
 1.1517639483e+000	 3.2556056248e+000	-2.8265987213e-001
 1.1175338190e+000	 3.2675137352e+000	-2.3422283174e-001
 1.0832641795e+000	 3.2790343560e+000	-1.9421356474e-001
 1.0489612438e+000	 3.2901683448e+000	-1.6850506084e-001
 1.0146311762e+000	 3.3009166839e+000	-1.6256215044e-001
 1.3664327509e+000	 3.2005141027e+000	-3.7192673105e-001
 1.3323111103e+000	 3.2148679152e+000	-3.8437319803e-001
 1.2981111987e+000	 3.2288288125e+000	-4.1114402935e-001
 1.2638395139e+000	 3.2423968638e+000	-4.0743087990e-001
 1.2295025232e+000	 3.2555722748e+000	-3.8132841249e-001
 1.1951066590e+000	 3.2683553867e+000	-3.4058621826e-001
 1.1606583162e+000	 3.2807466742e+000	-2.9259973349e-001
 1.1261638486e+000	 3.2927467436e+000	-2.4439919152e-001
 1.0916295656e+000	 3.3043563311e+000	-2.0263649961e-001
 1.0570617294e+000	 3.3155763009e+000	-1.7356997847e-001
 1.0224665517e+000	 3.3264076428e+000	-1.6304694981e-001
 1.3769040114e+000	 3.2250403130e+000	-3.4607034423e-001
 1.3425208896e+000	 3.2395041218e+000	-3.4771893564e-001
 1.3080588968e+000	 3.2535720044e+000	-3.8745100873e-001
 1.2735245810e+000	 3.2672440305e+000	-3.9661366520e-001
 1.2389244587e+000	 3.2805204075e+000	-3.7970316415e-001
 1.2042650118e+000	 3.2934014791e+000	-3.4482625992e-001
 1.1695526842e+000	 3.3058877235e+000	-2.9973662090e-001
 1.1347938782e+000	 3.3179797520e+000	-2.5182468359e-001
 1.0999949518e+000	 3.3296783062e+000	-2.0810512053e-001
 1.0651622150e+000	 3.3409842570e+000	-1.7546470237e-001
 1.0303019272e+000	 3.3518986017e+000	-1.6101214070e-001
 1.3873752720e+000	 3.2495665234e+000	-3.2245867809e-001
 1.3527306689e+000	 3.2641403284e+000	-3.1546677127e-001
 1.3180065950e+000	 3.2783151963e+000	-3.5967337468e-001
 1.2832096481e+000	 3.2920911972e+000	-3.8224457978e-001
 1.2483463942e+000	 3.3054685401e+000	-3.7497268347e-001
 1.2134233646e+000	 3.3184475714e+000	-3.4627958571e-001
 1.1784470521e+000	 3.3310287729e+000	-3.0424054713e-001
 1.1434239078e+000	 3.3432127604e+000	-2.5690328825e-001
 1.1083603379e+000	 3.3550002813e+000	-2.1248097987e-001
 1.0732627005e+000	 3.3663922131e+000	-1.7825134629e-001
 1.0381373026e+000	 3.3773895607e+000	-1.6089212372e-001
 1.3978465325e+000	 3.2740927337e+000	-3.0152996030e-001
 1.3629404481e+000	 3.2887765350e+000	-2.8787171240e-001
 1.3279542932e+000	 3.3030583882e+000	-3.2877193555e-001
 1.2928947151e+000	 3.3169383640e+000	-3.6507492902e-001
 1.2577683297e+000	 3.3304166728e+000	-3.6771210596e-001
 1.2225817174e+000	 3.3434936637e+000	-3.4558538826e-001
 1.1873414200e+000	 3.3561698223e+000	-3.0781625553e-001
 1.1520539374e+000	 3.3684457688e+000	-2.6294354347e-001
 1.1167257241e+000	 3.3803222564e+000	-2.1899527649e-001
 1.0813631861e+000	 3.3918001691e+000	-1.8344084299e-001
 1.0459726781e+000	 3.4028805196e+000	-1.6313902401e-001
 1.4083177931e+000	 3.2986189440e+000	-2.8373508190e-001
 1.3731502274e+000	 3.3134127416e+000	-2.6516244648e-001
 1.3379019914e+000	 3.3278015801e+000	-2.9662968727e-001
 1.3025797822e+000	 3.3417855307e+000	-3.4597732520e-001
 1.2671902652e+000	 3.3553648054e+000	-3.5921230747e-001
 1.2317400702e+000	 3.3685397560e+000	-3.4505069767e-001
 1.1962357880e+000	 3.3813108716e+000	-3.1269628524e-001
 1.1606839670e+000	 3.3936787772e+000	-2.7089623449e-001
 1.1250911102e+000	 3.4056442315e+000	-2.2787480120e-001
 1.0894636717e+000	 3.4172081252e+000	-1.9127468549e-001
 1.0538080536e+000	 3.4283714785e+000	-1.6810568743e-001
 1.4187890536e+000	 3.3231451544e+000	-2.6953555971e-001
 1.3833600067e+000	 3.3380489483e+000	-2.4757594172e-001
 1.3478496895e+000	 3.3525447720e+000	-2.7006601056e-001
 1.3122648493e+000	 3.3666326974e+000	-3.2634834373e-001
 1.2766122007e+000	 3.3803129381e+000	-3.5101230929e-001
 1.2408984230e+000	 3.3935858483e+000	-3.4548886931e-001
 1.2051301559e+000	 3.4064519210e+000	-3.1918591677e-001
 1.1693139966e+000	 3.4189117856e+000	-2.8103314233e-001
 1.1334564964e+000	 3.4309662066e+000	-2.3941603045e-001
 1.0975641573e+000	 3.4426160813e+000	-2.0211774518e-001
 1.0616434291e+000	 3.4538624374e+000	-1.7626854564e-001
 1.4292603142e+000	 3.3476713647e+000	-2.5922039335e-001
 1.3935697859e+000	 3.3626851549e+000	-2.3500014646e-001
 1.3577973877e+000	 3.3772879639e+000	-2.5035974465e-001
 1.3219499164e+000	 3.3914798641e+000	-3.0708293085e-001
 1.2860341363e+000	 3.4052610708e+000	-3.4367876378e-001
 1.2500567758e+000	 3.4186319407e+000	-3.4735408284e-001
 1.2140245238e+000	 3.4315929703e+000	-3.2768167848e-001
 1.1779440262e+000	 3.4441447940e+000	-2.9373636471e-001
 1.1418218825e+000	 3.4562881817e+000	-2.5402939393e-001
 1.1056646428e+000	 3.4680240374e+000	-2.1645101619e-001
 1.0694788046e+000	 3.4793533964e+000	-1.8822079467e-001
 1.4397315747e+000	 3.3721975751e+000	-2.5248579859e-001
 1.4037795652e+000	 3.3873213615e+000	-2.2748273475e-001
 1.3677450859e+000	 3.4020311558e+000	-2.3751889042e-001
 1.3316349834e+000	 3.4163270308e+000	-2.8895543776e-001
 1.2954560718e+000	 3.4302092034e+000	-3.3784986014e-001
 1.2592151286e+000	 3.4436780330e+000	-3.5119109547e-001
 1.2229188917e+000	 3.4567340197e+000	-3.3867726997e-001
 1.1865740558e+000	 3.4693778024e+000	-3.0949047605e-001
 1.1501872686e+000	 3.4816101568e+000	-2.7223175248e-001
 1.1137651284e+000	 3.4934319935e+000	-2.3486446506e-001
 1.0773141800e+000	 3.5048443553e+000	-2.0466567002e-001
 9.9896042527e-001	 3.2499347660e+000	-1.5007107840e-001
 9.6513988133e-001	 3.2601384931e+000	-1.5900163152e-001
 9.3130460051e-001	 3.2699648164e+000	-1.6117226963e-001
 8.9746048454e-001	 3.2794150542e+000	-1.5823507264e-001
 8.6361337515e-001	 3.2884906387e+000	-1.5139428980e-001
 8.2976905160e-001	 3.2971931143e+000	-1.4138572941e-001
 7.9593322820e-001	 3.3055241345e+000	-1.2845540204e-001
 7.6211155205e-001	 3.3134854599e+000	-1.1233762578e-001
 7.2830960080e-001	 3.3210789555e+000	-9.2232823471e-002
 6.9453288053e-001	 3.3283065882e+000	-6.6785259713e-002
 6.6078682374e-001	 3.3351704242e+000	-3.2540125042e-002
 1.0067958007e+000	 3.2754257250e+000	-1.5810363935e-001
 9.7270998438e-001	 3.2857094853e+000	-1.6374408844e-001
 9.3860931553e-001	 3.2956128816e+000	-1.6242394810e-001
 9.0449974224e-001	 3.3051372426e+000	-1.5583857225e-001
 8.7038715206e-001	 3.3142840118e+000	-1.4524567591e-001
 8.3627736956e-001	 3.3230547455e+000	-1.3144343769e-001
 8.0217615388e-001	 3.3314511103e+000	-1.1474761074e-001
 7.6808919642e-001	 3.3394748806e+000	-9.5072207547e-002
 7.3402211857e-001	 3.3471279360e+000	-7.1693685918e-002
 6.9998046961e-001	 3.3544122588e+000	-4.2829332844e-002
 6.6596972462e-001	 3.3613299316e+000	-5.9931407576e-003
 1.0146311762e+000	 3.3009166839e+000	-1.6256215044e-001
 9.8028008742e-001	 3.3112804774e+000	-1.6399332972e-001
 9.4591403056e-001	 3.3212609468e+000	-1.5832533990e-001
 9.1153899995e-001	 3.3308594310e+000	-1.4737671219e-001
 8.7716092897e-001	 3.3400773848e+000	-1.3275035729e-001
 8.4278568752e-001	 3.3489163767e+000	-1.1579805309e-001
 8.0841907956e-001	 3.3573780861e+000	-9.6617832956e-002
 7.7406684079e-001	 3.3654643012e+000	-7.4632255550e-002
 7.3973463634e-001	 3.3731769164e+000	-4.8606611573e-002
 7.0542805868e-001	 3.3805179294e+000	-1.6640144398e-002
 6.7115262551e-001	 3.3874894389e+000	 2.3839592223e-002
 1.0224665517e+000	 3.3264076428e+000	-1.6304694981e-001
 9.8785019047e-001	 3.3368514696e+000	-1.5939064097e-001
 9.5321874558e-001	 3.3469090120e+000	-1.4941855815e-001
 9.1857825765e-001	 3.3565816195e+000	-1.3524116108e-001
 8.8393470588e-001	 3.3658707579e+000	-1.1813148790e-001
 8.4929400548e-001	 3.3747780078e+000	-9.8744549305e-002
 8.1466200525e-001	 3.3833050618e+000	-7.7098342013e-002
 7.8004448516e-001	 3.3914537219e+000	-5.2558952681e-002
 7.4544715412e-001	 3.3992258969e+000	-2.3829427894e-002
 7.1087564776e-001	 3.4066236000e+000	 1.1057910203e-002
 6.7633552640e-001	 3.4136489462e+000	 5.4746016477e-002
 1.0303019272e+000	 3.3518986017e+000	-1.6101214070e-001
 9.9542029351e-001	 3.3624224617e+000	-1.5392580283e-001
 9.6052346061e-001	 3.3725570773e+000	-1.4082336803e-001
 9.2561751536e-001	 3.3823038079e+000	-1.2360082113e-001
 8.9070848278e-001	 3.3916641309e+000	-1.0353767531e-001
 8.5580232344e-001	 3.4006396390e+000	-8.1285962666e-002
 8.2090493093e-001	 3.4092320376e+000	-5.6852315483e-002
 7.8602212954e-001	 3.4174431425e+000	-2.9584184952e-002
 7.5115967189e-001	 3.4252748774e+000	 1.8401464652e-003
 7.1632323683e-001	 3.4327292707e+000	 3.9418097787e-002
 6.8151842728e-001	 3.4398084535e+000	 8.5826198527e-002
 1.0381373026e+000	 3.3773895607e+000	-1.6089212372e-001
 1.0029903966e+000	 3.3879934539e+000	-1.5026264854e-001
 9.6782817563e-001	 3.3982051425e+000	-1.3363431029e-001
 9.3265677307e-001	 3.4080259963e+000	-1.1295662495e-001
 8.9748225969e-001	 3.4174575040e+000	-8.9553052216e-002
 8.6231064140e-001	 3.4265012702e+000	-6.4109603145e-002
 8.2714785662e-001	 3.4351590134e+000	-3.6658056444e-002
 7.9199977391e-001	 3.4434325632e+000	-6.5633584020e-003
 7.5687218967e-001	 3.4513238578e+000	 2.7485157471e-002
 7.2177082591e-001	 3.4588349413e+000	 6.7479089022e-002
 6.8670132817e-001	 3.4659679608e+000	 1.1609317142e-001
 1.0459726781e+000	 3.4028805196e+000	-1.6313902401e-001
 1.0105604996e+000	 3.4135644460e+000	-1.4874263298e-001
 9.7513289066e-001	 3.4238532077e+000	-1.2833352575e-001
 9.3969603077e-001	 3.4337481848e+000	-1.0391080195e-001
 9.0425603660e-001	 3.4432508770e+000	-7.6890974703e-002
 8.6881895936e-001	 3.4523629013e+000	-4.8029205844e-002
 8.3339078231e-001	 3.4610859892e+000	-1.7417174535e-002
 7.9797741829e-001	 3.4694219839e+000	 1.5528268515e-002
 7.6258470745e-001	 3.4773728383e+000	 5.2072602862e-002
 7.2721841499e-001	 3.4849406119e+000	 9.4167674093e-002
 6.9188422906e-001	 3.4921274681e+000	 1.4445263144e-001
 1.0538080536e+000	 3.4283714785e+000	-1.6810568743e-001
 1.0181306026e+000	 3.4391354382e+000	-1.4987849761e-001
 9.8243760569e-001	 3.4495012729e+000	-1.2553102134e-001
 9.4673528848e-001	 3.4594703732e+000	-9.7191730431e-002
 9.1102981351e-001	 3.4690442501e+000	-6.6388941987e-002
 8.7532727733e-001	 3.4782245325e+000	-3.3980336556e-002
 8.3963370799e-001	 3.4870129649e+000	-1.5047335005e-004
 8.0395506266e-001	 3.4954114045e+000	 3.5599221330e-002
 7.6829722522e-001	 3.5034218188e+000	 7.4456599576e-002
 7.3266600407e-001	 3.5110462825e+000	 1.1830146995e-001
 6.9706712995e-001	 3.5182869755e+000	 1.6970519555e-001
 1.0616434291e+000	 3.4538624374e+000	-1.7626854564e-001
 1.0257007057e+000	 3.4647064304e+000	-1.5426206562e-001
 9.8974232071e-001	 3.4751493381e+000	-1.2595869798e-001
 9.5377454619e-001	 3.4851925616e+000	-9.3648443183e-002
 9.1780359042e-001	 3.4948376231e+000	-5.9003579076e-002
 8.8183559529e-001	 3.5040861637e+000	-2.3015849104e-002
 8.4587663368e-001	 3.5129399407e+000	 1.4006121513e-002
 8.0993270704e-001	 3.5214008252e+000	 5.2445416347e-002
 7.7400974300e-001	 3.5294707992e+000	 9.3381532466e-002
 7.3811359314e-001	 3.5371519531e+000	 1.3859161958e-001
 7.0225003084e-001	 3.5444464828e+000	 1.9054866137e-001
 1.0694788046e+000	 3.4793533964e+000	-1.8822079467e-001
 1.0332708087e+000	 3.4902774225e+000	-1.6261693253e-001
 9.9704703574e-001	 3.5007974033e+000	-1.3046445938e-001
 9.6081380390e-001	 3.5109147501e+000	-9.4245203491e-002
 9.2457736733e-001	 3.5206309962e+000	-5.5805679149e-002
 8.8834391325e-001	 3.5299477948e+000	-1.6301391780e-002
 8.5211955937e-001	 3.5388669165e+000	 2.3805595851e-002
 8.1591035141e-001	 3.5473902459e+000	 6.4753739335e-002
 7.7972226078e-001	 3.5555197797e+000	 1.0748518526e-001
 7.4356118222e-001	 3.5632576237e+000	 1.5364548372e-001
 7.0743293173e-001	 3.5706059901e+000	 2.0558026950e-001
 1.0773141800e+000	 3.5048443553e+000	-2.0466567002e-001
 1.0408409118e+000	 3.5158484147e+000	-1.7577692940e-001
 1.0043517508e+000	 3.5264454685e+000	-1.4000639756e-001
 9.6785306161e-001	 3.5366369385e+000	-1.0005614781e-001
 9.3135114424e-001	 3.5464243692e+000	-5.7975302595e-002
 8.9485223122e-001	 3.5558094260e+000	-1.5110960409e-002
 8.5836248506e-001	 3.5647938922e+000	 2.7893843657e-002
 8.2188799579e-001	 3.5733796665e+000	 7.1105597562e-002
 7.8543477855e-001	 3.5815687602e+000	 1.1530185470e-001
 7.4900877130e-001	 3.5893632944e+000	 1.6196932539e-001
 7.1261583262e-001	 3.5967654974e+000	 2.1329896822e-001
 6.6078682374e-001	 3.3351704242e+000	-3.2540125042e-002
 6.2708183937e-001	 3.3416716788e+000	 1.1693605919e-002
 5.9341813416e-001	 3.3478136668e+000	 3.7248370182e-002
 5.5980089879e-001	 3.3535987384e+000	 4.7025564393e-002
 5.2623524340e-001	 3.3590293320e+000	 4.4236070613e-002
 4.9272619611e-001	 3.3641079719e+000	 3.2535119460e-002
 4.5927870155e-001	 3.3688372654e+000	 1.6142765193e-002
 4.2589761953e-001	 3.3732199000e+000	-4.8908087081e-005
 3.9258772377e-001	 3.3772586410e+000	-1.0380758895e-002
 3.5935370079e-001	 3.3809563279e+000	-8.3426852567e-003
 3.2620014879e-001	 3.3843158724e+000	 1.3500165936e-002
 6.6596972462e-001	 3.3613299316e+000	-5.9931407576e-003
 6.3200037421e-001	 3.3678821789e+000	 2.8967918287e-002
 5.9807262675e-001	 3.3740723418e+000	 4.7776193423e-002
 5.6419171360e-001	 3.3799027887e+000	 5.3154871335e-002
 5.3036278501e-001	 3.3853759773e+000	 4.8206879273e-002
 4.9659090852e-001	 3.3904944517e+000	 3.6545461381e-002
 4.6288106755e-001	 3.3952608395e+000	 2.2410168263e-002
 4.2923816003e-001	 3.3996778495e+000	 1.0769449540e-002
 3.9566699713e-001	 3.4037482685e+000	 7.4110058635e-003
 3.6217230211e-001	 3.4074749583e+000	 1.9021016331e-002
 3.2875870925e-001	 3.4108608535e+000	 5.3253310263e-002
 6.7115262551e-001	 3.3874894389e+000	 2.3839592223e-002
 6.3691890906e-001	 3.3940926790e+000	 5.0159213564e-002
 6.0272711934e-001	 3.4003310168e+000	 6.2121070042e-002
 5.6858252842e-001	 3.4062068391e+000	 6.3053648427e-002
 5.3449032662e-001	 3.4117226227e+000	 5.5905325937e-002
 5.0045562093e-001	 3.4168809315e+000	 4.4199662611e-002
 4.6648343355e-001	 3.4216844137e+000	 3.2146587805e-002
 4.3257870053e-001	 3.4261357990e+000	 2.4740076423e-002
 3.9874627048e-001	 3.4302378959e+000	 2.7843540088e-002
 3.6499090342e-001	 3.4339935887e+000	 4.8264113109e-002
 3.3131726971e-001	 3.4374058346e+000	 9.3816961130e-002
 6.7633552640e-001	 3.4136489462e+000	 5.4746016477e-002
 6.4183744391e-001	 3.4203031791e+000	 7.4424814007e-002
 6.0738161193e-001	 3.4265896917e+000	 7.9461884784e-002
 5.7297334323e-001	 3.4325108894e+000	 7.5883539896e-002
 5.3861786822e-001	 3.4380692681e+000	 6.6441674719e-002
 5.0432033334e-001	 3.4432674113e+000	 5.4527098687e-002
 4.7008579956e-001	 3.4481079879e+000	 4.4275577944e-002
 4.3591924104e-001	 3.4525937485e+000	 4.0660270396e-002
 4.0182554384e-001	 3.4567275234e+000	 4.9571849645e-002
 3.6780950474e-001	 3.4605122191e+000	 7.7887563828e-002
 3.3387583017e-001	 3.4639508156e+000	 1.3353041824e-001
 6.8151842728e-001	 3.4398084535e+000	 8.5826198527e-002
 6.4675597877e-001	 3.4465136792e+000	 1.0077672012e-001
 6.1203610452e-001	 3.4528483667e+000	 9.8835753352e-002
 5.7736415804e-001	 3.4588149398e+000	 9.0670533590e-002
 5.4274540983e-001	 3.4644159134e+000	 7.8799312849e-002
 5.0818504575e-001	 3.4696538911e+000	 6.6441817033e-002
 4.7368816556e-001	 3.4745315620e+000	 5.7619780257e-002
 4.3925978154e-001	 3.4790516980e+000	 5.7243791222e-002
 4.0490481720e-001	 3.4832171509e+000	 7.1187821980e-002
 3.7062810607e-001	 3.4870308495e+000	 1.0635275369e-001
 3.3643439063e-001	 3.4904957967e+000	 1.7072015124e-001
 6.8670132817e-001	 3.4659679608e+000	 1.1609317142e-001
 6.5167451362e-001	 3.4727241793e+000	 1.2808736545e-001
 6.1669059710e-001	 3.4791070416e+000	 1.1914288636e-001
 5.8175497286e-001	 3.4851189901e+000	 1.0630888075e-001
 5.4687295144e-001	 3.4907625588e+000	 9.1837676863e-002
 5.1204975816e-001	 3.4960403710e+000	 7.8744424059e-002
 4.7729053156e-001	 3.5009551362e+000	 7.0901730150e-002
 4.4260032205e-001	 3.5055096475e+000	 7.3120548438e-002
 4.0798409055e-001	 3.5097067784e+000	 9.1218761438e-002
 3.7344670739e-001	 3.5135494799e+000	 1.3207884684e-001
 3.3899295109e-001	 3.5170407778e+000	 2.0369594280e-001
 6.9188422906e-001	 3.4921274681e+000	 1.4445263144e-001
 6.5659304847e-001	 3.4989346794e+000	 1.5509538728e-001
 6.2134508969e-001	 3.5053657166e+000	 1.3915148524e-001
 5.8614578767e-001	 3.5114230404e+000	 1.2156506673e-001
 5.5100049305e-001	 3.5171092041e+000	 1.0429525156e-001
 5.1591447057e-001	 3.5224268508e+000	 9.0124069666e-002
 4.8089289757e-001	 3.5273787104e+000	 8.2744787981e-002
 4.4594086255e-001	 3.5319675970e+000	 8.6836443944e-002
 4.1106336391e-001	 3.5361964059e+000	 1.0812611186e-001
 3.7626530871e-001	 3.5400681103e+000	 1.5344036123e-001
 3.4155151155e-001	 3.5435857589e+000	 2.3074729152e-001
 6.9706712995e-001	 3.5182869755e+000	 1.6970519555e-001
 6.6151158332e-001	 3.5251451795e+000	 1.8041141237e-001
 6.2599958229e-001	 3.5316243916e+000	 1.5750266837e-001
 5.9053660249e-001	 3.5377270908e+000	 1.3508182995e-001
 5.5512803466e-001	 3.5434558495e+000	 1.1479263798e-001
 5.1977918299e-001	 3.5488133306e+000	 9.9160524095e-002
 4.8449526357e-001	 3.5538022846e+000	 9.1674188442e-002
 4.4928140306e-001	 3.5584255465e+000	 9.6853361252e-002
 4.1414263727e-001	 3.5626860333e+000	 1.2030435668e-001
 3.7908391003e-001	 3.5665867407e+000	 1.6876495410e-001
 3.4411007201e-001	 3.5701307400e+000	 2.5014006095e-001
 7.0225003084e-001	 3.5444464828e+000	 1.9054866137e-001
 6.6643011817e-001	 3.5513556796e+000	 2.0252385690e-001
 6.3065407488e-001	 3.5578830665e+000	 1.7271542602e-001
 5.9492741731e-001	 3.5640311411e+000	 1.4538222670e-001
 5.5925557627e-001	 3.5698024949e+000	 1.2183568676e-001
 5.2364389540e-001	 3.5751998104e+000	 1.0432634234e-001
 4.8809762958e-001	 3.5802258587e+000	 9.6118202089e-002
 4.5262194356e-001	 3.5848834960e+000	 1.0154929384e-001
 4.1722191063e-001	 3.5891756608e+000	 1.2608008740e-001
 3.8190251135e-001	 3.5931053711e+000	 1.7633140737e-001
 3.4666863247e-001	 3.5966757211e+000	 2.6011336215e-001
 7.0743293173e-001	 3.5706059901e+000	 2.0558026950e-001
 6.7134865303e-001	 3.5775661797e+000	 2.1910370955e-001
 6.3530856747e-001	 3.5841417415e+000	 1.8319160243e-001
 5.9931823212e-001	 3.5903351915e+000	 1.5087373935e-001
 5.6338311789e-001	 3.5961491402e+000	 1.2381869361e-001
 5.2750860781e-001	 3.6015862902e+000	 1.0398911163e-001
 4.9169999558e-001	 3.6066494329e+000	 9.4409403269e-002
 4.5596248407e-001	 3.6113414455e+000	 9.9218605488e-002
 4.2030118399e-001	 3.6156652883e+000	 1.2371123177e-001
 3.8472111267e-001	 3.6196240015e+000	 1.7436780262e-001
 3.4922719293e-001	 3.6232207021e+000	 2.5887665775e-001
 7.1261583262e-001	 3.5967654974e+000	 2.1329896822e-001
 6.7626718788e-001	 3.6037766798e+000	 2.2769343912e-001
 6.3996306006e-001	 3.6104004164e+000	 1.8722090382e-001
 6.0370904694e-001	 3.6166392418e+000	 1.4985242575e-001
 5.6751065950e-001	 3.6224957856e+000	 1.1902765367e-001
 5.3137332022e-001	 3.6279727701e+000	 9.6413777794e-002
 4.9530236159e-001	 3.6330730071e+000	 8.4786039017e-002
 4.5930302458e-001	 3.6377993950e+000	 8.8072415790e-002
 4.2338045735e-001	 3.6421549158e+000	 1.1138643350e-001
 3.8753971400e-001	 3.6461426319e+000	 1.6104987594e-001
 3.5178575339e-001	 3.6497656832e+000	 2.4460707621e-001
 3.2620014879e-001	 3.3843158724e+000	 1.3500165936e-002
 2.9312663406e-001	 3.3873406841e+000	 3.0643401015e-002
 2.6014261392e-001	 3.3900332827e+000	 1.7420893182e-002
 2.2725248468e-001	 3.3923967809e+000	-1.9003066277e-002
 1.9446054890e-001	 3.3944343523e+000	-7.0459252403e-002
 1.6177101484e-001	 3.3961492286e+000	-1.2772770919e-001
 1.2918799594e-001	 3.3975446965e+000	-1.8049717986e-001
 9.6715510352e-002	 3.3986240953e+000	-2.1732916504e-001
 6.4357480676e-002	 3.3993908141e+000	-2.2562606959e-001
 3.2117733651e-002	 3.3998482888e+000	-1.9160295894e-001
 0.0000000000e+000	 3.4000000000e+000	-1.0026247778e-001
 3.2875870925e-001	 3.4108608535e+000	 5.3253310263e-002
 2.9542578143e-001	 3.4139093904e+000	 8.3649023611e-002
 2.6218305016e-001	 3.4166231084e+000	 8.2643648878e-002
 2.2903494622e-001	 3.4190051448e+000	 5.7761472995e-002
 1.9598580593e-001	 3.4210586980e+000	 1.7556899315e-002
 1.6303987056e-001	 3.4227870249e+000	-2.8343356478e-002
 1.3020128578e-001	 3.4241934382e+000	-6.9203003691e-002
 9.7474101301e-002	 3.4252813033e+000	-9.3143225226e-002
 6.4862270468e-002	 3.4260540359e+000	-8.7113480892e-002
 3.2369650039e-002	 3.4265150989e+000	-3.6865573300e-002
 0.0000000000e+000	 3.4266680000e+000	 7.3069478725e-002
 3.3131726971e-001	 3.4374058346e+000	 9.3816961130e-002
 2.9772492880e-001	 3.4404780966e+000	 1.3605090181e-001
 2.6422348640e-001	 3.4432129342e+000	 1.4548505368e-001
 2.3081740777e-001	 3.4456135087e+000	 1.2997416315e-001
 1.9751106297e-001	 3.4476830437e+000	 9.8429230818e-002
 1.6430872627e-001	 3.4494248213e+000	 6.0855813907e-002
 1.3121457563e-001	 3.4508421800e+000	 2.8387716562e-002
 9.8232692251e-002	 3.4519385114e+000	 1.3316712787e-002
 6.5367060260e-002	 3.4527172577e+000	 2.9118876378e-002
 3.2621566427e-002	 3.4531819089e+000	 9.0478023021e-002
 0.0000000000e+000	 3.4533360000e+000	 2.1330672752e-001
 3.3387583017e-001	 3.4639508156e+000	 1.3353041824e-001
 3.0002407618e-001	 3.4670468029e+000	 1.8607248371e-001
 2.6626392265e-001	 3.4698027599e+000	 2.0415107566e-001
 2.3259986931e-001	 3.4722218727e+000	 1.9592434870e-001
 1.9903632000e-001	 3.4743073894e+000	 1.7063354503e-001
 1.6557758198e-001	 3.4760626177e+000	 1.3863710170e-001
 1.3222786547e-001	 3.4774909217e+000	 1.1144049519e-001
 9.8991283199e-002	 3.4785957194e+000	 1.0172249111e-001
 6.5871850052e-002	 3.4793804796e+000	 1.2335839188e-001
 3.2873482815e-002	 3.4798487190e+000	 1.9144080051e-001
 0.0000000000e+000	 3.4800040000e+000	 3.2229837139e-001
 3.3643439063e-001	 3.4904957967e+000	 1.7072015124e-001
 3.0232322355e-001	 3.4936155092e+000	 2.3195289617e-001
 2.6830435889e-001	 3.4963925857e+000	 2.5689220922e-001
 2.3438233086e-001	 3.4988302366e+000	 2.5397517335e-001
 2.0056157703e-001	 3.5009317350e+000	 2.3274922271e-001
 1.6684643769e-001	 3.5027004140e+000	 2.0390174337e-001
 1.3324115532e-001	 3.5041396635e+000	 1.7928579023e-001
 9.9749874148e-002	 3.5052529275e+000	 1.7194261202e-001
 6.6376639843e-002	 3.5060437014e+000	 1.9612159565e-001
 3.3125399203e-002	 3.5065155291e+000	 2.6729816154e-001
 0.0000000000e+000	 3.5066720000e+000	 4.0219008822e-001
 3.3899295109e-001	 3.5170407778e+000	 2.0369594280e-001
 3.0462237093e-001	 3.5201842155e+000	 2.7194191223e-001
 2.7034479513e-001	 3.5229824115e+000	 3.0199735997e-001
 2.3616479241e-001	 3.5254386005e+000	 3.0255647770e-001
 2.0208683407e-001	 3.5275560807e+000	 2.8345123052e-001
 1.6811529340e-001	 3.5293382104e+000	 2.5567612973e-001
 1.3425444516e-001	 3.5307884052e+000	 2.3140953160e-001
 1.0050846510e-001	 3.5319101355e+000	 2.2403217905e-001
 6.6881429635e-002	 3.5327069232e+000	 2.4814361608e-001
 3.3377315591e-002	 3.5331823391e+000	 3.1957702028e-001
 0.0000000000e+000	 3.5333400000e+000	 4.5541293896e-001
 3.4155151155e-001	 3.5435857589e+000	 2.3074729152e-001
 3.0692151830e-001	 3.5467529218e+000	 3.0429521531e-001
 2.7238523137e-001	 3.5495722372e+000	 3.3778806089e-001
 2.3794725395e-001	 3.5520469645e+000	 3.4015805987e-001
 2.0361209110e-001	 3.5541804264e+000	 3.2150252063e-001
 1.6938414911e-001	 3.5559760068e+000	 2.9310344096e-001
 1.3526773500e-001	 3.5574371470e+000	 2.6744408961e-001
 1.0126705605e-001	 3.5585673436e+000	 2.5822329858e-001
 6.7386219427e-002	 3.5593701451e+000	 2.8036811545e-001
 3.3629231979e-002	 3.5598491492e+000	 3.5004537433e-001
 0.0000000000e+000	 3.5600080000e+000	 4.8467267856e-001
 3.4411007201e-001	 3.5701307400e+000	 2.5014006095e-001
 3.0922066568e-001	 3.5733216281e+000	 3.2726994505e-001
 2.7442566762e-001	 3.5761620630e+000	 3.6261300253e-001
 2.3972971550e-001	 3.5786553284e+000	 3.6532328018e-001
 2.0513734813e-001	 3.5808047721e+000	 3.4574680162e-001
 1.7065300483e-001	 3.5826138031e+000	 3.1543567739e-001
 1.3628102485e-001	 3.5840858887e+000	 2.8715966088e-001
 1.0202564699e-001	 3.5852245516e+000	 2.7491591780e-001
 6.7891009218e-002	 3.5860333669e+000	 2.9393767810e-001
 3.3881148367e-002	 3.5865159592e+000	 3.6070234253e-001
 0.0000000000e+000	 3.5866760000e+000	 4.9293954385e-001
 3.4666863247e-001	 3.5966757211e+000	 2.6011336215e-001
 3.1151981305e-001	 3.5998903343e+000	 3.3912050997e-001
 2.7646610386e-001	 3.6027518887e+000	 3.7484286121e-001
 2.4151217705e-001	 3.6052636923e+000	 3.7664299196e-001
 2.0666260517e-001	 3.6074291178e+000	 3.5510166133e-001
 1.7192186054e-001	 3.6092515995e+000	 3.2202606546e-001
 1.3729431469e-001	 3.6107346305e+000	 2.9045605019e-001
 1.0278423794e-001	 3.6118817597e+000	 2.7466907656e-001
 6.8395799010e-002	 3.6126965887e+000	 2.9018462798e-001
 3.4133064755e-002	 3.6131827693e+000	 3.5376864485e-001
 0.0000000000e+000	 3.6133440000e+000	 4.8343849360e-001
 3.4922719293e-001	 3.6232207021e+000	 2.5887665775e-001
 3.1381896043e-001	 3.6264590406e+000	 3.3809465344e-001
 2.7850654010e-001	 3.6293417145e+000	 3.7286540965e-001
 2.4329463859e-001	 3.6318720562e+000	 3.7274978191e-001
 2.0818786220e-001	 3.6340534634e+000	 3.4855202374e-001
 1.7319071625e-001	 3.6358893958e+000	 3.1232181977e-001
 1.3830760454e-001	 3.6373833723e+000	 2.7735482792e-001
 1.0354282889e-001	 3.6385389677e+000	 2.5819255199e-001
 6.8900588802e-002	 3.6393598106e+000	 2.7062225336e-001
 3.4384981144e-002	 3.6398495793e+000	 3.3167750167e-001
 0.0000000000e+000	 3.6400120000e+000	 4.5963987758e-001
 3.5178575339e-001	 3.6497656832e+000	 2.4460707621e-001
 3.1611810781e-001	 3.6530277469e+000	 3.2242976002e-001
 2.8054697635e-001	 3.6559315402e+000	 3.5508089593e-001
 2.4507710014e-001	 3.6584804202e+000	 3.5231250429e-001
 2.0971311924e-001	 3.6606778091e+000	 3.2514392288e-001
 1.7445957196e-001	 3.6625271922e+000	 2.8585724292e-001
 1.3932089439e-001	 3.6640321140e+000	 2.4799184385e-001
 1.0430141984e-001	 3.6651961758e+000	 2.2633887566e-001
 6.9405378595e-002	 3.6660230324e+000	 2.3693641824e-001
 3.4636897532e-002	 3.6665163894e+000	 2.9706593110e-001
 0.0000000000e+000	 3.6666800000e+000	 4.2525051289e-001
 3.6666800000e+000	 0.0000000000e+000	 6.2511576471e-001
 3.6665163894e+000	 3.4636897532e-002	 6.9251630212e-001
 3.6660230324e+000	 6.9405378595e-002	 7.3383188829e-001
 3.6651961758e+000	 1.0430141984e-001	 7.5623357892e-001
 3.6640321140e+000	 1.3932089439e-001	 7.6601800665e-001
 3.6625271922e+000	 1.7445957196e-001	 7.6864784351e-001
 3.6606778091e+000	 2.0971311924e-001	 7.6878949331e-001
 3.6584804202e+000	 2.4507710014e-001	 7.7034869098e-001
 3.6559315402e+000	 2.8054697635e-001	 7.7650479561e-001
 3.6530277469e+000	 3.1611810781e-001	 7.8974468199e-001
 3.6497656832e+000	 3.5178575339e-001	 8.1189725408e-001
 3.6933440000e+000	 0.0000000000e+000	 6.7590212351e-001
 3.6931791996e+000	 3.4888776135e-002	 7.4222385525e-001
 3.6926822549e+000	 6.9910092673e-002	 7.8186376360e-001
 3.6918493855e+000	 1.0505989701e-001	 8.0192353275e-001
 3.6906768587e+000	 1.4033403225e-001	 8.0870017656e-001
 3.6891609931e+000	 1.7572823736e-001	 8.0772187838e-001
 3.6872981613e+000	 2.1123814750e-001	 8.0378032499e-001
 3.6850847930e+000	 2.4685929434e-001	 8.0096024299e-001
 3.6825173777e+000	 2.8258710654e-001	 8.0266696367e-001
 3.6795924681e+000	 3.1841691033e-001	 8.1165296837e-001
 3.6763066828e+000	 3.5434393009e-001	 8.3004449224e-001
 3.7200080000e+000	 0.0000000000e+000	 7.2224721857e-001
 3.7198420098e+000	 3.5140654739e-002	 7.8526793081e-001
 3.7193414775e+000	 7.0414806752e-002	 8.2161088946e-001
 3.7185025951e+000	 1.0581837418e-001	 8.3822244463e-001
 3.7173216033e+000	 1.4134717011e-001	 8.4131861380e-001
 3.7157947940e+000	 1.7699690275e-001	 8.3641606742e-001
 3.7139185136e+000	 2.1276317576e-001	 8.2835883598e-001
 3.7116891659e+000	 2.4864148853e-001	 8.2134147923e-001
 3.7091032152e+000	 2.8462723674e-001	 8.1892958439e-001
 3.7061571893e+000	 3.2071571285e-001	 8.2407859420e-001
 3.7028476823e+000	 3.5690210679e-001	 8.3915209953e-001
 3.7466720000e+000	 0.0000000000e+000	 7.6572924388e-001
 3.7465048200e+000	 3.5392533342e-002	 8.2343926253e-001
 3.7460007000e+000	 7.0919520830e-002	 8.5501339645e-001
 3.7451558048e+000	 1.0657685135e-001	 8.6716238390e-001
 3.7439663479e+000	 1.4236030797e-001	 8.6594582029e-001
 3.7424285949e+000	 1.7826556815e-001	 8.5679804053e-001
 3.7405388658e+000	 2.1428820401e-001	 8.4454891160e-001
 3.7382935388e+000	 2.5042368272e-001	 8.3344030949e-001
 3.7356890527e+000	 2.8666736693e-001	 8.2713919000e-001
 3.7327219104e+000	 3.2301451537e-001	 8.2874830464e-001
 3.7293886818e+000	 3.5946028349e-001	 8.4081575555e-001
 3.7733360000e+000	 0.0000000000e+000	 8.0780059314e-001
 3.7731676302e+000	 3.5644411946e-002	 8.5842056624e-001
 3.7726599226e+000	 7.1424234909e-002	 8.8391956586e-001
 3.7718090145e+000	 1.0733532852e-001	 8.9069817630e-001
 3.7706110926e+000	 1.4337344583e-001	 8.8459015304e-001
 3.7690623958e+000	 1.7953423355e-001	 8.7088293476e-001
 3.7671592180e+000	 2.1581323227e-001	 8.5433221399e-001
 3.7648979116e+000	 2.5220587691e-001	 8.3917137578e-001
 3.7622748902e+000	 2.8870749713e-001	 8.2911675738e-001
 3.7592866316e+000	 3.2531331789e-001	 8.2736983319e-001
 3.7559296814e+000	 3.6201846019e-001	 8.3661757955e-001
 3.8000000000e+000	 0.0000000000e+000	 8.4979227339e-001
 3.7998304405e+000	 3.5896290549e-002	 8.9179054924e-001
 3.7993191451e+000	 7.1928948989e-002	 9.1008943228e-001
 3.7984622241e+000	 1.0809380568e-001	 9.1071060146e-001
 3.7972558372e+000	 1.4438658369e-001	 8.9919862217e-001
 3.7956961966e+000	 1.8080289894e-001	 8.8063580239e-001
 3.7937795703e+000	 2.1733826053e-001	 8.5965021431e-001
 3.7915022845e+000	 2.5398807111e-001	 8.4041772681e-001
 3.7888607277e+000	 2.9074762732e-001	 8.2665904745e-001
 3.7858513528e+000	 3.2761212042e-001	 8.2163293264e-001
 3.7824706809e+000	 3.6457663688e-001	 8.2812688426e-001
 3.8266640000e+000	 0.0000000000e+000	 8.9291813406e-001
 3.8264932507e+000	 3.6148169153e-002	 9.2502775186e-001
 3.8259783677e+000	 7.2433663068e-002	 9.3519823494e-001
 3.8251154338e+000	 1.0885228285e-001	 9.2900945511e-001
 3.8239005819e+000	 1.4539972155e-001	 9.1165956901e-001
 3.8223299975e+000	 1.8207156434e-001	 8.8797391430e-001
 3.8203999225e+000	 2.1886328879e-001	 8.6240613458e-001
 3.8181066574e+000	 2.5577026530e-001	 8.3903241583e-001
 3.8154465652e+000	 2.9278775752e-001	 8.2153988045e-001
 3.8124160740e+000	 3.2991092294e-001	 8.1321035391e-001
 3.8090116804e+000	 3.6713481358e-001	 8.1690088825e-001
 3.8533280000e+000	 0.0000000000e+000	 9.3827892047e-001
 3.8531560609e+000	 3.6400047757e-002	 9.5951422936e-001
 3.8526375902e+000	 7.2938377147e-002	 9.6083972497e-001
 3.8517686435e+000	 1.0961076002e-001	 9.4733648248e-001
 3.8505453265e+000	 1.4641285941e-001	 9.2380523047e-001
 3.8489637984e+000	 1.8334022973e-001	 8.9476896386e-001
 3.8470202747e+000	 2.2038831705e-001	 8.6446680371e-001
 3.8447110303e+000	 2.5755245950e-001	 8.3684002545e-001
 3.8420324026e+000	 2.9482788771e-001	 8.1551135051e-001
 3.8389807951e+000	 3.3220972546e-001	 8.0375877513e-001
 3.8355526800e+000	 3.6969299028e-001	 8.0448538872e-001
 3.8799920000e+000	 0.0000000000e+000	 9.8686616021e-001
 3.8798188711e+000	 3.6651926360e-002	 9.9653908176e-001
 3.8792968128e+000	 7.3443091225e-002	 9.8852933542e-001
 3.8784218531e+000	 1.1036923719e-001	 9.6736818911e-001
 3.8771900711e+000	 1.4742599728e-001	 9.3741419483e-001
 3.8755975993e+000	 1.8460889513e-001	 9.0284917584e-001
 3.8736406269e+000	 2.2191334531e-001	 8.6766443166e-001
 3.8713154031e+000	 2.5933465369e-001	 8.3563812302e-001
 3.8686182401e+000	 2.9686801791e-001	 8.1030498222e-001
 3.8655455163e+000	 3.3450852798e-001	 7.9491968351e-001
 3.8620936795e+000	 3.7225116698e-001	 7.9241539679e-001
 3.9066560000e+000	 0.0000000000e+000	 1.0395658903e+000
 3.9064816814e+000	 3.6903804964e-002	 1.0373018389e+000
 3.9059560353e+000	 7.3947805304e-002	 1.0197072209e+000
 3.9050750628e+000	 1.1112771436e-001	 9.9071853501e-001
 3.9038348158e+000	 1.4843913514e-001	 9.5421375439e-001
 3.9022314002e+000	 1.8587756052e-001	 9.1400132517e-001
 3.9002609792e+000	 2.2343837357e-001	 8.7379830574e-001
 3.8979197760e+000	 2.6111684788e-001	 8.3719864990e-001
 3.8952040776e+000	 2.9890814810e-001	 8.0763283205e-001
 3.8921102375e+000	 3.3680733051e-001	 7.8832021215e-001
 3.8886346791e+000	 3.7480934368e-001	 7.8221573688e-001
 3.9333200000e+000	 0.0000000000e+000	 1.0971622330e+000
 3.9331444916e+000	 3.7155683567e-002	 1.0829157078e+000
 3.9326152578e+000	 7.4452519382e-002	 1.0557411725e+000
 3.9317282725e+000	 1.1188619153e-001	 1.0189415176e+000
 3.9304795604e+000	 1.4945227300e-001	 9.7588215967e-001
 3.9288652011e+000	 1.8714622592e-001	 9.2997266965e-001
 3.9268813314e+000	 2.2496340183e-001	 8.8463641276e-001
 3.9245241489e+000	 2.6289904207e-001	 8.4326924766e-001
 3.9217899151e+000	 3.0094827830e-001	 8.0918853729e-001
 3.9186749587e+000	 3.3910613303e-001	 7.8557393405e-001
 3.9151756786e+000	 3.7736752037e-001	 7.7540161209e-001
 3.6497656832e+000	 3.5178575339e-001	 8.1189725408e-001
 3.6461426319e+000	 3.8753971400e-001	 8.3174742561e-001
 3.6421549158e+000	 4.2338045735e-001	 8.3901710869e-001
 3.6377993950e+000	 4.5930302458e-001	 8.3607915434e-001
 3.6330730071e+000	 4.9530236159e-001	 8.2484080324e-001
 3.6279727701e+000	 5.3137332022e-001	 8.0679690230e-001
 3.6224957856e+000	 5.6751065950e-001	 7.8309202770e-001
 3.6166392418e+000	 6.0370904694e-001	 7.5459324382e-001
 3.6104004164e+000	 6.3996306006e-001	 7.2197529393e-001
 3.6037766798e+000	 6.7626718788e-001	 6.8650502764e-001
 3.5967654974e+000	 7.1261583262e-001	 6.6384840309e-001
 3.6763066828e+000	 3.5434393009e-001	 8.3004449224e-001
 3.6726572847e+000	 3.9035789255e-001	 8.4681066750e-001
 3.6686405700e+000	 4.2645926884e-001	 8.5153874176e-001
 3.6642533760e+000	 4.6264306403e-001	 8.4644793335e-001
 3.6594926179e+000	 4.9890418727e-001	 8.3329437300e-001
 3.6543552921e+000	 5.3523745296e-001	 8.1341562470e-001
 3.6488384791e+000	 5.7163758201e-001	 7.8778404628e-001
 3.6429393467e+000	 6.0809920317e-001	 7.5707082150e-001
 3.6366551528e+000	 6.4461685451e-001	 7.2172256761e-001
 3.6299832485e+000	 6.8118498499e-001	 6.8355763008e-001
 3.6229210810e+000	 7.1779795611e-001	 6.5892443273e-001
 3.7028476823e+000	 3.5690210679e-001	 8.3915209953e-001
 3.6991719375e+000	 3.9317607110e-001	 8.5335534345e-001
 3.6951262243e+000	 4.2953808033e-001	 8.5620994721e-001
 3.6907073570e+000	 4.6598310348e-001	 8.4974914399e-001
 3.6859122288e+000	 5.0250601294e-001	 8.3554563791e-001
 3.6807378142e+000	 5.3910158569e-001	 8.1474687229e-001
 3.6751811727e+000	 5.7576450452e-001	 7.8811905941e-001
 3.6692394517e+000	 6.1248935939e-001	 7.5610191025e-001
 3.6629098892e+000	 6.4927064896e-001	 7.1887608114e-001
 3.6561898172e+000	 6.8610278210e-001	 6.7903076434e-001
 3.6490766646e+000	 7.2298007960e-001	 6.5292725690e-001
 3.7293886818e+000	 3.5946028349e-001	 8.4081575555e-001
 3.7256865903e+000	 3.9599424966e-001	 8.5283211347e-001
 3.7216118785e+000	 4.3261689182e-001	 8.5431941562e-001
 3.7171613380e+000	 4.6932314293e-001	 8.4709940113e-001
 3.7123318396e+000	 5.0610783862e-001	 8.3253591023e-001
 3.7071203362e+000	 5.4296571843e-001	 8.1156031303e-001
 3.7015238663e+000	 5.7989142703e-001	 7.8470560950e-001
 3.6955395566e+000	 6.1687951562e-001	 7.5215125025e-001
 3.6891646255e+000	 6.5392444342e-001	 7.1378081248e-001
 3.6823963859e+000	 6.9102057921e-001	 6.7313666459e-001
 3.6752322482e+000	 7.2816220310e-001	 6.4600860909e-001
 3.7559296814e+000	 3.6201846019e-001	 8.3661757955e-001
 3.7522012431e+000	 3.9881242821e-001	 8.4668279471e-001
 3.7480975327e+000	 4.3569570332e-001	 8.4715134996e-001
 3.7436153190e+000	 4.7266318238e-001	 8.3961492035e-001
 3.7387514504e+000	 5.0970966430e-001	 8.2521001946e-001
 3.7335028583e+000	 5.4682985117e-001	 8.0463297134e-001
 3.7278665598e+000	 5.8401834954e-001	 7.7816345041e-001
 3.7218396615e+000	 6.2126967185e-001	 7.4569875487e-001
 3.7154193619e+000	 6.5857823787e-001	 7.0680106982e-001
 3.7086029546e+000	 6.9593837632e-001	 6.6611112688e-001
 3.7013878317e+000	 7.3334432659e-001	 6.3834424893e-001
 3.7824706809e+000	 3.6457663688e-001	 8.2812688426e-001
 3.7787158959e+000	 4.0163060677e-001	 8.3634086400e-001
 3.7745831870e+000	 4.3877451481e-001	 8.3598573666e-001
 3.7700693001e+000	 4.7600322183e-001	 8.2841158136e-001
 3.7651710613e+000	 5.1331148998e-001	 8.1451619588e-001
 3.7598853803e+000	 5.5069398390e-001	 7.9474896327e-001
 3.7542092534e+000	 5.8814527205e-001	 7.6912316971e-001
 3.7481397664e+000	 6.2565982808e-001	 7.3723905933e-001
 3.7416740982e+000	 6.6323203232e-001	 6.9832000954e-001
 3.7348095233e+000	 7.0085617343e-001	 6.5821261975e-001
 3.7275434153e+000	 7.3852645008e-001	 6.3013299199e-001
 3.8090116804e+000	 3.6713481358e-001	 8.1690088825e-001
 3.8052305487e+000	 4.0444878532e-001	 8.2323192868e-001
 3.8010688412e+000	 4.4185332630e-001	 8.2209859456e-001
 3.7965232811e+000	 4.7934326128e-001	 8.1460497830e-001
 3.7915906721e+000	 5.1691331566e-001	 8.0140594915e-001
 3.7862679023e+000	 5.5455811664e-001	 7.8269923436e-001
 3.7805519469e+000	 5.9227219456e-001	 7.5822582033e-001
 3.7744398714e+000	 6.3004998430e-001	 7.2728108462e-001
 3.7679288346e+000	 6.6788582677e-001	 6.8874582904e-001
 3.7610160921e+000	 7.0577397054e-001	 6.4972141921e-001
 3.7536989989e+000	 7.4370857358e-001	 6.2159576682e-001
 3.8355526800e+000	 3.6969299028e-001	 8.0448538872e-001
 3.8317452015e+000	 4.0726696387e-001	 8.0877416746e-001
 3.8275544954e+000	 4.4493213779e-001	 8.0676220272e-001
 3.8229772621e+000	 4.8268330073e-001	 7.9931045728e-001
 3.8180102829e+000	 5.2051514133e-001	 7.8683394219e-001
 3.8126504244e+000	 5.5842224937e-001	 7.6928129999e-001
 3.8068946405e+000	 5.9639911707e-001	 7.4612256135e-001
 3.8007399763e+000	 6.3444014053e-001	 7.1634761626e-001
 3.7941835709e+000	 6.7253962123e-001	 6.7862783702e-001
 3.7872226608e+000	 7.1069176765e-001	 6.4093876682e-001
 3.7798545825e+000	 7.4889069707e-001	 6.1297469788e-001
 3.8620936795e+000	 3.7225116698e-001	 7.9241539679e-001
 3.8582598543e+000	 4.1008514243e-001	 7.9437874258e-001
 3.8540401497e+000	 4.4801094928e-001	 7.9124530824e-001
 3.8494312431e+000	 4.8602334018e-001	 7.8364314211e-001
 3.8444298938e+000	 5.2411696701e-001	 7.7175786065e-001
 3.8390329464e+000	 5.6228638211e-001	 7.5529898816e-001
 3.8332373341e+000	 6.0052603959e-001	 7.3347430732e-001
 3.8270400812e+000	 6.3883029676e-001	 7.0497489694e-001
 3.8204383073e+000	 6.7719341568e-001	 6.6842232156e-001
 3.8134292295e+000	 7.1560956476e-001	 6.3218605002e-001
 3.8060101661e+000	 7.5407282056e-001	 6.0453221309e-001
 3.8886346791e+000	 3.7480934368e-001	 7.8221573688e-001
 3.8847745071e+000	 4.1290332098e-001	 7.8145018480e-001
 3.8805258039e+000	 4.5108976078e-001	 7.7681331491e-001
 3.8758852241e+000	 4.8936337964e-001	 7.6871794849e-001
 3.8708495046e+000	 5.2771879269e-001	 7.5713827807e-001
 3.8654154685e+000	 5.6615051484e-001	 7.4156218459e-001
 3.8595800276e+000	 6.0465296210e-001	 7.2095138573e-001
 3.8533401861e+000	 6.4322045299e-001	 6.9371223247e-001
 3.8466930436e+000	 6.8184721013e-001	 6.5854365784e-001
 3.8396357982e+000	 7.2052736187e-001	 6.2380400337e-001
 3.8321657497e+000	 7.5925494406e-001	 5.9655017497e-001
 3.9151756786e+000	 3.7736752037e-001	 7.7540161209e-001
 3.9112891599e+000	 4.1572149954e-001	 7.7138675230e-001
 3.9070114582e+000	 4.5416857227e-001	 7.6472845371e-001
 3.9023392051e+000	 4.9270341909e-001	 7.5564958738e-001
 3.8972691155e+000	 5.3132061837e-001	 7.4393851701e-001
 3.8917979905e+000	 5.7001464758e-001	 7.2888657997e-001
 3.8859227212e+000	 6.0877988461e-001	 7.0923320234e-001
 3.8796402911e+000	 6.4761060921e-001	 6.8312161052e-001
 3.8729477800e+000	 6.8650100458e-001	 6.4942412672e-001
 3.8658423669e+000	 7.2544515898e-001	 6.1615192984e-001
 3.8583213333e+000	 7.6443706755e-001	 5.8932903399e-001
 3.5967654974e+000	 7.1261583262e-001	 6.6384840309e-001
 3.5893632944e+000	 7.4900877130e-001	 6.4955418211e-001
 3.5815687602e+000	 7.8543477855e-001	 6.3129883090e-001
 3.5733796665e+000	 8.2188799579e-001	 6.1016560228e-001
 3.5647938922e+000	 8.5836248506e-001	 5.8702650948e-001
 3.5558094260e+000	 8.9485223122e-001	 5.6255937859e-001
 3.5464243692e+000	 9.3135114424e-001	 5.3726780254e-001
 3.5366369385e+000	 9.6785306161e-001	 5.1150428789e-001
 3.5264454685e+000	 1.0043517508e+000	 4.8549688097e-001
 3.5158484147e+000	 1.0408409118e+000	 4.5937731276e-001
 3.5048443553e+000	 1.0773141800e+000	 4.3322528140e-001
 3.6229210810e+000	 7.1779795611e-001	 6.5892443273e-001
 3.6154650493e+000	 7.5445554328e-001	 6.4272732202e-001
 3.6076138335e+000	 7.9114643950e-001	 6.2345901818e-001
 3.5993651890e+000	 8.2786474356e-001	 6.0205737776e-001
 3.5907169792e+000	 8.6460447435e-001	 5.7924764818e-001
 3.5816671781e+000	 9.0135957298e-001	 5.5555859798e-001
 3.5722138734e+000	 9.3812390514e-001	 5.3134162633e-001
 3.5623552688e+000	 9.7489126348e-001	 5.0679316228e-001
 3.5520896867e+000	 1.0116553701e+000	 4.8197752799e-001
 3.5414155714e+000	 1.0484098794e+000	 4.5687053934e-001
 3.5303314908e+000	 1.0851483803e+000	 4.3137085536e-001
 3.6490766646e+000	 7.2298007960e-001	 6.5292725690e-001
 3.6415668043e+000	 7.5990231526e-001	 6.3522221161e-001
 3.6336589068e+000	 7.9685810044e-001	 6.1524842156e-001
 3.6253507114e+000	 8.3384149134e-001	 5.9380931986e-001
 3.6166400661e+000	 8.7084646365e-001	 5.7149470072e-001
 3.6075249303e+000	 9.0786691475e-001	 5.4869582365e-001
 3.5980033777e+000	 9.4489666604e-001	 5.2562357558e-001
 3.5880735991e+000	 9.8192946535e-001	 5.0233002139e-001
 3.5777339049e+000	 1.0189589895e+000	 4.7873092512e-001
 3.5669827281e+000	 1.0559788470e+000	 4.5464708008e-001
 3.5558186262e+000	 1.0929825805e+000	 4.2981797300e-001
 3.6752322482e+000	 7.2816220310e-001	 6.4600860909e-001
 3.6676685592e+000	 7.6534908725e-001	 6.2714094882e-001
 3.6597039801e+000	 8.0256976138e-001	 6.0672070365e-001
 3.6513362338e+000	 8.3981823911e-001	 5.8542860676e-001
 3.6425631530e+000	 8.7708845295e-001	 5.6373104381e-001
 3.6333826824e+000	 9.1437425652e-001	 5.4189402240e-001
 3.6237928819e+000	 9.5166942693e-001	 5.2000027885e-001
 3.6137919294e+000	 9.8896766723e-001	 4.9796987398e-001
 3.6033781231e+000	 1.0262626089e+000	 4.7558222749e-001
 3.5925498848e+000	 1.0635478146e+000	 4.5251525496e-001
 3.5813057617e+000	 1.1008167807e+000	 4.2836096618e-001
 3.7013878317e+000	 7.3334432659e-001	 6.3834424893e-001
 3.6937703142e+000	 7.7079585923e-001	 6.1860960242e-001
 3.6857490534e+000	 8.0828142233e-001	 5.9795324416e-001
 3.6773217563e+000	 8.4579498689e-001	 5.7694570743e-001
 3.6684862399e+000	 8.8333044224e-001	 5.5594277167e-001
 3.6592404345e+000	 9.2088159828e-001	 5.3509818339e-001
 3.6495823861e+000	 9.5844218783e-001	 5.1437959471e-001
 3.6395102597e+000	 9.9600586910e-001	 4.9358809324e-001
 3.6290223413e+000	 1.0335662283e+000	 4.7237960396e-001
 3.6181170415e+000	 1.0711167822e+000	 4.5030188935e-001
 3.6067928972e+000	 1.1086509810e+000	 4.2681172264e-001
 3.7275434153e+000	 7.3852645008e-001	 6.3013299199e-001
 3.7198720691e+000	 7.7624263121e-001	 6.0977718146e-001
 3.7117941267e+000	 8.1399308327e-001	 5.8904605925e-001
 3.7033072787e+000	 8.5177173467e-001	 5.6841326147e-001
 3.6944093268e+000	 8.8957243154e-001	 5.4813754721e-001
 3.6850981866e+000	 9.2738894005e-001	 5.2827415181e-001
 3.6753718904e+000	 9.6521494873e-001	 5.0868943919e-001
 3.6652285900e+000	 1.0030440710e+000	 4.8907924961e-001
 3.6546665595e+000	 1.0408698477e+000	 4.6898952169e-001
 3.6436841982e+000	 1.0786857497e+000	 4.4785119266e-001
 3.6322800327e+000	 1.1164851812e+000	 4.2499860545e-001
 3.7536989989e+000	 7.4370857358e-001	 6.2159576682e-001
 3.7459738241e+000	 7.8168940319e-001	 6.0081463399e-001
 3.7378392000e+000	 8.1970474421e-001	 5.8012075196e-001
 3.7292928012e+000	 8.5774848244e-001	 5.5990499156e-001
 3.7203324137e+000	 8.9581442084e-001	 5.4034348699e-001
 3.7109559387e+000	 9.3389628182e-001	 5.2140749715e-001
 3.7011613946e+000	 9.7198770963e-001	 5.0287664838e-001
 3.6909469203e+000	 1.0100822729e+000	 4.8435597885e-001
 3.6803107777e+000	 1.0481734670e+000	 4.6529563133e-001
 3.6692513549e+000	 1.0862547173e+000	 4.4502367188e-001
 3.6577671681e+000	 1.1243193814e+000	 4.2276540687e-001
 3.7798545825e+000	 7.4889069707e-001	 6.1297469788e-001
 3.7720755791e+000	 7.8713617517e-001	 5.9191387368e-001
 3.7638842733e+000	 8.2541640516e-001	 5.7131949226e-001
 3.7552783236e+000	 8.6372523022e-001	 5.5151464689e-001
 3.7462555007e+000	 9.0205641013e-001	 5.3260807832e-001
 3.7368136908e+000	 9.4040362358e-001	 5.1450241439e-001
 3.7269508988e+000	 9.7876047052e-001	 4.9690587451e-001
 3.7166652506e+000	 1.0171204747e+000	 4.7934570276e-001
 3.7059549959e+000	 1.0554770864e+000	 4.6119768573e-001
 3.6948185116e+000	 1.0938236849e+000	 4.4169507864e-001
 3.6832543036e+000	 1.1321535817e+000	 4.1997033497e-001
 3.8060101661e+000	 7.5407282056e-001	 6.0453221309e-001
 3.7981773340e+000	 7.9258294715e-001	 5.8328683300e-001
 3.7899293467e+000	 8.3112806610e-001	 5.6280402522e-001
 3.7812638460e+000	 8.6970197799e-001	 5.4335497607e-001
 3.7721785876e+000	 9.0829839943e-001	 5.2499712686e-001
 3.7626714430e+000	 9.4691096535e-001	 5.0758065658e-001
 3.7527404031e+000	 9.8553323142e-001	 4.9075851385e-001
 3.7423835808e+000	 1.0241586766e+000	 4.7399857608e-001
 3.7315992141e+000	 1.0627807058e+000	 4.5661049079e-001
 3.7203856683e+000	 1.1013926525e+000	 4.3775538788e-001
 3.7087414391e+000	 1.1399877819e+000	 4.1648503146e-001
 3.8321657497e+000	 7.5925494406e-001	 5.9655017497e-001
 3.8242790890e+000	 7.9802971914e-001	 5.7516454168e-001
 3.8159744200e+000	 8.3683972704e-001	 5.5475470606e-001
 3.8072493685e+000	 8.7567872577e-001	 5.3555672815e-001
 3.7981016745e+000	 9.1454038873e-001	 5.1759373333e-001
 3.7885291951e+000	 9.5341830711e-001	 5.0068049716e-001
 3.7785299073e+000	 9.9230599232e-001	 4.8443166489e-001
 3.7681019111e+000	 1.0311968785e+000	 4.6827246710e-001
 3.7572434323e+000	 1.0700843252e+000	 4.5146288678e-001
 3.7459528250e+000	 1.1089616201e+000	 4.3310780680e-001
 3.7342285745e+000	 1.1478219821e+000	 4.1219361913e-001
 3.8583213333e+000	 7.6443706755e-001	 5.8932903399e-001
 3.8503808439e+000	 8.0347649112e-001	 5.6779622925e-001
 3.8420194933e+000	 8.4255138799e-001	 5.4736956069e-001
 3.8332348909e+000	 8.8165547354e-001	 5.2826768039e-001
 3.8240247614e+000	 9.2078237802e-001	 5.1049729797e-001
 3.8143869472e+000	 9.5992564888e-001	 4.9385572082e-001
 3.8043194115e+000	 9.9907875321e-001	 4.7793711548e-001
 3.7938202414e+000	 1.0382350804e+000	 4.6214160763e-001
 3.7828876505e+000	 1.0773879445e+000	 4.4569675871e-001
 3.7715199817e+000	 1.1165305877e+000	 4.2766781262e-001
 3.7597157100e+000	 1.1556561824e+000	 4.0699177764e-001
 3.5048443553e+000	 1.0773141800e+000	 4.3322528140e-001
 3.4934319935e+000	 1.1137651284e+000	 4.0856079106e-001
 3.4816101568e+000	 1.1501872686e+000	 3.8519322580e-001
 3.4693778024e+000	 1.1865740558e+000	 3.6064735713e-001
 3.4567340197e+000	 1.2229188917e+000	 3.3255216366e-001
 3.4436780330e+000	 1.2592151286e+000	 2.9870268528e-001
 3.4302092034e+000	 1.2954560718e+000	 2.5712716338e-001
 3.4163270308e+000	 1.3316349834e+000	 2.0615954686e-001
 3.4020311558e+000	 1.3677450859e+000	 1.5524403324e-001
 3.3873213615e+000	 1.4037795652e+000	 1.1551572358e-001
 3.3721975751e+000	 1.4397315747e+000	 8.4882356526e-002
 3.5303314908e+000	 1.0851483803e+000	 4.3137085536e-001
 3.5188361386e+000	 1.1218643990e+000	 4.0686574399e-001
 3.5069283338e+000	 1.1585514001e+000	 3.8317502453e-001
 3.4946070260e+000	 1.1952027909e+000	 3.5786417079e-001
 3.4818712981e+000	 1.2318119256e+000	 3.2859722256e-001
 3.4687203686e+000	 1.2683721077e+000	 2.9319896744e-001
 3.4551535940e+000	 1.3048765941e+000	 2.4972266031e-001
 3.4411704707e+000	 1.3413185978e+000	 1.9708125835e-001
 3.4267706364e+000	 1.3776912920e+000	 1.4926411197e-001
 3.4119538729e+000	 1.4139878131e+000	 1.1148122045e-001
 3.3967201067e+000	 1.4502012647e+000	 8.1796410242e-002
 3.5558186262e+000	 1.0929825805e+000	 4.2981797300e-001
 3.5442402836e+000	 1.1299636695e+000	 4.0548395253e-001
 3.5322465108e+000	 1.1669155315e+000	 3.8146151564e-001
 3.5198362497e+000	 1.2038315261e+000	 3.5536254745e-001
 3.5070085764e+000	 1.2407049594e+000	 3.2489104328e-001
 3.4937627042e+000	 1.2775290868e+000	 2.8790556229e-001
 3.4800979847e+000	 1.3142971164e+000	 2.4248748021e-001
 3.4660139105e+000	 1.3510022122e+000	 1.8958884698e-001
 3.4515101171e+000	 1.3876374981e+000	 1.4432664233e-001
 3.4365863842e+000	 1.4241960610e+000	 1.0801691495e-001
 3.4212426383e+000	 1.4606709546e+000	 7.8907184283e-002
 3.5813057617e+000	 1.1008167807e+000	 4.2836096618e-001
 3.5696444287e+000	 1.1380629401e+000	 4.0420093280e-001
 3.5575646878e+000	 1.1752796629e+000	 3.7983332617e-001
 3.5450654733e+000	 1.2124602613e+000	 3.5292258106e-001
 3.5321458548e+000	 1.2495979933e+000	 3.2121791258e-001
 3.5188050398e+000	 1.2866860660e+000	 2.8261598228e-001
 3.5050423753e+000	 1.3237176387e+000	 2.3522963548e-001
 3.4908573503e+000	 1.3606858266e+000	 1.8328847681e-001
 3.4762495977e+000	 1.3975837042e+000	 1.4007740090e-001
 3.4612188956e+000	 1.4344043088e+000	 1.0483674606e-001
 3.4457651699e+000	 1.4711406446e+000	 7.5999888109e-002
 3.6067928972e+000	 1.1086509810e+000	 4.2681172264e-001
 3.5950485738e+000	 1.1461622107e+000	 4.0281886943e-001
 3.5828828648e+000	 1.1836437943e+000	 3.7808699236e-001
 3.5702946969e+000	 1.2210889964e+000	 3.5033965917e-001
 3.5572831332e+000	 1.2584910271e+000	 3.1737695292e-001
 3.5438473754e+000	 1.2958430451e+000	 2.7713828803e-001
 3.5299867659e+000	 1.3331381610e+000	 2.2777158021e-001
 3.5157007902e+000	 1.3703694410e+000	 1.7779523413e-001
 3.5009890783e+000	 1.4075299103e+000	 1.3619476248e-001
 3.4858514070e+000	 1.4446125567e+000	 1.0168540188e-001
 3.4702877015e+000	 1.4816103345e+000	 7.2888502234e-002
 3.6322800327e+000	 1.1164851812e+000	 4.2499860545e-001
 3.6204527189e+000	 1.1542614812e+000	 4.0115558630e-001
 3.6082010418e+000	 1.1920079257e+000	 3.7603399061e-001
 3.5955239206e+000	 1.2297177316e+000	 3.4742356302e-001
 3.5824204116e+000	 1.2673840610e+000	 3.1318130092e-001
 3.5688897110e+000	 1.3050000242e+000	 2.7129435430e-001
 3.5549311565e+000	 1.3425586833e+000	 2.2053886499e-001
 3.5405442300e+000	 1.3800530554e+000	 1.7275699220e-001
 3.5257285589e+000	 1.4174761164e+000	 1.3238816606e-001
 3.5104839184e+000	 1.4548208046e+000	 9.8336779970e-002
 3.4948102331e+000	 1.4920800244e+000	 6.9414235404e-002
 3.6577671681e+000	 1.1243193814e+000	 4.2276540687e-001
 3.6458568640e+000	 1.1623607518e+000	 3.9904355089e-001
 3.6335192188e+000	 1.2003720571e+000	 3.7349980096e-001
 3.6207531442e+000	 1.2383464667e+000	 3.4399759914e-001
 3.6075576900e+000	 1.2762770948e+000	 3.0845731609e-001
 3.5939320466e+000	 1.3141570033e+000	 2.6491916492e-001
 3.5798755472e+000	 1.3519792056e+000	 2.1386593759e-001
 3.5653876698e+000	 1.3897366698e+000	 1.6785291057e-001
 3.5504680395e+000	 1.4274223225e+000	 1.2839660447e-001
 3.5351164297e+000	 1.4650290525e+000	 9.4592469657e-002
 3.5193327647e+000	 1.5025497144e+000	 6.5444001569e-002
 3.6832543036e+000	 1.1321535817e+000	 4.1997033497e-001
 3.6712610090e+000	 1.1704600224e+000	 3.9632891052e-001
 3.6588373958e+000	 1.2087361885e+000	 3.7032300164e-001
 3.6459823679e+000	 1.2469752019e+000	 3.3989776094e-001
 3.6326949684e+000	 1.2851701287e+000	 3.0304381820e-001
 3.6189743822e+000	 1.3233139825e+000	 2.5786013505e-001
 3.6048199378e+000	 1.3613997279e+000	 2.0740654171e-001
 3.5902311097e+000	 1.3994202842e+000	 1.6279195881e-001
 3.5752075201e+000	 1.4373685286e+000	 1.2398713680e-001
 3.5597489411e+000	 1.4752373004e+000	 9.0280255064e-002
 3.5438552963e+000	 1.5130194043e+000	 6.0868915679e-002
 3.7087414391e+000	 1.1399877819e+000	 4.1648503146e-001
 3.6966651541e+000	 1.1785592929e+000	 3.9287055906e-001
 3.6841555728e+000	 1.2171003199e+000	 3.6635439316e-001
 3.6712115915e+000	 1.2556039371e+000	 3.3497191871e-001
 3.6578322468e+000	 1.2940631625e+000	 2.9679135212e-001
 3.6440167178e+000	 1.3324709616e+000	 2.4997645959e-001
 3.6297643284e+000	 1.3708202502e+000	 2.0084421246e-001
 3.6150745495e+000	 1.4091038986e+000	 1.5731146332e-001
 3.5999470007e+000	 1.4473147347e+000	 1.1895342232e-001
 3.5843814525e+000	 1.4854455482e+000	 8.5252637966e-002
 3.5683778279e+000	 1.5234890943e+000	 5.5602807410e-002
 3.7342285745e+000	 1.1478219821e+000	 4.1219361913e-001
 3.7220692992e+000	 1.1866585635e+000	 3.8853923260e-001
 3.7094737498e+000	 1.2254644513e+000	 3.6145615046e-001
 3.6964408151e+000	 1.2642326722e+000	 3.2907903689e-001
 3.6829695251e+000	 1.3029561964e+000	 2.8956147870e-001
 3.6690590534e+000	 1.3416279407e+000	 2.4149542262e-001
 3.6547087190e+000	 1.3802407725e+000	 1.9389105302e-001
 3.6399179893e+000	 1.4187875129e+000	 1.5117567642e-001
 3.6246864813e+000	 1.4572609408e+000	 1.1311427489e-001
 3.6090139638e+000	 1.4956537961e+000	 7.9385379487e-002
 3.5929003595e+000	 1.5339587842e+000	 4.9580751955e-002
 3.7597157100e+000	 1.1556561824e+000	 4.0699177764e-001
 3.7474734443e+000	 1.1947578341e+000	 3.8321663268e-001
 3.7347919268e+000	 1.2338285827e+000	 3.5550100190e-001
 3.7216700388e+000	 1.2728614074e+000	 3.2208841709e-001
 3.7081068035e+000	 1.3118492302e+000	 2.8122609040e-001
 3.6941013890e+000	 1.3507849198e+000	 2.3268839105e-001
 3.6796531097e+000	 1.3896612948e+000	 1.8628634237e-001
 3.6647614292e+000	 1.4284711273e+000	 1.4417436623e-001
 3.6494259619e+000	 1.4672071469e+000	 1.0631223696e-001
 3.6336464752e+000	 1.5058620440e+000	 7.2576059755e-002
 3.6174228910e+000	 1.5444284742e+000	 4.2757617078e-002
 3.3721975751e+000	 1.4397315747e+000	 8.4882356526e-002
 3.3566622317e+000	 1.4755888670e+000	 5.6818723723e-002
 3.3407133163e+000	 1.5113499448e+000	 2.6769097672e-002
 3.3243512004e+000	 1.5470078906e+000	-4.3822891370e-003
 3.3075764053e+000	 1.5825557699e+000	-3.5419324199e-002
 3.2903896030e+000	 1.6179866343e+000	-6.5896057483e-002
 3.2727916178e+000	 1.6532935261e+000	-9.5746491562e-002
 3.2547834267e+000	 1.6884694823e+000	-1.2519050193e-001
 3.2363661604e+000	 1.7235075382e+000	-1.5471267048e-001
 3.2175411036e+000	 1.7584007324e+000	-1.8503617391e-001
 3.1983096960e+000	 1.7931421101e+000	-2.1709181451e-001
 3.3967201067e+000	 1.4502012647e+000	 8.1796410242e-002
 3.3810717907e+000	 1.4863193103e+000	 5.4298829193e-002
 3.3650068952e+000	 1.5223404416e+000	 2.4869763080e-002
 3.3485257945e+000	 1.5582576911e+000	-5.7982247877e-003
 3.3316290134e+000	 1.5940640736e+000	-3.7014178503e-002
 3.3143172292e+000	 1.6297525903e+000	-6.7829158908e-002
 3.2965912719e+000	 1.6653162329e+000	-9.7834558365e-002
 3.2784521257e+000	 1.7007479877e+000	-1.2722010117e-001
 3.2599009295e+000	 1.7360408395e+000	-1.5646056492e-001
 3.2409389774e+000	 1.7711877760e+000	-1.8628855729e-001
 3.2215677195e+000	 1.8061817922e+000	-2.1766216406e-001
 3.4212426383e+000	 1.4606709546e+000	 7.8907184283e-002
 3.4054813497e+000	 1.4970497535e+000	 5.1723593002e-002
 3.3893004741e+000	 1.5333309384e+000	 2.2790769828e-002
 3.3727003885e+000	 1.5695074916e+000	-7.3062704990e-003
 3.3556816216e+000	 1.6055723773e+000	-3.7987390926e-002
 3.3382448554e+000	 1.6415185463e+000	-6.8679487387e-002
 3.3203909260e+000	 1.6773389397e+000	-9.8776521040e-002
 3.3021208248e+000	 1.7130264931e+000	-1.2803203527e-001
 3.2834356986e+000	 1.7485741407e+000	-1.5691696534e-001
 3.2643368512e+000	 1.7839748197e+000	-1.8619663964e-001
 3.2448257431e+000	 1.8192214742e+000	-2.1688149754e-001
 3.4457651699e+000	 1.4711406446e+000	 7.5999888109e-002
 3.4298909086e+000	 1.5077801967e+000	 4.8946809672e-002
 3.4135940530e+000	 1.5443214353e+000	 2.0446380102e-002
 3.3968749825e+000	 1.5807572920e+000	-9.0457911874e-003
 3.3797342297e+000	 1.6170806810e+000	-3.9079881879e-002
 3.3621724816e+000	 1.6532845023e+000	-6.9213922266e-002
 3.3441905801e+000	 1.6893616465e+000	-9.9016064464e-002
 3.3257895238e+000	 1.7253049986e+000	-1.2808796976e-001
 3.3069704678e+000	 1.7611074420e+000	-1.5657200047e-001
 3.2877347250e+000	 1.7967618633e+000	-1.8527885205e-001
 3.2680837666e+000	 1.8322611562e+000	-2.1529619949e-001
 3.4702877015e+000	 1.4816103345e+000	 7.2888502234e-002
 3.4543004676e+000	 1.5185106399e+000	 4.5849105931e-002
 3.4378876319e+000	 1.5553119321e+000	 1.7775947066e-002
 3.4210495765e+000	 1.5920070925e+000	-1.1026159304e-002
 3.4037868379e+000	 1.6285889847e+000	-4.0259651807e-002
 3.3861001078e+000	 1.6650504584e+000	-6.9636178697e-002
 3.3679902342e+000	 1.7013843533e+000	-9.8878777179e-002
 3.3494582228e+000	 1.7375835040e+000	-1.2772424680e-001
 3.3305052369e+000	 1.7736407432e+000	-1.5593420005e-001
 3.3111325989e+000	 1.8095489069e+000	-1.8406808029e-001
 3.2913417901e+000	 1.8453008382e+000	-2.1346286991e-001
 3.4948102331e+000	 1.4920800244e+000	 6.9414235404e-002
 3.4787100266e+000	 1.5292410832e+000	 4.2336391335e-002
 3.4621812108e+000	 1.5663024289e+000	 1.4742350259e-002
 3.4452241706e+000	 1.6032568930e+000	-1.3234795955e-002
 3.4278394461e+000	 1.6400972884e+000	-4.1471215879e-002
 3.4100277339e+000	 1.6768164144e+000	-6.9854166035e-002
 3.3917898883e+000	 1.7134070602e+000	-9.8284061603e-002
 3.3731269218e+000	 1.7498620094e+000	-1.2667675956e-001
 3.3540400061e+000	 1.7861740445e+000	-1.5496601796e-001
 3.3345304727e+000	 1.8223359506e+000	-1.8310608970e-001
 3.3145998137e+000	 1.8583405202e+000	-2.1194546126e-001
 3.5193327647e+000	 1.5025497144e+000	 6.5444001569e-002
 3.5031195856e+000	 1.5399715264e+000	 3.8338326722e-002
 3.4864747897e+000	 1.5772929258e+000	 1.1330447211e-002
 3.4693987646e+000	 1.6145066935e+000	-1.5638743924e-002
 3.4518920542e+000	 1.6516055921e+000	-4.2640143971e-002
 3.4339553601e+000	 1.6885823704e+000	-6.9758121758e-002
 3.4155895424e+000	 1.7254297670e+000	-9.7092462019e-002
 3.3967956208e+000	 1.7621405148e+000	-1.2476054071e-001
 3.3775747752e+000	 1.7987073457e+000	-1.5289969319e-001
 3.3579283465e+000	 1.8351229942e+000	-1.8166973154e-001
 3.3378578372e+000	 1.8713802022e+000	-2.1125556207e-001
 3.5438552963e+000	 1.5130194043e+000	 6.0868915679e-002
 3.5275291446e+000	 1.5507019696e+000	 3.3806809633e-002
 3.5107683686e+000	 1.5882834226e+000	 7.5455404920e-003
 3.4935733586e+000	 1.6257564939e+000	-1.8186226483e-002
 3.4759446624e+000	 1.6631138959e+000	-4.3674652330e-002
 3.4578829863e+000	 1.7003483264e+000	-6.9222242392e-002
 3.4393891965e+000	 1.7374524738e+000	-9.5149647714e-002
 3.4204643198e+000	 1.7744190203e+000	-1.2179771608e-001
 3.4011095443e+000	 1.8112406470e+000	-1.4952975278e-001
 3.3813262203e+000	 1.8479100378e+000	-1.7873394521e-001
 3.3611158607e+000	 1.8844198842e+000	-2.0982589983e-001
 3.5683778279e+000	 1.5234890943e+000	 5.5602807410e-002
 3.5519387036e+000	 1.5614324128e+000	 2.8714475897e-002
 3.5350619475e+000	 1.5992739195e+000	 3.4118594534e-003
 3.5177479526e+000	 1.6370062944e+000	-2.0808192700e-002
 3.4999972705e+000	 1.6746221996e+000	-4.4467182607e-002
 3.4818106125e+000	 1.7121142824e+000	-6.8106302475e-002
 3.4631888507e+000	 1.7494751806e+000	-9.2288077521e-002
 3.4441330188e+000	 1.7866975257e+000	-1.1759827746e-001
 3.4246443135e+000	 1.8237739482e+000	-1.4464805475e-001
 3.4047240942e+000	 1.8606970815e+000	-1.7407626155e-001
 3.3843738843e+000	 1.8974595662e+000	-2.0655189115e-001
 3.5929003595e+000	 1.5339587842e+000	 4.9580751955e-002
 3.5763482626e+000	 1.5721628561e+000	 2.3053216588e-002
 3.5593555264e+000	 1.6102644163e+000	-1.0289440471e-003
 3.5419225467e+000	 1.6482560949e+000	-2.3419849871e-002
 3.5240498787e+000	 1.6861305033e+000	-4.4895968897e-002
 3.5057382387e+000	 1.7238802385e+000	-6.6257262123e-002
 3.4869885048e+000	 1.7614978874e+000	-8.8328653348e-002
 3.4678017179e+000	 1.7989760311e+000	-1.1196178699e-001
 3.4481790826e+000	 1.8363072495e+000	-1.3803703000e-001
 3.4281219680e+000	 1.8734841251e+000	-1.6746566749e-001
 3.4076319078e+000	 1.9104992482e+000	-2.0119223515e-001
 3.6174228910e+000	 1.5444284742e+000	 4.2757617078e-002
 3.6007578216e+000	 1.5828932993e+000	 1.6832709642e-002
 3.5836491053e+000	 1.6212549131e+000	-5.7192865919e-003
 3.5660971407e+000	 1.6595058954e+000	-2.5922183691e-002
 3.5481024868e+000	 1.6976388070e+000	-4.4826593325e-002
 3.5296658649e+000	 1.7356461945e+000	-6.3510863751e-002
 3.5107881589e+000	 1.7735205942e+000	-8.3082363238e-002
 3.4914704169e+000	 1.8112545366e+000	-1.0467907128e-001
 3.4717138517e+000	 1.8488405507e+000	-1.2947143164e-001
 3.4515198418e+000	 1.8862711687e+000	-1.5866441429e-001
 3.4308899314e+000	 1.9235389302e+000	-1.9349972676e-001
 3.1983096960e+000	 1.7931421101e+000	-2.1709181451e-001
 3.1786705568e+000	 1.8277299040e+000	-2.4839137592e-001
 3.1586282936e+000	 1.8621519615e+000	-2.7730534633e-001
 3.1381848154e+000	 1.8964013734e+000	-3.0629418100e-001
 3.1173421865e+000	 1.9304712547e+000	-3.3789995327e-001
 3.0961026268e+000	 1.9643547489e+000	-3.7469211724e-001
 3.0744685107e+000	 1.9980450323e+000	-4.1920978108e-001
 3.0524423675e+000	 2.0315353184e+000	-4.6491021189e-001
 3.0300268800e+000	 2.0648188619e+000	-5.0287008184e-001
 3.0072248842e+000	 2.0978889635e+000	-5.3535543298e-001
 2.9840393683e+000	 2.1307389737e+000	-5.6466564970e-001
 3.2215677195e+000	 1.8061817922e+000	-2.1766216406e-001
 3.2017857650e+000	 1.8410211076e+000	-2.4843060234e-001
 3.1815977550e+000	 1.8756934813e+000	-2.7732963439e-001
 3.1610056124e+000	 1.9101919540e+000	-3.0691157905e-001
 3.1400114165e+000	 1.9445095906e+000	-3.3982272132e-001
 3.1186174032e+000	 1.9786394847e+000	-3.7874643161e-001
 3.0968259644e+000	 2.0125747630e+000	-4.2494480946e-001
 3.0746396477e+000	 2.0463085895e+000	-4.6607361990e-001
 3.0520611554e+000	 2.0798341701e+000	-5.0052189011e-001
 3.0290933441e+000	 2.1131447565e+000	-5.3068900638e-001
 3.0057392237e+000	 2.1462336512e+000	-5.5897205198e-001
 3.2448257431e+000	 1.8192214742e+000	-2.1688149754e-001
 3.2249009733e+000	 1.8543123111e+000	-2.4719344365e-001
 3.2045672165e+000	 1.8892350011e+000	-2.7623734397e-001
 3.1838264094e+000	 1.9239825346e+000	-3.0663698896e-001
 3.1626806464e+000	 1.9585479265e+000	-3.4112295279e-001
 3.1411321796e+000	 1.9929242205e+000	-3.8247299617e-001
 3.1191834182e+000	 2.0271044936e+000	-4.2705664003e-001
 3.0968369279e+000	 2.0610818606e+000	-4.6396760883e-001
 3.0740954307e+000	 2.0948494782e+000	-4.9523473223e-001
 3.0509618039e+000	 2.1284005496e+000	-5.2333194227e-001
 3.0274390790e+000	 2.1617283286e+000	-5.5072928997e-001
 3.2680837666e+000	 1.8322611562e+000	-2.1529619949e-001
 3.2480161815e+000	 1.8676035146e+000	-2.4524871476e-001
 3.2275366779e+000	 1.9027765210e+000	-2.7460974981e-001
 3.2066472063e+000	 1.9377731153e+000	-3.0605516401e-001
 3.1853498764e+000	 1.9725862624e+000	-3.4238093754e-001
 3.1636469561e+000	 2.0072089563e+000	-3.8600100494e-001
 3.1415408719e+000	 2.0416342243e+000	-4.2624262185e-001
 3.1190342081e+000	 2.0758551317e+000	-4.5930446361e-001
 3.0961297061e+000	 2.1098647864e+000	-4.8769819303e-001
 3.0728302637e+000	 2.1436563427e+000	-5.1394852749e-001
 3.0491389344e+000	 2.1772230061e+000	-5.4057448715e-001
 3.2913417901e+000	 1.8453008382e+000	-2.1346286991e-001
 3.2711313898e+000	 1.8808947182e+000	-2.4317108839e-001
 3.2505061393e+000	 1.9163180408e+000	-2.7302966588e-001
 3.2294680033e+000	 1.9515636959e+000	-3.0574812287e-001
 3.2080191063e+000	 1.9866245983e+000	-3.4417000844e-001
 3.1861617325e+000	 2.0214936921e+000	-3.8736802061e-001
 3.1638983256e+000	 2.0561639549e+000	-4.2322660235e-001
 3.1412314882e+000	 2.0906284029e+000	-4.5278802508e-001
 3.1181639814e+000	 2.1248800946e+000	-4.7859287236e-001
 3.0946987236e+000	 2.1589121357e+000	-5.0319360328e-001
 3.0708387898e+000	 2.1927176836e+000	-5.2913493105e-001
 3.3145998137e+000	 1.8583405202e+000	-2.1194546126e-001
 3.2942465980e+000	 1.8941859217e+000	-2.4153808684e-001
 3.2734756007e+000	 1.9298595606e+000	-2.7207828452e-001
 3.2522888003e+000	 1.9653542766e+000	-3.0629182975e-001
 3.2306883363e+000	 2.0006629342e+000	-3.4704952279e-001
 3.2086765089e+000	 2.0357784278e+000	-3.8687504155e-001
 3.1862557793e+000	 2.0706936855e+000	-4.1872384343e-001
 3.1634287684e+000	 2.1054016740e+000	-4.4511286370e-001
 3.1401982568e+000	 2.1398954027e+000	-4.6858950276e-001
 3.1165671834e+000	 2.1741679288e+000	-4.9171162529e-001
 3.0925386452e+000	 2.2082123611e+000	-5.1702707436e-001
 3.3378578372e+000	 1.8713802022e+000	-2.1125556207e-001
 3.3173618062e+000	 1.9074771252e+000	-2.4092706023e-001
 3.2964450622e+000	 1.9434010804e+000	-2.7233200208e-001
 3.2751095973e+000	 1.9791448572e+000	-3.0825286110e-001
 3.2533575662e+000	 2.0147012702e+000	-3.4987650392e-001
 3.2311912853e+000	 2.0500631636e+000	-3.8524563641e-001
 3.2086132330e+000	 2.0852234162e+000	-4.1344023709e-001
 3.1856260486e+000	 2.1201749451e+000	-4.3696344238e-001
 3.1622325321e+000	 2.1549107109e+000	-4.5834805723e-001
 3.1384356433e+000	 2.1894237219e+000	-4.8013571455e-001
 3.1142385006e+000	 2.2237070385e+000	-5.0485552825e-001
 3.3611158607e+000	 1.8844198842e+000	-2.0982589983e-001
 3.3404770145e+000	 1.9207683288e+000	-2.4172554747e-001
 3.3194145236e+000	 1.9569426003e+000	-2.7435923156e-001
 3.2979303943e+000	 1.9929354379e+000	-3.1218505954e-001
 3.2760267961e+000	 2.0287396061e+000	-3.5191217934e-001
 3.2537060618e+000	 2.0643478994e+000	-3.8319408942e-001
 3.2309706867e+000	 2.0997531468e+000	-4.0807150969e-001
 3.2078233288e+000	 2.1349482162e+000	-4.2901326878e-001
 3.1842668075e+000	 2.1699260190e+000	-4.4851684744e-001
 3.1603041031e+000	 2.2046795149e+000	-4.6908670001e-001
 3.1359383559e+000	 2.2392017160e+000	-4.9321204820e-001
 3.3843738843e+000	 1.8974595662e+000	-2.0655189115e-001
 3.3635922227e+000	 1.9340595323e+000	-2.4150403637e-001
 3.3423839850e+000	 1.9704841201e+000	-2.7834391319e-001
 3.3207511913e+000	 2.0067260185e+000	-3.1829115675e-001
 3.2986960261e+000	 2.0427779420e+000	-3.5387603965e-001
 3.2762208382e+000	 2.0786326352e+000	-3.8142464267e-001
 3.2533281404e+000	 2.1142828775e+000	-4.0330241560e-001
 3.2300206090e+000	 2.1497214873e+000	-4.2192403770e-001
 3.2063010828e+000	 2.1849413272e+000	-4.3973161280e-001
 3.1821725629e+000	 2.2199353080e+000	-4.5917215296e-001
 3.1576382113e+000	 2.2546963935e+000	-4.8267451279e-001
 3.4076319078e+000	 1.9104992482e+000	-2.0119223515e-001
 3.3867074309e+000	 1.9473507358e+000	-2.3915358933e-001
 3.3653534464e+000	 1.9840256399e+000	-2.8103891748e-001
 3.3435719883e+000	 2.0205165991e+000	-3.2448291723e-001
 3.3213652560e+000	 2.0568162779e+000	-3.5647783590e-001
 3.2987356146e+000	 2.0929173710e+000	-3.8063072747e-001
 3.2756855941e+000	 2.1288126081e+000	-3.9980592060e-001
 3.2522178891e+000	 2.1644947584e+000	-4.1634476402e-001
 3.2283353582e+000	 2.1999566354e+000	-4.3261460100e-001
 3.2040410228e+000	 2.2351911011e+000	-4.5098541364e-001
 3.1793380667e+000	 2.2701910710e+000	-4.7380589571e-001
 3.4308899314e+000	 1.9235389302e+000	-1.9349972676e-001
 3.4098226392e+000	 1.9606419394e+000	-2.3441591776e-001
 3.3883229079e+000	 1.9975671597e+000	-2.8134650719e-001
 3.3663927853e+000	 2.0343071798e+000	-3.2660153896e-001
 3.3440344860e+000	 2.0708546138e+000	-3.5969223869e-001
 3.3212503911e+000	 2.1072021068e+000	-3.8149418554e-001
 3.2980430479e+000	 2.1433423388e+000	-3.9824237557e-001
 3.2744151693e+000	 2.1792680296e+000	-4.1291090654e-001
 3.2503696335e+000	 2.2149719435e+000	-4.2777364027e-001
 3.2259094826e+000	 2.2504468941e+000	-4.4510461063e-001
 3.2010379221e+000	 2.2856857484e+000	-4.6715323140e-001
 2.9840393683e+000	 2.1307389737e+000	-5.6466564970e-001
 2.9604734706e+000	 2.1633622969e+000	-5.9145335349e-001
 2.9365304761e+000	 2.1957523930e+000	-6.1507423801e-001
 2.9122138177e+000	 2.2279027839e+000	-6.3579830016e-001
 2.8875270751e+000	 2.2598070584e+000	-6.5378641339e-001
 2.8624739740e+000	 2.2914588763e+000	-6.6907667360e-001
 2.8370583836e+000	 2.3228519726e+000	-6.8157120683e-001
 2.8112843151e+000	 2.3539801615e+000	-6.9102356341e-001
 2.7851559196e+000	 2.3848373405e+000	-6.9702682114e-001
 2.7586774858e+000	 2.4154174939e+000	-6.9900251732e-001
 2.7318534379e+000	 2.4457146975e+000	-6.9619052531e-001
 3.0057392237e+000	 2.1462336512e+000	-5.5897205198e-001
 2.9820019554e+000	 2.1790942103e+000	-5.8576212470e-001
 2.9578848481e+000	 2.2117198463e+000	-6.0996914824e-001
 2.9333913595e+000	 2.2441040340e+000	-6.3168097902e-001
 2.9085250957e+000	 2.2762403155e+000	-6.5087347174e-001
 2.8832898091e+000	 2.3081223046e+000	-6.6739644303e-001
 2.8576893972e+000	 2.3397436907e+000	-6.8096011238e-001
 2.8317279003e+000	 2.3710982430e+000	-6.9112215010e-001
 2.8054094998e+000	 2.4021798145e+000	-6.9727546035e-001
 2.7787385155e+000	 2.4329823461e+000	-6.9863682419e-001
 2.7517194038e+000	 2.4634998701e+000	-6.9423652322e-001
 3.0274390790e+000	 2.1617283286e+000	-5.5072928997e-001
 3.0035304402e+000	 2.1948261237e+000	-5.7755734267e-001
 2.9792392201e+000	 2.2276872997e+000	-6.0232006459e-001
 2.9545689014e+000	 2.2603052841e+000	-6.2495652023e-001
 2.9295231162e+000	 2.2926735727e+000	-6.4529086339e-001
 2.9041056441e+000	 2.3247857330e+000	-6.6301782945e-001
 2.8783204107e+000	 2.3566354088e+000	-6.7768872033e-001
 2.8521714855e+000	 2.3882163245e+000	-6.8869801773e-001
 2.8256630800e+000	 2.4195222886e+000	-6.9527075824e-001
 2.7987995452e+000	 2.4505471982e+000	-6.9645080070e-001
 2.7715853698e+000	 2.4812850427e+000	-6.9109011187e-001
 3.0491389344e+000	 2.1772230061e+000	-5.4057448715e-001
 3.0250589250e+000	 2.2105580372e+000	-5.6744870413e-001
 3.0005935921e+000	 2.2436547530e+000	-5.9270976693e-001
 2.9757464433e+000	 2.2765065343e+000	-6.1618078611e-001
 2.9505211367e+000	 2.3091068299e+000	-6.3756701715e-001
 2.9249214792e+000	 2.3414491613e+000	-6.5644079159e-001
 2.8989514243e+000	 2.3735271269e+000	-6.7222695648e-001
 2.8726150707e+000	 2.4053344060e+000	-6.8418896373e-001
 2.8459166602e+000	 2.4368647627e+000	-6.9141574904e-001
 2.8188605750e+000	 2.4681120504e+000	-6.9280953653e-001
 2.7914513357e+000	 2.4990702153e+000	-6.8707470099e-001
 3.0708387898e+000	 2.1927176836e+000	-5.2913493105e-001
 3.0465874098e+000	 2.2262899506e+000	-5.5603571509e-001
 3.0219479640e+000	 2.2596222063e+000	-5.8171051385e-001
 2.9969239852e+000	 2.2927077844e+000	-6.0589883622e-001
 2.9715191573e+000	 2.3255400870e+000	-6.2821935140e-001
 2.9457373142e+000	 2.3581125897e+000	-6.4815416863e-001
 2.9195824378e+000	 2.3904188451e+000	-6.6503364094e-001
 2.8930586559e+000	 2.4224524875e+000	-6.7802184099e-001
 2.8661702404e+000	 2.4542072368e+000	-6.8610285498e-001
 2.8389216047e+000	 2.4856769025e+000	-6.8806803708e-001
 2.8113173017e+000	 2.5168553879e+000	-6.8250436227e-001
 3.0925386452e+000	 2.2082123611e+000	-5.1702707436e-001
 3.0681158946e+000	 2.2420218640e+000	-5.4390663345e-001
 3.0433023360e+000	 2.2755896597e+000	-5.6988292791e-001
 3.0181015271e+000	 2.3089090345e+000	-5.9464375570e-001
 2.9925171778e+000	 2.3419733442e+000	-6.1775304543e-001
 2.9665531493e+000	 2.3747760180e+000	-6.3863439377e-001
 2.9402134514e+000	 2.4073105632e+000	-6.5655514265e-001
 2.9135022411e+000	 2.4395705690e+000	-6.7061115142e-001
 2.8864238206e+000	 2.4715497108e+000	-6.7971241637e-001
 2.8589826344e+000	 2.5032417546e+000	-6.8256968691e-001
 2.8311832677e+000	 2.5346405605e+000	-6.7768222257e-001
 3.1142385006e+000	 2.2237070385e+000	-5.0485552825e-001
 3.0896443794e+000	 2.2577537774e+000	-5.3163740502e-001
 3.0646567080e+000	 2.2915571130e+000	-5.5777487534e-001
 3.0392790689e+000	 2.3251102847e+000	-5.8293547917e-001
 3.0135151984e+000	 2.3584066014e+000	-6.0665980752e-001
 2.9873689843e+000	 2.3914394464e+000	-6.2834420583e-001
 2.9608444649e+000	 2.4242022813e+000	-6.4722403333e-001
 2.9339458263e+000	 2.4566886504e+000	-6.6235764049e-001
 2.9066774008e+000	 2.4888921849e+000	-6.7261122436e-001
 2.8790436642e+000	 2.5208066068e+000	-6.7664471775e-001
 2.8510492336e+000	 2.5524257331e+000	-6.7289886358e-001
 3.1359383559e+000	 2.2392017160e+000	-4.9321204820e-001
 3.1111728642e+000	 2.2734856908e+000	-5.1979059309e-001
 3.0860110799e+000	 2.3075245664e+000	-5.4592034050e-001
 3.0604566108e+000	 2.3413115348e+000	-5.7127961060e-001
 3.0345132189e+000	 2.3748398586e+000	-5.9541664009e-001
 3.0081848194e+000	 2.4081028747e+000	-6.1773135918e-001
 2.9814754785e+000	 2.4410939994e+000	-6.3745774097e-001
 2.9543894115e+000	 2.4738067319e+000	-6.5364689267e-001
 2.9269309810e+000	 2.5062346590e+000	-6.6515105608e-001
 2.8991046939e+000	 2.5383714589e+000	-6.7060868071e-001
 2.8709151996e+000	 2.5702109057e+000	-6.6843072779e-001
 3.1576382113e+000	 2.2546963935e+000	-4.8267451279e-001
 3.1327013490e+000	 2.2892176042e+000	-5.0891430205e-001
 3.1073654519e+000	 2.3234920197e+000	-5.3483829530e-001
 3.0816341527e+000	 2.3575127849e+000	-5.6016623906e-001
 3.0555112394e+000	 2.3912731157e+000	-5.8448460188e-001
 3.0290006544e+000	 2.4247663031e+000	-6.0722733180e-001
 3.0021064920e+000	 2.4579857176e+000	-6.2765720283e-001
 2.9748329967e+000	 2.4909248134e+000	-6.4484792772e-001
 2.9471845612e+000	 2.5235771331e+000	-6.5766721227e-001
 2.9191657236e+000	 2.5559363111e+000	-6.6476092249e-001
 2.8907811656e+000	 2.5879960783e+000	-6.6453853025e-001
 3.1793380667e+000	 2.2701910710e+000	-4.7380589571e-001
 3.1542298338e+000	 2.3049495177e+000	-4.9954109525e-001
 3.1287198239e+000	 2.3394594730e+000	-5.2503156390e-001
 3.1028116945e+000	 2.3737140351e+000	-5.5006875083e-001
 3.0765092600e+000	 2.4077063729e+000	-5.7430756746e-001
 3.0498164895e+000	 2.4414297315e+000	-5.9724603176e-001
 3.0227375055e+000	 2.4748774357e+000	-6.1820551795e-001
 2.9952765819e+000	 2.5080428949e+000	-6.3631179785e-001
 2.9674381414e+000	 2.5409196071e+000	-6.5047705707e-001
 2.9392267533e+000	 2.5735011632e+000	-6.5938306554e-001
 2.9106471315e+000	 2.6057812509e+000	-6.6146567605e-001
 3.2010379221e+000	 2.2856857484e+000	-4.6715323140e-001
 3.1757583185e+000	 2.3206814311e+000	-4.9218690729e-001
 3.1500741959e+000	 2.3554269264e+000	-5.1698568285e-001
 3.1239892364e+000	 2.3899152852e+000	-5.4144263780e-001
 3.0975072805e+000	 2.4241396301e+000	-5.6531098412e-001
 3.0706323245e+000	 2.4580931598e+000	-5.8818250215e-001
 3.0433685191e+000	 2.4917691538e+000	-6.0946659925e-001
 3.0157201671e+000	 2.5251609764e+000	-6.2837018571e-001
 2.9876917216e+000	 2.5582620812e+000	-6.4387856008e-001
 2.9592877831e+000	 2.5910660154e+000	-6.5473749178e-001
 2.9305130975e+000	 2.6235664236e+000	-6.5943668315e-001
 2.7318534379e+000	 2.4457146975e+000	-6.9619052531e-001
 2.7046924333e+000	 2.4757186428e+000	-6.9689678860e-001
 2.6771951619e+000	 2.5054281689e+000	-7.1028817544e-001
 2.6493664393e+000	 2.5348376517e+000	-7.3394151465e-001
 2.6212112056e+000	 2.5639415729e+000	-7.5787944100e-001
 2.5927345231e+000	 2.5927345231e+000	-7.8117024370e-001
 2.5639415729e+000	 2.6212112056e+000	-8.0376716286e-001
 2.5348376517e+000	 2.6493664393e+000	-8.2549322074e-001
 2.5054281689e+000	 2.6771951619e+000	-8.4574244762e-001
 2.4757186428e+000	 2.7046924333e+000	-8.6148648961e-001
 2.4457146975e+000	 2.7318534379e+000	-8.7212114616e-001
 2.7517194038e+000	 2.4634998701e+000	-6.9423652322e-001
 2.7243608852e+000	 2.4937220033e+000	-6.9208566110e-001
 2.6966636544e+000	 2.5236475763e+000	-7.0135508013e-001
 2.6686325620e+000	 2.5532709241e+000	-7.2248689720e-001
 2.6402725842e+000	 2.5825864882e+000	-7.4972956894e-001
 2.6115888200e+000	 2.6115888200e+000	-7.7551061210e-001
 2.5825864882e+000	 2.6402725842e+000	-7.9991820194e-001
 2.5532709241e+000	 2.6686325620e+000	-8.2291876875e-001
 2.5236475763e+000	 2.6966636544e+000	-8.4225258754e-001
 2.4937220033e+000	 2.7243608852e+000	-8.5648680959e-001
 2.4634998701e+000	 2.7517194038e+000	-8.6598793348e-001
 2.7715853698e+000	 2.4812850427e+000	-6.9109011187e-001
 2.7440293370e+000	 2.5117253638e+000	-6.8686120177e-001
 2.7161321468e+000	 2.5418669837e+000	-6.9284379529e-001
 2.6878986846e+000	 2.5717041965e+000	-7.0965858828e-001
 2.6593339627e+000	 2.6012314035e+000	-7.3720297120e-001
 2.6304431169e+000	 2.6304431169e+000	-7.6614070260e-001
 2.6012314035e+000	 2.6593339627e+000	-7.9288283857e-001
 2.5717041965e+000	 2.6878986846e+000	-8.1646626457e-001
 2.5418669837e+000	 2.7161321468e+000	-8.3449451117e-001
 2.5117253638e+000	 2.7440293370e+000	-8.4733351522e-001
 2.4812850427e+000	 2.7715853698e+000	-8.5551908729e-001
 2.7914513357e+000	 2.4990702153e+000	-6.8707470099e-001
 2.7636977889e+000	 2.5297287243e+000	-6.8150984012e-001
 2.7356006392e+000	 2.5600863910e+000	-6.8501797589e-001
 2.7071648073e+000	 2.5901374688e+000	-6.9835319177e-001
 2.6783953413e+000	 2.6198763188e+000	-7.2198576877e-001
 2.6492974138e+000	 2.6492974138e+000	-7.5365406214e-001
 2.6198763188e+000	 2.6783953413e+000	-7.8298881987e-001
 2.5901374688e+000	 2.7071648073e+000	-8.0629697462e-001
 2.5600863910e+000	 2.7356006392e+000	-8.2345476374e-001
 2.5297287243e+000	 2.7636977889e+000	-8.3509477704e-001
 2.4990702153e+000	 2.7914513357e+000	-8.4188516982e-001
 2.8113173017e+000	 2.5168553879e+000	-6.8250436227e-001
 2.7833662407e+000	 2.5477320848e+000	-6.7630940127e-001
 2.7550691316e+000	 2.5783057984e+000	-6.7813313120e-001
 2.7264309300e+000	 2.6085707412e+000	-6.8881885469e-001
 2.6974567199e+000	 2.6385212342e+000	-7.0891186160e-001
 2.6681517107e+000	 2.6681517107e+000	-7.3864530762e-001
 2.6385212342e+000	 2.6974567199e+000	-7.6970104680e-001
 2.6085707412e+000	 2.7264309300e+000	-7.9327984460e-001
 2.5783057984e+000	 2.7550691316e+000	-8.1006195857e-001
 2.5477320848e+000	 2.7833662407e+000	-8.2077817752e-001
 2.5168553879e+000	 2.8113173017e+000	-8.2619290666e-001
 2.8311832677e+000	 2.5346405605e+000	-6.7768222257e-001
 2.8030346926e+000	 2.5657354453e+000	-6.7152743338e-001
 2.7745376241e+000	 2.5965252058e+000	-6.7243490063e-001
 2.7456970527e+000	 2.6270040136e+000	-6.8129397752e-001
 2.7165180985e+000	 2.6571661495e+000	-6.9868214619e-001
 2.6870060076e+000	 2.6870060076e+000	-7.2393834377e-001
 2.6571661495e+000	 2.7165180985e+000	-7.5366336649e-001
 2.6270040136e+000	 2.7456970527e+000	-7.7822948900e-001
 2.5965252058e+000	 2.7745376241e+000	-7.9518835251e-001
 2.5657354453e+000	 2.8030346926e+000	-8.0533236556e-001
 2.5346405605e+000	 2.8311832677e+000	-8.0948693806e-001
 2.8510492336e+000	 2.5524257331e+000	-6.7289886358e-001
 2.8227031444e+000	 2.5837388058e+000	-6.6741954364e-001
 2.7940061165e+000	 2.6147446132e+000	-6.6815733927e-001
 2.7649631754e+000	 2.6454372859e+000	-6.7600546403e-001
 2.7355794770e+000	 2.6758110648e+000	-6.9135023322e-001
 2.7058603045e+000	 2.7058603045e+000	-7.1166112775e-001
 2.6758110648e+000	 2.7355794770e+000	-7.3621710549e-001
 2.6454372859e+000	 2.7649631754e+000	-7.6190771224e-001
 2.6147446132e+000	 2.7940061165e+000	-7.7965142653e-001
 2.5837388058e+000	 2.8227031444e+000	-7.8964871263e-001
 2.5524257331e+000	 2.8510492336e+000	-7.9275156777e-001
 2.8709151996e+000	 2.5702109057e+000	-6.6843072779e-001
 2.8423715963e+000	 2.6017421663e+000	-6.6422774219e-001
 2.8134746089e+000	 2.6329640206e+000	-6.6552121297e-001
 2.7842292981e+000	 2.6638705583e+000	-6.7316698113e-001
 2.7546408556e+000	 2.6944559801e+000	-6.8604517476e-001
 2.7247146013e+000	 2.7247146013e+000	-7.0217834591e-001
 2.6944559801e+000	 2.7546408556e+000	-7.2180881501e-001
 2.6638705583e+000	 2.7842292981e+000	-7.4502503713e-001
 2.6329640206e+000	 2.8134746089e+000	-7.6421547110e-001
 2.6017421663e+000	 2.8423715963e+000	-7.7456297056e-001
 2.5702109057e+000	 2.8709151996e+000	-7.7691250952e-001
 2.8907811656e+000	 2.5879960783e+000	-6.6453853025e-001
 2.8620400481e+000	 2.6197455268e+000	-6.6217879376e-001
 2.8329431013e+000	 2.6511834280e+000	-6.6473230217e-001
 2.8034954208e+000	 2.6823038307e+000	-6.7247155071e-001
 2.7737022342e+000	 2.7131008954e+000	-6.8288325524e-001
 2.7435688982e+000	 2.7435688982e+000	-6.9581123972e-001
 2.7131008954e+000	 2.7737022342e+000	-7.1146436085e-001
 2.6823038307e+000	 2.8034954208e+000	-7.2993484496e-001
 2.6511834280e+000	 2.8329431013e+000	-7.4959317614e-001
 2.6197455268e+000	 2.8620400481e+000	-7.6085693099e-001
 2.5879960783e+000	 2.8907811656e+000	-7.6283863137e-001
 2.9106471315e+000	 2.6057812509e+000	-6.6146567605e-001
 2.8817085000e+000	 2.6377488873e+000	-6.6148257653e-001
 2.8524115938e+000	 2.6694028354e+000	-6.6596500678e-001
 2.8227615435e+000	 2.7007371031e+000	-6.7327086051e-001
 2.7927636128e+000	 2.7317458107e+000	-6.8214349956e-001
 2.7624231951e+000	 2.7624231951e+000	-6.9283867267e-001
 2.7317458107e+000	 2.7927636128e+000	-7.0547738075e-001
 2.7007371031e+000	 2.8227615435e+000	-7.2006244369e-001
 2.6694028354e+000	 2.8524115938e+000	-7.3649536037e-001
 2.6377488873e+000	 2.8817085000e+000	-7.4926008618e-001
 2.6057812509e+000	 2.9106471315e+000	-7.5134369780e-001
 2.9305130975e+000	 2.6235664236e+000	-6.5943668315e-001
 2.9013769518e+000	 2.6557522478e+000	-6.6233044802e-001
 2.8718800862e+000	 2.6876222428e+000	-6.6857355626e-001
 2.8420276662e+000	 2.7191703754e+000	-6.7579987156e-001
 2.8118249913e+000	 2.7503907261e+000	-6.8406378756e-001
 2.7812774920e+000	 2.7812774920e+000	-6.9349820574e-001
 2.7503907261e+000	 2.8118249913e+000	-7.0409965679e-001
 2.7191703754e+000	 2.8420276662e+000	-7.1574585345e-001
 2.6876222428e+000	 2.8718800862e+000	-7.2821353074e-001
 2.6557522478e+000	 2.9013769518e+000	-7.4045129132e-001
 2.6235664236e+000	 2.9305130975e+000	-7.4318810999e-001
 2.4457146975e+000	 2.7318534379e+000	-8.7212114616e-001
 2.4154174939e+000	 2.7586774858e+000	-8.7898474294e-001
 2.3848373405e+000	 2.7851559196e+000	-8.8231950358e-001
 2.3539801615e+000	 2.8112843151e+000	-8.8076591233e-001
 2.3228519726e+000	 2.8370583836e+000	-8.7307827423e-001
 2.2914588763e+000	 2.8624739740e+000	-8.5812650080e-001
 2.2598070584e+000	 2.8875270751e+000	-8.3489742861e-001
 2.2279027839e+000	 2.9122138177e+000	-8.0249568351e-001
 2.1957523930e+000	 2.9365304761e+000	-7.6014410719e-001
 2.1633622969e+000	 2.9604734706e+000	-7.0718376567e-001
 2.1307389737e+000	 2.9840393683e+000	-6.4307356264e-001
 2.4634998701e+000	 2.7517194038e+000	-8.6598793348e-001
 2.4329823461e+000	 2.7787385155e+000	-8.7269590162e-001
 2.4021798145e+000	 2.8054094998e+000	-8.7708940166e-001
 2.3710982430e+000	 2.8317279003e+000	-8.7747116659e-001
 2.3397436907e+000	 2.8576893972e+000	-8.7226877782e-001
 2.3081223046e+000	 2.8832898091e+000	-8.6003692088e-001
 2.2762403155e+000	 2.9085250957e+000	-8.3945913481e-001
 2.2441040340e+000	 2.9333913595e+000	-8.0934906828e-001
 2.2117198463e+000	 2.9578848481e+000	-7.6865125924e-001
 2.1790942103e+000	 2.9820019554e+000	-7.1644145846e-001
 2.1462336512e+000	 3.0057392237e+000	-6.5192652047e-001
 2.4812850427e+000	 2.7715853698e+000	-8.5551908729e-001
 2.4505471982e+000	 2.7987995452e+000	-8.6168109103e-001
 2.4195222886e+000	 2.8256630800e+000	-8.6669062196e-001
 2.3882163245e+000	 2.8521714855e+000	-8.6857571231e-001
 2.3566354088e+000	 2.8783204107e+000	-8.6549824212e-001
 2.3247857330e+000	 2.9041056441e+000	-8.5575656176e-001
 2.2926735727e+000	 2.9295231162e+000	-8.3778757225e-001
 2.2603052841e+000	 2.9545689014e+000	-8.1016827675e-001
 2.2276872997e+000	 2.9792392201e+000	-7.7161682065e-001
 2.1948261237e+000	 3.0035304402e+000	-7.2099304128e-001
 2.1617283286e+000	 3.0274390790e+000	-6.5729855187e-001
 2.4990702153e+000	 2.7914513357e+000	-8.4188516982e-001
 2.4681120504e+000	 2.8188605750e+000	-8.4721052750e-001
 2.4368647627e+000	 2.8459166602e+000	-8.5246533271e-001
 2.4053344060e+000	 2.8726150707e+000	-8.5546473985e-001
 2.3735271269e+000	 2.8989514243e+000	-8.5416475896e-001
 2.3414491613e+000	 2.9249214792e+000	-8.4666514278e-001
 2.3091068299e+000	 2.9505211367e+000	-8.3121169881e-001
 2.2765065343e+000	 2.9757464433e+000	-8.0619804056e-001
 2.2436547530e+000	 3.0005935921e+000	-7.7016679587e-001
 2.2105580372e+000	 3.0250589250e+000	-7.2181029456e-001
 2.1772230061e+000	 3.0491389344e+000	-6.5997076121e-001
 2.5168553879e+000	 2.8113173017e+000	-8.2619290666e-001
 2.4856769025e+000	 2.8389216047e+000	-8.3048741628e-001
 2.4542072368e+000	 2.8661702404e+000	-8.3568629902e-001
 2.4224524875e+000	 2.8930586559e+000	-8.3945246470e-001
 2.3904188451e+000	 2.9195824378e+000	-8.3959473106e-001
 2.3581125897e+000	 2.9457373142e+000	-8.3407087388e-001
 2.3255400870e+000	 2.9715191573e+000	-8.2099007258e-001
 2.2927077844e+000	 2.9969239852e+000	-7.9861476606e-001
 2.2596222063e+000	 3.0219479640e+000	-7.6536193779e-001
 2.2262899506e+000	 3.0465874098e+000	-7.1980385365e-001
 2.1927176836e+000	 3.0708387898e+000	-6.6066827961e-001
 2.5346405605e+000	 2.8311832677e+000	-8.0948693806e-001
 2.5032417546e+000	 2.8589826344e+000	-8.1264979413e-001
 2.4715497108e+000	 2.8864238206e+000	-8.1755878656e-001
 2.4395705690e+000	 2.9135022411e+000	-8.2178406074e-001
 2.4073105632e+000	 2.9402134514e+000	-8.2304480202e-001
 2.3747760180e+000	 2.9665531493e+000	-8.1921234847e-001
 2.3419733442e+000	 2.9925171778e+000	-8.0831267241e-001
 2.3089090345e+000	 3.0181015271e+000	-7.8852824638e-001
 2.2755896597e+000	 3.0433023360e+000	-7.5819931412e-001
 2.2420218640e+000	 3.0681158946e+000	-7.1582459115e-001
 2.2082123611e+000	 3.0925386452e+000	-6.6006142407e-001
 2.5524257331e+000	 2.8510492336e+000	-7.9275156777e-001
 2.5208066068e+000	 2.8790436642e+000	-7.9477236548e-001
 2.4888921849e+000	 2.9066774008e+000	-7.9922245601e-001
 2.4566886504e+000	 2.9339458263e+000	-8.0363758256e-001
 2.4242022813e+000	 2.9608444649e+000	-8.0570377513e-001
 2.3914394464e+000	 2.9873689843e+000	-8.0326042611e-001
 2.3584066014e+000	 3.0135151984e+000	-7.9430271078e-001
 2.3251102847e+000	 3.0392790689e+000	-7.7698336977e-001
 2.2915571130e+000	 3.0646567080e+000	-7.4961387532e-001
 2.2577537774e+000	 3.0896443794e+000	-7.1066500781e-001
 2.2237070385e+000	 3.1142385006e+000	-6.5876687339e-001
 2.5702109057e+000	 2.8709151996e+000	-7.7691250952e-001
 2.5383714589e+000	 2.8991046939e+000	-7.7786833247e-001
 2.5062346590e+000	 2.9269309810e+000	-7.8175324858e-001
 2.4738067319e+000	 2.9543894115e+000	-7.8612587748e-001
 2.4410939994e+000	 2.9814754785e+000	-7.8869452162e-001
 2.4081028747e+000	 3.0081848194e+000	-7.8732010557e-001
 2.3748398586e+000	 3.0345132189e+000	-7.8001843938e-001
 2.3413115348e+000	 3.0604566108e+000	-7.6496182424e-001
 2.3075245664e+000	 3.0860110799e+000	-7.4048002402e-001
 2.2734856908e+000	 3.1111728642e+000	-7.0506063125e-001
 2.2392017160e+000	 3.1359383559e+000	-6.5734886027e-001
 2.5879960783e+000	 2.8907811656e+000	-7.6283863137e-001
 2.5559363111e+000	 2.9191657236e+000	-7.6289121910e-001
 2.5235771331e+000	 2.9471845612e+000	-7.6616526312e-001
 2.4909248134e+000	 2.9748329967e+000	-7.7029848764e-001
 2.4579857176e+000	 3.0021064920e+000	-7.7307587862e-001
 2.4247663031e+000	 3.0290006544e+000	-7.7243238870e-001
 2.3912731157e+000	 3.0555112394e+000	-7.6645494770e-001
 2.3575127849e+000	 3.0816341527e+000	-7.5338379877e-001
 2.3234920197e+000	 3.1073654519e+000	-7.3161318581e-001
 2.2892176042e+000	 3.1327013490e+000	-6.9969142252e-001
 2.2546963935e+000	 3.1576382113e+000	-6.5632037864e-001
 2.6057812509e+000	 2.9106471315e+000	-7.5134369780e-001
 2.5735011632e+000	 2.9392267533e+000	-7.5073668979e-001
 2.5409196071e+000	 2.9674381414e+000	-7.5341262531e-001
 2.5080428949e+000	 2.9952765819e+000	-7.5714354275e-001
 2.4748774357e+000	 3.0227375055e+000	-7.5984453764e-001
 2.4414297315e+000	 3.0498164895e+000	-7.5957613556e-001
 2.4077063729e+000	 3.0765092600e+000	-7.5454595487e-001
 2.3737140351e+000	 3.1028116945e+000	-7.4310968117e-001
 2.3394594730e+000	 3.1287198239e+000	-7.2377138132e-001
 2.3049495177e+000	 3.1542298338e+000	-6.9518318981e-001
 2.2701910710e+000	 3.1793380667e+000	-6.5614440563e-001
 2.6235664236e+000	 2.9305130975e+000	-7.4318810999e-001
 2.5910660154e+000	 2.9592877831e+000	-7.4224436266e-001
 2.5582620812e+000	 2.9876917216e+000	-7.4439134908e-001
 2.5251609764e+000	 3.0157201671e+000	-7.4758964388e-001
 2.4917691538e+000	 3.0433685191e+000	-7.4993692369e-001
 2.4580931598e+000	 3.0706323245e+000	-7.4966991115e-001
 2.4241396301e+000	 3.0975072805e+000	-7.4516559534e-001
 2.3899152852e+000	 3.1239892364e+000	-7.3494175285e-001
 2.3554269264e+000	 3.1500741959e+000	-7.1765679963e-001
 2.3206814311e+000	 3.1757583185e+000	-6.9210900912e-001
 2.2856857484e+000	 3.2010379221e+000	-6.5723513740e-001
 2.1307389737e+000	 2.9840393683e+000	-6.4307356264e-001
 2.0978889635e+000	 3.0072248842e+000	-5.8897868077e-001
 2.0648188619e+000	 3.0300268800e+000	-5.6914406805e-001
 2.0315353184e+000	 3.0524423675e+000	-5.8765512135e-001
 1.9980450323e+000	 3.0744685107e+000	-6.4835105414e-001
 1.9643547489e+000	 3.0961026268e+000	-7.1191922607e-001
 1.9304712547e+000	 3.1173421865e+000	-7.4862638548e-001
 1.8964013734e+000	 3.1381848154e+000	-7.6376119880e-001
 1.8621519615e+000	 3.1586282936e+000	-7.6270417898e-001
 1.8277299040e+000	 3.1786705568e+000	-7.5087379561e-001
 1.7931421101e+000	 3.1983096960e+000	-7.3367508781e-001
 2.1462336512e+000	 3.0057392237e+000	-6.5192652047e-001
 2.1131447565e+000	 3.0290933441e+000	-5.9467800141e-001
 2.0798341701e+000	 3.0520611554e+000	-5.6763169970e-001
 2.0463085895e+000	 3.0746396477e+000	-5.7505391423e-001
 2.0125747630e+000	 3.0968259644e+000	-6.2109177189e-001
 1.9786394847e+000	 3.1186174032e+000	-6.9434319639e-001
 1.9445095906e+000	 3.1400114165e+000	-7.4222325498e-001
 1.9101919540e+000	 3.1610056124e+000	-7.6491290297e-001
 1.8756934813e+000	 3.1815977550e+000	-7.6808857093e-001
 1.8410211076e+000	 3.2017857650e+000	-7.5745416530e-001
 1.8061817922e+000	 3.2215677195e+000	-7.3868757468e-001
 2.1617283286e+000	 3.0274390790e+000	-6.5729855187e-001
 2.1284005496e+000	 3.0509618039e+000	-5.9842997951e-001
 2.0948494782e+000	 3.0740954307e+000	-5.6586347443e-001
 2.0610818606e+000	 3.0968369279e+000	-5.6398887869e-001
 2.0271044936e+000	 3.1191834182e+000	-5.9707352987e-001
 1.9929242205e+000	 3.1411321796e+000	-6.6758744124e-001
 1.9585479265e+000	 3.1626806464e+000	-7.2810048551e-001
 1.9239825346e+000	 3.1838264094e+000	-7.5967659713e-001
 1.8892350011e+000	 3.2045672165e+000	-7.6824931471e-001
 1.8543123111e+000	 3.2249009733e+000	-7.5977113324e-001
 1.8192214742e+000	 3.2448257431e+000	-7.4015789357e-001
 2.1772230061e+000	 3.0491389344e+000	-6.5997076121e-001
 2.1436563427e+000	 3.0728302637e+000	-6.0082174337e-001
 2.1098647864e+000	 3.0961297061e+000	-5.6426383444e-001
 2.0758551317e+000	 3.1190342081e+000	-5.5475426940e-001
 2.0416342243e+000	 3.1415408719e+000	-5.7662662847e-001
 2.0072089563e+000	 3.1636469561e+000	-6.3408287447e-001
 1.9725862624e+000	 3.1853498764e+000	-7.0691221607e-001
 1.9377731153e+000	 3.2066472063e+000	-7.4867042328e-001
 1.9027765210e+000	 3.2275366779e+000	-7.6380704690e-001
 1.8676035146e+000	 3.2480161815e+000	-7.5848748558e-001
 1.8322611562e+000	 3.2680837666e+000	-7.3883172807e-001
 2.1927176836e+000	 3.0708387898e+000	-6.6066827961e-001
 2.1589121357e+000	 3.0946987236e+000	-6.0238975412e-001
 2.1248800946e+000	 3.1181639814e+000	-5.6321102360e-001
 2.0906284029e+000	 3.1412314882e+000	-5.4760174621e-001
 2.0561639549e+000	 3.1638983256e+000	-5.5990892538e-001
 2.0214936921e+000	 3.1861617325e+000	-6.0434864173e-001
 1.9866245983e+000	 3.2080191063e+000	-6.7931992212e-001
 1.9515636959e+000	 3.2294680033e+000	-7.3251844029e-001
 1.9163180408e+000	 3.2505061393e+000	-7.5538601718e-001
 1.8808947182e+000	 3.2711313898e+000	-7.5426641518e-001
 1.8453008382e+000	 3.2913417901e+000	-7.3545104151e-001
 2.2082123611e+000	 3.0925386452e+000	-6.6006142407e-001
 2.1741679288e+000	 3.1165671834e+000	-6.0362073513e-001
 2.1398954027e+000	 3.1401982568e+000	-5.6303781476e-001
 2.1054016740e+000	 3.1634287684e+000	-5.4274092869e-001
 2.0706936855e+000	 3.1862557793e+000	-5.4703880688e-001
 2.0357784278e+000	 3.2086765089e+000	-5.8011212835e-001
 2.0006629342e+000	 3.2306883363e+000	-6.4600524707e-001
 1.9653542766e+000	 3.2522888003e+000	-7.1184969852e-001
 1.9298595606e+000	 3.2734756007e+000	-7.4361313760e-001
 1.8941859217e+000	 3.2942465980e+000	-7.4777058368e-001
 1.8583405202e+000	 3.3145998137e+000	-7.3075319071e-001
 2.2237070385e+000	 3.1142385006e+000	-6.5876687339e-001
 2.1894237219e+000	 3.1384356433e+000	-6.0495262684e-001
 2.1549107109e+000	 3.1622325321e+000	-5.6403227025e-001
 2.1201749451e+000	 3.1856260486e+000	-5.4033998971e-001
 2.0852234162e+000	 3.2086132330e+000	-5.3809564355e-001
 2.0500631636e+000	 3.2311912853e+000	-5.6139605660e-001
 2.0147012702e+000	 3.2533575662e+000	-6.1420654465e-001
 1.9791448572e+000	 3.2751095973e+000	-6.8729736482e-001
 1.9434010804e+000	 3.2964450622e+000	-7.2911708134e-001
 1.9074771252e+000	 3.3173618062e+000	-7.3966123060e-001
 1.8713802022e+000	 3.3378578372e+000	-7.2544146477e-001
 2.2392017160e+000	 3.1359383559e+000	-6.5734886027e-001
 2.2046795149e+000	 3.1603041031e+000	-6.0677556602e-001
 2.1699260190e+000	 3.1842668075e+000	-5.6643853367e-001
 2.1349482162e+000	 3.2078233288e+000	-5.4052628645e-001
 2.0997531468e+000	 3.2309706867e+000	-5.3312028788e-001
 2.0643478994e+000	 3.2537060618e+000	-5.4818610052e-001
 2.0287396061e+000	 3.2760267961e+000	-5.8956475928e-001
 1.9929354379e+000	 3.2979303943e+000	-6.5949789532e-001
 1.9569426003e+000	 3.3194145236e+000	-7.1252742864e-001
 1.9207683288e+000	 3.3404770145e+000	-7.3053832935e-001
 1.8844198842e+000	 3.3611158607e+000	-7.1937103170e-001
 2.2546963935e+000	 3.1576382113e+000	-6.5632037864e-001
 2.2199353080e+000	 3.1821725629e+000	-6.0943288820e-001
 2.1849413272e+000	 3.2063010828e+000	-5.7045765167e-001
 2.1497214873e+000	 3.2300206090e+000	-5.4338702688e-001
 2.1142828775e+000	 3.2533281404e+000	-5.3211561188e-001
 2.0786326352e+000	 3.2762208382e+000	-5.4043132192e-001
 2.0427779420e+000	 3.2986960261e+000	-5.7200666042e-001
 2.0067260185e+000	 3.3207511913e+000	-6.3039024572e-001
 1.9704841201e+000	 3.3423839850e+000	-6.9439992058e-001
 1.9340595323e+000	 3.3635922227e+000	-7.2031553069e-001
 1.8974595662e+000	 3.3843738843e+000	-7.1318778503e-001
 2.2701910710e+000	 3.1793380667e+000	-6.5614440563e-001
 2.2351911011e+000	 3.2040410228e+000	-6.1322215209e-001
 2.1999566354e+000	 3.2283353582e+000	-5.7624842422e-001
 2.1644947584e+000	 3.2522178891e+000	-5.4896997003e-001
 2.1288126081e+000	 3.2756855941e+000	-5.3504708259e-001
 2.0929173710e+000	 3.2987356146e+000	-5.3804464736e-001
 2.0568162779e+000	 3.3213652560e+000	-5.6142335822e-001
 2.0205165991e+000	 3.3435719883e+000	-6.0846374540e-001
 1.9840256399e+000	 3.3653534464e+000	-6.7481104036e-001
 1.9473507358e+000	 3.3867074309e+000	-7.0977355034e-001
 1.9104992482e+000	 3.4076319078e+000	-7.0805681861e-001
 2.2856857484e+000	 3.2010379221e+000	-6.5723513740e-001
 2.2504468941e+000	 3.2259094826e+000	-6.1839618509e-001
 2.2149719435e+000	 3.2503696335e+000	-5.8392828199e-001
 2.1792680296e+000	 3.2744151693e+000	-5.5728415853e-001
 2.1433423388e+000	 3.2980430479e+000	-5.4184337388e-001
 2.1072021068e+000	 3.3212503911e+000	-5.4090338423e-001
 2.0708546138e+000	 3.3440344860e+000	-5.5762694270e-001
 2.0343071798e+000	 3.3663927853e+000	-5.9470415177e-001
 1.9975671597e+000	 3.3883229079e+000	-6.5463056780e-001
 1.9606419394e+000	 3.4098226392e+000	-7.0000451014e-001
 1.9235389302e+000	 3.4308899314e+000	-7.0512664554e-001
 1.7931421101e+000	 3.1983096960e+000	-7.3367508781e-001
 1.7584007324e+000	 3.2175411036e+000	-7.0894502895e-001
 1.7235075382e+000	 3.2363661604e+000	-6.7258265246e-001
 1.6884694823e+000	 3.2547834267e+000	-6.2707671104e-001
 1.6532935261e+000	 3.2727916178e+000	-5.7491629650e-001
 1.6179866343e+000	 3.2903896030e+000	-5.1855710809e-001
 1.5825557699e+000	 3.3075764053e+000	-4.6039087270e-001
 1.5470078906e+000	 3.3243512004e+000	-4.0271798468e-001
 1.5113499448e+000	 3.3407133163e+000	-3.4764154275e-001
 1.4755888670e+000	 3.3566622317e+000	-2.9679599303e-001
 1.4397315747e+000	 3.3721975751e+000	-2.5248579859e-001
 1.8061817922e+000	 3.2215677195e+000	-7.3868757468e-001
 1.7711877760e+000	 3.2409389774e+000	-7.1114390945e-001
 1.7360408395e+000	 3.2599009295e+000	-6.7214646735e-001
 1.7007479877e+000	 3.2784521257e+000	-6.2429976683e-001
 1.6653162329e+000	 3.2965912719e+000	-5.7019842320e-001
 1.6297525903e+000	 3.3143172292e+000	-5.1239232610e-001
 1.5940640736e+000	 3.3316290134e+000	-4.5335514158e-001
 1.5582576911e+000	 3.3485257945e+000	-3.9507036627e-001
 1.5223404416e+000	 3.3650068952e+000	-3.3947960675e-001
 1.4863193103e+000	 3.3810717907e+000	-2.8918261270e-001
 1.4502012647e+000	 3.3967201067e+000	-2.4673730915e-001
 1.8192214742e+000	 3.2448257431e+000	-7.4015789357e-001
 1.7839748197e+000	 3.2643368512e+000	-7.1030659665e-001
 1.7485741407e+000	 3.2834356986e+000	-6.6903961603e-001
 1.7130264931e+000	 3.3021208248e+000	-6.1911783553e-001
 1.6773389397e+000	 3.3203909260e+000	-5.6327889551e-001
 1.6415185463e+000	 3.3382448554e+000	-5.0415538984e-001
 1.6055723773e+000	 3.3556816216e+000	-4.4359026664e-001
 1.5695074916e+000	 3.3727003885e+000	-3.8406779795e-001
 1.5333309384e+000	 3.3893004741e+000	-3.2837912819e-001
 1.4970497535e+000	 3.4054813497e+000	-2.7927666941e-001
 1.4606709546e+000	 3.4212426383e+000	-2.3945566016e-001
 1.8322611562e+000	 3.2680837666e+000	-7.3883172807e-001
 1.7967618633e+000	 3.2877347250e+000	-7.0726936726e-001
 1.7611074420e+000	 3.3069704678e+000	-6.6416257279e-001
 1.7253049986e+000	 3.3257895238e+000	-6.1246862500e-001
 1.6893616465e+000	 3.3441905801e+000	-5.5488602998e-001
 1.6532845023e+000	 3.3621724816e+000	-4.9342745956e-001
 1.6170806810e+000	 3.3797342297e+000	-4.3100135613e-001
 1.5807572920e+000	 3.3968749825e+000	-3.7061387362e-001
 1.5443214353e+000	 3.4135940530e+000	-3.1524017357e-001
 1.5077801967e+000	 3.4298909086e+000	-2.6780383254e-001
 1.4711406446e+000	 3.4457651699e+000	-2.3115832184e-001
 1.8453008382e+000	 3.2913417901e+000	-7.3545104151e-001
 1.8095489069e+000	 3.3111325989e+000	-7.0286067563e-001
 1.7736407432e+000	 3.3305052369e+000	-6.5840488498e-001
 1.7375835040e+000	 3.3494582228e+000	-6.0481697787e-001
 1.7013843533e+000	 3.3679902342e+000	-5.4451688566e-001
 1.6650504584e+000	 3.3861001078e+000	-4.8074371844e-001
 1.6285889847e+000	 3.4037868379e+000	-4.1675209729e-001
 1.5920070925e+000	 3.4210495765e+000	-3.5577320368e-001
 1.5553119321e+000	 3.4378876319e+000	-3.0099181169e-001
 1.5185106399e+000	 3.4543004676e+000	-2.5552555121e-001
 1.4816103345e+000	 3.4702877015e+000	-2.2240633382e-001
 1.8583405202e+000	 3.3145998137e+000	-7.3075319071e-001
 1.8223359506e+000	 3.3345304727e+000	-6.9789792820e-001
 1.7861740445e+000	 3.3540400061e+000	-6.5194540810e-001
 1.7498620094e+000	 3.3731269218e+000	-5.9585005822e-001
 1.7134070602e+000	 3.3917898883e+000	-5.3314040566e-001
 1.6768164144e+000	 3.4100277339e+000	-4.6735728052e-001
 1.6400972884e+000	 3.4278394461e+000	-4.0202577176e-001
 1.6032568930e+000	 3.4452241706e+000	-3.4062963340e-001
 1.5663024289e+000	 3.4621812108e+000	-2.8658809006e-001
 1.5292410832e+000	 3.4787100266e+000	-2.4323497737e-001
 1.4920800244e+000	 3.4948102331e+000	-2.1380014141e-001
 1.8713802022e+000	 3.3378578372e+000	-7.2544146477e-001
 1.8351229942e+000	 3.3579283465e+000	-6.9232108508e-001
 1.7987073457e+000	 3.3775747752e+000	-6.4481588355e-001
 1.7621405148e+000	 3.3967956208e+000	-5.8677083137e-001
 1.7254297670e+000	 3.4155895424e+000	-5.2205449615e-001
 1.6885823704e+000	 3.4339553601e+000	-4.5452792669e-001
 1.6516055921e+000	 3.4518920542e+000	-3.8801615633e-001
 1.6145066935e+000	 3.4693987646e+000	-3.2628228162e-001
 1.5772929258e+000	 3.4864747897e+000	-2.7300405830e-001
 1.5399715264e+000	 3.5031195856e+000	-2.3175294254e-001
 1.5025497144e+000	 3.5193327647e+000	-2.0597549350e-001
 1.8844198842e+000	 3.3611158607e+000	-7.1937103170e-001
 1.8479100378e+000	 3.3813262203e+000	-6.8653493686e-001
 1.8112406470e+000	 3.4011095443e+000	-6.3829288332e-001
 1.7744190203e+000	 3.4204643198e+000	-5.7888593003e-001
 1.7374524738e+000	 3.4393891965e+000	-5.1255678775e-001
 1.7003483264e+000	 3.4578829863e+000	-4.4351811672e-001
 1.6631138959e+000	 3.4759446624e+000	-3.7592358242e-001
 1.6257564939e+000	 3.4935733586e+000	-3.1384161924e-001
 1.5882834226e+000	 3.5107683686e+000	-2.6123183629e-001
 1.5507019696e+000	 3.5275291446e+000	-2.2192398543e-001
 1.5130194043e+000	 3.5438552963e+000	-1.9959939917e-001
 1.8974595662e+000	 3.3843738843e+000	-7.1318778503e-001
 1.8606970815e+000	 3.4047240942e+000	-6.8178078064e-001
 1.8237739482e+000	 3.4246443135e+000	-6.3365898496e-001
 1.7866975257e+000	 3.4441330188e+000	-5.7349554247e-001
 1.7494751806e+000	 3.4631888507e+000	-5.0594060330e-001
 1.7121142824e+000	 3.4818106125e+000	-4.3558903338e-001
 1.6746221996e+000	 3.4999972705e+000	-3.6695103004e-001
 1.6370062944e+000	 3.5177479526e+000	-3.0442558556e-001
 1.5992739195e+000	 3.5350619475e+000	-2.5227672474e-001
 1.5614324128e+000	 3.5519387036e+000	-2.1461242815e-001
 1.5234890943e+000	 3.5683778279e+000	-1.9536613997e-001
 1.9104992482e+000	 3.4076319078e+000	-7.0805681861e-001
 1.8734841251e+000	 3.4281219680e+000	-6.7928749005e-001
 1.8363072495e+000	 3.4481790826e+000	-6.3218484680e-001
 1.7989760311e+000	 3.4678017179e+000	-5.7188930809e-001
 1.7614978874e+000	 3.4869885048e+000	-5.0349095548e-001
 1.7238802385e+000	 3.5057382387e+000	-4.3199665738e-001
 1.6861305033e+000	 3.5240498787e+000	-3.6230025451e-001
 1.6482560949e+000	 3.5419225467e+000	-2.9915574063e-001
 1.6102644163e+000	 3.5593555264e+000	-2.4715335637e-001
 1.5721628561e+000	 3.5763482626e+000	-2.1069849867e-001
 1.5339587842e+000	 3.5929003595e+000	-1.9399333549e-001
 1.9235389302e+000	 3.4308899314e+000	-7.0512664554e-001
 1.8862711687e+000	 3.4515198418e+000	-6.8026716787e-001
 1.8488405507e+000	 3.4717138517e+000	-6.3512500735e-001
 1.8112545366e+000	 3.4914704169e+000	-5.7534224150e-001
 1.7735205942e+000	 3.5107881589e+000	-5.0648057266e-001
 1.7356461945e+000	 3.5296658649e+000	-4.3398787143e-001
 1.6976388070e+000	 3.5481024868e+000	-3.6316794435e-001
 1.6595058954e+000	 3.5660971407e+000	-2.9915345194e-001
 1.6212549131e+000	 3.5836491053e+000	-2.4688188566e-001
 1.5828932993e+000	 3.6007578216e+000	-2.1107449716e-001
 1.5444284742e+000	 3.6174228910e+000	-1.9621805947e-001
 1.4397315747e+000	 3.3721975751e+000	-2.5248579859e-001
 1.4037795652e+000	 3.3873213615e+000	-2.2748273475e-001
 1.3677450859e+000	 3.4020311558e+000	-2.3751889042e-001
 1.3316349834e+000	 3.4163270308e+000	-2.8895543776e-001
 1.2954560718e+000	 3.4302092034e+000	-3.3784986014e-001
 1.2592151286e+000	 3.4436780330e+000	-3.5119109547e-001
 1.2229188917e+000	 3.4567340197e+000	-3.3867726997e-001
 1.1865740558e+000	 3.4693778024e+000	-3.0949047605e-001
 1.1501872686e+000	 3.4816101568e+000	-2.7223175248e-001
 1.1137651284e+000	 3.4934319935e+000	-2.3486446506e-001
 1.0773141800e+000	 3.5048443553e+000	-2.0466567002e-001
 1.4502012647e+000	 3.3967201067e+000	-2.4673730915e-001
 1.4139878131e+000	 3.4119538729e+000	-2.2220117654e-001
 1.3776912920e+000	 3.4267706364e+000	-2.2841023330e-001
 1.3413185978e+000	 3.4411704707e+000	-2.7166345507e-001
 1.3048765941e+000	 3.4551535940e+000	-3.3077371512e-001
 1.2683721077e+000	 3.4687203686e+000	-3.5404675810e-001
 1.2318119256e+000	 3.4818712981e+000	-3.4908769452e-001
 1.1952027909e+000	 3.4946070260e+000	-3.2516013314e-001
 1.1585514001e+000	 3.5069283338e+000	-2.9092981192e-001
 1.1218643990e+000	 3.5188361386e+000	-2.5440895291e-001
 1.0851483803e+000	 3.5303314908e+000	-2.2290882867e-001
 1.4606709546e+000	 3.4212426383e+000	-2.3945566016e-001
 1.4241960610e+000	 3.4365863842e+000	-2.1632843502e-001
 1.3876374981e+000	 3.4515101171e+000	-2.1988430726e-001
 1.3510022122e+000	 3.4660139105e+000	-2.5625168652e-001
 1.3142971164e+000	 3.4800979847e+000	-3.1958836944e-001
 1.2775290868e+000	 3.4937627042e+000	-3.5278996182e-001
 1.2407049594e+000	 3.5070085764e+000	-3.5555903494e-001
 1.2038315261e+000	 3.5198362497e+000	-3.3722663297e-001
 1.1669155315e+000	 3.5322465108e+000	-3.0650861549e-001
 1.1299636695e+000	 3.5442402836e+000	-2.7145114519e-001
 1.0929825805e+000	 3.5558186262e+000	-2.3938461999e-001
 1.4711406446e+000	 3.4457651699e+000	-2.3115832184e-001
 1.4344043088e+000	 3.4612188956e+000	-2.1016134085e-001
 1.3975837042e+000	 3.4762495977e+000	-2.1202662921e-001
 1.3606858266e+000	 3.4908573503e+000	-2.4270247428e-001
 1.3237176387e+000	 3.5050423753e+000	-3.0487394600e-001
 1.2866860660e+000	 3.5188050398e+000	-3.4781586621e-001
 1.2495979933e+000	 3.5321458548e+000	-3.5830934848e-001
 1.2124602613e+000	 3.5450654733e+000	-3.4573762315e-001
 1.1752796629e+000	 3.5575646878e+000	-3.1885088009e-001
 1.1380629401e+000	 3.5696444287e+000	-2.8571305601e-001
 1.1008167807e+000	 3.5813057617e+000	-2.5365730292e-001
 1.4816103345e+000	 3.4702877015e+000	-2.2240633382e-001
 1.4446125567e+000	 3.4858514070e+000	-2.0404847129e-001
 1.4075299103e+000	 3.5009890783e+000	-2.0498239054e-001
 1.3703694410e+000	 3.5157007902e+000	-2.3096649059e-001
 1.3331381610e+000	 3.5299867659e+000	-2.8726768417e-001
 1.2958430451e+000	 3.5438473754e+000	-3.3958848849e-001
 1.2584910271e+000	 3.5572831332e+000	-3.5763714294e-001
 1.2210889964e+000	 3.5702946969e+000	-3.5083259790e-001
 1.1836437943e+000	 3.5828828648e+000	-3.2794231929e-001
 1.1461622107e+000	 3.5950485738e+000	-2.9703055057e-001
 1.1086509810e+000	 3.6067928972e+000	-2.6541549696e-001
 1.4920800244e+000	 3.4948102331e+000	-2.1380014141e-001
 1.4548208046e+000	 3.5104839184e+000	-1.9838588733e-001
 1.4174761164e+000	 3.5257285589e+000	-1.9895210447e-001
 1.3800530554e+000	 3.5405442300e+000	-2.2105731164e-001
 1.3425586833e+000	 3.5549311565e+000	-2.6977188399e-001
 1.3050000242e+000	 3.5688897110e+000	-3.2863252494e-001
 1.2673840610e+000	 3.5824204116e+000	-3.5391326519e-001
 1.2297177316e+000	 3.5955239206e+000	-3.5273486640e-001
 1.1920079257e+000	 3.6082010418e+000	-3.3386370352e-001
 1.1542614812e+000	 3.6204527189e+000	-3.0534550881e-001
 1.1164851812e+000	 3.6322800327e+000	-2.7446445981e-001
 1.5025497144e+000	 3.5193327647e+000	-2.0597549350e-001
 1.4650290525e+000	 3.5351164297e+000	-1.9361294114e-001
 1.4274223225e+000	 3.5504680395e+000	-1.9418733189e-001
 1.3897366698e+000	 3.5653876698e+000	-2.1304707041e-001
 1.3519792056e+000	 3.5798755472e+000	-2.5505546499e-001
 1.3141570033e+000	 3.5939320466e+000	-3.1552527317e-001
 1.2762770948e+000	 3.6075576900e+000	-3.4757289715e-001
 1.2383464667e+000	 3.6207531442e+000	-3.5174363498e-001
 1.2003720571e+000	 3.6335192188e+000	-3.3678304018e-001
 1.1623607518e+000	 3.6458568640e+000	-3.1069811430e-001
 1.1243193814e+000	 3.6577671681e+000	-2.8071849536e-001
 1.5130194043e+000	 3.5438552963e+000	-1.9959939917e-001
 1.4752373004e+000	 3.5597489411e+000	-1.9020815024e-001
 1.4373685286e+000	 3.5752075201e+000	-1.9098648166e-001
 1.3994202842e+000	 3.5902311097e+000	-2.0706219166e-001
 1.3613997279e+000	 3.6048199378e+000	-2.4308147410e-001
 1.3233139825e+000	 3.6189743822e+000	-3.0088865022e-001
 1.2851701287e+000	 3.6326949684e+000	-3.3910765399e-001
 1.2469752019e+000	 3.6459823679e+000	-3.4822619741e-001
 1.2087361885e+000	 3.6588373958e+000	-3.3694786744e-001
 1.1704600224e+000	 3.6712610090e+000	-3.1321926219e-001
 1.1321535817e+000	 3.6832543036e+000	-2.8419348573e-001
 1.5234890943e+000	 3.5683778279e+000	-1.9536613997e-001
 1.4854455482e+000	 3.5843814525e+000	-1.8868513524e-001
 1.4473147347e+000	 3.5999470007e+000	-1.8969068203e-001
 1.4091038986e+000	 3.6150745495e+000	-2.0327920497e-001
 1.3708202502e+000	 3.6297643284e+000	-2.3386945277e-001
 1.3324709616e+000	 3.6440167178e+000	-2.8538130190e-001
 1.2940631625e+000	 3.6578322468e+000	-3.2905777970e-001
 1.2556039371e+000	 3.6712115915e+000	-3.4261022836e-001
 1.2171003199e+000	 3.6841555728e+000	-3.3467765654e-001
 1.1785592929e+000	 3.6966651541e+000	-3.1312308066e-001
 1.1399877819e+000	 3.7087414391e+000	-2.8499954135e-001
 1.5339587842e+000	 3.5929003595e+000	-1.9399333549e-001
 1.4956537961e+000	 3.6090139638e+000	-1.8958861819e-001
 1.4572609408e+000	 3.6246864813e+000	-1.9067971970e-001
 1.4187875129e+000	 3.6399179893e+000	-2.0192063218e-001
 1.3802407725e+000	 3.6547087190e+000	-2.2749202906e-001
 1.3416279407e+000	 3.6690590534e+000	-2.7109574822e-001
 1.3029561964e+000	 3.6829695251e+000	-3.1800443528e-001
 1.2642326722e+000	 3.6964408151e+000	-3.3537617489e-001
 1.2254644513e+000	 3.7094737498e+000	-3.3035631724e-001
 1.1866585635e+000	 3.7220692992e+000	-3.1069956031e-001
 1.1478219821e+000	 3.7342285745e+000	-2.8333376355e-001
 1.5444284742e+000	 3.6174228910e+000	-1.9621805947e-001
 1.5058620440e+000	 3.6336464752e+000	-1.9349047853e-001
 1.4672071469e+000	 3.6494259619e+000	-1.9436804317e-001
 1.4284711273e+000	 3.6647614292e+000	-2.0325094566e-001
 1.3896612948e+000	 3.6796531097e+000	-2.2407083792e-001
 1.3507849198e+000	 3.6941013890e+000	-2.6028612727e-001
 1.3118492302e+000	 3.7081068035e+000	-3.0656207523e-001
 1.2728614074e+000	 3.7216700388e+000	-3.2704974146e-001
 1.2338285827e+000	 3.7347919268e+000	-3.2442480168e-001
 1.1947578341e+000	 3.7474734443e+000	-3.0630728640e-001
 1.1556561824e+000	 3.7597157100e+000	-2.7947311413e-001
 1.0773141800e+000	 3.5048443553e+000	-2.0466567002e-001
 1.0408409118e+000	 3.5158484147e+000	-1.7577692940e-001
 1.0043517508e+000	 3.5264454685e+000	-1.4000639756e-001
 9.6785306161e-001	 3.5366369385e+000	-1.0005614781e-001
 9.3135114424e-001	 3.5464243692e+000	-5.7975302595e-002
 8.9485223122e-001	 3.5558094260e+000	-1.5110960409e-002
 8.5836248506e-001	 3.5647938922e+000	 2.7893843657e-002
 8.2188799579e-001	 3.5733796665e+000	 7.1105597562e-002
 7.8543477855e-001	 3.5815687602e+000	 1.1530185470e-001
 7.4900877130e-001	 3.5893632944e+000	 1.6196932539e-001
 7.1261583262e-001	 3.5967654974e+000	 2.1329896822e-001
 1.0851483803e+000	 3.5303314908e+000	-2.2290882867e-001
 1.0484098794e+000	 3.5414155714e+000	-1.9139790159e-001
 1.0116553701e+000	 3.5520896867e+000	-1.5263344308e-001
 9.7489126348e-001	 3.5623552688e+000	-1.0956682591e-001
 9.3812390514e-001	 3.5722138734e+000	-6.4416195774e-002
 9.0135957298e-001	 3.5816671781e+000	-1.8729981353e-002
 8.6460447435e-001	 3.5907169792e+000	 2.6667684104e-002
 8.2786474356e-001	 3.5993651890e+000	 7.1670045273e-002
 7.9114643950e-001	 3.6076138335e+000	 1.1688751964e-001
 7.5445554328e-001	 3.6154650493e+000	 1.6364405729e-001
 7.1779795611e-001	 3.6229210810e+000	 2.1397053941e-001
 1.0929825805e+000	 3.5558186262e+000	-2.3938461999e-001
 1.0559788470e+000	 3.5669827281e+000	-2.0607449588e-001
 1.0189589895e+000	 3.5777339049e+000	-1.6519645313e-001
 9.8192946535e-001	 3.5880735991e+000	-1.1988180447e-001
 9.4489666604e-001	 3.5980033777e+000	-7.2522681610e-002
 9.0786691475e-001	 3.6075249303e+000	-2.4827907287e-002
 8.7084646365e-001	 3.6166400661e+000	 2.2223913285e-002
 8.3384149134e-001	 3.6253507114e+000	 6.8376939954e-002
 7.9685810044e-001	 3.6336589068e+000	 1.1409600824e-001
 7.5990231526e-001	 3.6415668043e+000	 1.6056113006e-001
 7.2298007960e-001	 3.6490766646e+000	 2.0965908205e-001
 1.1008167807e+000	 3.5813057617e+000	-2.5365730292e-001
 1.0635478146e+000	 3.5925498848e+000	-2.1922580884e-001
 1.0262626089e+000	 3.6033781231e+000	-1.7697969291e-001
 9.8896766723e-001	 3.6137919294e+000	-1.3019629820e-001
 9.5166942693e-001	 3.6237928819e+000	-8.1409322544e-002
 9.1437425652e-001	 3.6333826824e+000	-3.2458183654e-002
 8.7708845295e-001	 3.6425631530e+000	 1.5551663930e-002
 8.3981823911e-001	 3.6513362338e+000	 6.2240446122e-002
 8.0256976138e-001	 3.6597039801e+000	 1.0794995162e-001
 7.6534908725e-001	 3.6676685592e+000	 1.5373603930e-001
 7.2816220310e-001	 3.6752322482e+000	 2.0135829246e-001
 1.1086509810e+000	 3.6067928972e+000	-2.6541549696e-001
 1.0711167822e+000	 3.6181170415e+000	-2.3040510324e-001
 1.0335662283e+000	 3.6290223413e+000	-1.8742247243e-001
 9.9600586910e-001	 3.6395102597e+000	-1.3985603348e-001
 9.5844218783e-001	 3.6495823861e+000	-9.0347616099e-002
 9.2088159828e-001	 3.6592404345e+000	-4.0836373713e-002
 8.8333044224e-001	 3.6684862399e+000	 7.4740628589e-003
 8.4579498689e-001	 3.6773217563e+000	 5.4106180952e-002
 8.0828142233e-001	 3.6857490534e+000	 9.9302288790e-002
 7.7079585923e-001	 3.6937703142e+000	 1.4401488810e-001
 7.3334432659e-001	 3.7013878317e+000	 1.8989426386e-001
 1.1164851812e+000	 3.6322800327e+000	-2.7446445981e-001
 1.0786857497e+000	 3.6436841982e+000	-2.3929222045e-001
 1.0408698477e+000	 3.6546665595e+000	-1.9609958258e-001
 1.0030440710e+000	 3.6652285900e+000	-1.4835002325e-001
 9.6521494873e-001	 3.6753718904e+000	-9.8758996842e-002
 9.2738894005e-001	 3.6850981866e+000	-4.9333417391e-002
 8.8957243154e-001	 3.6944093268e+000	-1.3453141975e-003
 8.5177173467e-001	 3.7033072787e+000	 4.4657353823e-002
 8.1399308327e-001	 3.7117941267e+000	 8.8842062393e-002
 7.7624263121e-001	 3.7198720691e+000	 1.3207981112e-001
 7.3852645008e-001	 3.7275434153e+000	 1.7593051128e-001
 1.1243193814e+000	 3.6577671681e+000	-2.8071849536e-001
 1.0862547173e+000	 3.6692513549e+000	-2.4568612751e-001
 1.0481734670e+000	 3.6803107777e+000	-2.0271401113e-001
 1.0100822729e+000	 3.6909469203e+000	-1.5530348144e-001
 9.7198770963e-001	 3.7011613946e+000	-1.0620797807e-001
 9.3389628182e-001	 3.7109559387e+000	-5.7469028858e-002
 8.9581442084e-001	 3.7203324137e+000	-1.0396124154e-002
 8.5774848244e-001	 3.7292928012e+000	 3.4420773170e-002
 8.1970474421e-001	 3.7378392000e+000	 7.7100086914e-002
 7.8168940319e-001	 3.7459738241e+000	 1.1845427744e-001
 7.4370857358e-001	 3.7536989989e+000	 1.5997288306e-001
 1.1321535817e+000	 3.6832543036e+000	-2.8419348573e-001
 1.0938236849e+000	 3.6948185116e+000	-2.4949759236e-001
 1.0554770864e+000	 3.7059549959e+000	-2.0708978967e-001
 1.0171204747e+000	 3.7166652506e+000	-1.6046373562e-001
 9.7876047052e-001	 3.7269508988e+000	-1.1239542641e-001
 9.4040362358e-001	 3.7368136908e+000	-6.4905226115e-002
 9.0205641013e-001	 3.7462555007e+000	-1.9315067922e-002
 8.6372523022e-001	 3.7552783236e+000	 2.3772727067e-002
 8.2541640516e-001	 3.7638842733e+000	 6.4454495370e-002
 7.8713617517e-001	 3.7720755791e+000	 1.0350827814e-001
 7.4889069707e-001	 3.7798545825e+000	 1.4237436444e-001
 1.1399877819e+000	 3.7087414391e+000	-2.8499954135e-001
 1.1013926525e+000	 3.7203856683e+000	-2.5074198099e-001
 1.0627807058e+000	 3.7315992141e+000	-2.0916496529e-001
 1.0241586766e+000	 3.7423835808e+000	-1.6372290842e-001
 9.8553323142e-001	 3.7527404031e+000	-1.1715196301e-001
 9.4691096535e-001	 3.7626714430e+000	-7.1439986230e-002
 9.0829839943e-001	 3.7721785876e+000	-2.7879825297e-002
 8.6970197799e-001	 3.7812638460e+000	 1.2944743609e-002
 8.3112806610e-001	 3.7899293467e+000	 5.1136170405e-002
 7.9258294715e-001	 3.7981773340e+000	 8.7463403995e-002
 7.5407282056e-001	 3.8060101661e+000	 1.2333977849e-001
 1.1478219821e+000	 3.7342285745e+000	-2.8333376355e-001
 1.1089616201e+000	 3.7459528250e+000	-2.4953217080e-001
 1.0700843252e+000	 3.7572434323e+000	-2.0898469101e-001
 1.0311968785e+000	 3.7681019111e+000	-1.6506538011e-001
 9.9230599232e-001	 3.7785299073e+000	-1.2043148521e-001
 9.5341830711e-001	 3.7885291951e+000	-7.7001020241e-002
 9.1454038873e-001	 3.7981016745e+000	-3.6003107490e-002
 8.7567872577e-001	 3.8072493685e+000	 2.0292368523e-003
 8.3683972704e-001	 3.8159744200e+000	 3.7234065309e-002
 7.9802971914e-001	 3.8242790890e+000	 7.0397818784e-002
 7.5925494406e-001	 3.8321657497e+000	 1.0293038921e-001
 1.1556561824e+000	 3.7597157100e+000	-2.7947311413e-001
 1.1165305877e+000	 3.7715199817e+000	-2.4607157454e-001
 1.0773879445e+000	 3.7828876505e+000	-2.0669442930e-001
 1.0382350804e+000	 3.7938202414e+000	-1.6459288001e-001
 9.9907875321e-001	 3.8043194115e+000	-1.2230480297e-001
 9.5992564888e-001	 3.8143869472e+000	-8.1639662017e-002
 9.2078237802e-001	 3.8240247614e+000	-4.3726821715e-002
 8.8165547354e-001	 3.8332348909e+000	-9.0149562751e-003
 8.4255138799e-001	 3.8420194933e+000	 2.2700420174e-002
 8.0347649112e-001	 3.8503808439e+000	 5.2251132909e-002
 7.6443706755e-001	 3.8583213333e+000	 8.1068411570e-002
 7.1261583262e-001	 3.5967654974e+000	 2.1329896822e-001
 6.7626718788e-001	 3.6037766798e+000	 2.2769343912e-001
 6.3996306006e-001	 3.6104004164e+000	 1.8722090382e-001
 6.0370904694e-001	 3.6166392418e+000	 1.4985242575e-001
 5.6751065950e-001	 3.6224957856e+000	 1.1902765367e-001
 5.3137332022e-001	 3.6279727701e+000	 9.6413777794e-002
 4.9530236159e-001	 3.6330730071e+000	 8.4786039017e-002
 4.5930302458e-001	 3.6377993950e+000	 8.8072415790e-002
 4.2338045735e-001	 3.6421549158e+000	 1.1138643350e-001
 3.8753971400e-001	 3.6461426319e+000	 1.6104987594e-001
 3.5178575339e-001	 3.6497656832e+000	 2.4460707621e-001
 7.1779795611e-001	 3.6229210810e+000	 2.1397053941e-001
 6.8118498499e-001	 3.6299832485e+000	 2.2889133700e-001
 6.4461685451e-001	 3.6366551528e+000	 1.8567978724e-001
 6.0809920317e-001	 3.6429393467e+000	 1.4382194422e-001
 5.7163758201e-001	 3.6488384791e+000	 1.0969698871e-001
 5.3523745296e-001	 3.6543552921e+000	 8.4659694468e-002
 4.9890418727e-001	 3.6594926179e+000	 7.1216438229e-002
 4.6264306403e-001	 3.6642533760e+000	 7.3061229426e-002
 4.2645926884e-001	 3.6686405700e+000	 9.5100027446e-002
 3.9035789255e-001	 3.6726572847e+000	 1.4346521314e-001
 3.5434393009e-001	 3.6763066828e+000	 2.2552197140e-001
 7.2298007960e-001	 3.6490766646e+000	 2.0965908205e-001
 6.8610278210e-001	 3.6561898172e+000	 2.2506262553e-001
 6.4927064896e-001	 3.6629098892e+000	 1.8113870521e-001
 6.1248935939e-001	 3.6692394517e+000	 1.3589908818e-001
 5.7576450452e-001	 3.6751811727e+000	 9.9576095208e-002
 5.3910158569e-001	 3.6807378142e+000	 7.3186196439e-002
 5.0250601294e-001	 3.6859122288e+000	 5.8937570474e-002
 4.6598310348e-001	 3.6907073570e+000	 6.0257005993e-002
 4.2953808033e-001	 3.6951262243e+000	 8.1805285847e-002
 3.9317607110e-001	 3.6991719375e+000	 1.2948301022e-001
 3.5690210679e-001	 3.7028476823e+000	 2.1042869758e-001
 7.2816220310e-001	 3.6752322482e+000	 2.0135829246e-001
 6.9102057921e-001	 3.6823963859e+000	 2.1714488292e-001
 6.5392444342e-001	 3.6891646255e+000	 1.7421775561e-001
 6.1687951562e-001	 3.6955395566e+000	 1.2659238654e-001
 5.7989142703e-001	 3.7015238663e+000	 8.9023195439e-002
 5.4296571843e-001	 3.7071203362e+000	 6.2168907922e-002
 5.0610783862e-001	 3.7123318396e+000	 4.7916526129e-002
 4.6932314293e-001	 3.7171613380e+000	 4.9398603367e-002
 4.3261689182e-001	 3.7216118785e+000	 7.0999227313e-002
 3.9599424966e-001	 3.7256865903e+000	 1.1835076127e-001
 3.5946028349e-001	 3.7293886818e+000	 1.9832326660e-001
 7.3334432659e-001	 3.7013878317e+000	 1.8989426386e-001
 6.9593837632e-001	 3.7086029546e+000	 2.0591198726e-001
 6.5857823787e-001	 3.7154193619e+000	 1.6537072054e-001
 6.2126967185e-001	 3.7218396615e+000	 1.1624472435e-001
 5.8401834954e-001	 3.7278665598e+000	 7.8234653504e-002
 5.4682985117e-001	 3.7335028583e+000	 5.1628615128e-002
 5.0970966430e-001	 3.7387514504e+000	 3.7975927440e-002
 4.7266318238e-001	 3.7436153190e+000	 4.0094239796e-002
 4.3569570332e-001	 3.7480975327e+000	 6.2065620125e-002
 3.9881242821e-001	 3.7522012431e+000	 1.0922375514e-001
 3.6201846019e-001	 3.7559296814e+000	 1.8813427351e-001
 7.3852645008e-001	 3.7275434153e+000	 1.7593051128e-001
 7.0085617343e-001	 3.7348095233e+000	 1.9197869490e-001
 6.6323203232e-001	 3.7416740982e+000	 1.5489279520e-001
 6.2565982808e-001	 3.7481397664e+000	 1.0504016581e-001
 5.8814527205e-001	 3.7542092534e+000	 6.7250836545e-002
 5.5069398390e-001	 3.7598853803e+000	 4.1436114038e-002
 5.1331148998e-001	 3.7651710613e+000	 2.8797715040e-002
 4.7600322183e-001	 3.7700693001e+000	 3.1824175211e-002
 4.3877451481e-001	 3.7745831870e+000	 5.4276518284e-002
 4.0163060677e-001	 3.7787158959e+000	 1.0116543001e-001
 3.6457663688e-001	 3.7824706809e+000	 1.7872203688e-001
 7.4370857358e-001	 3.7536989989e+000	 1.5997288306e-001
 7.0577397054e-001	 3.7610160921e+000	 1.7580511553e-001
 6.6788582677e-001	 3.7679288346e+000	 1.4290047888e-001
 6.3004998430e-001	 3.7744398714e+000	 9.3010702953e-002
 5.9227219456e-001	 3.7805519469e+000	 5.5961920819e-002
 5.5455811664e-001	 3.7862679023e+000	 3.1317024889e-002
 5.1691331566e-001	 3.7915906721e+000	 1.9926925793e-002
 4.7934326128e-001	 3.7965232811e+000	 2.3943411228e-002
 4.4185332630e-001	 3.8010688412e+000	 4.6793846202e-002
 4.0444878532e-001	 3.8052305487e+000	 9.3147809010e-002
 3.6713481358e-001	 3.8090116804e+000	 1.6887785551e-001
 7.4889069707e-001	 3.7798545825e+000	 1.4237436444e-001
 7.1069176765e-001	 3.7872226608e+000	 1.5770108898e-001
 6.7253962123e-001	 3.7941835709e+000	 1.2886544446e-001
 6.3444014053e-001	 3.8007399763e+000	 8.0042933925e-002
 5.9639911707e-001	 3.8068946405e+000	 4.4113645287e-002
 5.5842224937e-001	 3.8126504244e+000	 2.0856574965e-002
 5.2051514133e-001	 3.8180102829e+000	 1.0775462396e-002
 4.8268330073e-001	 3.8229772621e+000	 1.5684408901e-002
 4.4493213779e-001	 3.8275544954e+000	 3.8671029694e-002
 4.0726696387e-001	 3.8317452015e+000	 8.4052013173e-002
 3.6969299028e-001	 3.8355526800e+000	 1.5732337553e-001
 7.5407282056e-001	 3.8060101661e+000	 1.2333977849e-001
 7.1560956476e-001	 3.8134292295e+000	 1.3783046836e-001
 6.7719341568e-001	 3.8204383073e+000	 1.1261404740e-001
 6.3883029676e-001	 3.8270400812e+000	 6.5884673984e-002
 6.0052603959e-001	 3.8332373341e+000	 3.1313015251e-002
 5.6228638211e-001	 3.8390329464e+000	 9.5043512199e-003
 5.2411696701e-001	 3.8444298938e+000	 6.2585512040e-004
 4.8602334018e-001	 3.8494312431e+000	 6.1598234003e-003
 4.4801094928e-001	 3.8540401497e+000	 2.8854671023e-002
 4.1008514243e-001	 3.8582598543e+000	 7.2668847899e-002
 3.7225116698e-001	 3.8620936795e+000	 1.4271006292e-001
 7.5925494406e-001	 3.8321657497e+000	 1.0293038921e-001
 7.2052736187e-001	 3.8396357982e+000	 1.1621531412e-001
 6.8184721013e-001	 3.8466930436e+000	 9.4091485343e-002
 6.4322045299e-001	 3.8533401861e+000	 5.0151502597e-002
 6.0465296210e-001	 3.8595800276e+000	 1.7033958420e-002
 5.6615051484e-001	 3.8654154685e+000	-3.4209758096e-003
 5.2771879269e-001	 3.8708495046e+000	-1.1364983919e-002
 4.8936337964e-001	 3.8758852241e+000	-5.6347452181e-003
 4.5108976078e-001	 3.8805258039e+000	 1.6186265909e-002
 4.1290332098e-001	 3.8847745071e+000	 5.7699459455e-002
 3.7480934368e-001	 3.8886346791e+000	 1.2361877618e-001
 7.6443706755e-001	 3.8583213333e+000	 8.1068411570e-002
 7.2544515898e-001	 3.8658423669e+000	 9.2740003274e-002
 6.8650100458e-001	 3.8729477800e+000	 7.3108989340e-002
 6.4761060921e-001	 3.8796402911e+000	 3.2333249617e-002
 6.0877988461e-001	 3.8859227212e+000	 6.2293566455e-004
 5.7001464758e-001	 3.8917979905e+000	-1.8726955463e-002
 5.3132061837e-001	 3.8972691155e+000	-2.6162013620e-002
 4.9270341909e-001	 3.9023392051e+000	-2.0817985893e-002
 4.5416857227e-001	 3.9070114582e+000	-5.9603948519e-004
 4.1572149954e-001	 3.9112891599e+000	 3.7756058165e-002
 3.7736752037e-001	 3.9151756786e+000	 9.8559434512e-002
 3.5178575339e-001	 3.6497656832e+000	 2.4460707621e-001
 3.1611810781e-001	 3.6530277469e+000	 3.2242976002e-001
 2.8054697635e-001	 3.6559315402e+000	 3.5508089593e-001
 2.4507710014e-001	 3.6584804202e+000	 3.5231250429e-001
 2.0971311924e-001	 3.6606778091e+000	 3.2514392288e-001
 1.7445957196e-001	 3.6625271922e+000	 2.8585724292e-001
 1.3932089439e-001	 3.6640321140e+000	 2.4799184385e-001
 1.0430141984e-001	 3.6651961758e+000	 2.2633887566e-001
 6.9405378595e-002	 3.6660230324e+000	 2.3693641824e-001
 3.4636897532e-002	 3.6665163894e+000	 2.9706593110e-001
 0.0000000000e+000	 3.6666800000e+000	 4.2525051289e-001
 3.5434393009e-001	 3.6763066828e+000	 2.2552197140e-001
 3.1841691033e-001	 3.6795924681e+000	 3.0151913622e-001
 2.8258710654e-001	 3.6825173777e+000	 3.3210090701e-001
 2.4685929434e-001	 3.6850847930e+000	 3.2716684892e-001
 2.1123814750e-001	 3.6872981613e+000	 2.9790214356e-001
 1.7572823736e-001	 3.6891609931e+000	 2.5676621119e-001
 1.4033403225e-001	 3.6906768587e+000	 2.1748106354e-001
 1.0505989701e-001	 3.6918493855e+000	 1.9502026372e-001
 6.9910092673e-002	 3.6926822549e+000	 2.0559924322e-001
 3.4888776135e-002	 3.6931791996e+000	 2.6666760262e-001
 0.0000000000e+000	 3.6933440000e+000	 3.9690392111e-001
 3.5690210679e-001	 3.7028476823e+000	 2.1042869758e-001
 3.2071571285e-001	 3.7061571893e+000	 2.8508793441e-001
 2.8462723674e-001	 3.7091032152e+000	 3.1449261775e-001
 2.4864148853e-001	 3.7116891659e+000	 3.0861128465e-001
 2.1276317576e-001	 3.7139185136e+000	 2.7870651395e-001
 1.7699690275e-001	 3.7157947940e+000	 2.3731667276e-001
 1.4134717011e-001	 3.7173216033e+000	 1.9823807030e-001
 1.0581837418e-001	 3.7185025951e+000	 1.7650842347e-001
 7.0414806752e-002	 3.7193414775e+000	 1.8839240423e-001
 3.5140654739e-002	 3.7198420098e+000	 2.5136990786e-001
 0.0000000000e+000	 3.7200080000e+000	 3.8412757206e-001
 3.5946028349e-001	 3.7293886818e+000	 1.9832326660e-001
 3.2301451537e-001	 3.7327219104e+000	 2.7184513887e-001
 2.8666736693e-001	 3.7356890527e+000	 3.0060897641e-001
 2.5042368272e-001	 3.7382935388e+000	 2.9457920403e-001
 2.1428820401e-001	 3.7405388658e+000	 2.6501262042e-001
 1.7826556815e-001	 3.7424285949e+000	 2.2443319026e-001
 1.4236030797e-001	 3.7439663479e+000	 1.8660796764e-001
 1.0657685135e-001	 3.7451558048e+000	 1.6652508256e-001
 7.0919520830e-002	 3.7460007000e+000	 1.8037458021e-001
 3.5392533342e-002	 3.7465048200e+000	 2.4553276419e-001
 0.0000000000e+000	 3.7466720000e+000	 3.8055057722e-001
 3.6201846019e-001	 3.7559296814e+000	 1.8813427351e-001
 3.2531331789e-001	 3.7592866316e+000	 2.6046203683e-001
 2.8870749713e-001	 3.7622748902e+000	 2.8880104913e-001
 2.5220587691e-001	 3.7648979116e+000	 2.8304407703e-001
 2.1581323227e-001	 3.7671592180e+000	 2.5436426970e-001
 1.7953423355e-001	 3.7690623958e+000	 2.1518290154e-001
 1.4337344583e-001	 3.7706110926e+000	 1.7913901886e-001
 1.0733532852e-001	 3.7718090145e+000	 1.6106194954e-001
 7.1424234909e-002	 3.7726599226e+000	 1.7694748485e-001
 3.5644411946e-002	 3.7731676302e+000	 2.4393839565e-001
 0.0000000000e+000	 3.7733360000e+000	 3.8030981912e-001
 3.6457663688e-001	 3.7824706809e+000	 1.7872203688e-001
 3.2761212042e-001	 3.7858513528e+000	 2.4957007699e-001
 2.9074762732e-001	 3.7888607277e+000	 2.7741449419e-001
 2.5398807111e-001	 3.7915022845e+000	 2.7201444249e-001
 2.1733826053e-001	 3.7937795703e+000	 2.4438690317e-001
 1.8080289894e-001	 3.7956961966e+000	 2.0676726630e-001
 1.4438658369e-001	 3.7972558372e+000	 1.7257263927e-001
 1.0809380568e-001	 3.7984622241e+000	 1.5636886907e-001
 7.1928948989e-002	 3.7993191451e+000	 1.7384210585e-001
 3.5896290549e-002	 3.7998304405e+000	 2.4177558092e-001
 0.0000000000e+000	 3.8000000000e+000	 3.7803213653e-001
 3.6713481358e-001	 3.8090116804e+000	 1.6887785551e-001
 3.2991092294e-001	 3.8124160740e+000	 2.3775888330e-001
 2.9278775752e-001	 3.8154465652e+000	 2.6478623611e-001
 2.5577026530e-001	 3.8181066574e+000	 2.5952914957e-001
 2.1886328879e-001	 3.8203999225e+000	 2.3278131660e-001
 1.8207156434e-001	 3.8223299975e+000	 1.9651417876e-001
 1.4539972155e-001	 3.8239005819e+000	 1.6383382050e-001
 1.0885228285e-001	 3.8251154338e+000	 1.4894248001e-001
 7.2433663068e-002	 3.8259783677e+000	 1.6710552281e-001
 3.6148169153e-002	 3.8264932507e+000	 2.3462456076e-001
 0.0000000000e+000	 3.8266640000e+000	 3.6881725458e-001
 3.6969299028e-001	 3.8355526800e+000	 1.5732337553e-001
 3.3220972546e-001	 3.8389807951e+000	 2.2357441654e-001
 2.9482788771e-001	 3.8420324026e+000	 2.4924132997e-001
 2.5755245950e-001	 3.8447110303e+000	 2.4365283713e-001
 2.2038831705e-001	 3.8470202747e+000	 2.1731767048e-001
 1.8334022973e-001	 3.8489637984e+000	 1.8187042886e-001
 1.4641285941e-001	 3.8505453265e+000	 1.5002196585e-001
 1.0961076002e-001	 3.8517686435e+000	 1.3551535214e-001
 7.2938377147e-002	 3.8526375902e+000	 1.5308827590e-001
 3.6400047757e-002	 3.8531560609e+000	 2.1844257284e-001
 0.0000000000e+000	 3.8533280000e+000	 3.4822142344e-001
 3.7225116698e-001	 3.8620936795e+000	 1.4271006292e-001
 3.3450852798e-001	 3.8655455163e+000	 2.0551727651e-001
 2.9686801791e-001	 3.8686182401e+000	 2.2909000683e-001
 2.5933465369e-001	 3.8713154031e+000	 2.2247163947e-001
 2.2191334531e-001	 3.8736406269e+000	 1.9582977706e-001
 1.8460889513e-001	 3.8755975993e+000	 1.6039449500e-001
 1.4742599728e-001	 3.8771900711e+000	 1.2840211695e-001
 1.1036923719e-001	 3.8784218531e+000	 1.1304557834e-001
 7.3443091225e-002	 3.8792968128e+000	 1.2843225881e-001
 3.6651926360e-002	 3.8798188711e+000	 1.8954998396e-001
 0.0000000000e+000	 3.8799920000e+000	 3.1224173179e-001
 3.7480934368e-001	 3.8886346791e+000	 1.2361877618e-001
 3.3680733051e-001	 3.8921102375e+000	 1.8204113817e-001
 2.9890814810e-001	 3.8952040776e+000	 2.0262489153e-001
 2.6111684788e-001	 3.8979197760e+000	 1.9408910773e-001
 2.2343837357e-001	 3.9002609792e+000	 1.6620965082e-001
 1.8587756052e-001	 3.9022314002e+000	 1.2974965263e-001
 1.4843913514e-001	 3.9038348158e+000	 9.6396553070e-002
 1.1112771436e-001	 3.9050750628e+000	 7.8706800600e-002
 7.3947805304e-002	 3.9059560353e+000	 9.0059110852e-002
 3.6903804964e-002	 3.9064816814e+000	 1.4461699097e-001
 0.0000000000e+000	 3.9066560000e+000	 2.5730106255e-001
 3.7736752037e-001	 3.9151756786e+000	 9.8559434512e-002
 3.3910613303e-001	 3.9186749587e+000	 1.5155131531e-001
 3.0094827830e-001	 3.9217899151e+000	 1.6811838476e-001
 2.6289904207e-001	 3.9245241489e+000	 1.5662233672e-001
 2.2496340183e-001	 3.9268813314e+000	 1.2640230988e-001
 1.8714622592e-001	 3.9288652011e+000	 8.7697383711e-002
 1.4945227300e-001	 3.9304795604e+000	 5.1576745306e-002
 1.1188619153e-001	 3.9317282725e+000	 2.9878649191e-002
 7.4452519382e-002	 3.9326152578e+000	 3.5159084502e-002
 3.7155683567e-002	 3.9331444916e+000	 8.0650863520e-002
 0.0000000000e+000	 3.9333200000e+000	 1.8023366059e-001
 3.9333200000e+000	 0.0000000000e+000	 1.0971622330e+000
 3.9331444916e+000	 3.7155683567e-002	 1.0829157078e+000
 3.9326152578e+000	 7.4452519382e-002	 1.0557411725e+000
 3.9317282725e+000	 1.1188619153e-001	 1.0189415176e+000
 3.9304795604e+000	 1.4945227300e-001	 9.7588215967e-001
 3.9288652011e+000	 1.8714622592e-001	 9.2997266965e-001
 3.9268813314e+000	 2.2496340183e-001	 8.8463641276e-001
 3.9245241489e+000	 2.6289904207e-001	 8.4326924766e-001
 3.9217899151e+000	 3.0094827830e-001	 8.0918853729e-001
 3.9186749587e+000	 3.3910613303e-001	 7.8557393405e-001
 3.9151756786e+000	 3.7736752037e-001	 7.7540161209e-001
 3.9599880000e+000	 0.0000000000e+000	 1.1109039111e+000
 3.9598113016e+000	 3.7407599955e-002	 1.0916285180e+000
 3.9592784797e+000	 7.4957309175e-002	 1.0612183508e+000
 3.9583854805e+000	 1.1264478248e-001	 1.0223280214e+000
 3.9571283022e+000	 1.5046556284e-001	 9.7780288926e-001
 3.9555029975e+000	 1.8841508163e-001	 9.3065288357e-001
 3.9535056771e+000	 2.2648865886e-001	 8.8401315615e-001
 3.9511325128e+000	 2.6468150362e-001	 8.4109265664e-001
 3.9483797409e+000	 3.0298871454e-001	 8.0511193939e-001
 3.9452436650e+000	 3.4140528040e-001	 7.7923173190e-001
 3.9417206597e+000	 3.7992608084e-001	 7.6647401676e-001
 3.9866560000e+000	 0.0000000000e+000	 1.0286260970e+000
 3.9864781117e+000	 3.7659516343e-002	 1.0186155138e+000
 3.9859417015e+000	 7.5462098967e-002	 9.9798263758e-001
 3.9850426886e+000	 1.1340337343e-001	 9.6874306628e-001
 3.9837770439e+000	 1.5147885269e-001	 9.3323881362e-001
 3.9821407938e+000	 1.8968393734e-001	 8.9410384054e-001
 3.9801300227e+000	 2.2801391590e-001	 8.5421518031e-001
 3.9777408767e+000	 2.6646396517e-001	 8.1663079544e-001
 3.9749695666e+000	 3.0502915079e-001	 7.8451553378e-001
 3.9718123712e+000	 3.4370442778e-001	 7.6105678431e-001
 3.9682656408e+000	 3.8248464130e-001	 7.4937166595e-001
 4.0133240000e+000	 0.0000000000e+000	 8.6278691242e-001
 4.0131449217e+000	 3.7911432732e-002	 8.7419974179e-001
 4.0126049233e+000	 7.5966888759e-002	 8.7390180801e-001
 4.0116998966e+000	 1.1416196437e-001	 8.6363675561e-001
 4.0104257857e+000	 1.5249214253e-001	 8.4553724953e-001
 4.0087785902e+000	 1.9095279306e-001	 8.2206485456e-001
 4.0067543684e+000	 2.2953917293e-001	 7.9594637686e-001
 4.0043492407e+000	 2.6824642672e-001	 7.7010629725e-001
 4.0015593924e+000	 3.0706958703e-001	 7.4759489025e-001
 3.9983810775e+000	 3.4600357516e-001	 7.3148600745e-001
 3.9948106218e+000	 3.8504320176e-001	 7.2476796353e-001
 4.0399920000e+000	 0.0000000000e+000	 7.1192213858e-001
 4.0398117318e+000	 3.8163349120e-002	 7.4178381269e-001
 4.0392681452e+000	 7.6471678551e-002	 7.5866529427e-001
 4.0383571047e+000	 1.1492055532e-001	 7.6426199729e-001
 4.0370745274e+000	 1.5350543238e-001	 7.6065848959e-001
 4.0354163865e+000	 1.9222164877e-001	 7.5026966373e-001
 4.0333787141e+000	 2.3106442997e-001	 7.3577851028e-001
 4.0309576046e+000	 2.7002888826e-001	 7.2007010741e-001
 4.0281492181e+000	 3.0911002327e-001	 7.0616140249e-001
 4.0249497838e+000	 3.4830272253e-001	 6.9712632456e-001
 4.0213556029e+000	 3.8760176222e-001	 6.9601573164e-001
 4.0666600000e+000	 0.0000000000e+000	 5.9329550156e-001
 4.0664785418e+000	 3.8415265508e-002	 6.3645093148e-001
 4.0659313670e+000	 7.6976468342e-002	 6.6597476400e-001
 4.0650143127e+000	 1.1567914627e-001	 6.8346613334e-001
 4.0637232692e+000	 1.5451872222e-001	 6.9091119012e-001
 4.0620541829e+000	 1.9349050448e-001	 6.9062573240e-001
 4.0600030598e+000	 2.3258968700e-001	 6.8519459540e-001
 4.0575659685e+000	 2.7181134981e-001	 6.7740739729e-001
 4.0547390439e+000	 3.1115045952e-001	 6.7019019776e-001
 4.0515184901e+000	 3.5060186991e-001	 6.6653258669e-001
 4.0479005840e+000	 3.9016032268e-001	 6.6940968243e-001
 4.0933280000e+000	 0.0000000000e+000	 5.0754903092e-001
 4.0931453519e+000	 3.8667181896e-002	 5.5885349545e-001
 4.0925945888e+000	 7.7481258134e-002	 5.9649883539e-001
 4.0916715208e+000	 1.1643773722e-001	 6.2194003483e-001
 4.0903720110e+000	 1.5553201207e-001	 6.3701463470e-001
 4.0886919793e+000	 1.9475936019e-001	 6.4388699722e-001
 4.0866274055e+000	 2.3411494403e-001	 6.4498950122e-001
 4.0841743324e+000	 2.7359381136e-001	 6.4296024911e-001
 4.0813288697e+000	 3.1319089576e-001	 6.4057682243e-001
 4.0780871964e+000	 3.5290101728e-001	 6.4068558111e-001
 4.0744455651e+000	 3.9271888314e-001	 6.4612596074e-001
 4.1199960000e+000	 0.0000000000e+000	 4.5536012894e-001
 4.1198121619e+000	 3.8919098284e-002	 5.0967096298e-001
 4.1192578107e+000	 7.7986047926e-002	 5.5092554594e-001
 4.1183287288e+000	 1.1719632817e-001	 5.8038696337e-001
 4.1170207527e+000	 1.5654530191e-001	 5.9969402283e-001
 4.1153297756e+000	 1.9602821590e-001	 6.1080732907e-001
 4.1132517511e+000	 2.3564020107e-001	 6.1595247909e-001
 4.1107826964e+000	 2.7537627290e-001	 6.1755994033e-001
 4.1079186954e+000	 3.1523133200e-001	 6.1820112890e-001
 4.1046559027e+000	 3.5520016466e-001	 6.2052015994e-001
 4.1009905462e+000	 3.9527744361e-001	 6.2716069827e-001
 4.1466640000e+000	 0.0000000000e+000	 4.3744043314e-001
 4.1464789720e+000	 3.9171014672e-002	 4.8960884869e-001
 4.1459210325e+000	 7.8490837717e-002	 5.2996147874e-001
 4.1449859369e+000	 1.1795491912e-001	 5.5952182771e-001
 4.1436694945e+000	 1.5755859176e-001	 5.7967985621e-001
 4.1419675720e+000	 1.9729707162e-001	 5.9214004898e-001
 4.1398760968e+000	 2.3716545810e-001	 5.9886680847e-001
 4.1373910603e+000	 2.7715873445e-001	 6.0202671981e-001
 4.1345085212e+000	 3.1727176825e-001	 6.0392718318e-001
 4.1312246089e+000	 3.5749931203e-001	 6.0695086196e-001
 4.1275355273e+000	 3.9783600407e-001	 6.1348534789e-001
 4.1733320000e+000	 0.0000000000e+000	 4.5453472251e-001
 4.1731457820e+000	 3.9422931060e-002	 4.9939775718e-001
 4.1725842543e+000	 7.8995627510e-002	 5.3433092282e-001
 4.1716431449e+000	 1.1871351007e-001	 5.6007046982e-001
 4.1703182362e+000	 1.5857188160e-001	 5.7770735032e-001
 4.1686053684e+000	 1.9856592733e-001	 5.8863746508e-001
 4.1665004425e+000	 2.3869071514e-001	 5.9450945967e-001
 4.1639994242e+000	 2.7894119600e-001	 5.9716959707e-001
 4.1610983469e+000	 3.1931220449e-001	 5.9860318172e-001
 4.1577933152e+000	 3.5979845941e-001	 6.0087195849e-001
 4.1540805083e+000	 4.0039456453e-001	 6.0604686025e-001
 4.2000000000e+000	 0.0000000000e+000	 5.0741986529e-001
 4.1998125921e+000	 3.9674847448e-002	 5.3979245375e-001
 4.1992474762e+000	 7.9500417302e-002	 5.6477506577e-001
 4.1983003530e+000	 1.1947210102e-001	 5.8276897910e-001
 4.1969669780e+000	 1.5958517145e-001	 5.9451586991e-001
 4.1952431647e+000	 1.9983478304e-001	 6.0105042967e-001
 4.1931247882e+000	 2.4021597217e-001	 6.0365077290e-001
 4.1906077882e+000	 2.8072365755e-001	 6.0378614419e-001
 4.1876881727e+000	 3.2135264073e-001	 6.0306137728e-001
 4.1843620215e+000	 3.6209760679e-001	 6.0315750458e-001
 4.1806254894e+000	 4.0295312499e-001	 6.0576786201e-001
 3.9151756786e+000	 3.7736752037e-001	 7.7540161209e-001
 3.9112891599e+000	 4.1572149954e-001	 7.7138675230e-001
 3.9070114582e+000	 4.5416857227e-001	 7.6472845371e-001
 3.9023392051e+000	 4.9270341909e-001	 7.5564958738e-001
 3.8972691155e+000	 5.3132061837e-001	 7.4393851701e-001
 3.8917979905e+000	 5.7001464758e-001	 7.2888657997e-001
 3.8859227212e+000	 6.0877988461e-001	 7.0923320234e-001
 3.8796402911e+000	 6.4761060921e-001	 6.8312161052e-001
 3.8729477800e+000	 6.8650100458e-001	 6.4942412672e-001
 3.8658423669e+000	 7.2544515898e-001	 6.1615192984e-001
 3.8583213333e+000	 7.6443706755e-001	 5.8932903399e-001
 3.9417206597e+000	 3.7992608084e-001	 7.6647401676e-001
 3.9378077903e+000	 4.1854010086e-001	 7.6020081325e-001
 3.9335010856e+000	 4.5724784563e-001	 7.5211800951e-001
 3.9287971546e+000	 4.9604395959e-001	 7.4233836465e-001
 3.9236926896e+000	 5.3492298437e-001	 7.3054468130e-001
 3.9181844704e+000	 5.7387935999e-001	 7.1591152422e-001
 3.9122693665e+000	 6.1290742622e-001	 6.9703435474e-001
 3.9059443414e+000	 6.5200142403e-001	 6.7186919534e-001
 3.8992064550e+000	 6.9115549717e-001	 6.3957413340e-001
 3.8920528670e+000	 7.3036369383e-001	 6.0758650229e-001
 3.8844808406e+000	 7.6961996844e-001	 5.8108050497e-001
 3.9682656408e+000	 3.8248464130e-001	 7.4937166595e-001
 3.9643264207e+000	 4.2135870218e-001	 7.4355415221e-001
 3.9599907131e+000	 4.6032711899e-001	 7.3595673661e-001
 3.9552551041e+000	 4.9938450010e-001	 7.2671537056e-001
 3.9501162638e+000	 5.3852535038e-001	 7.1554113704e-001
 3.9445709502e+000	 5.7774407240e-001	 7.0162517237e-001
 3.9386160119e+000	 6.1703496783e-001	 6.8355076212e-001
 3.9322483918e+000	 6.5639223885e-001	 6.5921588312e-001
 3.9254651299e+000	 6.9580998976e-001	 6.2819247379e-001
 3.9182633671e+000	 7.3528222869e-001	 5.9722034885e-001
 3.9106403479e+000	 7.7480286933e-001	 5.7081627775e-001
 3.9948106218e+000	 3.8504320176e-001	 7.2476796353e-001
 3.9908450511e+000	 4.2417730350e-001	 7.2231741087e-001
 3.9864803406e+000	 4.6340639235e-001	 7.1727358705e-001
 3.9817130536e+000	 5.0272504061e-001	 7.0993503219e-001
 3.9765398380e+000	 5.4212771638e-001	 7.0018107434e-001
 3.9709574300e+000	 5.8160878482e-001	 6.8735888540e-001
 3.9649626573e+000	 6.2116250944e-001	 6.7017744496e-001
 3.9585524421e+000	 6.6078305366e-001	 6.4661184785e-001
 3.9517238049e+000	 7.0046448236e-001	 6.1674503159e-001
 3.9444738672e+000	 7.4020076354e-001	 5.8654708121e-001
 3.9367998552e+000	 7.7998577022e-001	 5.6003584688e-001
 4.0213556029e+000	 3.8760176222e-001	 6.9601573164e-001
 4.0173636815e+000	 4.2699590482e-001	 6.9815790544e-001
 4.0129699681e+000	 4.6648566571e-001	 6.9711780164e-001
 4.0081710031e+000	 5.0606558111e-001	 6.9303119290e-001
 4.0029634122e+000	 5.4573008239e-001	 6.8568482664e-001
 3.9973439098e+000	 5.8547349723e-001	 6.7443565564e-001
 3.9913093026e+000	 6.2529005105e-001	 6.5829902000e-001
 3.9848564924e+000	 6.6517386848e-001	 6.3549604472e-001
 3.9779824798e+000	 7.0511897495e-001	 6.0668703869e-001
 3.9706843673e+000	 7.4511929839e-001	 5.7704736321e-001
 3.9629593625e+000	 7.8516867111e-001	 5.5022380945e-001
 4.0479005840e+000	 3.9016032268e-001	 6.6940968243e-001
 4.0438823119e+000	 4.2981450615e-001	 6.7473001104e-001
 4.0394595956e+000	 4.6956493906e-001	 6.7667771172e-001
 4.0346289526e+000	 5.0940612162e-001	 6.7538924423e-001
 4.0293869863e+000	 5.4933244839e-001	 6.7066938872e-001
 4.0237303896e+000	 5.8933820964e-001	 6.6188385130e-001
 4.0176559480e+000	 6.2941759266e-001	 6.4784303351e-001
 4.0111605428e+000	 6.6956468330e-001	 6.2668684439e-001
 4.0042411548e+000	 7.0977346754e-001	 5.9937048905e-001
 3.9968948674e+000	 7.5003783325e-001	 5.7018915608e-001
 3.9891188698e+000	 7.9035157200e-001	 5.4285010902e-001
 4.0744455651e+000	 3.9271888314e-001	 6.4612596074e-001
 4.0704009423e+000	 4.3263310747e-001	 6.5333524186e-001
 4.0659492230e+000	 4.7264421242e-001	 6.5711192349e-001
 4.0610869021e+000	 5.1274666212e-001	 6.5760321851e-001
 4.0558105605e+000	 5.5293481440e-001	 6.5464219789e-001
 4.0501168695e+000	 5.9320292205e-001	 6.4764254721e-001
 4.0440025933e+000	 6.3354513427e-001	 6.3548436515e-001
 4.0374645931e+000	 6.7395549811e-001	 6.1644697818e-001
 4.0304998298e+000	 7.1442796013e-001	 5.9166190971e-001
 4.0231053675e+000	 7.5495636810e-001	 5.6461676770e-001
 4.0152783771e+000	 7.9553447288e-001	 5.3815761418e-001
 4.1009905462e+000	 3.9527744361e-001	 6.2716069827e-001
 4.0969195727e+000	 4.3545170879e-001	 6.3503148068e-001
 4.0924388505e+000	 4.7572348578e-001	 6.3953379595e-001
 4.0875448516e+000	 5.1608720263e-001	 6.4083408049e-001
 4.0822341347e+000	 5.5653718040e-001	 6.3880236117e-001
 4.0765033493e+000	 5.9706763447e-001	 6.3290935526e-001
 4.0703492387e+000	 6.3767267588e-001	 6.2211449353e-001
 4.0637686435e+000	 6.7834631293e-001	 6.0486309297e-001
 4.0567585047e+000	 7.1908245272e-001	 5.8228878442e-001
 4.0493158676e+000	 7.5987490295e-001	 5.5724120587e-001
 4.0414378845e+000	 8.0071737377e-001	 5.3217701065e-001
 4.1275355273e+000	 3.9783600407e-001	 6.1348534789e-001
 4.1234382031e+000	 4.3827031011e-001	 6.2084780235e-001
 4.1189284780e+000	 4.7880275914e-001	 6.2502408458e-001
 4.1140028011e+000	 5.1942774314e-001	 6.2620669347e-001
 4.1086577088e+000	 5.6013954641e-001	 6.2430964759e-001
 4.1028898291e+000	 6.0093234688e-001	 6.1886813043e-001
 4.0966958841e+000	 6.4180021749e-001	 6.0892894310e-001
 4.0900726938e+000	 6.8273712774e-001	 5.9310822302e-001
 4.0830171797e+000	 7.2373694531e-001	 5.7241169558e-001
 4.0755263677e+000	 7.6479343780e-001	 5.4914920579e-001
 4.0675973918e+000	 8.0590027466e-001	 5.2540337210e-001
 4.1540805083e+000	 4.0039456453e-001	 6.0604686025e-001
 4.1499568335e+000	 4.4108891143e-001	 6.1178477854e-001
 4.1454181055e+000	 4.8188203250e-001	 6.1463136658e-001
 4.1404607506e+000	 5.2276828364e-001	 6.1481035662e-001
 4.1350812830e+000	 5.6374191241e-001	 6.1228512828e-001
 4.1292763089e+000	 6.0479705929e-001	 6.0666111053e-001
 4.1230425294e+000	 6.4592775910e-001	 5.9707887903e-001
 4.1163767441e+000	 6.8712794256e-001	 5.8231112105e-001
 4.1092758546e+000	 7.2839143789e-001	 5.6314542107e-001
 4.1017368678e+000	 7.6971197265e-001	 5.4143079592e-001
 4.0937568991e+000	 8.1108317555e-001	 5.1889096317e-001
 4.1806254894e+000	 4.0295312499e-001	 6.0576786201e-001
 4.1764754639e+000	 4.4390751276e-001	 6.0881478063e-001
 4.1719077330e+000	 4.8496130586e-001	 6.0937246108e-001
 4.1669187001e+000	 5.2610882415e-001	 6.0769933432e-001
 4.1615048572e+000	 5.6734427842e-001	 6.0381180595e-001
 4.1556627888e+000	 6.0866177170e-001	 5.9738963617e-001
 4.1493891748e+000	 6.5005530071e-001	 5.8767190673e-001
 4.1426807945e+000	 6.9151875737e-001	 5.7355709038e-001
 4.1355345296e+000	 7.3304593048e-001	 5.5555984677e-001
 4.1279473679e+000	 7.7463050750e-001	 5.3513010071e-001
 4.1199164064e+000	 8.1626607643e-001	 5.1364756732e-001
 3.8583213333e+000	 7.6443706755e-001	 5.8932903399e-001
 3.8503808439e+000	 8.0347649112e-001	 5.6779622925e-001
 3.8420194933e+000	 8.4255138799e-001	 5.4736956069e-001
 3.8332348909e+000	 8.8165547354e-001	 5.2826768039e-001
 3.8240247614e+000	 9.2078237802e-001	 5.1049729797e-001
 3.8143869472e+000	 9.5992564888e-001	 4.9385572082e-001
 3.8043194115e+000	 9.9907875321e-001	 4.7793711548e-001
 3.7938202414e+000	 1.0382350804e+000	 4.6214160763e-001
 3.7828876505e+000	 1.0773879445e+000	 4.4569675871e-001
 3.7715199817e+000	 1.1165305877e+000	 4.2766781262e-001
 3.7597157100e+000	 1.1556561824e+000	 4.0699177764e-001
 3.8844808406e+000	 7.6961996844e-001	 5.8108050497e-001
 3.8764865146e+000	 8.0892408020e-001	 5.5929073558e-001
 3.8680684737e+000	 8.4826390576e-001	 5.3869912082e-001
 3.8592243116e+000	 8.8763311792e-001	 5.1952585560e-001
 3.8499517372e+000	 9.2702530371e-001	 5.0177977718e-001
 3.8402485784e+000	 9.6643396684e-001	 4.8525869604e-001
 3.8301127846e+000	 1.0058525301e+000	 4.6955353630e-001
 3.8195424299e+000	 1.0452743381e+000	 4.5405563394e-001
 3.8085357157e+000	 1.0846926596e+000	 4.3797547969e-001
 3.7970909739e+000	 1.1241006908e+000	 4.2035273302e-001
 3.7852066689e+000	 1.1634915578e+000	 4.0008776527e-001
 3.9106403479e+000	 7.7480286933e-001	 5.7081627775e-001
 3.9025921852e+000	 8.1437166927e-001	 5.4858266720e-001
 3.8941174542e+000	 8.5397642354e-001	 5.2763331830e-001
 3.8852137322e+000	 8.9361076229e-001	 5.0821015362e-001
 3.8758787129e+000	 9.3326822940e-001	 4.9034333535e-001
 3.8661102095e+000	 9.7294228481e-001	 4.7384920469e-001
 3.8559061576e+000	 1.0126263070e+000	 4.5833049376e-001
 3.8452646183e+000	 1.0523135958e+000	 4.4318976263e-001
 3.8341837809e+000	 1.0919973746e+000	 4.2762905968e-001
 3.8226619660e+000	 1.1316707938e+000	 4.1067565367e-001
 3.8106976279e+000	 1.1713269333e+000	 3.9120286162e-001
 3.9367998552e+000	 7.7998577022e-001	 5.6003584688e-001
 3.9286978558e+000	 8.1981925835e-001	 5.3715739845e-001
 3.9201664347e+000	 8.5968894132e-001	 5.1562540042e-001
 3.9112031529e+000	 8.9958840667e-001	 4.9572466723e-001
 3.9018056887e+000	 9.3951115509e-001	 4.7752685480e-001
 3.8919718407e+000	 9.7945060277e-001	 4.6088582027e-001
 3.8816995307e+000	 1.0194000839e+000	 4.4543558420e-001
 3.8709868067e+000	 1.0593528535e+000	 4.3060038252e-001
 3.8598318461e+000	 1.0993020896e+000	 4.1559380194e-001
 3.8482329582e+000	 1.1392408968e+000	 3.9944126911e-001
 3.8361885868e+000	 1.1791623088e+000	 3.8099943091e-001
 3.9629593625e+000	 7.8516867111e-001	 5.5022380945e-001
 3.9548035264e+000	 8.2526684743e-001	 5.2648381123e-001
 3.9462154151e+000	 8.6540145909e-001	 5.0411088532e-001
 3.9371925736e+000	 9.0556605105e-001	 4.8345491168e-001
 3.9277326645e+000	 9.4575408077e-001	 4.6465020914e-001
 3.9178334719e+000	 9.8595892073e-001	 4.4760812167e-001
 3.9074929037e+000	 1.0261738609e+000	 4.3201251233e-001
 3.8967089952e+000	 1.0663921112e+000	 4.1732635844e-001
 3.8854799114e+000	 1.1066068046e+000	 4.0278999252e-001
 3.8738039503e+000	 1.1468109999e+000	 3.8744030863e-001
 3.8616795457e+000	 1.1869976843e+000	 3.7012849065e-001
 3.9891188698e+000	 7.9035157200e-001	 5.4285010902e-001
 3.9809091970e+000	 8.3071443651e-001	 5.1801452872e-001
 3.9722643956e+000	 8.7111397687e-001	 4.9450777830e-001
 3.9631819942e+000	 9.1154369542e-001	 4.7276801614e-001
 3.9536596403e+000	 9.5199700646e-001	 4.5301442303e-001
 3.9436951030e+000	 9.9246723870e-001	 4.3523681453e-001
 3.9332862767e+000	 1.0329476378e+000	 4.1918844482e-001
 3.9224311836e+000	 1.0734313689e+000	 4.0438905632e-001
 3.9111279766e+000	 1.1139115197e+000	 3.9012186810e-001
 3.8993749425e+000	 1.1543811029e+000	 3.7544944116e-001
 3.8871705046e+000	 1.1948330598e+000	 3.5922954794e-001
 4.0152783771e+000	 7.9553447288e-001	 5.3815761418e-001
 4.0070148676e+000	 8.3616202558e-001	 5.1293964414e-001
 3.9983133761e+000	 8.7682649465e-001	 4.8821676637e-001
 3.9891714149e+000	 9.1752133979e-001	 4.6501289444e-001
 3.9795866160e+000	 9.5823993215e-001	 4.4390181231e-001
 3.9695567342e+000	 9.9897555666e-001	 4.2497383446e-001
 3.9590796498e+000	 1.0397214147e+000	 4.0807217661e-001
 3.9481533720e+000	 1.0804706266e+000	 3.9279235478e-001
 3.9367760418e+000	 1.1212162347e+000	 3.7847757323e-001
 3.9249459346e+000	 1.1619512060e+000	 3.6423117278e-001
 3.9126614635e+000	 1.2026684352e+000	 3.4893043203e-001
 4.0414378845e+000	 8.0071737377e-001	 5.3217701065e-001
 4.0331205382e+000	 8.4160961466e-001	 5.0783435039e-001
 4.0243623565e+000	 8.8253901242e-001	 4.8376763480e-001
 4.0151608355e+000	 9.2349898417e-001	 4.6050152532e-001
 4.0055135918e+000	 9.6448285783e-001	 4.3845518206e-001
 3.9954183654e+000	 1.0054838746e+000	 4.1800243317e-001
 3.9848730228e+000	 1.0464951916e+000	 3.9975417604e-001
 3.9738755604e+000	 1.0875098843e+000	 3.8352264387e-001
 3.9624241070e+000	 1.1285209497e+000	 3.6872910742e-001
 3.9505169268e+000	 1.1695213090e+000	 3.5453373714e-001
 3.9381524225e+000	 1.2105038107e+000	 3.3984712352e-001
 4.0675973918e+000	 8.0590027466e-001	 5.2540337210e-001
 4.0592262089e+000	 8.4705720374e-001	 5.0195751952e-001
 4.0504113370e+000	 8.8825153020e-001	 4.7863497893e-001
 4.0411502562e+000	 9.2947662854e-001	 4.5593340278e-001
 4.0314405676e+000	 9.7072578352e-001	 4.3425125325e-001
 4.0212799965e+000	 1.0119921926e+000	 4.1387448403e-001
 4.0106663959e+000	 1.0532689685e+000	 3.9496675568e-001
 3.9995977489e+000	 1.0945491420e+000	 3.7754881144e-001
 3.9880721722e+000	 1.1358256647e+000	 3.6173226248e-001
 3.9760879189e+000	 1.1770914121e+000	 3.4709097925e-001
 3.9636433814e+000	 1.2183391862e+000	 3.3258358005e-001
 4.0937568991e+000	 8.1108317555e-001	 5.1889096317e-001
 4.0853318795e+000	 8.5250479281e-001	 4.9631731521e-001
 4.0764603175e+000	 8.9396404797e-001	 4.7375790837e-001
 4.0671396769e+000	 9.3545427291e-001	 4.5168698608e-001
 4.0573675433e+000	 9.7696870920e-001	 4.3048527355e-001
 4.0471416277e+000	 1.0185005105e+000	 4.1042674644e-001
 4.0364597689e+000	 1.0600427454e+000	 3.9166807899e-001
 4.0253199373e+000	 1.1015883997e+000	 3.7422867575e-001
 4.0137202374e+000	 1.1431303798e+000	 3.5797834873e-001
 4.0016589111e+000	 1.1846615151e+000	 3.4261892324e-001
 3.9891343403e+000	 1.2261745617e+000	 3.2773155892e-001
 4.1199164064e+000	 8.1626607643e-001	 5.1364756732e-001
 4.1114375501e+000	 8.5795238189e-001	 4.9187525768e-001
 4.1025092979e+000	 8.9967656574e-001	 4.7004254427e-001
 4.0931290975e+000	 9.4143191729e-001	 4.4860379057e-001
 4.0832945191e+000	 9.8321163488e-001	 4.2792486897e-001
 4.0730032589e+000	 1.0250088285e+000	 4.0826998278e-001
 4.0622531420e+000	 1.0668165223e+000	 3.8979044121e-001
 4.0510421257e+000	 1.1086276574e+000	 3.7250556234e-001
 4.0393683026e+000	 1.1504350948e+000	 3.5628954709e-001
 4.0272299033e+000	 1.1922316182e+000	 3.4085317257e-001
 4.0146252992e+000	 1.2340099371e+000	 3.2572499716e-001
 3.7597157100e+000	 1.1556561824e+000	 4.0699177764e-001
 3.7474734443e+000	 1.1947578341e+000	 3.8321663268e-001
 3.7347919268e+000	 1.2338285827e+000	 3.5550100190e-001
 3.7216700388e+000	 1.2728614074e+000	 3.2208841709e-001
 3.7081068035e+000	 1.3118492302e+000	 2.8122609040e-001
 3.6941013890e+000	 1.3507849198e+000	 2.3268839105e-001
 3.6796531097e+000	 1.3896612948e+000	 1.8628634237e-001
 3.6647614292e+000	 1.4284711273e+000	 1.4417436623e-001
 3.6494259619e+000	 1.4672071469e+000	 1.0631223696e-001
 3.6336464752e+000	 1.5058620440e+000	 7.2576059755e-002
 3.6174228910e+000	 1.5444284742e+000	 4.2757617078e-002
 3.7852066689e+000	 1.1634915578e+000	 4.0008776527e-001
 3.7728814004e+000	 1.2028583196e+000	 3.7643370923e-001
 3.7601139019e+000	 1.2421939689e+000	 3.4836023208e-001
 3.7469030472e+000	 1.2814914370e+000	 3.1421224763e-001
 3.7332478529e+000	 1.3207435981e+000	 2.7232185359e-001
 3.7191474813e+000	 1.3599432726e+000	 2.2421487687e-001
 3.7046012423e+000	 1.3990832303e+000	 1.7895759432e-001
 3.6896085959e+000	 1.4381561944e+000	 1.3743510068e-001
 3.6741691538e+000	 1.4771548451e+000	 9.9786626226e-002
 3.6582826818e+000	 1.5160718233e+000	 6.6071212525e-002
 3.6419491014e+000	 1.5548997347e+000	 3.6266747641e-002
 3.8106976279e+000	 1.1713269333e+000	 3.9120286162e-001
 3.7982893564e+000	 1.2109588052e+000	 3.6814899667e-001
 3.7854358770e+000	 1.2505593550e+000	 3.4025396006e-001
 3.7721360556e+000	 1.2901214666e+000	 3.0593991956e-001
 3.7583889022e+000	 1.3296379661e+000	 2.6359855649e-001
 3.7441935736e+000	 1.3691016254e+000	 2.1690375845e-001
 3.7295493750e+000	 1.4085051658e+000	 1.7295479244e-001
 3.7144557626e+000	 1.4478412615e+000	 1.3216580960e-001
 3.6989123457e+000	 1.4871025432e+000	 9.4823984198e-002
 3.6829188884e+000	 1.5262816025e+000	 6.1140801446e-002
 3.6664753117e+000	 1.5653709953e+000	 3.1250837765e-002
 3.8361885868e+000	 1.1791623088e+000	 3.8099943091e-001
 3.8236973125e+000	 1.2190592908e+000	 3.5888444408e-001
 3.8107578521e+000	 1.2589247412e+000	 3.3157863235e-001
 3.7973690640e+000	 1.2987514962e+000	 2.9755854126e-001
 3.7835299516e+000	 1.3385323340e+000	 2.5534863021e-001
 3.7692396659e+000	 1.3782599782e+000	 2.1073656034e-001
 3.7544975076e+000	 1.4179271013e+000	 1.6823116495e-001
 3.7393029293e+000	 1.4575263286e+000	 1.2830593304e-001
 3.7236555376e+000	 1.4970502414e+000	 9.1365091540e-002
 3.7075550951e+000	 1.5364913818e+000	 5.7742700700e-002
 3.6910015221e+000	 1.5758422558e+000	 2.7701234480e-002
 3.8616795457e+000	 1.1869976843e+000	 3.7012849065e-001
 3.8491052686e+000	 1.2271597764e+000	 3.4915354466e-001
 3.8360798272e+000	 1.2672901273e+000	 3.2272509567e-001
 3.8226020724e+000	 1.3073815258e+000	 2.8935244239e-001
 3.8086710009e+000	 1.3474267019e+000	 2.4812298145e-001
 3.7942857582e+000	 1.3874183310e+000	 2.0571263846e-001
 3.7794456403e+000	 1.4273490369e+000	 1.6475804929e-001
 3.7641500960e+000	 1.4672113956e+000	 1.2581283926e-001
 3.7483987295e+000	 1.5069979396e+000	 8.9368005340e-002
 3.7321913017e+000	 1.5467011611e+000	 5.5850926832e-002
 3.7155277324e+000	 1.5863135164e+000	 2.5623800089e-002
 3.8871705046e+000	 1.1948330598e+000	 3.5922954794e-001
 3.8745132247e+000	 1.2352602619e+000	 3.3946110833e-001
 3.8614018023e+000	 1.2756555135e+000	 3.1407832177e-001
 3.8478350808e+000	 1.3160115554e+000	 2.8160286745e-001
 3.8338120503e+000	 1.3563210699e+000	 2.4203059939e-001
 3.8193318505e+000	 1.3965766838e+000	 2.0184809275e-001
 3.8043937729e+000	 1.4367709724e+000	 1.6252371785e-001
 3.7889972628e+000	 1.4768964627e+000	 1.2466057565e-001
 3.7731419214e+000	 1.5169456378e+000	 8.8806747673e-002
 3.7568275083e+000	 1.5569109403e+000	 5.5454278228e-002
 3.7400539428e+000	 1.5967847769e+000	 2.5037516362e-002
 3.9126614635e+000	 1.2026684352e+000	 3.4893043203e-001
 3.8999211807e+000	 1.2433607475e+000	 3.3030303447e-001
 3.8867237774e+000	 1.2840208996e+000	 3.0601713561e-001
 3.8730680892e+000	 1.3246415850e+000	 2.7458767545e-001
 3.8589530996e+000	 1.3652154378e+000	 2.3714356032e-001
 3.8443779429e+000	 1.4057350366e+000	 1.9917469040e-001
 3.8293419056e+000	 1.4461929079e+000	 1.6153221581e-001
 3.8138444295e+000	 1.4865815298e+000	 1.2483863256e-001
 3.7978851133e+000	 1.5268933359e+000	 8.9670007668e-002
 3.7814637149e+000	 1.5671207196e+000	 5.6554987990e-002
 3.7645801531e+000	 1.6072560375e+000	 2.5973101450e-002
 3.9381524225e+000	 1.2105038107e+000	 3.3984712352e-001
 3.9253291368e+000	 1.2514612331e+000	 3.2216608463e-001
 3.9120457525e+000	 1.2923862858e+000	 2.9891394668e-001
 3.8983010976e+000	 1.3332716146e+000	 2.6858104562e-001
 3.8840941490e+000	 1.3741098057e+000	 2.3354810635e-001
 3.8694240352e+000	 1.4148933894e+000	 1.9773879929e-001
 3.8542900382e+000	 1.4556148434e+000	 1.6180221055e-001
 3.8386915962e+000	 1.4962665968e+000	 1.2635071979e-001
 3.8226283052e+000	 1.5368410341e+000	 9.1959856490e-002
 3.8060999215e+000	 1.5773304989e+000	 5.9167389616e-002
 3.7891063634e+000	 1.6177272980e+000	 2.8471638941e-002
 3.9636433814e+000	 1.2183391862e+000	 3.3258358005e-001
 3.9507370929e+000	 1.2595617187e+000	 3.1552765529e-001
 3.9373677276e+000	 1.3007516719e+000	 2.9313448345e-001
 3.9235341059e+000	 1.3419016441e+000	 2.6399625449e-001
 3.9092351983e+000	 1.3830041737e+000	 2.3134368109e-001
 3.8944701275e+000	 1.4240517422e+000	 1.9760033109e-001
 3.8792381709e+000	 1.4650367789e+000	 1.6336585207e-001
 3.8635387629e+000	 1.5059516639e+000	 1.2921355482e-001
 3.8473714971e+000	 1.5467887323e+000	 9.5690474634e-002
 3.8307361281e+000	 1.5875402781e+000	 6.3316594897e-002
 3.8136325738e+000	 1.6281985585e+000	 3.2583218527e-002
 3.9891343403e+000	 1.2261745617e+000	 3.2773155892e-001
 3.9761450490e+000	 1.2676622042e+000	 3.1085555071e-001
 3.9626897027e+000	 1.3091170580e+000	 2.8903753068e-001
 3.9487671143e+000	 1.3505316737e+000	 2.6117762322e-001
 3.9343762477e+000	 1.3918985416e+000	 2.3064197300e-001
 3.9195162198e+000	 1.4332100950e+000	 1.9883169360e-001
 3.9041863035e+000	 1.4744587144e+000	 1.6626764399e-001
 3.8883859296e+000	 1.5156367310e+000	 1.3345566264e-001
 3.8721146890e+000	 1.5567364305e+000	 1.0088689100e-001
 3.8553723347e+000	 1.5977500574e+000	 6.9037183491e-002
 3.8381587841e+000	 1.6386698191e+000	 3.8365587748e-002
 4.0146252992e+000	 1.2340099371e+000	 3.2572499716e-001
 4.0015530051e+000	 1.2757626898e+000	 3.0860761360e-001
 3.9880116778e+000	 1.3174824442e+000	 2.8697466957e-001
 3.9740001227e+000	 1.3591617033e+000	 2.6029771774e-001
 3.9595172970e+000	 1.4007929095e+000	 2.3156596594e-001
 3.9445623121e+000	 1.4423684478e+000	 2.0151675198e-001
 3.9291344362e+000	 1.4838806500e+000	 1.7056332465e-001
 3.9132330963e+000	 1.5253217981e+000	 1.3911618624e-001
 3.8968578809e+000	 1.5666841286e+000	 1.0758373320e-001
 3.8800085414e+000	 1.6079598367e+000	 7.6371903651e-002
 3.8626849945e+000	 1.6491410796e+000	 4.5882814330e-002
 3.6174228910e+000	 1.5444284742e+000	 4.2757617078e-002
 3.6007578216e+000	 1.5828932993e+000	 1.6832709642e-002
 3.5836491053e+000	 1.6212549131e+000	-5.7192865919e-003
 3.5660971407e+000	 1.6595058954e+000	-2.5922183691e-002
 3.5481024868e+000	 1.6976388070e+000	-4.4826593325e-002
 3.5296658649e+000	 1.7356461945e+000	-6.3510863751e-002
 3.5107881589e+000	 1.7735205942e+000	-8.3082363238e-002
 3.4914704169e+000	 1.8112545366e+000	-1.0467907128e-001
 3.4717138517e+000	 1.8488405507e+000	-1.2947143164e-001
 3.4515198418e+000	 1.8862711687e+000	-1.5866441429e-001
 3.4308899314e+000	 1.9235389302e+000	-1.9349972676e-001
 3.6419491014e+000	 1.5548997347e+000	 3.6266747641e-002
 3.6251710424e+000	 1.5936253522e+000	 1.0939714356e-002
 3.6079463286e+000	 1.6322470587e+000	-1.0134187743e-002
 3.5902753613e+000	 1.6707573835e+000	-2.8235536381e-002
 3.5721587033e+000	 1.7091488371e+000	-4.4676175776e-002
 3.5535970806e+000	 1.7474139156e+000	-6.0799983595e-002
 3.5345913833e+000	 1.7855451046e+000	-7.7984007895e-002
 3.5151426665e+000	 1.8235348839e+000	-9.7639933502e-002
 3.4952521515e+000	 1.8613757321e+000	-1.2121582964e-001
 3.4749212257e+000	 1.8990601306e+000	-1.5019812324e-001
 3.4541514439e+000	 1.9365805684e+000	-1.8611373534e-001
 3.6664753117e+000	 1.5653709953e+000	 3.1250837765e-002
 3.6495842632e+000	 1.6043574052e+000	 6.2634570244e-003
 3.6322435519e+000	 1.6432392043e+000	-1.3749145634e-002
 3.6144535818e+000	 1.6820088716e+000	-3.0280494085e-002
 3.5962149197e+000	 1.7206588672e+000	-4.4859428336e-002
 3.5775282962e+000	 1.7591816367e+000	-5.9050790418e-002
 3.5583946077e+000	 1.7975696150e+000	-7.4456507325e-002
 3.5388149162e+000	 1.8358152313e+000	-9.2717028352e-002
 3.5187904512e+000	 1.8739109136e+000	-1.1551306607e-001
 3.4983226095e+000	 1.9118490925e+000	-1.4456758249e-001
 3.4774129565e+000	 1.9496222066e+000	-1.8164795442e-001
 3.6910015221e+000	 1.5758422558e+000	 2.7701234480e-002
 3.6739974839e+000	 1.6150894581e+000	 2.8371796463e-003
 3.6565407752e+000	 1.6542313498e+000	-1.6489507816e-002
 3.6386318024e+000	 1.6932603597e+000	-3.1942289894e-002
 3.6202711361e+000	 1.7321688974e+000	-4.5223571604e-002
 3.6014595119e+000	 1.7709493578e+000	-5.8075394765e-002
 3.5821978321e+000	 1.8095941253e+000	-7.2280559465e-002
 3.5624871659e+000	 1.8480955787e+000	-8.9664128204e-002
 3.5423287509e+000	 1.8864460950e+000	-1.1209525918e-001
 3.5217239934e+000	 1.9246380543e+000	-1.4148930693e-001
 3.5006744691e+000	 1.9626638447e+000	-1.7981012089e-001
 3.7155277324e+000	 1.5863135164e+000	 2.5623800089e-002
 3.6984107047e+000	 1.6258215111e+000	 7.0673604526e-004
 3.6808379985e+000	 1.6652234954e+000	-1.8269947708e-002
 3.6628100230e+000	 1.7045118478e+000	-3.3097425595e-002
 3.6443273525e+000	 1.7436789275e+000	-4.5609013341e-002
 3.6253907276e+000	 1.7827170788e+000	-5.7680958569e-002
 3.6060010565e+000	 1.8216186357e+000	-7.1233693400e-002
 3.5861594156e+000	 1.8603759261e+000	-8.8233501419e-002
 3.5658670506e+000	 1.8989812764e+000	-1.1069454238e-001
 3.5451253772e+000	 1.9374270162e+000	-1.4068116931e-001
 3.5239359817e+000	 1.9757054829e+000	-1.8031046469e-001
 3.7400539428e+000	 1.5967847769e+000	 2.5037516362e-002
 3.7228239255e+000	 1.6365535640e+000	-7.0832266363e-005
 3.7051352218e+000	 1.6762156410e+000	-1.8995917770e-002
 3.6869882436e+000	 1.7157633359e+000	-3.3615155280e-002
 3.6683835689e+000	 1.7551889576e+000	-4.5850864562e-002
 3.6493219433e+000	 1.7944847999e+000	-5.7671246444e-002
 3.6298042809e+000	 1.8336431461e+000	-7.1091859273e-002
 3.6098316652e+000	 1.8726562735e+000	-8.8177544916e-002
 3.5894053503e+000	 1.9115164578e+000	-1.1104474425e-001
 3.5685267611e+000	 1.9502159781e+000	-1.4186413302e-001
 3.5471974943e+000	 1.9887471210e+000	-1.8286350033e-001
 3.7645801531e+000	 1.6072560375e+000	 2.5973101450e-002
 3.7472371463e+000	 1.6472856170e+000	 5.7129152388e-004
 3.7294324451e+000	 1.6872077866e+000	-1.8565091905e-002
 3.7111664641e+000	 1.7270148240e+000	-3.3358959112e-002
 3.6924397853e+000	 1.7666989878e+000	-4.5780446666e-002
 3.6732531590e+000	 1.8062525210e+000	-5.7848168801e-002
 3.6536075053e+000	 1.8456676565e+000	-7.1631010651e-002
 3.6335039149e+000	 1.8849366209e+000	-8.9250409694e-002
 3.6129436500e+000	 1.9240516393e+000	-1.1288306173e-001
 3.5919281449e+000	 1.9630049400e+000	-1.4476397810e-001
 3.5704590069e+000	 2.0017887592e+000	-1.8717247489e-001
 3.7891063634e+000	 1.6177272980e+000	 2.8471638941e-002
 3.7716503671e+000	 1.6580176699e+000	 2.7082983546e-003
 3.7537296684e+000	 1.6981999321e+000	-1.6868797582e-002
 3.7353446847e+000	 1.7382663121e+000	-3.2188007705e-002
 3.7164960017e+000	 1.7782090179e+000	-4.5226789993e-002
 3.6971843747e+000	 1.8180202421e+000	-5.8013317141e-002
 3.6774107297e+000	 1.8576921669e+000	-7.2628679683e-002
 3.6571761646e+000	 1.8972169683e+000	-9.1209619620e-002
 3.6364819497e+000	 1.9365868207e+000	-1.1595172691e-001
 3.6153295288e+000	 1.9757939018e+000	-1.4911302105e-001
 3.5937205195e+000	 2.0148303973e+000	-1.9187311720e-001
 3.8136325738e+000	 1.6281985585e+000	 3.2583218527e-002
 3.7960635879e+000	 1.6687497229e+000	 6.4223628259e-003
 3.7780268917e+000	 1.7091920777e+000	-1.3793438126e-002
 3.7595229053e+000	 1.7495178002e+000	-2.9958617534e-002
 3.7405522181e+000	 1.7897190480e+000	-4.4018124226e-002
 3.7211155904e+000	 1.8297879632e+000	-5.7969491872e-002
 3.7012139541e+000	 1.8697166773e+000	-7.3865545384e-002
 3.6808484143e+000	 1.9094973156e+000	-9.3817683775e-002
 3.6600202494e+000	 1.9491220021e+000	-1.1999966759e-001
 3.6387309127e+000	 1.9885828637e+000	-1.5465182837e-001
 3.6169820321e+000	 2.0278720355e+000	-1.9620876364e-001
 3.8381587841e+000	 1.6386698191e+000	 3.8365587748e-002
 3.8204768087e+000	 1.6794817758e+000	 1.1801262965e-002
 3.8023241150e+000	 1.7201842233e+000	-9.2219056309e-003
 3.7837011259e+000	 1.7607692884e+000	-2.6525697776e-002
 3.7646084345e+000	 1.8012290781e+000	-4.1983360966e-002
 3.7450468061e+000	 1.8415556843e+000	-5.7522223001e-002
 3.7250171785e+000	 1.8817411877e+000	-7.5126995348e-002
 3.7045206639e+000	 1.9217776630e+000	-9.6843702668e-002
 3.6835585491e+000	 1.9616571835e+000	-1.2478416207e-001
 3.6621322965e+000	 2.0013718256e+000	-1.6112216040e-001
 3.6402435447e+000	 2.0409136736e+000	-2.0014732667e-001
 3.8626849945e+000	 1.6491410796e+000	 4.5882814330e-002
 3.8448900295e+000	 1.6902138288e+000	 1.8937009768e-002
 3.8266213383e+000	 1.7311763688e+000	-3.0349849043e-003
 3.8078793464e+000	 1.7720207765e+000	-2.1744188967e-002
 3.7886646509e+000	 1.8127391083e+000	-3.8953568859e-002
 3.7689780217e+000	 1.8533234054e+000	-5.6481284004e-002
 3.7488204029e+000	 1.8937656981e+000	-7.6204681182e-002
 3.7281929136e+000	 1.9340580104e+000	-1.0006496857e-001
 3.7070968488e+000	 1.9741923649e+000	-1.3007248823e-001
 3.6855336804e+000	 2.0141607875e+000	-1.6742132599e-001
 3.6635050572e+000	 2.0539553118e+000	-2.0366817266e-001
 3.4308899314e+000	 1.9235389302e+000	-1.9349972676e-001
 3.4098226392e+000	 1.9606419394e+000	-2.3441591776e-001
 3.3883229079e+000	 1.9975671597e+000	-2.8134650719e-001
 3.3663927853e+000	 2.0343071798e+000	-3.2660153896e-001
 3.3440344860e+000	 2.0708546138e+000	-3.5969223869e-001
 3.3212503911e+000	 2.1072021068e+000	-3.8149418554e-001
 3.2980430479e+000	 2.1433423388e+000	-3.9824237557e-001
 3.2744151693e+000	 2.1792680296e+000	-4.1291090654e-001
 3.2503696335e+000	 2.2149719435e+000	-4.2777364027e-001
 3.2259094826e+000	 2.2504468941e+000	-4.4510461063e-001
 3.2010379221e+000	 2.2856857484e+000	-4.6715323140e-001
 3.4541514439e+000	 1.9365805684e+000	-1.8611373534e-001
 3.4329413150e+000	 1.9739351368e+000	-2.2986962418e-001
 3.4112958151e+000	 2.0111107110e+000	-2.8079691137e-001
 3.3892170058e+000	 2.0480998292e+000	-3.2606763614e-001
 3.3667071167e+000	 2.0848950557e+000	-3.6097256840e-001
 3.3437685451e+000	 2.1214889855e+000	-3.8529532439e-001
 3.3204038555e+000	 2.1578742491e+000	-4.0012704769e-001
 3.2966157794e+000	 2.1940435169e+000	-4.1258417619e-001
 3.2724072143e+000	 2.2299895042e+000	-4.2564123836e-001
 3.2477812230e+000	 2.2657049758e+000	-4.4148877045e-001
 3.2227410328e+000	 2.3011827503e+000	-4.6228916235e-001
 3.4774129565e+000	 1.9496222066e+000	-1.8164795442e-001
 3.4560599909e+000	 1.9872283342e+000	-2.2806990909e-001
 3.4342687223e+000	 2.0246542622e+000	-2.8025886674e-001
 3.4120412262e+000	 2.0618924786e+000	-3.2511543704e-001
 3.3893797473e+000	 2.0989354976e+000	-3.6127259682e-001
 3.3662866990e+000	 2.1357758642e+000	-3.8842114624e-001
 3.3427646632e+000	 2.1724061594e+000	-4.0627279912e-001
 3.3188163895e+000	 2.2088190042e+000	-4.1634575554e-001
 3.2944447951e+000	 2.2450070649e+000	-4.2667840472e-001
 3.2696529635e+000	 2.2809630575e+000	-4.4013224741e-001
 3.2444441434e+000	 2.3166797522e+000	-4.5882549290e-001
 3.5006744691e+000	 1.9626638447e+000	-1.7981012089e-001
 3.4791786668e+000	 2.0005215316e+000	-2.2871785044e-001
 3.4572416294e+000	 2.0381978135e+000	-2.7961452181e-001
 3.4348654467e+000	 2.0756851281e+000	-3.2367955153e-001
 3.4120523780e+000	 2.1129759395e+000	-3.6053683195e-001
 3.3888048530e+000	 2.1500627430e+000	-3.8982305678e-001
 3.3651254708e+000	 2.1869380697e+000	-4.1119154801e-001
 3.3410169996e+000	 2.2235944915e+000	-4.2431639493e-001
 3.3164823760e+000	 2.2600246256e+000	-4.3150837782e-001
 3.2915247039e+000	 2.2962211391e+000	-4.4163678866e-001
 3.2661472541e+000	 2.3321767542e+000	-4.5733687421e-001
 3.5239359817e+000	 1.9757054829e+000	-1.8031046469e-001
 3.5022973426e+000	 2.0138147290e+000	-2.3038606844e-001
 3.4802145366e+000	 2.0517413647e+000	-2.7879801558e-001
 3.4576896671e+000	 2.0894777775e+000	-3.2170536637e-001
 3.4347250087e+000	 2.1270163813e+000	-3.5872023606e-001
 3.4113230070e+000	 2.1643496217e+000	-3.8946319032e-001
 3.3874862785e+000	 2.2014699800e+000	-4.1356714563e-001
 3.3632176097e+000	 2.2383699789e+000	-4.3068160687e-001
 3.3385199568e+000	 2.2750421863e+000	-4.4047722480e-001
 3.3133964443e+000	 2.3114792208e+000	-4.4658294869e-001
 3.2878503648e+000	 2.3476737561e+000	-4.5837565839e-001
 3.5471974943e+000	 1.9887471210e+000	-1.8286350033e-001
 3.5254160185e+000	 2.0271079264e+000	-2.3196736607e-001
 3.5031874438e+000	 2.0652849160e+000	-2.7775458492e-001
 3.4805138876e+000	 2.1032704269e+000	-3.1914902020e-001
 3.4573976394e+000	 2.1410568232e+000	-3.5578820931e-001
 3.4338411610e+000	 2.1786365004e+000	-3.8731385722e-001
 3.4098470862e+000	 2.2160018903e+000	-4.1337574584e-001
 3.3854182198e+000	 2.2531454662e+000	-4.3363600621e-001
 3.3605575376e+000	 2.2900597470e+000	-4.4777373566e-001
 3.3352681848e+000	 2.3267373025e+000	-4.5548993813e-001
 3.3095534755e+000	 2.3631707580e+000	-4.6247090597e-001
 3.5704590069e+000	 2.0017887592e+000	-1.8717247489e-001
 3.5485346943e+000	 2.0404011238e+000	-2.3340655024e-001
 3.5261603510e+000	 2.0788284673e+000	-2.7644052309e-001
 3.5033381080e+000	 2.1170630764e+000	-3.1597737084e-001
 3.4800702700e+000	 2.1550972651e+000	-3.5171656546e-001
 3.4563593150e+000	 2.1929233791e+000	-3.8335752674e-001
 3.4322078938e+000	 2.2305338007e+000	-4.1060347708e-001
 3.4076188299e+000	 2.2679209535e+000	-4.3316568475e-001
 3.3825951184e+000	 2.3050773076e+000	-4.5076807775e-001
 3.3571399252e+000	 2.3419953841e+000	-4.6315220608e-001
 3.3312565862e+000	 2.3786677599e+000	-4.7012738577e-001
 3.5937205195e+000	 2.0148303973e+000	-1.9187311720e-001
 3.5716533702e+000	 2.0536943212e+000	-2.3465977665e-001
 3.5491332582e+000	 2.0923720185e+000	-2.7482313100e-001
 3.5261623285e+000	 2.1308557258e+000	-3.1216795503e-001
 3.5027429007e+000	 2.1691377070e+000	-3.4649149967e-001
 3.4788774690e+000	 2.2072102578e+000	-3.7758680203e-001
 3.4545687015e+000	 2.2450657110e+000	-4.0524642273e-001
 3.4298194401e+000	 2.2826964408e+000	-4.2926659752e-001
 3.4046326992e+000	 2.3200948683e+000	-4.4945178551e-001
 3.3790116656e+000	 2.3572534658e+000	-4.6561959156e-001
 3.3529596968e+000	 2.3941647618e+000	-4.7760603572e-001
 3.6169820321e+000	 2.0278720355e+000	-1.9620876364e-001
 3.5947720461e+000	 2.0669875186e+000	-2.3569448625e-001
 3.5721061654e+000	 2.1059155698e+000	-2.7288066169e-001
 3.5489865489e+000	 2.1446483752e+000	-3.0770894117e-001
 3.5254155314e+000	 2.1831781488e+000	-3.4010954908e-001
 3.5013956229e+000	 2.2214971365e+000	-3.7000438752e-001
 3.4769295092e+000	 2.2595976213e+000	-3.9731059383e-001
 3.4520200502e+000	 2.2974719282e+000	-4.2194453863e-001
 3.4266702800e+000	 2.3351124290e+000	-4.4382624675e-001
 3.4008834061e+000	 2.3725115475e+000	-4.6288421878e-001
 3.3746628075e+000	 2.4096617637e+000	-4.7906062552e-001
 3.6402435447e+000	 2.0409136736e+000	-2.0014732667e-001
 3.6178907219e+000	 2.0802807161e+000	-2.3648933556e-001
 3.5950790726e+000	 2.1194591210e+000	-2.7060225831e-001
 3.5718107694e+000	 2.1584410247e+000	-3.0259907512e-001
 3.5480881620e+000	 2.1972185907e+000	-3.3257754621e-001
 3.5239137769e+000	 2.2357840152e+000	-3.6062304904e-001
 3.4992903168e+000	 2.2741295316e+000	-3.8681189443e-001
 3.4742206603e+000	 2.3122474155e+000	-4.1121510973e-001
 3.4487078609e+000	 2.3501299897e+000	-4.3390267163e-001
 3.4227551465e+000	 2.3877696291e+000	-4.5494816647e-001
 3.3963659182e+000	 2.4251587656e+000	-4.7443385020e-001
 3.6635050572e+000	 2.0539553118e+000	-2.0366817266e-001
 3.6410093978e+000	 2.0935739135e+000	-2.3703412102e-001
 3.6180519798e+000	 2.1330026723e+000	-2.6798788583e-001
 3.5946349899e+000	 2.1722336741e+000	-2.9684761959e-001
 3.5707607927e+000	 2.2112590326e+000	-3.2391256567e-001
 3.5464319309e+000	 2.2500708939e+000	-3.4946556699e-001
 3.5216511245e+000	 2.2886614419e+000	-3.7377607984e-001
 3.4964212704e+000	 2.3270229028e+000	-3.9710368145e-001
 3.4707454417e+000	 2.3651475504e+000	-4.1970205467e-001
 3.4446268869e+000	 2.4030277108e+000	-4.4182342743e-001
 3.4180690289e+000	 2.4406557675e+000	-4.6372343929e-001
 3.2010379221e+000	 2.2856857484e+000	-4.6715323140e-001
 3.1757583185e+000	 2.3206814311e+000	-4.9218690729e-001
 3.1500741959e+000	 2.3554269264e+000	-5.1698568285e-001
 3.1239892364e+000	 2.3899152852e+000	-5.4144263780e-001
 3.0975072805e+000	 2.4241396301e+000	-5.6531098412e-001
 3.0706323245e+000	 2.4580931598e+000	-5.8818250215e-001
 3.0433685191e+000	 2.4917691538e+000	-6.0946659925e-001
 3.0157201671e+000	 2.5251609764e+000	-6.2837018571e-001
 2.9876917216e+000	 2.5582620812e+000	-6.4387856008e-001
 2.9592877831e+000	 2.5910660154e+000	-6.5473749178e-001
 2.9305130975e+000	 2.6235664236e+000	-6.5943668315e-001
 3.2227410328e+000	 2.3011827503e+000	-4.6228916235e-001
 3.1972900329e+000	 2.3364157045e+000	-4.8614889551e-001
 3.1714317713e+000	 2.3713967751e+000	-5.0982153706e-001
 3.1451699552e+000	 2.4061189658e+000	-5.3330980145e-001
 3.1185084511e+000	 2.4405753525e+000	-5.5647311530e-001
 3.0914512822e+000	 2.4747590879e+000	-5.7900478940e-001
 3.0640026276e+000	 2.5086634059e+000	-6.0040983064e-001
 3.0361668192e+000	 2.5422816258e+000	-6.1998359767e-001
 3.0079483401e+000	 2.5756071569e+000	-6.3679150168e-001
 2.9793518222e+000	 2.6086335025e+000	-6.4964994874e-001
 2.9503820436e+000	 2.6413542642e+000	-6.5710871483e-001
 3.2444441434e+000	 2.3166797522e+000	-4.5882549290e-001
 3.2188217473e+000	 2.3521499780e+000	-4.8076558182e-001
 3.1927893468e+000	 2.3873666238e+000	-5.0270421318e-001
 3.1663506741e+000	 2.4223226463e+000	-5.2474038712e-001
 3.1395096216e+000	 2.4570110749e+000	-5.4682628733e-001
 3.1122702400e+000	 2.4914250160e+000	-5.6874317114e-001
 3.0846367361e+000	 2.5255576581e+000	-5.9007791785e-001
 3.0566134712e+000	 2.5594022753e+000	-6.1020044807e-001
 3.0282049587e+000	 2.5929522326e+000	-6.2824222487e-001
 2.9994158614e+000	 2.6262009896e+000	-6.4307604244e-001
 2.9702509898e+000	 2.6591421048e+000	-6.5329730205e-001
 3.2661472541e+000	 2.3321767542e+000	-4.5733687421e-001
 3.2403534617e+000	 2.3678842514e+000	-4.7658218481e-001
 3.2141469222e+000	 2.4033364725e+000	-4.9615117213e-001
 3.1875313929e+000	 2.4385263269e+000	-5.1622634715e-001
 3.1605107922e+000	 2.4734467973e+000	-5.3683976162e-001
 3.1330891977e+000	 2.5080909442e+000	-5.5784759708e-001
 3.1052708446e+000	 2.5424519102e+000	-5.7890543052e-001
 3.0770601233e+000	 2.5765229248e+000	-5.9944439963e-001
 3.0484615772e+000	 2.6102973083e+000	-6.1864848760e-001
 3.0194799006e+000	 2.6437684768e+000	-6.3543314271e-001
 2.9901199359e+000	 2.6769299455e+000	-6.4824063915e-001
 3.2878503648e+000	 2.3476737561e+000	-4.5837565839e-001
 3.2618851761e+000	 2.3836185248e+000	-4.7412062230e-001
 3.2355044976e+000	 2.4193063212e+000	-4.9065558390e-001
 3.2087121117e+000	 2.4547300074e+000	-5.0823436140e-001
 3.1815119627e+000	 2.4898825197e+000	-5.2695655167e-001
 3.1539081554e+000	 2.5247568723e+000	-5.4674079661e-001
 3.1259049531e+000	 2.5593461623e+000	-5.6729874567e-001
 3.0975067753e+000	 2.5936435742e+000	-5.8810994718e-001
 3.0687181957e+000	 2.6276423840e+000	-6.0839789823e-001
 3.0395439398e+000	 2.6613359639e+000	-6.2710747821e-001
 3.0099888821e+000	 2.6947177861e+000	-6.4152487026e-001
 3.3095534755e+000	 2.3631707580e+000	-4.6247090597e-001
 3.2834168905e+000	 2.3993527983e+000	-4.7387847320e-001
 3.2568620731e+000	 2.4352761699e+000	-4.8668524536e-001
 3.2298928305e+000	 2.4709336880e+000	-5.0120471338e-001
 3.2025131332e+000	 2.5063182421e+000	-5.1759225976e-001
 3.1747271132e+000	 2.5414228004e+000	-5.3581707908e-001
 3.1465390616e+000	 2.5762404145e+000	-5.5563481482e-001
 3.1179534273e+000	 2.6107642237e+000	-5.7656115509e-001
 3.0889748143e+000	 2.6449874597e+000	-5.9784662735e-001
 3.0596079790e+000	 2.6789034510e+000	-6.1820926681e-001
 3.0298578282e+000	 2.7125056268e+000	-6.3346391815e-001
 3.3312565862e+000	 2.3786677599e+000	-4.7012738577e-001
 3.3049486049e+000	 2.4150870717e+000	-4.7632793228e-001
 3.2782196485e+000	 2.4512460186e+000	-4.8468149166e-001
 3.2510735493e+000	 2.4871373686e+000	-4.9555016023e-001
 3.2235143038e+000	 2.5227539645e+000	-5.0913390812e-001
 3.1955460709e+000	 2.5580887285e+000	-5.2544112889e-001
 3.1671731701e+000	 2.5931346666e+000	-5.4425992608e-001
 3.1384000794e+000	 2.6278848731e+000	-5.6513038997e-001
 3.1092314328e+000	 2.6623325355e+000	-5.8731811488e-001
 3.0796720181e+000	 2.6964709382e+000	-6.0836719386e-001
 3.0497267744e+000	 2.7302934674e+000	-6.2443046133e-001
 3.3529596968e+000	 2.3941647618e+000	-4.7760603572e-001
 3.3264803193e+000	 2.4308213452e+000	-4.8191475826e-001
 3.2995772240e+000	 2.4672158673e+000	-4.8505810147e-001
 3.2722542682e+000	 2.5033410491e+000	-4.9165479710e-001
 3.2445154743e+000	 2.5391896869e+000	-5.0193876478e-001
 3.2163650286e+000	 2.5747546566e+000	-5.1594679551e-001
 3.1878072786e+000	 2.6100289187e+000	-5.3348846155e-001
 3.1588467314e+000	 2.6450055226e+000	-5.5411704882e-001
 3.1294880513e+000	 2.6796776112e+000	-5.7684921014e-001
 3.0997360573e+000	 2.7140384253e+000	-5.9787131765e-001
 3.0695957205e+000	 2.7480813081e+000	-6.1475416919e-001
 3.3746628075e+000	 2.4096617637e+000	-4.7906062552e-001
 3.3480120336e+000	 2.4465556186e+000	-4.8857714036e-001
 3.3209347994e+000	 2.4831857160e+000	-4.8820019624e-001
 3.2934349870e+000	 2.5195447297e+000	-4.8987291602e-001
 3.2655166449e+000	 2.5556254093e+000	-4.9633316436e-001
 3.2371839863e+000	 2.5914205848e+000	-5.0763587888e-001
 3.2084413871e+000	 2.6269231708e+000	-5.2360165023e-001
 3.1792933835e+000	 2.6621261720e+000	-5.4378628280e-001
 3.1497446699e+000	 2.6970226869e+000	-5.6609976859e-001
 3.1198000965e+000	 2.7316059124e+000	-5.8701774908e-001
 3.0894646667e+000	 2.7658691487e+000	-6.0472296527e-001
 3.3963659182e+000	 2.4251587656e+000	-4.7443385020e-001
 3.3695437480e+000	 2.4622898920e+000	-4.8890286238e-001
 3.3422923749e+000	 2.4991555647e+000	-4.9349818930e-001
 3.3146157058e+000	 2.5357484103e+000	-4.9052785952e-001
 3.2865178154e+000	 2.5720611317e+000	-4.9261132396e-001
 3.2580029441e+000	 2.6080865129e+000	-5.0077691018e-001
 3.2290754956e+000	 2.6438174230e+000	-5.1484631663e-001
 3.1997400355e+000	 2.6792468215e+000	-5.3415385036e-001
 3.1700012884e+000	 2.7143677626e+000	-5.5530861426e-001
 3.1398641357e+000	 2.7491733996e+000	-5.7606185877e-001
 3.1093336128e+000	 2.7836569894e+000	-5.9458428623e-001
 3.4180690289e+000	 2.4406557675e+000	-4.6372343929e-001
 3.3910754624e+000	 2.4780241655e+000	-4.8234683331e-001
 3.3636499503e+000	 2.5151254134e+000	-4.9306599111e-001
 3.3357964246e+000	 2.5519520908e+000	-4.9383400811e-001
 3.3075189860e+000	 2.5884968541e+000	-4.9103415447e-001
 3.2788219018e+000	 2.6247524410e+000	-4.9560392828e-001
 3.2497096041e+000	 2.6607116751e+000	-5.0743362521e-001
 3.2201866875e+000	 2.6963674709e+000	-5.2488402077e-001
 3.1902579069e+000	 2.7317128383e+000	-5.4470387004e-001
 3.1599281749e+000	 2.7667408867e+000	-5.6521949910e-001
 3.1292025590e+000	 2.8014448300e+000	-5.8454633667e-001
 2.9305130975e+000	 2.6235664236e+000	-6.5943668315e-001
 2.9013769518e+000	 2.6557522478e+000	-6.6233044802e-001
 2.8718800862e+000	 2.6876222428e+000	-6.6857355626e-001
 2.8420276662e+000	 2.7191703754e+000	-6.7579987156e-001
 2.8118249913e+000	 2.7503907261e+000	-6.8406378756e-001
 2.7812774920e+000	 2.7812774920e+000	-6.9349820574e-001
 2.7503907261e+000	 2.8118249913e+000	-7.0409965679e-001
 2.7191703754e+000	 2.8420276662e+000	-7.1574585345e-001
 2.6876222428e+000	 2.8718800862e+000	-7.2821353074e-001
 2.6557522478e+000	 2.9013769518e+000	-7.4045129132e-001
 2.6235664236e+000	 2.9305130975e+000	-7.4318810999e-001
 2.9503820436e+000	 2.6413542642e+000	-6.5710871483e-001
 2.9210483543e+000	 2.6737583091e+000	-6.6303417402e-001
 2.8913514992e+000	 2.7058443834e+000	-6.7024352979e-001
 2.8612966790e+000	 2.7376064131e+000	-6.7787783929e-001
 2.8308892294e+000	 2.7690384384e+000	-6.8609013384e-001
 2.8001346173e+000	 2.8001346173e+000	-6.9487748374e-001
 2.7690384384e+000	 2.8308892294e+000	-7.0409914429e-001
 2.7376064131e+000	 2.8612966790e+000	-7.1349515333e-001
 2.7058443834e+000	 2.8913514992e+000	-7.2270520923e-001
 2.6737583091e+000	 2.9210483543e+000	-7.3128765861e-001
 2.6413542642e+000	 2.9503820436e+000	-7.3498851878e-001
 2.9702509898e+000	 2.6591421048e+000	-6.5329730205e-001
 2.9407197567e+000	 2.6917643704e+000	-6.6130431076e-001
 2.9108229122e+000	 2.7240665239e+000	-6.6934225891e-001
 2.8805656919e+000	 2.7560424507e+000	-6.7751658491e-001
 2.8499534675e+000	 2.7876861507e+000	-6.8585827685e-001
 2.8189917427e+000	 2.8189917427e+000	-6.9423941391e-001
 2.7876861507e+000	 2.8499534675e+000	-7.0239237281e-001
 2.7560424507e+000	 2.8805656919e+000	-7.0992948683e-001
 2.7240665239e+000	 2.9108229122e+000	-7.1636297812e-001
 2.6917643704e+000	 2.9407197567e+000	-7.2112498466e-001
 2.6591421048e+000	 2.9702509898e+000	-7.2326244947e-001
 2.9901199359e+000	 2.6769299455e+000	-6.4824063915e-001
 2.9603911591e+000	 2.7097704316e+000	-6.5741051716e-001
 2.9302943251e+000	 2.7422886645e+000	-6.6636056062e-001
 2.8998347048e+000	 2.7744784884e+000	-6.7519265985e-001
 2.8690177055e+000	 2.8063338631e+000	-6.8382675201e-001
 2.8378488680e+000	 2.8378488680e+000	-6.9202046373e-001
 2.8063338631e+000	 2.8690177055e+000	-6.9938939575e-001
 2.7744784884e+000	 2.8998347048e+000	-7.0542786168e-001
 2.7422886645e+000	 2.9302943251e+000	-7.0952989257e-001
 2.7097704316e+000	 2.9603911591e+000	-7.1101032089e-001
 2.6769299455e+000	 2.9901199359e+000	-7.0912576032e-001
 3.0099888821e+000	 2.6947177861e+000	-6.4152487026e-001
 2.9800625615e+000	 2.7277764929e+000	-6.5180769242e-001
 2.9497657381e+000	 2.7605108051e+000	-6.6174270623e-001
 2.9191037177e+000	 2.7929145260e+000	-6.7133637478e-001
 2.8880819436e+000	 2.8249815754e+000	-6.8040827084e-001
 2.8567059933e+000	 2.8567059933e+000	-6.8861180709e-001
 2.8249815754e+000	 2.8880819436e+000	-6.9545561854e-001
 2.7929145260e+000	 2.9191037177e+000	-7.0032540034e-001
 2.7605108051e+000	 2.9497657381e+000	-7.0250600418e-001
 2.7277764929e+000	 2.9800625615e+000	-7.0120359823e-001
 2.6947177861e+000	 3.0099888821e+000	-6.9556769878e-001
 3.0298578282e+000	 2.7125056268e+000	-6.3346391815e-001
 2.9997339639e+000	 2.7457825542e+000	-6.4490530512e-001
 2.9692371511e+000	 2.7787329457e+000	-6.5588775872e-001
 2.9383727306e+000	 2.8113505636e+000	-6.6633315936e-001
 2.9071461816e+000	 2.8436292877e+000	-6.7597109748e-001
 2.8755631186e+000	 2.8755631186e+000	-6.8436071198e-001
 2.8436292877e+000	 2.9071461816e+000	-6.9091319132e-001
 2.8113505636e+000	 2.9383727306e+000	-6.9491473136e-001
 2.7787329457e+000	 2.9692371511e+000	-6.9554974446e-001
 2.7457825542e+000	 2.9997339639e+000	-6.9192411564e-001
 2.7125056268e+000	 3.0298578282e+000	-6.8308830590e-001
 3.0497267744e+000	 2.7302934674e+000	-6.2443046133e-001
 3.0194053663e+000	 2.7637886155e+000	-6.3706869797e-001
 2.9887085641e+000	 2.7969550862e+000	-6.4915090509e-001
 2.9576417435e+000	 2.8297866013e+000	-6.6052491703e-001
 2.9262104197e+000	 2.8622770001e+000	-6.7084042064e-001
 2.8944202439e+000	 2.8944202439e+000	-6.7957192389e-001
 2.8622770001e+000	 2.9262104197e+000	-6.8604239803e-001
 2.8297866013e+000	 2.9576417435e+000	-6.8944737811e-001
 2.7969550862e+000	 2.9887085641e+000	-6.8887930677e-001
 2.7637886155e+000	 3.0194053663e+000	-6.8335190865e-001
 2.7302934674e+000	 3.0497267744e+000	-6.7182438608e-001
 3.0695957205e+000	 2.7480813081e+000	-6.1475416919e-001
 3.0390767687e+000	 2.7817946767e+000	-6.2862038776e-001
 3.0081799771e+000	 2.8151772268e+000	-6.4184478373e-001
 2.9769107564e+000	 2.8482226389e+000	-6.5421137502e-001
 2.9452746578e+000	 2.8809247124e+000	-6.6529972104e-001
 2.9132773692e+000	 2.9132773692e+000	-6.7450904521e-001
 2.8809247124e+000	 2.9452746578e+000	-6.8108304217e-001
 2.8482226389e+000	 2.9769107564e+000	-6.8413514481e-001
 2.8151772268e+000	 3.0081799771e+000	-6.8267402666e-001
 2.7817946767e+000	 3.0390767687e+000	-6.7562911746e-001
 2.7480813081e+000	 3.0695957205e+000	-6.6187591371e-001
 3.0894646667e+000	 2.7658691487e+000	-6.0472296527e-001
 3.0587481711e+000	 2.7998007380e+000	-6.1984136057e-001
 3.0276513901e+000	 2.8333993674e+000	-6.3424080723e-001
 2.9961797693e+000	 2.8666586766e+000	-6.4765142985e-001
 2.9643388958e+000	 2.8995724247e+000	-6.5959213459e-001
 2.9321344945e+000	 2.9321344945e+000	-6.6939591089e-001
 2.8995724247e+000	 2.9643388958e+000	-6.7623582923e-001
 2.8666586766e+000	 2.9961797693e+000	-6.7915150020e-001
 2.8333993674e+000	 3.0276513901e+000	-6.7707576060e-001
 2.7998007380e+000	 3.0587481711e+000	-6.6886135474e-001
 2.7658691487e+000	 3.0894646667e+000	-6.5330738352e-001
 3.1093336128e+000	 2.7836569894e+000	-5.9458428623e-001
 3.0784195736e+000	 2.8178067993e+000	-6.1097236262e-001
 3.0471228031e+000	 2.8516215080e+000	-6.2657048066e-001
 3.0154487822e+000	 2.8850947142e+000	-6.4106448847e-001
 2.9834031339e+000	 2.9182201371e+000	-6.5392181150e-001
 2.9509916199e+000	 2.9509916199e+000	-6.6441796035e-001
 2.9182201371e+000	 2.9834031339e+000	-6.7166374618e-001
 2.8850947142e+000	 3.0154487822e+000	-6.7463295886e-001
 2.8516215080e+000	 3.0471228031e+000	-6.7219026341e-001
 2.8178067993e+000	 3.0784195736e+000	-6.6311907307e-001
 2.7836569894e+000	 3.1093336128e+000	-6.4614916184e-001
 3.1292025590e+000	 2.8014448300e+000	-5.8454633667e-001
 3.0980909760e+000	 2.8358128606e+000	-6.0221518685e-001
 3.0665942160e+000	 2.8698436485e+000	-6.1902671564e-001
 3.0347177951e+000	 2.9035307518e+000	-6.3463180528e-001
 3.0024673720e+000	 2.9368678494e+000	-6.4845527151e-001
 2.9698487452e+000	 2.9698487452e+000	-6.5972360595e-001
 2.9368678494e+000	 3.0024673720e+000	-6.6749343789e-001
 2.9035307518e+000	 3.0347177951e+000	-6.7068046020e-001
 2.8698436485e+000	 3.0665942160e+000	-6.6808856421e-001
 2.8358128606e+000	 3.0980909760e+000	-6.5843893196e-001
 2.8014448300e+000	 3.1292025590e+000	-6.4039883863e-001
 2.6235664236e+000	 2.9305130975e+000	-7.4318810999e-001
 2.5910660154e+000	 2.9592877831e+000	-7.4224436266e-001
 2.5582620812e+000	 2.9876917216e+000	-7.4439134908e-001
 2.5251609764e+000	 3.0157201671e+000	-7.4758964388e-001
 2.4917691538e+000	 3.0433685191e+000	-7.4993692369e-001
 2.4580931598e+000	 3.0706323245e+000	-7.4966991115e-001
 2.4241396301e+000	 3.0975072805e+000	-7.4516559534e-001
 2.3899152852e+000	 3.1239892364e+000	-7.3494175285e-001
 2.3554269264e+000	 3.1500741959e+000	-7.1765679963e-001
 2.3206814311e+000	 3.1757583185e+000	-6.9210900912e-001
 2.2856857484e+000	 3.2010379221e+000	-6.5723513740e-001
 2.6413542642e+000	 2.9503820436e+000	-7.3498851878e-001
 2.6086335025e+000	 2.9793518222e+000	-7.3421537824e-001
 2.5756071569e+000	 3.0079483401e+000	-7.3616729983e-001
 2.5422816258e+000	 3.0361668192e+000	-7.3901159170e-001
 2.5086634059e+000	 3.0640026276e+000	-7.4104627077e-001
 2.4747590879e+000	 3.0914512822e+000	-7.4070153785e-001
 2.4405753525e+000	 3.1185084511e+000	-7.3654051571e-001
 2.4061189658e+000	 3.1451699552e+000	-7.2725927635e-001
 2.3713967751e+000	 3.1714317713e+000	-7.1168619035e-001
 2.3364157045e+000	 3.1972900329e+000	-6.8878063646e-001
 2.3011827503e+000	 3.2227410328e+000	-6.5763111527e-001
 2.6591421048e+000	 2.9702509898e+000	-7.2326244947e-001
 2.6262009896e+000	 2.9994158614e+000	-7.2327126083e-001
 2.5929522326e+000	 3.0282049587e+000	-7.2556847617e-001
 2.5594022753e+000	 3.0566134712e+000	-7.2851117097e-001
 2.5255576581e+000	 3.0846367361e+000	-7.3058158873e-001
 2.4914250160e+000	 3.1122702400e+000	-7.3038816380e-001
 2.4570110749e+000	 3.1395096216e+000	-7.2666579033e-001
 2.4223226463e+000	 3.1663506741e+000	-7.1827536629e-001
 2.3873666238e+000	 3.1927893468e+000	-7.0420264772e-001
 2.3521499780e+000	 3.2188217473e+000	-6.8355645445e-001
 2.3166797522e+000	 3.2444441434e+000	-6.5556627394e-001
 2.6769299455e+000	 2.9901199359e+000	-7.0912576032e-001
 2.6437684768e+000	 3.0194799006e+000	-7.0990451383e-001
 2.6102973083e+000	 3.0484615772e+000	-7.1305490848e-001
 2.5765229248e+000	 3.0770601233e+000	-7.1652696087e-001
 2.5424519102e+000	 3.1052708446e+000	-7.1897144314e-001
 2.5080909442e+000	 3.1330891977e+000	-7.1916019106e-001
 2.4734467973e+000	 3.1605107922e+000	-7.1598591664e-001
 2.4385263269e+000	 3.1875313929e+000	-7.0846127852e-001
 2.4033364725e+000	 3.2141469222e+000	-6.9571724785e-001
 2.3678842514e+000	 3.2403534617e+000	-6.7700081386e-001
 2.3321767542e+000	 3.2661472541e+000	-6.5167207901e-001
 2.6947177861e+000	 3.0099888821e+000	-6.9556769878e-001
 2.6613359639e+000	 3.0395439398e+000	-6.9456378977e-001
 2.6276423840e+000	 3.0687181957e+000	-6.9904307189e-001
 2.5936435742e+000	 3.0975067753e+000	-7.0345396311e-001
 2.5593461623e+000	 3.1259049531e+000	-7.0660047511e-001
 2.5247568723e+000	 3.1539081554e+000	-7.0740341924e-001
 2.4898825197e+000	 3.1815119627e+000	-7.0489977490e-001
 2.4547300074e+000	 3.2087121117e+000	-6.9824129519e-001
 2.4193063212e+000	 3.2355044976e+000	-6.8669239032e-001
 2.3836185248e+000	 3.2618851761e+000	-6.6962733611e-001
 2.3476737561e+000	 3.2878503648e+000	-6.4652686028e-001
 2.7125056268e+000	 3.0298578282e+000	-6.8308830590e-001
 2.6789034510e+000	 3.0596079790e+000	-6.7840180888e-001
 2.6449874597e+000	 3.0889748143e+000	-6.8390747963e-001
 2.6107642237e+000	 3.1179534273e+000	-6.8964516867e-001
 2.5762404145e+000	 3.1465390616e+000	-6.9381094882e-001
 2.5414228004e+000	 3.1747271132e+000	-6.9546058154e-001
 2.5063182421e+000	 3.2025131332e+000	-6.9376216085e-001
 2.4709336880e+000	 3.2298928305e+000	-6.8799426237e-001
 2.4352761699e+000	 3.2568620731e+000	-6.7754334952e-001
 2.3993527983e+000	 3.2834168905e+000	-6.6190048686e-001
 2.3631707580e+000	 3.3095534755e+000	-6.4065741707e-001
 2.7302934674e+000	 3.0497267744e+000	-6.7182438608e-001
 2.6964709382e+000	 3.0796720181e+000	-6.6385836832e-001
 2.6623325355e+000	 3.1092314328e+000	-6.6798227976e-001
 2.6278848731e+000	 3.1384000794e+000	-6.7541312865e-001
 2.5931346666e+000	 3.1671731701e+000	-6.8090430363e-001
 2.5580887285e+000	 3.1955460709e+000	-6.8363288546e-001
 2.5227539645e+000	 3.2235143038e+000	-6.8288532257e-001
 2.4871373686e+000	 3.2510735493e+000	-6.7805513105e-001
 2.4512460186e+000	 3.2782196485e+000	-6.6863982780e-001
 2.4150870717e+000	 3.3049486049e+000	-6.5423715019e-001
 2.3786677599e+000	 3.3312565862e+000	-6.3454062188e-001
 2.7480813081e+000	 3.0695957205e+000	-6.6187591371e-001
 2.7140384253e+000	 3.0997360573e+000	-6.5114175099e-001
 2.6796776112e+000	 3.1294880513e+000	-6.5231645190e-001
 2.6450055226e+000	 3.1588467314e+000	-6.6103152921e-001
 2.6100289187e+000	 3.1878072786e+000	-6.6814271049e-001
 2.5747546566e+000	 3.2163650286e+000	-6.7218155767e-001
 2.5391896869e+000	 3.2445154743e+000	-6.7254050123e-001
 2.5033410491e+000	 3.2722542682e+000	-6.6871650119e-001
 2.4672158673e+000	 3.2995772240e+000	-6.6030751084e-001
 2.4308213452e+000	 3.3264803193e+000	-6.4700820307e-001
 2.3941647618e+000	 3.3529596968e+000	-6.2907519531e-001
 2.7658691487e+000	 3.0894646667e+000	-6.5330738352e-001
 2.7316059124e+000	 3.1198000965e+000	-6.4027733000e-001
 2.6970226869e+000	 3.1497446699e+000	-6.3888838832e-001
 2.6621261720e+000	 3.1792933835e+000	-6.4673677025e-001
 2.6269231708e+000	 3.2084413871e+000	-6.5575063248e-001
 2.5914205848e+000	 3.2371839863e+000	-6.6132939309e-001
 2.5556254093e+000	 3.2655166449e+000	-6.6295947550e-001
 2.5195447297e+000	 3.2934349870e+000	-6.6023016882e-001
 2.4831857160e+000	 3.3209347994e+000	-6.5282962477e-001
 2.4465556186e+000	 3.3480120336e+000	-6.4085021075e-001
 2.4096617637e+000	 3.3746628075e+000	-6.2547691404e-001
 2.7836569894e+000	 3.1093336128e+000	-6.4614916184e-001
 2.7491733996e+000	 3.1398641357e+000	-6.3125729174e-001
 2.7143677626e+000	 3.1700012884e+000	-6.2774915854e-001
 2.6792468215e+000	 3.1997400355e+000	-6.3334960086e-001
 2.6438174230e+000	 3.2290754956e+000	-6.4391638934e-001
 2.6080865129e+000	 3.2580029441e+000	-6.5126230785e-001
 2.5720611317e+000	 3.2865178154e+000	-6.5433610965e-001
 2.5357484103e+000	 3.3146157058e+000	-6.5280867598e-001
 2.4991555647e+000	 3.3422923749e+000	-6.4658077322e-001
 2.4622898920e+000	 3.3695437480e+000	-6.3711408387e-001
 2.4251587656e+000	 3.3963659182e+000	-6.2434196675e-001
 2.8014448300e+000	 3.1292025590e+000	-6.4039883863e-001
 2.7667408867e+000	 3.1599281749e+000	-6.2404197246e-001
 2.7317128383e+000	 3.1902579069e+000	-6.1883050383e-001
 2.6963674709e+000	 3.2201866875e+000	-6.2251641527e-001
 2.6607116751e+000	 3.2497096041e+000	-6.3279372571e-001
 2.6247524410e+000	 3.2788219018e+000	-6.4213089599e-001
 2.5884968541e+000	 3.3075189860e+000	-6.4682790492e-001
 2.5519520908e+000	 3.3357964246e+000	-6.4663822682e-001
 2.5151254134e+000	 3.3636499503e+000	-6.4294755466e-001
 2.4780241655e+000	 3.3910754624e+000	-6.3633646762e-001
 2.4406557675e+000	 3.4180690289e+000	-6.2619727510e-001
 2.2856857484e+000	 3.2010379221e+000	-6.5723513740e-001
 2.2504468941e+000	 3.2259094826e+000	-6.1839618509e-001
 2.2149719435e+000	 3.2503696335e+000	-5.8392828199e-001
 2.1792680296e+000	 3.2744151693e+000	-5.5728415853e-001
 2.1433423388e+000	 3.2980430479e+000	-5.4184337388e-001
 2.1072021068e+000	 3.3212503911e+000	-5.4090338423e-001
 2.0708546138e+000	 3.3440344860e+000	-5.5762694270e-001
 2.0343071798e+000	 3.3663927853e+000	-5.9470415177e-001
 1.9975671597e+000	 3.3883229079e+000	-6.5463056780e-001
 1.9606419394e+000	 3.4098226392e+000	-7.0000451014e-001
 1.9235389302e+000	 3.4308899314e+000	-7.0512664554e-001
 2.3011827503e+000	 3.2227410328e+000	-6.5763111527e-001
 2.2657049758e+000	 3.2477812230e+000	-6.2255881996e-001
 2.2299895042e+000	 3.2724072143e+000	-5.9055799325e-001
 2.1940435169e+000	 3.2966157794e+000	-5.6478264019e-001
 2.1578742491e+000	 3.3204038555e+000	-5.4832693089e-001
 2.1214889855e+000	 3.3437685451e+000	-5.4420299674e-001
 2.0848950557e+000	 3.3667071167e+000	-5.5512343265e-001
 2.0480998292e+000	 3.3892170058e+000	-5.8359240484e-001
 2.0111107110e+000	 3.4112958151e+000	-6.3208972590e-001
 1.9739351368e+000	 3.4329413150e+000	-6.8578643049e-001
 1.9365805684e+000	 3.4541514439e+000	-6.9912555372e-001
 2.3166797522e+000	 3.2444441434e+000	-6.5556627394e-001
 2.2809630575e+000	 3.2696529635e+000	-6.2365713623e-001
 2.2450070649e+000	 3.2944447951e+000	-5.9365800360e-001
 2.2088190042e+000	 3.3188163895e+000	-5.6846218065e-001
 2.1724061594e+000	 3.3427646632e+000	-5.5092683845e-001
 2.1357758642e+000	 3.3662866990e+000	-5.4381125660e-001
 2.0989354976e+000	 3.3893797473e+000	-5.4948407586e-001
 2.0618924786e+000	 3.4120412262e+000	-5.7025139570e-001
 2.0246542622e+000	 3.4342687223e+000	-6.0841105815e-001
 1.9872283342e+000	 3.4560599909e+000	-6.6221962852e-001
 1.9496222066e+000	 3.4774129565e+000	-6.8493206794e-001
 2.3321767542e+000	 3.2661472541e+000	-6.5167207901e-001
 2.2962211391e+000	 3.2915247039e+000	-6.2238604368e-001
 2.2600246256e+000	 3.3164823760e+000	-5.9396484823e-001
 2.2235944915e+000	 3.3410169996e+000	-5.6910183152e-001
 2.1869380697e+000	 3.3651254708e+000	-5.5062186994e-001
 2.1500627430e+000	 3.3888048530e+000	-5.4079899559e-001
 2.1129759395e+000	 3.4120523780e+000	-5.4176675200e-001
 2.0756851281e+000	 3.4348654467e+000	-5.5566519122e-001
 2.0381978135e+000	 3.4572416294e+000	-5.8463876429e-001
 2.0005215316e+000	 3.4791786668e+000	-6.3083348577e-001
 1.9626638447e+000	 3.5006744691e+000	-6.6387591909e-001
 2.3476737561e+000	 3.2878503648e+000	-6.4652686028e-001
 2.3114792208e+000	 3.3133964443e+000	-6.1938502601e-001
 2.2750421863e+000	 3.3385199568e+000	-5.9217539354e-001
 2.2383699789e+000	 3.3632176097e+000	-5.6778482284e-001
 2.2014699800e+000	 3.3874862785e+000	-5.4846898506e-001
 2.1643496217e+000	 3.4113230070e+000	-5.3619606599e-001
 2.1270163813e+000	 3.4347250087e+000	-5.3295280568e-001
 2.0894777775e+000	 3.4576896671e+000	-5.4074323236e-001
 2.0517413647e+000	 3.4802145366e+000	-5.6158657528e-001
 2.0138147290e+000	 3.5022973426e+000	-5.9751439398e-001
 1.9757054829e+000	 3.5239359817e+000	-6.3724570363e-001
 2.3631707580e+000	 3.3095534755e+000	-6.4065741707e-001
 2.3267373025e+000	 3.3352681848e+000	-6.1524319259e-001
 2.2900597470e+000	 3.3605575376e+000	-5.8942031065e-001
 2.2531454662e+000	 3.3854182198e+000	-5.6554956507e-001
 2.2160018903e+000	 3.4098470862e+000	-5.4544690258e-001
 2.1786365004e+000	 3.4338411610e+000	-5.3095611308e-001
 2.1410568232e+000	 3.4573976394e+000	-5.2394850891e-001
 2.1032704269e+000	 3.4805138876e+000	-5.2632169371e-001
 2.0652849160e+000	 3.5031874438e+000	-5.3999745191e-001
 2.0271079264e+000	 3.5254160185e+000	-5.6691879914e-001
 1.9887471210e+000	 3.5471974943e+000	-6.0628474170e-001
 2.3786677599e+000	 3.3312565862e+000	-6.3454062188e-001
 2.3419953841e+000	 3.3571399252e+000	-6.1104589942e-001
 2.3050773076e+000	 3.3825951184e+000	-5.8673763116e-001
 2.2679209535e+000	 3.4076188299e+000	-5.6330309237e-001
 2.2305338007e+000	 3.4322078938e+000	-5.4245924346e-001
 2.1929233791e+000	 3.4563593150e+000	-5.2595811301e-001
 2.1550972651e+000	 3.4800702700e+000	-5.1558652316e-001
 2.1170630764e+000	 3.5033381080e+000	-5.1316484579e-001
 2.0788284673e+000	 3.5261603510e+000	-5.2054482311e-001
 2.0404011238e+000	 3.5485346943e+000	-5.3960649489e-001
 2.0017887592e+000	 3.5704590069e+000	-5.7225428398e-001
 2.3941647618e+000	 3.3529596968e+000	-6.2907519531e-001
 2.3572534658e+000	 3.3790116656e+000	-6.0788049931e-001
 2.3200948683e+000	 3.4046326992e+000	-5.8494452393e-001
 2.2826964408e+000	 3.4298194401e+000	-5.6187913888e-001
 2.2450657110e+000	 3.4545687015e+000	-5.4033611701e-001
 2.2072102578e+000	 3.4788774690e+000	-5.2200790801e-001
 2.1691377070e+000	 3.5027429007e+000	-5.0862736086e-001
 2.1308557258e+000	 3.5261623285e+000	-5.0196642006e-001
 2.0923720185e+000	 3.5491332582e+000	-5.0383383092e-001
 2.0536943212e+000	 3.5716533702e+000	-5.1607189947e-001
 2.0148303973e+000	 3.5937205195e+000	-5.4055236122e-001
 2.4096617637e+000	 3.3746628075e+000	-6.2547691404e-001
 2.3725115475e+000	 3.4008834061e+000	-6.0645831238e-001
 2.3351124290e+000	 3.4266702800e+000	-5.8478725848e-001
 2.2974719282e+000	 3.4520200502e+000	-5.6203974946e-001
 2.2595976213e+000	 3.4769295092e+000	-5.3983570337e-001
 2.2214971365e+000	 3.5013956229e+000	-5.1983973902e-001
 2.1831781488e+000	 3.5254155314e+000	-5.0376084668e-001
 2.1446483752e+000	 3.5489865489e+000	-4.9335097638e-001
 2.1059155698e+000	 3.5721061654e+000	-4.9040258181e-001
 2.0669875186e+000	 3.5947720461e+000	-4.9674516786e-001
 2.0278720355e+000	 3.6169820321e+000	-5.1424089968e-001
 2.4251587656e+000	 3.3963659182e+000	-6.2434196675e-001
 2.3877696291e+000	 3.4227551465e+000	-6.0742268355e-001
 2.3501299897e+000	 3.4487078609e+000	-5.8694281934e-001
 2.3122474155e+000	 3.4742206603e+000	-5.6447688634e-001
 2.2741295316e+000	 3.4992903168e+000	-5.4164583220e-001
 2.2357840152e+000	 3.5239137769e+000	-5.2011777604e-001
 2.1972185907e+000	 3.5480881620e+000	-5.0160757823e-001
 2.1584410247e+000	 3.5718107694e+000	-4.8787527297e-001
 2.1194591210e+000	 3.5950790726e+000	-4.8072340394e-001
 2.0802807161e+000	 3.6178907219e+000	-4.8199331440e-001
 2.0409136736e+000	 3.6402435447e+000	-4.9356045282e-001
 2.4406557675e+000	 3.4180690289e+000	-6.2619727510e-001
 2.4030277108e+000	 3.4446268869e+000	-6.1135058190e-001
 2.3651475504e+000	 3.4707454417e+000	-5.9202051654e-001
 2.3270229028e+000	 3.4964212704e+000	-5.6981403167e-001
 2.2886614419e+000	 3.5216511245e+000	-5.4638555792e-001
 2.2500708939e+000	 3.5464319309e+000	-5.2343764600e-001
 2.2112590326e+000	 3.5707607927e+000	-5.0272038653e-001
 2.1722336741e+000	 3.5946349899e+000	-4.8602963858e-001
 2.1330026723e+000	 3.6180519798e+000	-4.7520411023e-001
 2.0935739135e+000	 3.6410093978e+000	-4.7212134538e-001
 2.0539553118e+000	 3.6635050572e+000	-4.7869268190e-001
 1.9235389302e+000	 3.4308899314e+000	-7.0512664554e-001
 1.8862711687e+000	 3.4515198418e+000	-6.8026716787e-001
 1.8488405507e+000	 3.4717138517e+000	-6.3512500735e-001
 1.8112545366e+000	 3.4914704169e+000	-5.7534224150e-001
 1.7735205942e+000	 3.5107881589e+000	-5.0648057266e-001
 1.7356461945e+000	 3.5296658649e+000	-4.3398787143e-001
 1.6976388070e+000	 3.5481024868e+000	-3.6316794435e-001
 1.6595058954e+000	 3.5660971407e+000	-2.9915345194e-001
 1.6212549131e+000	 3.5836491053e+000	-2.4688188566e-001
 1.5828932993e+000	 3.6007578216e+000	-2.1107449716e-001
 1.5444284742e+000	 3.6174228910e+000	-1.9621805947e-001
 1.9365805684e+000	 3.4541514439e+000	-6.9912555372e-001
 1.8990601306e+000	 3.4749212257e+000	-6.7958141819e-001
 1.8613757321e+000	 3.4952521515e+000	-6.3761017443e-001
 1.8235348839e+000	 3.5151426665e+000	-5.7935160886e-001
 1.7855451046e+000	 3.5345913833e+000	-5.1083423155e-001
 1.7474139156e+000	 3.5535970806e+000	-4.3794128384e-001
 1.7091488371e+000	 3.5721587033e+000	-3.6638013762e-001
 1.6707573835e+000	 3.5902753613e+000	-3.0165500375e-001
 1.6322470587e+000	 3.6079463286e+000	-2.4904284853e-001
 1.5936253522e+000	 3.6251710424e+000	-2.1357240173e-001
 1.5548997347e+000	 3.6419491014e+000	-2.0000612555e-001
 1.9496222066e+000	 3.4774129565e+000	-6.8493206794e-001
 1.9118490925e+000	 3.4983226095e+000	-6.7206608817e-001
 1.8739109136e+000	 3.5187904512e+000	-6.3460046557e-001
 1.8358152313e+000	 3.5388149162e+000	-5.7913112955e-001
 1.7975696150e+000	 3.5583946077e+000	-5.1211277329e-001
 1.7591816367e+000	 3.5775282962e+000	-4.3982441107e-001
 1.7206588672e+000	 3.5962149197e+000	-3.6833849542e-001
 1.6820088716e+000	 3.6144535818e+000	-3.0349350171e-001
 1.6432392043e+000	 3.6322435519e+000	-2.5086986964e-001
 1.6043574052e+000	 3.6495842632e+000	-2.1576917428e-001
 1.5653709953e+000	 3.6664753117e+000	-2.0319638542e-001
 1.9626638447e+000	 3.5006744691e+000	-6.6387591909e-001
 1.9246380543e+000	 3.5217239934e+000	-6.5885799162e-001
 1.8864460950e+000	 3.5423287509e+000	-6.2706472400e-001
 1.8480955787e+000	 3.5624871659e+000	-5.7550710071e-001
 1.8095941253e+000	 3.5821978321e+000	-5.1102580114e-001
 1.7709493578e+000	 3.6014595119e+000	-4.4025639417e-001
 1.7321688974e+000	 3.6202711361e+000	-3.6959826121e-001
 1.6932603597e+000	 3.6386318024e+000	-3.0518714525e-001
 1.6542313498e+000	 3.6565407752e+000	-2.5287120485e-001
 1.6150894581e+000	 3.6739974839e+000	-2.1819043494e-001
 1.5758422558e+000	 3.6910015221e+000	-2.0635930153e-001
 1.9757054829e+000	 3.5239359817e+000	-6.3724570363e-001
 1.9374270162e+000	 3.5451253772e+000	-6.4106004469e-001
 1.8989812764e+000	 3.5658670506e+000	-6.1594474362e-001
 1.8603759261e+000	 3.5861594156e+000	-5.6928519621e-001
 1.8216186357e+000	 3.6060010565e+000	-5.0826826501e-001
 1.7827170788e+000	 3.6253907276e+000	-4.3984720087e-001
 1.7436789275e+000	 3.6443273525e+000	-3.7071046202e-001
 1.7045118478e+000	 3.6628100230e+000	-3.0725431802e-001
 1.6652234954e+000	 3.6808379985e+000	-2.5555910630e-001
 1.6258215111e+000	 3.6984107047e+000	-2.2136899155e-001
 1.5863135164e+000	 3.7155277324e+000	-2.1007506342e-001
 1.9887471210e+000	 3.5471974943e+000	-6.0628474170e-001
 1.9502159781e+000	 3.5685267611e+000	-6.1973705518e-001
 1.9115164578e+000	 3.5894053503e+000	-6.0215101065e-001
 1.8726562735e+000	 3.6098316652e+000	-5.6124618184e-001
 1.8336431461e+000	 3.6298042809e+000	-5.0451617190e-001
 1.7944847999e+000	 3.6493219433e+000	-4.3919335342e-001
 1.7551889576e+000	 3.6683835689e+000	-3.7221767612e-001
 1.7157633359e+000	 3.6869882436e+000	-3.1020941837e-001
 1.6762156410e+000	 3.7051352218e+000	-2.5944573859e-001
 1.6365535640e+000	 3.7228239255e+000	-2.2584086486e-001
 1.5967847769e+000	 3.7400539428e+000	-2.1492974555e-001
 2.0017887592e+000	 3.5704590069e+000	-5.7225428398e-001
 1.9630049400e+000	 3.5919281449e+000	-5.9591153618e-001
 1.9240516393e+000	 3.6129436500e+000	-5.8655847483e-001
 1.8849366209e+000	 3.6335039149e+000	-5.5214166483e-001
 1.8456676565e+000	 3.6536075053e+000	-5.0042233467e-001
 1.8062525210e+000	 3.6732531590e+000	-4.3887369801e-001
 1.7666989878e+000	 3.6924397853e+000	-3.7464984475e-001
 1.7270148240e+000	 3.7111664641e+000	-3.1455873515e-001
 1.6872077866e+000	 3.7294324451e+000	-2.6503914107e-001
 1.6472856170e+000	 3.7472371463e+000	-2.3214135974e-001
 1.6072560375e+000	 3.7645801531e+000	-2.2151151011e-001
 2.0148303973e+000	 3.5937205195e+000	-5.4055236122e-001
 1.9757939018e+000	 3.6153295288e+000	-5.7055954269e-001
 1.9365868207e+000	 3.6364819497e+000	-5.7000234902e-001
 1.8972169683e+000	 3.6571761646e+000	-5.4268987625e-001
 1.8576921669e+000	 3.6774107297e+000	-4.9661215753e-001
 1.8180202421e+000	 3.6971843747e+000	-4.3944521389e-001
 1.7782090179e+000	 3.7164960017e+000	-3.7852012569e-001
 1.7382663121e+000	 3.7353446847e+000	-3.2079636703e-001
 1.6981999321e+000	 3.7537296684e+000	-2.7283923419e-001
 1.6580176699e+000	 3.7716503671e+000	-2.4080118030e-001
 1.6177272980e+000	 3.7891063634e+000	-2.3040685272e-001
 2.0278720355e+000	 3.6169820321e+000	-5.1424089968e-001
 1.9885828637e+000	 3.6387309127e+000	-5.4460653043e-001
 1.9491220021e+000	 3.6600202494e+000	-5.5327393587e-001
 1.9094973156e+000	 3.6808484143e+000	-5.3357148473e-001
 1.8697166773e+000	 3.7012139541e+000	-4.9367945645e-001
 1.8297879632e+000	 3.7211155904e+000	-4.4143886030e-001
 1.7897190480e+000	 3.7405522181e+000	-3.8432078695e-001
 1.7495178002e+000	 3.7595229053e+000	-3.2940018326e-001
 1.7091920777e+000	 3.7780268917e+000	-2.8333386802e-001
 1.6687497229e+000	 3.7960635879e+000	-2.5234258697e-001
 1.6281985585e+000	 3.8136325738e+000	-2.4219688920e-001
 2.0409136736e+000	 3.6402435447e+000	-4.9356045282e-001
 2.0013718256e+000	 3.6621322965e+000	-5.1895727175e-001
 1.9616571835e+000	 3.6835585491e+000	-5.3711648023e-001
 1.9217776630e+000	 3.7045206639e+000	-5.2542544025e-001
 1.8817411877e+000	 3.7250171785e+000	-4.9218231304e-001
 1.8415556843e+000	 3.7450468061e+000	-4.4535545968e-001
 1.8012290781e+000	 3.7646084345e+000	-3.9251913869e-001
 1.7607692884e+000	 3.7837011259e+000	-3.4082782405e-001
 1.7201842233e+000	 3.8023241150e+000	-2.9699491102e-001
 1.6794817758e+000	 3.8204768087e+000	-2.6727559366e-001
 1.6386698191e+000	 3.8381587841e+000	-2.5745368139e-001
 2.0539553118e+000	 3.6635050572e+000	-4.7869268190e-001
 2.0141607875e+000	 3.6855336804e+000	-4.9779521981e-001
 1.9741923649e+000	 3.7070968488e+000	-5.2222104643e-001
 1.9340580104e+000	 3.7281929136e+000	-5.1884484641e-001
 1.8937656981e+000	 3.7488204029e+000	-4.9263896030e-001
 1.8533234054e+000	 3.7689780217e+000	-4.5166161539e-001
 1.8127391083e+000	 3.7886646509e+000	-4.0355350174e-001
 1.7720207765e+000	 3.8078793464e+000	-3.5551273883e-001
 1.7311763688e+000	 3.8266213383e+000	-3.1427437714e-001
 1.6902138288e+000	 3.8448900295e+000	-2.8609420326e-001
 1.6491410796e+000	 3.8626849945e+000	-2.7673660048e-001
 1.5444284742e+000	 3.6174228910e+000	-1.9621805947e-001
 1.5058620440e+000	 3.6336464752e+000	-1.9349047853e-001
 1.4672071469e+000	 3.6494259619e+000	-1.9436804317e-001
 1.4284711273e+000	 3.6647614292e+000	-2.0325094566e-001
 1.3896612948e+000	 3.6796531097e+000	-2.2407083792e-001
 1.3507849198e+000	 3.6941013890e+000	-2.6028612727e-001
 1.3118492302e+000	 3.7081068035e+000	-3.0656207523e-001
 1.2728614074e+000	 3.7216700388e+000	-3.2704974146e-001
 1.2338285827e+000	 3.7347919268e+000	-3.2442480168e-001
 1.1947578341e+000	 3.7474734443e+000	-3.0630728640e-001
 1.1556561824e+000	 3.7597157100e+000	-2.7947311413e-001
 1.5548997347e+000	 3.6419491014e+000	-2.0000612555e-001
 1.5160718233e+000	 3.6582826818e+000	-1.9836931229e-001
 1.4771548451e+000	 3.6741691538e+000	-1.9864112308e-001
 1.4381561944e+000	 3.6896085959e+000	-2.0496187187e-001
 1.3990832303e+000	 3.7046012423e+000	-2.2100937619e-001
 1.3599432726e+000	 3.7191474813e+000	-2.4999510189e-001
 1.3207435981e+000	 3.7332478529e+000	-2.9202932851e-001
 1.2814914370e+000	 3.7469030472e+000	-3.1444535832e-001
 1.2421939689e+000	 3.7601139019e+000	-3.1315010015e-001
 1.2028583196e+000	 3.7728814004e+000	-2.9561130177e-001
 1.1634915578e+000	 3.7852066689e+000	-2.6843559307e-001
 1.5653709953e+000	 3.6664753117e+000	-2.0319638542e-001
 1.5262816025e+000	 3.6829188884e+000	-2.0223220245e-001
 1.4871025432e+000	 3.6989123457e+000	-2.0158659748e-001
 1.4478412615e+000	 3.7144557626e+000	-2.0513918345e-001
 1.4085051658e+000	 3.7295493750e+000	-2.1631521477e-001
 1.3691016254e+000	 3.7441935736e+000	-2.3808259931e-001
 1.3296379661e+000	 3.7583889022e+000	-2.7274502202e-001
 1.2901214666e+000	 3.7721360556e+000	-2.9568295474e-001
 1.2505593550e+000	 3.7854358770e+000	-2.9438714769e-001
 1.2109588052e+000	 3.7982893564e+000	-2.7616399550e-001
 1.1713269333e+000	 3.8106976279e+000	-2.4744270741e-001
 1.5758422558e+000	 3.6910015221e+000	-2.0635930153e-001
 1.5364913818e+000	 3.7075550951e+000	-2.0572516626e-001
 1.4970502414e+000	 3.7236555376e+000	-2.0395955481e-001
 1.4575263286e+000	 3.7393029293e+000	-2.0468005793e-001
 1.4179271013e+000	 3.7544975076e+000	-2.1106011147e-001
 1.3782599782e+000	 3.7692396659e+000	-2.2582689713e-001
 1.3385323340e+000	 3.7835299516e+000	-2.5126147702e-001
 1.2987514962e+000	 3.7973690640e+000	-2.7325035731e-001
 1.2589247412e+000	 3.8107578521e+000	-2.7097359609e-001
 1.2190592908e+000	 3.8236973125e+000	-2.5117948660e-001
 1.1791623088e+000	 3.8361885868e+000	-2.2010959662e-001
 1.5863135164e+000	 3.7155277324e+000	-2.1007506342e-001
 1.5467011611e+000	 3.7321913017e+000	-2.0950572341e-001
 1.5069979396e+000	 3.7483987295e+000	-2.0652749542e-001
 1.4672113956e+000	 3.7641500960e+000	-2.0449411424e-001
 1.4273490369e+000	 3.7794456403e+000	-2.0632740200e-001
 1.3874183310e+000	 3.7942857582e+000	-2.1451608199e-001
 1.3474267019e+000	 3.8086710009e+000	-2.3111681401e-001
 1.3073815258e+000	 3.8226020724e+000	-2.4960206422e-001
 1.2672901273e+000	 3.8360798272e+000	-2.4571555906e-001
 1.2271597764e+000	 3.8491052686e+000	-2.2384129189e-001
 1.1869976843e+000	 3.8616795457e+000	-1.9002082985e-001
 1.5967847769e+000	 3.7400539428e+000	-2.1492974555e-001
 1.5569109403e+000	 3.7568275083e+000	-2.1423921298e-001
 1.5169456378e+000	 3.7731419214e+000	-2.1006683670e-001
 1.4768964627e+000	 3.7889972628e+000	-2.0550013489e-001
 1.4367709724e+000	 3.8043937729e+000	-2.0320896738e-001
 1.3965766838e+000	 3.8193318505e+000	-2.0544529039e-001
 1.3563210699e+000	 3.8338120503e+000	-2.1404511572e-001
 1.3160115554e+000	 3.8478350808e+000	-2.2715374982e-001
 1.2756555135e+000	 3.8614018023e+000	-2.2138260194e-001
 1.2352602619e+000	 3.8745132247e+000	-1.9729783046e-001
 1.1948330598e+000	 3.8871705046e+000	-1.6072645412e-001
 1.6072560375e+000	 3.7645801531e+000	-2.2151151011e-001
 1.5671207196e+000	 3.7814637149e+000	-2.2059515339e-001
 1.5268933359e+000	 3.7978851133e+000	-2.1535945813e-001
 1.4865815298e+000	 3.8138444295e+000	-2.0862282348e-001
 1.4461929079e+000	 3.8293419056e+000	-2.0280223143e-001
 1.4057350366e+000	 3.8443779429e+000	-1.9991397292e-001
 1.3652154378e+000	 3.8589530996e+000	-2.0157655746e-001
 1.3246415850e+000	 3.8730680892e+000	-2.0827677631e-001
 1.2840208996e+000	 3.8867237774e+000	-2.0070272850e-001
 1.2433607475e+000	 3.8999211807e+000	-1.7465791452e-001
 1.2026684352e+000	 3.9126614635e+000	-1.3573801683e-001
 1.6177272980e+000	 3.7891063634e+000	-2.3040685272e-001
 1.5773304989e+000	 3.8060999215e+000	-2.2924364327e-001
 1.5368410341e+000	 3.8226283052e+000	-2.2318928400e-001
 1.4962665968e+000	 3.8386915962e+000	-2.1478959609e-001
 1.4556148434e+000	 3.8542900382e+000	-2.0620718679e-001
 1.4148933894e+000	 3.8694240352e+000	-1.9922318089e-001
 1.3741098057e+000	 3.8840941490e+000	-1.9524111033e-001
 1.3332716146e+000	 3.8983010976e+000	-1.9529271214e-001
 1.2923862858e+000	 3.9120457525e+000	-1.8635736525e-001
 1.2514612331e+000	 3.9253291368e+000	-1.5898622713e-001
 1.2105038107e+000	 3.9381524225e+000	-1.1852456386e-001
 1.6281985585e+000	 3.8136325738e+000	-2.4219688920e-001
 1.5875402781e+000	 3.8307361281e+000	-2.4085180136e-001
 1.5467887323e+000	 3.8473714971e+000	-2.3433890249e-001
 1.5059516639e+000	 3.8635387629e+000	-2.2492740486e-001
 1.4650367789e+000	 3.8792381709e+000	-2.1452344829e-001
 1.4240517422e+000	 3.8944701275e+000	-2.0467287427e-001
 1.3830041737e+000	 3.9092351983e+000	-1.9656612826e-001
 1.3419016441e+000	 3.9235341059e+000	-1.9104503614e-001
 1.3007516719e+000	 3.9373677276e+000	-1.8097634308e-001
 1.2595617187e+000	 3.9507370929e+000	-1.5329878755e-001
 1.2183391862e+000	 3.9636433814e+000	-1.1250861425e-001
 1.6386698191e+000	 3.8381587841e+000	-2.5745368139e-001
 1.5977500574e+000	 3.8553723347e+000	-2.5608024389e-001
 1.5567364305e+000	 3.8721146890e+000	-2.4958621927e-001
 1.5156367310e+000	 3.8883859296e+000	-2.3995959240e-001
 1.4744587144e+000	 3.9041863035e+000	-2.2884733245e-001
 1.4332100950e+000	 3.9195162198e+000	-2.1755925013e-001
 1.3918985416e+000	 3.9343762477e+000	-2.0707394886e-001
 1.3505316737e+000	 3.9487671143e+000	-1.9804660371e-001
 1.3091170580e+000	 3.9626897027e+000	-1.8713287665e-001
 1.2676622042e+000	 3.9761450490e+000	-1.6055840464e-001
 1.2261745617e+000	 3.9891343403e+000	-1.2106211250e-001
 1.6491410796e+000	 3.8626849945e+000	-2.7673660048e-001
 1.6079598367e+000	 3.8800085414e+000	-2.7557959753e-001
 1.5666841286e+000	 3.8968578809e+000	-2.6970114412e-001
 1.5253217981e+000	 3.9132330963e+000	-2.6080277571e-001
 1.4838806500e+000	 3.9291344362e+000	-2.5026896185e-001
 1.4423684478e+000	 3.9445623121e+000	-2.3917209053e-001
 1.4007929095e+000	 3.9595172970e+000	-2.2827950738e-001
 1.3591617033e+000	 3.9740001227e+000	-2.1806233179e-001
 1.3174824442e+000	 3.9880116778e+000	-2.0733854136e-001
 1.2757626898e+000	 4.0015530051e+000	-1.8366776302e-001
 1.2340099371e+000	 4.0146252992e+000	-1.4712796013e-001
 1.1556561824e+000	 3.7597157100e+000	-2.7947311413e-001
 1.1165305877e+000	 3.7715199817e+000	-2.4607157454e-001
 1.0773879445e+000	 3.7828876505e+000	-2.0669442930e-001
 1.0382350804e+000	 3.7938202414e+000	-1.6459288001e-001
 9.9907875321e-001	 3.8043194115e+000	-1.2230480297e-001
 9.5992564888e-001	 3.8143869472e+000	-8.1639662017e-002
 9.2078237802e-001	 3.8240247614e+000	-4.3726821715e-002
 8.8165547354e-001	 3.8332348909e+000	-9.0149562751e-003
 8.4255138799e-001	 3.8420194933e+000	 2.2700420174e-002
 8.0347649112e-001	 3.8503808439e+000	 5.2251132909e-002
 7.6443706755e-001	 3.8583213333e+000	 8.1068411570e-002
 1.1634915578e+000	 3.7852066689e+000	-2.6843559307e-001
 1.1241006908e+000	 3.7970909739e+000	-2.3470006537e-001
 1.0846926596e+000	 3.8085357157e+000	-1.9594908628e-001
 1.0452743381e+000	 3.8195424299e+000	-1.5529194218e-001
 1.0058525301e+000	 3.8301127846e+000	-1.1512768065e-001
 9.6643396684e-001	 3.8402485784e+000	-7.7137155672e-002
 9.2702530371e-001	 3.8499517372e+000	-4.2330193099e-002
 8.8763311792e-001	 3.8592243116e+000	-1.1051470122e-002
 8.4826390576e-001	 3.8680684737e+000	 1.6989136850e-002
 8.0892408020e-001	 3.8764865146e+000	 4.2687367277e-002
 7.6961996844e-001	 3.8844808406e+000	 6.7513430084e-002
 1.1713269333e+000	 3.8106976279e+000	-2.4744270741e-001
 1.1316707938e+000	 3.8226619660e+000	-2.1226318265e-001
 1.0919973746e+000	 3.8341837809e+000	-1.7316644676e-001
 1.0523135958e+000	 3.8452646183e+000	-1.3312379871e-001
 1.0126263070e+000	 3.8559061576e+000	-9.4391357909e-002
 9.7294228481e-001	 3.8661102095e+000	-5.8535325582e-002
 9.3326822940e-001	 3.8758787129e+000	-2.6426400744e-002
 8.9361076229e-001	 3.8852137322e+000	 1.6955055185e-003
 8.5397642354e-001	 3.8941174542e+000	 2.6213981570e-002
 8.1437166927e-001	 3.9025921852e+000	 4.8098061586e-002
 7.7480286933e-001	 3.9106403479e+000	 6.8867615914e-002
 1.1791623088e+000	 3.8361885868e+000	-2.2010959662e-001
 1.1392408968e+000	 3.8482329582e+000	-1.8276370156e-001
 1.0993020896e+000	 3.8598318461e+000	-1.4268552303e-001
 1.0593528535e+000	 3.8709868067e+000	-1.0271010352e-001
 1.0194000839e+000	 3.8816995307e+000	-6.4955634989e-002
 9.7945060277e-001	 3.8919718407e+000	-3.0851812407e-002
 9.3951115509e-001	 3.9018056887e+000	-1.1423636010e-003
 8.9958840667e-001	 3.9112031529e+000	 2.4051504707e-002
 8.5968894132e-001	 3.9201664347e+000	 4.5216499470e-002
 8.1981925835e-001	 3.9286978558e+000	 6.3406057681e-002
 7.7998577022e-001	 3.9367998552e+000	 8.0202014240e-002
 1.1869976843e+000	 3.8616795457e+000	-1.9002082985e-001
 1.1468109999e+000	 3.8738039503e+000	-1.5017385156e-001
 1.1066068046e+000	 3.8854799114e+000	-1.0881569758e-001
 1.0663921112e+000	 3.8967089952e+000	-6.8644641716e-002
 1.0261738609e+000	 3.9074929037e+000	-3.1637652304e-002
 9.8595892073e-001	 3.9178334719e+000	 9.1774286446e-004
 9.4575408077e-001	 3.9277326645e+000	 2.8412985860e-002
 9.0556605105e-001	 3.9371925736e+000	 5.0855378350e-002
 8.6540145909e-001	 3.9462154151e+000	 6.8846273146e-002
 8.2526684743e-001	 3.9548035264e+000	 8.3536391839e-002
 7.8516867111e-001	 3.9629593625e+000	 9.6583503373e-002
 1.1948330598e+000	 3.8871705046e+000	-1.6072645412e-001
 1.1543811029e+000	 3.8993749425e+000	-1.1843190507e-001
 1.1139115197e+000	 3.9111279766e+000	-7.5833817302e-002
 1.0734313689e+000	 3.9224311836e+000	-3.5490892764e-002
 1.0329476378e+000	 3.9332862767e+000	 7.6665567763e-004
 9.9246723870e-001	 3.9436951030e+000	 3.1801310272e-002
 9.5199700646e-001	 3.9536596403e+000	 5.7149958550e-002
 9.1154369542e-001	 3.9631819942e+000	 7.6960236676e-002
 8.7111397687e-001	 3.9722643956e+000	 9.1961591556e-002
 8.3071443651e-001	 3.9809091970e+000	 1.0341673175e-001
 7.9035157200e-001	 3.9891188698e+000	 1.1307504220e-001
 1.2026684352e+000	 3.9126614635e+000	-1.3573801683e-001
 1.1619512060e+000	 3.9249459346e+000	-9.1438728805e-002
 1.1212162347e+000	 3.9367760418e+000	-4.7981239557e-002
 1.0804706266e+000	 3.9481533720e+000	-7.7795367105e-003
 1.0397214147e+000	 3.9590796498e+000	 2.7490739008e-002
 9.9897555666e-001	 3.9695567342e+000	 5.6852153167e-002
 9.5823993215e-001	 3.9795866160e+000	 7.9999441422e-002
 9.1752133979e-001	 3.9891714149e+000	 9.7234470876e-002
 8.7682649465e-001	 3.9983133761e+000	 1.0943020009e-001
 8.3616202558e-001	 4.0070148676e+000	 1.1818663157e-001
 7.9553447288e-001	 4.0152783771e+000	 1.2576407523e-001
 1.2105038107e+000	 3.9381524225e+000	-1.1852456386e-001
 1.1695213090e+000	 3.9505169268e+000	-7.3054299242e-002
 1.1285209497e+000	 3.9624241070e+000	-2.9460832659e-002
 1.0875098843e+000	 3.9738755604e+000	 9.9940940307e-003
 1.0464951916e+000	 3.9848730228e+000	 4.3799563610e-002
 1.0054838746e+000	 3.9954183654e+000	 7.1150578192e-002
 9.6448285783e-001	 4.0055135918e+000	 9.2024709564e-002
 9.2349898417e-001	 4.0151608355e+000	 1.0750021514e-001
 8.8253901242e-001	 4.0243623565e+000	 1.1875209763e-001
 8.4160961466e-001	 4.0331205382e+000	 1.2724292271e-001
 8.0071737377e-001	 4.0414378845e+000	 1.3474514348e-001
 1.2183391862e+000	 3.9636433814e+000	-1.1250861425e-001
 1.1770914121e+000	 3.9760879189e+000	-6.7094183949e-002
 1.1358256647e+000	 3.9880721722e+000	-2.4433932575e-002
 1.0945491420e+000	 3.9995977489e+000	 1.3372614837e-002
 1.0532689685e+000	 4.0106663959e+000	 4.5348240799e-002
 1.0119921926e+000	 4.0212799965e+000	 7.1492501311e-002
 9.7072578352e-001	 4.0314405676e+000	 9.2038577345e-002
 9.2947662854e-001	 4.0411502562e+000	 1.0765981966e-001
 8.8825153020e-001	 4.0504113370e+000	 1.1939593416e-001
 8.4705720374e-001	 4.0592262089e+000	 1.2861921164e-001
 8.0590027466e-001	 4.0675973918e+000	 1.3698945703e-001
 1.2261745617e+000	 3.9891343403e+000	-1.2106211250e-001
 1.1846615151e+000	 4.0016589111e+000	-7.7321173383e-002
 1.1431303798e+000	 4.0137202374e+000	-3.6548646782e-002
 1.1015883997e+000	 4.0253199373e+000	-2.1157174056e-005
 1.0600427454e+000	 4.0364597689e+000	 3.1467074936e-002
 1.0185005105e+000	 4.0471416277e+000	 5.7650240075e-002
 9.7696870920e-001	 4.0573675433e+000	 7.8723570945e-002
 9.3545427291e-001	 4.0671396769e+000	 9.5299502664e-002
 8.9396404797e-001	 4.0764603175e+000	 1.0833735957e-001
 8.5250479281e-001	 4.0853318795e+000	 1.1910800046e-001
 8.1108317555e-001	 4.0937568991e+000	 1.2914979141e-001
 1.2340099371e+000	 4.0146252992e+000	-1.4712796013e-001
 1.1922316182e+000	 4.0272299033e+000	-1.0560668631e-001
 1.1504350948e+000	 4.0393683026e+000	-6.6274464283e-002
 1.1086276574e+000	 4.0510421257e+000	-3.0520047649e-002
 1.0668165223e+000	 4.0622531420e+000	 8.4568355457e-004
 1.0250088285e+000	 4.0730032589e+000	 2.7520139358e-002
 9.8321163488e-001	 4.0832945191e+000	 4.9642624096e-002
 9.4143191729e-001	 4.0931290975e+000	 6.7748775574e-002
 8.9967656574e-001	 4.1025092979e+000	 8.2703725782e-002
 8.5795238189e-001	 4.1114375501e+000	 9.5665503816e-002
 8.1626607643e-001	 4.1199164064e+000	 1.0804201822e-001
 7.6443706755e-001	 3.8583213333e+000	 8.1068411570e-002
 7.2544515898e-001	 3.8658423669e+000	 9.2740003274e-002
 6.8650100458e-001	 3.8729477800e+000	 7.3108989340e-002
 6.4761060921e-001	 3.8796402911e+000	 3.2333249617e-002
 6.0877988461e-001	 3.8859227212e+000	 6.2293566455e-004
 5.7001464758e-001	 3.8917979905e+000	-1.8726955463e-002
 5.3132061837e-001	 3.8972691155e+000	-2.6162013620e-002
 4.9270341909e-001	 3.9023392051e+000	-2.0817985893e-002
 4.5416857227e-001	 3.9070114582e+000	-5.9603948519e-004
 4.1572149954e-001	 3.9112891599e+000	 3.7756058165e-002
 3.7736752037e-001	 3.9151756786e+000	 9.8559434512e-002
 7.6961996844e-001	 3.8844808406e+000	 6.7513430084e-002
 7.3036369383e-001	 3.8920528670e+000	 7.7132542424e-002
 6.9115549717e-001	 3.8992064550e+000	 5.9249141057e-002
 6.5200142403e-001	 3.9059443414e+000	 2.1578353478e-002
 6.1290742622e-001	 3.9122693665e+000	-9.0546962108e-003
 5.7387935999e-001	 3.9181844704e+000	-2.7814186009e-002
 5.3492298437e-001	 3.9236926896e+000	-3.5367008182e-002
 4.9604395959e-001	 3.9287971546e+000	-3.1078350919e-002
 4.5724784563e-001	 3.9335010856e+000	-1.3101242635e-002
 4.1854010086e-001	 3.9378077903e+000	 2.1528637481e-002
 3.7992608084e-001	 3.9417206597e+000	 7.6795583144e-002
 7.7480286933e-001	 3.9106403479e+000	 6.8867615914e-002
 7.3528222869e-001	 3.9182633671e+000	 7.6136889536e-002
 6.9580998976e-001	 3.9254651299e+000	 5.9352406787e-002
 6.5639223885e-001	 3.9322483918e+000	 2.4612311432e-002
 6.1703496783e-001	 3.9386160119e+000	-5.1885230155e-003
 5.7774407240e-001	 3.9445709502e+000	-2.3702699487e-002
 5.3852535038e-001	 3.9501162638e+000	-3.1699017865e-002
 4.9938450010e-001	 3.9552551041e+000	-2.8653666407e-002
 4.6032711899e-001	 3.9599907131e+000	-1.2855009949e-002
 4.2135870218e-001	 3.9643264207e+000	 1.8487055140e-002
 3.8248464130e-001	 3.9682656408e+000	 6.9129991503e-002
 7.7998577022e-001	 3.9367998552e+000	 8.0202014240e-002
 7.4020076354e-001	 3.9444738672e+000	 8.5041213301e-002
 7.0046448236e-001	 3.9517238049e+000	 6.8994787898e-002
 6.6078305366e-001	 3.9585524421e+000	 3.7181677865e-002
 6.2116250944e-001	 3.9649626573e+000	 8.3609951513e-003
 5.8160878482e-001	 3.9709574300e+000	-9.7671144685e-003
 5.4212771638e-001	 3.9765398380e+000	-1.7947889648e-002
 5.0272504061e-001	 3.9817130536e+000	-1.5644243183e-002
 4.6340639235e-001	 3.9864803406e+000	-1.1577858969e-003
 4.2417730350e-001	 3.9908450511e+000	 2.8246332636e-002
 3.8504320176e-001	 3.9948106218e+000	 7.6213694401e-002
 7.8516867111e-001	 3.9629593625e+000	 9.6583503373e-002
 7.4511929839e-001	 3.9706843673e+000	 9.9122667103e-002
 7.0511897495e-001	 3.9779824798e+000	 8.3733967105e-002
 6.6517386848e-001	 3.9848564924e+000	 5.5022468366e-002
 6.2529005105e-001	 3.9913093026e+000	 2.7703344531e-002
 5.8547349723e-001	 3.9973439098e+000	 1.0568710419e-002
 5.4573008239e-001	 4.0029634122e+000	 3.0513220817e-003
 5.0606558111e-001	 4.0081710031e+000	 5.8619110550e-003
 4.6648566571e-001	 4.0129699681e+000	 2.0571716362e-002
 4.2699590482e-001	 4.0173636815e+000	 4.9648171731e-002
 3.8760176222e-001	 4.0213556029e+000	 9.6358884875e-002
 7.9035157200e-001	 3.9891188698e+000	 1.1307504220e-001
 7.5003783325e-001	 3.9968948674e+000	 1.1364749045e-001
 7.0977346754e-001	 4.0042411548e+000	 9.9184555363e-002
 6.6956468330e-001	 4.0111605428e+000	 7.4320390187e-002
 6.2941759266e-001	 4.0176559480e+000	 5.0070868023e-002
 5.8933820964e-001	 4.0237303896e+000	 3.5596393095e-002
 5.4933244839e-001	 4.0293869863e+000	 3.0255999537e-002
 5.0940612162e-001	 4.0346289526e+000	 3.4491933133e-002
 4.6956493906e-001	 4.0394595956e+000	 4.9731194552e-002
 4.2981450615e-001	 4.0438823119e+000	 7.8256881258e-002
 3.9016032268e-001	 4.0479005840e+000	 1.2309175524e-001
 7.9553447288e-001	 4.0152783771e+000	 1.2576407523e-001
 7.5495636810e-001	 4.0231053675e+000	 1.2623862933e-001
 7.1442796013e-001	 4.0304998298e+000	 1.1466425563e-001
 6.7395549811e-001	 4.0374645931e+000	 9.4911661314e-002
 6.3354513427e-001	 4.0440025933e+000	 7.5108849590e-002
 5.9320292205e-001	 4.0501168695e+000	 6.3947600992e-002
 5.5293481440e-001	 4.0558105605e+000	 6.0993433691e-002
 5.1274666212e-001	 4.0610869021e+000	 6.6648277025e-002
 4.7264421242e-001	 4.0659492230e+000	 8.2233536597e-002
 4.3263310747e-001	 4.0704009423e+000	 1.0986454558e-001
 3.9271888314e-001	 4.0744455651e+000	 1.5233731872e-001
 8.0071737377e-001	 4.0414378845e+000	 1.3474514348e-001
 7.5987490295e-001	 4.0493158676e+000	 1.3642778640e-001
 7.1908245272e-001	 4.0567585047e+000	 1.2828932303e-001
 6.7834631293e-001	 4.0637686435e+000	 1.1381065870e-001
 6.3767267588e-001	 4.0703492387e+000	 9.9027763736e-002
 5.9706763447e-001	 4.0765033493e+000	 9.1528903986e-002
 5.5653718040e-001	 4.0822341347e+000	 9.1137299938e-002
 5.1608720263e-001	 4.0875448516e+000	 9.8226900641e-002
 4.7572348578e-001	 4.0924388505e+000	 1.1402713195e-001
 4.3545170879e-001	 4.0969195727e+000	 1.4050062157e-001
 3.9527744361e-001	 4.1009905462e+000	 1.8023328828e-001
 8.0590027466e-001	 4.0675973918e+000	 1.3698945703e-001
 7.6479343780e-001	 4.0755263677e+000	 1.4063638467e-001
 7.2373694531e-001	 4.0830171797e+000	 1.3636963441e-001
 6.8273712774e-001	 4.0900726938e+000	 1.2728997132e-001
 6.4180021749e-001	 4.0966958841e+000	 1.1792921110e-001
 6.0093234688e-001	 4.1028898291e+000	 1.1439283901e-001
 5.6013954641e-001	 4.1086577088e+000	 1.1672262252e-001
 5.1942774314e-001	 4.1140028011e+000	 1.2527519796e-001
 4.7880275914e-001	 4.1189284780e+000	 1.4120001117e-001
 4.3827031011e-001	 4.1234382031e+000	 1.6632048978e-001
 3.9783600407e-001	 4.1275355273e+000	 2.0302762471e-001
 8.1108317555e-001	 4.0937568991e+000	 1.2914979141e-001
 7.6971197265e-001	 4.1017368678e+000	 1.3540992430e-001
 7.2839143789e-001	 4.1092758546e+000	 1.3537599576e-001
 6.8712794256e-001	 4.1163767441e+000	 1.3177793261e-001
 6.4592775910e-001	 4.1230425294e+000	 1.2808634965e-001
 6.0479705929e-001	 4.1292763089e+000	 1.2875771075e-001
 5.6374191241e-001	 4.1350812830e+000	 1.3394263074e-001
 5.2276828364e-001	 4.1404607506e+000	 1.4398938210e-001
 4.8188203250e-001	 4.1454181055e+000	 1.5997776910e-001
 4.4108891143e-001	 4.1499568335e+000	 1.8360392970e-001
 4.0039456453e-001	 4.1540805083e+000	 2.1707757513e-001
 8.1626607643e-001	 4.1199164064e+000	 1.0804201822e-001
 7.7463050750e-001	 4.1279473679e+000	 1.1745498242e-001
 7.3304593048e-001	 4.1355345296e+000	 1.2193684121e-001
 6.9151875737e-001	 4.1426807945e+000	 1.2385561438e-001
 6.5005530071e-001	 4.1493891748e+000	 1.2593979324e-001
 6.0866177170e-001	 4.1556627888e+000	 1.3100398056e-001
 5.6734427842e-001	 4.1615048572e+000	 1.3914565241e-001
 5.2610882415e-001	 4.1669187001e+000	 1.5071189653e-001
 4.8496130586e-001	 4.1719077330e+000	 1.6672150572e-001
 4.4390751276e-001	 4.1764754639e+000	 1.8875360133e-001
 4.0295312499e-001	 4.1806254894e+000	 2.1884870505e-001
 3.7736752037e-001	 3.9151756786e+000	 9.8559434512e-002
 3.3910613303e-001	 3.9186749587e+000	 1.5155131531e-001
 3.0094827830e-001	 3.9217899151e+000	 1.6811838476e-001
 2.6289904207e-001	 3.9245241489e+000	 1.5662233672e-001
 2.2496340183e-001	 3.9268813314e+000	 1.2640230988e-001
 1.8714622592e-001	 3.9288652011e+000	 8.7697383711e-002
 1.4945227300e-001	 3.9304795604e+000	 5.1576745306e-002
 1.1188619153e-001	 3.9317282725e+000	 2.9878649191e-002
 7.4452519382e-002	 3.9326152578e+000	 3.5159084502e-002
 3.7155683567e-002	 3.9331444916e+000	 8.0650863520e-002
 0.0000000000e+000	 3.9333200000e+000	 1.8023366059e-001
 3.7992608084e-001	 3.9417206597e+000	 7.6795583144e-002
 3.4140528040e-001	 3.9452436650e+000	 1.2418343953e-001
 3.0298871454e-001	 3.9483797409e+000	 1.3688464371e-001
 2.6468150362e-001	 3.9511325128e+000	 1.2290471054e-001
 2.2648865886e-001	 3.9535056771e+000	 9.1137735050e-002
 1.8841508163e-001	 3.9555029975e+000	 5.1280580236e-002
 1.5046556284e-001	 3.9571283022e+000	 1.3755903530e-002
 1.1264478248e-001	 3.9583854805e+000	-1.0354829210e-002
 7.4957309175e-002	 3.9592784797e+000	-9.3674114427e-003
 3.7407599955e-002	 3.9598113016e+000	 2.8960674382e-002
 0.0000000000e+000	 3.9599880000e+000	 1.1739798936e-001
 3.8248464130e-001	 3.9682656408e+000	 6.9129991503e-002
 3.4370442778e-001	 3.9718123712e+000	 1.1244451325e-001
 3.0502915079e-001	 3.9749695666e+000	 1.2352420954e-001
 2.6646396517e-001	 3.9777408767e+000	 1.1005336412e-001
 2.2801391590e-001	 3.9801300227e+000	 8.0508830881e-002
 1.8968393734e-001	 3.9821407938e+000	 4.4065458458e-002
 1.5147885269e-001	 3.9837770439e+000	 1.0511583973e-002
 1.1340337343e-001	 3.9850426886e+000	-9.8242280226e-003
 7.5462098967e-002	 3.9859417015e+000	-6.1342544983e-003
 3.7659516343e-002	 3.9864781117e+000	 3.2820234452e-002
 0.0000000000e+000	 3.9866560000e+000	 1.1867425982e-001
 3.8504320176e-001	 3.9948106218e+000	 7.6213694401e-002
 3.4600357516e-001	 3.9983810775e+000	 1.1813300124e-001
 3.0706958703e-001	 4.0015593924e+000	 1.3105955901e-001
 2.6824642672e-001	 4.0043492407e+000	 1.2218742041e-001
 2.2953917293e-001	 4.0067543684e+000	 9.9456925656e-002
 1.9095279306e-001	 4.0087785902e+000	 7.1459939161e-002
 1.5249214253e-001	 4.0104257857e+000	 4.7346192329e-002
 1.1416196437e-001	 4.0116998966e+000	 3.6754410155e-002
 7.5966888759e-002	 4.0126049233e+000	 4.9749702118e-002
 3.7911432732e-002	 4.0131449217e+000	 9.6766706627e-002
 0.0000000000e+000	 4.0133240000e+000	 1.8855802459e-001
 3.8760176222e-001	 4.0213556029e+000	 9.6358884875e-002
 3.4830272253e-001	 4.0249497838e+000	 1.3782697640e-001
 3.0911002327e-001	 4.0281492181e+000	 1.5280944358e-001
 2.7002888826e-001	 4.0309576046e+000	 1.4813690663e-001
 2.3106442997e-001	 4.0333787141e+000	 1.3130717378e-001
 1.9222164877e-001	 4.0354163865e+000	 1.1040496297e-001
 1.5350543238e-001	 4.0370745274e+000	 9.4028961221e-002
 1.1492055532e-001	 4.0383571047e+000	 9.1225608975e-002
 7.6471678551e-002	 4.0392681452e+000	 1.1142904143e-001
 3.8163349120e-002	 4.0398117318e+000	 1.6440666364e-001
 0.0000000000e+000	 4.0399920000e+000	 2.6020988437e-001
 3.9016032268e-001	 4.0479005840e+000	 1.2309175524e-001
 3.5060186991e-001	 4.0515184901e+000	 1.6325760074e-001
 3.1115045952e-001	 4.0547390439e+000	 1.7933365051e-001
 2.7181134981e-001	 4.0575659685e+000	 1.7770836085e-001
 2.3258968700e-001	 4.0600030598e+000	 1.6538919107e-001
 1.9349050448e-001	 4.0620541829e+000	 1.4992530627e-001
 1.5451872222e-001	 4.0637232692e+000	 1.3933752612e-001
 1.1567914627e-001	 4.0650143127e+000	 1.4205488803e-001
 7.6976468342e-002	 4.0659313670e+000	 1.6685724155e-001
 3.8415265508e-002	 4.0664785418e+000	 2.2282333830e-001
 0.0000000000e+000	 4.0666600000e+000	 3.1928393246e-001
 3.9271888314e-001	 4.0744455651e+000	 1.5233731872e-001
 3.5290101728e-001	 4.0780871964e+000	 1.9057291656e-001
 3.1319089576e-001	 4.0813288697e+000	 2.0693932039e-001
 2.7359381136e-001	 4.0841743324e+000	 2.0735167093e-001
 2.3411494403e-001	 4.0866274055e+000	 1.9829730292e-001
 1.9475936019e-001	 4.0886919793e+000	 1.8676159077e-001
 1.5553201207e-001	 4.0903720110e+000	 1.8016092887e-001
 1.1643773722e-001	 4.0916715208e+000	 1.8628219652e-001
 7.7481258134e-002	 4.0925945888e+000	 2.1322810899e-001
 3.8667181896e-002	 4.0931453519e+000	 2.6936790687e-001
 0.0000000000e+000	 4.0933280000e+000	 3.6329288919e-001
 3.9527744361e-001	 4.1009905462e+000	 1.8023328828e-001
 3.5520016466e-001	 4.1046559027e+000	 2.1603221216e-001
 3.1523133200e-001	 4.1079186954e+000	 2.3200756760e-001
 2.7537627290e-001	 4.1107826964e+000	 2.3356996012e-001
 2.3564020107e-001	 4.1132517511e+000	 2.2665685200e-001
 1.9602821590e-001	 4.1153297756e+000	 2.1766171554e-001
 1.5654530191e-001	 4.1170207527e+000	 2.1337018971e-001
 1.1719632817e-001	 4.1183287288e+000	 2.2090257146e-001
 7.7986047926e-002	 4.1192578107e+000	 2.4766202803e-001
 3.8919098284e-002	 4.1198121619e+000	 3.0128797068e-001
 0.0000000000e+000	 4.1199960000e+000	 3.8961408607e-001
 3.9783600407e-001	 4.1275355273e+000	 2.0302762471e-001
 3.5749931203e-001	 4.1312246089e+000	 2.3598767732e-001
 3.1727176825e-001	 4.1345085212e+000	 2.5099366929e-001
 2.7715873445e-001	 4.1373910603e+000	 2.5292033215e-001
 2.3716545810e-001	 4.1398760968e+000	 2.4712548888e-001
 1.9729707162e-001	 4.1419675720e+000	 2.3938268291e-001
 1.5755859176e-001	 4.1436694945e+000	 2.3582065828e-001
 1.1795491912e-001	 4.1449859369e+000	 2.4286900373e-001
 7.8490837717e-002	 4.1459210325e+000	 2.6720933201e-001
 3.9171014672e-002	 4.1464789720e+000	 3.1573142315e-001
 0.0000000000e+000	 4.1466640000e+000	 3.9549381941e-001
 4.0039456453e-001	 4.1540805083e+000	 2.1707757513e-001
 3.5979845941e-001	 4.1577933152e+000	 2.4688400492e-001
 3.1931220449e-001	 4.1610983469e+000	 2.6042721913e-001
 2.7894119600e-001	 4.1639994242e+000	 2.6201456617e-001
 2.3869071514e-001	 4.1665004425e+000	 2.5639439741e-001
 1.9856592733e-001	 4.1686053684e+000	 2.4869234340e-001
 1.5857188160e-001	 4.1703182362e+000	 2.4435426738e-001
 1.1871351007e-001	 4.1716431449e+000	 2.4909519026e-001
 7.8995627510e-002	 4.1725842543e+000	 2.6885354360e-001
 3.9422931060e-002	 4.1731457820e+000	 3.0975016811e-001
 0.0000000000e+000	 4.1733320000e+000	 3.7805153691e-001
 4.0295312499e-001	 4.1806254894e+000	 2.1884870505e-001
 3.6209760679e-001	 4.1843620215e+000	 2.4525797255e-001
 3.2135264073e-001	 4.1876881727e+000	 2.5691224732e-001
 2.8072365755e-001	 4.1906077882e+000	 2.5751976381e-001
 2.4021597217e-001	 4.1931247882e+000	 2.5118945748e-001
 1.9983478304e-001	 4.1952431647e+000	 2.4237106307e-001
 1.5958517145e-001	 4.1969669780e+000	 2.3580169379e-001
 1.1947210102e-001	 4.1983003530e+000	 2.3645817725e-001
 7.9500417302e-002	 4.1992474762e+000	 2.4951448980e-001
 3.9674847448e-002	 4.1998125921e+000	 2.8030369600e-001
 0.0000000000e+000	 4.2000000000e+000	 3.3428386484e-001
 4.2000000000e+000	 0.0000000000e+000	 5.0741986529e-001
 4.1998125921e+000	 3.9674847448e-002	 5.3979245375e-001
 4.1992474762e+000	 7.9500417302e-002	 5.6477506577e-001
 4.1983003530e+000	 1.1947210102e-001	 5.8276897910e-001
 4.1969669780e+000	 1.5958517145e-001	 5.9451586991e-001
 4.1952431647e+000	 1.9983478304e-001	 6.0105042967e-001
 4.1931247882e+000	 2.4021597217e-001	 6.0365077290e-001
 4.1906077882e+000	 2.8072365755e-001	 6.0378614419e-001
 4.1876881727e+000	 3.2135264073e-001	 6.0306137728e-001
 4.1843620215e+000	 3.6209760679e-001	 6.0315750458e-001
 4.1806254894e+000	 4.0295312499e-001	 6.0576786201e-001
 4.2266680000e+000	 0.0000000000e+000	 5.7319646213e-001
 4.2264794022e+000	 3.9926763837e-002	 5.9175662404e-001
 4.2259106980e+000	 8.0005207095e-002	 6.0555778317e-001
 4.2249575610e+000	 1.2023069197e-001	 6.1466777303e-001
 4.2236157197e+000	 1.6059846130e-001	 6.1947923292e-001
 4.2218809611e+000	 2.0110363876e-001	 6.2066474312e-001
 4.2197491339e+000	 2.4174122921e-001	 6.1913000735e-001
 4.2172161521e+000	 2.8250611909e-001	 6.1596457189e-001
 4.2142779985e+000	 3.2339307698e-001	 6.1238951142e-001
 4.2109307278e+000	 3.6439675416e-001	 6.0970145377e-001
 4.2071704705e+000	 4.0551168545e-001	 6.0921225906e-001
 4.2533360000e+000	 0.0000000000e+000	 6.2823038030e-001
 4.2531462122e+000	 4.0178680226e-002	 6.3547142740e-001
 4.2525739199e+000	 8.0509996888e-002	 6.4012585614e-001
 4.2516147691e+000	 1.2098928292e-001	 6.4197747176e-001
 4.2502644615e+000	 1.6161175114e-001	 6.4111923757e-001
 4.2485187574e+000	 2.0237249447e-001	 6.3791103424e-001
 4.2463734795e+000	 2.4326648624e-001	 6.3293573523e-001
 4.2438245160e+000	 2.8428858064e-001	 6.2695306767e-001
 4.2408678242e+000	 3.2543351322e-001	 6.2085066567e-001
 4.2374994341e+000	 3.6669590154e-001	 6.1559166111e-001
 4.2337154516e+000	 4.0807024591e-001	 6.1215809704e-001
 4.2800040000e+000	 0.0000000000e+000	 6.7226302339e-001
 4.2798130223e+000	 4.0430596615e-002	 6.7057405079e-001
 4.2792371417e+000	 8.1014786682e-002	 6.6804126365e-001
 4.2782719771e+000	 1.2174787387e-001	 6.6421172426e-001
 4.2769132032e+000	 1.6262504099e-001	 6.5892584868e-001
 4.2751565538e+000	 2.0364135018e-001	 6.5227790199e-001
 4.2729978252e+000	 2.4479174328e-001	 6.4457509119e-001
 4.2704328799e+000	 2.8607104219e-001	 6.3629470481e-001
 4.2674576500e+000	 3.2747394947e-001	 6.2803868195e-001
 4.2640681404e+000	 3.6899504892e-001	 6.2048492822e-001
 4.2602604327e+000	 4.1062880637e-001	 6.1433463198e-001
 4.3066720000e+000	 0.0000000000e+000	 7.0509194210e-001
 4.3064798323e+000	 4.0682513004e-002	 6.9675180947e-001
 4.3059003635e+000	 8.1519576475e-002	 6.8891030162e-001
 4.3049291852e+000	 1.2250646482e-001	 6.8092288574e-001
 4.3035619450e+000	 1.6363833084e-001	 6.7242231887e-001
 4.3017943502e+000	 2.0491020590e-001	 6.6328199701e-001
 4.2996221709e+000	 2.4631700032e-001	 6.5357819680e-001
 4.2970412439e+000	 2.8785350374e-001	 6.4355063785e-001
 4.2940474757e+000	 3.2951438571e-001	 6.3356072366e-001
 4.2906368466e+000	 3.7129419629e-001	 6.2404675002e-001
 4.2868054138e+000	 4.1318736684e-001	 6.1547530185e-001
 4.3333400000e+000	 0.0000000000e+000	 7.2656910647e-001
 4.3331466424e+000	 4.0934429394e-002	 7.1374047627e-001
 4.3325635854e+000	 8.2024366269e-002	 7.0238198371e-001
 4.3315863932e+000	 1.2326505578e-001	 6.9170050294e-001
 4.3302106868e+000	 1.6465162068e-001	 6.8116377002e-001
 4.3284321465e+000	 2.0617906161e-001	 6.7046670985e-001
 4.3262465166e+000	 2.4784225735e-001	 6.5949696465e-001
 4.3236496078e+000	 2.8963596529e-001	 6.4829903029e-001
 4.3206373015e+000	 3.3155482196e-001	 6.3703633321e-001
 4.3172055529e+000	 3.7359334367e-001	 6.2595050715e-001
 4.3133503949e+000	 4.1574592730e-001	 6.1531705711e-001
 4.3600080000e+000	 0.0000000000e+000	 7.3659924165e-001
 4.3598134524e+000	 4.1186345783e-002	 7.2132267245e-001
 4.3592268072e+000	 8.2529156063e-002	 7.0814650115e-001
 4.3582436013e+000	 1.2402364673e-001	 6.9616985582e-001
 4.3568594285e+000	 1.6566491053e-001	 6.8473582842e-001
 4.3550699429e+000	 2.0744791733e-001	 6.7340090980e-001
 4.3528708623e+000	 2.4936751439e-001	 6.6190394971e-001
 4.3502579717e+000	 2.9141842684e-001	 6.5013402608e-001
 4.3472271273e+000	 3.3359525820e-001	 6.3809652992e-001
 4.3437742592e+000	 3.7589249104e-001	 6.2587669482e-001
 4.3398953759e+000	 4.1830448776e-001	 6.1359972404e-001
 4.3866760000e+000	 0.0000000000e+000	 7.3513822432e-001
 4.3864802625e+000	 4.1438262172e-002	 7.1932631722e-001
 4.3858900290e+000	 8.3033945857e-002	 7.0593373920e-001
 4.3849008094e+000	 1.2478223768e-001	 6.9399055339e-001
 4.3835081703e+000	 1.6667820038e-001	 6.8275331124e-001
 4.3817077393e+000	 2.0871677304e-001	 6.7167773195e-001
 4.3794952079e+000	 2.5089277143e-001	 6.6039124585e-001
 4.3768663357e+000	 2.9320088839e-001	 6.4866476293e-001
 4.3738169530e+000	 3.3563569445e-001	 6.3638294607e-001
 4.3703429655e+000	 3.7819163842e-001	 6.2351218652e-001
 4.3664403570e+000	 4.2086304822e-001	 6.1006539916e-001
 4.4133440000e+000	 0.0000000000e+000	 7.2219153721e-001
 4.4131470725e+000	 4.1690178561e-002	 7.0762313369e-001
 4.4125532509e+000	 8.3538735650e-002	 6.9551184774e-001
 4.4115580174e+000	 1.2554082863e-001	 6.8485518130e-001
 4.4101569120e+000	 1.6769149023e-001	 6.7485896212e-001
 4.4083455356e+000	 2.0998562876e-001	 6.6491341067e-001
 4.4061195536e+000	 2.5241802846e-001	 6.5456942561e-001
 4.4034746996e+000	 2.9498334994e-001	 6.4351442573e-001
 4.4004067788e+000	 3.3767613069e-001	 6.3154699994e-001
 4.3969116718e+000	 3.8049078580e-001	 6.1854953104e-001
 4.3929853381e+000	 4.2342160868e-001	 6.0445787364e-001
 4.4400120000e+000	 0.0000000000e+000	 6.9781277942e-001
 4.4398138826e+000	 4.1942094950e-002	 6.8612720865e-001
 4.4392164727e+000	 8.4043525443e-002	 6.7668586385e-001
 4.4382152255e+000	 1.2629941958e-001	 6.6848799907e-001
 4.4368056538e+000	 1.6870478007e-001	 6.6072223392e-001
 4.4349833320e+000	 2.1125448447e-001	 6.5274615741e-001
 4.4327438993e+000	 2.5394328550e-001	 6.4406652151e-001
 4.4300830635e+000	 2.9676581148e-001	 6.3431933833e-001
 4.4269966045e+000	 3.3971656693e-001	 6.2324910396e-001
 4.4234803781e+000	 3.8278993317e-001	 6.1068628155e-001
 4.4195303192e+000	 4.2598016914e-001	 5.9652208634e-001
 4.4666800000e+000	 0.0000000000e+000	 6.6210223002e-001
 4.4664806926e+000	 4.2194011339e-002	 6.5479360416e-001
 4.4658796945e+000	 8.4548315236e-002	 6.4929638411e-001
 4.4648724335e+000	 1.2705801053e-001	 6.4464368487e-001
 4.4634543955e+000	 1.6971806992e-001	 6.4003811650e-001
 4.4616211283e+000	 2.1252334018e-001	 6.3483508098e-001
 4.4593682450e+000	 2.5546854253e-001	 6.2852704700e-001
 4.4566914274e+000	 2.9854827303e-001	 6.2072809223e-001
 4.4535864303e+000	 3.4175700318e-001	 6.1115790665e-001
 4.4500490843e+000	 3.8508908055e-001	 5.9962435526e-001
 4.4460753003e+000	 4.2853872961e-001	 5.8600360430e-001
 4.1806254894e+000	 4.0295312499e-001	 6.0576786201e-001
 4.1764754639e+000	 4.4390751276e-001	 6.0881478063e-001
 4.1719077330e+000	 4.8496130586e-001	 6.0937246108e-001
 4.1669187001e+000	 5.2610882415e-001	 6.0769933432e-001
 4.1615048572e+000	 5.6734427842e-001	 6.0381180595e-001
 4.1556627888e+000	 6.0866177170e-001	 5.9738963617e-001
 4.1493891748e+000	 6.5005530071e-001	 5.8767190673e-001
 4.1426807945e+000	 6.9151875737e-001	 5.7355709038e-001
 4.1355345296e+000	 7.3304593048e-001	 5.5555984677e-001
 4.1279473679e+000	 7.7463050750e-001	 5.3513010071e-001
 4.1199164064e+000	 8.1626607643e-001	 5.1364756732e-001
 4.2071704705e+000	 4.0551168545e-001	 6.0921225906e-001
 4.2029940943e+000	 4.4672611408e-001	 6.0907956954e-001
 4.1983973605e+000	 4.8804057921e-001	 6.0688300276e-001
 4.1933766496e+000	 5.2944936465e-001	 6.0292270458e-001
 4.1879284314e+000	 5.7094664442e-001	 5.9727553978e-001
 4.1820492686e+000	 6.1252648411e-001	 5.8970367747e-001
 4.1757358201e+000	 6.5418284232e-001	 5.7955365885e-001
 4.1689848448e+000	 6.9590957218e-001	 5.6581119197e-001
 4.1617932046e+000	 7.3770042307e-001	 5.4870078588e-001
 4.1541578680e+000	 7.7954904235e-001	 5.2932624185e-001
 4.1460759137e+000	 8.2144897732e-001	 5.0874465943e-001
 4.2337154516e+000	 4.0807024591e-001	 6.1215809704e-001
 4.2295127247e+000	 4.4954471540e-001	 6.0895726159e-001
 4.2248869879e+000	 4.9111985257e-001	 6.0406039888e-001
 4.2198345991e+000	 5.3278990516e-001	 5.9781977380e-001
 4.2143520055e+000	 5.7454901042e-001	 5.9038374481e-001
 4.2084357484e+000	 6.1639119652e-001	 5.8160878888e-001
 4.2020824655e+000	 6.5831038393e-001	 5.7096190755e-001
 4.1952888952e+000	 7.0030038700e-001	 5.5747210466e-001
 4.1880518795e+000	 7.4235491566e-001	 5.4108979405e-001
 4.1803683681e+000	 7.8446757720e-001	 5.2261858504e-001
 4.1722354210e+000	 8.2663187820e-001	 5.0282069383e-001
 4.2602604327e+000	 4.1062880637e-001	 6.1433463198e-001
 4.2560313550e+000	 4.5236331672e-001	 6.0825399765e-001
 4.2513766154e+000	 4.9419912593e-001	 6.0078755673e-001
 4.2462925485e+000	 5.3613044566e-001	 5.9234809212e-001
 4.2407755797e+000	 5.7815137642e-001	 5.8316447975e-001
 4.2348222282e+000	 6.2025590893e-001	 5.7319739761e-001
 4.2284291109e+000	 6.6243792553e-001	 5.6204531835e-001
 4.2215929455e+000	 7.0469120181e-001	 5.4872750699e-001
 4.2143105545e+000	 7.4700940824e-001	 5.3295917312e-001
 4.2065788682e+000	 7.8938611205e-001	 5.1527784964e-001
 4.1983949284e+000	 8.3181477909e-001	 4.9617816105e-001
 4.2868054138e+000	 4.1318736684e-001	 6.1547530185e-001
 4.2825499854e+000	 4.5518191804e-001	 6.0677574818e-001
 4.2778662429e+000	 4.9727839929e-001	 5.9694304729e-001
 4.2727504980e+000	 5.3947098617e-001	 5.8645685768e-001
 4.2671991539e+000	 5.8175374243e-001	 5.7563354934e-001
 4.2612087080e+000	 6.2412062134e-001	 5.6454585189e-001
 4.2547757562e+000	 6.6656546714e-001	 5.5293269288e-001
 4.2478969958e+000	 7.0908201662e-001	 5.3974393476e-001
 4.2405692295e+000	 7.5166390083e-001	 5.2451736779e-001
 4.2327893683e+000	 7.9430464689e-001	 5.0754851890e-001
 4.2245544357e+000	 8.3699767997e-001	 4.8909128055e-001
 4.3133503949e+000	 4.1574592730e-001	 6.1531705711e-001
 4.3090686158e+000	 4.5800051936e-001	 6.0432778214e-001
 4.3043558704e+000	 5.0035767265e-001	 5.9240070969e-001
 4.2992084475e+000	 5.4281152667e-001	 5.8008665309e-001
 4.2936227281e+000	 5.8535610843e-001	 5.6779436819e-001
 4.2875951879e+000	 6.2798533375e-001	 5.5571440660e-001
 4.2811224016e+000	 6.7069300875e-001	 5.4372678435e-001
 4.2742010462e+000	 7.1347283143e-001	 5.3066695451e-001
 4.2668279044e+000	 7.5631839342e-001	 5.1594926306e-001
 4.2589998684e+000	 7.9922318174e-001	 4.9964925853e-001
 4.2507139430e+000	 8.4218058085e-001	 4.8180653708e-001
 4.3398953759e+000	 4.1830448776e-001	 6.1359972404e-001
 4.3355872462e+000	 4.6081912068e-001	 6.0071416481e-001
 4.3308454979e+000	 5.0343694600e-001	 5.8702928103e-001
 4.3256663970e+000	 5.4615206717e-001	 5.7316920360e-001
 4.3200463022e+000	 5.8895847443e-001	 5.5963784296e-001
 4.3139816677e+000	 6.3185004616e-001	 5.4674722408e-001
 4.3074690469e+000	 6.7482055036e-001	 5.3450609486e-001
 4.3005050965e+000	 7.1786364625e-001	 5.2162134620e-001
 4.2930865794e+000	 7.6097288600e-001	 5.0741648837e-001
 4.2852103685e+000	 8.0414171659e-001	 4.9177333948e-001
 4.2768734503e+000	 8.4736348174e-001	 4.7454321899e-001
 4.3664403570e+000	 4.2086304822e-001	 6.1006539916e-001
 4.3621058766e+000	 4.6363772201e-001	 5.9573728324e-001
 4.3573351253e+000	 5.0651621936e-001	 5.8069205025e-001
 4.3521243465e+000	 5.4949260768e-001	 5.6562715616e-001
 4.3464698764e+000	 5.9256084044e-001	 5.5114227210e-001
 4.3403681475e+000	 6.3571475857e-001	 5.3767238952e-001
 4.3338156923e+000	 6.7894809196e-001	 5.2533581550e-001
 4.3268091469e+000	 7.2225446106e-001	 5.1271129491e-001
 4.3193452543e+000	 7.6562737859e-001	 4.9905772807e-001
 4.3114208686e+000	 8.0906025144e-001	 4.8408906473e-001
 4.3030329576e+000	 8.5254638262e-001	 4.6749395834e-001
 4.3929853381e+000	 4.2342160868e-001	 6.0445787364e-001
 4.3886245070e+000	 4.6645632333e-001	 5.8919739817e-001
 4.3838247528e+000	 5.0959549272e-001	 5.7324653527e-001
 4.3785822960e+000	 5.5283314818e-001	 5.5737387827e-001
 4.3728934506e+000	 5.9616320644e-001	 5.4227326256e-001
 4.3667546273e+000	 6.3957947098e-001	 5.2850194014e-001
 4.3601623377e+000	 6.8307563357e-001	 5.1626329946e-001
 4.3531131972e+000	 7.2664527587e-001	 5.0402059094e-001
 4.3456039293e+000	 7.7028187117e-001	 4.9098903798e-001
 4.3376313687e+000	 8.1397878628e-001	 4.7674019995e-001
 4.3291924649e+000	 8.5772928351e-001	 4.6082527295e-001
 4.4195303192e+000	 4.2598016914e-001	 5.9652208634e-001
 4.4151431374e+000	 4.6927492465e-001	 5.8089222134e-001
 4.4103143803e+000	 5.1267476608e-001	 5.6454418215e-001
 4.4050402455e+000	 5.5617368869e-001	 5.4831327609e-001
 4.3993170248e+000	 5.9976557244e-001	 5.3298366249e-001
 4.3931411071e+000	 6.4344418339e-001	 5.1923190791e-001
 4.3865089830e+000	 6.8720317518e-001	 5.0731814886e-001
 4.3794172475e+000	 7.3103609068e-001	 4.9561283824e-001
 4.3718626043e+000	 7.7493636376e-001	 4.8330416783e-001
 4.3638418688e+000	 8.1889732113e-001	 4.6984640781e-001
 4.3553519723e+000	 8.6291218439e-001	 4.5467811009e-001
 4.4460753003e+000	 4.2853872961e-001	 5.8600360430e-001
 4.4416617678e+000	 4.7209352597e-001	 5.7061651704e-001
 4.4368040078e+000	 5.1575403944e-001	 5.5443008564e-001
 4.4314981950e+000	 5.5951422919e-001	 5.3833963073e-001
 4.4257405989e+000	 6.0336793844e-001	 5.2321350957e-001
 4.4195275870e+000	 6.4730889580e-001	 5.0984237484e-001
 4.4128556284e+000	 6.9133071679e-001	 4.9851231747e-001
 4.4057212979e+000	 7.3542690550e-001	 4.8753167047e-001
 4.3981212792e+000	 7.7959085635e-001	 4.7607488928e-001
 4.3900523689e+000	 8.2381585598e-001	 4.6350368587e-001
 4.3815114796e+000	 8.6809508528e-001	 4.4916839186e-001
 4.1199164064e+000	 8.1626607643e-001	 5.1364756732e-001
 4.1114375501e+000	 8.5795238189e-001	 4.9187525768e-001
 4.1025092979e+000	 8.9967656574e-001	 4.7004254427e-001
 4.0931290975e+000	 9.4143191729e-001	 4.4860379057e-001
 4.0832945191e+000	 9.8321163488e-001	 4.2792486897e-001
 4.0730032589e+000	 1.0250088285e+000	 4.0826998278e-001
 4.0622531420e+000	 1.0668165223e+000	 3.8979044121e-001
 4.0510421257e+000	 1.1086276574e+000	 3.7250556234e-001
 4.0393683026e+000	 1.1504350948e+000	 3.5628954709e-001
 4.0272299033e+000	 1.1922316182e+000	 3.4085317257e-001
 4.0146252992e+000	 1.2340099371e+000	 3.2572499716e-001
 4.1460759137e+000	 8.2144897732e-001	 5.0874465943e-001
 4.1375432207e+000	 8.6339997096e-001	 4.8766112234e-001
 4.1285582784e+000	 9.0538908352e-001	 4.6644470932e-001
 4.1191185182e+000	 9.4740956166e-001	 4.4553265777e-001
 4.1092214949e+000	 9.8945456057e-001	 4.2527846755e-001
 4.0988648900e+000	 1.0315171465e+000	 4.0593875638e-001
 4.0880465150e+000	 1.0735902992e+000	 3.8766145399e-001
 4.0767643142e+000	 1.1156669151e+000	 3.7046743686e-001
 4.0650163678e+000	 1.1577398098e+000	 3.5423671122e-001
 4.0528008954e+000	 1.1998017212e+000	 3.3869017475e-001
 4.0401162582e+000	 1.2418453126e+000	 3.2337071291e-001
 4.1722354210e+000	 8.2663187820e-001	 5.0282069383e-001
 4.1636488913e+000	 8.6884756003e-001	 4.8232339228e-001
 4.1546072589e+000	 9.1110160129e-001	 4.6159854098e-001
 4.1451079388e+000	 9.5338720603e-001	 4.4106829170e-001
 4.1351484706e+000	 9.9569748625e-001	 4.2107590351e-001
 4.1247265212e+000	 1.0380254644e+000	 4.0187262482e-001
 4.1138398881e+000	 1.0803640761e+000	 3.8360539812e-001
 4.1024865026e+000	 1.1227061728e+000	 3.6629911485e-001
 4.0906644331e+000	 1.1650445248e+000	 3.4984221646e-001
 4.0783718876e+000	 1.2073718243e+000	 3.3396851795e-001
 4.0656072171e+000	 1.2496806881e+000	 3.1823821577e-001
 4.1983949284e+000	 8.3181477909e-001	 4.9617816105e-001
 4.1897545619e+000	 8.7429514911e-001	 4.7619437152e-001
 4.1806562393e+000	 9.1681411906e-001	 4.5586919887e-001
 4.1710973595e+000	 9.5936485040e-001	 4.3561176511e-001
 4.1610754464e+000	 1.0019404119e+000	 4.1575721908e-001
 4.1505881524e+000	 1.0445337824e+000	 3.9655364103e-001
 4.1396332611e+000	 1.0871378530e+000	 3.7814934007e-001
 4.1282086910e+000	 1.1297454305e+000	 3.6057563381e-001
 4.1163124983e+000	 1.1723492399e+000	 3.4373196600e-001
 4.1039428797e+000	 1.2149419273e+000	 3.2736778919e-001
 4.0910981760e+000	 1.2575160636e+000	 3.1106350534e-001
 4.2245544357e+000	 8.3699767997e-001	 4.8909128055e-001
 4.2158602326e+000	 8.7974273818e-001	 4.6957628249e-001
 4.2067052198e+000	 9.2252663683e-001	 4.4959004691e-001
 4.1970867802e+000	 9.6534249477e-001	 4.2953073160e-001
 4.1870024222e+000	 1.0081833376e+000	 4.0972749828e-001
 4.1764497835e+000	 1.0510421003e+000	 3.9042743818e-001
 4.1654266342e+000	 1.0939116299e+000	 3.7178253560e-001
 4.1539308795e+000	 1.1367846882e+000	 3.5383289218e-001
 4.1419605635e+000	 1.1796539549e+000	 3.3649144994e-001
 4.1295138719e+000	 1.2225120303e+000	 3.1952593391e-001
 4.1165891349e+000	 1.2653514390e+000	 3.0253974762e-001
 4.2507139430e+000	 8.4218058085e-001	 4.8180653708e-001
 4.2419659032e+000	 8.8519032725e-001	 4.6274192025e-001
 4.2327542003e+000	 9.2823915460e-001	 4.4306342920e-001
 4.2230762008e+000	 9.7132013914e-001	 4.2316032701e-001
 4.2129293980e+000	 1.0144262633e+000	 4.0335766527e-001
 4.2023114147e+000	 1.0575504183e+000	 3.8390439317e-001
 4.1912200072e+000	 1.1006854068e+000	 3.6495772963e-001
 4.1796530679e+000	 1.1438239459e+000	 3.4656908897e-001
 4.1676086287e+000	 1.1869586699e+000	 3.2866732798e-001
 4.1550848640e+000	 1.2300821334e+000	 3.1104098501e-001
 4.1420800939e+000	 1.2731868145e+000	 2.9331915343e-001
 4.2768734503e+000	 8.4736348174e-001	 4.7454321899e-001
 4.2680715738e+000	 8.9063791633e-001	 4.5593530650e-001
 4.2588031807e+000	 9.3395167238e-001	 4.3656144365e-001
 4.2490656215e+000	 9.7729778351e-001	 4.1680406632e-001
 4.2388563737e+000	 1.0206691890e+000	 3.9698650563e-001
 4.2281730459e+000	 1.0640587363e+000	 3.7736078091e-001
 4.2170133802e+000	 1.1074591837e+000	 3.5809244445e-001
 4.2053752563e+000	 1.1508632036e+000	 3.3924614935e-001
 4.1932566939e+000	 1.1942633849e+000	 3.2076899560e-001
 4.1806558562e+000	 1.2376522364e+000	 3.0247277269e-001
 4.1675710528e+000	 1.2810221900e+000	 2.8401483501e-001
 4.3030329576e+000	 8.5254638262e-001	 4.6749395834e-001
 4.2941772444e+000	 8.9608550540e-001	 4.4937234350e-001
 4.2848521612e+000	 9.3966419015e-001	 4.3032671326e-001
 4.2750550421e+000	 9.8327542788e-001	 4.1073473604e-001
 4.2647833495e+000	 1.0269121147e+000	 3.9092007233e-001
 4.2540346771e+000	 1.0705670542e+000	 3.7113991973e-001
 4.2428067533e+000	 1.1142329606e+000	 3.5157025687e-001
 4.2310974448e+000	 1.1579024613e+000	 3.3229113664e-001
 4.2189047591e+000	 1.2015681000e+000	 3.1327013424e-001
 4.2062268484e+000	 1.2452223395e+000	 2.9434461597e-001
 4.1930620117e+000	 1.2888575655e+000	 2.7520264171e-001
 4.3291924649e+000	 8.5772928351e-001	 4.6082527295e-001
 4.3202829150e+000	 9.0153309447e-001	 4.4324146772e-001
 4.3109011417e+000	 9.4537670792e-001	 4.2457315528e-001
 4.3010444628e+000	 9.8925307225e-001	 4.0519528247e-001
 4.2907103253e+000	 1.0331550403e+000	 3.8543385759e-001
 4.2798963082e+000	 1.0770753722e+000	 3.6555330838e-001
 4.2686001263e+000	 1.1210067375e+000	 3.4574206455e-001
 4.2568196332e+000	 1.1649417191e+000	 3.2609765154e-001
 4.2445528243e+000	 1.2088728150e+000	 3.0661024638e-001
 4.2317978405e+000	 1.2527924425e+000	 2.8714499659e-001
 4.2185529706e+000	 1.2966929409e+000	 2.6742297568e-001
 4.3553519723e+000	 8.6291218439e-001	 4.5467811009e-001
 4.3463885857e+000	 9.0698068355e-001	 4.3770430347e-001
 4.3369501221e+000	 9.5108922569e-001	 4.1948674829e-001
 4.3270338835e+000	 9.9523071662e-001	 4.0039969587e-001
 4.3166373011e+000	 1.0393979660e+000	 3.8077348247e-001
 4.3057579394e+000	 1.0835836901e+000	 3.6088175483e-001
 4.2943934994e+000	 1.1277805145e+000	 3.4092734224e-001
 4.2825418216e+000	 1.1719809768e+000	 3.2102721880e-001
 4.2702008896e+000	 1.2161775300e+000	 3.0119617591e-001
 4.2573688327e+000	 1.2603625456e+000	 2.8132921602e-001
 4.2440439296e+000	 1.3045283164e+000	 2.6118258842e-001
 4.3815114796e+000	 8.6809508528e-001	 4.4916839186e-001
 4.3724942563e+000	 9.1242827262e-001	 4.3289631629e-001
 4.3629991026e+000	 9.5680174346e-001	 4.1522629732e-001
 4.3530233041e+000	 1.0012083610e+000	 3.9653389078e-001
 4.3425642768e+000	 1.0456408917e+000	 3.7715569592e-001
 4.3316195706e+000	 1.0900920081e+000	 3.5737649737e-001
 4.3201868724e+000	 1.1345542914e+000	 3.3741538819e-001
 4.3082640100e+000	 1.1790202345e+000	 3.1741066215e-001
 4.2958489548e+000	 1.2234822450e+000	 2.9740361453e-001
 4.2829398248e+000	 1.2679326486e+000	 2.7732103642e-001
 4.2695348885e+000	 1.3123636919e+000	 2.5695635899e-001
 4.0146252992e+000	 1.2340099371e+000	 3.2572499716e-001
 4.0015530051e+000	 1.2757626898e+000	 3.0860761360e-001
 3.9880116778e+000	 1.3174824442e+000	 2.8697466957e-001
 3.9740001227e+000	 1.3591617033e+000	 2.6029771774e-001
 3.9595172970e+000	 1.4007929095e+000	 2.3156596594e-001
 3.9445623121e+000	 1.4423684478e+000	 2.0151675198e-001
 3.9291344362e+000	 1.4838806500e+000	 1.7056332465e-001
 3.9132330963e+000	 1.5253217981e+000	 1.3911618624e-001
 3.8968578809e+000	 1.5666841286e+000	 1.0758373320e-001
 3.8800085414e+000	 1.6079598367e+000	 7.6371903651e-002
 3.8626849945e+000	 1.6491410796e+000	 4.5882814330e-002
 4.0401162582e+000	 1.2418453126e+000	 3.2337071291e-001
 4.0269609611e+000	 1.2838631754e+000	 3.0597704938e-001
 4.0133336529e+000	 1.3258478303e+000	 2.8401873406e-001
 3.9992331311e+000	 1.3677917329e+000	 2.5798649611e-001
 3.9846583464e+000	 1.4096872774e+000	 2.3051111457e-001
 3.9696084045e+000	 1.4515268006e+000	 2.0186640334e-001
 3.9540825688e+000	 1.4933025855e+000	 1.7234278338e-001
 3.9380802631e+000	 1.5350068651e+000	 1.4224004724e-001
 3.9216010728e+000	 1.5766318268e+000	 1.1186833048e-001
 3.9046447480e+000	 1.6181696159e+000	 8.1548008251e-002
 3.8872112048e+000	 1.6596123402e+000	 5.1608498077e-002
 4.0656072171e+000	 1.2496806881e+000	 3.1823821577e-001
 4.0523689172e+000	 1.2919636610e+000	 3.0041070229e-001
 4.0386556280e+000	 1.3342132165e+000	 2.7802442770e-001
 4.0244661395e+000	 1.3764217625e+000	 2.5210355072e-001
 4.0097993957e+000	 1.4185816454e+000	 2.2480218179e-001
 3.9946544968e+000	 1.4606851534e+000	 1.9692580137e-001
 3.9790307015e+000	 1.5027245210e+000	 1.6853216519e-001
 3.9629274298e+000	 1.5446919322e+000	 1.3968654367e-001
 3.9463442647e+000	 1.5865795250e+000	 1.1059629630e-001
 3.9292809546e+000	 1.6283793952e+000	 8.1490414072e-002
 3.9117374151e+000	 1.6700836007e+000	 5.2618459255e-002
 4.0910981760e+000	 1.2575160636e+000	 3.1106350534e-001
 4.0777768733e+000	 1.3000641465e+000	 2.9269129284e-001
 4.0639776031e+000	 1.3425786026e+000	 2.6994020628e-001
 4.0496991479e+000	 1.3850517921e+000	 2.4413187430e-001
 4.0349404451e+000	 1.4274760133e+000	 2.1675731555e-001
 4.0197005891e+000	 1.4698435062e+000	 1.8861228020e-001
 4.0039788341e+000	 1.5121464565e+000	 1.6046188978e-001
 3.9877745965e+000	 1.5543769993e+000	 1.3270619547e-001
 3.9710874566e+000	 1.5965272232e+000	 1.0494404934e-001
 3.9539171612e+000	 1.6385891745e+000	 7.7277372777e-002
 3.9362636255e+000	 1.6805548613e+000	 4.9868835218e-002
 4.1165891349e+000	 1.2653514390e+000	 3.0253974762e-001
 4.1031848294e+000	 1.3081646321e+000	 2.8355784803e-001
 4.0892995782e+000	 1.3509439888e+000	 2.6053281225e-001
 4.0749321563e+000	 1.3936818217e+000	 2.3480639166e-001
 4.0600814944e+000	 1.4363703812e+000	 2.0744708376e-001
 4.0447466814e+000	 1.4790018590e+000	 1.7919582360e-001
 4.0289269668e+000	 1.5215683920e+000	 1.5076853136e-001
 4.0126217632e+000	 1.5640620664e+000	 1.2285296942e-001
 3.9958306485e+000	 1.6064749214e+000	 9.6064960307e-002
 3.9785533678e+000	 1.6487989537e+000	 6.9964977698e-002
 3.9607898358e+000	 1.6910261218e+000	 4.4295007346e-002
 4.1420800939e+000	 1.2731868145e+000	 2.9331915343e-001
 4.1285927855e+000	 1.3162651177e+000	 2.7370772268e-001
 4.1146215533e+000	 1.3593093749e+000	 2.5047913325e-001
 4.1001651647e+000	 1.4023118513e+000	 2.2483173634e-001
 4.0852225438e+000	 1.4452647492e+000	 1.9758195432e-001
 4.0697927737e+000	 1.4881602118e+000	 1.6941866224e-001
 4.0538750995e+000	 1.5309903275e+000	 1.4100982890e-001
 4.0374689299e+000	 1.5737471334e+000	 1.1299945942e-001
 4.0205738404e+000	 1.6164226195e+000	 8.6004414570e-002
 4.0031895744e+000	 1.6590087330e+000	 6.0611106242e-002
 3.9853160462e+000	 1.7014973824e+000	 3.6810981255e-002
 4.1675710528e+000	 1.2810221900e+000	 2.8401483501e-001
 4.1540007416e+000	 1.3243656032e+000	 2.6379859651e-001
 4.1399435284e+000	 1.3676747611e+000	 2.4042809184e-001
 4.1253981731e+000	 1.4109418809e+000	 2.1488380255e-001
 4.1103635931e+000	 1.4541591171e+000	 1.8784342961e-001
 4.0948388660e+000	 1.4973185646e+000	 1.5994647205e-001
 4.0788232321e+000	 1.5404122631e+000	 1.3181414175e-001
 4.0623160966e+000	 1.5834322005e+000	 1.0404636644e-001
 4.0453170323e+000	 1.6263703177e+000	 7.7218673185e-002
 4.0278257810e+000	 1.6692185123e+000	 5.1878951144e-002
 4.0098422565e+000	 1.7119686430e+000	 2.8544090815e-002
 4.1930620117e+000	 1.2888575655e+000	 2.7520264171e-001
 4.1794086976e+000	 1.3324660888e+000	 2.5445044825e-001
 4.1652655035e+000	 1.3760401472e+000	 2.3100158254e-001
 4.1506311815e+000	 1.4195719105e+000	 2.0561072736e-001
 4.1355046425e+000	 1.4630534850e+000	 1.7888505795e-001
 4.1198849584e+000	 1.5064769174e+000	 1.5141731075e-001
 4.1037713648e+000	 1.5498341986e+000	 1.2378307925e-001
 4.0871632634e+000	 1.5931172676e+000	 9.6537853062e-002
 4.0700602242e+000	 1.6363180159e+000	 7.0213943893e-002
 4.0524619877e+000	 1.6794282915e+000	 4.5317296756e-002
 4.0343684668e+000	 1.7224399035e+000	 2.2324183014e-002
 4.2185529706e+000	 1.2966929409e+000	 2.6742297568e-001
 4.2048166537e+000	 1.3405665744e+000	 2.4625489938e-001
 4.1905874786e+000	 1.3844055334e+000	 2.2279538499e-001
 4.1758641899e+000	 1.4282019401e+000	 1.9763384812e-001
 4.1606456919e+000	 1.4719478530e+000	 1.7133342013e-001
 4.1449310507e+000	 1.5156352702e+000	 1.4444261804e-001
 4.1287194974e+000	 1.5592561341e+000	 1.1749249940e-001
 4.1120104301e+000	 1.6028023347e+000	 9.0993713548e-002
 4.0948034161e+000	 1.6462657141e+000	 6.5433448870e-002
 4.0770981943e+000	 1.6896380708e+000	 4.1272274083e-002
 4.0588946772e+000	 1.7329111641e+000	 1.8940869640e-002
 4.2440439296e+000	 1.3045283164e+000	 2.6118258842e-001
 4.2302246098e+000	 1.3486670600e+000	 2.3976022163e-001
 4.2159094537e+000	 1.3927709195e+000	 2.1638005448e-001
 4.2010971983e+000	 1.4368319697e+000	 1.9154863619e-001
 4.1857867412e+000	 1.4808422209e+000	 1.6578909182e-001
 4.1699771430e+000	 1.5247936230e+000	 1.3960819200e-001
 4.1536676301e+000	 1.5686780696e+000	 1.1349348446e-001
 4.1368575968e+000	 1.6124874017e+000	 8.7910333818e-002
 4.1195466080e+000	 1.6562134122e+000	 6.3298869470e-002
 4.1017344009e+000	 1.6998478501e+000	 4.0070839018e-002
 4.0834208875e+000	 1.7433824246e+000	 1.8606363048e-002
 4.2695348885e+000	 1.3123636919e+000	 2.5695635899e-001
 4.2556325659e+000	 1.3567675455e+000	 2.3546920077e-001
 4.2412314288e+000	 1.4011363057e+000	 2.1230179071e-001
 4.2263302067e+000	 1.4454619993e+000	 1.8792560808e-001
 4.2109277906e+000	 1.4897365888e+000	 1.6282758288e-001
 4.1950232353e+000	 1.5339519758e+000	 1.3747514258e-001
 4.1786157627e+000	 1.5781000051e+000	 1.1231329434e-001
 4.1617047635e+000	 1.6221724688e+000	 8.7761630496e-002
 4.1442897998e+000	 1.6661611104e+000	 6.4211256604e-002
 4.1263706075e+000	 1.7100576294e+000	 4.2021639685e-002
 4.1079470979e+000	 1.7538536852e+000	 2.1517371827e-002
 3.8626849945e+000	 1.6491410796e+000	 4.5882814330e-002
 3.8448900295e+000	 1.6902138288e+000	 1.8937009768e-002
 3.8266213383e+000	 1.7311763688e+000	-3.0349849043e-003
 3.8078793464e+000	 1.7720207765e+000	-2.1744188967e-002
 3.7886646509e+000	 1.8127391083e+000	-3.8953568859e-002
 3.7689780217e+000	 1.8533234054e+000	-5.6481284004e-002
 3.7488204029e+000	 1.8937656981e+000	-7.6204681182e-002
 3.7281929136e+000	 1.9340580104e+000	-1.0006496857e-001
 3.7070968488e+000	 1.9741923649e+000	-1.3007248823e-001
 3.6855336804e+000	 2.0141607875e+000	-1.6742132599e-001
 3.6635050572e+000	 2.0539553118e+000	-2.0366817266e-001
 3.8872112048e+000	 1.6596123402e+000	 5.1608498077e-002
 3.8693032502e+000	 1.7009458817e+000	 2.4654959411e-002
 3.8509185616e+000	 1.7421685144e+000	 2.0232063539e-003
 3.8320575670e+000	 1.7832722646e+000	-1.7879258831e-002
 3.8127208673e+000	 1.8242491384e+000	-3.6696484212e-002
 3.7929092374e+000	 1.8650911265e+000	-5.6127981046e-002
 3.7726236273e+000	 1.9057902084e+000	-7.7933447060e-002
 3.7518651633e+000	 1.9463383578e+000	-1.0393822690e-001
 3.7306351485e+000	 1.9867275464e+000	-1.3603942344e-001
 3.7089350642e+000	 2.0269497493e+000	-1.7313845943e-001
 3.6867665698e+000	 2.0669969500e+000	-2.0699138520e-001
 3.9117374151e+000	 1.6700836007e+000	 5.2618459255e-002
 3.8937164710e+000	 1.7116779347e+000	 2.6279937814e-002
 3.8752157849e+000	 1.7531606600e+000	 3.6161348792e-003
 3.8562357876e+000	 1.7945237527e+000	-1.6868760278e-002
 3.8367770837e+000	 1.8357591685e+000	-3.6720437803e-002
 3.8168404531e+000	 1.8768588475e+000	-5.7539025559e-002
 3.7964268517e+000	 1.9178147188e+000	-8.0984523885e-002
 3.7755374129e+000	 1.9586187052e+000	-1.0878303916e-001
 3.7541734482e+000	 1.9992627278e+000	-1.4273372478e-001
 3.7323364481e+000	 2.0397387112e+000	-1.7836322075e-001
 3.7100280824e+000	 2.0800385881e+000	-2.1017937459e-001
 3.9362636255e+000	 1.6805548613e+000	 4.9868835218e-002
 3.9181296918e+000	 1.7224099876e+000	 2.4641486746e-002
 3.8995130082e+000	 1.7641528056e+000	 2.4619403510e-003
 3.8804140082e+000	 1.8057752408e+000	-1.8090241177e-002
 3.8608333001e+000	 1.8472691986e+000	-3.8482428779e-002
 3.8407716688e+000	 1.8886265686e+000	-6.0234110801e-002
 3.8202300761e+000	 1.9298392292e+000	-8.4923023453e-002
 3.7992096626e+000	 1.9708990526e+000	-1.1419214591e-001
 3.7777117479e+000	 2.0117979092e+000	-1.4924156207e-001
 3.7557378319e+000	 2.0525276731e+000	-1.8288732902e-001
 3.7332895950e+000	 2.0930802263e+000	-2.1299663935e-001
 3.9607898358e+000	 1.6910261218e+000	 4.4295007346e-002
 3.9425429126e+000	 1.7331420406e+000	 2.0549833774e-002
 3.9238102315e+000	 1.7751449511e+000	-7.3954876346e-004
 3.9045922287e+000	 1.8170267289e+000	-2.0938999266e-002
 3.8848895166e+000	 1.8587792288e+000	-4.1457088656e-002
 3.8647028845e+000	 1.9003942897e+000	-6.3750890336e-002
 3.8440333006e+000	 1.9418637396e+000	-8.9332792196e-002
 3.8228819123e+000	 1.9831793999e+000	-1.1977824341e-001
 3.8012500476e+000	 2.0243330906e+000	-1.5465953701e-001
 3.7791392158e+000	 2.0653166350e+000	-1.8651910655e-001
 3.7565511076e+000	 2.1061218644e+000	-2.1522491047e-001
 3.9853160462e+000	 1.7014973824e+000	 3.6810981255e-002
 3.9669561334e+000	 1.7438740935e+000	 1.4795123264e-002
 3.9481074548e+000	 1.7861370967e+000	-5.3077218686e-003
 3.9287704493e+000	 1.8282782170e+000	-2.4829114505e-002
 3.9089457330e+000	 1.8702892589e+000	-4.5137827035e-002
 3.8886341002e+000	 1.9121620108e+000	-6.7646224377e-002
 3.8678365250e+000	 1.9538882500e+000	-9.3817745068e-002
 3.8465541619e+000	 1.9954597473e+000	-1.2517539166e-001
 3.8247883473e+000	 2.0368682721e+000	-1.5881777342e-001
 3.8025405996e+000	 2.0781055968e+000	-1.8908320570e-001
 3.7798126202e+000	 2.1191635026e+000	-2.1666285469e-001
 4.0098422565e+000	 1.7119686430e+000	 2.8544090815e-002
 3.9913693542e+000	 1.7546061465e+000	 8.1466343552e-003
 3.9724046781e+000	 1.7971292423e+000	-1.0582102841e-002
 3.9529486699e+000	 1.8395297051e+000	-2.9194488762e-002
 3.9330019494e+000	 1.8817992890e+000	-4.9037982485e-002
 3.9125653159e+000	 1.9239297319e+000	-7.1497429633e-002
 3.8916397494e+000	 1.9659127604e+000	-9.8003201739e-002
 3.8702264116e+000	 2.0077400947e+000	-1.2985991913e-001
 3.8483266470e+000	 2.0494034535e+000	-1.6156443769e-001
 3.8259419835e+000	 2.0908945587e+000	-1.9042033746e-001
 3.8030741328e+000	 2.1322051407e+000	-2.1712578038e-001
 4.0343684668e+000	 1.7224399035e+000	 2.2324183014e-002
 4.0157825750e+000	 1.7653381994e+000	 1.9559364376e-003
 3.9967019014e+000	 1.8081213878e+000	-1.5923276147e-002
 3.9771268904e+000	 1.8507811932e+000	-3.3489892504e-002
 3.9570581658e+000	 1.8933093192e+000	-5.2691978390e-002
 3.9364965315e+000	 1.9356974530e+000	-7.4903532512e-002
 3.9154429738e+000	 1.9779372708e+000	-1.0153722501e-001
 3.8938986613e+000	 2.0200204421e+000	-1.3292149447e-001
 3.8718649467e+000	 2.0619386349e+000	-1.6276335173e-001
 3.8493433673e+000	 2.1036835206e+000	-1.9038700172e-001
 3.8263356453e+000	 2.1452467789e+000	-2.1644534593e-001
 4.0588946772e+000	 1.7329111641e+000	 1.8940869640e-002
 4.0401957957e+000	 1.7760702524e+000	-1.2234904242e-003
 4.0209991247e+000	 1.8191135334e+000	-1.9659226875e-002
 4.0013051110e+000	 1.8620326814e+000	-3.7187751868e-002
 3.9811143822e+000	 1.9048193493e+000	-5.5656483538e-002
 3.9604277472e+000	 1.9474651741e+000	-7.7486525528e-002
 3.9392461982e+000	 1.9899617812e+000	-1.0409196134e-001
 3.9175709110e+000	 2.0323007895e+000	-1.3416356822e-001
 3.8954032465e+000	 2.0744738163e+000	-1.6229373372e-001
 3.8727447512e+000	 2.1164724825e+000	-1.8885521912e-001
 3.8495971579e+000	 2.1582884170e+000	-2.1446927046e-001
 4.0834208875e+000	 1.7433824246e+000	 1.8606363048e-002
 4.0646090165e+000	 1.7868023053e+000	-1.1040350312e-003
 4.0452963480e+000	 1.8301056790e+000	-1.9800371851e-002
 4.0254833316e+000	 1.8732841695e+000	-3.8283248205e-002
 4.0051705986e+000	 1.9163293794e+000	-5.7446642466e-002
 3.9843589629e+000	 1.9592328952e+000	-7.8892626785e-002
 3.9630494226e+000	 2.0019862916e+000	-1.0535557499e-001
 3.9412431606e+000	 2.0445811369e+000	-1.3347107415e-001
 3.9189415462e+000	 2.0870089978e+000	-1.6004994013e-001
 3.8961461350e+000	 2.1292614443e+000	-1.8571226446e-001
 3.8728586705e+000	 2.1713300552e+000	-2.1106104689e-001
 4.1079470979e+000	 1.7538536852e+000	 2.1517371827e-002
 4.0890222373e+000	 1.7975343583e+000	 2.3958054873e-003
 4.0695935713e+000	 1.8410978246e+000	-1.6339371290e-002
 4.0496615522e+000	 1.8845356576e+000	-3.5485834597e-002
 4.0292268150e+000	 1.9278394095e+000	-5.5926584583e-002
 4.0082901786e+000	 1.9710006163e+000	-7.8632597498e-002
 3.9868526470e+000	 2.0140108020e+000	-1.0464479079e-001
 3.9649154103e+000	 2.0568614843e+000	-1.3074410570e-001
 3.9424798459e+000	 2.0995441792e+000	-1.5594120896e-001
 3.9195475189e+000	 2.1420504062e+000	-1.8086040161e-001
 3.8961201831e+000	 2.1843716934e+000	-2.0609965718e-001
 3.6635050572e+000	 2.0539553118e+000	-2.0366817266e-001
 3.6410093978e+000	 2.0935739135e+000	-2.3703412102e-001
 3.6180519798e+000	 2.1330026723e+000	-2.6798788583e-001
 3.5946349899e+000	 2.1722336741e+000	-2.9684761959e-001
 3.5707607927e+000	 2.2112590326e+000	-3.2391256567e-001
 3.5464319309e+000	 2.2500708939e+000	-3.4946556699e-001
 3.5216511245e+000	 2.2886614419e+000	-3.7377607984e-001
 3.4964212704e+000	 2.3270229028e+000	-3.9710368145e-001
 3.4707454417e+000	 2.3651475504e+000	-4.1970205467e-001
 3.4446268869e+000	 2.4030277108e+000	-4.4182342743e-001
 3.4180690289e+000	 2.4406557675e+000	-4.6372343929e-001
 3.6867665698e+000	 2.0669969500e+000	-2.0699138520e-001
 3.6641280737e+000	 2.1068671109e+000	-2.3770993718e-001
 3.6410248870e+000	 2.1465462235e+000	-2.6571791055e-001
 3.6174592103e+000	 2.1860263235e+000	-2.9153534736e-001
 3.5934334234e+000	 2.2252994745e+000	-3.1566001209e-001
 3.5689500849e+000	 2.2643577727e+000	-3.3856957941e-001
 3.5440119321e+000	 2.3031933522e+000	-3.6072435346e-001
 3.5186218805e+000	 2.3417983901e+000	-3.8257050831e-001
 3.4927830225e+000	 2.3801651111e+000	-4.0454383307e-001
 3.4664986274e+000	 2.4182857924e+000	-4.2707395963e-001
 3.4397721396e+000	 2.4561527694e+000	-4.5058904533e-001
 3.7100280824e+000	 2.0800385881e+000	-2.1017937459e-001
 3.6872467495e+000	 2.1201603083e+000	-2.3871144455e-001
 3.6639977942e+000	 2.1600897748e+000	-2.6426428650e-001
 3.6402834308e+000	 2.1998189730e+000	-2.8752035971e-001
 3.6161060541e+000	 2.2393399163e+000	-3.0913701164e-001
 3.5914682389e+000	 2.2786446514e+000	-3.2974841971e-001
 3.5663727398e+000	 2.3177252626e+000	-3.4996809197e-001
 3.5408224906e+000	 2.3565738775e+000	-3.7039191666e-001
 3.5148206033e+000	 2.3951826718e+000	-3.9160174440e-001
 3.4883703678e+000	 2.4335438741e+000	-4.1416948100e-001
 3.4614752502e+000	 2.4716497713e+000	-4.3866166294e-001
 3.7332895950e+000	 2.0930802263e+000	-2.1299663935e-001
 3.7103654254e+000	 2.1334535057e+000	-2.3977077594e-001
 3.6869707013e+000	 2.1736333260e+000	-2.6333649893e-001
 3.6631076512e+000	 2.2136116224e+000	-2.8450000665e-001
 3.6387786847e+000	 2.2533803582e+000	-3.0404007437e-001
 3.6139863929e+000	 2.2929315301e+000	-3.2270982435e-001
 3.5887335475e+000	 2.3322571729e+000	-3.4123908296e-001
 3.5630231007e+000	 2.3713493648e+000	-3.6033731476e-001
 3.5368581841e+000	 2.4102002324e+000	-3.8069711771e-001
 3.5102421082e+000	 2.4488019558e+000	-4.0299825716e-001
 3.4831783609e+000	 2.4871467732e+000	-4.2791221013e-001
 3.7565511076e+000	 2.1061218644e+000	-2.1522491047e-001
 3.7334841012e+000	 2.1467467031e+000	-2.4063804416e-001
 3.7099436085e+000	 2.1871768773e+000	-2.6266251223e-001
 3.6859318717e+000	 2.2274042718e+000	-2.8219034972e-001
 3.6614513154e+000	 2.2674208001e+000	-3.0008436918e-001
 3.6365045468e+000	 2.3072184088e+000	-3.1717983271e-001
 3.6110943551e+000	 2.3467890832e+000	-3.3428673951e-001
 3.5852237108e+000	 2.3861248521e+000	-3.5219271939e-001
 3.5588957649e+000	 2.4252177931e+000	-3.7166651619e-001
 3.5321138487e+000	 2.4640600374e+000	-3.9346203823e-001
 3.5048814716e+000	 2.5026437751e+000	-4.1832294703e-001
 3.7798126202e+000	 2.1191635026e+000	-2.1666285469e-001
 3.7566027771e+000	 2.1600399005e+000	-2.4108101875e-001
 3.7329165157e+000	 2.2007204285e+000	-2.6198842858e-001
 3.7087560921e+000	 2.2411969213e+000	-2.8032581142e-001
 3.6841239461e+000	 2.2814612420e+000	-2.9700337363e-001
 3.6590227008e+000	 2.3215052875e+000	-3.1290244719e-001
 3.6334551628e+000	 2.3613209935e+000	-3.2887778126e-001
 3.6074243209e+000	 2.4009003395e+000	-3.4576046915e-001
 3.5809333458e+000	 2.4402353538e+000	-3.6436149431e-001
 3.5539855891e+000	 2.4793181191e+000	-3.8547587223e-001
 3.5265845823e+000	 2.5181407770e+000	-4.0988735826e-001
 3.8030741328e+000	 2.1322051407e+000	-2.1712578038e-001
 3.7797214530e+000	 2.1733330979e+000	-2.4088480641e-001
 3.7558894229e+000	 2.2142639798e+000	-2.6107815081e-001
 3.7315803126e+000	 2.2549895707e+000	-2.7865882931e-001
 3.7067965767e+000	 2.2955016839e+000	-2.9454852826e-001
 3.6815408548e+000	 2.3357921662e+000	-3.0963929765e-001
 3.6558159705e+000	 2.3758529038e+000	-3.2479591923e-001
 3.6296249310e+000	 2.4156758268e+000	-3.4085894030e-001
 3.6029709266e+000	 2.4552529145e+000	-3.5864835619e-001
 3.5758573295e+000	 2.4945762008e+000	-3.7896791761e-001
 3.5482876930e+000	 2.5336377790e+000	-4.0261003202e-001
 3.8263356453e+000	 2.1452467789e+000	-2.1644534593e-001
 3.8028401288e+000	 2.1866262953e+000	-2.3985153470e-001
 3.7788623301e+000	 2.2278075310e+000	-2.5971304939e-001
 3.7544045330e+000	 2.2687822201e+000	-2.7695951440e-001
 3.7294692074e+000	 2.3095421257e+000	-2.9248889547e-001
 3.7040590088e+000	 2.3500790449e+000	-3.0716931001e-001
 3.6781767781e+000	 2.3903848141e+000	-3.2184154400e-001
 3.6518255411e+000	 2.4304513141e+000	-3.3732226511e-001
 3.6250085074e+000	 2.4702704752e+000	-3.5440791484e-001
 3.5977290700e+000	 2.5098342824e+000	-3.7387925494e-001
 3.5699908036e+000	 2.5491347809e+000	-3.9650653603e-001
 3.8495971579e+000	 2.1582884170e+000	-2.1446927046e-001
 3.8259588047e+000	 2.1999194927e+000	-2.3780003917e-001
 3.8018352373e+000	 2.2413510823e+000	-2.5769163325e-001
 3.7772287535e+000	 2.2825748696e+000	-2.7501531395e-001
 3.7521418381e+000	 2.3235825676e+000	-2.9061082258e-001
 3.7265771628e+000	 2.3643659237e+000	-3.0528837882e-001
 3.7005375858e+000	 2.4049167245e+000	-3.1983141738e-001
 3.6740261512e+000	 2.4452268014e+000	-3.3500005252e-001
 3.6470460882e+000	 2.4852880359e+000	-3.5153525249e-001
 3.6196008104e+000	 2.5250923641e+000	-3.7016369787e-001
 3.5916939143e+000	 2.5646317828e+000	-3.9160329061e-001
 3.8728586705e+000	 2.1713300552e+000	-2.1106104689e-001
 3.8490774805e+000	 2.2132126902e+000	-2.3456555344e-001
 3.8248081445e+000	 2.2548946335e+000	-2.5482922440e-001
 3.8000529739e+000	 2.2963675190e+000	-2.7263067812e-001
 3.7748144687e+000	 2.3376230095e+000	-2.8871760908e-001
 3.7490953168e+000	 2.3786528024e+000	-3.0380904364e-001
 3.7228983934e+000	 2.4194486348e+000	-3.1859836713e-001
 3.6962267613e+000	 2.4600022888e+000	-3.3375711109e-001
 3.6690836690e+000	 2.5003055965e+000	-3.4993948183e-001
 3.6414725508e+000	 2.5403504458e+000	-3.6778760321e-001
 3.6133970250e+000	 2.5801287847e+000	-3.8793743881e-001
 3.8961201831e+000	 2.1843716934e+000	-2.0609965718e-001
 3.8721961564e+000	 2.2265058876e+000	-2.2999940246e-001
 3.8477810517e+000	 2.2684381848e+000	-2.5095763607e-001
 3.8228771944e+000	 2.3101601684e+000	-2.6962673071e-001
 3.7974870994e+000	 2.3516634514e+000	-2.8662917769e-001
 3.7716134707e+000	 2.3929396811e+000	-3.0256016906e-001
 3.7452592011e+000	 2.4339805451e+000	-3.1799098491e-001
 3.7184273714e+000	 2.4747777761e+000	-3.3347317406e-001
 3.6911212498e+000	 2.5153231572e+000	-3.4954350810e-001
 3.6633442912e+000	 2.5556085274e+000	-3.6672968044e-001
 3.6351001357e+000	 2.5956257866e+000	-3.8555671380e-001
 3.4180690289e+000	 2.4406557675e+000	-4.6372343929e-001
 3.3910754624e+000	 2.4780241655e+000	-4.8234683331e-001
 3.3636499503e+000	 2.5151254134e+000	-4.9306599111e-001
 3.3357964246e+000	 2.5519520908e+000	-4.9383400811e-001
 3.3075189860e+000	 2.5884968541e+000	-4.9103415447e-001
 3.2788219018e+000	 2.6247524410e+000	-4.9560392828e-001
 3.2497096041e+000	 2.6607116751e+000	-5.0743362521e-001
 3.2201866875e+000	 2.6963674709e+000	-5.2488402077e-001
 3.1902579069e+000	 2.7317128383e+000	-5.4470387004e-001
 3.1599281749e+000	 2.7667408867e+000	-5.6521949910e-001
 3.1292025590e+000	 2.8014448300e+000	-5.8454633667e-001
 3.4397721396e+000	 2.4561527694e+000	-4.5058904533e-001
 3.4126071768e+000	 2.4937584389e+000	-4.7249289327e-001
 3.3850075257e+000	 2.5310952621e+000	-4.8845655934e-001
 3.3569771434e+000	 2.5681557714e+000	-4.9636289922e-001
 3.3285201565e+000	 2.6049325766e+000	-4.9446182298e-001
 3.2996408595e+000	 2.6414183691e+000	-4.9447119867e-001
 3.2703437126e+000	 2.6776059272e+000	-5.0304238282e-001
 3.2406333396e+000	 2.7134881204e+000	-5.1729489172e-001
 3.2105145255e+000	 2.7490579140e+000	-5.3513699419e-001
 3.1799922140e+000	 2.7843083738e+000	-5.5490629106e-001
 3.1490715051e+000	 2.8192326707e+000	-5.7467560930e-001
 3.4614752502e+000	 2.4716497713e+000	-4.3866166294e-001
 3.4341388912e+000	 2.5094927124e+000	-4.6296475195e-001
 3.4063651012e+000	 2.5470651107e+000	-4.8312641805e-001
 3.3781578623e+000	 2.5843594519e+000	-4.9700680276e-001
 3.3495213271e+000	 2.6213682990e+000	-5.0254558055e-001
 3.3204598173e+000	 2.6580842972e+000	-4.9989760342e-001
 3.2909778211e+000	 2.6945001794e+000	-5.0319179043e-001
 3.2610799916e+000	 2.7306087699e+000	-5.1291225559e-001
 3.2307711440e+000	 2.7664029897e+000	-5.2762589384e-001
 3.2000562532e+000	 2.8018758610e+000	-5.4567757388e-001
 3.1689404513e+000	 2.8370205113e+000	-5.6513636012e-001
 3.4831783609e+000	 2.4871467732e+000	-4.2791221013e-001
 3.4556706056e+000	 2.5252269858e+000	-4.5381767852e-001
 3.4277226766e+000	 2.5630349594e+000	-4.7720183521e-001
 3.3993385811e+000	 2.6005631325e+000	-4.9594877596e-001
 3.3705224976e+000	 2.6378040214e+000	-5.0802276384e-001
 3.3412787750e+000	 2.6747502254e+000	-5.1141093741e-001
 3.3116119296e+000	 2.7113944315e+000	-5.0830473357e-001
 3.2815266437e+000	 2.7477294193e+000	-5.1218581603e-001
 3.2510277626e+000	 2.7837480654e+000	-5.2258636101e-001
 3.2201202924e+000	 2.8194433481e+000	-5.3789818859e-001
 3.1888093974e+000	 2.8548083520e+000	-5.5622456317e-001
 3.5048814716e+000	 2.5026437751e+000	-4.1832294703e-001
 3.4772023200e+000	 2.5409612592e+000	-4.4511609588e-001
 3.4490802521e+000	 2.5790048081e+000	-4.7081637028e-001
 3.4205192999e+000	 2.6167668131e+000	-4.9337765184e-001
 3.3915236682e+000	 2.6542397438e+000	-5.1083372868e-001
 3.3620977327e+000	 2.6914161535e+000	-5.2067911585e-001
 3.3322460381e+000	 2.7282886836e+000	-5.1880445899e-001
 3.3019732957e+000	 2.7648500688e+000	-5.1552164576e-001
 3.2712843811e+000	 2.8010931411e+000	-5.2039158738e-001
 3.2401843316e+000	 2.8370108352e+000	-5.3189186391e-001
 3.2086783436e+000	 2.8725961926e+000	-5.4819703889e-001
 3.5265845823e+000	 2.5181407770e+000	-4.0988735826e-001
 3.4987340343e+000	 2.5566955327e+000	-4.3693353406e-001
 3.4704378275e+000	 2.5949746568e+000	-4.6411088923e-001
 3.4417000187e+000	 2.6329704936e+000	-4.8948810578e-001
 3.4125248387e+000	 2.6706754662e+000	-5.1119810938e-001
 3.3829166905e+000	 2.7080820816e+000	-5.2581057914e-001
 3.3528801466e+000	 2.7451829358e+000	-5.3007039018e-001
 3.3224199478e+000	 2.7819707182e+000	-5.2328357390e-001
 3.2915409996e+000	 2.8184382168e+000	-5.2137356703e-001
 3.2602483708e+000	 2.8545783224e+000	-5.2794261947e-001
 3.2285472897e+000	 2.8903840333e+000	-5.4127284193e-001
 3.5482876930e+000	 2.5336377790e+000	-4.0261003202e-001
 3.5202657487e+000	 2.5724298061e+000	-4.2935257786e-001
 3.4917954030e+000	 2.6109445055e+000	-4.5723357169e-001
 3.4628807375e+000	 2.6491741742e+000	-4.8448071259e-001
 3.4335260093e+000	 2.6871111886e+000	-5.0902988536e-001
 3.4037356482e+000	 2.7247480097e+000	-5.2712627567e-001
 3.3735142551e+000	 2.7620771879e+000	-5.3635467329e-001
 3.3428665998e+000	 2.7990913677e+000	-5.3460137850e-001
 3.3117976182e+000	 2.8357832925e+000	-5.2582448774e-001
 3.2803124100e+000	 2.8721458095e+000	-5.2629615856e-001
 3.2484162359e+000	 2.9081718739e+000	-5.3563464030e-001
 3.5699908036e+000	 2.5491347809e+000	-3.9650653603e-001
 3.5417974631e+000	 2.5881640796e+000	-4.2246480909e-001
 3.5131529784e+000	 2.6269143542e+000	-4.5033991077e-001
 3.4840614564e+000	 2.6653778548e+000	-4.7856199447e-001
 3.4545271798e+000	 2.7035469110e+000	-5.0448077030e-001
 3.4245546059e+000	 2.7414139378e+000	-5.2495356039e-001
 3.3941483636e+000	 2.7789714400e+000	-5.3798329610e-001
 3.3633132518e+000	 2.8162120171e+000	-5.4162182803e-001
 3.3320542367e+000	 2.8531283682e+000	-5.3399811146e-001
 3.3003764491e+000	 2.8897132967e+000	-5.2716125109e-001
 3.2682851820e+000	 2.9259597146e+000	-5.3143008628e-001
 3.5916939143e+000	 2.5646317828e+000	-3.9160329061e-001
 3.5633291775e+000	 2.6038983530e+000	-4.1637074360e-001
 3.5345105539e+000	 2.6428842029e+000	-4.4359270567e-001
 3.5052421752e+000	 2.6815815353e+000	-4.7178060514e-001
 3.4755283504e+000	 2.7199826334e+000	-4.9785695992e-001
 3.4453735637e+000	 2.7580798659e+000	-5.1962567053e-001
 3.4147824721e+000	 2.7958656922e+000	-5.3530212326e-001
 3.3837599039e+000	 2.8333326666e+000	-5.4314237703e-001
 3.3523108553e+000	 2.8704734439e+000	-5.4145237541e-001
 3.3204404883e+000	 2.9072807838e+000	-5.3071110710e-001
 3.2881541282e+000	 2.9437475552e+000	-5.2877317924e-001
 3.6133970250e+000	 2.5801287847e+000	-3.8793743881e-001
 3.5848608919e+000	 2.6196326264e+000	-4.1117976324e-001
 3.5558681293e+000	 2.6588540516e+000	-4.3716204753e-001
 3.5264228940e+000	 2.6977852159e+000	-4.6416522586e-001
 3.4965295210e+000	 2.7364183558e+000	-4.8947085783e-001
 3.4661925214e+000	 2.7747457941e+000	-5.1148119111e-001
 3.4354165807e+000	 2.8127599443e+000	-5.2866188458e-001
 3.4042065559e+000	 2.8504533161e+000	-5.3951119115e-001
 3.3725674738e+000	 2.8878185197e+000	-5.4256886236e-001
 3.3405045275e+000	 2.9248482709e+000	-5.3642564888e-001
 3.3080230744e+000	 2.9615353959e+000	-5.2774562105e-001
 3.6351001357e+000	 2.5956257866e+000	-3.8555671380e-001
 3.6063926063e+000	 2.6353668999e+000	-4.0701004318e-001
 3.5772257048e+000	 2.6748239003e+000	-4.3118564454e-001
 3.5476036128e+000	 2.7139888964e+000	-4.5599421002e-001
 3.5175306915e+000	 2.7528540782e+000	-4.7964051575e-001
 3.4870114791e+000	 2.7914117222e+000	-5.0086351061e-001
 3.4560506892e+000	 2.8296541964e+000	-5.1841763699e-001
 3.4246532080e+000	 2.8675739655e+000	-5.3108067206e-001
 3.3928240923e+000	 2.9051635954e+000	-5.3766225160e-001
 3.3605685667e+000	 2.9424157581e+000	-5.3701303922e-001
 3.3278920205e+000	 2.9793232365e+000	-5.2839816394e-001
 3.1292025590e+000	 2.8014448300e+000	-5.8454633667e-001
 3.0980909760e+000	 2.8358128606e+000	-6.0221518685e-001
 3.0665942160e+000	 2.8698436485e+000	-6.1902671564e-001
 3.0347177951e+000	 2.9035307518e+000	-6.3463180528e-001
 3.0024673720e+000	 2.9368678494e+000	-6.4845527151e-001
 2.9698487452e+000	 2.9698487452e+000	-6.5972360595e-001
 2.9368678494e+000	 3.0024673720e+000	-6.6749343789e-001
 2.9035307518e+000	 3.0347177951e+000	-6.7068046020e-001
 2.8698436485e+000	 3.0665942160e+000	-6.6808856421e-001
 2.8358128606e+000	 3.0980909760e+000	-6.5843893196e-001
 2.8014448300e+000	 3.1292025590e+000	-6.4039883863e-001
 3.1490715051e+000	 2.8192326707e+000	-5.7467560930e-001
 3.1177623784e+000	 2.8538189218e+000	-5.9339165553e-001
 3.0860656290e+000	 2.8880657891e+000	-6.1127698679e-001
 3.0539868080e+000	 2.9219667895e+000	-6.2793569583e-001
 3.0215316100e+000	 2.9555155617e+000	-6.4273819755e-001
 2.9887058705e+000	 2.9887058705e+000	-6.5485027328e-001
 2.9555155617e+000	 3.0215316100e+000	-6.6326284571e-001
 2.9219667895e+000	 3.0539868080e+000	-6.6682221780e-001
 2.8880657891e+000	 3.0860656290e+000	-6.6426051011e-001
 2.8538189218e+000	 3.1177623784e+000	-6.5422603414e-001
 2.8192326707e+000	 3.1490715051e+000	-6.3531334437e-001
 3.1689404513e+000	 2.8370205113e+000	-5.6513636012e-001
 3.1374337808e+000	 2.8718249831e+000	-5.8437538381e-001
 3.1055370420e+000	 2.9062879297e+000	-6.0300256945e-001
 3.0732558209e+000	 2.9404028271e+000	-6.2054276618e-001
 3.0405958481e+000	 2.9741632741e+000	-6.3628003052e-001
 3.0075629958e+000	 3.0075629958e+000	-6.4928807833e-001
 2.9741632741e+000	 3.0405958481e+000	-6.5846147667e-001
 2.9404028271e+000	 3.0732558209e+000	-6.6254729767e-001
 2.9062879297e+000	 3.1055370420e+000	-6.6017695743e-001
 2.8718249831e+000	 3.1374337808e+000	-6.4989796651e-001
 2.8370205113e+000	 3.1689404513e+000	-6.3020532398e-001
 3.1888093974e+000	 2.8548083520e+000	-5.5622456317e-001
 3.1571051832e+000	 2.8898310444e+000	-5.7538878959e-001
 3.1250084550e+000	 2.9245100703e+000	-5.9436171077e-001
 3.0925248338e+000	 2.9588388648e+000	-6.1255691284e-001
 3.0596600862e+000	 2.9928109864e+000	-6.2914056400e-001
 3.0264201211e+000	 3.0264201211e+000	-6.4306338068e-001
 2.9928109864e+000	 3.0596600862e+000	-6.5309334138e-001
 2.9588388648e+000	 3.0925248338e+000	-6.5784885820e-001
 2.9245100703e+000	 3.1250084550e+000	-6.5583211737e-001
 2.8898310444e+000	 3.1571051832e+000	-6.4546230374e-001
 2.8548083520e+000	 3.1888093974e+000	-6.2510843014e-001
 3.2086783436e+000	 2.8725961926e+000	-5.4819703889e-001
 3.1767765856e+000	 2.9078371057e+000	-5.6661723000e-001
 3.1444798680e+000	 2.9427322108e+000	-5.8547746689e-001
 3.1117938467e+000	 2.9772749024e+000	-6.0404846878e-001
 3.0787243242e+000	 3.0114586987e+000	-6.2134739416e-001
 3.0452772465e+000	 3.0452772465e+000	-6.3617142895e-001
 3.0114586987e+000	 3.0787243242e+000	-6.4713212818e-001
 2.9772749024e+000	 3.1117938467e+000	-6.5269020890e-001
 2.9427322108e+000	 3.1444798680e+000	-6.5119049330e-001
 2.9078371057e+000	 3.1767765856e+000	-6.4089670504e-001
 2.8725961926e+000	 3.2086783436e+000	-6.2002582796e-001
 3.2285472897e+000	 2.8903840333e+000	-5.4127284193e-001
 3.1964479881e+000	 2.9258431670e+000	-5.5821036828e-001
 3.1639512810e+000	 2.9609543514e+000	-5.7643905418e-001
 3.1310628596e+000	 2.9957109400e+000	-5.9505554442e-001
 3.0977885623e+000	 3.0301064111e+000	-6.1289725652e-001
 3.0641343718e+000	 3.0641343718e+000	-6.2857769942e-001
 3.0301064111e+000	 3.0977885623e+000	-6.4052255008e-001
 2.9957109400e+000	 3.1310628596e+000	-6.4700617248e-001
 2.9609543514e+000	 3.1639512810e+000	-6.4618826527e-001
 2.9258431670e+000	 3.1964479881e+000	-6.3615032859e-001
 2.8903840333e+000	 3.2285472897e+000	-6.1493164710e-001
 3.2484162359e+000	 2.9081718739e+000	-5.3563464030e-001
 3.2161193905e+000	 2.9438492282e+000	-5.5028353398e-001
 3.1834226940e+000	 2.9791764920e+000	-5.6730319519e-001
 3.1503318725e+000	 3.0141469777e+000	-5.8558536478e-001
 3.1168528004e+000	 3.0487541234e+000	-6.0375735973e-001
 3.0829914971e+000	 3.0829914971e+000	-6.2021923241e-001
 3.0487541234e+000	 3.1168528004e+000	-6.3318169004e-001
 3.0141469777e+000	 3.1503318725e+000	-6.4070444559e-001
 2.9791764920e+000	 3.1834226940e+000	-6.4073467295e-001
 2.9438492282e+000	 3.2161193905e+000	-6.3114524384e-001
 2.9081718739e+000	 3.2484162359e+000	-6.0977243107e-001
 3.2682851820e+000	 2.9259597146e+000	-5.3143008628e-001
 3.2357907929e+000	 2.9618552895e+000	-5.4291907638e-001
 3.2028941070e+000	 2.9973986326e+000	-5.5809545955e-001
 3.1696008853e+000	 3.0325830153e+000	-5.7561560268e-001
 3.1359170384e+000	 3.0674018357e+000	-5.9386671657e-001
 3.1018486224e+000	 3.1018486224e+000	-6.1100596665e-001
 3.0674018357e+000	 3.1359170384e+000	-6.2500034461e-001
 3.0325830153e+000	 3.1696008853e+000	-6.3366695803e-001
 2.9973986326e+000	 3.2028941070e+000	-6.3471339704e-001
 2.9618552895e+000	 3.2357907929e+000	-6.2577784199e-001
 2.9259597146e+000	 3.2682851820e+000	-6.0446858372e-001
 3.2881541282e+000	 2.9437475552e+000	-5.2877317924e-001
 3.2554621953e+000	 2.9798613508e+000	-5.3616771175e-001
 3.2223655200e+000	 3.0156207731e+000	-5.4881159996e-001
 3.1888698982e+000	 3.0510190530e+000	-5.6509570839e-001
 3.1549812765e+000	 3.0860495481e+000	-5.8313747221e-001
 3.1207057477e+000	 3.1207057477e+000	-6.0082207166e-001
 3.0860495481e+000	 3.1549812765e+000	-6.1584436617e-001
 3.0510190530e+000	 3.1888698982e+000	-6.2575123074e-001
 3.0156207731e+000	 3.2223655200e+000	-6.2798393921e-001
 2.9798613508e+000	 3.2554621953e+000	-6.1992024442e-001
 2.9437475552e+000	 3.2881541282e+000	-5.9891581316e-001
 3.3080230744e+000	 2.9615353959e+000	-5.2774562105e-001
 3.2751335977e+000	 2.9978674121e+000	-5.3004986452e-001
 3.2418369329e+000	 3.0338429137e+000	-5.3941888354e-001
 3.2081389111e+000	 3.0694550906e+000	-5.5394823572e-001
 3.1740455146e+000	 3.1046972604e+000	-5.7145623002e-001
 3.1395628730e+000	 3.1395628730e+000	-5.8952727831e-001
 3.1046972604e+000	 3.1740455146e+000	-6.0555600362e-001
 3.0694550906e+000	 3.2081389111e+000	-6.1679173240e-001
 3.0338429137e+000	 3.2418369329e+000	-6.2038300069e-001
 2.9978674121e+000	 3.2751335977e+000	-6.1342170948e-001
 2.9615353959e+000	 3.3080230744e+000	-5.9298657314e-001
 3.3278920205e+000	 2.9793232365e+000	-5.2839816394e-001
 3.2948050001e+000	 3.0158734733e+000	-5.2455700264e-001
 3.2613083459e+000	 3.0520650543e+000	-5.2985741871e-001
 3.2274079240e+000	 3.0878911282e+000	-5.4207016477e-001
 3.1931097526e+000	 3.1233449728e+000	-5.5868537478e-001
 3.1584199984e+000	 3.1584199984e+000	-5.7695820751e-001
 3.1233449728e+000	 3.1931097526e+000	-5.9395524175e-001
 3.0878911282e+000	 3.2274079240e+000	-6.0660123491e-001
 3.0520650543e+000	 3.2613083459e+000	-6.1172585946e-001
 3.0158734733e+000	 3.2948050001e+000	-6.0611003739e-001
 2.9793232365e+000	 3.3278920205e+000	-5.8653150197e-001
 2.8014448300e+000	 3.1292025590e+000	-6.4039883863e-001
 2.7667408867e+000	 3.1599281749e+000	-6.2404197246e-001
 2.7317128383e+000	 3.1902579069e+000	-6.1883050383e-001
 2.6963674709e+000	 3.2201866875e+000	-6.2251641527e-001
 2.6607116751e+000	 3.2497096041e+000	-6.3279372571e-001
 2.6247524410e+000	 3.2788219018e+000	-6.4213089599e-001
 2.5884968541e+000	 3.3075189860e+000	-6.4682790492e-001
 2.5519520908e+000	 3.3357964246e+000	-6.4663822682e-001
 2.5151254134e+000	 3.3636499503e+000	-6.4294755466e-001
 2.4780241655e+000	 3.3910754624e+000	-6.3633646762e-001
 2.4406557675e+000	 3.4180690289e+000	-6.2619727510e-001
 2.8192326707e+000	 3.1490715051e+000	-6.3531334437e-001
 2.7843083738e+000	 3.1799922140e+000	-6.1767010121e-001
 2.7490579140e+000	 3.2105145255e+000	-6.1089962406e-001
 2.7134881204e+000	 3.2406333396e+000	-6.1278298712e-001
 2.6776059272e+000	 3.2703437126e+000	-6.2117231849e-001
 2.6414183691e+000	 3.2996408595e+000	-6.3199136763e-001
 2.6049325766e+000	 3.3285201565e+000	-6.3817894600e-001
 2.5681557714e+000	 3.3569771434e+000	-6.4021080058e-001
 2.5310952621e+000	 3.3850075257e+000	-6.3960692397e-001
 2.4937584389e+000	 3.4126071768e+000	-6.3578781187e-001
 2.4561527694e+000	 3.4397721396e+000	-6.2822051415e-001
 2.8370205113e+000	 3.1689404513e+000	-6.3020532398e-001
 2.8018758610e+000	 3.2000562532e+000	-6.1128150957e-001
 2.7664029897e+000	 3.2307711440e+000	-6.0286217816e-001
 2.7306087699e+000	 3.2610799916e+000	-6.0277701408e-001
 2.6945001794e+000	 3.2909778211e+000	-6.0892833427e-001
 2.6580842972e+000	 3.3204598173e+000	-6.1909412357e-001
 2.6213682990e+000	 3.3495213271e+000	-6.2686876577e-001
 2.5843594519e+000	 3.3781578623e+000	-6.3197065803e-001
 2.5470651107e+000	 3.4063651012e+000	-6.3414165455e-001
 2.5094927124e+000	 3.4341388912e+000	-6.3285126567e-001
 2.4716497713e+000	 3.4614752502e+000	-6.2766050192e-001
 2.8548083520e+000	 3.1888093974e+000	-6.2510843014e-001
 2.8194433481e+000	 3.2201202924e+000	-6.0494078016e-001
 2.7837480654e+000	 3.2510277626e+000	-5.9481011321e-001
 2.7477294193e+000	 3.2815266437e+000	-5.9261384074e-001
 2.7113944315e+000	 3.3116119296e+000	-5.9632352487e-001
 2.6747502254e+000	 3.3412787750e+000	-6.0415324455e-001
 2.6378040214e+000	 3.3705224976e+000	-6.1459572919e-001
 2.6005631325e+000	 3.3993385811e+000	-6.2247487173e-001
 2.5630349594e+000	 3.4277226766e+000	-6.2710709581e-001
 2.5252269858e+000	 3.4556706056e+000	-6.2807580360e-001
 2.4871467732e+000	 3.4831783609e+000	-6.2505495643e-001
 2.8725961926e+000	 3.2086783436e+000	-6.2002582796e-001
 2.8370108352e+000	 3.2401843316e+000	-5.9868126109e-001
 2.8010931411e+000	 3.2712843811e+000	-5.8680342395e-001
 2.7648500688e+000	 3.3019732957e+000	-5.8237617700e-001
 2.7282886836e+000	 3.3322460381e+000	-5.8345900789e-001
 2.6914161535e+000	 3.3620977327e+000	-5.9007611510e-001
 2.6542397438e+000	 3.3915236682e+000	-6.0189834251e-001
 2.6167668131e+000	 3.4205192999e+000	-6.1221850347e-001
 2.5790048081e+000	 3.4490802521e+000	-6.1899609284e-001
 2.5409612592e+000	 3.4772023200e+000	-6.2194750657e-001
 2.5026437751e+000	 3.5048814716e+000	-6.2087842617e-001
 2.8903840333e+000	 3.2285472897e+000	-6.1493164710e-001
 2.8545783224e+000	 3.2602483708e+000	-5.9250655761e-001
 2.8184382168e+000	 3.2915409996e+000	-5.7887167948e-001
 2.7819707182e+000	 3.3224199478e+000	-5.7211565480e-001
 2.7451829358e+000	 3.3528801466e+000	-5.7130494911e-001
 2.7080820816e+000	 3.3829166905e+000	-5.7763730294e-001
 2.6706754662e+000	 3.4125248387e+000	-5.8924753609e-001
 2.6329704936e+000	 3.4417000187e+000	-6.0163634717e-001
 2.5949746568e+000	 3.4704378275e+000	-6.1024072579e-001
 2.5566955327e+000	 3.4987340343e+000	-6.1489129125e-001
 2.5181407770e+000	 3.5265845823e+000	-6.1554400273e-001
 2.9081718739e+000	 3.2484162359e+000	-6.0977243107e-001
 2.8721458095e+000	 3.2803124100e+000	-5.8639202005e-001
 2.8357832925e+000	 3.3117976182e+000	-5.7101554530e-001
 2.7990913677e+000	 3.3428665998e+000	-5.6207722531e-001
 2.7620771879e+000	 3.3735142551e+000	-5.6105205790e-001
 2.7247480097e+000	 3.4037356482e+000	-5.6698039259e-001
 2.6871111886e+000	 3.4335260093e+000	-5.7784135275e-001
 2.6491741742e+000	 3.4628807375e+000	-5.9110466468e-001
 2.6109445055e+000	 3.4917954030e+000	-6.0121404234e-001
 2.5724298061e+000	 3.5202657487e+000	-6.0727263271e-001
 2.5336377790e+000	 3.5482876930e+000	-6.0940502704e-001
 2.9259597146e+000	 3.2682851820e+000	-6.0446858372e-001
 2.8897132967e+000	 3.3003764491e+000	-5.8028622798e-001
 2.8531283682e+000	 3.3320542367e+000	-5.6320830083e-001
 2.8162120171e+000	 3.3633132518e+000	-5.5380147912e-001
 2.7789714400e+000	 3.3941483636e+000	-5.5278393887e-001
 2.7414139378e+000	 3.4245546059e+000	-5.5819847942e-001
 2.7035469110e+000	 3.4545271798e+000	-5.6817168672e-001
 2.6653778548e+000	 3.4840614564e+000	-5.8094291505e-001
 2.6269143542e+000	 3.5131529784e+000	-5.9223178349e-001
 2.5881640796e+000	 3.5417974631e+000	-5.9939928057e-001
 2.5491347809e+000	 3.5699908036e+000	-6.0275678934e-001
 2.9437475552e+000	 3.2881541282e+000	-5.9891581316e-001
 2.9072807838e+000	 3.3204404883e+000	-5.7411247101e-001
 2.8704734439e+000	 3.3523108553e+000	-5.5630616790e-001
 2.8333326666e+000	 3.3837599039e+000	-5.4759167603e-001
 2.7958656922e+000	 3.4147824721e+000	-5.4653433528e-001
 2.7580798659e+000	 3.4453735637e+000	-5.5133660327e-001
 2.7199826334e+000	 3.4755283504e+000	-5.6029049889e-001
 2.6815815353e+000	 3.5052421752e+000	-5.7180657120e-001
 2.6428842029e+000	 3.5345105539e+000	-5.8355410301e-001
 2.6038983530e+000	 3.5633291775e+000	-5.9152296885e-001
 2.5646317828e+000	 3.5916939143e+000	-5.9583822326e-001
 2.9615353959e+000	 3.3080230744e+000	-5.9298657314e-001
 2.9248482709e+000	 3.3405045275e+000	-5.6790262742e-001
 2.8878185197e+000	 3.3725674738e+000	-5.5140031506e-001
 2.8504533161e+000	 3.4042065559e+000	-5.4342202678e-001
 2.8127599443e+000	 3.4354165807e+000	-5.4229211414e-001
 2.7747457941e+000	 3.4661925214e+000	-5.4639417655e-001
 2.7364183558e+000	 3.4965295210e+000	-5.5420337400e-001
 2.6977852159e+000	 3.5264228940e+000	-5.6431593913e-001
 2.6588540516e+000	 3.5558681293e+000	-5.7538728063e-001
 2.6196326264e+000	 3.5848608919e+000	-5.8384111989e-001
 2.5801287847e+000	 3.6133970250e+000	-5.8883359420e-001
 2.9793232365e+000	 3.3278920205e+000	-5.8653150197e-001
 2.9424157581e+000	 3.3605685667e+000	-5.6303531197e-001
 2.9051635954e+000	 3.3928240923e+000	-5.4840933520e-001
 2.8675739655e+000	 3.4246532080e+000	-5.4122500831e-001
 2.8296541964e+000	 3.4560506892e+000	-5.4000367831e-001
 2.7914117222e+000	 3.4870114791e+000	-5.4332740677e-001
 2.7528540782e+000	 3.5175306915e+000	-5.4987194776e-001
 2.7139888964e+000	 3.5476036128e+000	-5.5843679494e-001
 2.6748239003e+000	 3.5772257048e+000	-5.6797210814e-001
 2.6353668999e+000	 3.6063926063e+000	-5.7649854251e-001
 2.5956257866e+000	 3.6351001357e+000	-5.8187418226e-001
 2.4406557675e+000	 3.4180690289e+000	-6.2619727510e-001
 2.4030277108e+000	 3.4446268869e+000	-6.1135058190e-001
 2.3651475504e+000	 3.4707454417e+000	-5.9202051654e-001
 2.3270229028e+000	 3.4964212704e+000	-5.6981403167e-001
 2.2886614419e+000	 3.5216511245e+000	-5.4638555792e-001
 2.2500708939e+000	 3.5464319309e+000	-5.2343764600e-001
 2.2112590326e+000	 3.5707607927e+000	-5.0272038653e-001
 2.1722336741e+000	 3.5946349899e+000	-4.8602963858e-001
 2.1330026723e+000	 3.6180519798e+000	-4.7520411023e-001
 2.0935739135e+000	 3.6410093978e+000	-4.7212134538e-001
 2.0539553118e+000	 3.6635050572e+000	-4.7869268190e-001
 2.4561527694e+000	 3.4397721396e+000	-6.2822051415e-001
 2.4182857924e+000	 3.4664986274e+000	-6.1539936504e-001
 2.3801651111e+000	 3.4927830225e+000	-5.9720111552e-001
 2.3417983901e+000	 3.5186218805e+000	-5.7527617558e-001
 2.3031933522e+000	 3.5440119321e+000	-5.5132301440e-001
 2.2643577727e+000	 3.5689500849e+000	-5.2708868951e-001
 2.2252994745e+000	 3.5934334234e+000	-5.0436809600e-001
 2.1860263235e+000	 3.6174592103e+000	-4.8500196947e-001
 2.1465462235e+000	 3.6410248870e+000	-4.7087368839e-001
 2.1068671109e+000	 3.6641280737e+000	-4.6390493401e-001
 2.0669969500e+000	 3.6867665698e+000	-4.6605027615e-001
 2.4716497713e+000	 3.4614752502e+000	-6.2766050192e-001
 2.4335438741e+000	 3.4883703678e+000	-6.1675782109e-001
 2.3951826718e+000	 3.5148206033e+000	-5.9967255164e-001
 2.3565738775e+000	 3.5408224906e+000	-5.7808721947e-001
 2.3177252626e+000	 3.5663727398e+000	-5.5373352331e-001
 2.2786446514e+000	 3.5914682389e+000	-5.2839276226e-001
 2.2393399163e+000	 3.6161060541e+000	-5.0389492221e-001
 2.1998189730e+000	 3.6402834308e+000	-4.8211645729e-001
 2.1600897748e+000	 3.6639977942e+000	-4.6497681516e-001
 2.1201603083e+000	 3.6872467495e+000	-4.5443376743e-001
 2.0800385881e+000	 3.7100280824e+000	-4.5247761785e-001
 2.4871467732e+000	 3.4831783609e+000	-6.2505495643e-001
 2.4488019558e+000	 3.5102421082e+000	-6.1595263177e-001
 2.4102002324e+000	 3.5368581841e+000	-5.9995618182e-001
 2.3713493648e+000	 3.5630231007e+000	-5.7876927976e-001
 2.3322571729e+000	 3.5887335475e+000	-5.5414642376e-001
 2.2929315301e+000	 3.6139863929e+000	-5.2789327335e-001
 2.2533803582e+000	 3.6387786847e+000	-5.0186558015e-001
 2.2136116224e+000	 3.6631076512e+000	-4.7796675127e-001
 2.1736333260e+000	 3.6869707013e+000	-4.5814409744e-001
 2.1334535057e+000	 3.7103654254e+000	-4.4438383074e-001
 2.0930802263e+000	 3.7332895950e+000	-4.3870488861e-001
 2.5026437751e+000	 3.5048814716e+000	-6.2087842617e-001
 2.4640600374e+000	 3.5321138487e+000	-6.1344702466e-001
 2.4252177931e+000	 3.5588957649e+000	-5.9850948429e-001
 2.3861248521e+000	 3.5852237108e+000	-5.7778002618e-001
 2.3467890832e+000	 3.6110943551e+000	-5.5302589339e-001
 2.3072184088e+000	 3.6365045468e+000	-5.2606760623e-001
 2.2674208001e+000	 3.6614513154e+000	-4.9877774348e-001
 2.2274042718e+000	 3.6859318717e+000	-4.7307829035e-001
 2.1871768773e+000	 3.7099436085e+000	-4.5093660854e-001
 2.1467467031e+000	 3.7334841012e+000	-4.3436009697e-001
 2.1061218644e+000	 3.7565511076e+000	-4.2538962410e-001
 2.5181407770e+000	 3.5265845823e+000	-6.1554400273e-001
 2.4793181191e+000	 3.5539855891e+000	-6.0964246607e-001
 2.4402353538e+000	 3.5809333458e+000	-5.9572773301e-001
 2.4009003395e+000	 3.6074243209e+000	-5.7551433892e-001
 2.3613209935e+000	 3.6334551628e+000	-5.5077258994e-001
 2.3215052875e+000	 3.6590227008e+000	-5.2332874654e-001
 2.2814612420e+000	 3.6841239461e+000	-4.9506366063e-001
 2.2411969213e+000	 3.7087560921e+000	-4.6790990991e-001
 2.2007204285e+000	 3.7329165157e+000	-4.4384748797e-001
 2.1600399005e+000	 3.7566027771e+000	-4.2489812273e-001
 2.1191635026e+000	 3.7798126202e+000	-4.1311830849e-001
 2.5336377790e+000	 3.5482876930e+000	-6.0940502704e-001
 2.4945762008e+000	 3.5758573295e+000	-6.0488034793e-001
 2.4552529145e+000	 3.6029709266e+000	-5.9194566616e-001
 2.4156758268e+000	 3.6296249310e+000	-5.7230596009e-001
 2.3758529038e+000	 3.6558159705e+000	-5.4772528715e-001
 2.3357921662e+000	 3.6815408548e+000	-5.2002690410e-001
 2.2955016839e+000	 3.7067965767e+000	-4.9109176485e-001
 2.2549895707e+000	 3.7315803126e+000	-4.6285544198e-001
 2.2142639798e+000	 3.7558894229e+000	-4.3730353420e-001
 2.1733330979e+000	 3.7797214530e+000	-4.1646563607e-001
 2.1322051407e+000	 3.8030741328e+000	-4.0240796025e-001
 2.5491347809e+000	 3.5699908036e+000	-6.0275678934e-001
 2.5098342824e+000	 3.5977290700e+000	-5.9944366877e-001
 2.4702704752e+000	 3.6250085074e+000	-5.8743914903e-001
 2.4304513141e+000	 3.6518255411e+000	-5.6842913970e-001
 2.3903848141e+000	 3.6781767781e+000	-5.4416250512e-001
 2.3500790449e+000	 3.7040590088e+000	-5.1645112933e-001
 2.3095421257e+000	 3.7294692074e+000	-4.8716827841e-001
 2.2687822201e+000	 3.7544045330e+000	-4.5824530927e-001
 2.2278075310e+000	 3.7788623301e+000	-4.3166679066e-001
 2.1866262953e+000	 3.8028401288e+000	-4.0946411696e-001
 2.1452467789e+000	 3.8263356453e+000	-3.9370770972e-001
 2.5646317828e+000	 3.5916939143e+000	-5.9583822326e-001
 2.5250923641e+000	 3.6196008104e+000	-5.9355870909e-001
 2.4852880359e+000	 3.6470460882e+000	-5.8242683161e-001
 2.4452268014e+000	 3.6740261512e+000	-5.6410027644e-001
 2.4049167245e+000	 3.7005375858e+000	-5.4030413562e-001
 2.3643659237e+000	 3.7265771628e+000	-5.1283092443e-001
 2.3235825676e+000	 3.7521418381e+000	-4.8353881134e-001
 2.2825748696e+000	 3.7772287535e+000	-4.5434811328e-001
 2.2413510823e+000	 3.8018352373e+000	-4.2723612541e-001
 2.1999194927e+000	 3.8259588047e+000	-4.0423037067e-001
 2.1582884170e+000	 3.8495971579e+000	-3.8740036874e-001
 2.5801287847e+000	 3.6133970250e+000	-5.8883359420e-001
 2.5403504458e+000	 3.6414725508e+000	-5.8739670142e-001
 2.5003055965e+000	 3.6690836690e+000	-5.7707180102e-001
 2.4600022888e+000	 3.6962267613e+000	-5.5947955346e-001
 2.4194486348e+000	 3.7228983934e+000	-5.3631306225e-001
 2.3786528024e+000	 3.7490953168e+000	-5.0933784932e-001
 2.3376230095e+000	 3.7748144687e+000	-4.8038995474e-001
 2.2963675190e+000	 3.8000529739e+000	-4.5137221670e-001
 2.2548946335e+000	 3.8248081445e+000	-4.2424880451e-001
 2.2132126902e+000	 3.8490774805e+000	-4.0103809437e-001
 2.1713300552e+000	 3.8728586705e+000	-3.8380399276e-001
 2.5956257866e+000	 3.6351001357e+000	-5.8187418226e-001
 2.5556085274e+000	 3.6633442912e+000	-5.8107549520e-001
 2.5153231572e+000	 3.6911212498e+000	-5.7148322903e-001
 2.4747777761e+000	 3.7184273714e+000	-5.5467256928e-001
 2.4339805451e+000	 3.7452592011e+000	-5.3229677595e-001
 2.3929396811e+000	 3.7716134707e+000	-5.0608712287e-001
 2.3516634514e+000	 3.7974870994e+000	-4.7785086903e-001
 2.3101601684e+000	 3.8228771944e+000	-4.4946732041e-001
 2.2684381848e+000	 3.8477810517e+000	-4.2288205957e-001
 2.2265058876e+000	 3.8721961564e+000	-4.0009943717e-001
 2.1843716934e+000	 3.8961201831e+000	-3.8317343565e-001
 2.0539553118e+000	 3.6635050572e+000	-4.7869268190e-001
 2.0141607875e+000	 3.6855336804e+000	-4.9779521981e-001
 1.9741923649e+000	 3.7070968488e+000	-5.2222104643e-001
 1.9340580104e+000	 3.7281929136e+000	-5.1884484641e-001
 1.8937656981e+000	 3.7488204029e+000	-4.9263896030e-001
 1.8533234054e+000	 3.7689780217e+000	-4.5166161539e-001
 1.8127391083e+000	 3.7886646509e+000	-4.0355350174e-001
 1.7720207765e+000	 3.8078793464e+000	-3.5551273883e-001
 1.7311763688e+000	 3.8266213383e+000	-3.1427437714e-001
 1.6902138288e+000	 3.8448900295e+000	-2.8609420326e-001
 1.6491410796e+000	 3.8626849945e+000	-2.7673660048e-001
 2.0669969500e+000	 3.6867665698e+000	-4.6605027615e-001
 2.0269497493e+000	 3.7089350642e+000	-4.7952661602e-001
 1.9867275464e+000	 3.7306351485e+000	-5.0472595955e-001
 1.9463383578e+000	 3.7518651633e+000	-5.0934321154e-001
 1.9057902084e+000	 3.7726236273e+000	-4.8987741394e-001
 1.8650911265e+000	 3.7929092374e+000	-4.5444791098e-001
 1.8242491384e+000	 3.8127208673e+000	-4.1073451845e-001
 1.7832722646e+000	 3.8320575670e+000	-3.6595322621e-001
 1.7421685144e+000	 3.8509185616e+000	-3.2683658170e-001
 1.7009458817e+000	 3.8693032502e+000	-2.9961850760e-001
 1.6596123402e+000	 3.8872112048e+000	-2.9002328926e-001
 2.0800385881e+000	 3.7100280824e+000	-4.5247761785e-001
 2.0397387112e+000	 3.7323364481e+000	-4.6066654856e-001
 1.9992627278e+000	 3.7541734482e+000	-4.8147624729e-001
 1.9586187052e+000	 3.7755374129e+000	-4.9330847236e-001
 1.9178147188e+000	 3.7964268517e+000	-4.7978214373e-001
 1.8768588475e+000	 3.8168404531e+000	-4.4905753799e-001
 1.8357591685e+000	 3.8367770837e+000	-4.0883553803e-001
 1.7945237527e+000	 3.8562357876e+000	-3.6633414025e-001
 1.7531606600e+000	 3.8752157849e+000	-3.2826978745e-001
 1.7116779347e+000	 3.8937164710e+000	-3.0084326400e-001
 1.6700836007e+000	 3.9117374151e+000	-2.8972987244e-001
 2.0930802263e+000	 3.7332895950e+000	-4.3870488861e-001
 2.0525276731e+000	 3.7557378319e+000	-4.4202438162e-001
 2.0117979092e+000	 3.7777117479e+000	-4.5612111412e-001
 1.9708990526e+000	 3.7992096626e+000	-4.7253833650e-001
 1.9298392292e+000	 3.8202300761e+000	-4.6435314434e-001
 1.8886265686e+000	 3.8407716688e+000	-4.3773630607e-001
 1.8472691986e+000	 3.8608333001e+000	-4.0039150146e-001
 1.8057752408e+000	 3.8804140082e+000	-3.5952259917e-001
 1.7641528056e+000	 3.8995130082e+000	-3.2181600981e-001
 1.7224099876e+000	 3.9181296918e+000	-2.9342772727e-001
 1.6805548613e+000	 3.9362636255e+000	-2.7997476040e-001
 2.1061218644e+000	 3.7565511076e+000	-4.2538962410e-001
 2.0653166350e+000	 3.7791392158e+000	-4.2433465372e-001
 2.0243330906e+000	 3.8012500476e+000	-4.3229344324e-001
 1.9831793999e+000	 3.8228819123e+000	-4.4873456621e-001
 1.9418637396e+000	 3.8440333006e+000	-4.4549413035e-001
 1.9003942897e+000	 3.8647028845e+000	-4.2263258273e-001
 1.8587792288e+000	 3.8848895166e+000	-3.8783789295e-001
 1.8170267289e+000	 3.9045922287e+000	-3.4828337255e-001
 1.7751449511e+000	 3.9238102315e+000	-3.1061112249e-001
 1.7331420406e+000	 3.9425429126e+000	-2.8092029297e-001
 1.6910261218e+000	 3.9607898358e+000	-2.6475983971e-001
 2.1191635026e+000	 3.7798126202e+000	-4.1311830849e-001
 2.0781055968e+000	 3.8025405996e+000	-4.0825868624e-001
 2.0368682721e+000	 3.8247883473e+000	-4.1077712049e-001
 1.9954597473e+000	 3.8465541619e+000	-4.2350001782e-001
 1.9538882500e+000	 3.8678365250e+000	-4.2500980094e-001
 1.9121620108e+000	 3.8886341002e+000	-4.0579481525e-001
 1.8702892589e+000	 3.9089457330e+000	-3.7350855102e-001
 1.8282782170e+000	 3.9287704493e+000	-3.3527701342e-001
 1.7861370967e+000	 3.9481074548e+000	-2.9768334232e-001
 1.7438740935e+000	 3.9669561334e+000	-2.6675736657e-001
 1.7014973824e+000	 3.9853160462e+000	-2.4796975820e-001
 2.1322051407e+000	 3.8030741328e+000	-4.0240796025e-001
 2.0908945587e+000	 3.8259419835e+000	-3.9438618168e-001
 2.0494034535e+000	 3.8483266470e+000	-3.9227312247e-001
 2.0077400947e+000	 3.8702264116e+000	-3.9903775416e-001
 1.9659127604e+000	 3.8916397494e+000	-4.0460308361e-001
 1.9239297319e+000	 3.9125653159e+000	-3.8916902581e-001
 1.8817992890e+000	 3.9330019494e+000	-3.5963344582e-001
 1.8395297051e+000	 3.9529486699e+000	-3.2305794852e-001
 1.7971292423e+000	 3.9724046781e+000	-2.8595166312e-001
 1.7546061465e+000	 3.9913693542e+000	-2.5426217149e-001
 1.7119686430e+000	 4.0098422565e+000	-2.3343809682e-001
 2.1452467789e+000	 3.8263356453e+000	-3.9370770972e-001
 2.1036835206e+000	 3.8493433673e+000	-3.8323681235e-001
 2.0619386349e+000	 3.8718649467e+000	-3.7740939289e-001
 2.0200204421e+000	 3.8938986613e+000	-3.7906542961e-001
 1.9779372708e+000	 3.9154429738e+000	-3.8587235771e-001
 1.9356974530e+000	 3.9364965315e+000	-3.7459628097e-001
 1.8933093192e+000	 3.9570581658e+000	-3.4833642416e-001
 1.8507811932e+000	 3.9771268904e+000	-3.1407252860e-001
 1.8081213878e+000	 3.9967019014e+000	-2.7822424079e-001
 1.7653381994e+000	 4.0157825750e+000	-2.4679188770e-001
 1.7224399035e+000	 4.0343684668e+000	-2.2461001298e-001
 2.1582884170e+000	 3.8495971579e+000	-3.8740036874e-001
 2.1164724825e+000	 3.8727447512e+000	-3.7526179978e-001
 2.0744738163e+000	 3.8954032465e+000	-3.6674245620e-001
 2.0323007895e+000	 3.9175709110e+000	-3.6453815228e-001
 1.9899617812e+000	 3.9392461982e+000	-3.7030865877e-001
 1.9474651741e+000	 3.9604277472e+000	-3.6381013646e-001
 1.9048193493e+000	 3.9811143822e+000	-3.4163292364e-001
 1.8620326814e+000	 4.0013051110e+000	-3.1065884780e-001
 1.8191135334e+000	 4.0209991247e+000	-2.7742221567e-001
 1.7760702524e+000	 4.0401957957e+000	-2.4687836321e-001
 1.7329111641e+000	 4.0588946772e+000	-2.2284103903e-001
 2.1713300552e+000	 3.8728586705e+000	-3.8380399276e-001
 2.1292614443e+000	 3.8961461350e+000	-3.7084548520e-001
 2.0870089978e+000	 3.9189415462e+000	-3.6075902012e-001
 2.0445811369e+000	 3.9412431606e+000	-3.5608166568e-001
 2.0019862916e+000	 3.9630494226e+000	-3.5932933275e-001
 1.9592328952e+000	 3.9843589629e+000	-3.5843405848e-001
 1.9163293794e+000	 4.0051705986e+000	-3.4145373610e-001
 1.8732841695e+000	 4.0254833316e+000	-3.1532246461e-001
 1.8301056790e+000	 4.0452963480e+000	-2.8518852757e-001
 1.7868023053e+000	 4.0646090165e+000	-2.5524527153e-001
 1.7433824246e+000	 4.0834208875e+000	-2.2912870932e-001
 2.1843716934e+000	 3.8961201831e+000	-3.8317343565e-001
 2.1420504062e+000	 3.9195475189e+000	-3.7030689154e-001
 2.0995441792e+000	 3.9424798459e+000	-3.5987756755e-001
 2.0568614843e+000	 3.9649154103e+000	-3.5424978989e-001
 2.0140108020e+000	 3.9868526470e+000	-3.5579064555e-001
 1.9710006163e+000	 4.0082901786e+000	-3.6004117351e-001
 1.9278394095e+000	 4.0292268150e+000	-3.4984520652e-001
 1.8845356576e+000	 4.0496615522e+000	-3.2891011683e-001
 1.8410978246e+000	 4.0695935713e+000	-3.0179167509e-001
 1.7975343583e+000	 4.0890222373e+000	-2.7247549808e-001
 1.7538536852e+000	 4.1079470979e+000	-2.4441552887e-001
 1.6491410796e+000	 3.8626849945e+000	-2.7673660048e-001
 1.6079598367e+000	 3.8800085414e+000	-2.7557959753e-001
 1.5666841286e+000	 3.8968578809e+000	-2.6970114412e-001
 1.5253217981e+000	 3.9132330963e+000	-2.6080277571e-001
 1.4838806500e+000	 3.9291344362e+000	-2.5026896185e-001
 1.4423684478e+000	 3.9445623121e+000	-2.3917209053e-001
 1.4007929095e+000	 3.9595172970e+000	-2.2827950738e-001
 1.3591617033e+000	 3.9740001227e+000	-2.1806233179e-001
 1.3174824442e+000	 3.9880116778e+000	-2.0733854136e-001
 1.2757626898e+000	 4.0015530051e+000	-1.8366776302e-001
 1.2340099371e+000	 4.0146252992e+000	-1.4712796013e-001
 1.6596123402e+000	 3.8872112048e+000	-2.9002328926e-001
 1.6181696159e+000	 3.9046447480e+000	-2.8849546118e-001
 1.5766318268e+000	 3.9216010728e+000	-2.8303122084e-001
 1.5350068651e+000	 3.9380802631e+000	-2.7507189448e-001
 1.4933025855e+000	 3.9540825688e+000	-2.6576352685e-001
 1.4515268006e+000	 3.9696084045e+000	-2.5596305886e-001
 1.4096872774e+000	 3.9846583464e+000	-2.4624652317e-001
 1.3677917329e+000	 3.9992331311e+000	-2.3691896692e-001
 1.3258478303e+000	 4.0133336529e+000	-2.2758951029e-001
 1.2838631754e+000	 4.0269609611e+000	-2.0772747590e-001
 1.2418453126e+000	 4.0401162582e+000	-1.7450549228e-001
 1.6700836007e+000	 3.9117374151e+000	-2.8972987244e-001
 1.6283793952e+000	 3.9292809546e+000	-2.8664760696e-001
 1.5865795250e+000	 3.9463442647e+000	-2.8076415772e-001
 1.5446919322e+000	 3.9629274298e+000	-2.7331775374e-001
 1.5027245210e+000	 3.9790307015e+000	-2.6526697107e-001
 1.4606851534e+000	 3.9946544968e+000	-2.5729819185e-001
 1.4185816454e+000	 4.0097993957e+000	-2.4980797383e-001
 1.3764217625e+000	 4.0244661395e+000	-2.4244317746e-001
 1.3342132165e+000	 4.0386556280e+000	-2.3423301919e-001
 1.2919636610e+000	 4.0523689172e+000	-2.1793000004e-001
 1.2496806881e+000	 4.0656072171e+000	-1.8834174897e-001
 1.6805548613e+000	 3.9362636255e+000	-2.7997476040e-001
 1.6385891745e+000	 3.9539171612e+000	-2.7459720528e-001
 1.5965272232e+000	 3.9710874566e+000	-2.6782830414e-001
 1.5543769993e+000	 3.9877745965e+000	-2.6075880322e-001
 1.5121464565e+000	 4.0039788341e+000	-2.5421479103e-001
 1.4698435062e+000	 4.0197005891e+000	-2.4860606525e-001
 1.4274760133e+000	 4.0349404451e+000	-2.4336936944e-001
 1.3850517921e+000	 4.0496991479e+000	-2.3761227418e-001
 1.3425786026e+000	 4.0639776031e+000	-2.3028694794e-001
 1.3000641465e+000	 4.0777768733e+000	-2.1692599392e-001
 1.2575160636e+000	 4.0910981760e+000	-1.9108967433e-001
 1.6910261218e+000	 3.9607898358e+000	-2.6475983971e-001
 1.6487989537e+000	 3.9785533678e+000	-2.5678370311e-001
 1.6064749214e+000	 3.9958306485e+000	-2.4902698314e-001
 1.5640620664e+000	 4.0126217632e+000	-2.4252793023e-001
 1.5215683920e+000	 4.0289269668e+000	-2.3754888796e-001
 1.4790018590e+000	 4.0447466814e+000	-2.3350595921e-001
 1.4363703812e+000	 4.0600814944e+000	-2.2961470002e-001
 1.3936818217e+000	 4.0749321563e+000	-2.2493106056e-001
 1.3509439888e+000	 4.0892995782e+000	-2.1837503938e-001
 1.3081646321e+000	 4.1031848294e+000	-2.0721230660e-001
 1.2653514390e+000	 4.1165891349e+000	-1.8505204281e-001
 1.7014973824e+000	 3.9853160462e+000	-2.4796975820e-001
 1.6590087330e+000	 4.0031895744e+000	-2.3753258957e-001
 1.6164226195e+000	 4.0205738404e+000	-2.2910916452e-001
 1.5737471334e+000	 4.0374689299e+000	-2.2278435166e-001
 1.5309903275e+000	 4.0538750995e+000	-2.1811555021e-001
 1.4881602118e+000	 4.0697927737e+000	-2.1446176422e-001
 1.4452647492e+000	 4.0852225438e+000	-2.1101080322e-001
 1.4023118513e+000	 4.1001651647e+000	-2.0680475921e-001
 1.3593093749e+000	 4.1146215533e+000	-2.0076377776e-001
 1.3162651177e+000	 4.1285927855e+000	-1.9113928793e-001
 1.2731868145e+000	 4.1420800939e+000	-1.7238825629e-001
 1.7119686430e+000	 4.0098422565e+000	-2.3343809682e-001
 1.6692185123e+000	 4.0278257810e+000	-2.2107613809e-001
 1.6263703177e+000	 4.0453170323e+000	-2.1126552531e-001
 1.5834322005e+000	 4.0623160966e+000	-2.0378178849e-001
 1.5404122631e+000	 4.0788232321e+000	-1.9818087599e-001
 1.4973185646e+000	 4.0948388660e+000	-1.9382840077e-001
 1.4541591171e+000	 4.1103635931e+000	-1.8992708940e-001
 1.4109418809e+000	 4.1253981731e+000	-1.8554244815e-001
 1.3676747611e+000	 4.1399435284e+000	-1.7962666794e-001
 1.3243656032e+000	 4.1540007416e+000	-1.7091800646e-001
 1.2810221900e+000	 4.1675710528e+000	-1.5512105801e-001
 1.7224399035e+000	 4.0343684668e+000	-2.2461001298e-001
 1.6794282915e+000	 4.0524619877e+000	-2.0959789955e-001
 1.6363180159e+000	 4.0700602242e+000	-1.9729879583e-001
 1.5931172676e+000	 4.0871632634e+000	-1.8753712382e-001
 1.5498341986e+000	 4.1037713648e+000	-1.7992015674e-001
 1.5064769174e+000	 4.1198849584e+000	-1.7386756629e-001
 1.4630534850e+000	 4.1355046425e+000	-1.6863911851e-001
 1.4195719105e+000	 4.1506311815e+000	-1.6336053599e-001
 1.3760401472e+000	 4.1652655035e+000	-1.5704755236e-001
 1.3324660888e+000	 4.1794086976e+000	-1.4862737914e-001
 1.2888575655e+000	 4.1930620117e+000	-1.3514316687e-001
 1.7329111641e+000	 4.0588946772e+000	-2.2284103903e-001
 1.6896380708e+000	 4.0770981943e+000	-2.0451458711e-001
 1.6462657141e+000	 4.0948034161e+000	-1.8891870845e-001
 1.6028023347e+000	 4.1120104301e+000	-1.7598407368e-001
 1.5592561341e+000	 4.1287194974e+000	-1.6542139452e-001
 1.5156352702e+000	 4.1449310507e+000	-1.5675126079e-001
 1.4719478530e+000	 4.1606456919e+000	-1.4933208017e-001
 1.4282019401e+000	 4.1758641899e+000	-1.4238614235e-001
 1.3844055334e+000	 4.1905874786e+000	-1.3502383750e-001
 1.3405665744e+000	 4.2048166537e+000	-1.2626606566e-001
 1.2966929409e+000	 4.2185529706e+000	-1.1422383540e-001
 1.7433824246e+000	 4.0834208875e+000	-2.2912870932e-001
 1.6998478501e+000	 4.1017344009e+000	-2.0717614237e-001
 1.6562134122e+000	 4.1195466080e+000	-1.8776090224e-001
 1.6124874017e+000	 4.1368575968e+000	-1.7097655571e-001
 1.5686780696e+000	 4.1536676301e+000	-1.5668872858e-001
 1.5247936230e+000	 4.1699771430e+000	-1.4456521977e-001
 1.4808422209e+000	 4.1857867412e+000	-1.3410418101e-001
 1.4368319697e+000	 4.2010971983e+000	-1.2466038752e-001
 1.3927709195e+000	 4.2159094537e+000	-1.1546963331e-001
 1.3486670600e+000	 4.2302246098e+000	-1.0567129180e-001
 1.3045283164e+000	 4.2440439296e+000	-9.4015334699e-002
 1.7538536852e+000	 4.1079470979e+000	-2.4441552887e-001
 1.7100576294e+000	 4.1263706075e+000	-2.1886876522e-001
 1.6661611104e+000	 4.1442897998e+000	-1.9539010510e-001
 1.6221724688e+000	 4.1617047635e+000	-1.7429197484e-001
 1.5781000051e+000	 4.1786157627e+000	-1.5564577506e-001
 1.5339519758e+000	 4.1950232353e+000	-1.3931225829e-001
 1.4897365888e+000	 4.2109277906e+000	-1.2496994323e-001
 1.4454619993e+000	 4.2263302067e+000	-1.1214159508e-001
 1.4011363057e+000	 4.2412314288e+000	-1.0021880949e-001
 1.3567675455e+000	 4.2556325659e+000	-8.8484744345e-002
 1.3123636919e+000	 4.2695348885e+000	-7.6059369331e-002
 1.2340099371e+000	 4.0146252992e+000	-1.4712796013e-001
 1.1922316182e+000	 4.0272299033e+000	-1.0560668631e-001
 1.1504350948e+000	 4.0393683026e+000	-6.6274464283e-002
 1.1086276574e+000	 4.0510421257e+000	-3.0520047649e-002
 1.0668165223e+000	 4.0622531420e+000	 8.4568355457e-004
 1.0250088285e+000	 4.0730032589e+000	 2.7520139358e-002
 9.8321163488e-001	 4.0832945191e+000	 4.9642624096e-002
 9.4143191729e-001	 4.0931290975e+000	 6.7748775574e-002
 8.9967656574e-001	 4.1025092979e+000	 8.2703725782e-002
 8.5795238189e-001	 4.1114375501e+000	 9.5665503816e-002
 8.1626607643e-001	 4.1199164064e+000	 1.0804201822e-001
 1.2418453126e+000	 4.0401162582e+000	-1.7450549228e-001
 1.1998017212e+000	 4.0528008954e+000	-1.3564737758e-001
 1.1577398098e+000	 4.0650163678e+000	-9.8278858639e-002
 1.1156669151e+000	 4.0767643142e+000	-6.3785332575e-002
 1.0735902992e+000	 4.0880465150e+000	-3.2994264039e-002
 1.0315171465e+000	 4.0988648900e+000	-6.2444152618e-003
 9.8945456057e-001	 4.1092214949e+000	 1.6548726172e-002
 9.4740956166e-001	 4.1191185182e+000	 3.5846045271e-002
 9.0538908352e-001	 4.1285582784e+000	 5.2421077250e-002
 8.6339997096e-001	 4.1375432207e+000	 6.7322488732e-002
 8.2144897732e-001	 4.1460759137e+000	 8.1832061094e-002
 1.2496806881e+000	 4.0656072171e+000	-1.8834174897e-001
 1.2073718243e+000	 4.0783718876e+000	-1.5279729072e-001
 1.1650445248e+000	 4.0906644331e+000	-1.1815291447e-001
 1.1227061728e+000	 4.1024865026e+000	-8.5767166153e-002
 1.0803640761e+000	 4.1138398881e+000	-5.6461709110e-002
 1.0380254644e+000	 4.1247265212e+000	-3.0590110405e-002
 9.9569748625e-001	 4.1351484706e+000	-8.1022872835e-003
 9.5338720603e-001	 4.1451079388e+000	 1.1407602738e-002
 9.1110160129e-001	 4.1546072589e+000	 2.8640264415e-002
 8.6884756003e-001	 4.1636488913e+000	 4.4553126860e-002
 8.2663187820e-001	 4.1722354210e+000	 6.0319343664e-002
 1.2575160636e+000	 4.0910981760e+000	-1.9108967433e-001
 1.2149419273e+000	 4.1039428797e+000	-1.5927484985e-001
 1.1723492399e+000	 4.1163124983e+000	-1.2788809504e-001
 1.1297454305e+000	 4.1282086910e+000	-9.8238459058e-002
 1.0871378530e+000	 4.1396332611e+000	-7.1120234716e-002
 1.0445337824e+000	 4.1505881524e+000	-4.6881205873e-002
 1.0019404119e+000	 4.1610754464e+000	-2.5486085632e-002
 9.5936485040e-001	 4.1710973595e+000	-6.5650705864e-003
 9.1681411906e-001	 4.1806562393e+000	 1.0527845572e-002
 8.7429514911e-001	 4.1897545619e+000	 2.6676391819e-002
 8.3181477909e-001	 4.1983949284e+000	 4.2962062494e-002
 1.2653514390e+000	 4.1165891349e+000	-1.8505204281e-001
 1.2225120303e+000	 4.1295138719e+000	-1.5715309497e-001
 1.1796539549e+000	 4.1419605635e+000	-1.2933536439e-001
 1.1367846882e+000	 4.1539308795e+000	-1.0283663677e-001
 1.0939116299e+000	 4.1654266342e+000	-7.8403110517e-002
 1.0510421003e+000	 4.1764497835e+000	-5.6357005080e-002
 1.0081833376e+000	 4.1870024222e+000	-3.6658951075e-002
 9.6534249477e-001	 4.1970867802e+000	-1.8956910614e-002
 9.2252663683e-001	 4.2067052198e+000	-2.6421020533e-003
 8.7974273818e-001	 4.2158602326e+000	 1.3112431643e-002
 8.3699767997e-001	 4.2245544357e+000	 2.9312943349e-002
 1.2731868145e+000	 4.1420800939e+000	-1.7238825629e-001
 1.2300821334e+000	 4.1550848640e+000	-1.4836594055e-001
 1.1869586699e+000	 4.1676086287e+000	-1.2421091593e-001
 1.1438239459e+000	 4.1796530679e+000	-1.0106884727e-001
 1.1006854068e+000	 4.1912200072e+000	-7.9617989403e-002
 1.0575504183e+000	 4.2023114147e+000	-6.0136051131e-002
 1.0144262633e+000	 4.2129293980e+000	-4.2560190411e-002
 9.7132013914e-001	 4.2230762008e+000	-2.6542499648e-002
 9.2823915460e-001	 4.2327542003e+000	-1.1490746124e-002
 8.8519032725e-001	 4.2419659032e+000	 3.3802572696e-003
 8.4218058085e-001	 4.2507139430e+000	 1.9017368534e-002
 1.2810221900e+000	 4.1675710528e+000	-1.5512105801e-001
 1.2376522364e+000	 4.1806558562e+000	-1.3471436104e-001
 1.1942633849e+000	 4.1932566939e+000	-1.1410183774e-001
 1.1508632036e+000	 4.2053752563e+000	-9.4317115123e-002
 1.1074591837e+000	 4.2170133802e+000	-7.5951560115e-002
 1.0640587363e+000	 4.2281730459e+000	-5.9220288279e-002
 1.0206691890e+000	 4.2388563737e+000	-4.4021226813e-002
 9.7729778351e-001	 4.2490656215e+000	-2.9989278978e-002
 9.3395167238e-001	 4.2588031807e+000	-1.6537255348e-002
 8.9063791633e-001	 4.2680715738e+000	-2.9045699196e-003
 8.4736348174e-001	 4.2768734503e+000	 1.1811494883e-002
 1.2888575655e+000	 4.1930620117e+000	-1.3514316687e-001
 1.2452223395e+000	 4.2062268484e+000	-1.1787250637e-001
 1.2015681000e+000	 4.2189047591e+000	-1.0047171733e-001
 1.1579024613e+000	 4.2310974448e+000	-8.3843444441e-002
 1.1142329606e+000	 4.2428067533e+000	-6.8474157755e-002
 1.0705670542e+000	 4.2540346771e+000	-5.4499190224e-002
 1.0269121147e+000	 4.2647833495e+000	-4.1760757043e-002
 9.8327542788e-001	 4.2750550421e+000	-2.9860745718e-002
 9.3966419015e-001	 4.2848521612e+000	-1.8201548319e-002
 8.9608550540e-001	 4.2941772444e+000	-6.0322514718e-003
 8.5254638262e-001	 4.3030329576e+000	 7.5203628028e-003
 1.2966929409e+000	 4.2185529706e+000	-1.1422383540e-001
 1.2527924425e+000	 4.2317978405e+000	-9.9393750311e-002
 1.2088728150e+000	 4.2445528243e+000	-8.4666188449e-002
 1.1649417191e+000	 4.2568196332e+000	-7.0794872614e-002
 1.1210067375e+000	 4.2686001263e+000	-5.8144333950e-002
 1.0770753722e+000	 4.2798963082e+000	-4.6753856658e-002
 1.0331550403e+000	 4.2907103253e+000	-3.6394337154e-002
 9.8925307225e-001	 4.3010444628e+000	-2.6619634562e-002
 9.4537670792e-001	 4.3109011417e+000	-1.6807035332e-002
 9.0153309447e-001	 4.3202829150e+000	-6.2010661025e-003
 8.5772928351e-001	 4.3291924649e+000	 6.0559967314e-003
 1.3045283164e+000	 4.2440439296e+000	-9.4015334699e-002
 1.2603625456e+000	 4.2573688327e+000	-8.0716674666e-002
 1.2161775300e+000	 4.2702008896e+000	-6.7918422246e-002
 1.1719809768e+000	 4.2825418216e+000	-5.6208477094e-002
 1.1277805145e+000	 4.2943934994e+000	-4.5813388374e-002
 1.0835836901e+000	 4.3057579394e+000	-3.6661079396e-002
 1.0393979660e+000	 4.3166373011e+000	-2.8436424778e-002
 9.9523071662e-001	 4.3270338835e+000	-2.0631085087e-002
 9.5108922569e-001	 4.3369501221e+000	-1.2583353485e-002
 9.0698068355e-001	 4.3463885857e+000	-3.5196847713e-003
 8.6291218439e-001	 4.3553519723e+000	 7.4154973948e-003
 1.3123636919e+000	 4.2695348885e+000	-7.6059369331e-002
 1.2679326486e+000	 4.2829398248e+000	-6.3170991833e-002
 1.2234822450e+000	 4.2958489548e+000	-5.1354565243e-002
 1.1790202345e+000	 4.3082640100e+000	-4.1016337099e-002
 1.1345542914e+000	 4.3201868724e+000	-3.2229863244e-002
 1.0900920081e+000	 4.3316195706e+000	-2.4797379362e-002
 1.0456408917e+000	 4.3425642768e+000	-1.8303968922e-002
 1.0012083610e+000	 4.3530233041e+000	-1.2165795217e-002
 9.5680174346e-001	 4.3629991026e+000	-5.6690953305e-003
 9.1242827262e-001	 4.3724942563e+000	 1.9905134429e-003
 8.6809508528e-001	 4.3815114796e+000	 1.1679126188e-002
 8.1626607643e-001	 4.1199164064e+000	 1.0804201822e-001
 7.7463050750e-001	 4.1279473679e+000	 1.1745498242e-001
 7.3304593048e-001	 4.1355345296e+000	 1.2193684121e-001
 6.9151875737e-001	 4.1426807945e+000	 1.2385561438e-001
 6.5005530071e-001	 4.1493891748e+000	 1.2593979324e-001
 6.0866177170e-001	 4.1556627888e+000	 1.3100398056e-001
 5.6734427842e-001	 4.1615048572e+000	 1.3914565241e-001
 5.2610882415e-001	 4.1669187001e+000	 1.5071189653e-001
 4.8496130586e-001	 4.1719077330e+000	 1.6672150572e-001
 4.4390751276e-001	 4.1764754639e+000	 1.8875360133e-001
 4.0295312499e-001	 4.1806254894e+000	 2.1884870505e-001
 8.2144897732e-001	 4.1460759137e+000	 8.1832061094e-002
 7.7954904235e-001	 4.1541578680e+000	 9.4117885623e-002
 7.3770042307e-001	 4.1617932046e+000	 1.0263726179e-001
 6.9590957218e-001	 4.1689848448e+000	 1.0941489707e-001
 6.5418284232e-001	 4.1757358201e+000	 1.1666149079e-001
 6.1252648411e-001	 4.1820492686e+000	 1.2570264076e-001
 5.7094664442e-001	 4.1879284314e+000	 1.3639349022e-001
 5.2944936465e-001	 4.1933766496e+000	 1.4909314197e-001
 4.8804057921e-001	 4.1983973605e+000	 1.6477354714e-001
 4.4672611408e-001	 4.2029940943e+000	 1.8491215497e-001
 4.0551168545e-001	 4.2071704705e+000	 2.1139700339e-001
 8.2663187820e-001	 4.1722354210e+000	 6.0319343664e-002
 7.8446757720e-001	 4.1803683681e+000	 7.4549477856e-002
 7.4235491566e-001	 4.1880518795e+000	 8.6028273392e-002
 7.0030038700e-001	 4.1952888952e+000	 9.6465217976e-002
 6.5831038393e-001	 4.2020824655e+000	 1.0770088346e-001
 6.1639119652e-001	 4.2084357484e+000	 1.1983660622e-001
 5.7454901042e-001	 4.2143520055e+000	 1.3228378175e-001
 5.3278990516e-001	 4.2198345991e+000	 1.4543257558e-001
 4.9111985257e-001	 4.2248869879e+000	 1.6022764667e-001
 4.4954471540e-001	 4.2295127247e+000	 1.7806504081e-001
 4.0807024591e-001	 4.2337154516e+000	 2.0070149937e-001
 8.3181477909e-001	 4.1983949284e+000	 4.2962062494e-002
 7.8938611205e-001	 4.2065788682e+000	 5.8348063685e-002
 7.4700940824e-001	 4.2143105545e+000	 7.1863171569e-002
 7.0469120181e-001	 4.2215929455e+000	 8.4929113576e-002
 6.6243792553e-001	 4.2284291109e+000	 9.9094580861e-002
 6.2025590893e-001	 4.2348222282e+000	 1.1357357583e-001
 5.7815137642e-001	 4.2407755797e+000	 1.2712520184e-001
 5.3613044566e-001	 4.2462925485e+000	 1.4018762897e-001
 4.9419912593e-001	 4.2513766154e+000	 1.5369575466e-001
 4.5236331672e-001	 4.2560313550e+000	 1.6898256766e-001
 4.1062880637e-001	 4.2602604327e+000	 1.8769288325e-001
 8.3699767997e-001	 4.2245544357e+000	 2.9312943349e-002
 7.9430464689e-001	 4.2327893683e+000	 4.5199153059e-002
 7.5166390083e-001	 4.2405692295e+000	 5.9974081183e-002
 7.0908201662e-001	 4.2478969958e+000	 7.4798513913e-002
 6.6656546714e-001	 4.2547757562e+000	 9.0953496066e-002
 6.2412062134e-001	 4.2612087080e+000	 1.0714709223e-001
 5.8175374243e-001	 4.2671991539e+000	 1.2128241682e-001
 5.3947098617e-001	 4.2727504980e+000	 1.3386042917e-001
 4.9727839929e-001	 4.2778662429e+000	 1.4582172974e-001
 4.5518191804e-001	 4.2825499854e+000	 1.5845263155e-001
 4.1318736684e-001	 4.2868054138e+000	 1.7330353893e-001
 8.4218058085e-001	 4.2507139430e+000	 1.9017368534e-002
 7.9922318174e-001	 4.2589998684e+000	 3.4874024595e-002
 7.5631839342e-001	 4.2668279044e+000	 5.0270963294e-002
 7.1347283143e-001	 4.2742010462e+000	 6.6134200114e-002
 6.7069300875e-001	 4.2811224016e+000	 8.3487057576e-002
 6.2798533375e-001	 4.2875951879e+000	 1.0085566100e-001
 5.8535610843e-001	 4.2936227281e+000	 1.1517581899e-001
 5.4281152667e-001	 4.2992084475e+000	 1.2699814631e-001
 5.0035767265e-001	 4.3043558704e+000	 1.3728229659e-001
 4.5800051936e-001	 4.3090686158e+000	 1.4728227912e-001
 4.1574592730e-001	 4.3133503949e+000	 1.5846970741e-001
 8.4736348174e-001	 4.2768734503e+000	 1.1811494883e-002
 8.0414171659e-001	 4.2852103685e+000	 2.7228270915e-002
 7.6097288600e-001	 4.2930865794e+000	 4.2740594910e-002
 7.1786364625e-001	 4.3005050965e+000	 5.9065224973e-002
 6.7482055036e-001	 4.3074690469e+000	 7.6994636043e-002
 6.3185004616e-001	 4.3139816677e+000	 9.5061811624e-002
 5.8895847443e-001	 4.3200463022e+000	 1.0928119139e-001
 5.4615206717e-001	 4.3256663970e+000	 1.2019325964e-001
 5.0343694600e-001	 4.3308454979e+000	 1.2878790928e-001
 4.6081912068e-001	 4.3355872462e+000	 1.3629916347e-001
 4.1830448776e-001	 4.3398953759e+000	 1.4413352933e-001
 8.5254638262e-001	 4.3030329576e+000	 7.5203628028e-003
 8.0906025144e-001	 4.3114208686e+000	 2.2200326792e-002
 7.6562737859e-001	 4.3193452543e+000	 3.7445522732e-002
 7.2225446106e-001	 4.3268091469e+000	 5.3788298164e-002
 6.7894809196e-001	 4.3338156923e+000	 7.1816566173e-002
 6.3571475857e-001	 4.3403681475e+000	 9.0191102656e-002
 5.9256084044e-001	 4.3464698764e+000	 1.0412930580e-001
 5.4949260768e-001	 4.3521243465e+000	 1.1408374515e-001
 5.0651621936e-001	 4.3573351253e+000	 1.2108352440e-001
 4.6363772201e-001	 4.3621058766e+000	 1.2635289733e-001
 4.2086304822e-001	 4.3664403570e+000	 1.3124497159e-001
 8.5772928351e-001	 4.3291924649e+000	 6.0559967314e-003
 8.1397878628e-001	 4.3376313687e+000	 1.9809980841e-002
 7.7028187117e-001	 4.3456039293e+000	 3.4522992008e-002
 7.2664527587e-001	 4.3531131972e+000	 5.0567137576e-002
 6.8307563357e-001	 4.3601623377e+000	 6.8351435101e-002
 6.3957947098e-001	 4.3667546273e+000	 8.6731073537e-002
 5.9616320644e-001	 4.3728934506e+000	 1.0030545681e-001
 5.5283314818e-001	 4.3785822960e+000	 1.0935318837e-001
 5.0959549272e-001	 4.3838247528e+000	 1.1494928765e-001
 4.6645632333e-001	 4.3886245070e+000	 1.1831630770e-001
 4.2342160868e-001	 4.3929853381e+000	 1.2076364319e-001
 8.6291218439e-001	 4.3553519723e+000	 7.4154973948e-003
 8.1889732113e-001	 4.3638418688e+000	 2.0156871441e-002
 7.7493636376e-001	 4.3718626043e+000	 3.4183851531e-002
 7.3103609068e-001	 4.3794172475e+000	 4.9731788196e-002
 6.8720317518e-001	 4.3865089830e+000	 6.7055842331e-002
 6.4344418339e-001	 4.3931411071e+000	 8.5230145239e-002
 5.9976557244e-001	 4.3993170248e+000	 9.8448934643e-002
 5.5617368869e-001	 4.4050402455e+000	 1.0673082525e-001
 5.1267476608e-001	 4.4103143803e+000	 1.1120113769e-001
 4.6927492465e-001	 4.4151431374e+000	 1.1308659620e-001
 4.2598016914e-001	 4.4195303192e+000	 1.1366050472e-001
 8.6809508528e-001	 4.3815114796e+000	 1.1679126188e-002
 8.2381585598e-001	 4.3900523689e+000	 2.3418967544e-002
 7.7959085635e-001	 4.3981212792e+000	 3.6711435782e-002
 7.3542690550e-001	 4.4057212979e+000	 5.1677909897e-002
 6.9133071679e-001	 4.4128556284e+000	 6.8444096893e-002
 6.4730889580e-001	 4.4195275870e+000	 8.6296471898e-002
 6.0336793844e-001	 4.4257405989e+000	 9.9252439313e-002
 5.5951422919e-001	 4.4314981950e+000	 1.0699151426e-001
 5.1575403944e-001	 4.4368040078e+000	 1.1069133048e-001
 4.7209352597e-001	 4.4416617678e+000	 1.1158640898e-001
 4.2853872961e-001	 4.4460753003e+000	 1.1091947612e-001
 4.0295312499e-001	 4.1806254894e+000	 2.1884870505e-001
 3.6209760679e-001	 4.1843620215e+000	 2.4525797255e-001
 3.2135264073e-001	 4.1876881727e+000	 2.5691224732e-001
 2.8072365755e-001	 4.1906077882e+000	 2.5751976381e-001
 2.4021597217e-001	 4.1931247882e+000	 2.5118945748e-001
 1.9983478304e-001	 4.1952431647e+000	 2.4237106307e-001
 1.5958517145e-001	 4.1969669780e+000	 2.3580169379e-001
 1.1947210102e-001	 4.1983003530e+000	 2.3645817725e-001
 7.9500417302e-002	 4.1992474762e+000	 2.4951448980e-001
 3.9674847448e-002	 4.1998125921e+000	 2.8030369600e-001
 0.0000000000e+000	 4.2000000000e+000	 3.3428386484e-001
 4.0551168545e-001	 4.2071704705e+000	 2.1139700339e-001
 3.6439675416e-001	 4.2109307278e+000	 2.3419170508e-001
 3.2339307698e-001	 4.2142779985e+000	 2.4369854630e-001
 2.8250611909e-001	 4.2172161521e+000	 2.4304170306e-001
 2.4174122921e-001	 4.2197491339e+000	 2.3570629603e-001
 2.0110363876e-001	 4.2218809611e+000	 2.2548245171e-001
 1.6059846130e-001	 4.2236157197e+000	 2.1641562823e-001
 1.2023069197e-001	 4.2249575610e+000	 2.1276246297e-001
 8.0005207095e-002	 4.2259106980e+000	 2.1895146922e-001
 3.9926763837e-002	 4.2264794022e+000	 2.3954797809e-001
 0.0000000000e+000	 4.2266680000e+000	 2.7922278978e-001
 4.0807024591e-001	 4.2337154516e+000	 2.0070149937e-001
 3.6669590154e-001	 4.2374994341e+000	 2.1975806976e-001
 3.2543351322e-001	 4.2408678242e+000	 2.2707966729e-001
 2.8428858064e-001	 4.2438245160e+000	 2.2526706980e-001
 2.4326648624e-001	 4.2463734795e+000	 2.1724157677e-001
 2.0237249447e-001	 4.2485187574e+000	 2.0619314092e-001
 1.6161175114e-001	 4.2502644615e+000	 1.9553453042e-001
 1.2098928292e-001	 4.2516147691e+000	 1.8886076018e-001
 8.0509996888e-002	 4.2525739199e+000	 1.8991310546e-001
 4.0178680226e-002	 4.2531462122e+000	 2.0254708325e-001
 0.0000000000e+000	 4.2533360000e+000	 2.3070385904e-001
 4.1062880637e-001	 4.2602604327e+000	 1.8769288325e-001
 3.6899504892e-001	 4.2640681404e+000	 2.0303542800e-001
 3.2747394947e-001	 4.2674576500e+000	 2.0825386887e-001
 2.8607104219e-001	 4.2704328799e+000	 2.0548420621e-001
 2.4479174328e-001	 4.2729978252e+000	 1.9714203172e-001
 2.0364135018e-001	 4.2751565538e+000	 1.8587484218e-001
 1.6262504099e-001	 4.2769132032e+000	 1.7452013109e-001
 1.2174787387e-001	 4.2782719771e+000	 1.6606847828e-001
 8.1014786682e-002	 4.2792371417e+000	 1.6363093628e-001
 4.0430596615e-002	 4.2798130223e+000	 1.7041008916e-001
 0.0000000000e+000	 4.2800040000e+000	 1.8967423485e-001
 4.1318736684e-001	 4.2868054138e+000	 1.7330353893e-001
 3.7129419629e-001	 4.2906368466e+000	 1.8508665524e-001
 3.2951438571e-001	 4.2940474757e+000	 1.8838576411e-001
 2.8785350374e-001	 4.2970412439e+000	 1.8492865914e-001
 2.4631700032e-001	 4.2996221709e+000	 1.7668145110e-001
 2.0491020590e-001	 4.3017943502e+000	 1.6580517978e-001
 1.6363833084e-001	 4.3035619450e+000	 1.5461793152e-001
 1.2250646482e-001	 4.3049291852e+000	 1.4556166387e-001
 8.1519576475e-002	 4.3059003635e+000	 1.4117302239e-001
 4.0682513004e-002	 4.3064798323e+000	 1.4405751530e-001
 0.0000000000e+000	 4.3066720000e+000	 1.5686649148e-001
 4.1574592730e-001	 4.3133503949e+000	 1.5846970741e-001
 3.7359334367e-001	 4.3172055529e+000	 1.6696188820e-001
 3.3155482196e-001	 4.3206373015e+000	 1.6860962386e-001
 2.8963596529e-001	 4.3236496078e+000	 1.6478701028e-001
 2.4784225735e-001	 4.3262465166e+000	 1.5706501002e-001
 2.0617906161e-001	 4.3284321465e+000	 1.4717248250e-001
 1.6465162068e-001	 4.3302106868e+000	 1.3696242717e-001
 1.2326505578e-001	 4.3315863932e+000	 1.2838262256e-001
 8.2024366269e-002	 4.3325635854e+000	 1.2344993242e-001
 4.0934429394e-002	 4.3331466424e+000	 1.2422763541e-001
 0.0000000000e+000	 4.3333400000e+000	 1.3280521827e-001
 4.1830448776e-001	 4.3398953759e+000	 1.4413352933e-001
 3.7589249104e-001	 4.3437742592e+000	 1.4970113742e-001
 3.3359525820e-001	 4.3472271273e+000	 1.5003253190e-001
 2.9141842684e-001	 4.3502579717e+000	 1.4620054521e-001
 2.4936751439e-001	 4.3528708623e+000	 1.3943342128e-001
 2.0744791733e-001	 4.3550699429e+000	 1.3108038878e-001
 1.6566491053e-001	 4.3568594285e+000	 1.2258213292e-001
 1.2402364673e-001	 4.3582436013e+000	 1.1544533067e-001
 8.2529156063e-002	 4.3592268072e+000	 1.1122050672e-001
 4.1186345783e-002	 4.3598134524e+000	 1.1148255776e-001
 0.0000000000e+000	 4.3600080000e+000	 1.1781338031e-001
 4.2086304822e-001	 4.3664403570e+000	 1.3124497159e-001
 3.7819163842e-001	 4.3703429655e+000	 1.3433677090e-001
 3.3563569445e-001	 4.3738169530e+000	 1.3373739838e-001
 2.9320088839e-001	 4.3768663357e+000	 1.3026876801e-001
 2.5089277143e-001	 4.3794952079e+000	 1.2486692147e-001
 2.0871677304e-001	 4.3817077393e+000	 1.1855227334e-001
 1.6667820038e-001	 4.3835081703e+000	 1.1240441814e-001
 1.2478223768e-001	 4.3849008094e+000	 1.0754064575e-001
 8.3033945857e-002	 4.3858900290e+000	 1.0509740910e-001
 4.1438262172e-002	 4.3864802625e+000	 1.0621408330e-001
 0.0000000000e+000	 4.3866760000e+000	 1.1201844715e-001
 4.2342160868e-001	 4.3929853381e+000	 1.2076364319e-001
 3.8049078580e-001	 4.3969116718e+000	 1.2189587429e-001
 3.3767613069e-001	 4.4004067788e+000	 1.2078583741e-001
 2.9498334994e-001	 4.4034746996e+000	 1.1805276812e-001
 2.5241802846e-001	 4.4061195536e+000	 1.1438909753e-001
 2.0998562876e-001	 4.4083455356e+000	 1.1053550290e-001
 1.6769149023e-001	 4.4101569120e+000	 1.0726015982e-001
 1.2554082863e-001	 4.4115580174e+000	 1.0534132430e-001
 8.3538735650e-002	 4.4125532509e+000	 1.0555247562e-001
 4.1690178561e-002	 4.4131470725e+000	 1.0864935098e-001
 0.0000000000e+000	 4.4133440000e+000	 1.1535829928e-001
 4.2598016914e-001	 4.4195303192e+000	 1.1366050472e-001
 3.8278993317e-001	 4.4234803781e+000	 1.1340249274e-001
 3.3971656693e-001	 4.4269966045e+000	 1.1222091463e-001
 2.9676581148e-001	 4.4300830635e+000	 1.1057844554e-001
 2.5394328550e-001	 4.4327438993e+000	 1.0897056048e-001
 2.1125448447e-001	 4.4349833320e+000	 1.0790552805e-001
 1.6870478007e-001	 4.4368056538e+000	 1.0788822124e-001
 1.2629941958e-001	 4.4382152255e+000	 1.0940685497e-001
 8.4043525443e-002	 4.4392164727e+000	 1.1292186898e-001
 4.1942094950e-002	 4.4398138826e+000	 1.1885627917e-001
 0.0000000000e+000	 4.4400120000e+000	 1.2758692175e-001
 4.2853872961e-001	 4.4460753003e+000	 1.1091947612e-001
 3.8508908055e-001	 4.4500490843e+000	 1.0987975953e-001
 3.4175700318e-001	 4.4535864303e+000	 1.0906977008e-001
 2.9854827303e-001	 4.4566914274e+000	 1.0883960036e-001
 2.5546854253e-001	 4.4593682450e+000	 1.0953247263e-001
 2.1252334018e-001	 4.4616211283e+000	 1.1146981824e-001
 1.6971806992e-001	 4.4634543955e+000	 1.1493976363e-001
 1.2705801053e-001	 4.4648724335e+000	 1.2018811484e-001
 8.4548315236e-002	 4.4658796945e+000	 1.2741104656e-001
 4.2194011339e-002	 4.4664806926e+000	 1.3674881175e-001
 0.0000000000e+000	 4.4666800000e+000	 1.4827989388e-001
 4.4666800000e+000	 0.0000000000e+000	 6.6210223002e-001
 4.4664806926e+000	 4.2194011339e-002	 6.5479360416e-001
 4.4658796945e+000	 8.4548315236e-002	 6.4929638411e-001
 4.4648724335e+000	 1.2705801053e-001	 6.4464368487e-001
 4.4634543955e+000	 1.6971806992e-001	 6.4003811650e-001
 4.4616211283e+000	 2.1252334018e-001	 6.3483508098e-001
 4.4593682450e+000	 2.5546854253e-001	 6.2852704700e-001
 4.4566914274e+000	 2.9854827303e-001	 6.2072809223e-001
 4.4535864303e+000	 3.4175700318e-001	 6.1115790665e-001
 4.4500490843e+000	 3.8508908055e-001	 5.9962435526e-001
 4.4460753003e+000	 4.2853872961e-001	 5.8600360430e-001
 4.4933440011e+000	 0.0000000000e+000	 6.2302086056e-001
 4.4931435039e+000	 4.2445889952e-002	 6.2027318678e-001
 4.4925389182e+000	 8.5053029335e-002	 6.1885074181e-001
 4.4915256443e+000	 1.2781648773e-001	 6.1784154137e-001
 4.4900991413e+000	 1.7073120782e-001	 6.1648145655e-001
 4.4882549303e+000	 2.1379200563e-001	 6.1414136164e-001
 4.4859885983e+000	 2.5699357085e-001	 6.1031566743e-001
 4.4832958014e+000	 3.0033046730e-001	 6.0461150376e-001
 4.4801722689e+000	 3.4379713346e-001	 5.9673771511e-001
 4.4766138066e+000	 3.8738788317e-001	 5.8649273243e-001
 4.4726163009e+000	 4.3109690641e-001	 5.7375028539e-001
 4.5200080089e+000	 0.0000000000e+000	 5.8846656780e-001
 4.5198063219e+000	 4.2697768628e-002	 5.8924377762e-001
 4.5191981485e+000	 8.5557743560e-002	 5.9096021614e-001
 4.5181788617e+000	 1.2857496512e-001	 5.9276898577e-001
 4.5167438937e+000	 1.7174434598e-001	 5.9394678034e-001
 4.5148887390e+000	 2.1506067140e-001	 5.9388504560e-001
 4.5126089583e+000	 2.5851859956e-001	 5.9208295303e-001
 4.5099001820e+000	 3.0211266201e-001	 5.8814142513e-001
 4.5067581141e+000	 3.4583726425e-001	 5.8175734499e-001
 4.5031785355e+000	 3.8968668636e-001	 5.7271697731e-001
 4.4991573082e+000	 4.3365508385e-001	 5.6088752405e-001
 4.5466720300e+000	 0.0000000000e+000	 5.5853206879e-001
 4.5464691533e+000	 4.2949647430e-002	 5.6177473240e-001
 4.5458573921e+000	 8.6062458036e-002	 5.6568305435e-001
 4.5448320925e+000	 1.2933344288e-001	 5.6948347625e-001
 4.5433886594e+000	 1.7275748464e-001	 5.7249904260e-001
 4.5415225610e+000	 2.1632933779e-001	 5.7414474252e-001
 4.5392293316e+000	 2.6004362902e-001	 5.7392511408e-001
 4.5365045760e+000	 3.0389485761e-001	 5.7143332304e-001
 4.5333439727e+000	 3.4787739605e-001	 5.6635081703e-001
 4.5297432778e+000	 3.9198549070e-001	 5.5844654564e-001
 4.5256983287e+000	 4.3621326257e-001	 5.4757462723e-001
 4.5733360711e+000	 0.0000000000e+000	 5.3335472245e-001
 4.5731320046e+000	 4.3201526421e-002	 5.3797128583e-001
 4.5725166558e+000	 8.6567172891e-002	 5.4310541148e-001
 4.5714853432e+000	 1.3009192122e-001	 5.4806317344e-001
 4.5700334451e+000	 1.7377062406e-001	 5.5221743305e-001
 4.5681564029e+000	 2.1759800514e-001	 5.5500753752e-001
 4.5658497249e+000	 2.6156865963e-001	 5.5594175265e-001
 4.5631089899e+000	 3.0567705455e-001	 5.5460161418e-001
 4.5599298511e+000	 3.4991752939e-001	 5.5064726651e-001
 4.5563080399e+000	 3.9428429676e-001	 5.4382274141e-001
 4.5522393692e+000	 4.3877144321e-001	 5.3396001419e-001
 4.6000001389e+000	 0.0000000000e+000	 5.1311524043e-001
 4.5997948826e+000	 4.3453405663e-002	 5.1797339619e-001
 4.5991759461e+000	 8.7071888250e-002	 5.2334032704e-001
 4.5981386206e+000	 1.3085040031e-001	 5.2860604700e-001
 4.5966782575e+000	 1.7478376449e-001	 5.3319460986e-001
 4.5947902715e+000	 2.1886667376e-001	 5.3656834765e-001
 4.5924701447e+000	 2.6309369176e-001	 5.3823533737e-001
 4.5897134304e+000	 3.0745925327e-001	 5.3775925281e-001
 4.5865157562e+000	 3.5195766477e-001	 5.3477063712e-001
 4.5828728286e+000	 3.9658310513e-001	 5.2897850962e-001
 4.5787804362e+000	 4.4132962641e-001	 5.2018110013e-001
 4.6266642400e+000	 0.0000000000e+000	 4.9803644288e-001
 4.6264577939e+000	 4.3705285220e-002	 5.0195463005e-001
 4.6258352697e+000	 8.7576604240e-002	 5.0652673758e-001
 4.6247919314e+000	 1.3160888035e-001	 5.1122901401e-001
 4.6233231032e+000	 1.7579690619e-001	 5.1553596121e-001
 4.6214241734e+000	 2.2013534396e-001	 5.1892930296e-001
 4.6190905979e+000	 2.6461872580e-001	 5.2091069952e-001
 4.6163179041e+000	 3.0924145422e-001	 5.2101733667e-001
 4.6131016945e+000	 3.5399780270e-001	 5.1883939060e-001
 4.6094376505e+000	 3.9888191636e-001	 5.1403824268e-001
 4.6053215364e+000	 4.4388781281e-001	 5.0636419137e-001
 4.6533283810e+000	 0.0000000000e+000	 4.8838205707e-001
 4.6531207452e+000	 4.3957165155e-002	 4.9012108561e-001
 4.6524946333e+000	 8.8081320987e-002	 4.9282852372e-001
 4.6514452821e+000	 1.3236736153e-001	 4.9606710803e-001
 4.6499679888e+000	 1.7681004941e-001	 4.9935889368e-001
 4.6480581152e+000	 2.2140401607e-001	 5.0219915096e-001
 4.6457110910e+000	 2.6614376212e-001	 5.0407454960e-001
 4.6429224177e+000	 3.1102365784e-001	 5.0448473053e-001
 4.6396876726e+000	 3.5603794368e-001	 5.0296623150e-001
 4.6360025122e+000	 4.0118073105e-001	 4.9911759966e-001
 4.6318626763e+000	 4.4644600304e-001	 4.9262439160e-001
 4.6799925688e+000	 0.0000000000e+000	 4.8478461359e-001
 4.6797837432e+000	 4.4209045530e-002	 4.8339023708e-001
 4.6791540436e+000	 8.8586038617e-002	 4.8331542670e-001
 4.6780986794e+000	 1.3312584404e-001	 4.8418612626e-001
 4.6766129211e+000	 1.7782319440e-001	 4.8558158929e-001
 4.6746921036e+000	 2.2267269039e-001	 4.8704993832e-001
 4.6723316306e+000	 2.6766880112e-001	 4.8812462741e-001
 4.6695269779e+000	 3.1280586458e-001	 4.8834192236e-001
 4.6662736973e+000	 3.5807808824e-001	 4.8725784647e-001
 4.6625674204e+000	 4.0347954975e-001	 4.8432333805e-001
 4.6584038627e+000	 4.4900419775e-001	 4.7906551884e-001
 4.7066568099e+000	 0.0000000000e+000	 4.8881941243e-001
 4.7064467945e+000	 4.4460926409e-002	 4.8561094639e-001
 4.7058135072e+000	 8.9090757256e-002	 4.8369585489e-001
 4.7047521301e+000	 1.3388432806e-001	 4.8273409835e-001
 4.7032579066e+000	 1.7883634142e-001	 4.8234014434e-001
 4.7013261453e+000	 2.2394136725e-001	 4.8209808177e-001
 4.6989522236e+000	 2.6919384316e-001	 4.8157760945e-001
 4.6961315913e+000	 3.1458807488e-001	 4.8035101825e-001
 4.6928597752e+000	 3.6011823688e-001	 4.7801129573e-001
 4.6891323818e+000	 4.0577837306e-001	 4.7419149130e-001
 4.6849451022e+000	 4.5156239757e-001	 4.6858548838e-001
 4.7333211109e+000	 0.0000000000e+000	 4.9927169816e-001
 4.7331099057e+000	 4.4712807855e-002	 4.9612592838e-001
 4.7324730307e+000	 8.9595477031e-002	 4.9388030451e-001
 4.7314056407e+000	 1.3464281379e-001	 4.9225655521e-001
 4.7299029521e+000	 1.7984949071e-001	 4.9093214241e-001
 4.7279602469e+000	 2.2521004697e-001	 4.8955485444e-001
 4.7255728763e+000	 2.7071888863e-001	 4.8775824147e-001
 4.7227362646e+000	 3.1637028919e-001	 4.8517801758e-001
 4.7194459128e+000	 3.6215839011e-001	 4.8146956384e-001
 4.7156974029e+000	 4.0807720153e-001	 4.7632667676e-001
 4.7114864015e+000	 4.5412060315e-001	 4.6950171518e-001
 4.4460753003e+000	 4.2853872961e-001	 5.8600360430e-001
 4.4416617678e+000	 4.7209352597e-001	 5.7061651704e-001
 4.4368040078e+000	 5.1575403944e-001	 5.5443008564e-001
 4.4314981950e+000	 5.5951422919e-001	 5.3833963073e-001
 4.4257405989e+000	 6.0336793844e-001	 5.2321350957e-001
 4.4195275870e+000	 6.4730889580e-001	 5.0984237484e-001
 4.4128556284e+000	 6.9133071679e-001	 4.9851231747e-001
 4.4057212979e+000	 7.3542690550e-001	 4.8753167047e-001
 4.3981212792e+000	 7.7959085635e-001	 4.7607488928e-001
 4.3900523689e+000	 8.2381585598e-001	 4.6350368587e-001
 4.3815114796e+000	 8.6809508528e-001	 4.4916839186e-001
 4.4726163009e+000	 4.3109690641e-001	 5.7375028539e-001
 4.4681764217e+000	 4.7491170464e-001	 5.5897521222e-001
 4.4632896631e+000	 5.1883285105e-001	 5.4329743400e-001
 4.4579521772e+000	 5.6285426878e-001	 5.2766159381e-001
 4.4521602109e+000	 6.0696976427e-001	 5.1301008528e-001
 4.4459101101e+000	 6.5117302869e-001	 5.0023835064e-001
 4.4391983230e+000	 6.9545763947e-001	 4.8962476808e-001
 4.4320214039e+000	 7.3981706190e-001	 4.7945048825e-001
 4.4243760167e+000	 7.8424465099e-001	 4.6888523641e-001
 4.4162589387e+000	 8.2873365329e-001	 4.5722071130e-001
 4.4076670643e+000	 8.7327720898e-001	 4.4374122115e-001
 4.4991573082e+000	 4.3365508385e-001	 5.6088752405e-001
 4.4946910823e+000	 4.7772988402e-001	 5.4682627120e-001
 4.4897753251e+000	 5.2191166344e-001	 5.3176797799e-001
 4.4844061659e+000	 5.6619430921e-001	 5.1669193791e-001
 4.4785798294e+000	 6.1057159100e-001	 5.0260039994e-001
 4.4722926399e+000	 6.5503716255e-001	 4.9048025666e-001
 4.4655410243e+000	 6.9958456318e-001	 4.8056695639e-001
 4.4583215165e+000	 7.4420721941e-001	 4.7115187399e-001
 4.4506307607e+000	 7.8889844680e-001	 4.6140555804e-001
 4.4424655151e+000	 8.3365145183e-001	 4.5057007182e-001
 4.4338226555e+000	 8.7845933398e-001	 4.3788368968e-001
 4.5256983287e+000	 4.3621326257e-001	 5.4757462723e-001
 4.5212057561e+000	 4.8054806480e-001	 5.3433674421e-001
 4.5162610003e+000	 5.2499047737e-001	 5.2001798374e-001
 4.5108601678e+000	 5.6953435130e-001	 5.0561526283e-001
 4.5049994612e+000	 6.1417341953e-001	 4.9217414076e-001
 4.4986751828e+000	 6.5890129835e-001	 4.8075726043e-001
 4.4918837387e+000	 7.0371148895e-001	 4.7152336937e-001
 4.4846216423e+000	 7.4859737911e-001	 4.6281406904e-001
 4.4768855178e+000	 7.9355224493e-001	 4.5380539435e-001
 4.4686721045e+000	 8.3856925284e-001	 4.4370985341e-001
 4.4599782598e+000	 8.8364146158e-001	 4.3173935789e-001
 4.5522393692e+000	 4.3877144321e-001	 5.3396001419e-001
 4.5477204498e+000	 4.8336624770e-001	 5.2166040943e-001
 4.5427466954e+000	 5.2806929361e-001	 5.0820822871e-001
 4.5373141896e+000	 5.7287439590e-001	 4.9459858478e-001
 4.5314191127e+000	 6.1777525075e-001	 4.8190139158e-001
 4.5250577455e+000	 6.6276543704e-001	 4.7123693450e-001
 4.5182264729e+000	 7.0783841783e-001	 4.6265610884e-001
 4.5109217877e+000	 7.5298754210e-001	 4.5459177967e-001
 4.5031402947e+000	 7.9820604656e-001	 4.4622990580e-001
 4.4948787136e+000	 8.4348705752e-001	 4.3677322715e-001
 4.4861338837e+000	 8.8882359306e-001	 4.2542664901e-001
 4.5787804362e+000	 4.4132962641e-001	 5.2018110013e-001
 4.5742351699e+000	 4.8618443341e-001	 5.0893774227e-001
 4.5692324169e+000	 5.3114811292e-001	 4.9648405485e-001
 4.5637682378e+000	 5.7621444384e-001	 4.8379147078e-001
 4.5578387907e+000	 6.2137708559e-001	 4.7193284498e-001
 4.5514403346e+000	 6.6662957959e-001	 4.6206554215e-001
 4.5445692334e+000	 7.1196535083e-001	 4.5410519155e-001
 4.5372219595e+000	 7.5737770949e-001	 4.4661655857e-001
 4.5293950978e+000	 8.0285985284e-001	 4.3880033507e-001
 4.5210853490e+000	 8.4840486713e-001	 4.2986899056e-001
 4.5122895337e+000	 8.9400572972e-001	 4.1903946852e-001
 4.6053215364e+000	 4.4388781281e-001	 5.0636419137e-001
 4.6007499233e+000	 4.8900262265e-001	 4.9629589456e-001
 4.5957181716e+000	 5.3422693609e-001	 4.8497542994e-001
 4.5902223192e+000	 5.7955449595e-001	 4.7332617958e-001
 4.5842585017e+000	 6.2497892492e-001	 4.6240001954e-001
 4.5778229567e+000	 6.7049372698e-001	 4.5336183201e-001
 4.5709120268e+000	 7.1609228898e-001	 4.4598885193e-001
 4.5635221642e+000	 7.6176788236e-001	 4.3899718766e-001
 4.5556499337e+000	 8.0751366493e-001	 4.3161446952e-001
 4.5472920170e+000	 8.5332268289e-001	 4.2308210863e-001
 4.5384452165e+000	 8.9918787286e-001	 4.1264782250e-001
 4.6318626763e+000	 4.4644600304e-001	 4.9262439160e-001
 4.6272647164e+000	 4.9182081611e-001	 4.8384868308e-001
 4.6222039660e+000	 5.3730576387e-001	 4.7379701679e-001
 4.6166764401e+000	 5.8289455307e-001	 4.6331780906e-001
 4.6106782524e+000	 6.2858076965e-001	 4.5341548216e-001
 4.6042056184e+000	 6.7435788016e-001	 4.4522449653e-001
 4.5972548598e+000	 7.2021923333e-001	 4.3840384734e-001
 4.5898224083e+000	 7.6615806182e-001	 4.3182006244e-001
 4.5819048089e+000	 8.1216748401e-001	 4.2474710394e-001
 4.5734987244e+000	 8.5824050602e-001	 4.1647425434e-001
 4.5646009385e+000	 9.0437002377e-001	 4.0629843490e-001
 4.6584038627e+000	 4.4900419775e-001	 4.7906551884e-001
 4.6537795559e+000	 4.9463901451e-001	 4.7169658725e-001
 4.6486898067e+000	 5.4038459704e-001	 4.6304824999e-001
 4.6431306074e+000	 5.8623461604e-001	 4.5386444970e-001
 4.6370980492e+000	 6.3218262069e-001	 4.4507307509e-001
 4.6305883262e+000	 6.7822204010e-001	 4.3773963294e-001
 4.6235977388e+000	 7.2434618490e-001	 4.3142576562e-001
 4.6161226984e+000	 7.7054824896e-001	 4.2514957762e-001
 4.6081597302e+000	 8.1682131123e-001	 4.1825050388e-001
 4.5997054777e+000	 8.6315833775e-001	 4.1008434889e-001
 4.5907567062e+000	 9.0955218375e-001	 4.0001536370e-001
 4.6849451022e+000	 4.5156239757e-001	 4.6858548838e-001
 4.6802944484e+000	 4.9745721854e-001	 4.6138918059e-001
 4.6751757004e+000	 5.4346343637e-001	 4.5333869852e-001
 4.6695848276e+000	 5.8957468569e-001	 4.4510277774e-001
 4.6635178989e+000	 6.3578447894e-001	 4.3744814758e-001
 4.6569710867e+000	 6.8208620777e-001	 4.3097353414e-001
 4.6499406706e+000	 7.2847314472e-001	 4.2510933499e-001
 4.6424230411e+000	 7.7493844487e-001	 4.1902851405e-001
 4.6344147039e+000	 8.2147514776e-001	 4.1215486929e-001
 4.6259122833e+000	 8.6807617933e-001	 4.0392910154e-001
 4.6169125263e+000	 9.1473435410e-001	 3.9380061613e-001
 4.7114864015e+000	 4.5412060315e-001	 4.6950171518e-001
 4.7068094006e+000	 5.0027542892e-001	 4.6116703129e-001
 4.7016616537e+000	 5.4654228262e-001	 4.5198348599e-001
 4.6960391073e+000	 5.9291476285e-001	 4.4259546091e-001
 4.6899378081e+000	 6.3938634528e-001	 4.3380077213e-001
 4.6833539067e+000	 6.8595038414e-001	 4.2644523636e-001
 4.6762836616e+000	 7.3260011383e-001	 4.1992345613e-001
 4.6687234430e+000	 7.7932865067e-001	 4.1349564090e-001
 4.6606697367e+000	 8.2612899476e-001	 4.0646879855e-001
 4.6521191480e+000	 8.7299403196e-001	 3.9800354908e-001
 4.6430684052e+000	 9.1991653610e-001	 3.8763476285e-001
 4.3815114796e+000	 8.6809508528e-001	 4.4916839186e-001
 4.3724942563e+000	 9.1242827262e-001	 4.3289631629e-001
 4.3629991026e+000	 9.5680174346e-001	 4.1522629732e-001
 4.3530233041e+000	 1.0012083610e+000	 3.9653389078e-001
 4.3425642768e+000	 1.0456408917e+000	 3.7715569592e-001
 4.3316195706e+000	 1.0900920081e+000	 3.5737649737e-001
 4.3201868724e+000	 1.1345542914e+000	 3.3741538819e-001
 4.3082640100e+000	 1.1790202345e+000	 3.1741066215e-001
 4.2958489548e+000	 1.2234822450e+000	 2.9740361453e-001
 4.2829398248e+000	 1.2679326486e+000	 2.7732103642e-001
 4.2695348885e+000	 1.3123636919e+000	 2.5695635899e-001
 4.4076670643e+000	 8.7327720898e-001	 4.4374122115e-001
 4.3985960123e+000	 9.1787504482e-001	 4.2821225002e-001
 4.3890441770e+000	 9.6251340464e-001	 4.1115155834e-001
 4.3790088277e+000	 1.0071851090e+000	 3.9293658130e-001
 4.3684873648e+000	 1.0518828813e+000	 3.7391038512e-001
 4.3574773238e+000	 1.0965993501e+000	 3.5436876552e-001
 4.3459763777e+000	 1.1413270525e+000	 3.3454658833e-001
 4.3339823414e+000	 1.1860584366e+000	 3.1460266473e-001
 4.3214931740e+000	 1.2307858647e+000	 2.9460369144e-001
 4.3085069826e+000	 1.2755016165e+000	 2.7450686985e-001
 4.2950220250e+000	 1.3201978924e+000	 2.5414118603e-001
 4.4338226555e+000	 8.7845933398e-001	 4.3788368968e-001
 4.4246977749e+000	 9.2332181839e-001	 4.2306470545e-001
 4.4150892579e+000	 9.6822506725e-001	 4.0661110021e-001
 4.4049943577e+000	 1.0131618585e+000	 3.8890142741e-001
 4.3944104593e+000	 1.0581248724e+000	 3.7028343254e-001
 4.3833350834e+000	 1.1031066938e+000	 3.5106202708e-001
 4.3717658895e+000	 1.1480998154e+000	 3.3148493084e-001
 4.3597006792e+000	 1.1930966405e+000	 3.1172801831e-001
 4.3471373997e+000	 1.2380894862e+000	 2.9187932040e-001
 4.3340741467e+000	 1.2830705863e+000	 2.7192179115e-001
 4.3205091679e+000	 1.3280320950e+000	 2.5171474994e-001
 4.4599782598e+000	 8.8364146158e-001	 4.3173935789e-001
 4.4507995505e+000	 9.2876859468e-001	 4.1757948383e-001
 4.4411343519e+000	 9.7393673271e-001	 4.0170978089e-001
 4.4309799007e+000	 1.0191386110e+000	 3.8450896089e-001
 4.4203335667e+000	 1.0643668666e+000	 3.6632809843e-001
 4.4091928560e+000	 1.1096140407e+000	 3.4747876709e-001
 4.3975554141e+000	 1.1548725817e+000	 3.2821870369e-001
 4.3854190299e+000	 1.2001348480e+000	 3.0873729567e-001
 4.3727816382e+000	 1.2453931114e+000	 2.8913973167e-001
 4.3596413237e+000	 1.2906395599e+000	 2.6942993966e-001
 4.3459963236e+000	 1.3358663014e+000	 2.4949136188e-001
 4.4861338837e+000	 8.8882359306e-001	 4.2542664901e-001
 4.4769013457e+000	 9.3421537506e-001	 4.1185733844e-001
 4.4671794653e+000	 9.7964840245e-001	 3.9652780379e-001
 4.4569654632e+000	 1.0251153680e+000	 3.7981598127e-001
 4.4462566936e+000	 1.0706088655e+000	 3.6207466051e-001
 4.4350506480e+000	 1.1161213925e+000	 3.4361975121e-001
 4.4233449581e+000	 1.1616453530e+000	 3.2471601171e-001
 4.4111373998e+000	 1.2071730607e+000	 3.0556268615e-001
 4.3984258959e+000	 1.2526967420e+000	 2.8627782482e-001
 4.3852085198e+000	 1.2982085391e+000	 2.6688141880e-001
 4.3714834983e+000	 1.3437005137e+000	 2.4726274945e-001
 4.5122895337e+000	 8.9400572972e-001	 4.1903946852e-001
 4.5030031670e+000	 9.3966216088e-001	 4.0597467066e-001
 4.4932246048e+000	 9.8536007791e-001	 3.9112148891e-001
 4.4829510517e+000	 1.0310921310e+000	 3.7485610170e-001
 4.4721798464e+000	 1.0768508707e+000	 3.5753133037e-001
 4.4609084658e+000	 1.1226287508e+000	 3.3946501214e-001
 4.4491345279e+000	 1.1684181311e+000	 3.2092583120e-001
 4.4368557955e+000	 1.2142112805e+000	 3.0211911644e-001
 4.4240701793e+000	 1.2600003799e+000	 2.8317135371e-001
 4.4107757415e+000	 1.3057775260e+000	 2.6411354315e-001
 4.3969706986e+000	 1.3515347338e+000	 2.4481946015e-001
 4.5384452165e+000	 8.9918787286e-001	 4.1264782250e-001
 4.5291050209e+000	 9.4510895351e-001	 3.9998422432e-001
 4.5192697769e+000	 9.9107176051e-001	 3.8552404182e-001
 4.5089366726e+000	 1.0370689014e+000	 3.6964065838e-001
 4.4981030316e+000	 1.0830928836e+000	 3.5268516716e-001
 4.4867663160e+000	 1.1291361172e+000	 3.3497483335e-001
 4.4749241299e+000	 1.1751909177e+000	 3.1677906189e-001
 4.4625742233e+000	 1.2212495090e+000	 2.9830536904e-001
 4.4497144947e+000	 1.2673040270e+000	 2.7968410952e-001
 4.4363429951e+000	 1.3133465222e+000	 2.6095208404e-001
 4.4224579307e+000	 1.3593689638e+000	 2.4195041363e-001
 4.5646009385e+000	 9.0437002377e-001	 4.0629843490e-001
 4.5552069140e+000	 9.5055575431e-001	 3.9391577840e-001
 4.5453149880e+000	 9.9678345167e-001	 3.7974632052e-001
 4.5349223326e+000	 1.0430456808e+000	 3.6415955030e-001
 4.5240262557e+000	 1.0893349060e+000	 3.4750298885e-001
 4.5126242049e+000	 1.1356434934e+000	 3.3009073018e-001
 4.5007137706e+000	 1.1819637144e+000	 3.1218957643e-001
 4.4882926896e+000	 1.2282877481e+000	 2.9400519838e-001
 4.4753588486e+000	 1.2746076850e+000	 2.7566710182e-001
 4.4619102871e+000	 1.3209155299e+000	 2.5721251371e-001
 4.4479452010e+000	 1.3672032054e+000	 2.3843986165e-001
 4.5907567062e+000	 9.0955218375e-001	 4.0001536370e-001
 4.5813088528e+000	 9.5600256464e-001	 3.8777683812e-001
 4.5713602447e+000	 1.0024951528e+000	 3.7377760035e-001
 4.5609080380e+000	 1.0490224707e+000	 3.5838207665e-001
 4.5499495252e+000	 1.0955769392e+000	 3.4193228087e-001
 4.5384821391e+000	 1.1421508810e+000	 3.2473642849e-001
 4.5265034564e+000	 1.1887365230e+000	 3.0705526744e-001
 4.5140112010e+000	 1.2353259996e+000	 2.8908844489e-001
 4.5010032474e+000	 1.2819113558e+000	 2.7095973785e-001
 4.4874776238e+000	 1.3284845508e+000	 2.5270124807e-001
 4.4734325159e+000	 1.3750374608e+000	 2.3406765731e-001
 4.6169125263e+000	 9.1473435410e-001	 3.9380061613e-001
 4.6074108437e+000	 9.6144938587e-001	 3.8155332453e-001
 4.5974055535e+000	 1.0082068654e+000	 3.6758633689e-001
 4.5868937954e+000	 1.0549992725e+000	 3.5225777211e-001
 4.5758728465e+000	 1.1018189849e+000	 3.3590210256e-001
 4.5643401250e+000	 1.1486582816e+000	 3.1881884090e-001
 4.5522931938e+000	 1.1955093451e+000	 3.0125909240e-001
 4.5397297639e+000	 1.2423642651e+000	 2.8341214684e-001
 4.5266476974e+000	 1.2892150412e+000	 2.6539100000e-001
 4.5130450117e+000	 1.3360535868e+000	 2.4721587953e-001
 4.4989198818e+000	 1.3828717319e+000	 2.2860952365e-001
 4.6430684052e+000	 9.1991653610e-001	 3.8763476285e-001
 4.6335128934e+000	 9.6689621935e-001	 3.7521026261e-001
 4.6234509209e+000	 1.0139185908e+000	 3.6112110493e-001
 4.6128796112e+000	 1.0609760877e+000	 3.4571723999e-001
 4.6017962261e+000	 1.1080610447e+000	 3.2932399129e-001
 4.5901981691e+000	 1.1551656968e+000	 3.1222904083e-001
 4.5780829893e+000	 1.2022821825e+000	 2.9467011617e-001
 4.5654483845e+000	 1.2494025464e+000	 2.7682165034e-001
 4.5522922052e+000	 1.2965187431e+000	 2.5878062169e-001
 4.5386124571e+000	 1.3436226398e+000	 2.4053987887e-001
 4.5244073051e+000	 1.3907060206e+000	 2.2183732137e-001
 4.2695348885e+000	 1.3123636919e+000	 2.5695635899e-001
 4.2556325659e+000	 1.3567675455e+000	 2.3546920077e-001
 4.2412314288e+000	 1.4011363057e+000	 2.1230179071e-001
 4.2263302067e+000	 1.4454619993e+000	 1.8792560808e-001
 4.2109277906e+000	 1.4897365888e+000	 1.6282758288e-001
 4.1950232353e+000	 1.5339519758e+000	 1.3747514258e-001
 4.1786157627e+000	 1.5781000051e+000	 1.1231329434e-001
 4.1617047635e+000	 1.6221724688e+000	 8.7761630496e-002
 4.1442897998e+000	 1.6661611104e+000	 6.4211256604e-002
 4.1263706075e+000	 1.7100576294e+000	 4.2021639685e-002
 4.1079470979e+000	 1.7538536852e+000	 2.1517371827e-002
 4.2950220250e+000	 1.3201978924e+000	 2.5414118603e-001
 4.2810367120e+000	 1.3648668164e+000	 2.3276501223e-001
 4.2665496069e+000	 1.4095004374e+000	 2.0992789898e-001
 4.2515594314e+000	 1.4540907348e+000	 1.8608554911e-001
 4.2360650700e+000	 1.4986296230e+000	 1.6169085029e-001
 4.2200655720e+000	 1.5431089553e+000	 1.3717369587e-001
 4.2035601544e+000	 1.5875205278e+000	 1.1293801254e-001
 4.1865482044e+000	 1.6318560836e+000	 8.9358727051e-002
 4.1690292815e+000	 1.6761073169e+000	 6.6778671606e-002
 4.1510031199e+000	 1.7202658777e+000	 4.5505425050e-002
 4.1324696305e+000	 1.7643233755e+000	 2.5808084791e-002
 4.3205091679e+000	 1.3280320950e+000	 2.5171474994e-001
 4.3064408645e+000	 1.3729660894e+000	 2.3055745698e-001
 4.2918677912e+000	 1.4178645713e+000	 2.0810934444e-001
 4.2767886624e+000	 1.4627194725e+000	 1.8480932001e-001
 4.2612023557e+000	 1.5075226595e+000	 1.6107678388e-001
 4.2451079149e+000	 1.5522659371e+000	 1.3730535311e-001
 4.2285045523e+000	 1.5969410529e+000	 1.1385984926e-001
 4.2113916514e+000	 1.6415397008e+000	 9.1073240798e-002
 4.1937687693e+000	 1.6860535259e+000	 6.9243539748e-002
 4.1756356384e+000	 1.7304741285e+000	 4.8630649578e-002
 4.1569921692e+000	 1.7747930685e+000	 2.9453158634e-002
 4.3459963236e+000	 1.3358663014e+000	 2.4949136188e-001
 4.3318450297e+000	 1.3810653663e+000	 2.2861981512e-001
 4.3171859883e+000	 1.4262287093e+000	 2.0659802600e-001
 4.3020179060e+000	 1.4713482145e+000	 1.8383736002e-001
 4.2863396540e+000	 1.5164157003e+000	 1.6072430744e-001
 4.2701502703e+000	 1.5614229235e+000	 1.3761747691e-001
 4.2534489626e+000	 1.6063615826e+000	 1.1484455759e-001
 4.2362351109e+000	 1.6512233228e+000	 9.2699251588e-002
 4.2185082695e+000	 1.6959997399e+000	 7.1438176090e-002
 4.2002681693e+000	 1.7406823845e+000	 5.1277731647e-002
 4.1815147202e+000	 1.7852627668e+000	 3.2390930578e-002
 4.3714834983e+000	 1.3437005137e+000	 2.4726274945e-001
 4.3572492139e+000	 1.3891646494e+000	 2.2672066676e-001
 4.3425042043e+000	 1.4345928536e+000	 2.0514171424e-001
 4.3272471685e+000	 1.4799769629e+000	 1.8290634042e-001
 4.3114769711e+000	 1.5253087479e+000	 1.6036872392e-001
 4.2951926445e+000	 1.5705799167e+000	 1.3785374087e-001
 4.2783933917e+000	 1.6157821194e+000	 1.1565391614e-001
 4.2610785891e+000	 1.6609069522e+000	 9.4026360292e-002
 4.2432477882e+000	 1.7059459613e+000	 7.3189691325e-002
 4.2249007186e+000	 1.7508906481e+000	 5.3320937369e-002
 4.2060372896e+000	 1.7957324728e+000	 3.4552413608e-002
 4.3969706986e+000	 1.3515347338e+000	 2.4481946015e-001
 4.3826534236e+000	 1.3972639405e+000	 2.2462416467e-001
 4.3678224456e+000	 1.4429570062e+000	 2.0348433207e-001
 4.3524764563e+000	 1.4886057200e+000	 1.8174946044e-001
 4.3366143134e+000	 1.5342018043e+000	 1.5974203364e-001
 4.3202350437e+000	 1.5797369191e+000	 1.3775447721e-001
 4.3033378457e+000	 1.6252026657e+000	 1.1604611331e-001
 4.2859220920e+000	 1.6705905912e+000	 9.4840116676e-002
 4.2679873317e+000	 1.7158921927e+000	 7.4320470350e-002
 4.2495332926e+000	 1.7610989219e+000	 5.4628916839e-002
 4.2305598835e+000	 1.8062021894e+000	 3.5861897353e-002
 4.4224579307e+000	 1.3593689638e+000	 2.4195041363e-001
 4.4080576650e+000	 1.4053632418e+000	 2.2209030662e-001
 4.3931407186e+000	 1.4513211693e+000	 2.0136623540e-001
 4.3777057756e+000	 1.4972344879e+000	 1.8009674315e-001
 4.3617516871e+000	 1.5430948719e+000	 1.5857325243e-001
 4.3452774742e+000	 1.5888939329e+000	 1.3705702404e-001
 4.3282823309e+000	 1.6346232237e+000	 1.1577613047e-001
 4.3107656260e+000	 1.6802742423e+000	 9.4922445431e-002
 4.2927269061e+000	 1.7258384365e+000	 7.4648647917e-002
 4.2741658974e+000	 1.7713072085e+000	 5.5065236173e-002
 4.2550825081e+000	 1.8166719190e+000	 3.6237543195e-002
 4.4479452010e+000	 1.3672032054e+000	 2.3843986165e-001
 4.4334619445e+000	 1.4134625552e+000	 2.1887520743e-001
 4.4184590296e+000	 1.4596853450e+000	 1.9852449382e-001
 4.4029351327e+000	 1.5058632687e+000	 1.7767533158e-001
 4.3868890985e+000	 1.5519879528e+000	 1.5658872973e-001
 4.3703199423e+000	 1.5980509605e+000	 1.3549607219e-001
 4.3532268535e+000	 1.6440437958e+000	 1.1459612426e-001
 4.3356091973e+000	 1.6899579079e+000	 9.4052070451e-002
 4.3174665176e+000	 1.7357846952e+000	 7.3988581499e-002
 4.2987985391e+000	 1.7815155104e+000	 5.4488905490e-002
 4.2796051695e+000	 1.8271416644e+000	 3.5591973844e-002
 4.4734325159e+000	 1.3750374608e+000	 2.3406765731e-001
 4.4588662684e+000	 1.4215618828e+000	 2.1473137071e-001
 4.4437773848e+000	 1.4680495353e+000	 1.9469317136e-001
 4.4281645340e+000	 1.5144920646e+000	 1.7420978487e-001
 4.4120265538e+000	 1.5608810493e+000	 1.5351246678e-001
 4.3953624543e+000	 1.6072080041e+000	 1.3280401177e-001
 4.3781714198e+000	 1.6534643845e+000	 1.1225580791e-001
 4.3604528121e+000	 1.6996415905e+000	 9.2004937421e-002
 4.3422061724e+000	 1.7457309714e+000	 7.2151321475e-002
 4.3234312239e+000	 1.7917238301e+000	 5.2754903005e-002
 4.3041278737e+000	 1.8376114280e+000	 3.3832857614e-002
 4.4989198818e+000	 1.3828717319e+000	 2.2860952365e-001
 4.4842706432e+000	 1.4296612266e+000	 2.0940796037e-001
 4.4690957907e+000	 1.4764137423e+000	 1.8960360726e-001
 4.4533939857e+000	 1.5231208778e+000	 1.6942237457e-001
 4.4371640595e+000	 1.5697741635e+000	 1.4906643467e-001
 4.4204050163e+000	 1.6163650660e+000	 1.2871127835e-001
 4.4031160359e+000	 1.6628849919e+000	 1.0850283173e-001
 4.3852964765e+000	 1.7093252924e+000	 8.8554634785e-002
 4.3669458767e+000	 1.7556772674e+000	 6.8945078745e-002
 4.3480639580e+000	 1.8019321703e+000	 4.9714695405e-002
 4.3286506270e+000	 1.8480812126e+000	 3.0863487600e-002
 4.5244073051e+000	 1.3907060206e+000	 2.2183732137e-001
 4.5096750751e+000	 1.4377605886e+000	 2.0265107186e-001
 4.4944142536e+000	 1.4847779682e+000	 1.8298469670e-001
 4.4786234942e+000	 1.5317497104e+000	 1.6303338108e-001
 4.4623016217e+000	 1.5786672978e+000	 1.4297089247e-001
 4.4454476346e+000	 1.6255221485e+000	 1.2294669880e-001
 4.4280607082e+000	 1.6723056206e+000	 1.0308316276e-001
 4.4101401969e+000	 1.7190090161e+000	 8.3472813168e-002
 4.3916856366e+000	 1.7656235858e+000	 6.4175689880e-002
 4.3726967475e+000	 1.8121405334e+000	 4.5216754637e-002
 4.3531734355e+000	 1.8585510208e+000	 2.6583355971e-002
 4.1079470979e+000	 1.7538536852e+000	 2.1517371827e-002
 4.0890222373e+000	 1.7975343583e+000	 2.3958054873e-003
 4.0695935713e+000	 1.8410978246e+000	-1.6339371290e-002
 4.0496615522e+000	 1.8845356576e+000	-3.5485834597e-002
 4.0292268150e+000	 1.9278394095e+000	-5.5926584583e-002
 4.0082901786e+000	 1.9710006163e+000	-7.8632597498e-002
 3.9868526470e+000	 2.0140108020e+000	-1.0464479079e-001
 3.9649154103e+000	 2.0568614843e+000	-1.3074410570e-001
 3.9424798459e+000	 2.0995441792e+000	-1.5594120896e-001
 3.9195475189e+000	 2.1420504062e+000	-1.8086040161e-001
 3.8961201831e+000	 2.1843716934e+000	-2.0609965718e-001
 4.1324696305e+000	 1.7643233755e+000	 2.5808084791e-002
 4.1134317973e+000	 1.8082648019e+000	 7.1627320053e-003
 4.0938871512e+000	 1.8520883219e+000	-1.1615633523e-002
 4.0738361472e+000	 1.8957854585e+000	-3.1328395871e-002
 4.0532794241e+000	 1.9393477137e+000	-5.2854241116e-002
 4.0322178058e+000	 1.9827665728e+000	-7.7151679604e-002
 4.0106523021e+000	 2.0260335093e+000	-1.0386306759e-001
 3.9885841103e+000	 2.0691399902e+000	-1.2836319534e-001
 3.9660146160e+000	 2.1120774810e+000	-1.5223735971e-001
 3.9429453937e+000	 2.1548374504e+000	-1.7637890077e-001
 3.9193782076e+000	 2.1974113759e+000	-2.0139015097e-001
 4.1569921692e+000	 1.7747930685e+000	 2.9453158634e-002
 4.1378413634e+000	 1.8189952483e+000	 1.1037333862e-002
 4.1181807371e+000	 1.8630788219e+000	-7.9194611152e-003
 4.0980107483e+000	 1.9070352623e+000	-2.8217952775e-002
 4.0773320393e+000	 1.9508560208e+000	-5.0729137052e-002
 4.0561454389e+000	 1.9945325322e+000	-7.6396681680e-002
 4.0344519631e+000	 2.0380562196e+000	-1.0346637674e-001
 4.0122528162e+000	 2.0814184992e+000	-1.2815263179e-001
 3.9895493920e+000	 2.1246107859e+000	-1.5099338135e-001
 3.9663432743e+000	 2.1676244977e+000	-1.7416941065e-001
 3.9426362379e+000	 2.2104510617e+000	-1.9861696743e-001
 4.1815147202e+000	 1.7852627668e+000	 3.2390930578e-002
 4.1622509417e+000	 1.8297257000e+000	 1.4013843174e-002
 4.1424743353e+000	 1.8740693274e+000	-5.2145979225e-003
 4.1221853614e+000	 1.9182850717e+000	-2.6090189528e-002
 4.1013846665e+000	 1.9623643336e+000	-4.9472944321e-002
 4.0800730841e+000	 2.0062984976e+000	-7.6221831815e-002
 4.0582516360e+000	 2.0500789359e+000	-1.0308729630e-001
 4.0359215339e+000	 2.0936970144e+000	-1.2806091003e-001
 4.0130841797e+000	 2.1371440970e+000	-1.5147285896e-001
 3.9897411667e+000	 2.1804115515e+000	-1.7389705143e-001
 3.9658942799e+000	 2.2234907540e+000	-1.9750668146e-001
 4.2060372896e+000	 1.7957324728e+000	 3.4552413608e-002
 4.1866605383e+000	 1.8404561597e+000	 1.6078044938e-002
 4.1667679516e+000	 1.8850598412e+000	-3.4740354884e-003
 4.1463599927e+000	 1.9295348895e+000	-2.4890517304e-002
 4.1254373117e+000	 1.9738726551e+000	-4.9017221164e-002
 4.1040007471e+000	 2.0180644717e+000	-7.6248360615e-002
 4.0820513268e+000	 2.0621016612e+000	-1.0277034909e-001
 4.0595902694e+000	 2.1059755387e+000	-1.2784503909e-001
 4.0366189852e+000	 2.1496774176e+000	-1.5178143231e-001
 4.0131390766e+000	 2.1931986148e+000	-1.7490749179e-001
 3.9891523392e+000	 2.2365304562e+000	-1.9780482155e-001
 4.2305598835e+000	 1.8062021894e+000	 3.5861897353e-002
 4.2110701594e+000	 1.8511866302e+000	 1.7207941439e-002
 4.1910615923e+000	 1.8960503660e+000	-2.6792942201e-003
 4.1705346482e+000	 1.9407847185e+000	-2.4573310200e-002
 4.1494899810e+000	 1.9853809880e+000	-4.9302612143e-002
 4.1279284341e+000	 2.0298304576e+000	-7.6464292331e-002
 4.1058510414e+000	 2.0741243986e+000	-1.0255669280e-001
 4.0832590286e+000	 2.1182540753e+000	-1.2755783799e-001
 4.0601538141e+000	 2.1622107507e+000	-1.5175716953e-001
 4.0365370098e+000	 2.2059856910e+000	-1.7545978443e-001
 4.0124104219e+000	 2.2495701713e+000	-1.9898674597e-001
 4.2550825081e+000	 1.8166719190e+000	 3.6237543195e-002
 4.2354798109e+000	 1.8619171141e+000	 1.7374409391e-002
 4.2153552633e+000	 1.9070409045e+000	-2.8197130170e-003
 4.1947093338e+000	 1.9520345617e+000	-2.5101150502e-002
 4.1735426804e+000	 1.9968893354e+000	-5.0278058010e-002
 4.1518561510e+000	 2.0415964583e+000	-7.6909320954e-002
 4.1296507858e+000	 2.0861471510e+000	-1.0248390330e-001
 4.1069278174e+000	 2.1305326273e+000	-1.2724802895e-001
 4.0836886725e+000	 2.1747440995e+000	-1.5147320469e-001
 4.0599349724e+000	 2.2187727831e+000	-1.7544430447e-001
 4.0356685336e+000	 2.2626099028e+000	-1.9945987448e-001
 4.2796051695e+000	 1.8271416644e+000	 3.5591973844e-002
 4.2598894991e+000	 1.8726476141e+000	 1.6541850102e-002
 4.2396489707e+000	 1.9180314595e+000	-3.8917470037e-003
 4.2188840558e+000	 1.9632844217e+000	-2.6444082887e-002
 4.1975954158e+000	 2.0083977000e+000	-5.1817929924e-002
 4.1757839038e+000	 2.0533624765e+000	-7.7619564428e-002
 4.1534505658e+000	 2.0981699214e+000	-1.0258576739e-001
 4.1305966416e+000	 2.1428111977e+000	-1.2696004289e-001
 4.1072235661e+000	 2.1872774670e+000	-1.5099758906e-001
 4.0833329700e+000	 2.2315598944e+000	-1.7496568876e-001
 4.0589266802e+000	 2.2756496538e+000	-1.9914401746e-001
 4.3041278737e+000	 1.8376114280e+000	 3.3832857614e-002
 4.2842992299e+000	 1.8833781329e+000	 1.4668832952e-002
 4.2639427207e+000	 1.9290220337e+000	-5.8982730411e-003
 4.2430588200e+000	 1.9745343013e+000	-2.8578877198e-002
 4.2216481933e+000	 2.0199060847e+000	-5.3710543582e-002
 4.1997116985e+000	 2.0651285154e+000	-7.8627362607e-002
 4.1772503875e+000	 2.1101927129e+000	-1.0289208482e-001
 4.1542655073e+000	 2.1550897896e+000	-1.2673383373e-001
 4.1307585010e+000	 2.1998108565e+000	-1.5039312594e-001
 4.1067310086e+000	 2.2443470280e+000	-1.7412227449e-001
 4.0821848675e+000	 2.2886894276e+000	-1.9818570805e-001
 4.3286506270e+000	 1.8480812126e+000	 3.0863487600e-002
 4.3087090096e+000	 1.8941086732e+000	 1.1708732449e-002
 4.2882365192e+000	 1.9400126299e+000	-8.8479027018e-003
 4.2672336326e+000	 1.9857842035e+000	-3.1488299440e-002
 4.2457010189e+000	 2.0314144925e+000	-5.5987118301e-002
 4.2236395410e+000	 2.0768945778e+000	-7.9961084051e-002
 4.2010502567e+000	 2.1222155284e+000	-1.0342847889e-001
 4.1779344203e+000	 2.1673684060e+000	-1.2660470098e-001
 4.1542934829e+000	 2.2123442711e+000	-1.4971721331e-001
 4.1301290939e+000	 2.2571341873e+000	-1.7300596988e-001
 4.1054431013e+000	 2.3017292275e+000	-1.9672375448e-001
 4.3531734355e+000	 1.8585510208e+000	 2.6583355971e-002
 4.3331188442e+000	 1.9048392375e+000	 7.6103591313e-003
 4.3125303724e+000	 1.9510032508e+000	-1.2754302410e-002
 4.2914084996e+000	 1.9970341310e+000	-3.5160390674e-002
 4.2697538987e+000	 2.0429229261e+000	-5.8686957818e-002
 4.2475674374e+000	 2.0886606667e+000	-8.1644941338e-002
 4.2248501796e+000	 2.1342383709e+000	-1.0421621562e-001
 4.2016033865e+000	 2.1796470501e+000	-1.2660312046e-001
 4.1778285178e+000	 2.2248777138e+000	-1.4902169390e-001
 4.1535272320e+000	 2.2699213753e+000	-1.7170213130e-001
 4.1287013875e+000	 2.3147690567e+000	-1.9488915203e-001
 3.8961201831e+000	 2.1843716934e+000	-2.0609965718e-001
 3.8721961564e+000	 2.2265058876e+000	-2.2999940246e-001
 3.8477810517e+000	 2.2684381848e+000	-2.5095763607e-001
 3.8228771944e+000	 2.3101601684e+000	-2.6962673071e-001
 3.7974870994e+000	 2.3516634514e+000	-2.8662917769e-001
 3.7716134707e+000	 2.3929396811e+000	-3.0256016906e-001
 3.7452592011e+000	 2.4339805451e+000	-3.1799098491e-001
 3.7184273714e+000	 2.4747777761e+000	-3.3347317406e-001
 3.6911212498e+000	 2.5153231572e+000	-3.4954350810e-001
 3.6633442912e+000	 2.5556085274e+000	-3.6672968044e-001
 3.6351001357e+000	 2.5956257866e+000	-3.8555671380e-001
 3.9193782076e+000	 2.1974113759e+000	-2.0139015097e-001
 3.8953113656e+000	 2.2397970917e+000	-2.2555872942e-001
 3.8707505140e+000	 2.2819797052e+000	-2.4714250154e-001
 3.8456979923e+000	 2.3239507497e+000	-2.6666061271e-001
 3.8201563303e+000	 2.3657017879e+000	-2.8460323116e-001
 3.7941282481e+000	 2.4072244175e+000	-3.0143447379e-001
 3.7676166557e+000	 2.4485102764e+000	-3.1759617262e-001
 3.7406246525e+000	 2.4895510478e+000	-3.3351246937e-001
 3.7131555261e+000	 2.5303384660e+000	-3.4959521698e-001
 3.6852127520e+000	 2.5708643211e+000	-3.6625015846e-001
 3.6567999920e+000	 2.6111204647e+000	-3.8388384452e-001
 3.9426362379e+000	 2.2104510617e+000	-1.9861696743e-001
 3.9184265806e+000	 2.2530882991e+000	-2.2264153039e-001
 3.8937199822e+000	 2.2955212290e+000	-2.4444032645e-001
 3.8685187960e+000	 2.3377413343e+000	-2.6441825327e-001
 3.8428255668e+000	 2.3797401279e+000	-2.8295142183e-001
 3.8166430311e+000	 2.4215091574e+000	-3.0039039238e-001
 3.7899741160e+000	 2.4630400112e+000	-3.1706428878e-001
 3.7628219391e+000	 2.5043243232e+000	-3.3328577799e-001
 3.7351898079e+000	 2.5453537786e+000	-3.4935689257e-001
 3.7070812182e+000	 2.5861201187e+000	-3.6557566518e-001
 3.6784998537e+000	 2.6266151467e+000	-3.8224353479e-001
 3.9658942799e+000	 2.2234907540e+000	-1.9750668146e-001
 3.9415418071e+000	 2.2663795131e+000	-2.2103793351e-001
 3.9166894618e+000	 2.3090627595e+000	-2.4269562896e-001
 3.8913396110e+000	 2.3515319259e+000	-2.6278914361e-001
 3.8654948147e+000	 2.3937784749e+000	-2.8159854505e-001
 3.8391578253e+000	 2.4357939045e+000	-2.9937810561e-001
 3.8123315874e+000	 2.4775697534e+000	-3.1636073360e-001
 3.7850192369e+000	 2.5190976061e+000	-3.3276330919e-001
 3.7572241007e+000	 2.5603690986e+000	-3.4879290169e-001
 3.7289496954e+000	 2.6013759238e+000	-3.6465383607e-001
 3.7001997262e+000	 2.6421098364e+000	-3.8055556659e-001
 3.9891523392e+000	 2.2365304562e+000	-1.9780482155e-001
 3.9646570510e+000	 2.2796707371e+000	-2.2055545494e-001
 3.9396589586e+000	 2.3226043002e+000	-2.4176896367e-001
 3.9141604432e+000	 2.3653225278e+000	-2.6167768097e-001
 3.8881640796e+000	 2.4078168325e+000	-2.8048339996e-001
 3.8616726365e+000	 2.4500786623e+000	-2.9836113062e-001
 3.8346890756e+000	 2.4920995064e+000	-3.1546381742e-001
 3.8072165513e+000	 2.5338709000e+000	-3.3192800327e-001
 3.7792584100e+000	 2.5753844299e+000	-3.4788041595e-001
 3.7508181889e+000	 2.6166317404e+000	-3.6344544328e-001
 3.7218996151e+000	 2.6576045378e+000	-3.7875345366e-001
 4.0124104219e+000	 2.2495701713e+000	-1.9898674597e-001
 3.9877723179e+000	 2.2929619745e+000	-2.2101863278e-001
 3.9626284784e+000	 2.3361458544e+000	-2.4153659223e-001
 3.9369812982e+000	 2.3791131435e+000	-2.6100287039e-001
 3.9108333672e+000	 2.4218552041e+000	-2.7955851660e-001
 3.8841874701e+000	 2.4643634344e+000	-2.9731606748e-001
 3.8570465861e+000	 2.5066292740e+000	-3.1436452053e-001
 3.8294138879e+000	 2.5486442086e+000	-3.3077529841e-001
 3.8012927413e+000	 2.5903997763e+000	-3.4660917906e-001
 3.7726867043e+000	 2.6318875722e+000	-3.6192415684e-001
 3.7435995256e+000	 2.6730992547e+000	-3.7677124107e-001
 4.0356685336e+000	 2.2626099028e+000	-1.9945987448e-001
 4.0108876138e+000	 2.3062532284e+000	-2.2205760030e-001
 3.9855980269e+000	 2.3496874256e+000	-2.4189015757e-001
 3.9598021817e+000	 2.3929037764e+000	-2.6069802899e-001
 3.9335026831e+000	 2.4358935932e+000	-2.7878988483e-001
 3.9067023319e+000	 2.4786482244e+000	-2.9623234690e-001
 3.8794041246e+000	 2.5211590597e+000	-3.1306625383e-001
 3.8516112522e+000	 2.5634175357e+000	-3.2931289810e-001
 3.8233271002e+000	 2.6054151414e+000	-3.4498127490e-001
 3.7945552471e+000	 2.6471434231e+000	-3.6007630686e-001
 3.7652994632e+000	 2.6885939909e+000	-3.7447072754e-001
 4.0589266802e+000	 2.2756496538e+000	-1.9914401746e-001
 4.0340029444e+000	 2.3195445022e+000	-2.2222561439e-001
 4.0085676099e+000	 2.3632290171e+000	-2.4261248603e-001
 3.9826230995e+000	 2.4066944300e+000	-2.6071049291e-001
 3.9561720330e+000	 2.4499320034e+000	-2.7815668490e-001
 3.9292172275e+000	 2.4929330358e+000	-2.9511197906e-001
 3.9017616966e+000	 2.5356888672e+000	-3.1158462021e-001
 3.8738086499e+000	 2.5781908850e+000	-3.2756053925e-001
 3.8453614922e+000	 2.6204305290e+000	-3.4301089627e-001
 3.8164238226e+000	 2.6623992969e+000	-3.5790064675e-001
 3.7869994334e+000	 2.7040887503e+000	-3.7183825260e-001
 4.0821848675e+000	 2.2886894276e+000	-1.9818570805e-001
 4.0571183154e+000	 2.3328357994e+000	-2.2143770012e-001
 4.0315372331e+000	 2.3767706323e+000	-2.4241425405e-001
 4.0054440571e+000	 2.4204851078e+000	-2.6095401301e-001
 3.9788414226e+000	 2.4639704382e+000	-2.7765101975e-001
 3.9517321625e+000	 2.5072178722e+000	-2.9396930355e-001
 3.9241193077e+000	 2.5502187002e+000	-3.0994717663e-001
 3.8960060863e+000	 2.5929642602e+000	-3.2554976086e-001
 3.8673959227e+000	 2.6354459429e+000	-3.4072411427e-001
 3.8382924365e+000	 2.6776551974e+000	-3.5538641833e-001
 3.8086994416e+000	 2.7195835369e+000	-3.6889875879e-001
 4.1054431013e+000	 2.3017292275e+000	-1.9672375448e-001
 4.0802337326e+000	 2.3461271231e+000	-2.1988229233e-001
 4.0545069021e+000	 2.3903122745e+000	-2.4115553932e-001
 4.0282650605e+000	 2.4342758131e+000	-2.6034027017e-001
 4.0015108575e+000	 2.4780089010e+000	-2.7727420708e-001
 3.9742471425e+000	 2.5215027371e+000	-2.9283074029e-001
 3.9464769636e+000	 2.5647485622e+000	-3.0819319697e-001
 3.9182035672e+000	 2.6077376649e+000	-3.2332367317e-001
 3.8894303972e+000	 2.6504613868e+000	-3.3815864841e-001
 3.8601610940e+000	 2.6929111284e+000	-3.5251482028e-001
 3.8303994932e+000	 2.7350783545e+000	-3.6568628538e-001
 4.1287013875e+000	 2.3147690567e+000	-1.9488915203e-001
 4.1033492018e+000	 2.3594184767e+000	-2.1773870496e-001
 4.0774766229e+000	 2.4038539472e+000	-2.3905704568e-001
 4.0510861151e+000	 2.4480665494e+000	-2.5861427197e-001
 4.0241803434e+000	 2.4920473954e+000	-2.7621905260e-001
 3.9967621731e+000	 2.5357876342e+000	-2.9173454148e-001
 3.9688346697e+000	 2.5792784569e+000	-3.0637343544e-001
 3.9404010980e+000	 2.6225111028e+000	-3.2093672753e-001
 3.9114649214e+000	 2.6654768645e+000	-3.3536363723e-001
 3.8820298008e+000	 2.7081670937e+000	-3.4934981322e-001
 3.8520995936e+000	 2.7505732069e+000	-3.6224315182e-001
 3.6351001357e+000	 2.5956257866e+000	-3.8555671380e-001
 3.6063926063e+000	 2.6353668999e+000	-4.0701004318e-001
 3.5772257048e+000	 2.6748239003e+000	-4.3118564454e-001
 3.5476036128e+000	 2.7139888964e+000	-4.5599421002e-001
 3.5175306915e+000	 2.7528540782e+000	-4.7964051575e-001
 3.4870114791e+000	 2.7914117222e+000	-5.0086351061e-001
 3.4560506892e+000	 2.8296541964e+000	-5.1841763699e-001
 3.4246532080e+000	 2.8675739655e+000	-5.3108067206e-001
 3.3928240923e+000	 2.9051635954e+000	-5.3766225160e-001
 3.3605685667e+000	 2.9424157581e+000	-5.3701303922e-001
 3.3278920205e+000	 2.9793232365e+000	-5.2839816394e-001
 3.6567999920e+000	 2.6111204647e+000	-3.8388384452e-001
 3.6279210920e+000	 2.6510988139e+000	-4.0359933483e-001
 3.5985800776e+000	 2.6907913543e+000	-4.2562131542e-001
 3.5687811556e+000	 2.7301901472e+000	-4.4799728362e-001
 3.5385287129e+000	 2.7692873361e+000	-4.6964437121e-001
 3.5078273150e+000	 2.8080751512e+000	-4.8960174381e-001
 3.4766817036e+000	 2.8465459153e+000	-5.0691498042e-001
 3.4450967940e+000	 2.8846920477e+000	-5.2064347777e-001
 3.4130776734e+000	 2.9225060702e+000	-5.2986858823e-001
 3.3806295973e+000	 2.9599806109e+000	-5.3370245438e-001
 3.3477579873e+000	 2.9971084099e+000	-5.3129749482e-001
 3.6784998537e+000	 2.6266151467e+000	-3.8224353479e-001
 3.6494495830e+000	 2.6668307320e+000	-4.0052066860e-001
 3.6199344558e+000	 2.7067588123e+000	-4.2043135526e-001
 3.5899587036e+000	 2.7463914021e+000	-4.4064520779e-001
 3.5595267396e+000	 2.7857205980e+000	-4.6047646314e-001
 3.5286431562e+000	 2.8247385844e+000	-4.7923106125e-001
 3.4973127231e+000	 2.8634376383e+000	-4.9621286175e-001
 3.4655403852e+000	 2.9018101342e+000	-5.1073067280e-001
 3.4333312595e+000	 2.9398485493e+000	-5.2210606488e-001
 3.4006906328e+000	 2.9775454682e+000	-5.2968193307e-001
 3.3676239591e+000	 3.0148935877e+000	-5.3283176249e-001
 3.7001997262e+000	 2.6421098364e+000	-3.8055556659e-001
 3.6709780849e+000	 2.6825626578e+000	-3.9755445501e-001
 3.6412888447e+000	 2.7227262783e+000	-4.1553604924e-001
 3.6111362623e+000	 2.7625926651e+000	-4.3384838333e-001
 3.5805247767e+000	 2.8021538682e+000	-4.5204722677e-001
 3.5494590077e+000	 2.8414020260e+000	-4.6967249484e-001
 3.5179437530e+000	 2.8803293698e+000	-4.8625409904e-001
 3.4859839866e+000	 2.9189282292e+000	-5.0131866096e-001
 3.4535848557e+000	 2.9571910371e+000	-5.1439706320e-001
 3.4207516785e+000	 2.9951103342e+000	-5.2503280114e-001
 3.3874899407e+000	 3.0326787744e+000	-5.3279109017e-001
 3.7218996151e+000	 2.6576045378e+000	-3.7875345366e-001
 3.6925066029e+000	 2.6982945955e+000	-3.9453131148e-001
 3.6626432496e+000	 2.7386937563e+000	-4.1086921550e-001
 3.6323138368e+000	 2.7787939402e+000	-4.2753064408e-001
 3.6015228296e+000	 2.8185871507e+000	-4.4428023581e-001
 3.5702748748e+000	 2.8580654800e+000	-4.6085971273e-001
 3.5385747984e+000	 2.8972211140e+000	-4.7699342349e-001
 3.5064276033e+000	 2.9360463371e+000	-4.9239480211e-001
 3.4738384671e+000	 2.9745335379e+000	-5.0677371667e-001
 3.4408127391e+000	 3.0126752135e+000	-5.1984467179e-001
 3.4073559373e+000	 3.0504639744e+000	-5.3133581927e-001
 3.7435995256e+000	 2.6730992547e+000	-3.7677124107e-001
 3.7140351424e+000	 2.7140265489e+000	-3.9141672067e-001
 3.6839976758e+000	 2.7546612502e+000	-4.0637733685e-001
 3.6534914325e+000	 2.7949952315e+000	-4.2162837700e-001
 3.6225209035e+000	 2.8350204497e+000	-4.3711131861e-001
 3.5910907628e+000	 2.8747289507e+000	-4.5273813956e-001
 3.5592058643e+000	 2.9141128750e+000	-4.6839661216e-001
 3.5268712405e+000	 2.9531644621e+000	-4.8395656619e-001
 3.4940920988e+000	 2.9918760561e+000	-4.9927709516e-001
 3.4608738198e+000	 3.0302401103e+000	-5.1421467030e-001
 3.4272219538e+000	 3.0682491922e+000	-5.2863211571e-001
 3.7652994632e+000	 2.6885939909e+000	-3.7447072754e-001
 3.7355637088e+000	 2.7297585220e+000	-3.8818791988e-001
 3.7053521288e+000	 2.7706287641e+000	-4.0201869518e-001
 3.6746690547e+000	 2.8111965430e+000	-4.1608964525e-001
 3.6435190037e+000	 2.8514537691e+000	-4.3048767727e-001
 3.6119066767e+000	 2.8913924423e+000	-4.4526407928e-001
 3.5798369561e+000	 2.9310046572e+000	-4.6043962281e-001
 3.5473149032e+000	 2.9702826085e+000	-4.7601068854e-001
 3.5143457558e+000	 3.0092185959e+000	-4.9195638972e-001
 3.4809349256e+000	 3.0478050290e+000	-5.0824665756e-001
 3.4470879951e+000	 3.0860344322e+000	-5.2485124183e-001
 3.7869994334e+000	 2.7040887503e+000	-3.7183825260e-001
 3.7570923075e+000	 2.7454905186e+000	-3.8483305584e-001
 3.7267066137e+000	 2.7865963019e+000	-3.9776250835e-001
 3.6958467086e+000	 2.8273978789e+000	-4.1087331397e-001
 3.6645171353e+000	 2.8678871133e+000	-4.2436700935e-001
 3.6327226219e+000	 2.9080559588e+000	-4.3840384046e-001
 3.6004680788e+000	 2.9478964647e+000	-4.5310773058e-001
 3.5677585966e+000	 2.9874007806e+000	-4.6857232639e-001
 3.5345994432e+000	 3.0265611617e+000	-4.8486809739e-001
 3.5009960615e+000	 3.0653699741e+000	-5.0205045236e-001
 3.4669540662e+000	 3.1038196989e+000	-5.2016882548e-001
 3.8086994416e+000	 2.7195835369e+000	-3.6889875879e-001
 3.7786209439e+000	 2.7612225428e+000	-3.8135034169e-001
 3.7480611361e+000	 2.8025638677e+000	-3.9358806969e-001
 3.7170243996e+000	 2.8435992431e+000	-4.0594817870e-001
 3.6855153037e+000	 2.8843204861e+000	-4.1871663228e-001
 3.6535386035e+000	 2.9247195045e+000	-4.3213286392e-001
 3.6210992376e+000	 2.9647883017e+000	-4.4639466655e-001
 3.5882023257e+000	 3.0045189826e+000	-4.6166421634e-001
 3.5548531660e+000	 3.0439037579e+000	-4.7807520620e-001
 3.5210572325e+000	 3.0829349499e+000	-4.9574105246e-001
 3.4868201720e+000	 3.1216049968e+000	-5.1476412633e-001
 3.8303994932e+000	 2.7350783545e+000	-3.6568628538e-001
 3.8001496233e+000	 2.7769545985e+000	-3.7774721585e-001
 3.7694157011e+000	 2.8185314654e+000	-3.8948388965e-001
 3.7382021329e+000	 2.8598006397e+000	-4.0129209634e-001
 3.7065135141e+000	 2.9007538919e+000	-4.1351261022e-001
 3.6743546268e+000	 2.9413830835e+000	-4.2643485261e-001
 3.6417304377e+000	 2.9816801726e+000	-4.4030175817e-001
 3.6086460957e+000	 3.0216372188e+000	-4.5531583306e-001
 3.5751069293e+000	 3.0612463888e+000	-4.7164638018e-001
 3.5411184436e+000	 3.1004999609e+000	-4.8943785451e-001
 3.5066863176e+000	 3.1393903302e+000	-5.0881929946e-001
 3.8520995936e+000	 2.7505732069e+000	-3.6224315182e-001
 3.8216783512e+000	 2.7926866895e+000	-3.7403950282e-001
 3.7907703142e+000	 2.8344990990e+000	-3.8544683987e-001
 3.7593799139e+000	 2.8760020728e+000	-3.9689111851e-001
 3.7275117717e+000	 2.9171873346e+000	-4.0873888335e-001
 3.6951706969e+000	 2.9580467000e+000	-4.2130090364e-001
 3.6623616842e+000	 2.9985720814e+000	-4.3483707123e-001
 3.6290899118e+000	 3.0387554936e+000	-4.4956254890e-001
 3.5953607382e+000	 3.0785890587e+000	-4.6565514446e-001
 3.5611796998e+000	 3.1180650113e+000	-4.8326387291e-001
 3.5265525078e+000	 3.1571757036e+000	-5.0251865650e-001
 3.3278920205e+000	 2.9793232365e+000	-5.2839816394e-001
 3.2948050001e+000	 3.0158734733e+000	-5.2455700264e-001
 3.2613083459e+000	 3.0520650543e+000	-5.2985741871e-001
 3.2274079240e+000	 3.0878911282e+000	-5.4207016477e-001
 3.1931097526e+000	 3.1233449728e+000	-5.5868537478e-001
 3.1584199984e+000	 3.1584199984e+000	-5.7695820751e-001
 3.1233449728e+000	 3.1931097526e+000	-5.9395524175e-001
 3.0878911282e+000	 3.2274079240e+000	-6.0660123491e-001
 3.0520650543e+000	 3.2613083459e+000	-6.1172585946e-001
 3.0158734733e+000	 3.2948050001e+000	-6.0611003739e-001
 2.9793232365e+000	 3.3278920205e+000	-5.8653150197e-001
 3.3477579873e+000	 2.9971084099e+000	-5.3129749482e-001
 3.3144734528e+000	 3.0338768346e+000	-5.2268633664e-001
 3.2807768392e+000	 3.0702844624e+000	-5.2283145040e-001
 3.2466740475e+000	 3.1063244014e+000	-5.3176041008e-001
 3.2121711320e+000	 3.1419898888e+000	-5.4664080105e-001
 3.1772742960e+000	 3.1772742960e+000	-5.6440395002e-001
 3.1419898888e+000	 3.2121711320e+000	-5.8179366038e-001
 3.1063244014e+000	 3.2466740475e+000	-5.9541528937e-001
 3.0702844624e+000	 3.2807768392e+000	-6.0178476556e-001
 3.0338768346e+000	 3.3144734528e+000	-5.9737715135e-001
 2.9971084099e+000	 3.3477579873e+000	-5.7921009610e-001
 3.3676239591e+000	 3.0148935877e+000	-5.3283176249e-001
 3.3341419104e+000	 3.0518802003e+000	-5.2740674259e-001
 3.3002453373e+000	 3.0885038752e+000	-5.2109974306e-001
 3.2659401758e+000	 3.1247576791e+000	-5.2543514176e-001
 3.2312325161e+000	 3.1606348096e+000	-5.3730586698e-001
 3.1961285984e+000	 3.1961285984e+000	-5.5335785656e-001
 3.1606348096e+000	 3.2312325161e+000	-5.7004961458e-001
 3.1247576791e+000	 3.2659401758e+000	-5.8370360255e-001
 3.0885038752e+000	 3.3002453373e+000	-5.9055753357e-001
 3.0518802003e+000	 3.3341419104e+000	-5.8681696922e-001
 3.0148935877e+000	 3.3676239591e+000	-5.7170523030e-001
 3.3874899407e+000	 3.0326787744e+000	-5.3279109017e-001
 3.3538103778e+000	 3.0698835751e+000	-5.3369060995e-001
 3.3197138451e+000	 3.1067232970e+000	-5.2464961150e-001
 3.2852063138e+000	 3.1431909661e+000	-5.2313456211e-001
 3.2502939098e+000	 3.1792797397e+000	-5.3076272071e-001
 3.2149829103e+000	 3.2149829103e+000	-5.4393220295e-001
 3.1792797397e+000	 3.2502939098e+000	-5.5885283186e-001
 3.1431909661e+000	 3.2852063138e+000	-5.7159984101e-001
 3.1067232970e+000	 3.3197138451e+000	-5.7816744339e-001
 3.0698835751e+000	 3.3538103778e+000	-5.7558977303e-001
 3.0326787744e+000	 3.3874899407e+000	-5.6411846090e-001
 3.4073559373e+000	 3.0504639744e+000	-5.3133581927e-001
 3.3734788600e+000	 3.0878869634e+000	-5.3748027406e-001
 3.3391823675e+000	 3.1249427324e+000	-5.3304904614e-001
 3.3044724662e+000	 3.1616242669e+000	-5.2487363765e-001
 3.2693553177e+000	 3.1979246837e+000	-5.2706795076e-001
 3.2338372362e+000	 3.2338372362e+000	-5.3621361765e-001
 3.1979246837e+000	 3.2693553177e+000	-5.4830755116e-001
 3.1616242669e+000	 3.3044724662e+000	-5.5921259859e-001
 3.1249427324e+000	 3.3391823675e+000	-5.6480013087e-001
 3.0878869634e+000	 3.3734788600e+000	-5.6463860509e-001
 3.0504639744e+000	 3.4073559373e+000	-5.5643971220e-001
 3.4272219538e+000	 3.0682491922e+000	-5.2863211571e-001
 3.3931473618e+000	 3.1058903696e+000	-5.3901312397e-001
 3.3586509095e+000	 3.1431621861e+000	-5.4019755286e-001
 3.3237386378e+000	 3.1800575861e+000	-5.3064354858e-001
 3.2884167448e+000	 3.2165696465e+000	-5.2625408891e-001
 3.2526915810e+000	 3.2526915810e+000	-5.3026462846e-001
 3.2165696465e+000	 3.2884167448e+000	-5.3849410334e-001
 3.1800575861e+000	 3.3237386378e+000	-5.4662700000e-001
 3.1431621861e+000	 3.3586509095e+000	-5.5186574367e-001
 3.1058903696e+000	 3.3931473618e+000	-5.5396107645e-001
 3.0682491922e+000	 3.4272219538e+000	-5.4862487148e-001
 3.4470879951e+000	 3.0860344322e+000	-5.2485124183e-001
 3.4128158883e+000	 3.1238937984e+000	-5.3853000084e-001
 3.3781194757e+000	 3.1613816626e+000	-5.4426179320e-001
 3.3430048336e+000	 3.1984909284e+000	-5.3940103210e-001
 3.3074781956e+000	 3.2352146325e+000	-5.2833110443e-001
 3.2715459494e+000	 3.2715459494e+000	-5.2612519992e-001
 3.2352146325e+000	 3.3074781956e+000	-5.2947048189e-001
 3.1984909284e+000	 3.3430048336e+000	-5.3413488257e-001
 3.1613816626e+000	 3.3781194757e+000	-5.3982188620e-001
 3.1238937984e+000	 3.4128158883e+000	-5.4352212551e-001
 3.0860344322e+000	 3.4470879951e+000	-5.4059825944e-001
 3.4669540662e+000	 3.1038196989e+000	-5.2016882548e-001
 3.4324844442e+000	 3.1418972542e+000	-5.3627451612e-001
 3.3975880711e+000	 3.1796011664e+000	-5.4554446184e-001
 3.3622710582e+000	 3.2169242983e+000	-5.4526710028e-001
 3.3265396750e+000	 3.2538596464e+000	-5.3328789000e-001
 3.2904003461e+000	 3.2904003461e+000	-5.2381426174e-001
 3.2538596464e+000	 3.3265396750e+000	-5.2127390429e-001
 3.2169242983e+000	 3.3622710582e+000	-5.2310098185e-001
 3.1796011664e+000	 3.3975880711e+000	-5.2862801394e-001
 3.1418972542e+000	 3.4324844442e+000	-5.3325649263e-001
 3.1038196989e+000	 3.4669540662e+000	-5.3225509284e-001
 3.4868201720e+000	 3.1216049968e+000	-5.1476412633e-001
 3.4521530345e+000	 3.1599007414e+000	-5.3249236517e-001
 3.4170567006e+000	 3.1978207021e+000	-5.4434904022e-001
 3.3815373165e+000	 3.2353577004e+000	-5.4759470311e-001
 3.3456011878e+000	 3.2725046930e+000	-5.3957920032e-001
 3.3092547757e+000	 3.3092547757e+000	-5.2333122858e-001
 3.2725046930e+000	 3.3456011878e+000	-5.1427312240e-001
 3.2353577004e+000	 3.3815373165e+000	-5.1369094502e-001
 3.1978207021e+000	 3.4170567006e+000	-5.1821497041e-001
 3.1599007414e+000	 3.4521530345e+000	-5.2307118639e-001
 3.1216049968e+000	 3.4868201720e+000	-5.2346393966e-001
 3.5066863176e+000	 3.1393903302e+000	-5.0881929946e-001
 3.4718216642e+000	 3.1779042647e+000	-5.2743063683e-001
 3.4365253691e+000	 3.2160402742e+000	-5.4097914695e-001
 3.4008036134e+000	 3.2537911395e+000	-5.4673492959e-001
 3.3646627387e+000	 3.2911497769e+000	-5.4205532694e-001
 3.3281092431e+000	 3.3281092431e+000	-5.2465751165e-001
 3.2911497769e+000	 3.3646627387e+000	-5.0965374478e-001
 3.2537911395e+000	 3.4008036134e+000	-5.0581869020e-001
 3.2160402742e+000	 3.4365253691e+000	-5.0848744390e-001
 3.1779042647e+000	 3.4718216642e+000	-5.1284794188e-001
 3.1393903302e+000	 3.5066863176e+000	-5.1406916708e-001
 3.5265525078e+000	 3.1571757036e+000	-5.0251865650e-001
 3.4914903382e+000	 3.1959078285e+000	-5.2133711879e-001
 3.4559940813e+000	 3.2342598873e+000	-5.3573788281e-001
 3.4200699536e+000	 3.2722246200e+000	-5.4303738841e-001
 3.3837243325e+000	 3.3097949028e+000	-5.4063635579e-001
 3.3469637528e+000	 3.3469637528e+000	-5.2644638835e-001
 3.3097949028e+000	 3.3837243325e+000	-5.0740877158e-001
 3.2722246200e+000	 3.4200699536e+000	-4.9937371683e-001
 3.2342598873e+000	 3.4559940813e+000	-4.9932641623e-001
 3.1959078285e+000	 3.4914903382e+000	-5.0244567137e-001
 3.1571757036e+000	 3.5265525078e+000	-5.0389338269e-001
 2.9793232365e+000	 3.3278920205e+000	-5.8653150197e-001
 2.9424157581e+000	 3.3605685667e+000	-5.6303531197e-001
 2.9051635954e+000	 3.3928240923e+000	-5.4840933520e-001
 2.8675739655e+000	 3.4246532080e+000	-5.4122500831e-001
 2.8296541964e+000	 3.4560506892e+000	-5.4000367831e-001
 2.7914117222e+000	 3.4870114791e+000	-5.4332740677e-001
 2.7528540782e+000	 3.5175306915e+000	-5.4987194776e-001
 2.7139888964e+000	 3.5476036128e+000	-5.5843679494e-001
 2.6748239003e+000	 3.5772257048e+000	-5.6797210814e-001
 2.6353668999e+000	 3.6063926063e+000	-5.7649854251e-001
 2.5956257866e+000	 3.6351001357e+000	-5.8187418226e-001
 2.9971084099e+000	 3.3477579873e+000	-5.7921009610e-001
 2.9599806109e+000	 3.3806295973e+000	-5.5891337660e-001
 2.9225060702e+000	 3.4130776734e+000	-5.4628090100e-001
 2.8846920477e+000	 3.4450967940e+000	-5.3999761430e-001
 2.8465459153e+000	 3.4766817036e+000	-5.3877486149e-001
 2.8080751512e+000	 3.5078273150e+000	-5.4138690761e-001
 2.7692873361e+000	 3.5385287129e+000	-5.4670461808e-001
 2.7301901472e+000	 3.5687811556e+000	-5.5372607164e-001
 2.6907913543e+000	 3.5985800776e+000	-5.6160391132e-001
 2.6510988139e+000	 3.6279210920e+000	-5.6942410095e-001
 2.6111204647e+000	 3.6567999920e+000	-5.7488412682e-001
 3.0148935877e+000	 3.3676239591e+000	-5.7170523030e-001
 2.9775454682e+000	 3.4006906328e+000	-5.5461204266e-001
 2.9398485493e+000	 3.4333312595e+000	-5.4401520537e-001
 2.9018101342e+000	 3.4655403852e+000	-5.3875646633e-001
 2.8634376383e+000	 3.4973127231e+000	-5.3770659525e-001
 2.8247385844e+000	 3.5286431562e+000	-5.3980282081e-001
 2.7857205980e+000	 3.5595267396e+000	-5.4408329033e-001
 2.7463914021e+000	 3.5899587036e+000	-5.4971831805e-001
 2.7067588123e+000	 3.6199344558e+000	-5.5603822186e-001
 2.6668307320e+000	 3.6494495830e+000	-5.6255758436e-001
 2.6266151467e+000	 3.6784998537e+000	-5.6783710518e-001
 3.0326787744e+000	 3.3874899407e+000	-5.6411846090e-001
 2.9951103342e+000	 3.4207516785e+000	-5.5010943033e-001
 2.9571910371e+000	 3.4535848557e+000	-5.4154991701e-001
 2.9189282292e+000	 3.4859839866e+000	-5.3740713440e-001
 2.8803293698e+000	 3.5179437530e+000	-5.3668120326e-001
 2.8414020260e+000	 3.5494590077e+000	-5.3844359072e-001
 2.8021538682e+000	 3.5805247767e+000	-5.4187242672e-001
 2.7625926651e+000	 3.6111362623e+000	-5.4628445683e-001
 2.7227262783e+000	 3.6412888447e+000	-5.5116342601e-001
 2.6825626578e+000	 3.6709780849e+000	-5.5618472494e-001
 2.6421098364e+000	 3.7001997262e+000	-5.6086472067e-001
 3.0504639744e+000	 3.4073559373e+000	-5.5643971220e-001
 3.0126752135e+000	 3.4408127391e+000	-5.4534825872e-001
 2.9745335379e+000	 3.4738384671e+000	-5.3878811030e-001
 2.9360463371e+000	 3.5064276033e+000	-5.3582107880e-001
 2.8972211140e+000	 3.5385747984e+000	-5.3554704822e-001
 2.8580654800e+000	 3.5702748748e+000	-5.3714350102e-001
 2.8185871507e+000	 3.6015228296e+000	-5.3990176872e-001
 2.7787939402e+000	 3.6323138368e+000	-5.4325975869e-001
 2.7386937563e+000	 3.6626432496e+000	-5.4683094584e-001
 2.6982945955e+000	 3.6925066029e+000	-5.5042945688e-001
 2.6576045378e+000	 3.7218996151e+000	-5.5404884263e-001
 3.0682491922e+000	 3.4272219538e+000	-5.4862487148e-001
 3.0302401103e+000	 3.4608738198e+000	-5.4023830510e-001
 2.9918760561e+000	 3.4940920988e+000	-5.3560070822e-001
 2.9531644621e+000	 3.5268712405e+000	-5.3383807984e-001
 2.9141128750e+000	 3.5592058643e+000	-5.3412095203e-001
 2.8747289507e+000	 3.5910907628e+000	-5.3570508907e-001
 2.8350204497e+000	 3.6225209035e+000	-5.3796874989e-001
 2.7949952315e+000	 3.6534914325e+000	-5.4044625816e-001
 2.7546612502e+000	 3.6839976758e+000	-5.4285766287e-001
 2.7140265489e+000	 3.7140351424e+000	-5.4513431254e-001
 2.6730992547e+000	 3.7435995256e+000	-5.4744020686e-001
 3.0860344322e+000	 3.4470879951e+000	-5.4059825944e-001
 3.0478050290e+000	 3.4809349256e+000	-5.3465885719e-001
 3.0092185959e+000	 3.5143457558e+000	-5.3182891907e-001
 2.9702826085e+000	 3.5473149032e+000	-5.3126866207e-001
 2.9310046572e+000	 3.5798369561e+000	-5.3219061077e-001
 2.8913924423e+000	 3.6119066767e+000	-5.3390155532e-001
 2.8514537691e+000	 3.6435190037e+000	-5.3584090360e-001
 2.8111965430e+000	 3.6746690547e+000	-5.3761516401e-001
 2.7706287641e+000	 3.7053521288e+000	-5.3902833564e-001
 2.7297585220e+000	 3.7355637088e+000	-5.4010802441e-001
 2.6885939909e+000	 3.7652994632e+000	-5.4112714608e-001
 3.1038196989e+000	 3.4669540662e+000	-5.3225509284e-001
 3.0653699741e+000	 3.5009960615e+000	-5.2846115856e-001
 3.0265611617e+000	 3.5345994432e+000	-5.2728666719e-001
 2.9874007806e+000	 3.5677585966e+000	-5.2789651307e-001
 2.9478964647e+000	 3.6004680788e+000	-5.2951700470e-001
 2.9080559588e+000	 3.6327226219e+000	-5.3147916793e-001
 2.8678871133e+000	 3.6645171353e+000	-5.3325826602e-001
 2.8273978789e+000	 3.6958467086e+000	-5.3450926455e-001
 2.7865963019e+000	 3.7267066137e+000	-5.3509801180e-001
 2.7454905186e+000	 3.7570923075e+000	-5.3512794842e-001
 2.7040887503e+000	 3.7869994334e+000	-5.3496220419e-001
 3.1216049968e+000	 3.4868201720e+000	-5.2346393966e-001
 3.0829349499e+000	 3.5210572325e+000	-5.2147084752e-001
 3.0439037579e+000	 3.5548531660e+000	-5.2176301794e-001
 3.0045189826e+000	 3.5882023257e+000	-5.2348089718e-001
 2.9647883017e+000	 3.6210992376e+000	-5.2583680355e-001
 2.9247195045e+000	 3.6535386035e+000	-5.2815966285e-001
 2.8843204861e+000	 3.6855153037e+000	-5.2993577446e-001
 2.8435992431e+000	 3.7170243996e+000	-5.3084532806e-001
 2.8025638677e+000	 3.7480611361e+000	-5.3079443468e-001
 2.7612225428e+000	 3.7786209439e+000	-5.2994248113e-001
 2.7195835369e+000	 3.8086994416e+000	-5.2872466254e-001
 3.1393903302e+000	 3.5066863176e+000	-5.1406916708e-001
 3.1004999609e+000	 3.5411184436e+000	-5.1349038990e-001
 3.0612463888e+000	 3.5751069293e+000	-5.1502459729e-001
 3.0216372188e+000	 3.6086460957e+000	-5.1775906423e-001
 2.9816801726e+000	 3.6417304377e+000	-5.2086476729e-001
 2.9413830835e+000	 3.6743546268e+000	-5.2364263951e-001
 2.9007538919e+000	 3.7065135141e+000	-5.2556566133e-001
 2.8598006397e+000	 3.7382021329e+000	-5.2631649858e-001
 2.8185314654e+000	 3.7694157011e+000	-5.2582044472e-001
 2.7769545985e+000	 3.8001496233e+000	-5.2427347100e-001
 2.7350783545e+000	 3.8303994932e+000	-5.2216523621e-001
 3.1571757036e+000	 3.5265525078e+000	-5.0389338269e-001
 3.1180650113e+000	 3.5611796998e+000	-5.0430150573e-001
 3.0785890587e+000	 3.5953607382e+000	-5.0681800606e-001
 3.0387554936e+000	 3.6290899118e+000	-5.1044865373e-001
 2.9985720814e+000	 3.6623616842e+000	-5.1429614255e-001
 2.9580467000e+000	 3.6951706969e+000	-5.1760795243e-001
 2.9171873346e+000	 3.7275117717e+000	-5.1981984388e-001
 2.8760020728e+000	 3.7593799139e+000	-5.2059468719e-001
 2.8344990990e+000	 3.7907703142e+000	-5.1985637599e-001
 2.7926866895e+000	 3.8216783512e+000	-5.1781862397e-001
 2.7505732069e+000	 3.8520995936e+000	-5.1500849284e-001
 2.5956257866e+000	 3.6351001357e+000	-5.8187418226e-001
 2.5556085274e+000	 3.6633442912e+000	-5.8107549520e-001
 2.5153231572e+000	 3.6911212498e+000	-5.7148322903e-001
 2.4747777761e+000	 3.7184273714e+000	-5.5467256928e-001
 2.4339805451e+000	 3.7452592011e+000	-5.3229677595e-001
 2.3929396811e+000	 3.7716134707e+000	-5.0608712287e-001
 2.3516634514e+000	 3.7974870994e+000	-4.7785086903e-001
 2.3101601684e+000	 3.8228771944e+000	-4.4946732041e-001
 2.2684381848e+000	 3.8477810517e+000	-4.2288205957e-001
 2.2265058876e+000	 3.8721961564e+000	-4.0009943717e-001
 2.1843716934e+000	 3.8961201831e+000	-3.8317343565e-001
 2.6111204647e+000	 3.6567999920e+000	-5.7488412682e-001
 2.5708643211e+000	 3.6852127520e+000	-5.7443223025e-001
 2.5303384660e+000	 3.7131555261e+000	-5.6533421921e-001
 2.4895510478e+000	 3.7406246525e+000	-5.4911753966e-001
 2.4485102764e+000	 3.7676166557e+000	-5.2739426853e-001
 2.4072244175e+000	 3.7941282481e+000	-5.0186101052e-001
 2.3657017879e+000	 3.8201563303e+000	-4.7429672921e-001
 2.3239507497e+000	 3.8456979923e+000	-4.4655857480e-001
 2.2819797052e+000	 3.8707505140e+000	-4.2057578955e-001
 2.2397970917e+000	 3.8953113656e+000	-3.9834179012e-001
 2.1974113759e+000	 3.9193782076e+000	-3.8190454271e-001
 2.6266151467e+000	 3.6784998537e+000	-5.6783710518e-001
 2.5861201187e+000	 3.7070812182e+000	-5.6740113361e-001
 2.5453537786e+000	 3.7351898079e+000	-5.5844808405e-001
 2.5043243232e+000	 3.7628219391e+000	-5.4246145602e-001
 2.4630400112e+000	 3.7899741160e+000	-5.2101718989e-001
 2.4215091574e+000	 3.8166430311e+000	-4.9578350182e-001
 2.3797401279e+000	 3.8428255668e+000	-4.6851855039e-001
 2.3377413343e+000	 3.8685187960e+000	-4.4106600047e-001
 2.2955212290e+000	 3.8937199822e+000	-4.1534856997e-001
 2.2530882991e+000	 3.9184265806e+000	-3.9335966378e-001
 2.2104510617e+000	 3.9426362379e+000	-3.7715321658e-001
 2.6421098364e+000	 3.7001997262e+000	-5.6086472067e-001
 2.6013759238e+000	 3.7289496954e+000	-5.6016955236e-001
 2.5603690986e+000	 3.7572241007e+000	-5.5108060400e-001
 2.5190976061e+000	 3.7850192369e+000	-5.3504140454e-001
 2.4775697534e+000	 3.8123315874e+000	-5.1359699130e-001
 2.4357939045e+000	 3.8391578253e+000	-4.8839366351e-001
 2.3937784749e+000	 3.8654948147e+000	-4.6117645929e-001
 2.3515319259e+000	 3.8913396110e+000	-4.3378442533e-001
 2.3090627595e+000	 3.9166894618e+000	-4.0814376957e-001
 2.2663795131e+000	 3.9415418071e+000	-3.8625900660e-001
 2.2234907540e+000	 3.9658942799e+000	-3.7020222340e-001
 2.6576045378e+000	 3.7218996151e+000	-5.5404884263e-001
 2.6166317404e+000	 3.7508181889e+000	-5.5287299012e-001
 2.5753844299e+000	 3.7792584100e+000	-5.4343327957e-001
 2.5338709000e+000	 3.8072165513e+000	-5.2713742997e-001
 2.4920995064e+000	 3.8346890756e+000	-5.0550499897e-001
 2.4500786623e+000	 3.8616726365e+000	-4.8016703485e-001
 2.4078168325e+000	 3.8881640796e+000	-4.5286333807e-001
 2.3653225278e+000	 3.9141604432e+000	-4.2543740571e-001
 2.3226043002e+000	 3.9396589586e+000	-3.9982915392e-001
 2.2796707371e+000	 3.9646570510e+000	-3.7806553361e-001
 2.2365304562e+000	 3.9891523392e+000	-3.6224917365e-001
 2.6730992547e+000	 3.7435995256e+000	-5.4744020686e-001
 2.6318875722e+000	 3.7726867043e+000	-5.4559689589e-001
 2.5903997763e+000	 3.8012927413e+000	-5.3565515699e-001
 2.5486442086e+000	 3.8294138879e+000	-5.1897440413e-001
 2.5066292740e+000	 3.8570465861e+000	-4.9705433130e-001
 2.4643634344e+000	 3.8841874701e+000	-4.7151759965e-001
 2.4218552041e+000	 3.9108333672e+000	-4.4410685718e-001
 2.3791131435e+000	 3.9369812982e+000	-4.1667932618e-001
 2.3361458544e+000	 3.9626284784e+000	-3.9119905831e-001
 2.2929619745e+000	 3.9877723179e+000	-3.6972697872e-001
 2.2495701713e+000	 4.0124104219e+000	-3.5453446576e-001
 2.6885939909e+000	 3.7652994632e+000	-5.4112714608e-001
 2.6471434231e+000	 3.7945552471e+000	-5.3837844362e-001
 2.6054151414e+000	 3.8233271002e+000	-5.2784464295e-001
 2.5634175357e+000	 3.8516112522e+000	-5.1072388145e-001
 2.5211590597e+000	 3.8794041246e+000	-4.8850180094e-001
 2.4786482244e+000	 3.9067023319e+000	-4.6279974060e-001
 2.4358935932e+000	 3.9335026831e+000	-4.3537148782e-001
 2.3929037764e+000	 3.9598021817e+000	-4.0809747590e-001
 2.3496874256e+000	 3.9855980269e+000	-3.8297653399e-001
 2.3062532284e+000	 4.0108876138e+000	-3.6221339749e-001
 2.2626099028e+000	 4.0356685336e+000	-3.4828911105e-001
 2.7040887503e+000	 3.7869994334e+000	-5.3496220419e-001
 2.6623992969e+000	 3.8164238226e+000	-5.3120830273e-001
 2.6204305290e+000	 3.8453614922e+000	-5.2005130874e-001
 2.5781908850e+000	 3.8738086499e+000	-5.0250594208e-001
 2.5356888672e+000	 3.9017616966e+000	-4.8004980228e-001
 2.4929330358e+000	 3.9292172275e+000	-4.5431017672e-001
 2.4499320034e+000	 3.9561720330e+000	-4.2706049476e-001
 2.4066944300e+000	 3.9826230995e+000	-4.0021410250e-001
 2.3632290171e+000	 4.0085676099e+000	-3.7587733609e-001
 2.3195445022e+000	 4.0340029444e+000	-3.5660165732e-001
 2.2756496538e+000	 4.0589266802e+000	-3.4347499923e-001
 2.7195835369e+000	 3.8086994416e+000	-5.2872466254e-001
 2.6776551974e+000	 3.8382924365e+000	-5.2403274808e-001
 2.6354459429e+000	 3.8673959227e+000	-5.1227768427e-001
 2.5929642602e+000	 3.8960060863e+000	-4.9439102306e-001
 2.5502187002e+000	 3.9241193077e+000	-4.7184818504e-001
 2.5072178722e+000	 3.9517321625e+000	-4.4628988442e-001
 2.4639704382e+000	 3.9788414226e+000	-4.1951791037e-001
 2.4204851078e+000	 4.0054440571e+000	-3.9351391311e-001
 2.3767706323e+000	 4.0315372331e+000	-3.7084174636e-001
 2.3328357994e+000	 4.0571183154e+000	-3.5277424411e-001
 2.2886894276e+000	 4.0821848675e+000	-3.3993107247e-001
 2.7350783545e+000	 3.8303994932e+000	-5.2216523621e-001
 2.6929111284e+000	 3.8601610940e+000	-5.1670219793e-001
 2.6504613868e+000	 3.8894303972e+000	-5.0448104230e-001
 2.6077376649e+000	 3.9182035672e+000	-4.8640173805e-001
 2.5647485622e+000	 3.9464769636e+000	-4.6399611430e-001
 2.5215027371e+000	 3.9742471425e+000	-4.3892600312e-001
 2.4780089010e+000	 4.0015108575e+000	-4.1303248703e-001
 2.4342758131e+000	 4.0282650605e+000	-3.8878876733e-001
 2.3903122745e+000	 4.0545069021e+000	-3.6771813521e-001
 2.3461271231e+000	 4.0802337326e+000	-3.5045963136e-001
 2.3017292275e+000	 4.1054431013e+000	-3.3751442291e-001
 2.7505732069e+000	 3.8520995936e+000	-5.1500849284e-001
 2.7081670937e+000	 3.8820298008e+000	-5.0897913136e-001
 2.6654768645e+000	 3.9114649214e+000	-4.9657517346e-001
 2.6225111028e+000	 3.9404010980e+000	-4.7851468604e-001
 2.5792784569e+000	 3.9688346697e+000	-4.5654391783e-001
 2.5357876342e+000	 3.9967621731e+000	-4.3235372564e-001
 2.4920473954e+000	 4.0241803434e+000	-4.0819920841e-001
 2.4480665494e+000	 4.0510861151e+000	-3.8590819072e-001
 2.4038539472e+000	 4.0774766229e+000	-3.6613959418e-001
 2.3594184767e+000	 4.1033492018e+000	-3.4940815934e-001
 2.3147690567e+000	 4.1287013875e+000	-3.3610074561e-001
 2.1843716934e+000	 3.8961201831e+000	-3.8317343565e-001
 2.1420504062e+000	 3.9195475189e+000	-3.7030689154e-001
 2.0995441792e+000	 3.9424798459e+000	-3.5987756755e-001
 2.0568614843e+000	 3.9649154103e+000	-3.5424978989e-001
 2.0140108020e+000	 3.9868526470e+000	-3.5579064555e-001
 1.9710006163e+000	 4.0082901786e+000	-3.6004117351e-001
 1.9278394095e+000	 4.0292268150e+000	-3.4984520652e-001
 1.8845356576e+000	 4.0496615522e+000	-3.2891011683e-001
 1.8410978246e+000	 4.0695935713e+000	-3.0179167509e-001
 1.7975343583e+000	 4.0890222373e+000	-2.7247549808e-001
 1.7538536852e+000	 4.1079470979e+000	-2.4441552887e-001
 2.1974113759e+000	 3.9193782076e+000	-3.8190454271e-001
 2.1548374504e+000	 3.9429453937e+000	-3.6951077261e-001
 2.1120774810e+000	 3.9660146160e+000	-3.5946939730e-001
 2.0691399902e+000	 3.9885841103e+000	-3.5399081154e-001
 2.0260335093e+000	 4.0106523021e+000	-3.5540909345e-001
 1.9827665728e+000	 4.0322178058e+000	-3.6378632577e-001
 1.9393477137e+000	 4.0532794241e+000	-3.6033198242e-001
 1.8957854585e+000	 4.0738361472e+000	-3.4448587706e-001
 1.8520883219e+000	 4.0938871512e+000	-3.2057736766e-001
 1.8082648019e+000	 4.1134317973e+000	-2.9239049309e-001
 1.7643233755e+000	 4.1324696305e+000	-2.6320311237e-001
 2.2104510617e+000	 3.9426362379e+000	-3.7715321658e-001
 2.1676244977e+000	 3.9663432743e+000	-3.6515256197e-001
 2.1246107859e+000	 3.9895493920e+000	-3.5575759640e-001
 2.0814184992e+000	 4.0122528162e+000	-3.5120005984e-001
 2.0380562196e+000	 4.0344519631e+000	-3.5367534582e-001
 1.9945325322e+000	 4.0561454389e+000	-3.6373227209e-001
 1.9508560208e+000	 4.0773320393e+000	-3.6637378354e-001
 1.9070352623e+000	 4.0980107483e+000	-3.5537725306e-001
 1.8630788219e+000	 4.1181807371e+000	-3.3486810665e-001
 1.8189952483e+000	 4.1378413634e+000	-3.0844801253e-001
 1.7747930685e+000	 4.1569921692e+000	-2.7923467763e-001
 2.2234907540e+000	 3.9658942799e+000	-3.7020222340e-001
 2.1804115515e+000	 3.9897411667e+000	-3.5867980028e-001
 2.1371440970e+000	 4.0130841797e+000	-3.5045500674e-001
 2.0936970144e+000	 4.0359215339e+000	-3.4762637008e-001
 2.0500789359e+000	 4.0582516360e+000	-3.5085639854e-001
 2.0062984976e+000	 4.0800730841e+000	-3.6058204278e-001
 1.9623643336e+000	 4.1013846665e+000	-3.6836536929e-001
 1.9182850717e+000	 4.1221853614e+000	-3.6188597262e-001
 1.8740693274e+000	 4.1424743353e+000	-3.4482576438e-001
 1.8297257000e+000	 4.1622509417e+000	-3.2062291781e-001
 1.7852627668e+000	 4.1815147202e+000	-2.9225064146e-001
 2.2365304562e+000	 3.9891523392e+000	-3.6224917365e-001
 2.1931986148e+000	 4.0131390766e+000	-3.5159009817e-001
 2.1496774176e+000	 4.0366189852e+000	-3.4513255680e-001
 2.1059755387e+000	 4.0595902694e+000	-3.4347510374e-001
 2.0621016612e+000	 4.0820513268e+000	-3.4698693559e-001
 2.0180644717e+000	 4.1040007471e+000	-3.5595435362e-001
 1.9738726551e+000	 4.1254373117e+000	-3.6666813693e-001
 1.9295348895e+000	 4.1463599927e+000	-3.6428230786e-001
 1.8850598412e+000	 4.1667679516e+000	-3.5058366912e-001
 1.8404561597e+000	 4.1866605383e+000	-3.2886545890e-001
 1.7957324728e+000	 4.2060372896e+000	-3.0197177749e-001
 2.2495701713e+000	 4.0124104219e+000	-3.5453446576e-001
 2.2059856910e+000	 4.0365370098e+000	-3.4528334848e-001
 2.1622107507e+000	 4.0601538141e+000	-3.3992761661e-001
 2.1182540753e+000	 4.0832590286e+000	-3.3878863387e-001
 2.0741243986e+000	 4.1058510414e+000	-3.4210934119e-001
 2.0298304576e+000	 4.1279284341e+000	-3.5006031806e-001
 1.9853809880e+000	 4.1494899810e+000	-3.6161263284e-001
 1.9407847185e+000	 4.1705346482e+000	-3.6280746647e-001
 1.8960503660e+000	 4.1910615923e+000	-3.5224884515e-001
 1.8511866302e+000	 4.2110701594e+000	-3.3310333166e-001
 1.8062021894e+000	 4.2305598835e+000	-3.0810105936e-001
 2.2626099028e+000	 4.0356685336e+000	-3.4828911105e-001
 2.2187727831e+000	 4.0599349724e+000	-3.3981586119e-001
 2.1747440995e+000	 4.0836886725e+000	-3.3485041077e-001
 2.1305326273e+000	 4.1069278174e+000	-3.3361851333e-001
 2.0861471510e+000	 4.1296507858e+000	-3.3627453107e-001
 2.0415964583e+000	 4.1518561510e+000	-3.4290769228e-001
 1.9968893354e+000	 4.1735426804e+000	-3.5350102427e-001
 1.9520345617e+000	 4.1947093338e+000	-3.5767594602e-001
 1.9070409045e+000	 4.2153552633e+000	-3.4990421936e-001
 1.8619171141e+000	 4.2354798109e+000	-3.3324370647e-001
 1.8166719190e+000	 4.2550825081e+000	-3.1032548089e-001
 2.2756496538e+000	 4.0589266802e+000	-3.4347499923e-001
 2.2315598944e+000	 4.0833329700e+000	-3.3512904625e-001
 2.1872774670e+000	 4.1072235661e+000	-3.2992263541e-001
 2.1428111977e+000	 4.1305966416e+000	-3.2802624399e-001
 2.0981699214e+000	 4.1534505658e+000	-3.2954274391e-001
 2.0533624765e+000	 4.1757839038e+000	-3.3451383700e-001
 2.0083977000e+000	 4.1975954158e+000	-3.4292643980e-001
 1.9632844217e+000	 4.2188840558e+000	-3.4907785252e-001
 1.9180314595e+000	 4.2396489707e+000	-3.4361079580e-001
 1.8726476141e+000	 4.2598894991e+000	-3.2917522942e-001
 1.8271416644e+000	 4.2796051695e+000	-3.0831785441e-001
 2.2886894276e+000	 4.0821848675e+000	-3.3993107247e-001
 2.2443470280e+000	 4.1067310086e+000	-3.3117880221e-001
 2.1998108565e+000	 4.1307585010e+000	-3.2517814170e-001
 2.1550897896e+000	 4.1542655073e+000	-3.2208400792e-001
 2.1101927129e+000	 4.1772503875e+000	-3.2198429435e-001
 2.0651285154e+000	 4.1997116985e+000	-3.2490646581e-001
 2.0199060847e+000	 4.2216481933e+000	-3.3082409466e-001
 1.9745343013e+000	 4.2430588200e+000	-3.3718118483e-001
 1.9290220337e+000	 4.2639427207e+000	-3.3340979939e-001
 1.8833781329e+000	 4.2842992299e+000	-3.2076999701e-001
 1.8376114280e+000	 4.3041278737e+000	-3.0173858803e-001
 2.3017292275e+000	 4.1054431013e+000	-3.3751442291e-001
 2.2571341873e+000	 4.1301290939e+000	-3.2793609333e-001
 2.2123442711e+000	 4.1542934829e+000	-3.2066358417e-001
 2.1673684060e+000	 4.1779344203e+000	-3.1587536233e-001
 2.1222155284e+000	 4.2010502567e+000	-3.1368028908e-001
 2.0768945778e+000	 4.2236395410e+000	-3.1412435711e-001
 2.0314144925e+000	 4.2457010189e+000	-3.1719736603e-001
 1.9857842035e+000	 4.2672336326e+000	-3.2213408636e-001
 1.9400126299e+000	 4.2882365192e+000	-3.1932479017e-001
 1.8941086732e+000	 4.3087090096e+000	-3.0788550552e-001
 1.8480812126e+000	 4.3286506270e+000	-2.9023744268e-001
 2.3147690567e+000	 4.1287013875e+000	-3.3610074561e-001
 2.2699213753e+000	 4.1535272320e+000	-3.2538749519e-001
 2.2248777138e+000	 4.1778285178e+000	-3.1643903546e-001
 2.1796470501e+000	 4.2016033865e+000	-3.0949589934e-001
 2.1342383709e+000	 4.2248501796e+000	-3.0472330770e-001
 2.0886606667e+000	 4.2475674374e+000	-3.0221803116e-001
 2.0429229261e+000	 4.2697538987e+000	-3.0201519363e-001
 1.9970341310e+000	 4.2914084996e+000	-3.0406706513e-001
 1.9510032508e+000	 4.3125303724e+000	-3.0136374906e-001
 1.9048392375e+000	 4.3331188442e+000	-2.9036657602e-001
 1.8585510208e+000	 4.3531734355e+000	-2.7345526975e-001
 1.7538536852e+000	 4.1079470979e+000	-2.4441552887e-001
 1.7100576294e+000	 4.1263706075e+000	-2.1886876522e-001
 1.6661611104e+000	 4.1442897998e+000	-1.9539010510e-001
 1.6221724688e+000	 4.1617047635e+000	-1.7429197484e-001
 1.5781000051e+000	 4.1786157627e+000	-1.5564577506e-001
 1.5339519758e+000	 4.1950232353e+000	-1.3931225829e-001
 1.4897365888e+000	 4.2109277906e+000	-1.2496994323e-001
 1.4454619993e+000	 4.2263302067e+000	-1.1214159508e-001
 1.4011363057e+000	 4.2412314288e+000	-1.0021880949e-001
 1.3567675455e+000	 4.2556325659e+000	-8.8484744345e-002
 1.3123636919e+000	 4.2695348885e+000	-7.6059369331e-002
 1.7643233755e+000	 4.1324696305e+000	-2.6320311237e-001
 1.7202658777e+000	 4.1510031199e+000	-2.3494349500e-001
 1.6761073169e+000	 4.1690292815e+000	-2.0810124868e-001
 1.6318560836e+000	 4.1865482044e+000	-1.8321563701e-001
 1.5875205278e+000	 4.2035601544e+000	-1.6057091560e-001
 1.5431089553e+000	 4.2200655720e+000	-1.4022695931e-001
 1.4986296230e+000	 4.2360650700e+000	-1.2204789852e-001
 1.4540907348e+000	 4.2515594314e+000	-1.0572879801e-001
 1.4095004374e+000	 4.2665496069e+000	-9.0820419839e-002
 1.3648668164e+000	 4.2810367120e+000	-7.6752118412e-002
 1.3201978924e+000	 4.2950220250e+000	-6.2851985530e-002
 1.7747930685e+000	 4.1569921692e+000	-2.7923467763e-001
 1.7304741285e+000	 4.1756356384e+000	-2.4960348329e-001
 1.6860535259e+000	 4.1937687693e+000	-2.2071750856e-001
 1.6415397008e+000	 4.2113916514e+000	-1.9330374739e-001
 1.5969410529e+000	 4.2285045523e+000	-1.6782343942e-001
 1.5522659371e+000	 4.2451079149e+000	-1.4450293309e-001
 1.5075226595e+000	 4.2612023557e+000	-1.2336252436e-001
 1.4627194725e+000	 4.2767886624e+000	-1.0424330890e-001
 1.4178645713e+000	 4.2918677912e+000	-8.6832093306e-002
 1.3729660894e+000	 4.3064408645e+000	-7.0684418018e-002
 1.3280320950e+000	 4.3205091679e+000	-5.5249238840e-002
 1.7852627668e+000	 4.1815147202e+000	-2.9225064146e-001
 1.7406823845e+000	 4.2002681693e+000	-2.6234768350e-001
 1.6959997399e+000	 4.2185082695e+000	-2.3253040398e-001
 1.6512233228e+000	 4.2362351109e+000	-2.0367499170e-001
 1.6063615826e+000	 4.2534489626e+000	-1.7638433948e-001
 1.5614229235e+000	 4.2701502703e+000	-1.5101912849e-001
 1.5164157003e+000	 4.2863396540e+000	-1.2772684873e-001
 1.4713482145e+000	 4.3020179060e+000	-1.0646879828e-001
 1.4262287093e+000	 4.3171859883e+000	-8.7045111575e-002
 1.3810653663e+000	 4.3318450297e+000	-6.9117873791e-002
 1.3358663014e+000	 4.3459963236e+000	-5.2232383993e-002
 1.7957324728e+000	 4.2060372896e+000	-3.0197177749e-001
 1.7508906481e+000	 4.2249007186e+000	-2.7266047597e-001
 1.7059459613e+000	 4.2432477882e+000	-2.4282110465e-001
 1.6609069522e+000	 4.2610785891e+000	-2.1344107881e-001
 1.6157821194e+000	 4.2783933917e+000	-1.8523015039e-001
 1.5705799167e+000	 4.2951926445e+000	-1.5865169766e-001
 1.5253087479e+000	 4.3114769711e+000	-1.3395190584e-001
 1.4799769629e+000	 4.3272471685e+000	-1.1118688617e-001
 1.4345928536e+000	 4.3425042043e+000	-9.0247788960e-002
 1.3891646494e+000	 4.3572492139e+000	-7.0883972321e-002
 1.3437005137e+000	 4.3714834983e+000	-5.2724294208e-002
 1.8062021894e+000	 4.2305598835e+000	-3.0810105936e-001
 1.7610989219e+000	 4.2495332926e+000	-2.8001329264e-001
 1.7158921927e+000	 4.2679873317e+000	-2.5086186056e-001
 1.6705905912e+000	 4.2859220920e+000	-2.2170799979e-001
 1.6252026657e+000	 4.3033378457e+000	-1.9333406106e-001
 1.5797369191e+000	 4.3202350437e+000	-1.6627498718e-001
 1.5342018043e+000	 4.3366143134e+000	-1.4084763093e-001
 1.4886057200e+000	 4.3524764563e+000	-1.1717796594e-001
 1.4429570062e+000	 4.3678224456e+000	-9.5226251119e-002
 1.3972639405e+000	 4.3826534236e+000	-7.4810215788e-002
 1.3515347338e+000	 4.3969706986e+000	-5.5626338239e-002
 1.8166719190e+000	 4.2550825081e+000	-3.1032548089e-001
 1.7713072085e+000	 4.2741658974e+000	-2.8386622484e-001
 1.7258384365e+000	 4.2927269061e+000	-2.5591742007e-001
 1.6802742423e+000	 4.3107656260e+000	-2.2757727948e-001
 1.6346232237e+000	 4.3282823309e+000	-1.9966702341e-001
 1.5888939329e+000	 4.3452774742e+000	-1.7276252773e-001
 1.5430948719e+000	 4.3617516871e+000	-1.4722375531e-001
 1.4972344879e+000	 4.3777057756e+000	-1.2322202933e-001
 1.4513211693e+000	 4.3931407186e+000	-1.0076521491e-001
 1.4053632418e+000	 4.4080576650e+000	-7.9720881833e-002
 1.3593689638e+000	 4.4224579307e+000	-5.9837526291e-002
 1.8271416644e+000	 4.2796051695e+000	-3.0831785441e-001
 1.7815155104e+000	 4.2987985391e+000	-2.8366961481e-001
 1.7357846952e+000	 4.3174665176e+000	-2.5724643667e-001
 1.6899579079e+000	 4.3356091973e+000	-2.3014722092e-001
 1.6440437958e+000	 4.3532268535e+000	-2.0319885714e-001
 1.5980509605e+000	 4.3703199423e+000	-1.7698802250e-001
 1.5519879528e+000	 4.3868890985e+000	-1.5189070172e-001
 1.5058632687e+000	 4.4029351327e+000	-1.2809949254e-001
 1.4596853450e+000	 4.4184590296e+000	-1.0564876939e-001
 1.4134625552e+000	 4.4334619445e+000	-8.4437783691e-002
 1.3672032054e+000	 4.4479452010e+000	-6.4251784987e-002
 1.8376114280e+000	 4.3041278737e+000	-3.0173858803e-001
 1.7917238301e+000	 4.3234312239e+000	-2.7886563168e-001
 1.7457309714e+000	 4.3422061724e+000	-2.5410286495e-001
 1.6996415905e+000	 4.3604528121e+000	-2.2851414285e-001
 1.6534643845e+000	 4.3781714198e+000	-2.0289935088e-001
 1.6072080041e+000	 4.3953624543e+000	-1.7782633421e-001
 1.5608810493e+000	 4.4120265538e+000	-1.5366047998e-001
 1.5144920646e+000	 4.4281645340e+000	-1.3059202353e-001
 1.4680495353e+000	 4.4437773848e+000	-1.0866115781e-001
 1.4215618828e+000	 4.4588662684e+000	-8.7781030560e-002
 1.3750374608e+000	 4.4734325159e+000	-6.7758719789e-002
 1.8480812126e+000	 4.3286506270e+000	-2.9023744268e-001
 1.8019321703e+000	 4.3480639580e+000	-2.6888983253e-001
 1.7556772674e+000	 4.3669458767e+000	-2.4573734612e-001
 1.7093252924e+000	 4.3852964765e+000	-2.2177361067e-001
 1.6628849919e+000	 4.4031160359e+000	-1.9773935975e-001
 1.6163650660e+000	 4.4204050163e+000	-1.7415447094e-001
 1.5697741635e+000	 4.4371640595e+000	-1.5134758295e-001
 1.5231208778e+000	 4.4533939857e+000	-1.2948337026e-001
 1.4764137423e+000	 4.4690957907e+000	-1.0858756077e-001
 1.4296612266e+000	 4.4842706432e+000	-8.8569788222e-002
 1.3828717319e+000	 4.4989198818e+000	-6.9244376088e-002
 1.8585510208e+000	 4.3531734355e+000	-2.7345526975e-001
 1.8121405334e+000	 4.3726967475e+000	-2.5317270913e-001
 1.7656235858e+000	 4.3916856366e+000	-2.3139858364e-001
 1.7190090161e+000	 4.4101401969e+000	-2.0902166107e-001
 1.6723056206e+000	 4.4280607082e+000	-1.8669189961e-001
 1.6255221485e+000	 4.4454476346e+000	-1.6485257074e-001
 1.5786672978e+000	 4.4623016217e+000	-1.4376988277e-001
 1.5317497104e+000	 4.4786234942e+000	-1.2356018999e-001
 1.4847779682e+000	 4.4944142536e+000	-1.0421488029e-001
 1.4377605886e+000	 4.5096750751e+000	-8.5623039896e-002
 1.3907060206e+000	 4.5244073051e+000	-6.7591999002e-002
 1.3123636919e+000	 4.2695348885e+000	-7.6059369331e-002
 1.2679326486e+000	 4.2829398248e+000	-6.3170991833e-002
 1.2234822450e+000	 4.2958489548e+000	-5.1354565243e-002
 1.1790202345e+000	 4.3082640100e+000	-4.1016337099e-002
 1.1345542914e+000	 4.3201868724e+000	-3.2229863244e-002
 1.0900920081e+000	 4.3316195706e+000	-2.4797379362e-002
 1.0456408917e+000	 4.3425642768e+000	-1.8303968922e-002
 1.0012083610e+000	 4.3530233041e+000	-1.2165795217e-002
 9.5680174346e-001	 4.3629991026e+000	-5.6690953305e-003
 9.1242827262e-001	 4.3724942563e+000	 1.9905134429e-003
 8.6809508528e-001	 4.3815114796e+000	 1.1679126188e-002
 1.3201978924e+000	 4.2950220250e+000	-6.2851985530e-002
 1.2755016165e+000	 4.3085069826e+000	-4.9497166472e-002
 1.2307858647e+000	 4.3214931740e+000	-3.7845211004e-002
 1.1860584366e+000	 4.3339823414e+000	-2.8123634857e-002
 1.1413270525e+000	 4.3459763777e+000	-2.0255620911e-002
 1.0965993501e+000	 4.3574773238e+000	-1.3919897749e-002
 1.0518828813e+000	 4.3684873648e+000	-8.6033665302e-003
 1.0071851090e+000	 4.3790088277e+000	-3.6476363316e-003
 9.6251340464e-001	 4.3890441770e+000	 1.7130517584e-003
 9.1787504482e-001	 4.3985960123e+000	 8.3147024719e-003
 8.7327720898e-001	 4.4076670643e+000	 1.7035737182e-002
 1.3280320950e+000	 4.3205091679e+000	-5.5249238840e-002
 1.2830705863e+000	 4.3340741467e+000	-4.1045555225e-002
 1.2380894862e+000	 4.3471373997e+000	-2.9105061435e-002
 1.1930966405e+000	 4.3597006792e+000	-1.9497942808e-002
 1.1480998154e+000	 4.3717658895e+000	-1.2017017367e-002
 1.1031066938e+000	 4.3833350834e+000	-6.2359740623e-003
 1.0581248724e+000	 4.3944104593e+000	-1.5603214291e-003
 1.0131618585e+000	 4.4049943577e+000	 2.7283177780e-003
 9.6822506725e-001	 4.4150892579e+000	 7.4333422274e-003
 9.2332181839e-001	 4.4246977749e+000	 1.3412641368e-002
 8.7845933398e-001	 4.4338226555e+000	 2.1547581313e-002
 1.3358663014e+000	 4.3459963236e+000	-5.2232383993e-002
 1.2906395599e+000	 4.3596413237e+000	-3.6956354707e-002
 1.2453931114e+000	 4.3727816382e+000	-2.4417075836e-002
 1.2001348480e+000	 4.3854190299e+000	-1.4551093443e-002
 1.1548725817e+000	 4.3975554141e+000	-7.0416638458e-003
 1.1096140407e+000	 4.4091928560e+000	-1.3766729749e-003
 1.0643668666e+000	 4.4203335667e+000	 3.1022361439e-003
 1.0191386110e+000	 4.4309799007e+000	 7.1571876025e-003
 9.7393673271e-001	 4.4411343519e+000	 1.1617124812e-002
 9.2876859468e-001	 4.4507995505e+000	 1.7348550684e-002
 8.8364146158e-001	 4.4599782598e+000	 2.5226809433e-002
 1.3437005137e+000	 4.3714834983e+000	-5.2724294208e-002
 1.2982085391e+000	 4.3852085198e+000	-3.6328348459e-002
 1.2526967420e+000	 4.3984258959e+000	-2.3014769967e-002
 1.2071730607e+000	 4.4111373998e+000	-1.2638218037e-002
 1.1616453530e+000	 4.4233449581e+000	-4.7940287352e-003
 1.1161213925e+000	 4.4350506480e+000	 1.0956680154e-003
 1.0706088655e+000	 4.4462566936e+000	 5.7347910884e-003
 1.0251153680e+000	 4.4569654632e+000	 9.9127882909e-003
 9.7964840245e-001	 4.4671794653e+000	 1.4469704676e-002
 9.3421537506e-001	 4.4769013457e+000	 2.0268394732e-002
 8.8882359306e-001	 4.4861338837e+000	 2.8168074343e-002
 1.3515347338e+000	 4.3969706986e+000	-5.5626338239e-002
 1.3057775260e+000	 4.4107757415e+000	-3.8223268234e-002
 1.2600003799e+000	 4.4240701793e+000	-2.4086362088e-002
 1.2142112805e+000	 4.4368557955e+000	-1.3061668984e-002
 1.1684181311e+000	 4.4491345279e+000	-4.6791282038e-003
 1.1226287508e+000	 4.4609084658e+000	 1.6839872813e-003
 1.0768508707e+000	 4.4721798464e+000	 6.7580386384e-003
 1.0310921310e+000	 4.4829510517e+000	 1.1342599988e-002
 9.8536007791e-001	 4.4932246048e+000	 1.6273651642e-002
 9.3966216088e-001	 4.5030031670e+000	 2.2397455527e-002
 8.9400572972e-001	 4.5122895337e+000	 3.0546376120e-002
 1.3593689638e+000	 4.4224579307e+000	-5.9837526291e-002
 1.3133465222e+000	 4.4363429951e+000	-4.1670151654e-002
 1.2673040270e+000	 4.4497144947e+000	-2.6778913757e-002
 1.2212495090e+000	 4.4625742233e+000	-1.5074935756e-002
 1.1751909177e+000	 4.4749241299e+000	-6.0462097508e-003
 1.1291361172e+000	 4.4867663160e+000	 9.5305505616e-004
 1.0830928836e+000	 4.4981030316e+000	 6.6596866191e-003
 1.0370689014e+000	 4.5089366726e+000	 1.1865376075e-002
 9.9107176051e-001	 4.5192697769e+000	 1.7386113598e-002
 9.4510895351e-001	 4.5291050209e+000	 2.4037910274e-002
 8.9918787286e-001	 4.5384452165e+000	 3.2614908848e-002
 1.3672032054e+000	 4.4479452010e+000	-6.4251784987e-002
 1.3209155299e+000	 4.4619102871e+000	-4.5669696395e-002
 1.2746076850e+000	 4.4753588486e+000	-3.0202465629e-002
 1.2282877481e+000	 4.4882926896e+000	-1.7886554758e-002
 1.1819637144e+000	 4.5007137706e+000	-8.1924289927e-003
 1.1356434934e+000	 4.5126242049e+000	-4.7396358808e-004
 1.0893349060e+000	 4.5240262557e+000	 5.9912644658e-003
 1.0430456808e+000	 4.5349223326e+000	 1.1968204104e-002
 9.9678345167e-001	 4.5453149880e+000	 1.8236134859e-002
 9.5055575431e-001	 4.5552069140e+000	 2.5566412208e-002
 9.0437002377e-001	 4.5646009385e+000	 3.4702908688e-002
 1.3750374608e+000	 4.4734325159e+000	-6.7758719789e-002
 1.3284845508e+000	 4.4874776238e+000	-4.9198611081e-002
 1.2819113558e+000	 4.5010032474e+000	-3.3434168492e-002
 1.2353259996e+000	 4.5140112010e+000	-2.0664013346e-002
 1.1887365230e+000	 4.5265034564e+000	-1.0366519975e-002
 1.1421508810e+000	 4.5384821391e+000	-1.9189390750e-003
 1.0955769392e+000	 4.5499495252e+000	 5.3649387174e-003
 1.0490224707e+000	 4.5609080380e+000	 1.2203572554e-002
 1.0024951528e+000	 4.5713602447e+000	 1.9321979279e-002
 9.5600256464e-001	 4.5813088528e+000	 2.7431674689e-002
 9.0955218375e-001	 4.5907567062e+000	 3.7213503229e-002
 1.3828717319e+000	 4.4989198818e+000	-6.9244376088e-002
 1.3360535868e+000	 4.5130450117e+000	-5.1211540753e-002
 1.2892150412e+000	 4.5266476974e+000	-3.5522409737e-002
 1.2423642651e+000	 4.5397297639e+000	-2.2537648279e-002
 1.1955093451e+000	 4.5522931938e+000	-1.1772459296e-002
 1.1486582816e+000	 4.5643401250e+000	-2.6522012545e-003
 1.1018189849e+000	 4.5758728465e+000	 5.4503347124e-003
 1.0549992725e+000	 4.5868937954e+000	 1.3186443183e-002
 1.0082068654e+000	 4.5974055535e+000	 2.1208457917e-002
 9.6144938587e-001	 4.6074108437e+000	 3.0152058383e-002
 9.1473435410e-001	 4.6169125263e+000	 4.0621562060e-002
 1.3907060206e+000	 4.5244073051e+000	-6.7591999002e-002
 1.3436226398e+000	 4.5386124571e+000	-5.0629124224e-002
 1.2965187431e+000	 4.5522922052e+000	-3.5490935512e-002
 1.2494025464e+000	 4.5654483845e+000	-2.2604538844e-002
 1.2022821825e+000	 4.5780829893e+000	-1.1573124299e-002
 1.1551656968e+000	 4.5901981691e+000	-1.8959572063e-003
 1.1080610447e+000	 4.6017962261e+000	 6.9713642233e-003
 1.0609760877e+000	 4.6128796112e+000	 1.5591328722e-002
 1.0139185908e+000	 4.6234509209e+000	 2.4524358135e-002
 9.6689621935e-001	 4.6335128934e+000	 3.4313161415e-002
 9.1991653610e-001	 4.6430684052e+000	 4.5471548518e-002
 8.6809508528e-001	 4.3815114796e+000	 1.1679126188e-002
 8.2381585598e-001	 4.3900523689e+000	 2.3418967544e-002
 7.7959085635e-001	 4.3981212792e+000	 3.6711435782e-002
 7.3542690550e-001	 4.4057212979e+000	 5.1677909897e-002
 6.9133071679e-001	 4.4128556284e+000	 6.8444096893e-002
 6.4730889580e-001	 4.4195275870e+000	 8.6296471898e-002
 6.0336793844e-001	 4.4257405989e+000	 9.9252439313e-002
 5.5951422919e-001	 4.4314981950e+000	 1.0699151426e-001
 5.1575403944e-001	 4.4368040078e+000	 1.1069133048e-001
 4.7209352597e-001	 4.4416617678e+000	 1.1158640898e-001
 4.2853872961e-001	 4.4460753003e+000	 1.1091947612e-001
 8.7327720898e-001	 4.4076670643e+000	 1.7035737182e-002
 8.2873365329e-001	 4.4162589387e+000	 2.7985497497e-002
 7.8424465099e-001	 4.4243760167e+000	 4.0696824816e-002
 7.3981706190e-001	 4.4320214039e+000	 5.5195794031e-002
 6.9545763947e-001	 4.4391983230e+000	 7.1499114775e-002
 6.5117302869e-001	 4.4459101101e+000	 8.9074351256e-002
 6.0696976427e-001	 4.4521602109e+000	 1.0198717413e-001
 5.6285426878e-001	 4.4579521772e+000	 1.0950834356e-001
 5.1883285105e-001	 4.4632896631e+000	 1.1286449955e-001
 4.7491170464e-001	 4.4681764217e+000	 1.1329651521e-001
 4.3109690641e-001	 4.4726163009e+000	 1.1201724000e-001
 8.7845933398e-001	 4.4338226555e+000	 2.1547581313e-002
 8.3365145183e-001	 4.4424655151e+000	 3.2026560140e-002
 7.8889844680e-001	 4.4506307607e+000	 4.4419504277e-002
 7.4420721941e-001	 4.4583215165e+000	 5.8671729229e-002
 6.9958456318e-001	 4.4655410243e+000	 7.4707449431e-002
 6.5503716255e-001	 4.4722926399e+000	 9.2127952009e-002
 6.1057159100e-001	 4.4785798294e+000	 1.0525611120e-001
 5.6619430921e-001	 4.4844061659e+000	 1.1289770506e-001
 5.2191166344e-001	 4.4897753251e+000	 1.1631974568e-001
 4.7772988402e-001	 4.4946910823e+000	 1.1676292486e-001
 4.3365508385e-001	 4.4991573082e+000	 1.1540607720e-001
 8.8364146158e-001	 4.4599782598e+000	 2.5226809433e-002
 8.3856925284e-001	 4.4686721045e+000	 3.5509895657e-002
 7.9355224493e-001	 4.4768855178e+000	 4.7808910218e-002
 7.4859737911e-001	 4.4846216423e+000	 6.2002275376e-002
 7.0371148895e-001	 4.4918837387e+000	 7.7937601561e-002
 6.5890129835e-001	 4.4986751828e+000	 9.5296797050e-002
 6.1417341953e-001	 4.5049994612e+000	 1.0884559414e-001
 5.6953435130e-001	 4.5108601678e+000	 1.1688768644e-001
 5.2499047737e-001	 4.5162610003e+000	 1.2071932866e-001
 4.8054806480e-001	 4.5212057561e+000	 1.2157214165e-001
 4.3621326257e-001	 4.5256983287e+000	 1.2058460013e-001
 8.8882359306e-001	 4.4861338837e+000	 2.8168074343e-002
 8.4348705752e-001	 4.4948787136e+000	 3.8485469453e-002
 7.9820604656e-001	 4.5031402947e+000	 5.0875393816e-002
 7.5298754210e-001	 4.5109217877e+000	 6.5162549257e-002
 7.0783841783e-001	 4.5182264729e+000	 8.1133210294e-002
 6.6276543704e-001	 4.5250577455e+000	 9.8496993709e-002
 6.1777525075e-001	 4.5314191127e+000	 1.1261723976e-001
 5.7287439590e-001	 4.5373141896e+000	 1.2127881167e-001
 5.2806929361e-001	 4.5427466954e+000	 1.2579352240e-001
 4.8336624770e-001	 4.5477204498e+000	 1.2737262106e-001
 4.3877144321e-001	 4.5522393692e+000	 1.2710562064e-001
 8.9400572972e-001	 4.5122895337e+000	 3.0546376120e-002
 8.4840486713e-001	 4.5210853490e+000	 4.1083593530e-002
 8.0285985284e-001	 4.5293950978e+000	 5.3708622404e-002
 7.5737770949e-001	 4.5372219595e+000	 6.8204908371e-002
 7.1196535083e-001	 4.5445692334e+000	 8.4312022409e-002
 6.6662957959e-001	 4.5514403346e+000	 1.0171923345e-001
 6.2137708559e-001	 4.5578387907e+000	 1.1650637419e-001
 5.7621444384e-001	 4.5637682378e+000	 1.2594290805e-001
 5.3114811292e-001	 4.5692324169e+000	 1.3133990634e-001
 4.8618443341e-001	 4.5742351699e+000	 1.3387447877e-001
 4.4132962641e-001	 4.5787804362e+000	 1.3457626686e-001
 8.9918787286e-001	 4.5384452165e+000	 3.2614908848e-002
 8.5332268289e-001	 4.5472920170e+000	 4.3513046678e-002
 8.0751366493e-001	 4.5556499337e+000	 5.6475976326e-002
 7.6176788236e-001	 4.5635221642e+000	 7.1257627126e-002
 7.1609228898e-001	 4.5709120268e+000	 8.7564850059e-002
 6.7049372698e-001	 4.5778229567e+000	 1.0505212123e-001
 6.2497892492e-001	 4.5842585017e+000	 1.2052044853e-001
 5.7955449595e-001	 4.5902223192e+000	 1.3082194774e-001
 5.3422693609e-001	 4.5957181716e+000	 1.3722262606e-001
 4.8900262265e-001	 4.6007499233e+000	 1.4084916229e-001
 4.4388781281e-001	 4.6053215364e+000	 1.4265805717e-001
 9.0437002377e-001	 4.5646009385e+000	 3.4702908688e-002
 8.5824050602e-001	 4.5734987244e+000	 4.6059193527e-002
 8.1216748401e-001	 4.5819048089e+000	 5.9420941757e-002
 7.6615806182e-001	 4.5898224083e+000	 7.4523565700e-002
 7.2021923333e-001	 4.5972548598e+000	 9.1054517483e-002
 6.7435788016e-001	 4.6042056184e+000	 1.0864912772e-001
 6.2858076965e-001	 4.6106782524e+000	 1.2473743500e-001
 5.8289455307e-001	 4.6166764401e+000	 1.3592686496e-001
 5.3730576387e-001	 4.6222039660e+000	 1.4337162413e-001
 4.9182081611e-001	 4.6272647164e+000	 1.4812908737e-001
 4.4644600304e-001	 4.6318626763e+000	 1.5106693288e-001
 9.0955218375e-001	 4.5907567062e+000	 3.7213503229e-002
 8.6315833775e-001	 4.5997054777e+000	 4.9082102514e-002
 8.1682131123e-001	 4.6081597302e+000	 6.2861499654e-002
 7.7054824896e-001	 4.6161226984e+000	 7.8278831880e-002
 7.2434618490e-001	 4.6235977388e+000	 9.5014797127e-002
 6.7822204010e-001	 4.6305883262e+000	 1.1270064292e-001
 6.3218262069e-001	 4.6370980492e+000	 1.2930420426e-001
 5.8623461604e-001	 4.6431306074e+000	 1.4133634971e-001
 5.4038459704e-001	 4.6486898067e+000	 1.4978184267e-001
 4.9463901451e-001	 4.6537795559e+000	 1.5560724065e-001
 4.4900419775e-001	 4.6584038627e+000	 1.5957325148e-001
 9.1473435410e-001	 4.6169125263e+000	 4.0621562060e-002
 8.6807617933e-001	 4.6259122833e+000	 5.3014662787e-002
 8.2147514776e-001	 4.6344147039e+000	 6.7188511010e-002
 7.7493844487e-001	 4.6424230411e+000	 8.2871436160e-002
 7.2847314472e-001	 4.6499406706e+000	 9.9749335626e-002
 6.8208620777e-001	 4.6569710867e+000	 1.1746383098e-001
 6.3578447894e-001	 4.6635178989e+000	 1.3443488472e-001
 5.8957468569e-001	 4.6695848276e+000	 1.4714807233e-001
 5.4346343637e-001	 4.6751757004e+000	 1.5606723632e-001
 4.9745721854e-001	 4.6802944484e+000	 1.6201346192e-001
 4.5156239757e-001	 4.6849451022e+000	 1.6568750091e-001
 9.1991653610e-001	 4.6430684052e+000	 4.5471548518e-002
 8.7299403196e-001	 4.6521191480e+000	 5.8360700104e-002
 8.2612899476e-001	 4.6606697367e+000	 7.2864098529e-002
 7.7932865067e-001	 4.6687234430e+000	 8.8704487341e-002
 7.3260011383e-001	 4.6762836616e+000	 1.0524407927e-001
 6.8595038414e-001	 4.6833539067e+000	 1.2197076717e-001
 6.3938634528e-001	 4.6899378081e+000	 1.3764718493e-001
 5.9291476285e-001	 4.6960391073e+000	 1.4892285919e-001
 5.4654228262e-001	 4.7016616537e+000	 1.5637530366e-001
 5.0027542892e-001	 4.7068094006e+000	 1.6085516291e-001
 4.5412060315e-001	 4.7114864015e+000	 1.6305142863e-001
 4.2853872961e-001	 4.4460753003e+000	 1.1091947612e-001
 3.8508908055e-001	 4.4500490843e+000	 1.0987975953e-001
 3.4175700318e-001	 4.4535864303e+000	 1.0906977008e-001
 2.9854827303e-001	 4.4566914274e+000	 1.0883960036e-001
 2.5546854253e-001	 4.4593682450e+000	 1.0953247263e-001
 2.1252334018e-001	 4.4616211283e+000	 1.1146981824e-001
 1.6971806992e-001	 4.4634543955e+000	 1.1493976363e-001
 1.2705801053e-001	 4.4648724335e+000	 1.2018811484e-001
 8.4548315236e-002	 4.4658796945e+000	 1.2741104656e-001
 4.2194011339e-002	 4.4664806926e+000	 1.3674881175e-001
 0.0000000000e+000	 4.4666800000e+000	 1.4827989388e-001
 4.3109690641e-001	 4.4726163009e+000	 1.1201724000e-001
 3.8738788317e-001	 4.4766138066e+000	 1.1074737661e-001
 3.4379713346e-001	 4.4801722689e+000	 1.1061950063e-001
 3.0033046730e-001	 4.4832958014e+000	 1.1189731692e-001
 2.5699357085e-001	 4.4859885983e+000	 1.1480126192e-001
 2.1379200563e-001	 4.4882549303e+000	 1.1949877429e-001
 1.7073120782e-001	 4.4900991413e+000	 1.2609753257e-001
 1.2781648773e-001	 4.4915256443e+000	 1.3464073447e-001
 8.5053029335e-002	 4.4925389182e+000	 1.4510361171e-001
 4.2445889952e-002	 4.4931435039e+000	 1.5739048999e-001
 0.0000000000e+000	 4.4933440011e+000	 1.7133181477e-001
 4.3365508385e-001	 4.4991573082e+000	 1.1540607720e-001
 3.8968668636e-001	 4.5031785355e+000	 1.1433229614e-001
 3.4583726425e-001	 4.5067581141e+000	 1.1503929254e-001
 3.0211266201e-001	 4.5099001820e+000	 1.1771296324e-001
 2.5851859956e-001	 4.5126089583e+000	 1.2246531405e-001
 2.1506067140e-001	 4.5148887390e+000	 1.2932999238e-001
 1.7174434598e-001	 4.5167438937e+000	 1.3826031494e-001
 1.2857496512e-001	 4.5181788617e+000	 1.4912884804e-001
 8.5557743560e-002	 4.5191981485e+000	 1.6172772291e-001
 4.2697768628e-002	 4.5198063219e+000	 1.7576899041e-001
 0.0000000000e+000	 4.5200080089e+000	 1.9088443501e-001
 4.3621326257e-001	 4.5256983287e+000	 1.2058460013e-001
 3.9198549070e-001	 4.5297432778e+000	 1.2005219725e-001
 3.4787739605e-001	 4.5333439727e+000	 1.2169203566e-001
 3.0389485761e-001	 4.5365045760e+000	 1.2561889973e-001
 2.6004362902e-001	 4.5392293316e+000	 1.3184898567e-001
 2.1632933779e-001	 4.5415225610e+000	 1.4030077256e-001
 1.7275748464e-001	 4.5433886594e+000	 1.5079788288e-001
 1.2933344288e-001	 4.5448320925e+000	 1.6307297322e-001
 8.6062458036e-002	 4.5458573921e+000	 1.7677182745e-001
 4.2949647430e-002	 4.5464691533e+000	 1.9145695156e-001
 0.0000000000e+000	 4.5466720300e+000	 2.0661009113e-001
 4.3877144321e-001	 4.5522393692e+000	 1.2710562064e-001
 3.9428429676e-001	 4.5563080399e+000	 1.2736897621e-001
 3.4991752939e-001	 4.5599298511e+000	 1.2997209494e-001
 3.0567705455e-001	 4.5631089899e+000	 1.3496342964e-001
 2.6156865963e-001	 4.5658497249e+000	 1.4227422942e-001
 2.1759800514e-001	 4.5681564029e+000	 1.5172483098e-001
 1.7377062406e-001	 4.5700334451e+000	 1.6303239909e-001
 1.3009192122e-001	 4.5714853432e+000	 1.7581914077e-001
 8.6567172891e-002	 4.5725166558e+000	 1.8962015562e-001
 4.3201526421e-002	 4.5731320046e+000	 2.0389021784e-001
 0.0000000000e+000	 4.5733360711e+000	 2.1800891244e-001
 4.4132962641e-001	 4.5787804362e+000	 1.3457626686e-001
 3.9658310513e-001	 4.5828728286e+000	 1.3578927677e-001
 3.5195766477e-001	 4.5865157562e+000	 1.3930627257e-001
 3.0745925327e-001	 4.5897134304e+000	 1.4511221050e-001
 2.6309369176e-001	 4.5924701447e+000	 1.5306247107e-001
 2.1886667376e-001	 4.5947902715e+000	 1.6289465827e-001
 1.7478376449e-001	 4.5966782575e+000	 1.7424127148e-001
 1.3085040031e-001	 4.5981386206e+000	 1.8664225939e-001
 8.7071888250e-002	 4.5991759461e+000	 1.9955660926e-001
 4.3453405663e-002	 4.5997948826e+000	 2.1237226417e-001
 0.0000000000e+000	 4.6000001389e+000	 2.2441379379e-001
 4.4388781281e-001	 4.6053215364e+000	 1.4265805717e-001
 3.9888191636e-001	 4.6094376505e+000	 1.4486497047e-001
 3.5399780270e-001	 4.6131016945e+000	 1.4915471172e-001
 3.0924145422e-001	 4.6163179041e+000	 1.5544959720e-001
 2.6461872580e-001	 4.6190905979e+000	 1.6353640728e-001
 2.2013534396e-001	 4.6214241734e+000	 1.7308378639e-001
 1.7579690619e-001	 4.6233231032e+000	 1.8365990252e-001
 1.3160888035e-001	 4.6247919314e+000	 1.9474936040e-001
 8.7576604240e-002	 4.6258352697e+000	 2.0576851366e-001
 4.3705285220e-002	 4.6264577939e+000	 2.1607846664e-001
 0.0000000000e+000	 4.6266642400e+000	 2.2499519552e-001
 4.4644600304e-001	 4.6318626763e+000	 1.5106693288e-001
 4.0118073105e-001	 4.6360025122e+000	 1.5419358905e-001
 3.5603794368e-001	 4.6396876726e+000	 1.5901174415e-001
 3.1102365784e-001	 4.6429224177e+000	 1.6537991975e-001
 2.6614376212e-001	 4.6457110910e+000	 1.7302172727e-001
 2.2140401607e-001	 4.6480581152e+000	 1.8154896734e-001
 1.7681004941e-001	 4.6499679888e+000	 1.9048433732e-001
 1.3236736153e-001	 4.6514452821e+000	 1.9928272672e-001
 8.8081320987e-002	 4.6524946333e+000	 2.0735023836e-001
 4.3957165155e-002	 4.6531207452e+000	 2.1406022517e-001
 0.0000000000e+000	 4.6533283810e+000	 2.1876577758e-001
 4.4900419775e-001	 4.6584038627e+000	 1.5957325148e-001
 4.0347954975e-001	 4.6625674204e+000	 1.6341871068e-001
 3.5807808824e-001	 4.6662736973e+000	 1.6840668404e-001
 3.1280586458e-001	 4.6695269779e+000	 1.7426588675e-001
 2.6766880112e-001	 4.6723316306e+000	 1.8060441794e-001
 2.2267269039e-001	 4.6746921036e+000	 1.8706281683e-001
 1.7782319440e-001	 4.6766129211e+000	 1.9320794907e-001
 1.3312584404e-001	 4.6780986794e+000	 1.9854779076e-001
 8.8586038617e-002	 4.6791540436e+000	 2.0254644433e-001
 4.4209045530e-002	 4.6797837432e+000	 2.0463807715e-001
 0.0000000000e+000	 4.6799925688e+000	 2.0423988947e-001
 4.5156239757e-001	 4.6849451022e+000	 1.6568750091e-001
 4.0577837306e-001	 4.6891323818e+000	 1.6862297370e-001
 3.6011823688e-001	 4.6928597752e+000	 1.7194781488e-001
 3.1458807488e-001	 4.6961315913e+000	 1.7554880508e-001
 2.6919384316e-001	 4.6989522236e+000	 1.7920604126e-001
 2.2394136725e-001	 4.7013261453e+000	 1.8261137245e-001
 1.7883634142e-001	 4.7032579066e+000	 1.8538539753e-001
 1.3388432806e-001	 4.7047521301e+000	 1.8709316144e-001
 8.9090757256e-002	 4.7058135072e+000	 1.8725867763e-001
 4.4460926409e-002	 4.7064467945e+000	 1.8537839572e-001
 0.0000000000e+000	 4.7066568099e+000	 1.8093372429e-001
 4.5412060315e-001	 4.7114864015e+000	 1.6305142863e-001
 4.0807720153e-001	 4.7156974029e+000	 1.6430071589e-001
 3.6215839011e-001	 4.7194459128e+000	 1.6557655544e-001
 3.1637028919e-001	 4.7227362646e+000	 1.6683152372e-001
 2.7071888863e-001	 4.7255728763e+000	 1.6791922879e-001
 2.2521004697e-001	 4.7279602469e+000	 1.6861207020e-001
 1.7984949071e-001	 4.7299029521e+000	 1.6861757072e-001
 1.3464281379e-001	 4.7314056407e+000	 1.6759342143e-001
 8.9595477031e-002	 4.7324730307e+000	 1.6516137300e-001
 4.4712807855e-002	 4.7331099057e+000	 1.6092009620e-001
 0.0000000000e+000	 4.7333211109e+000	 1.5445712519e-001
 4.7333211109e+000	 0.0000000000e+000	 4.9927169816e-001
 4.7331099057e+000	 4.4712807855e-002	 4.9612592838e-001
 4.7324730307e+000	 8.9595477031e-002	 4.9388030451e-001
 4.7314056407e+000	 1.3464281379e-001	 4.9225655521e-001
 4.7299029521e+000	 1.7984949071e-001	 4.9093214241e-001
 4.7279602469e+000	 2.2521004697e-001	 4.8955485444e-001
 4.7255728763e+000	 2.7071888863e-001	 4.8775824147e-001
 4.7227362646e+000	 3.1637028919e-001	 4.8517801758e-001
 4.7194459128e+000	 3.6215839011e-001	 4.8146956384e-001
 4.7156974029e+000	 4.0807720153e-001	 4.7632667676e-001
 4.7114864015e+000	 4.5412060315e-001	 4.6950171518e-001
 4.7599894698e+000	 0.0000000000e+000	 5.0939722085e-001
 4.7597770747e+000	 4.4964727633e-002	 5.0745926998e-001
 4.7591366114e+000	 9.0100273615e-002	 5.0585097669e-001
 4.7580632075e+000	 1.3540141494e-001	 5.0436926247e-001
 4.7565520525e+000	 1.8086279419e-001	 5.0276817231e-001
 4.7545984018e+000	 2.2647891975e-001	 5.0077289501e-001
 4.7521975803e+000	 2.7224416619e-001	 4.9809459108e-001
 4.7493449866e+000	 3.1815277473e-001	 4.9444615767e-001
 4.7460360964e+000	 3.6419885381e-001	 4.8955907078e-001
 4.7422664668e+000	 4.1037637985e-001	 4.8320145533e-001
 4.7380317398e+000	 4.5667919805e-001	 4.7519754342e-001
 4.7866578487e+000	 0.0000000000e+000	 5.1388755077e-001
 4.7864442636e+000	 4.5216647599e-002	 5.1339939459e-001
 4.7858002120e+000	 9.0605070578e-002	 5.1269080397e-001
 4.7847207943e+000	 1.3616001667e-001	 5.1163329136e-001
 4.7832011729e+000	 1.8187609843e-001	 5.1005718008e-001
 4.7812365766e+000	 2.2774779349e-001	 5.0776502423e-001
 4.7788223043e+000	 2.7376944490e-001	 5.0454579909e-001
 4.7759537286e+000	 3.1993526160e-001	 5.0018999677e-001
 4.7726263000e+000	 3.6623931904e-001	 4.9450577334e-001
 4.7688355505e+000	 4.1267555989e-001	 4.8733630459e-001
 4.7645770980e+000	 4.5923779486e-001	 4.7857851800e-001
 4.8133262010e+000	 0.0000000000e+000	 5.1328840003e-001
 4.8131114259e+000	 4.5468567315e-002	 5.1440016384e-001
 4.8124637861e+000	 9.1109867036e-002	 5.1476329063e-001
 4.8113783544e+000	 1.3691861764e-001	 5.1432351362e-001
 4.8098502666e+000	 1.8288940166e-001	 5.1298736756e-001
 4.8078747248e+000	 2.2901666596e-001	 5.1063497934e-001
 4.8054470016e+000	 2.7529472208e-001	 5.0713358977e-001
 4.8025624440e+000	 3.2171774669e-001	 5.0235194651e-001
 4.7992164769e+000	 3.6827978224e-001	 4.9617572069e-001
 4.7954046077e+000	 4.1497473763e-001	 4.8852411091e-001
 4.7911224297e+000	 4.6179638912e-001	 4.7936780990e-001
 4.8399944799e+000	 0.0000000000e+000	 5.0813324955e-001
 4.8397785148e+000	 4.5720486337e-002	 5.1090534871e-001
 4.8391272868e+000	 9.1614662108e-002	 5.1242389725e-001
 4.8380358413e+000	 1.3767721652e-001	 5.1270871566e-001
 4.8364992871e+000	 1.8390270211e-001	 5.1174272599e-001
 4.8345127998e+000	 2.3028553495e-001	 5.0948408333e-001
 4.8320716258e+000	 2.7681999506e-001	 5.0587899652e-001
 4.8291710862e+000	 3.2350022688e-001	 5.0087538372e-001
 4.8258065808e+000	 3.7032023982e-001	 4.9443752157e-001
 4.8219735919e+000	 4.1727390906e-001	 4.8656185877e-001
 4.8176676884e+000	 4.6435497634e-001	 4.7729417674e-001
 4.8666626388e+000	 0.0000000000e+000	 4.9894368086e-001
 4.8664454838e+000	 4.5972404228e-002	 5.0334890501e-001
 4.8657906675e+000	 9.2119454909e-002	 5.0602026161e-001
 4.8646932082e+000	 1.3843581199e-001	 5.0705176642e-001
 4.8631481876e+000	 1.8491599799e-001	 5.0650315262e-001
 4.8611507549e+000	 2.3155439822e-001	 5.0441131212e-001
 4.8586961301e+000	 2.7834526119e-001	 5.0080238153e-001
 4.8557796087e+000	 3.2528269905e-001	 4.9570462439e-001
 4.8523965650e+000	 3.7236068822e-001	 4.8916227465e-001
 4.8485424565e+000	 4.1957307013e-001	 4.8125051956e-001
 4.8442128277e+000	 4.6691355205e-001	 4.7209181237e-001
 4.8933306310e+000	 0.0000000000e+000	 4.8622969713e-001
 4.8931122861e+000	 4.6224320544e-002	 4.9215523995e-001
 4.8924538816e+000	 9.2624244557e-002	 4.9589241234e-001
 4.8913504085e+000	 1.3919440273e-001	 4.9760977976e-001
 4.8897969216e+000	 1.8592928754e-001	 4.9744456351e-001
 4.8877885435e+000	 2.3282325357e-001	 4.9551335950e-001
 4.8853204680e+000	 2.7987051778e-001	 4.9192345467e-001
 4.8823879649e+000	 3.2706516008e-001	 4.8678489848e-001
 4.8789863830e+000	 3.7440112388e-001	 4.8022350114e-001
 4.8751111550e+000	 4.2187221684e-001	 4.7239494407e-001
 4.8707578010e+000	 4.6947211177e-001	 4.6350020113e-001
 4.9199984100e+000	 0.0000000000e+000	 4.7049003374e-001
 4.9197788751e+000	 4.6476234846e-002	 4.7773947013e-001
 4.9191168823e+000	 9.3129030168e-002	 4.8237297573e-001
 4.9180073955e+000	 1.3995298739e-001	 4.8463427165e-001
 4.9164454424e+000	 1.8694256899e-001	 4.8473900269e-001
 4.9144261190e+000	 2.3409209877e-001	 4.8288469998e-001
 4.9119445930e+000	 2.8139576218e-001	 4.7926129176e-001
 4.9089961082e+000	 3.2884760685e-001	 4.7406232539e-001
 4.9055759883e+000	 3.7644154321e-001	 4.6749707937e-001
 4.9016796411e+000	 4.2417134516e-001	 4.5980375813e-001
 4.8973025621e+000	 4.7203065102e-001	 4.5126397667e-001
 4.9466659289e+000	 0.0000000000e+000	 4.5221245906e-001
 4.9464452040e+000	 4.6728146693e-002	 4.6050767122e-001
 4.9457796232e+000	 9.3633810859e-002	 4.6578737578e-001
 4.9446641227e+000	 1.4071156466e-001	 4.6837131215e-001
 4.9430937035e+000	 1.8795584057e-001	 4.6855474764e-001
 4.9410634348e+000	 2.3536093160e-001	 4.6661764941e-001
 4.9385684584e+000	 2.8292099170e-001	 4.6283435204e-001
 4.9356039921e+000	 3.3063003625e-001	 4.5748389011e-001
 4.9321653344e+000	 3.7848194265e-001	 4.5086118143e-001
 4.9282478681e+000	 4.2647045107e-001	 4.4328926159e-001
 4.9238470643e+000	 4.7458916533e-001	 4.3513278527e-001
 4.9733331411e+000	 0.0000000000e+000	 4.3187406552e-001
 4.9731112264e+000	 4.6980055644e-002	 4.4085711965e-001
 4.9724420574e+000	 9.4138585748e-002	 4.4645402799e-001
 4.9713205433e+000	 1.4147013321e-001	 4.4906167264e-001
 4.9697416580e+000	 1.8896910049e-001	 4.4905641150e-001
 4.9677004443e+000	 2.3662974984e-001	 4.4680242371e-001
 4.9651920176e+000	 2.8444620369e-001	 4.4266049510e-001
 4.9622115701e+000	 3.3241244516e-001	 4.3699742000e-001
 4.9587543747e+000	 3.8052231863e-001	 4.3019621168e-001
 4.9548157895e+000	 4.2876953053e-001	 4.2266733041e-001
 4.9503912612e+000	 4.7714765022e-001	 4.1486115333e-001
 5.0000000000e+000	 0.0000000000e+000	 4.0994155151e-001
 4.9997768954e+000	 4.7231961259e-002	 4.1917652672e-001
 4.9991041383e+000	 9.4643353951e-002	 4.2468452691e-001
 4.9979766107e+000	 1.4222869172e-001	 4.2694096824e-001
 4.9963892595e+000	 1.8998234699e-001	 4.2640504189e-001
 4.9943371009e+000	 2.3789855127e-001	 4.2352719562e-001
 4.9918152240e+000	 2.8597139548e-001	 4.1875699718e-001
 4.9888187954e+000	 3.3419483045e-001	 4.1255156229e-001
 4.9853430627e+000	 3.8256266757e-001	 4.0538474703e-001
 4.9813833590e+000	 4.3106857954e-001	 3.9775732166e-001
 4.9769351065e+000	 4.7970610120e-001	 3.9020835896e-001
 4.7114864015e+000	 4.5412060315e-001	 4.6950171518e-001
 4.7068094006e+000	 5.0027542892e-001	 4.6116703129e-001
 4.7016616537e+000	 5.4654228262e-001	 4.5198348599e-001
 4.6960391073e+000	 5.9291476285e-001	 4.4259546091e-001
 4.6899378081e+000	 6.3938634528e-001	 4.3380077213e-001
 4.6833539067e+000	 6.8595038414e-001	 4.2644523636e-001
 4.6762836616e+000	 7.3260011383e-001	 4.1992345613e-001
 4.6687234430e+000	 7.7932865067e-001	 4.1349564090e-001
 4.6606697367e+000	 8.2612899476e-001	 4.0646879855e-001
 4.6521191480e+000	 8.7299403196e-001	 3.9800354908e-001
 4.6430684052e+000	 9.1991653610e-001	 3.8763476285e-001
 4.7380317398e+000	 4.5667919805e-001	 4.7519754342e-001
 4.7333283879e+000	 5.0309406817e-001	 4.6571100499e-001
 4.7281516376e+000	 5.4962159742e-001	 4.5533517917e-001
 4.7224974129e+000	 5.9625534832e-001	 4.4469258039e-001
 4.7163617379e+000	 6.4298875977e-001	 4.3455375351e-001
 4.7097407416e+000	 6.8981514856e-001	 4.2568529741e-001
 4.7026306615e+000	 7.3672771099e-001	 4.1748017225e-001
 4.6950278473e+000	 7.8371952458e-001	 4.0934266911e-001
 4.6869287650e+000	 8.3078354999e-001	 4.0080919801e-001
 4.6783300008e+000	 8.7791263301e-001	 3.9142350115e-001
 4.6692282646e+000	 9.2509950674e-001	 3.8073100406e-001
 4.7645770980e+000	 4.5923779486e-001	 4.7857851800e-001
 4.7598473950e+000	 5.0591270954e-001	 4.6839143729e-001
 4.7546416415e+000	 5.5270091453e-001	 4.5729637543e-001
 4.7489557383e+000	 5.9959593629e-001	 4.4588184761e-001
 4.7427856875e+000	 6.4659117696e-001	 4.3487898243e-001
 4.7361275963e+000	 6.9367991589e-001	 4.2496162665e-001
 4.7289776812e+000	 7.4085531125e-001	 4.1553696736e-001
 4.7213322714e+000	 7.8811040178e-001	 4.0612986883e-001
 4.7131878131e+000	 8.3543810871e-001	 3.9635727470e-001
 4.7045408733e+000	 8.8283123775e-001	 3.8584206843e-001
 4.6953881436e+000	 9.3028248127e-001	 3.7420744996e-001
 4.7911224297e+000	 4.6179638912e-001	 4.7936780990e-001
 4.7863663757e+000	 5.0873134809e-001	 4.6886686568e-001
 4.7811316189e+000	 5.5578022856e-001	 4.5746782156e-001
 4.7754140372e+000	 6.0293652092e-001	 4.4571352200e-001
 4.7692096106e+000	 6.5019359054e-001	 4.3428398704e-001
 4.7625144247e+000	 6.9754467935e-001	 4.2374924979e-001
 4.7553246745e+000	 7.4498290738e-001	 4.1354304877e-001
 4.7476366691e+000	 7.9250127459e-001	 4.0328826455e-001
 4.7394468349e+000	 8.4009266278e-001	 3.9266890941e-001
 4.7307517196e+000	 8.8774983756e-001	 3.8137393314e-001
 4.7215479964e+000	 9.3546545062e-001	 3.6909166757e-001
 4.8176676884e+000	 4.6435497634e-001	 4.7729417674e-001
 4.8128852834e+000	 5.1154997889e-001	 4.6680282836e-001
 4.8076215234e+000	 5.5885953413e-001	 4.5545857684e-001
 4.8018722634e+000	 6.0627709636e-001	 4.4374738584e-001
 4.7956334612e+000	 6.5379599422e-001	 4.3228692817e-001
 4.7889011804e+000	 7.0140943218e-001	 4.2153472431e-001
 4.7816715954e+000	 7.4911049215e-001	 4.1095980879e-001
 4.7739409946e+000	 7.9689213533e-001	 4.0026154355e-001
 4.7657057845e+000	 8.4474720405e-001	 3.8917768123e-001
 4.7569624938e+000	 8.9266842386e-001	 3.7745029887e-001
 4.7477077773e+000	 9.4064840571e-001	 3.6482035282e-001
 4.8442128277e+000	 4.6691355205e-001	 4.7209181237e-001
 4.8394040719e+000	 5.1436859701e-001	 4.6187167742e-001
 4.8341113087e+000	 5.6193882583e-001	 4.5088579388e-001
 4.8283303706e+000	 6.0961765677e-001	 4.3955249711e-001
 4.8220571928e+000	 6.5739838170e-001	 4.2841632855e-001
 4.8152878175e+000	 7.0527416762e-001	 4.1781582540e-001
 4.8080183978e+000	 7.5323805836e-001	 4.0726048946e-001
 4.8002452017e+000	 8.0128297631e-001	 3.9650570356e-001
 4.7919646159e+000	 8.4940172438e-001	 3.8532976233e-001
 4.7831731501e+000	 8.9758698802e-001	 3.7351506027e-001
 4.7738674405e+000	 9.4583133749e-001	 3.6084279981e-001
 4.8707578010e+000	 4.6947211177e-001	 4.6350020113e-001
 4.8659226945e+000	 5.1718719751e-001	 4.5375239797e-001
 4.8606009285e+000	 5.6501809830e-001	 4.4337450659e-001
 4.8547883124e+000	 6.1295819631e-001	 4.3270695023e-001
 4.8484807593e+000	 6.6100074665e-001	 4.2221081075e-001
 4.8416742897e+000	 7.0913887891e-001	 4.1210124122e-001
 4.8343650355e+000	 7.5736559877e-001	 4.0192985741e-001
 4.8265492444e+000	 8.0567378985e-001	 3.9148871085e-001
 4.8182232832e+000	 8.5405621561e-001	 3.8058356319e-001
 4.8093836426e+000	 9.0250552144e-001	 3.6902443950e-001
 4.8000269402e+000	 9.5101423687e-001	 3.5662053255e-001
 4.8973025621e+000	 4.7203065102e-001	 4.5126397667e-001
 4.8924411051e+000	 5.2000577547e-001	 4.4213043301e-001
 4.8870903364e+000	 5.6809734613e-001	 4.3255742479e-001
 4.8812460426e+000	 6.1629870912e-001	 4.2279764457e-001
 4.8749041144e+000	 6.6460308279e-001	 4.1321884369e-001
 4.8680605507e+000	 7.1300355928e-001	 4.0391027743e-001
 4.8607114624e+000	 7.6149310617e-001	 3.9446388839e-001
 4.8528530766e+000	 8.1006456827e-001	 3.8469016839e-001
 4.8444817405e+000	 8.5871066962e-001	 3.7440938818e-001
 4.8355939254e+000	 9.0742401552e-001	 3.6344663311e-001
 4.8261862307e+000	 9.5619709479e-001	 3.5162694717e-001
 4.9238470643e+000	 4.7458916533e-001	 4.3513278527e-001
 4.9189592571e+000	 5.2282432595e-001	 4.2669751382e-001
 4.9135794860e+000	 5.7117656394e-001	 4.1807473543e-001
 4.9077035148e+000	 6.1963918937e-001	 4.0942006026e-001
 4.9013272119e+000	 6.6820538381e-001	 4.0099821718e-001
 4.8944465545e+000	 7.1686820198e-001	 3.9277257037e-001
 4.8870576325e+000	 7.6562057332e-001	 3.8436946097e-001
 4.8791566525e+000	 8.1445530387e-001	 3.7560099374e-001
 4.8707399418e+000	 8.6336507824e-001	 3.6628910112e-001
 4.8618039526e+000	 9.1234246164e-001	 3.5626146900e-001
 4.8523452661e+000	 9.6137990218e-001	 3.4534696401e-001
 4.9503912612e+000	 4.7714765022e-001	 4.1486115333e-001
 4.9454771042e+000	 5.2564284401e-001	 4.0715149562e-001
 4.9400683310e+000	 5.7425574634e-001	 3.9957390999e-001
 4.9341606827e+000	 6.2297963120e-001	 3.9217804116e-001
 4.9277500055e+000	 6.7180764341e-001	 3.8511431889e-001
 4.9208322549e+000	 7.2073280023e-001	 3.7822780878e-001
 4.9134034996e+000	 7.6974799300e-001	 3.7116405936e-001
 4.9054599258e+000	 8.1884598899e-001	 3.6372310616e-001
 4.8969978411e+000	 8.6801943334e-001	 3.5571580037e-001
 4.8880136785e+000	 9.1726085120e-001	 3.4696007299e-001
 4.8785040006e+000	 9.6656264996e-001	 3.3727668948e-001
 4.9769351065e+000	 4.7970610120e-001	 3.9020835896e-001
 4.9719945999e+000	 5.2846132473e-001	 3.8319619837e-001
 4.9665568250e+000	 5.7733488795e-001	 3.7670951798e-001
 4.9606175001e+000	 6.2632002876e-001	 3.7068358466e-001
 4.9541724491e+000	 6.7540985527e-001	 3.6514408111e-001
 4.9472176057e+000	 7.2459734727e-001	 3.5982546363e-001
 4.9397490176e+000	 7.7387535800e-001	 3.5437548472e-001
 4.9317628506e+000	 8.2323661592e-001	 3.4856912280e-001
 4.9232553924e+000	 8.7267372677e-001	 3.4219350312e-001
 4.9142230571e+000	 9.2217917559e-001	 3.3504454479e-001
 4.9046623886e+000	 9.7174532908e-001	 3.2692308719e-001
 4.6430684052e+000	 9.1991653610e-001	 3.8763476285e-001
 4.6335128934e+000	 9.6689621935e-001	 3.7521026261e-001
 4.6234509209e+000	 1.0139185908e+000	 3.6112110493e-001
 4.6128796112e+000	 1.0609760877e+000	 3.4571723999e-001
 4.6017962261e+000	 1.1080610447e+000	 3.2932399129e-001
 4.5901981691e+000	 1.1551656968e+000	 3.1222904083e-001
 4.5780829893e+000	 1.2022821825e+000	 2.9467011617e-001
 4.5654483845e+000	 1.2494025464e+000	 2.7682165034e-001
 4.5522922052e+000	 1.2965187431e+000	 2.5878062169e-001
 4.5386124571e+000	 1.3436226398e+000	 2.4053987887e-001
 4.5244073051e+000	 1.3907060206e+000	 2.2183732137e-001
 4.6692282646e+000	 9.2509950674e-001	 3.8073100406e-001
 4.6596189153e+000	 9.7234388174e-001	 3.6840286503e-001
 4.6495002519e+000	 1.0196311855e+000	 3.5443412044e-001
 4.6388693816e+000	 1.0669538126e+000	 3.3914972342e-001
 4.6277235508e+000	 1.1143040544e+000	 3.2286606181e-001
 4.6160601483e+000	 1.1616741024e+000	 3.0585971382e-001
 4.6038767094e+000	 1.2090560505e+000	 2.8835533089e-001
 4.5911709191e+000	 1.2564418989e+000	 2.7051258715e-001
 4.5779406155e+000	 1.3038235564e+000	 2.5241237102e-001
 4.5641837933e+000	 1.3511928448e+000	 2.3401532372e-001
 4.5498986071e+000	 1.3985415015e+000	 2.1512174150e-001
 4.6953881436e+000	 9.3028248127e-001	 3.7420744996e-001
 4.6857249569e+000	 9.7779154822e-001	 3.6129082481e-001
 4.6755496025e+000	 1.0253437844e+000	 3.4733406064e-001
 4.6648591716e+000	 1.0729315419e+000	 3.3253732172e-001
 4.6536508949e+000	 1.1205470688e+000	 3.1681197510e-001
 4.6419221469e+000	 1.1681825128e+000	 3.0025125212e-001
 4.6296704489e+000	 1.2158299237e+000	 2.8307100146e-001
 4.6168934730e+000	 1.2634812566e+000	 2.6542076000e-001
 4.6035890452e+000	 1.3111283752e+000	 2.4737033529e-001
 4.5897551488e+000	 1.3587630554e+000	 2.2885749091e-001
 4.5753899282e+000	 1.4063769883e+000	 2.0977921309e-001
 4.7215479964e+000	 9.3546545062e-001	 3.6909166757e-001
 4.7118309723e+000	 9.8323920925e-001	 3.5568905132e-001
 4.7015989270e+000	 1.0310563777e+000	 3.4138173118e-001
 4.6908489355e+000	 1.0789092652e+000	 3.2635597611e-001
 4.6795782131e+000	 1.1267900770e+000	 3.1077178756e-001
 4.6677841197e+000	 1.1746909167e+000	 2.9475260265e-001
 4.6554641627e+000	 1.2226037901e+000	 2.7820671861e-001
 4.6426160012e+000	 1.2705206073e+000	 2.6099064837e-001
 4.6292374491e+000	 1.3184331867e+000	 2.4316598995e-001
 4.6153264787e+000	 1.3663332584e+000	 2.2466408858e-001
 4.6008812238e+000	 1.4142124673e+000	 2.0549314707e-001
 4.7477077773e+000	 9.4064840571e-001	 3.6482035282e-001
 4.7379369159e+000	 9.8868685530e-001	 3.5117522614e-001
 4.7276481799e+000	 1.0367689552e+000	 3.3670422076e-001
 4.7168386280e+000	 1.0848869721e+000	 3.2157503645e-001
 4.7055054601e+000	 1.1330330679e+000	 3.0592833344e-001
 4.6936460213e+000	 1.1811993028e+000	 2.8986762375e-001
 4.6812578055e+000	 1.2293776378e+000	 2.7344919716e-001
 4.6683384586e+000	 1.2775599386e+000	 2.5667094846e-001
 4.6548857826e+000	 1.3257379781e+000	 2.3931258559e-001
 4.6408977383e+000	 1.3739034406e+000	 2.2103337515e-001
 4.6263724493e+000	 1.4220479247e+000	 2.0194587570e-001
 4.7738674405e+000	 9.4583133749e-001	 3.6084279981e-001
 4.7640427421e+000	 9.9413447684e-001	 3.4721229881e-001
 4.7536973156e+000	 1.0424815070e+000	 3.3278682861e-001
 4.7428282035e+000	 1.0908646521e+000	 3.1771742465e-001
 4.7314325903e+000	 1.1392760308e+000	 3.0212810537e-001
 4.7195078066e+000	 1.1877076595e+000	 2.8610596652e-001
 4.7070513322e+000	 1.2361514551e+000	 2.6969118994e-001
 4.6940608004e+000	 1.2845992382e+000	 2.5286594098e-001
 4.6805340007e+000	 1.3330427367e+000	 2.3554228428e-001
 4.6664688829e+000	 1.3814735888e+000	 2.1756431123e-001
 4.6518635601e+000	 1.4298833469e+000	 1.9881887563e-001
 4.8000269402e+000	 9.5101423687e-001	 3.5662053255e-001
 4.7901484051e+000	 9.9958206434e-001	 3.4327514864e-001
 4.7797462885e+000	 1.0481940231e+000	 3.2912626859e-001
 4.7688176166e+000	 1.0968422947e+000	 3.1431008812e-001
 4.7573595586e+000	 1.1455189547e+000	 2.9893660083e-001
 4.7453694302e+000	 1.1942159756e+000	 2.8307991146e-001
 4.7328446978e+000	 1.2429252300e+000	 2.6676835062e-001
 4.7197829813e+000	 1.2916384939e+000	 2.4997346148e-001
 4.7061820584e+000	 1.3403474496e+000	 2.3259763001e-001
 4.6920398676e+000	 1.3890436896e+000	 2.1453314916e-001
 4.6773545116e+000	 1.4377187201e+000	 1.9589750173e-001
 4.8261862307e+000	 9.5619709479e-001	 3.5162694717e-001
 4.8162538593e+000	 1.0050296083e+000	 3.3885022646e-001
 4.8057950530e+000	 1.0539064935e+000	 3.2523031513e-001
 4.7948068218e+000	 1.1028198895e+000	 3.1089031257e-001
 4.7832863194e+000	 1.1517618286e+000	 2.9592872147e-001
 4.7712308470e+000	 1.2007242396e+000	 2.8040999684e-001
 4.7586378570e+000	 1.2496989508e+000	 2.6435479023e-001
 4.7455049565e+000	 1.2986776933e+000	 2.4772904495e-001
 4.7318299110e+000	 1.3476521041e+000	 2.3043373598e-001
 4.7176106477e+000	 1.3966137299e+000	 2.1242616952e-001
 4.7028452592e+000	 1.4455540306e+000	 1.9384427539e-001
 4.8523452661e+000	 9.6137990218e-001	 3.4534696401e-001
 4.8423590590e+000	 1.0104770991e+000	 3.3343533628e-001
 4.8318435636e+000	 1.0596189083e+000	 3.2061745870e-001
 4.8207957736e+000	 1.1087974261e+000	 3.0700538587e-001
 4.8092128274e+000	 1.1580046417e+000	 2.9268844964e-001
 4.7970920116e+000	 1.2072324402e+000	 2.7772471242e-001
 4.7844307647e+000	 1.2564726055e+000	 2.6213123426e-001
 4.7712266809e+000	 1.3057168240e+000	 2.4587329633e-001
 4.7574775135e+000	 1.3549566873e+000	 2.2886206249e-001
 4.7431811786e+000	 1.4041836964e+000	 2.1112338332e-001
 4.7283357583e+000	 1.4533892647e+000	 1.9280261247e-001
 4.8785040006e+000	 9.6656264996e-001	 3.3727668948e-001
 4.8684639585e+000	 1.0159245272e+000	 3.2653876269e-001
 4.8578917746e+000	 1.0653312573e+000	 3.1481657045e-001
 4.8467844266e+000	 1.1147748939e+000	 3.0221227044e-001
 4.8351390374e+000	 1.1642473830e+000	 2.8880853299e-001
 4.8229528789e+000	 1.2137405659e+000	 2.7466020040e-001
 4.8102233759e+000	 1.2632461823e+000	 2.5978474418e-001
 4.7969481095e+000	 1.3127558737e+000	 2.4415163682e-001
 4.7831248211e+000	 1.3622611866e+000	 2.2769542114e-001
 4.7687514154e+000	 1.4117535758e+000	 2.1050466784e-001
 4.7538259642e+000	 1.4612244087e+000	 1.9272729076e-001
 4.9046623886e+000	 9.7174532908e-001	 3.2692308719e-001
 4.8945685121e+000	 1.0213718832e+000	 3.1767976302e-001
 4.8839396404e+000	 1.0710435306e+000	 3.0736657564e-001
 4.8727727352e+000	 1.1207522825e+000	 2.9607728411e-001
 4.8610649037e+000	 1.1704900415e+000	 2.8389017675e-001
 4.8488134034e+000	 1.2202486053e+000	 2.7085996329e-001
 4.8360156452e+000	 1.2700196694e+000	 2.5700844498e-001
 4.8226691973e+000	 1.3197948302e+000	 2.4231405504e-001
 4.8087717889e+000	 1.3695655890e+000	 2.2674796327e-001
 4.7943213134e+000	 1.4193233549e+000	 2.1044985794e-001
 4.7793158324e+000	 1.4690594489e+000	 1.9357151183e-001
 4.5244073051e+000	 1.3907060206e+000	 2.2183732137e-001
 4.5096750751e+000	 1.4377605886e+000	 2.0265107186e-001
 4.4944142536e+000	 1.4847779682e+000	 1.8298469670e-001
 4.4786234942e+000	 1.5317497104e+000	 1.6303338108e-001
 4.4623016217e+000	 1.5786672978e+000	 1.4297089247e-001
 4.4454476346e+000	 1.6255221485e+000	 1.2294669880e-001
 4.4280607082e+000	 1.6723056206e+000	 1.0308316276e-001
 4.4101401969e+000	 1.7190090161e+000	 8.3472813168e-002
 4.3916856366e+000	 1.7656235858e+000	 6.4175689880e-002
 4.3726967475e+000	 1.8121405334e+000	 4.5216754637e-002
 4.3531734355e+000	 1.8585510208e+000	 2.6583355971e-002
 4.5498986071e+000	 1.3985415015e+000	 2.1512174150e-001
 4.5350833731e+000	 1.4458611832e+000	 1.9583580853e-001
 4.5197365695e+000	 1.4931434669e+000	 1.7620413458e-001
 4.5038568422e+000	 1.5403798561e+000	 1.5639559050e-001
 4.4874430094e+000	 1.5875617854e+000	 1.3655965373e-001
 4.4704940640e+000	 1.6346806246e+000	 1.1682358156e-001
 4.4530091766e+000	 1.6817276829e+000	 9.7289677749e-002
 4.4349876980e+000	 1.7286942135e+000	 7.8032652818e-002
 4.4164291615e+000	 1.7755714178e+000	 5.9097073995e-002
 4.3973332856e+000	 1.8223504501e+000	 4.0494896510e-002
 4.3776999759e+000	 1.8690224222e+000	 2.2203063232e-002
 4.5753899282e+000	 1.4063769883e+000	 2.0977921309e-001
 4.5604916902e+000	 1.4539617839e+000	 1.9035582747e-001
 4.5450589044e+000	 1.5015089719e+000	 1.7070537321e-001
 4.5290902091e+000	 1.5490100083e+000	 1.5097903679e-001
 4.5125844159e+000	 1.5964562797e+000	 1.3130946763e-001
 4.4955405122e+000	 1.6438391075e+000	 1.1180797901e-001
 4.4779576637e+000	 1.6911497523e+000	 9.2561861872e-002
 4.4598352177e+000	 1.7383794182e+000	 7.3631811510e-002
 4.4411727050e+000	 1.7855192573e+000	 5.5049462951e-002
 4.4219698423e+000	 1.8325603744e+000	 3.6815025675e-002
 4.4022265347e+000	 1.8794938316e+000	 1.8895003830e-002
 4.6008812238e+000	 1.4142124673e+000	 2.0549314707e-001
 4.5858999819e+000	 1.4620623764e+000	 1.8597737940e-001
 4.5703812139e+000	 1.5098744685e+000	 1.6632285948e-001
 4.5543235508e+000	 1.5576401519e+000	 1.4667157337e-001
 4.5377257974e+000	 1.6053507651e+000	 1.2714666524e-001
 4.5205869353e+000	 1.6529975813e+000	 1.0784963861e-001
 4.5029061259e+000	 1.7005718123e+000	 8.8857692757e-002
 4.4846827126e+000	 1.7480646132e+000	 7.0221193966e-002
 4.4659162237e+000	 1.7954670869e+000	 5.1961277058e-002
 4.4466063743e+000	 1.8427702886e+000	 3.4067567167e-002
 4.4267530690e+000	 1.8899652304e+000	 1.6496006950e-002
 4.6263724493e+000	 1.4220479247e+000	 2.0194587570e-001
 4.6113082037e+000	 1.4701629467e+000	 1.8246410360e-001
 4.5957034539e+000	 1.5182399422e+000	 1.6288725027e-001
 4.5795568231e+000	 1.5662702718e+000	 1.4335644088e-001
 4.5628671097e+000	 1.6142452261e+000	 1.2399249863e-001
 4.5456332896e+000	 1.6621560298e+000	 1.0489311973e-001
 4.5278545195e+000	 1.7099938463e+000	 8.6130208120e-002
 4.5095301392e+000	 1.7577497816e+000	 6.7747370014e-002
 4.4906596744e+000	 1.8054148891e+000	 4.9757562808e-002
 4.4712428386e+000	 1.8529801746e+000	 3.2140888095e-002
 4.4512795359e+000	 1.9004366005e+000	 1.4842512882e-002
 4.6518635601e+000	 1.4298833469e+000	 1.9881887563e-001
 4.6367163112e+000	 1.4782634806e+000	 1.7957732076e-001
 4.6210255799e+000	 1.5266053782e+000	 1.6022576665e-001
 4.6047899819e+000	 1.5749003528e+000	 1.4091267390e-001
 4.5880083088e+000	 1.6231396470e+000	 1.2176359153e-001
 4.5706795311e+000	 1.6713144372e+000	 1.0287827938e-001
 4.5528028008e+000	 1.7194158380e+000	 8.4328017663e-002
 4.5343774540e+000	 1.7674349064e+000	 6.6153103675e-002
 4.5154030137e+000	 1.8153626466e+000	 4.8360530081e-002
 4.4958791920e+000	 1.8631900147e+000	 3.0921833843e-002
 4.4758058924e+000	 1.9109079234e+000	 1.3771099030e-002
 4.6773545116e+000	 1.4377187201e+000	 1.9589750173e-001
 4.6621242599e+000	 1.4863639638e+000	 1.7707632514e-001
 4.6463475476e+000	 1.5349707619e+000	 1.5816254583e-001
 4.6300229829e+000	 1.5835303799e+000	 1.3921550444e-001
 4.6131493509e+000	 1.6320340123e+000	 1.2037238581e-001
 4.5957256162e+000	 1.6804727874e+000	 1.0174075331e-001
 4.5777509262e+000	 1.7288377708e+000	 8.3395810070e-002
 4.5592246135e+000	 1.7771199706e+000	 6.5377877390e-002
 4.5401461984e+000	 1.8253103419e+000	 4.7690084854e-002
 4.5205153914e+000	 1.8733997910e+000	 3.0296260420e-002
 4.5003320956e+000	 1.9213791809e+000	 1.3119003022e-002
 4.7028452592e+000	 1.4455540306e+000	 1.9384427539e-001
 4.6875320053e+000	 1.4944643822e+000	 1.7509716218e-001
 4.6716693128e+000	 1.5433360787e+000	 1.5653788349e-001
 4.6552557821e+000	 1.5921603379e+000	 1.3813676226e-001
 4.6382901918e+000	 1.6409283065e+000	 1.1972758408e-001
 4.6207715009e+000	 1.6896310642e+000	 1.0141243256e-001
 4.6026988520e+000	 1.7382596282e+000	 8.3274855240e-002
 4.5840715742e+000	 1.7868049574e+000	 6.5358411535e-002
 4.5648891852e+000	 1.8352579576e+000	 4.7664357525e-002
 4.5451513938e+000	 1.8836094856e+000	 3.0149563074e-002
 4.5248581026e+000	 1.9318503547e+000	 1.2724643001e-002
 4.7283357583e+000	 1.4533892647e+000	 1.9280261247e-001
 4.7129395030e+000	 1.5025647216e+000	 1.7427626566e-001
 4.6969908311e+000	 1.5517013139e+000	 1.5588065403e-001
 4.6804883353e+000	 1.6007902118e+000	 1.3768586860e-001
 4.6634307876e+000	 1.6498225140e+000	 1.1973458838e-001
 4.6458171413e+000	 1.6987892518e+000	 1.0182193562e-001
 4.6276465346e+000	 1.7476813937e+000	 8.3903501926e-002
 4.6089182927e+000	 1.7964898498e+000	 6.6029179397e-002
 4.5896319307e+000	 1.8452054763e+000	 4.8200227023e-002
 4.5697871560e+000	 1.8938190807e+000	 3.0367201269e-002
 4.5493838705e+000	 1.9423214263e+000	 1.2428135179e-002
 4.7538259642e+000	 1.4612244087e+000	 1.9272729076e-001
 4.7383467086e+000	 1.5106649679e+000	 1.7465761568e-001
 4.7223120582e+000	 1.5600664530e+000	 1.5656529796e-001
 4.7057205984e+000	 1.6094199865e+000	 1.3853924486e-001
 4.6885710943e+000	 1.6587166192e+000	 1.2064188802e-001
 4.6708624938e+000	 1.7079473341e+000	 1.0290628420e-001
 4.6525939303e+000	 1.7571030509e+000	 8.5217670924e-002
 4.6337647254e+000	 1.8061746307e+000	 6.7322917718e-002
 4.6143743917e+000	 1.8551528806e+000	 4.9213840803e-002
 4.5944226349e+000	 1.9040285584e+000	 3.0835220145e-002
 4.5739093563e+000	 1.9527923776e+000	 1.2071808700e-002
 4.7793158324e+000	 1.4690594489e+000	 1.9357151183e-001
 4.7637535775e+000	 1.5187651069e+000	 1.7626537309e-001
 4.7476329498e+000	 1.5684314812e+000	 1.5867440291e-001
 4.7309525271e+000	 1.6180496468e+000	 1.4091292017e-001
 4.7137110679e+000	 1.6676106065e+000	 1.2306171072e-001
 4.6959075144e+000	 1.7171052950e+000	 1.0516502436e-001
 4.6775409954e+000	 1.7665245833e+000	 8.7227274582e-002
 4.6586108290e+000	 1.8158592834e+000	 6.9171132978e-002
 4.6391165248e+000	 1.8651001532e+000	 5.0621130859e-002
 4.6190577873e+000	 1.9142379008e+000	 3.1440768544e-002
 4.5984345172e+000	 1.9632631901e+000	 1.1500717904e-002
 4.3531734355e+000	 1.8585510208e+000	 2.6583355971e-002
 4.3331188442e+000	 1.9048392375e+000	 7.6103591313e-003
 4.3125303724e+000	 1.9510032508e+000	-1.2754302410e-002
 4.2914084996e+000	 1.9970341310e+000	-3.5160390674e-002
 4.2697538987e+000	 2.0429229261e+000	-5.8686957818e-002
 4.2475674374e+000	 2.0886606667e+000	-8.1644941338e-002
 4.2248501796e+000	 2.1342383709e+000	-1.0421621562e-001
 4.2016033865e+000	 2.1796470501e+000	-1.2660312046e-001
 4.1778285178e+000	 2.2248777138e+000	-1.4902169390e-001
 4.1535272320e+000	 2.2699213753e+000	-1.7170213130e-001
 4.1287013875e+000	 2.3147690567e+000	-1.9488915203e-001
 4.3776999759e+000	 1.8690224222e+000	 2.2203063232e-002
 4.3575323935e+000	 1.9155714349e+000	 3.5490139144e-003
 4.3368279227e+000	 1.9619955443e+000	-1.6497473726e-002
 4.3155870456e+000	 2.0082857706e+000	-3.8499729404e-002
 4.2938104388e+000	 2.0544331112e+000	-6.0918997186e-002
 4.2714989751e+000	 2.1004285461e+000	-8.2891502032e-002
 4.2486537243e+000	 2.1462630431e+000	-1.0458971614e-001
 4.2252759548e+000	 2.1919275628e+000	-1.2620094261e-001
 4.2013671343e+000	 2.2374130640e+000	-1.4792790615e-001
 4.1769289308e+000	 2.2827105093e+000	-1.6998924994e-001
 4.1519632131e+000	 2.3278108704e+000	-1.9261993504e-001
 4.4022265347e+000	 1.8794938316e+000	 1.8895003830e-002
 4.3819459612e+000	 1.9263036403e+000	 5.9032608022e-004
 4.3611254912e+000	 1.9729878461e+000	-1.9124841788e-002
 4.3397656097e+000	 2.0195374185e+000	-4.0570747381e-002
 4.3178669970e+000	 2.0659433048e+000	-6.2025897548e-002
 4.2954305308e+000	 2.1121964344e+000	-8.3164295384e-002
 4.2724572869e+000	 2.1582877244e+000	-1.0413788137e-001
 4.2489485408e+000	 2.2042080846e+000	-1.2511433939e-001
 4.2249057684e+000	 2.2499484235e+000	-1.4627772879e-001
 4.2003306471e+000	 2.2954996529e+000	-1.6782901896e-001
 4.1752250562e+000	 2.3408526939e+000	-1.8998652275e-001
 4.4267530690e+000	 1.8899652304e+000	 1.6496006950e-002
 4.4063595044e+000	 1.9370358350e+000	-1.4858468369e-003
 4.3854230354e+000	 1.9839801368e+000	-2.0904689344e-002
 4.3639441496e+000	 2.0307890552e+000	-4.1726155288e-002
 4.3419235312e+000	 2.0774534870e+000	-6.2386115083e-002
 4.3193620626e+000	 2.1239643109e+000	-8.2851727844e-002
 4.2962608257e+000	 2.1703123936e+000	-1.0325064582e-001
 4.2726211032e+000	 2.2164885942e+000	-1.2372641739e-001
 4.2484443790e+000	 2.2624837705e+000	-1.4443915924e-001
 4.2237323400e+000	 2.3082887837e+000	-1.6556612867e-001
 4.1984868760e+000	 2.3538945043e+000	-1.8730219222e-001
 4.4512795359e+000	 1.9004366005e+000	 1.4842512882e-002
 4.4307729805e+000	 1.9477680002e+000	-2.8982873783e-003
 4.4097205128e+000	 1.9949723973e+000	-2.2102383582e-002
 4.3881226230e+000	 2.0420406610e+000	-4.2314084875e-002
 4.3659799992e+000	 2.0889636375e+000	-6.2365511615e-002
 4.3432935286e+000	 2.1357321551e+000	-8.2329112970e-002
 4.3200642991e+000	 2.1823370297e+000	-1.0230455279e-001
 4.2962936004e+000	 2.2287690700e+000	-1.2240679234e-001
 4.2719829249e+000	 2.2750190830e+000	-1.4276680126e-001
 4.2471339687e+000	 2.3210778793e+000	-1.6353216775e-001
 4.2217486319e+000	 2.3669362788e+000	-1.8486760367e-001
 4.4758058924e+000	 1.9109079234e+000	 1.3771099030e-002
 4.4551863468e+000	 1.9585001171e+000	-3.8639041661e-003
 4.4340178809e+000	 2.0059646084e+000	-2.2964031626e-002
 4.4123009877e+000	 2.0532922162e+000	-4.2670819015e-002
 4.3900363589e+000	 2.1004737362e+000	-6.2317417404e-002
 4.3672248869e+000	 2.1474999463e+000	-8.1958746267e-002
 4.3438676654e+000	 2.1943616118e+000	-1.0166283589e-001
 4.3199659911e+000	 2.2410494906e+000	-1.2151167181e-001
 4.2955213649e+000	 2.2875543391e+000	-1.4160194355e-001
 4.2705354920e+000	 2.3338669174e+000	-1.6204569252e-001
 4.2450102831e+000	 2.3799779947e+000	-1.8297085510e-001
 4.5003320956e+000	 1.9213791809e+000	 1.3119003022e-002
 4.4795995605e+000	 1.9692321670e+000	-4.5972197828e-003
 4.4583150972e+000	 2.0169567508e+000	-2.3682603432e-002
 4.4364792012e+000	 2.0645437010e+000	-4.3120837600e-002
 4.4140925684e+000	 2.1119837630e+000	-6.2582694023e-002
 4.3911560956e+000	 2.1592676640e+000	-8.2089979759e-002
 4.3676708828e+000	 2.2063861187e+000	-1.0167550000e-001
 4.3436382339e+000	 2.2533298344e+000	-1.2138393754e-001
 4.3190596578e+000	 2.3000895169e+000	-1.4127263810e-001
 4.2939368690e+000	 2.3466558755e+000	-1.6141229624e-001
 4.2682717890e+000	 2.3930196291e+000	-1.8188753746e-001
 4.5248581026e+000	 1.9318503547e+000	 1.2724643001e-002
 4.5040125789e+000	 1.9799641309e+000	-5.3098604880e-003
 4.4826121190e+000	 2.0279488052e+000	-2.4534615517e-002
 4.4606572214e+000	 2.0757950959e+000	-4.3976864015e-002
 4.4381485853e+000	 2.1234936977e+000	-6.3489797304e-002
 4.4150871129e+000	 2.1710352875e+000	-8.3059296321e-002
 4.3914739099e+000	 2.2184105294e+000	-1.0267940194e-001
 4.3673102874e+000	 2.2656100800e+000	-1.2235322723e-001
 4.3425977623e+000	 2.3126245944e+000	-1.4209377835e-001
 4.3173380589e+000	 2.3594447314e+000	-1.6192467847e-001
 4.2915331087e+000	 2.4060611591e+000	-1.8188079043e-001
 4.5493838705e+000	 1.9423214263e+000	 1.2428135179e-002
 4.5284253593e+000	 1.9906959903e+000	-6.2100477384e-003
 4.5069089040e+000	 2.0389407525e+000	-2.5798414500e-002
 4.4848350058e+000	 2.0870463810e+000	-4.5539912167e-002
 4.4622043678e+000	 2.1350035202e+000	-6.5354840386e-002
 4.4390178969e+000	 2.1828027963e+000	-8.5190383779e-002
 4.4152767049e+000	 2.2304348228e+000	-1.0499833071e-001
 4.3909821100e+000	 2.2778902058e+000	-1.2473601615e-001
 4.3661356374e+000	 2.3251595497e+000	-1.4436717707e-001
 4.3407390206e+000	 2.3722334625e+000	-1.6386271467e-001
 4.3147942016e+000	 2.4191025620e+000	-1.8320135880e-001
 4.5739093563e+000	 1.9527923776e+000	 1.2071808700e-002
 4.5528378589e+000	 2.0014277262e+000	-7.5016234902e-003
 4.5312054096e+000	 2.0499325734e+000	-2.7741479973e-002
 4.5090125121e+000	 2.0982975368e+000	-4.8099334083e-002
 4.4862598736e+000	 2.1465132103e+000	-6.8481656856e-002
 4.4629484056e+000	 2.1945701698e+000	-8.8794208825e-002
 4.4390792262e+000	 2.2424589780e+000	-1.0894308740e-001
 4.4146536604e+000	 2.2901701905e+000	-1.2883569824e-001
 4.3896732418e+000	 2.3376943608e+000	-1.4838164416e-001
 4.3641397131e+000	 2.3850220466e+000	-1.6749352581e-001
 4.3380550271e+000	 2.4321438149e+000	-1.8608764942e-001
 4.5984345172e+000	 1.9632631901e+000	 1.1500717904e-002
 4.5772500350e+000	 2.0121593200e+000	-9.3572675713e-003
 4.5555015932e+000	 2.0609242486e+000	-3.0620452873e-002
 4.5331896981e+000	 2.1095485434e+000	-5.1932868049e-002
 4.5103150606e+000	 2.1580227479e+000	-7.3161864002e-002
 4.4868785973e+000	 2.2063373874e+000	-9.4169090732e-002
 4.4628814320e+000	 2.2544829739e+000	-1.1481156478e-001
 4.4383248971e+000	 2.3024500124e+000	-1.3494266700e-001
 4.4132105343e+000	 2.3502290059e+000	-1.5441306413e-001
 4.3875400957e+000	 2.3978104613e+000	-1.7307154816e-001
 4.3613155443e+000	 2.4451848950e+000	-1.9076578868e-001
 4.1287013875e+000	 2.3147690567e+000	-1.9488915203e-001
 4.1033492018e+000	 2.3594184767e+000	-2.1773870496e-001
 4.0774766229e+000	 2.4038539472e+000	-2.3905704568e-001
 4.0510861151e+000	 2.4480665494e+000	-2.5861427197e-001
 4.0241803434e+000	 2.4920473954e+000	-2.7621905260e-001
 3.9967621731e+000	 2.5357876342e+000	-2.9173454148e-001
 3.9688346697e+000	 2.5792784569e+000	-3.0637343544e-001
 3.9404010980e+000	 2.6225111028e+000	-3.2093672753e-001
 3.9114649214e+000	 2.6654768645e+000	-3.3536363723e-001
 3.8820298008e+000	 2.7081670937e+000	-3.4934981322e-001
 3.8520995936e+000	 2.7505732069e+000	-3.6224315182e-001
 4.1519632131e+000	 2.3278108704e+000	-1.9261993504e-001
 4.1264681888e+000	 2.3727118530e+000	-2.1509488364e-001
 4.1004498393e+000	 2.4173976808e+000	-2.3633718144e-001
 4.0739106427e+000	 2.4618593845e+000	-2.5610323560e-001
 4.0468532792e+000	 2.5060880263e+000	-2.7418555762e-001
 4.0192806301e+000	 2.5500747052e+000	-2.9041375351e-001
 3.9911957783e+000	 2.5938105628e+000	-3.0475938160e-001
 3.9626020069e+000	 2.6372867889e+000	-3.1867044391e-001
 3.9335027988e+000	 2.6804946273e+000	-3.3259158081e-001
 3.9039018356e+000	 2.7234253807e+000	-3.4614443136e-001
 3.8738029964e+000	 2.7660704174e+000	-3.5875466279e-001
 4.1752250562e+000	 2.3408526939e+000	-1.8998652275e-001
 4.1495871931e+000	 2.3860052393e+000	-2.1211737777e-001
 4.1234230729e+000	 2.4309414244e+000	-2.3324671655e-001
 4.0967351875e+000	 2.4756522299e+000	-2.5312807681e-001
 4.0695262320e+000	 2.5201286676e+000	-2.7154901176e-001
 4.0417991041e+000	 2.5643617869e+000	-2.8833205105e-001
 4.0135569037e+000	 2.6083426796e+000	-3.0333553879e-001
 3.9848029324e+000	 2.6520624862e+000	-3.1674674922e-001
 3.9555406927e+000	 2.6955124013e+000	-3.3004700607e-001
 3.9257738867e+000	 2.7386836792e+000	-3.4309571659e-001
 3.8955064154e+000	 2.7815676394e+000	-3.5536526385e-001
 4.1984868760e+000	 2.3538945043e+000	-1.8730219222e-001
 4.1727061744e+000	 2.3992986122e+000	-2.0908638259e-001
 4.1463962835e+000	 2.4444851546e+000	-2.3003735554e-001
 4.1195597094e+000	 2.4894450615e+000	-2.4991641252e-001
 4.0921991621e+000	 2.5341692950e+000	-2.6851715467e-001
 4.0643175555e+000	 2.5786488543e+000	-2.8566639707e-001
 4.0359180067e+000	 2.6228747818e+000	-3.0122495979e-001
 4.0070038358e+000	 2.6668381687e+000	-3.1508833672e-001
 3.9775785646e+000	 2.7105301604e+000	-3.2772963978e-001
 3.9476459161e+000	 2.7539419624e+000	-3.4019757733e-001
 3.9172098127e+000	 2.7970648460e+000	-3.5206559367e-001
 4.2217486319e+000	 2.3669362788e+000	-1.8486760367e-001
 4.1958250920e+000	 2.4125919487e+000	-2.0627001200e-001
 4.1693694310e+000	 2.4580288475e+000	-2.2694916994e-001
 4.1423841686e+000	 2.5032378552e+000	-2.4668459198e-001
 4.1148720299e+000	 2.5482098837e+000	-2.6528674513e-001
 4.0868359450e+000	 2.5929358824e+000	-2.8259789883e-001
 4.0582790482e+000	 2.6374068441e+000	-2.9849285081e-001
 4.0292046781e+000	 2.6816138106e+000	-3.1288353928e-001
 3.9996163759e+000	 2.7255478781e+000	-3.2564701634e-001
 3.9695178853e+000	 2.7692002036e+000	-3.3745107816e-001
 3.9389131504e+000	 2.8125620100e+000	-3.4885291215e-001
 4.2450102831e+000	 2.3799779947e+000	-1.8297085510e-001
 4.2189439057e+000	 2.4258852253e+000	-2.0392433716e-001
 4.1923424751e+000	 2.4715724794e+000	-2.2421062327e-001
 4.1652085251e+000	 2.5170305868e+000	-2.4363771052e-001
 4.1375447957e+000	 2.5622504092e+000	-2.6204356557e-001
 4.1093542332e+000	 2.6072228463e+000	-2.7929689285e-001
 4.0806399892e+000	 2.6519388410e+000	-2.9529777689e-001
 4.0514054205e+000	 2.6963893859e+000	-3.1000483089e-001
 4.0216540881e+000	 2.7405655283e+000	-3.2329499491e-001
 3.9913897560e+000	 2.7844583762e+000	-3.3486358988e-001
 3.9606163904e+000	 2.8280591043e+000	-3.4573024350e-001
 4.2682717890e+000	 2.3930196291e+000	-1.8188753746e-001
 4.2420625748e+000	 2.4391784189e+000	-2.0229342627e-001
 4.2153153756e+000	 2.4851160267e+000	-2.2203859768e-001
 4.1880327389e+000	 2.5308232322e+000	-2.4096962529e-001
 4.1602174198e+000	 2.5762908470e+000	-2.5896242914e-001
 4.1318723806e+000	 2.6215097208e+000	-2.7592294510e-001
 4.1030007903e+000	 2.6664707471e+000	-2.9178766545e-001
 4.0736060241e+000	 2.7111648690e+000	-3.0660452591e-001
 4.0436916625e+000	 2.7555830846e+000	-3.2021552886e-001
 4.0132614901e+000	 2.7997164535e+000	-3.3226218302e-001
 3.9823194948e+000	 2.8435561017e+000	-3.4270552176e-001
 4.2915331087e+000	 2.4060611591e+000	-1.8188079043e-001
 4.2651810590e+000	 2.4524715061e+000	-2.0160938537e-001
 4.2382880923e+000	 2.4986594657e+000	-2.2063842218e-001
 4.2108567701e+000	 2.5446157673e+000	-2.3886297295e-001
 4.1828898625e+000	 2.5903311725e+000	-2.5620718885e-001
 4.1543903479e+000	 2.6357964811e+000	-2.7262485359e-001
 4.1253614126e+000	 2.6810025370e+000	-2.8811536763e-001
 4.0958064502e+000	 2.7259402338e+000	-3.0282028061e-001
 4.0657290606e+000	 2.7706005208e+000	-3.1653721673e-001
 4.0351330492e+000	 2.8149744086e+000	-3.2895963069e-001
 4.0040224255e+000	 2.8590529751e+000	-3.3977441600e-001
 4.3147942016e+000	 2.4191025620e+000	-1.8320135880e-001
 4.2882993178e+000	 2.4657644637e+000	-2.0209240037e-001
 4.2612605851e+000	 2.5122027726e+000	-2.2020390234e-001
 4.2336805788e+000	 2.5584081679e+000	-2.3748918926e-001
 4.2055620842e+000	 2.6043713611e+000	-2.5393074904e-001
 4.1769080956e+000	 2.6500831021e+000	-2.6954065353e-001
 4.1477218169e+000	 2.6955341851e+000	-2.8442903233e-001
 4.1180066598e+000	 2.7407154546e+000	-2.9877553486e-001
 4.0877662438e+000	 2.7856178106e+000	-3.1237487881e-001
 4.0570043951e+000	 2.8302322150e+000	-3.2498392612e-001
 4.0257251447e+000	 2.8745496975e+000	-3.3635225049e-001
 4.3380550271e+000	 2.4321438149e+000	-1.8608764942e-001
 4.3114173107e+000	 2.4790572684e+000	-2.0395078005e-001
 4.2842328136e+000	 2.5257459238e+000	-2.2091735158e-001
 4.2565041250e+000	 2.5722004099e+000	-2.3700853056e-001
 4.2282340451e+000	 2.6184113882e+000	-2.5227507891e-001
 4.1994255844e+000	 2.6643695588e+000	-2.6679762478e-001
 4.1700819640e+000	 2.7100656662e+000	-2.8084968111e-001
 4.1402066141e+000	 2.7554905054e+000	-2.9457995649e-001
 4.1098031737e+000	 2.8006349276e+000	-3.0782984029e-001
 4.0788754894e+000	 2.8454898460e+000	-3.2043082849e-001
 4.0474276143e+000	 2.8900462416e+000	-3.3220667604e-001
 4.3613155443e+000	 2.4451848950e+000	-1.9076578868e-001
 4.3345349974e+000	 2.4923498970e+000	-2.0738100019e-001
 4.3072047378e+000	 2.5392888956e+000	-2.2294962383e-001
 4.2793273689e+000	 2.5859924692e+000	-2.3757009696e-001
 4.2509057056e+000	 2.6324512293e+000	-2.5137122811e-001
 4.2219427749e+000	 2.6786558262e+000	-2.6452807102e-001
 4.1924418148e+000	 2.7245969547e+000	-2.7748465668e-001
 4.1624062742e+000	 2.7702653605e+000	-2.9032988824e-001
 4.1318398115e+000	 2.8156518457e+000	-3.0299038633e-001
 4.1007462939e+000	 2.8607472748e+000	-3.1538327924e-001
 4.0691297963e+000	 2.9055425804e+000	-3.2741777500e-001
 3.8520995936e+000	 2.7505732069e+000	-3.6224315182e-001
 3.8216783512e+000	 2.7926866895e+000	-3.7403950282e-001
 3.7907703142e+000	 2.8344990990e+000	-3.8544683987e-001
 3.7593799139e+000	 2.8760020728e+000	-3.9689111851e-001
 3.7275117717e+000	 2.9171873346e+000	-4.0873888335e-001
 3.6951706969e+000	 2.9580467000e+000	-4.2130090364e-001
 3.6623616842e+000	 2.9985720814e+000	-4.3483707123e-001
 3.6290899118e+000	 3.0387554936e+000	-4.4956254890e-001
 3.5953607382e+000	 3.0785890587e+000	-4.6565514446e-001
 3.5611796998e+000	 3.1180650113e+000	-4.8326387291e-001
 3.5265525078e+000	 3.1571757036e+000	-5.0251865650e-001
 3.8738029964e+000	 2.7660704174e+000	-3.5875466279e-001
 3.8432103554e+000	 2.8084211747e+000	-3.7033017550e-001
 3.8121281771e+000	 2.8504691626e+000	-3.8149612669e-001
 3.7805609178e+000	 2.8922059714e+000	-3.9268665974e-001
 3.7485132249e+000	 2.9336232782e+000	-4.0427222741e-001
 3.7159899348e+000	 2.9747128524e+000	-4.1656324032e-001
 3.6829960704e+000	 3.0154665609e+000	-4.2981503785e-001
 3.6495368390e+000	 3.0558763735e+000	-4.4423416969e-001
 3.6156176293e+000	 3.0959343678e+000	-4.5998596343e-001
 3.5812440090e+000	 3.1356327349e+000	-4.7720333969e-001
 3.5464217214e+000	 3.1749637836e+000	-4.9599682345e-001
 3.8955064154e+000	 2.7815676394e+000	-3.5536526385e-001
 3.8647423757e+000	 2.8241556717e+000	-3.6669858018e-001
 3.8334860560e+000	 2.8664392382e+000	-3.7764096229e-001
 3.8017419376e+000	 2.9084098822e+000	-3.8862001049e-001
 3.7695146939e+000	 2.9500592341e+000	-3.9999524388e-001
 3.7368091883e+000	 2.9913790173e+000	-4.1206178774e-001
 3.7036304721e+000	 3.0323610531e+000	-4.2505544539e-001
 3.6699837815e+000	 3.0729972662e+000	-4.3915914334e-001
 3.6358745357e+000	 3.1132796900e+000	-4.5451072453e-001
 3.6013083333e+000	 3.1532004716e+000	-4.7121205087e-001
 3.5662909498e+000	 3.1927518770e+000	-4.8933936192e-001
 3.9172098127e+000	 2.7970648460e+000	-3.5206559367e-001
 3.8862743745e+000	 2.8398901530e+000	-3.6313428109e-001
 3.8548439135e+000	 2.8824092978e+000	-3.7387186854e-001
 3.8229229361e+000	 2.9246137768e+000	-3.8468502530e-001
 3.7905161418e+000	 2.9664951736e+000	-3.9590782726e-001
 3.7576284210e+000	 3.0080451656e+000	-4.0780550860e-001
 3.7242648531e+000	 3.0492555284e+000	-4.2057966245e-001
 3.6904307036e+000	 3.0901181418e+000	-4.3437487931e-001
 3.6561314218e+000	 3.1306249948e+000	-4.4928679814e-001
 3.6213726375e+000	 3.1707681908e+000	-4.6537153011e-001
 3.5861601584e+000	 3.2105399526e+000	-4.8265640096e-001
 3.9389131504e+000	 2.8125620100e+000	-3.4885291215e-001
 3.9078063141e+000	 2.8556245910e+000	-3.5963292689e-001
 3.8762017123e+000	 2.8983793136e+000	-3.7018491995e-001
 3.8441038765e+000	 2.9408176268e+000	-3.8088057984e-001
 3.8115175320e+000	 2.9829310679e+000	-3.9201435688e-001
 3.7784475965e+000	 3.0247112680e+000	-4.0380730435e-001
 3.7448991774e+000	 3.0661499572e+000	-4.1641243503e-001
 3.7108775695e+000	 3.1072389703e+000	-4.2992158246e-001
 3.6763882522e+000	 3.1479702519e+000	-4.4437374147e-001
 3.6414368865e+000	 3.1883358617e+000	-4.5976484711e-001
 3.6060293124e+000	 3.2283279793e+000	-4.7605893642e-001
 3.9606163904e+000	 2.8280591043e+000	-3.4573024350e-001
 3.9293381567e+000	 2.8713589582e+000	-3.5619538884e-001
 3.8975594150e+000	 2.9143492574e+000	-3.6658087888e-001
 3.8652847215e+000	 2.9570214039e+000	-3.7720970512e-001
 3.8325188277e+000	 2.9993668883e+000	-3.8832283258e-001
 3.7992666783e+000	 3.0413772954e+000	-4.0008315466e-001
 3.7655334089e+000	 3.0830443100e+000	-4.1258103249e-001
 3.7313243434e+000	 3.1243597218e+000	-4.2584140814e-001
 3.6966449914e+000	 3.1653154310e+000	-4.3983246596e-001
 3.6615010452e+000	 3.2059034535e+000	-4.5447580027e-001
 3.6258983769e+000	 3.2461159260e+000	-4.6965803220e-001
 3.9823194948e+000	 2.8435561017e+000	-3.4270552176e-001
 3.9508698649e+000	 2.8870932270e+000	-3.5282690134e-001
 3.9189169843e+000	 2.9303191015e+000	-3.6306433289e-001
 3.8864654342e+000	 2.9732250798e+000	-3.7367872393e-001
 3.8535199921e+000	 3.0158026059e+000	-3.8484401224e-001
 3.8200856300e+000	 3.0580432187e+000	-3.9665125851e-001
 3.7861675114e+000	 3.0999385572e+000	-4.0911439478e-001
 3.7517709895e+000	 3.1414803662e+000	-4.2217761838e-001
 3.7169016041e+000	 3.1826605016e+000	-4.3572440519e-001
 3.6815650786e+000	 3.2234709355e+000	-4.4958809937e-001
 3.6457673173e+000	 3.2639037614e+000	-4.6356402098e-001
 4.0040224255e+000	 2.8590529751e+000	-3.3977441600e-001
 3.9724014008e+000	 2.9028273700e+000	-3.4953620467e-001
 3.9402743827e+000	 2.9462888178e+000	-3.5964283436e-001
 3.9076459774e+000	 2.9894286260e+000	-3.7029638917e-001
 3.8745209886e+000	 3.0322381921e+000	-3.8159055118e-001
 3.8409044151e+000	 3.0747090086e+000	-3.9353117698e-001
 3.8068014488e+000	 3.1168326693e+000	-4.0604228107e-001
 3.7722174720e+000	 3.1586008738e+000	-4.1897373903e-001
 3.7371580547e+000	 3.2000054335e+000	-4.3211068334e-001
 3.7016289514e+000	 3.2410382770e+000	-4.4518454849e-001
 3.6656360987e+000	 3.2816914546e+000	-4.5788570451e-001
 4.0257251447e+000	 2.8745496975e+000	-3.3635225049e-001
 3.9939327267e+000	 2.9185613596e+000	-3.4633469002e-001
 3.9616315728e+000	 2.9622583784e+000	-3.5632604221e-001
 3.9288263141e+000	 3.0056320142e+000	-3.6707302430e-001
 3.8955217803e+000	 3.0486736180e+000	-3.7857614343e-001
 3.8617229972e+000	 3.0913746361e+000	-3.9074297761e-001
 3.8274351851e+000	 3.1337266166e+000	-4.0339441976e-001
 3.7926637552e+000	 3.1757212144e+000	-4.1627271794e-001
 3.7574143078e+000	 3.2173501963e+000	-4.2905128444e-001
 3.7216926286e+000	 3.2586054472e+000	-4.4134622896e-001
 3.6855046864e+000	 3.2994789744e+000	-4.5272955356e-001
 4.0474276143e+000	 2.8900462416e+000	-3.3220667604e-001
 4.0154638050e+000	 2.9342951683e+000	-3.4301122387e-001
 3.9829885173e+000	 2.9782277553e+000	-3.5312486574e-001
 3.9500064073e+000	 3.0218352162e+000	-3.6401966576e-001
 3.9165223304e+000	 3.0651088549e+000	-3.7581466477e-001
 3.8825413400e+000	 3.1080400719e+000	-3.8830638043e-001
 3.8480686841e+000	 3.1506203697e+000	-4.0119965977e-001
 3.8131098033e+000	 3.1928413581e+000	-4.1411608421e-001
 3.7776703279e+000	 3.2346947597e+000	-4.2660422207e-001
 3.7417560751e+000	 3.2761724154e+000	-4.3815168264e-001
 3.7053730457e+000	 3.3172662896e+000	-4.4819890757e-001
 4.0691297963e+000	 2.9055425804e+000	-3.2741777500e-001
 4.0369945981e+000	 2.9500287685e+000	-3.3899857223e-001
 4.0043451789e+000	 2.9941969207e+000	-3.5003373570e-001
 3.9711862198e+000	 3.0380382034e+000	-3.6114720735e-001
 3.9375226023e+000	 3.0815438740e+000	-3.7331931769e-001
 3.9033594069e+000	 3.1247052869e+000	-3.8623990558e-001
 3.8687019096e+000	 3.1675138990e+000	-3.9948512327e-001
 3.8335555804e+000	 3.2099612749e+000	-4.1254310841e-001
 3.7979260797e+000	 3.2520390932e+000	-4.2482470992e-001
 3.7618192558e+000	 3.2937391508e+000	-4.3567609542e-001
 3.7252411416e+000	 3.3350533691e+000	-4.4439703787e-001
 3.5265525078e+000	 3.1571757036e+000	-5.0251865650e-001
 3.4914903382e+000	 3.1959078285e+000	-5.2133711879e-001
 3.4559940813e+000	 3.2342598873e+000	-5.3573788281e-001
 3.4200699536e+000	 3.2722246200e+000	-5.4303738841e-001
 3.3837243325e+000	 3.3097949028e+000	-5.4063635579e-001
 3.3469637528e+000	 3.3469637528e+000	-5.2644638835e-001
 3.3097949028e+000	 3.3837243325e+000	-5.0740877158e-001
 3.2722246200e+000	 3.4200699536e+000	-4.9937371683e-001
 3.2342598873e+000	 3.4559940813e+000	-4.9932641623e-001
 3.1959078285e+000	 3.4914903382e+000	-5.0244567137e-001
 3.1571757036e+000	 3.5265525078e+000	-5.0389338269e-001
 3.5464217214e+000	 3.1749637836e+000	-4.9599682345e-001
 3.5111620053e+000	 3.2139141321e+000	-5.1454133259e-001
 3.4754657564e+000	 3.2524822731e+000	-5.2917703171e-001
 3.4393392258e+000	 3.2906609057e+000	-5.3729236793e-001
 3.4027888272e+000	 3.3284428661e+000	-5.3635646543e-001
 3.3658211319e+000	 3.3658211319e+000	-5.2619387555e-001
 3.3284428661e+000	 3.4027888272e+000	-5.0847095238e-001
 3.2906609057e+000	 3.4393392258e+000	-4.9548516923e-001
 3.2524822731e+000	 3.4754657564e+000	-4.9202155653e-001
 3.2139141321e+000	 3.5111620053e+000	-4.9326936398e-001
 3.1749637836e+000	 3.5464217214e+000	-4.9440276520e-001
 3.5662909498e+000	 3.1927518770e+000	-4.8933936192e-001
 3.5308336872e+000	 3.2319204492e+000	-5.0730264931e-001
 3.4949374460e+000	 3.2707046726e+000	-5.2176121978e-001
 3.4586085125e+000	 3.3090972053e+000	-5.3019028928e-001
 3.4218533361e+000	 3.3470908433e+000	-5.3052667188e-001
 3.3846785252e+000	 3.3846785252e+000	-5.2475647159e-001
 3.3470908433e+000	 3.4218533361e+000	-5.1205798647e-001
 3.3090972053e+000	 3.4586085125e+000	-4.9516636350e-001
 3.2707046726e+000	 3.4949374460e+000	-4.8776135617e-001
 3.2319204492e+000	 3.5308336872e+000	-4.8664267628e-001
 3.1927518770e+000	 3.5662909498e+000	-4.8700739889e-001
 3.5861601584e+000	 3.2105399526e+000	-4.8265640096e-001
 3.5505053495e+000	 3.2499267483e+000	-4.9976142390e-001
 3.5144091162e+000	 3.2889270539e+000	-5.1365948231e-001
 3.4778777799e+000	 3.3275334865e+000	-5.2192705178e-001
 3.4409178260e+000	 3.3657388020e+000	-5.2428383296e-001
 3.4035358996e+000	 3.4035358996e+000	-5.2226014986e-001
 3.3657388020e+000	 3.4409178260e+000	-5.1405269384e-001
 3.3275334865e+000	 3.4778777799e+000	-4.9810347042e-001
 3.2889270539e+000	 3.5144091162e+000	-4.8624480697e-001
 3.2499267483e+000	 3.5505053495e+000	-4.8227243790e-001
 3.2105399526e+000	 3.5861601584e+000	-4.8141659115e-001
 3.6060293124e+000	 3.2283279793e+000	-4.7605893642e-001
 3.5701769576e+000	 3.2679329979e+000	-4.9205822213e-001
 3.5338807328e+000	 3.3071493850e+000	-5.0504050161e-001
 3.4971469943e+000	 3.3459697169e+000	-5.1299417667e-001
 3.4599822634e+000	 3.3843867093e+000	-5.1777725463e-001
 3.4223932221e+000	 3.4223932221e+000	-5.1882451873e-001
 3.3843867093e+000	 3.4599822634e+000	-5.1438846135e-001
 3.3459697169e+000	 3.4971469943e+000	-5.0277112783e-001
 3.3071493850e+000	 3.5338807328e+000	-4.8715959184e-001
 3.2679329979e+000	 3.5701769576e+000	-4.7985445932e-001
 3.2283279793e+000	 3.6060293124e+000	-4.7732887210e-001
 3.6258983769e+000	 3.2461159260e+000	-4.6965803220e-001
 3.5898484772e+000	 3.2859391665e+000	-4.8433304208e-001
 3.5533522618e+000	 3.3253716342e+000	-4.9607184832e-001
 3.5164161221e+000	 3.3644058644e+000	-5.0442482721e-001
 3.4790466151e+000	 3.4030345328e+000	-5.1110149394e-001
 3.4412504598e+000	 3.4412504598e+000	-5.1456316229e-001
 3.4030345328e+000	 3.4790466151e+000	-5.1319492455e-001
 3.3644058644e+000	 3.5164161221e+000	-5.0542841247e-001
 3.3253716342e+000	 3.5533522618e+000	-4.9018443374e-001
 3.2859391665e+000	 3.5898484772e+000	-4.7907590137e-001
 3.2461159260e+000	 3.6258983769e+000	-4.7443437969e-001
 3.6457673173e+000	 3.2639037614e+000	-4.6356402098e-001
 3.6095198739e+000	 3.3039452225e+000	-4.7672453432e-001
 3.5728236691e+000	 3.3435937694e+000	-4.8709474060e-001
 3.5356851293e+000	 3.3828418967e+000	-4.9635013397e-001
 3.4981108476e+000	 3.4216822397e+000	-5.0434571229e-001
 3.4601075796e+000	 3.4601075796e+000	-5.0958397815e-001
 3.4216822397e+000	 3.4981108476e+000	-5.1059579214e-001
 3.3828418967e+000	 3.5356851293e+000	-5.0595532517e-001
 3.3435937694e+000	 3.5728236691e+000	-4.9429465836e-001
 3.3039452225e+000	 3.6095198739e+000	-4.7961764081e-001
 3.2639037614e+000	 3.6457673173e+000	-4.7241724072e-001
 3.6656360987e+000	 3.2816914546e+000	-4.5788570451e-001
 3.6291911133e+000	 3.3219511345e+000	-4.6936922127e-001
 3.5922949207e+000	 3.3618157590e+000	-4.7904199130e-001
 3.5549539825e+000	 3.4012777815e+000	-4.8883309687e-001
 3.5171749276e+000	 3.4403297974e+000	-4.9759399452e-001
 3.4789645486e+000	 3.4789645486e+000	-5.0398951236e-001
 3.4403297974e+000	 3.5171749276e+000	-5.0670919474e-001
 3.4012777815e+000	 3.5549539825e+000	-5.0448245692e-001
 3.3618157590e+000	 3.5922949207e+000	-4.9609337978e-001
 3.3219511345e+000	 3.6291911133e+000	-4.8115663182e-001
 3.2816914546e+000	 3.6656360987e+000	-4.7095794776e-001
 3.6855046864e+000	 3.2994789744e+000	-4.5272955356e-001
 3.6488621608e+000	 3.3399568709e+000	-4.6246532853e-001
 3.6117659824e+000	 3.3800375708e+000	-4.7205705465e-001
 3.5742226478e+000	 3.4197134865e+000	-4.8193225829e-001
 3.5362388218e+000	 3.4589771734e+000	-4.9092566551e-001
 3.4978213337e+000	 3.4978213337e+000	-4.9787729151e-001
 3.4589771734e+000	 3.5362388218e+000	-5.0164803065e-001
 3.4197134865e+000	 3.5742226478e+000	-5.0113500366e-001
 3.3800375708e+000	 3.6117659824e+000	-4.9528653743e-001
 3.3399568709e+000	 3.6488621608e+000	-4.8311665663e-001
 3.2994789744e+000	 3.6855046864e+000	-4.6973573218e-001
 3.7053730457e+000	 3.3172662896e+000	-4.4819890757e-001
 3.6685329821e+000	 3.3579624003e+000	-4.5679744385e-001
 3.6312368202e+000	 3.3982591731e+000	-4.6617152684e-001
 3.5934910915e+000	 3.4381489796e+000	-4.7570200058e-001
 3.5553024967e+000	 3.4776243349e+000	-4.8441560457e-001
 3.5166779020e+000	 3.5166779020e+000	-4.9134015225e-001
 3.4776243349e+000	 3.5553024967e+000	-4.9552030850e-001
 3.4381489796e+000	 3.5934910915e+000	-4.9603312024e-001
 3.3982591731e+000	 3.6312368202e+000	-4.9200317197e-001
 3.3579624003e+000	 3.6685329821e+000	-4.8261724215e-001
 3.3172662896e+000	 3.7053730457e+000	-4.6843093297e-001
 3.7252411416e+000	 3.3350533691e+000	-4.4439703787e-001
 3.6882035428e+000	 3.3759676911e+000	-4.5256507240e-001
 3.6507074000e+000	 3.4164805340e+000	-4.6141344483e-001
 3.6127592798e+000	 3.4565842284e+000	-4.7019284164e-001
 3.5743659190e+000	 3.4962712493e+000	-4.7813455746e-001
 3.5355342204e+000	 3.5355342204e+000	-4.8446656810e-001
 3.4962712493e+000	 3.5743659190e+000	-4.8842948713e-001
 3.4565842284e+000	 3.6127592798e+000	-4.8929227126e-001
 3.4164805340e+000	 3.6507074000e+000	-4.8636754298e-001
 3.3759676911e+000	 3.6882035428e+000	-4.7902640286e-001
 3.3350533691e+000	 3.7252411416e+000	-4.6671260869e-001
 3.1571757036e+000	 3.5265525078e+000	-5.0389338269e-001
 3.1180650113e+000	 3.5611796998e+000	-5.0430150573e-001
 3.0785890587e+000	 3.5953607382e+000	-5.0681800606e-001
 3.0387554936e+000	 3.6290899118e+000	-5.1044865373e-001
 2.9985720814e+000	 3.6623616842e+000	-5.1429614255e-001
 2.9580467000e+000	 3.6951706969e+000	-5.1760795243e-001
 2.9171873346e+000	 3.7275117717e+000	-5.1981984388e-001
 2.8760020728e+000	 3.7593799139e+000	-5.2059468719e-001
 2.8344990990e+000	 3.7907703142e+000	-5.1985637599e-001
 2.7926866895e+000	 3.8216783512e+000	-5.1781862397e-001
 2.7505732069e+000	 3.8520995936e+000	-5.1500849284e-001
 3.1749637836e+000	 3.5464217214e+000	-4.9440276520e-001
 3.1356327349e+000	 3.5812440090e+000	-4.9538010818e-001
 3.0959343678e+000	 3.6156176293e+000	-4.9858883564e-001
 3.0558763735e+000	 3.6495368390e+000	-5.0292938155e-001
 3.0154665609e+000	 3.6829960704e+000	-5.0741372842e-001
 2.9747128524e+000	 3.7159899348e+000	-5.1121495893e-001
 2.9336232782e+000	 3.7485132249e+000	-5.1371222701e-001
 2.8922059714e+000	 3.7805609178e+000	-5.1453084167e-001
 2.8504691626e+000	 3.8121281771e+000	-5.1357720607e-001
 2.8084211747e+000	 3.8432103554e+000	-5.1106840493e-001
 2.7660704174e+000	 3.8738029964e+000	-5.0755628533e-001
 3.1927518770e+000	 3.5662909498e+000	-4.8700739889e-001
 3.1532004716e+000	 3.6013083333e+000	-4.8817382963e-001
 3.1132796900e+000	 3.6358745357e+000	-4.9178179217e-001
 3.0729972662e+000	 3.6699837815e+000	-4.9660699530e-001
 3.0323610531e+000	 3.7036304721e+000	-5.0155273072e-001
 2.9913790173e+000	 3.7368091883e+000	-5.0570118952e-001
 2.9500592341e+000	 3.7695146939e+000	-5.0835997652e-001
 2.9084098822e+000	 3.8017419376e+000	-5.0910350582e-001
 2.8664392382e+000	 3.8334860560e+000	-5.0780901286e-001
 2.8241556717e+000	 3.8647423757e+000	-5.0468697037e-001
 2.7815676394e+000	 3.8955064154e+000	-5.0030574981e-001
 3.2105399526e+000	 3.5861601584e+000	-4.8141659115e-001
 3.1707681908e+000	 3.6213726375e+000	-4.8239395653e-001
 3.1306249948e+000	 3.6561314218e+000	-4.8611488702e-001
 3.0901181418e+000	 3.6904307036e+000	-4.9121121635e-001
 3.0492555284e+000	 3.7242648531e+000	-4.9645982947e-001
 3.0080451656e+000	 3.7576284210e+000	-5.0083582042e-001
 2.9664951736e+000	 3.7905161418e+000	-5.0356061671e-001
 2.9246137768e+000	 3.8229229361e+000	-5.0414474418e-001
 2.8824092978e+000	 3.8548439135e+000	-5.0242495953e-001
 2.8398901530e+000	 3.8862743745e+000	-4.9859553245e-001
 2.7970648460e+000	 3.9172098127e+000	-4.9323351514e-001
 3.2283279793e+000	 3.6060293124e+000	-4.7732887210e-001
 3.1883358617e+000	 3.6414368865e+000	-4.7774107822e-001
 3.1479702519e+000	 3.6763882522e+000	-4.8129523176e-001
 3.1072389703e+000	 3.7108775695e+000	-4.8646037111e-001
 3.0661499572e+000	 3.7448991774e+000	-4.9186951367e-001
 3.0247112680e+000	 3.7784475965e+000	-4.9637473197e-001
 2.9829310679e+000	 3.8115175320e+000	-4.9909695575e-001
 2.9408176268e+000	 3.8441038765e+000	-4.9947016371e-001
 2.8983793136e+000	 3.8762017123e+000	-4.9727968414e-001
 2.8556245910e+000	 3.9078063141e+000	-4.9269438070e-001
 2.8125620100e+000	 3.9389131504e+000	-4.8629255724e-001
 3.2461159260e+000	 3.6258983769e+000	-4.7443437969e-001
 3.2059034535e+000	 3.6615010452e+000	-4.7390748564e-001
 3.1653154310e+000	 3.6966449914e+000	-4.7702145159e-001
 3.1243597218e+000	 3.7313243434e+000	-4.8206382066e-001
 3.0830443100e+000	 3.7655334089e+000	-4.8750652844e-001
 3.0413772954e+000	 3.7992666783e+000	-4.9206297518e-001
 2.9993668883e+000	 3.8325188277e+000	-4.9473957344e-001
 2.9570214039e+000	 3.8652847215e+000	-4.9488142470e-001
 2.9143492574e+000	 3.8975594150e+000	-4.9221183591e-001
 2.8713589582e+000	 3.9293381567e+000	-4.8686544609e-001
 2.8280591043e+000	 3.9606163904e+000	-4.7941479336e-001
 3.2639037614e+000	 3.6457673173e+000	-4.7241724072e-001
 3.2234709355e+000	 3.6815650786e+000	-4.7057956582e-001
 3.1826605016e+000	 3.7169016041e+000	-4.7298609440e-001
 3.1414803662e+000	 3.7517709895e+000	-4.7772438555e-001
 3.0999385572e+000	 3.7861675114e+000	-4.8308831713e-001
 3.0580432187e+000	 3.8200856300e+000	-4.8763723250e-001
 3.0158026059e+000	 3.8535199921e+000	-4.9024930232e-001
 2.9732250798e+000	 3.8864654342e+000	-4.9016874422e-001
 2.9303191015e+000	 3.9189169843e+000	-4.8704660299e-001
 2.8870932270e+000	 3.9508698649e+000	-4.8097485530e-001
 2.8435561017e+000	 3.9823194948e+000	-4.7251366527e-001
 3.2816914546e+000	 3.6656360987e+000	-4.7095794776e-001
 3.2410382770e+000	 3.7016289514e+000	-4.6744019224e-001
 3.2000054335e+000	 3.7371580547e+000	-4.6887803555e-001
 3.1586008738e+000	 3.7722174720e+000	-4.7314076605e-001
 3.1168326693e+000	 3.8068014488e+000	-4.7832745816e-001
 3.0747090086e+000	 3.8409044151e+000	-4.8282827285e-001
 3.0322381921e+000	 3.8745209886e+000	-4.8537970248e-001
 2.9894286260e+000	 3.9076459774e+000	-4.8511339228e-001
 2.9462888178e+000	 3.9402743827e+000	-4.8159823194e-001
 2.9028273700e+000	 3.9724014008e+000	-4.7487547550e-001
 2.8590529751e+000	 4.0040224255e+000	-4.6549711158e-001
 3.2994789744e+000	 3.6855046864e+000	-4.6973573218e-001
 3.2586054472e+000	 3.7216926286e+000	-4.6417111109e-001
 3.2173501963e+000	 3.7574143078e+000	-4.6438487822e-001
 3.1757212144e+000	 3.7926637552e+000	-4.6800995767e-001
 3.1337266166e+000	 3.8274351851e+000	-4.7293409696e-001
 3.0913746361e+000	 3.8617229972e+000	-4.7736340103e-001
 3.0486736180e+000	 3.8955217803e+000	-4.7987952995e-001
 3.0056320142e+000	 3.9288263141e+000	-4.7949018084e-001
 2.9622583784e+000	 3.9616315728e+000	-4.7567253905e-001
 2.9185613596e+000	 3.9939327267e+000	-4.6840944995e-001
 2.8745496975e+000	 4.0257251447e+000	-4.5858769606e-001
 3.3172662896e+000	 3.7053730457e+000	-4.6843093297e-001
 3.2761724154e+000	 3.7417560751e+000	-4.6045532341e-001
 3.2346947597e+000	 3.7776703279e+000	-4.5919534953e-001
 3.1928413581e+000	 3.8131098033e+000	-4.6202966216e-001
 3.1506203697e+000	 3.8480686841e+000	-4.6661837270e-001
 3.1080400719e+000	 3.8825413400e+000	-4.7096890159e-001
 3.0651088549e+000	 3.9165223304e+000	-4.7349519885e-001
 3.0218352162e+000	 3.9500064073e+000	-4.7306994577e-001
 2.9782277553e+000	 3.9829885173e+000	-4.6906941365e-001
 2.9342951683e+000	 4.0154638050e+000	-4.6154677769e-001
 2.8900462416e+000	 4.0474276143e+000	-4.5166791155e-001
 3.3350533691e+000	 3.7252411416e+000	-4.6671260869e-001
 3.2937391508e+000	 3.7618192558e+000	-4.5597946308e-001
 3.2520390932e+000	 3.7979260797e+000	-4.5300169234e-001
 3.2099612749e+000	 3.8335555804e+000	-4.5490069377e-001
 3.1675138990e+000	 3.8687019096e+000	-4.5909284014e-001
 3.1247052869e+000	 3.9033594069e+000	-4.6337247712e-001
 3.0815438740e+000	 3.9375226023e+000	-4.6597323743e-001
 3.0380382034e+000	 3.9711862198e+000	-4.6562202181e-001
 2.9941969207e+000	 4.0043451789e+000	-4.6159596930e-001
 2.9500287685e+000	 4.0369945981e+000	-4.5440207169e-001
 2.9055425804e+000	 4.0691297963e+000	-4.4443060020e-001
 2.7505732069e+000	 3.8520995936e+000	-5.1500849284e-001
 2.7081670937e+000	 3.8820298008e+000	-5.0897913136e-001
 2.6654768645e+000	 3.9114649214e+000	-4.9657517346e-001
 2.6225111028e+000	 3.9404010980e+000	-4.7851468604e-001
 2.5792784569e+000	 3.9688346697e+000	-4.5654391783e-001
 2.5357876342e+000	 3.9967621731e+000	-4.3235372564e-001
 2.4920473954e+000	 4.0241803434e+000	-4.0819920841e-001
 2.4480665494e+000	 4.0510861151e+000	-3.8590819072e-001
 2.4038539472e+000	 4.0774766229e+000	-3.6613959418e-001
 2.3594184767e+000	 4.1033492018e+000	-3.4940815934e-001
 2.3147690567e+000	 4.1287013875e+000	-3.3610074561e-001
 2.7660704174e+000	 3.8738029964e+000	-5.0755628533e-001
 2.7234253807e+000	 3.9039018356e+000	-5.0097689903e-001
 2.6804946273e+000	 3.9335027988e+000	-4.8853328954e-001
 2.6372867889e+000	 3.9626020069e+000	-4.7063199223e-001
 2.5938105628e+000	 3.9911957783e+000	-4.4931436288e-001
 2.5500747052e+000	 4.0192806301e+000	-4.2663444413e-001
 2.5060880263e+000	 4.0468532792e+000	-4.0468399147e-001
 2.4618593845e+000	 4.0739106427e+000	-3.8419433205e-001
 2.4173976808e+000	 4.1004498393e+000	-3.6569468932e-001
 2.3727118530e+000	 4.1264681888e+000	-3.4958849569e-001
 2.3278108704e+000	 4.1519632131e+000	-3.3616067548e-001
 2.7815676394e+000	 3.8955064154e+000	-5.0030574981e-001
 2.7386836792e+000	 3.9257738867e+000	-4.9301470751e-001
 2.6955124013e+000	 3.9555406927e+000	-4.8044109226e-001
 2.6520624862e+000	 3.9848029324e+000	-4.6280567879e-001
 2.6083426796e+000	 4.0135569037e+000	-4.4235573546e-001
 2.5643617869e+000	 4.0417991041e+000	-4.2167068398e-001
 2.5201286676e+000	 4.0695262320e+000	-4.0164959301e-001
 2.4756522299e+000	 4.0967351875e+000	-3.8285204098e-001
 2.4309414244e+000	 4.1234230729e+000	-3.6571144115e-001
 2.3860052393e+000	 4.1495871931e+000	-3.5054239361e-001
 2.3408526939e+000	 4.1752250562e+000	-3.3754822888e-001
 2.7970648460e+000	 3.9172098127e+000	-4.9323351514e-001
 2.7539419624e+000	 3.9476459161e+000	-4.8511734744e-001
 2.7105301604e+000	 3.9775785646e+000	-4.7234875253e-001
 2.6668381687e+000	 4.0070038358e+000	-4.5520078372e-001
 2.6228747818e+000	 4.0359180067e+000	-4.3607920827e-001
 2.5786488543e+000	 4.0643175555e+000	-4.1699756331e-001
 2.5341692950e+000	 4.0921991621e+000	-3.9856801640e-001
 2.4894450615e+000	 4.1195597094e+000	-3.8127381408e-001
 2.4444851546e+000	 4.1463962835e+000	-3.6547666986e-001
 2.3992986122e+000	 4.1727061744e+000	-3.5142437017e-001
 2.3538945043e+000	 4.1984868760e+000	-3.3925856227e-001
 2.8125620100e+000	 3.9389131504e+000	-4.8629255724e-001
 2.7692002036e+000	 3.9695178853e+000	-4.7728322348e-001
 2.7255478781e+000	 3.9996163759e+000	-4.6427804813e-001
 2.6816138106e+000	 4.0292046781e+000	-4.4816359523e-001
 2.6374068441e+000	 4.0582790482e+000	-4.3013798948e-001
 2.5929358824e+000	 4.0868359450e+000	-4.1217097233e-001
 2.5482098837e+000	 4.1148720299e+000	-3.9494239746e-001
 2.5032378552e+000	 4.1423841686e+000	-3.7888486193e-001
 2.4580288475e+000	 4.1693694310e+000	-3.6431201542e-001
 2.4125919487e+000	 4.1958250920e+000	-3.5142640026e-001
 2.3669362788e+000	 4.2217486319e+000	-3.4032746807e-001
 2.8280591043e+000	 3.9606163904e+000	-4.7941479336e-001
 2.7844583762e+000	 3.9913897560e+000	-4.6948697247e-001
 2.7405655283e+000	 4.0216540881e+000	-4.5651085249e-001
 2.6963893859e+000	 4.0514054205e+000	-4.4137232700e-001
 2.6519388410e+000	 4.0806399892e+000	-4.2414559746e-001
 2.6072228463e+000	 4.1093542332e+000	-4.0677689896e-001
 2.5622504092e+000	 4.1375447957e+000	-3.9030701446e-001
 2.5170305868e+000	 4.1652085251e+000	-3.7514308344e-001
 2.4715724794e+000	 4.1923424751e+000	-3.6157386170e-001
 2.4258852253e+000	 4.2189439057e+000	-3.4977777611e-001
 2.3799779947e+000	 4.2450102831e+000	-3.3983115454e-001
 2.8435561017e+000	 3.9823194948e+000	-4.7251366527e-001
 2.7997164535e+000	 4.0132614901e+000	-4.6179346854e-001
 2.7555830846e+000	 4.0436916625e+000	-4.4909668013e-001
 2.7111648690e+000	 4.0736060241e+000	-4.3444078930e-001
 2.6664707471e+000	 4.1030007903e+000	-4.1774511962e-001
 2.6215097208e+000	 4.1318723806e+000	-4.0043144550e-001
 2.5762908470e+000	 4.1602174198e+000	-3.8422728398e-001
 2.5308232322e+000	 4.1880327389e+000	-3.6953902737e-001
 2.4851160267e+000	 4.2153153756e+000	-3.5665324991e-001
 2.4391784189e+000	 4.2420625748e+000	-3.4574495823e-001
 2.3930196291e+000	 4.2682717890e+000	-3.3688601991e-001
 2.8590529751e+000	 4.0040224255e+000	-4.6549711158e-001
 2.8149744086e+000	 4.0351330492e+000	-4.5446043591e-001
 2.7706005208e+000	 4.0657290606e+000	-4.4168328036e-001
 2.7259402338e+000	 4.0958064502e+000	-4.2702496208e-001
 2.6810025370e+000	 4.1253614126e+000	-4.1047319362e-001
 2.6357964811e+000	 4.1543903479e+000	-3.9278083060e-001
 2.5903311725e+000	 4.1828898625e+000	-3.7629974315e-001
 2.5446157673e+000	 4.2108567701e+000	-3.6159584162e-001
 2.4986594657e+000	 4.2382880923e+000	-3.4897578131e-001
 2.4524715061e+000	 4.2651810590e+000	-3.3863141807e-001
 2.4060611591e+000	 4.2915331087e+000	-3.3064842101e-001
 2.8745496975e+000	 4.0257251447e+000	-4.5858769606e-001
 2.8302322150e+000	 4.0570043951e+000	-4.4720293497e-001
 2.7856178106e+000	 4.0877662438e+000	-4.3395953938e-001
 2.7407154546e+000	 4.1180066598e+000	-4.1882192443e-001
 2.6955341851e+000	 4.1477218169e+000	-4.0187716209e-001
 2.6500831021e+000	 4.1769080956e+000	-3.8350137728e-001
 2.6043713611e+000	 4.2055620842e+000	-3.6615201868e-001
 2.5584081679e+000	 4.2336805788e+000	-3.5086921048e-001
 2.5122027726e+000	 4.2612605851e+000	-3.3800150986e-001
 2.4657644637e+000	 4.2882993178e+000	-3.2777747267e-001
 2.4191025620e+000	 4.3147942016e+000	-3.2031443648e-001
 2.8900462416e+000	 4.0474276143e+000	-4.5166791155e-001
 2.8454898460e+000	 4.0788754894e+000	-4.3972153129e-001
 2.8006349276e+000	 4.1098031737e+000	-4.2565447543e-001
 2.7554905054e+000	 4.1402066141e+000	-4.0956876981e-001
 2.7100656662e+000	 4.1700819640e+000	-3.9168124562e-001
 2.6643695588e+000	 4.1994255844e+000	-3.7229948748e-001
 2.6184113882e+000	 4.2282340451e+000	-3.5344278317e-001
 2.5722004099e+000	 4.2565041250e+000	-3.3694728050e-001
 2.5257459238e+000	 4.2842328136e+000	-3.2322482497e-001
 2.4790572684e+000	 4.3114173107e+000	-3.1256011159e-001
 2.4321438149e+000	 4.3380550271e+000	-3.0511962477e-001
 2.9055425804e+000	 4.0691297963e+000	-4.4443060020e-001
 2.8607472748e+000	 4.1007462939e+000	-4.3175634735e-001
 2.8156518457e+000	 4.1318398115e+000	-4.1653611159e-001
 2.7702653605e+000	 4.1624062742e+000	-3.9904150768e-001
 2.7245969547e+000	 4.1924418148e+000	-3.7964899683e-001
 2.6786558262e+000	 4.2219427749e+000	-3.5881122640e-001
 2.6324512293e+000	 4.2509057056e+000	-3.3786169918e-001
 2.5859924692e+000	 4.2793273689e+000	-3.1945057520e-001
 2.5392888956e+000	 4.3072047378e+000	-3.0417432476e-001
 2.4923498970e+000	 4.3345349974e+000	-2.9239281629e-001
 2.4451848950e+000	 4.3613155443e+000	-2.8433877712e-001
 2.3147690567e+000	 4.1287013875e+000	-3.3610074561e-001
 2.2699213753e+000	 4.1535272320e+000	-3.2538749519e-001
 2.2248777138e+000	 4.1778285178e+000	-3.1643903546e-001
 2.1796470501e+000	 4.2016033865e+000	-3.0949589934e-001
 2.1342383709e+000	 4.2248501796e+000	-3.0472330770e-001
 2.0886606667e+000	 4.2475674374e+000	-3.0221803116e-001
 2.0429229261e+000	 4.2697538987e+000	-3.0201519363e-001
 1.9970341310e+000	 4.2914084996e+000	-3.0406706513e-001
 1.9510032508e+000	 4.3125303724e+000	-3.0136374906e-001
 1.9048392375e+000	 4.3331188442e+000	-2.9036657602e-001
 1.8585510208e+000	 4.3531734355e+000	-2.7345526975e-001
 2.3278108704e+000	 4.1519632131e+000	-3.3616067548e-001
 2.2827105093e+000	 4.1769289308e+000	-3.2461253492e-001
 2.2374130640e+000	 4.2013671343e+000	-3.1425194864e-001
 2.1919275628e+000	 4.2252759548e+000	-3.0537978308e-001
 2.1462630431e+000	 4.2486537243e+000	-2.9821598982e-001
 2.1004285461e+000	 4.2714989751e+000	-2.9290659882e-001
 2.0544331112e+000	 4.2938104388e+000	-2.8953065632e-001
 2.0082857706e+000	 4.3155870456e+000	-2.8810706895e-001
 1.9619955443e+000	 4.3368279227e+000	-2.8478581878e-001
 1.9155714349e+000	 4.3575323935e+000	-2.7364779989e-001
 1.8690224222e+000	 4.3776999759e+000	-2.5683072099e-001
 2.3408526939e+000	 4.1752250562e+000	-3.3754822888e-001
 2.2954996529e+000	 4.2003306471e+000	-3.2589591323e-001
 2.2499484235e+000	 4.2249057684e+000	-3.1492364724e-001
 2.2042080846e+000	 4.2489485408e+000	-3.0495137324e-001
 2.1582877244e+000	 4.2724572869e+000	-2.9621580091e-001
 2.1121964344e+000	 4.2954305308e+000	-2.8887756230e-001
 2.0659433048e+000	 4.3178669970e+000	-2.8302830809e-001
 2.0195374185e+000	 4.3397656097e+000	-2.7869770539e-001
 1.9729878461e+000	 4.3611254912e+000	-2.7412729125e-001
 1.9263036403e+000	 4.3819459612e+000	-2.6265344781e-001
 1.8794938316e+000	 4.4022265347e+000	-2.4555588213e-001
 2.3538945043e+000	 4.1984868760e+000	-3.3925856227e-001
 2.3082887837e+000	 4.2237323400e+000	-3.2807594744e-001
 2.2624837705e+000	 4.2484443790e+000	-3.1716829887e-001
 2.2164885942e+000	 4.2726211032e+000	-3.0683390269e-001
 2.1703123936e+000	 4.2962608257e+000	-2.9728874606e-001
 2.1239643109e+000	 4.3193620626e+000	-2.8867386426e-001
 2.0774534870e+000	 4.3419235312e+000	-2.8106261952e-001
 2.0307890552e+000	 4.3639441496e+000	-2.7446787027e-001
 1.9839801368e+000	 4.3854230354e+000	-2.6830337767e-001
 1.9370358350e+000	 4.4063595044e+000	-2.5645303417e-001
 1.8899652304e+000	 4.4267530690e+000	-2.3889070753e-001
 2.3669362788e+000	 4.2217486319e+000	-3.4032746807e-001
 2.3210778793e+000	 4.2471339687e+000	-3.3003465520e-001
 2.2750190830e+000	 4.2719829249e+000	-3.1974605466e-001
 2.2287690700e+000	 4.2962936004e+000	-3.0969807598e-001
 2.1823370297e+000	 4.3200642991e+000	-3.0004898195e-001
 2.1357321551e+000	 4.3432935286e+000	-2.9088645829e-001
 2.0889636375e+000	 4.3659799992e+000	-2.8223509928e-001
 2.0420406610e+000	 4.3881226230e+000	-2.7406376658e-001
 1.9949723973e+000	 4.4097205128e+000	-2.6624491116e-001
 1.9477680002e+000	 4.4307729805e+000	-2.5412717301e-001
 1.9004366005e+000	 4.4512795359e+000	-2.3610085028e-001
 2.3799779947e+000	 4.2450102831e+000	-3.3983115454e-001
 2.3338669174e+000	 4.2705354920e+000	-3.3069745763e-001
 2.2875543391e+000	 4.2955213649e+000	-3.2146269700e-001
 2.2410494906e+000	 4.3199659911e+000	-3.1226168306e-001
 2.1943616118e+000	 4.3438676654e+000	-3.0315841832e-001
 2.1474999463e+000	 4.3672248869e+000	-2.9415392015e-001
 2.1004737362e+000	 4.3900363589e+000	-2.8519393755e-001
 2.0532922162e+000	 4.4123009877e+000	-2.7617651794e-001
 2.0059646084e+000	 4.4340178809e+000	-2.6695938143e-001
 1.9585001171e+000	 4.4551863468e+000	-2.5476896646e-001
 1.9109079234e+000	 4.4758058924e+000	-2.3645911723e-001
 2.3930196291e+000	 4.2682717890e+000	-3.3688601991e-001
 2.3466558755e+000	 4.2939368690e+000	-3.2903287959e-001
 2.3000895169e+000	 4.3190596578e+000	-3.2116928628e-001
 2.2533298344e+000	 4.3436382339e+000	-3.1328921340e-001
 2.2063861187e+000	 4.3676708828e+000	-3.0532632060e-001
 2.1592676640e+000	 4.3911560956e+000	-2.9716206024e-001
 2.1119837630e+000	 4.4140925684e+000	-2.8863364997e-001
 2.0645437010e+000	 4.4364792012e+000	-2.7954186574e-001
 2.0169567508e+000	 4.4583150972e+000	-2.6965861170e-001
 1.9692321670e+000	 4.4795995605e+000	-2.5748538795e-001
 1.9213791809e+000	 4.5003320956e+000	-2.3924691524e-001
 2.4060611591e+000	 4.2915331087e+000	-3.3064842101e-001
 2.3594447314e+000	 4.3173380589e+000	-3.2405224698e-001
 2.3126245944e+000	 4.3425977623e+000	-3.1776180688e-001
 2.2656100800e+000	 4.3673102874e+000	-3.1159147072e-001
 2.2184105294e+000	 4.3914739099e+000	-3.0530891374e-001
 2.1710352875e+000	 4.4150871129e+000	-2.9864353729e-001
 2.1234936977e+000	 4.4381485853e+000	-2.9129472192e-001
 2.0757950959e+000	 4.4606572214e+000	-2.8293986535e-001
 2.0279488052e+000	 4.4826121190e+000	-2.7324216046e-001
 1.9799641309e+000	 4.5040125789e+000	-2.6139866047e-001
 1.9318503547e+000	 4.5248581026e+000	-2.4375568897e-001
 2.4191025620e+000	 4.3147942016e+000	-3.2031443648e-001
 2.3722334625e+000	 4.3407390206e+000	-3.1480938129e-001
 2.3251595497e+000	 4.3661356374e+000	-3.1018081214e-001
 2.2778902058e+000	 4.3909821100e+000	-3.0602518800e-001
 2.2304348228e+000	 4.4152767049e+000	-3.0190898706e-001
 2.1828027963e+000	 4.4390178969e+000	-2.9737747299e-001
 2.1350035202e+000	 4.4622043678e+000	-2.9196325337e-001
 2.0870463810e+000	 4.4848350058e+000	-2.8519458143e-001
 2.0389407525e+000	 4.5069089040e+000	-2.7660335503e-001
 1.9906959903e+000	 4.5284253593e+000	-2.6564762986e-001
 1.9423214263e+000	 4.5493838705e+000	-2.4928835041e-001
 2.4321438149e+000	 4.3380550271e+000	-3.0511962477e-001
 2.3850220466e+000	 4.3641397131e+000	-3.0040029131e-001
 2.3376943608e+000	 4.3896732418e+000	-2.9741106853e-001
 2.2901701905e+000	 4.4146536604e+000	-2.9549264290e-001
 2.2424589780e+000	 4.4390792262e+000	-2.9397550011e-001
 2.1945701698e+000	 4.4629484056e+000	-2.9218906774e-001
 2.1465132103e+000	 4.4862598736e+000	-2.8947060395e-001
 2.0982975368e+000	 4.5090125121e+000	-2.8517378224e-001
 2.0499325734e+000	 4.5312054096e+000	-2.7867692439e-001
 2.0014277262e+000	 4.5528378589e+000	-2.6939083721e-001
 1.9527923776e+000	 4.5739093563e+000	-2.5516070040e-001
 2.4451848950e+000	 4.3613155443e+000	-2.8433877712e-001
 2.3978104613e+000	 4.3875400957e+000	-2.7996286226e-001
 2.3502290059e+000	 4.4132105343e+000	-2.7848119889e-001
 2.3024500124e+000	 4.4383248971e+000	-2.7894127350e-001
 2.2544829739e+000	 4.4628814320e+000	-2.8040318947e-001
 2.2063373874e+000	 4.4868785973e+000	-2.8194921717e-001
 2.1580227479e+000	 4.5103150606e+000	-2.8269303838e-001
 2.1095485434e+000	 4.5331896981e+000	-2.8178863312e-001
 2.0609242486e+000	 4.5555015932e+000	-2.7843876002e-001
 2.0121593200e+000	 4.5772500350e+000	-2.7190298447e-001
 1.9632631901e+000	 4.5984345172e+000	-2.6070284218e-001
 1.8585510208e+000	 4.3531734355e+000	-2.7345526975e-001
 1.8121405334e+000	 4.3726967475e+000	-2.5317270913e-001
 1.7656235858e+000	 4.3916856366e+000	-2.3139858364e-001
 1.7190090161e+000	 4.4101401969e+000	-2.0902166107e-001
 1.6723056206e+000	 4.4280607082e+000	-1.8669189961e-001
 1.6255221485e+000	 4.4454476346e+000	-1.6485257074e-001
 1.5786672978e+000	 4.4623016217e+000	-1.4376988277e-001
 1.5317497104e+000	 4.4786234942e+000	-1.2356018999e-001
 1.4847779682e+000	 4.4944142536e+000	-1.0421488029e-001
 1.4377605886e+000	 4.5096750751e+000	-8.5623039896e-002
 1.3907060206e+000	 4.5244073051e+000	-6.7591999002e-002
 1.8690224222e+000	 4.3776999759e+000	-2.5683072099e-001
 1.8223504501e+000	 4.3973332856e+000	-2.3700081278e-001
 1.7755714178e+000	 4.4164291615e+000	-2.1611554560e-001
 1.7286942135e+000	 4.4349876980e+000	-1.9495986427e-001
 1.6817276829e+000	 4.4530091766e+000	-1.7409339772e-001
 1.6346806246e+000	 4.4704940640e+000	-1.5388265044e-001
 1.5875617854e+000	 4.4874430094e+000	-1.3453061620e-001
 1.5403798561e+000	 4.5038568422e+000	-1.1610390647e-001
 1.4931434669e+000	 4.5197365695e+000	-9.8557493758e-002
 1.4458611832e+000	 4.5350833731e+000	-8.1757175853e-002
 1.3985415015e+000	 4.5498986071e+000	-6.5499871621e-002
 1.8794938316e+000	 4.4022265347e+000	-2.4555588213e-001
 1.8325603744e+000	 4.4219698423e+000	-2.2567664332e-001
 1.7855192573e+000	 4.4411727050e+000	-2.0514124309e-001
 1.7383794182e+000	 4.4598352177e+000	-1.8466698993e-001
 1.6911497523e+000	 4.4779576637e+000	-1.6475523072e-001
 1.6438391075e+000	 4.4955405122e+000	-1.4572360010e-001
 1.5964562797e+000	 4.5125844159e+000	-1.2773562037e-001
 1.5490100083e+000	 4.5290902091e+000	-1.1082775201e-001
 1.5015089719e+000	 4.5450589044e+000	-9.4934002345e-002
 1.4539617839e+000	 4.5604916902e+000	-7.9908205805e-002
 1.4063769883e+000	 4.5753899282e+000	-6.5544093424e-002
 1.8899652304e+000	 4.4267530690e+000	-2.3889070753e-001
 1.8427702886e+000	 4.4466063743e+000	-2.1864267045e-001
 1.7954670869e+000	 4.4659162237e+000	-1.9804811625e-001
 1.7480646132e+000	 4.4846827126e+000	-1.7779263453e-001
 1.7005718123e+000	 4.5029061259e+000	-1.5835112295e-001
 1.6529975813e+000	 4.5205869353e+000	-1.4002008207e-001
 1.6053507651e+000	 4.5377257974e+000	-1.2294719585e-001
 1.5576401519e+000	 4.5543235508e+000	-1.0715830527e-001
 1.5098744685e+000	 4.5703812139e+000	-9.2581890231e-002
 1.4620623764e+000	 4.5858999819e+000	-7.9071180516e-002
 1.4142124673e+000	 4.6008812238e+000	-6.6424020738e-002
 1.9004366005e+000	 4.4512795359e+000	-2.3610085028e-001
 1.8529801746e+000	 4.4712428386e+000	-2.1534176508e-001
 1.8054148891e+000	 4.4906596744e+000	-1.9440480772e-001
 1.7577497816e+000	 4.5095301392e+000	-1.7397951506e-001
 1.7099938463e+000	 4.5278545195e+000	-1.5454597060e-001
 1.6621560298e+000	 4.5456332896e+000	-1.3640713088e-001
 1.6142452261e+000	 4.5628671097e+000	-1.1971837903e-001
 1.5662702718e+000	 4.5795568231e+000	-1.0451442080e-001
 1.5182399422e+000	 4.5957034539e+000	-9.0733645785e-002
 1.4701629467e+000	 4.6113082037e+000	-7.8240082084e-002
 1.4220479247e+000	 4.6263724493e+000	-6.6843076511e-002
 1.9109079234e+000	 4.4758058924e+000	-2.3645911723e-001
 1.8631900147e+000	 4.4958791920e+000	-2.1521871691e-001
 1.8153626466e+000	 4.5154030137e+000	-1.9377771167e-001
 1.7674349064e+000	 4.5343774540e+000	-1.7286501823e-001
 1.7194158380e+000	 4.5528028008e+000	-1.5299735996e-001
 1.6713144372e+000	 4.5706795311e+000	-1.3451160905e-001
 1.6231396470e+000	 4.5880083088e+000	-1.1759430394e-001
 1.5749003528e+000	 4.6047899819e+000	-1.0230846528e-001
 1.5266053782e+000	 4.6210255799e+000	-8.8617840699e-002
 1.4782634806e+000	 4.6367163112e+000	-7.6408714373e-002
 1.4298833469e+000	 4.6518635601e+000	-6.5509420502e-002
 1.9213791809e+000	 4.5003320956e+000	-2.3924691524e-001
 1.8733997910e+000	 4.5205153914e+000	-2.1772173969e-001
 1.8253103419e+000	 4.5401461984e+000	-1.9573250810e-001
 1.7771199706e+000	 4.5592246135e+000	-1.7408273368e-001
 1.7288377708e+000	 4.5777509262e+000	-1.5335706908e-001
 1.6804727874e+000	 4.5957256162e+000	-1.3395364682e-001
 1.6320340123e+000	 4.6131493509e+000	-1.1611354964e-001
 1.5835303799e+000	 4.6300229829e+000	-9.9947542013e-002
 1.5349707619e+000	 4.6463475476e+000	-8.5460201036e-002
 1.4863639638e+000	 4.6621242599e+000	-7.2571590080e-002
 1.4377187201e+000	 4.6773545116e+000	-6.1272136853e-002
 1.9318503547e+000	 4.5248581026e+000	-2.4375568897e-001
 1.8836094856e+000	 4.5451513938e+000	-2.2230396471e-001
 1.8352579576e+000	 4.5648891852e+000	-1.9983568298e-001
 1.7868049574e+000	 4.5840715742e+000	-1.7726397153e-001
 1.7382596282e+000	 4.6026988520e+000	-1.5527255345e-001
 1.6896310642e+000	 4.6207715009e+000	-1.3434806651e-001
 1.6409283065e+000	 4.6382901918e+000	-1.1480947370e-001
 1.5921603379e+000	 4.6552557821e+000	-9.6834704084e-002
 1.5433360787e+000	 4.6716693128e+000	-8.0509086238e-002
 1.4944643822e+000	 4.6875320053e+000	-6.6261885911e-002
 1.4455540306e+000	 4.7028452592e+000	-5.4400123370e-002
 1.9423214263e+000	 4.5493838705e+000	-2.4928835041e-001
 1.8938190807e+000	 4.5697871560e+000	-2.2842492288e-001
 1.8452054763e+000	 4.5896319307e+000	-2.0565603465e-001
 1.7964898498e+000	 4.6089182927e+000	-1.8203926485e-001
 1.7476813937e+000	 4.6276465346e+000	-1.5838841612e-001
 1.6987892518e+000	 4.6458171413e+000	-1.3530579186e-001
 1.6498225140e+000	 4.6634307876e+000	-1.1321153223e-001
 1.6007902118e+000	 4.6804883353e+000	-9.2566466381e-002
 1.5517013139e+000	 4.6969908311e+000	-7.4086504612e-002
 1.5025647216e+000	 4.7129395030e+000	-5.8143851636e-002
 1.4533892647e+000	 4.7283357583e+000	-4.4990578363e-002
 1.9527923776e+000	 4.5739093563e+000	-2.5516070040e-001
 1.9040285584e+000	 4.5944226349e+000	-2.3555201560e-001
 1.8551528806e+000	 4.6143743917e+000	-2.1276616685e-001
 1.8061746307e+000	 4.6337647254e+000	-1.8803985745e-001
 1.7571030509e+000	 4.6525939303e+000	-1.6234786283e-001
 1.7079473341e+000	 4.6708624938e+000	-1.3644979955e-001
 1.6587166192e+000	 4.6885710943e+000	-1.1135888507e-001
 1.6094199865e+000	 4.7057205984e+000	-8.7950429761e-002
 1.5600664530e+000	 4.7223120582e+000	-6.6809352534e-002
 1.5106649679e+000	 4.7383467086e+000	-4.8371040025e-002
 1.4612244087e+000	 4.7538259642e+000	-3.2937216834e-002
 1.9632631901e+000	 4.5984345172e+000	-2.6070284218e-001
 1.9142379008e+000	 4.6190577873e+000	-2.4316197478e-001
 1.8651001532e+000	 4.6391165248e+000	-2.2074396889e-001
 1.8158592834e+000	 4.6586108290e+000	-1.9489917761e-001
 1.7665245833e+000	 4.6775409954e+000	-1.6689701246e-001
 1.7171052950e+000	 4.6959075144e+000	-1.3828467385e-001
 1.6676106065e+000	 4.7137110679e+000	-1.1020405701e-001
 1.6180496468e+000	 4.7309525271e+000	-8.3541267354e-002
 1.5684314812e+000	 4.7476329498e+000	-5.8989127135e-002
 1.5187651069e+000	 4.7637535775e+000	-3.7064878571e-002
 1.4690594489e+000	 4.7793158324e+000	-1.8126241922e-002
 1.3907060206e+000	 4.5244073051e+000	-6.7591999002e-002
 1.3436226398e+000	 4.5386124571e+000	-5.0629124224e-002
 1.2965187431e+000	 4.5522922052e+000	-3.5490935512e-002
 1.2494025464e+000	 4.5654483845e+000	-2.2604538844e-002
 1.2022821825e+000	 4.5780829893e+000	-1.1573124299e-002
 1.1551656968e+000	 4.5901981691e+000	-1.8959572063e-003
 1.1080610447e+000	 4.6017962261e+000	 6.9713642233e-003
 1.0609760877e+000	 4.6128796112e+000	 1.5591328722e-002
 1.0139185908e+000	 4.6234509209e+000	 2.4524358135e-002
 9.6689621935e-001	 4.6335128934e+000	 3.4313161415e-002
 9.1991653610e-001	 4.6430684052e+000	 4.5471548518e-002
 1.3985415015e+000	 4.5498986071e+000	-6.5499871621e-002
 1.3511928448e+000	 4.5641837933e+000	-5.0092513406e-002
 1.3038235564e+000	 4.5779406155e+000	-3.5976219714e-002
 1.2564418989e+000	 4.5911709191e+000	-2.3530723635e-002
 1.2090560505e+000	 4.6038767094e+000	-1.2467313327e-002
 1.1616741024e+000	 4.6160601483e+000	-2.3674837149e-003
 1.1143040544e+000	 4.6277235508e+000	 7.2221443267e-003
 1.0669538126e+000	 4.6388693816e+000	 1.6767339839e-002
 1.0196311855e+000	 4.6495002519e+000	 2.6729063188e-002
 9.7234388174e-001	 4.6596189153e+000	 3.7550621971e-002
 9.2509950674e-001	 4.6692282646e+000	 4.9631512640e-002
 1.4063769883e+000	 4.5753899282e+000	-6.5544093424e-002
 1.3587630554e+000	 4.5897551488e+000	-5.1873411593e-002
 1.3111283752e+000	 4.6035890452e+000	-3.9001021395e-002
 1.2634812566e+000	 4.6168934730e+000	-2.7165696659e-002
 1.2158299237e+000	 4.6296704489e+000	-1.6165197756e-002
 1.1681825128e+000	 4.6419221469e+000	-5.6543687474e-003
 1.1205470688e+000	 4.6536508949e+000	 4.7362819798e-003
 1.0729315419e+000	 4.6648591716e+000	 1.5381408989e-002
 1.0253437844e+000	 4.6755496025e+000	 2.6468322028e-002
 9.7779154822e-001	 4.6857249569e+000	 3.7935940479e-002
 9.3028248127e-001	 4.6953881436e+000	 4.9984334544e-002
 1.4142124673e+000	 4.6008812238e+000	-6.6424020738e-002
 1.3663332584e+000	 4.6153264787e+000	-5.4362892925e-002
 1.3184331867e+000	 4.6292374491e+000	-4.2658067279e-002
 1.2705206073e+000	 4.6426160012e+000	-3.1362617007e-002
 1.2226037901e+000	 4.6554641627e+000	-2.0319166872e-002
 1.1746909167e+000	 4.6677841197e+000	-9.2505251360e-003
 1.1267900770e+000	 4.6795782131e+000	 1.8196707332e-003
 1.0789092652e+000	 4.6908489355e+000	 1.2830958769e-002
 1.0310563777e+000	 4.7015989270e+000	 2.3915364754e-002
 9.8323920925e-001	 4.7118309723e+000	 3.5223606898e-002
 9.3546545062e-001	 4.7215479964e+000	 4.6920906582e-002
 1.4220479247e+000	 4.6263724493e+000	-6.6843076511e-002
 1.3739034406e+000	 4.6408977383e+000	-5.5961555751e-002
 1.3257379781e+000	 4.6548857826e+000	-4.5051223679e-002
 1.2775599386e+000	 4.6683384586e+000	-3.3986234525e-002
 1.2293776378e+000	 4.6812578055e+000	-2.2937260468e-002
 1.1811993028e+000	 4.6936460213e+000	-1.2055632164e-002
 1.1330330679e+000	 4.7055054601e+000	-1.3022938979e-003
 1.0848869721e+000	 4.7168386280e+000	 9.3934750164e-003
 1.0367689552e+000	 4.7276481799e+000	 2.0128942742e-002
 9.8868685530e-001	 4.7379369159e+000	 3.1023064315e-002
 9.4064840571e-001	 4.7477077773e+000	 4.2212249457e-002
 1.4298833469e+000	 4.6518635601e+000	-6.5509420502e-002
 1.3814735888e+000	 4.6664688829e+000	-5.5079965577e-002
 1.3330427367e+000	 4.6805340007e+000	-4.4570133515e-002
 1.2845992382e+000	 4.6940608004e+000	-3.4166252963e-002
 1.2361514551e+000	 4.7070513322e+000	-2.3849500317e-002
 1.1877076595e+000	 4.7195078066e+000	-1.3637300919e-002
 1.1392760308e+000	 4.7314325903e+000	-3.5093127233e-003
 1.0908646521e+000	 4.7428282035e+000	 6.5870864326e-003
 1.0424815070e+000	 4.7536973156e+000	 1.6731667673e-002
 9.9413447684e-001	 4.7640427421e+000	 2.7026506495e-002
 9.4583133749e-001	 4.7738674405e+000	 3.7591745614e-002
 1.4377187201e+000	 4.6773545116e+000	-6.1272136853e-002
 1.3890436896e+000	 4.6920398676e+000	-5.1075214443e-002
 1.3403474496e+000	 4.7061820584e+000	-4.1243314126e-002
 1.2916384939e+000	 4.7197829813e+000	-3.1673702419e-002
 1.2429252300e+000	 4.7328446978e+000	-2.2181185223e-002
 1.1942159756e+000	 4.7453694302e+000	-1.2774532435e-002
 1.1455189547e+000	 4.7573595586e+000	-3.4302152340e-003
 1.0968422947e+000	 4.7688176166e+000	 5.9057828756e-003
 1.0481940231e+000	 4.7797462885e+000	 1.5312844812e-002
 9.9958206434e-001	 4.7901484051e+000	 2.4890918016e-002
 9.5101423687e-001	 4.8000269402e+000	 3.4756309531e-002
 1.4455540306e+000	 4.7028452592e+000	-5.4400123370e-002
 1.3966137299e+000	 4.7176106477e+000	-4.4150743522e-002
 1.3476521041e+000	 4.7318299110e+000	-3.4635523987e-002
 1.2986776933e+000	 4.7455049565e+000	-2.5682834448e-002
 1.2496989508e+000	 4.7586378570e+000	-1.6907186525e-002
 1.2007242396e+000	 4.7712308470e+000	-8.2691978588e-003
 1.1517618286e+000	 4.7832863194e+000	 2.7956162317e-004
 1.1028198895e+000	 4.7948068218e+000	 8.8138285683e-003
 1.0539064935e+000	 4.8057950530e+000	 1.7429558327e-002
 1.0050296083e+000	 4.8162538593e+000	 2.6239192452e-002
 9.5619709479e-001	 4.8261862307e+000	 3.5367522523e-002
 1.4533892647e+000	 4.7283357583e+000	-4.4990578363e-002
 1.4041836964e+000	 4.7431811786e+000	-3.3952117867e-002
 1.3549566873e+000	 4.7574775135e+000	-2.4161940803e-002
 1.3057168240e+000	 4.7712266809e+000	-1.5380793989e-002
 1.2564726055e+000	 4.7844307647e+000	-7.0201221504e-003
 1.2072324402e+000	 4.7970920116e+000	 1.0548265172e-003
 1.1580046417e+000	 4.8092128274e+000	 8.9389166968e-003
 1.1087974261e+000	 4.8207957736e+000	 1.6746768140e-002
 1.0596189083e+000	 4.8318435636e+000	 2.4607724534e-002
 1.0104770991e+000	 4.8423590590e+000	 3.2661257940e-002
 9.6137990218e-001	 4.8523452661e+000	 4.1052733365e-002
 1.4612244087e+000	 4.7538259642e+000	-3.2937216834e-002
 1.4117535758e+000	 4.7687514154e+000	-2.0122335344e-002
 1.3622611866e+000	 4.7831248211e+000	-9.2400994153e-003
 1.3127558737e+000	 4.7969481095e+000	 3.3026018729e-005
 1.2632461823e+000	 4.8102233759e+000	 8.4703939481e-003
 1.2137405659e+000	 4.8229528789e+000	 1.6352500195e-002
 1.1642473830e+000	 4.8351390374e+000	 2.3842001064e-002
 1.1147748939e+000	 4.8467844266e+000	 3.1112403555e-002
 1.0653312573e+000	 4.8578917746e+000	 3.8343114255e-002
 1.0159245272e+000	 4.8684639585e+000	 4.5714962876e-002
 9.6656264996e-001	 4.8785040006e+000	 5.3406126014e-002
 1.4690594489e+000	 4.7793158324e+000	-1.8126241922e-002
 1.4193233549e+000	 4.7943213134e+000	-2.3020718309e-003
 1.3695655890e+000	 4.8087717889e+000	 1.0710088745e-002
 1.3197948302e+000	 4.8226691973e+000	 2.1347613721e-002
 1.2700196694e+000	 4.8360156452e+000	 3.0538482388e-002
 1.2202486053e+000	 4.8488134034e+000	 3.8758436275e-002
 1.1704900415e+000	 4.8610649037e+000	 4.6259108622e-002
 1.1207522825e+000	 4.8727727352e+000	 5.3291743001e-002
 1.0710435306e+000	 4.8839396404e+000	 6.0102345406e-002
 1.0213718832e+000	 4.8945685121e+000	 6.6927354504e-002
 9.7174532908e-001	 4.9046623886e+000	 7.3989755618e-002
 9.1991653610e-001	 4.6430684052e+000	 4.5471548518e-002
 8.7299403196e-001	 4.6521191480e+000	 5.8360700104e-002
 8.2612899476e-001	 4.6606697367e+000	 7.2864098529e-002
 7.7932865067e-001	 4.6687234430e+000	 8.8704487341e-002
 7.3260011383e-001	 4.6762836616e+000	 1.0524407927e-001
 6.8595038414e-001	 4.6833539067e+000	 1.2197076717e-001
 6.3938634528e-001	 4.6899378081e+000	 1.3764718493e-001
 5.9291476285e-001	 4.6960391073e+000	 1.4892285919e-001
 5.4654228262e-001	 4.7016616537e+000	 1.5637530366e-001
 5.0027542892e-001	 4.7068094006e+000	 1.6085516291e-001
 4.5412060315e-001	 4.7114864015e+000	 1.6305142863e-001
 9.2509950674e-001	 4.6692282646e+000	 4.9631512640e-002
 8.7791263301e-001	 4.6783300008e+000	 6.2914046497e-002
 8.3078354999e-001	 4.6869287650e+000	 7.7079928862e-002
 7.8371952458e-001	 4.6950278473e+000	 9.1808547844e-002
 7.3672771099e-001	 4.7026306615e+000	 1.0677671769e-001
 6.8981514856e-001	 4.7097407416e+000	 1.2165604654e-001
 6.4298875977e-001	 4.7163617379e+000	 1.3554329226e-001
 5.9625534832e-001	 4.7224974129e+000	 1.4532767286e-001
 5.4962159742e-001	 4.7281516376e+000	 1.5141527773e-001
 5.0309406817e-001	 4.7333283879e+000	 1.5463733516e-001
 4.5667919805e-001	 4.7380317398e+000	 1.5567446046e-001
 9.3028248127e-001	 4.6953881436e+000	 4.9984334544e-002
 8.8283123775e-001	 4.7045408733e+000	 6.2779243106e-002
 8.3543810871e-001	 4.7131878131e+000	 7.6163297500e-002
 7.8811040178e-001	 4.7213322714e+000	 8.9860491112e-002
 7.4085531125e-001	 4.7289776812e+000	 1.0359736065e-001
 6.9367991589e-001	 4.7361275963e+000	 1.1710024235e-001
 6.4659117696e-001	 4.7427856875e+000	 1.2972547208e-001
 5.9959593629e-001	 4.7489557383e+000	 1.3864795508e-001
 5.5270091453e-001	 4.7546416415e+000	 1.4409530604e-001
 5.0591270954e-001	 4.7598473950e+000	 1.4686746745e-001
 4.5923779486e-001	 4.7645770980e+000	 1.4762343069e-001
 9.3546545062e-001	 4.7215479964e+000	 4.6920906582e-002
 8.8774983756e-001	 4.7307517196e+000	 5.9156314394e-002
 8.4009266278e-001	 4.7394468349e+000	 7.1806500468e-002
 7.9250127459e-001	 4.7476366691e+000	 8.4636786418e-002
 7.4498290738e-001	 4.7553246745e+000	 9.7418286257e-002
 6.9754467935e-001	 4.7625144247e+000	 1.0992510690e-001
 6.5019359054e-001	 4.7692096106e+000	 1.2170990075e-001
 6.0293652092e-001	 4.7754140372e+000	 1.3026186983e-001
 5.5578022856e-001	 4.7811316189e+000	 1.3562947219e-001
 5.0873134809e-001	 4.7863663757e+000	 1.3856993037e-001
 4.6179638912e-001	 4.7911224297e+000	 1.3970781449e-001
 9.4064840571e-001	 4.7477077773e+000	 4.2212249457e-002
 8.9266842386e-001	 4.7569624938e+000	 5.3831129407e-002
 8.4474720405e-001	 4.7657057845e+000	 6.5784203688e-002
 7.9689213533e-001	 4.7739409946e+000	 7.7874934077e-002
 7.4911049215e-001	 4.7816715954e+000	 8.9913971749e-002
 7.0140943218e-001	 4.7889011804e+000	 1.0171635777e-001
 6.5379599422e-001	 4.7956334612e+000	 1.1297792105e-001
 6.0627709636e-001	 4.8018722634e+000	 1.2151561752e-001
 5.5885953413e-001	 4.8076215234e+000	 1.2720334686e-001
 5.1154997889e-001	 4.8128852834e+000	 1.3074461337e-001
 4.6435497634e-001	 4.8176676884e+000	 1.3271721896e-001
 9.4583133749e-001	 4.7738674405e+000	 3.7591745614e-002
 8.9758698802e-001	 4.7831731501e+000	 4.8551271494e-002
 8.4940172438e-001	 4.7919646159e+000	 5.9832733518e-002
 8.0128297631e-001	 4.8002452017e+000	 7.1274631485e-002
 7.5323805836e-001	 4.8080183978e+000	 8.2722215013e-002
 7.0527416762e-001	 4.8152878175e+000	 9.4024739526e-002
 6.5739838170e-001	 4.8220571928e+000	 1.0497708434e-001
 6.0961765677e-001	 4.8283303706e+000	 1.1372438106e-001
 5.6193882583e-001	 4.8341113087e+000	 1.1997482279e-001
 5.1436859701e-001	 4.8394040719e+000	 1.2436763403e-001
 4.6691355205e-001	 4.8442128277e+000	 1.2742195211e-001
 9.5101423687e-001	 4.8000269402e+000	 3.4756309531e-002
 9.0250552144e-001	 4.8093836426e+000	 4.5027210094e-002
 8.5405621561e-001	 4.8182232832e+000	 5.5651235017e-002
 8.0567378985e-001	 4.8265492444e+000	 6.6498902944e-002
 7.5736559877e-001	 4.8343650355e+000	 7.7445221102e-002
 7.0913887891e-001	 4.8416742897e+000	 8.8367052126e-002
 6.6100074665e-001	 4.8484807593e+000	 9.9122161693e-002
 6.1295819631e-001	 4.8547883124e+000	 1.0817324375e-001
 5.6501809830e-001	 4.8606009285e+000	 1.1507492501e-001
 5.1718719751e-001	 4.8659226945e+000	 1.2039202630e-001
 4.6947211177e-001	 4.8707578010e+000	 1.2457357513e-001
 9.5619709479e-001	 4.8261862307e+000	 3.5367522523e-002
 9.0742401552e-001	 4.8355939254e+000	 4.4933436737e-002
 8.5871066962e-001	 4.8444817405e+000	 5.4902794658e-002
 8.1006456827e-001	 4.8528530766e+000	 6.5175194644e-002
 7.6149310617e-001	 4.8607114624e+000	 7.5650655117e-002
 7.1300355928e-001	 4.8680605507e+000	 8.6227147446e-002
 6.6460308279e-001	 4.8749041144e+000	 9.6796125458e-002
 6.1629870912e-001	 4.8812460426e+000	 1.0611808016e-001
 5.6809734613e-001	 4.8870903364e+000	 1.1360859708e-001
 5.2000577547e-001	 4.8924411051e+000	 1.1974840845e-001
 4.7203065102e-001	 4.8973025621e+000	 1.2490543834e-001
 9.6137990218e-001	 4.8523452661e+000	 4.1052733365e-002
 9.1234246164e-001	 4.8618039526e+000	 4.9909566601e-002
 8.6336507824e-001	 4.8707399418e+000	 5.9215528797e-002
 8.1445530387e-001	 4.8791566525e+000	 6.8896436081e-002
 7.6562057332e-001	 4.8870576325e+000	 7.8872662693e-002
 7.1686820198e-001	 4.8944465545e+000	 8.9056895014e-002
 6.6820538381e-001	 4.9013272119e+000	 9.9352094429e-002
 6.1963918937e-001	 4.9077035148e+000	 1.0878642090e-001
 5.7117656394e-001	 4.9135794860e+000	 1.1665546440e-001
 5.2282432595e-001	 4.9189592571e+000	 1.2334563142e-001
 4.7458916533e-001	 4.9238470643e+000	 1.2913320165e-001
 9.6656264996e-001	 4.8785040006e+000	 5.3406126014e-002
 9.1726085120e-001	 4.8880136785e+000	 6.1561406900e-002
 8.6801943334e-001	 4.8969978411e+000	 7.0183639172e-002
 8.1884598899e-001	 4.9054599258e+000	 7.9222069169e-002
 7.6974799300e-001	 4.9134034996e+000	 8.8612859289e-002
 7.2073280023e-001	 4.9208322549e+000	 9.8277118120e-002
 6.7180764341e-001	 4.9277500055e+000	 1.0811915961e-001
 6.2297963120e-001	 4.9341606827e+000	 1.1737829233e-001
 5.7425574634e-001	 4.9400683310e+000	 1.2527057521e-001
 5.2564284401e-001	 4.9454771042e+000	 1.3207140843e-001
 4.7714765022e-001	 4.9503912612e+000	 1.3795533993e-001
 9.7174532908e-001	 4.9046623886e+000	 7.3989755618e-002
 9.2217917559e-001	 4.9142230571e+000	 8.1461993316e-002
 8.7267372677e-001	 4.9232553924e+000	 8.9368436641e-002
 8.2323661592e-001	 4.9317628506e+000	 9.7679046231e-002
 7.7387535800e-001	 4.9397490176e+000	 1.0634128943e-001
 7.2459734727e-001	 4.9472176057e+000	 1.1527850141e-001
 6.7540985527e-001	 4.9541724491e+000	 1.2438849762e-001
 6.2632002876e-001	 4.9606175001e+000	 1.3306703207e-001
 5.7733488795e-001	 4.9665568250e+000	 1.4048512034e-001
 5.2846132473e-001	 4.9719945999e+000	 1.4679292640e-001
 4.7970610120e-001	 4.9769351065e+000	 1.5205363394e-001
 4.5412060315e-001	 4.7114864015e+000	 1.6305142863e-001
 4.0807720153e-001	 4.7156974029e+000	 1.6430071589e-001
 3.6215839011e-001	 4.7194459128e+000	 1.6557655544e-001
 3.1637028919e-001	 4.7227362646e+000	 1.6683152372e-001
 2.7071888863e-001	 4.7255728763e+000	 1.6791922879e-001
 2.2521004697e-001	 4.7279602469e+000	 1.6861207020e-001
 1.7984949071e-001	 4.7299029521e+000	 1.6861757072e-001
 1.3464281379e-001	 4.7314056407e+000	 1.6759342143e-001
 8.9595477031e-002	 4.7324730307e+000	 1.6516137300e-001
 4.4712807855e-002	 4.7331099057e+000	 1.6092009620e-001
 0.0000000000e+000	 4.7333211109e+000	 1.5445712519e-001
 4.5667919805e-001	 4.7380317398e+000	 1.5567446046e-001
 4.1037637985e-001	 4.7422664668e+000	 1.5567428131e-001
 3.6419885381e-001	 4.7460360964e+000	 1.5546682802e-001
 3.1815277473e-001	 4.7493449866e+000	 1.5507894725e-001
 2.7224416619e-001	 4.7521975803e+000	 1.5444726636e-001
 2.2647891975e-001	 4.7545984018e+000	 1.5343520545e-001
 1.8086279419e-001	 4.7565520525e+000	 1.5184857231e-001
 1.3540141494e-001	 4.7580632075e+000	 1.4944988764e-001
 9.0100273615e-002	 4.7591366114e+000	 1.4597157799e-001
 4.4964727633e-002	 4.7597770747e+000	 1.4112816405e-001
 0.0000000000e+000	 4.7599894698e+000	 1.3462756159e-001
 4.5923779486e-001	 4.7645770980e+000	 1.4762343069e-001
 4.1267555989e-001	 4.7688355505e+000	 1.4732050778e-001
 3.6623931904e-001	 4.7726263000e+000	 1.4664823511e-001
 3.1993526160e-001	 4.7759537286e+000	 1.4569983724e-001
 2.7376944490e-001	 4.7788223043e+000	 1.4448635271e-001
 2.2774779349e-001	 4.7812365766e+000	 1.4295289425e-001
 1.8187609843e-001	 4.7832011729e+000	 1.4099350533e-001
 1.3616001667e-001	 4.7847207943e+000	 1.3846476597e-001
 9.0605070578e-002	 4.7858002120e+000	 1.3519829044e-001
 4.5216647599e-002	 4.7864442636e+000	 1.3101224863e-001
 0.0000000000e+000	 4.7866578487e+000	 1.2572203243e-001
 4.6179638912e-001	 4.7911224297e+000	 1.3970781449e-001
 4.1497473763e-001	 4.7954046077e+000	 1.3981459896e-001
 3.6827978224e-001	 4.7992164769e+000	 1.3944809506e-001
 3.2171774669e-001	 4.8025624440e+000	 1.3876030733e-001
 2.7529472208e-001	 4.8054470016e+000	 1.3782837423e-001
 2.2901666596e-001	 4.8078747248e+000	 1.3667007110e-001
 1.8288940166e-001	 4.8098502666e+000	 1.3525792548e-001
 1.3691861764e-001	 4.8113783544e+000	 1.3353210316e-001
 9.1109867036e-002	 4.8124637861e+000	 1.3141221242e-001
 4.5468567315e-002	 4.8131114259e+000	 1.2880816303e-001
 0.0000000000e+000	 4.8133262010e+000	 1.2563020488e-001
 4.6435497634e-001	 4.8176676884e+000	 1.3271721896e-001
 4.1727390906e-001	 4.8219735919e+000	 1.3371696656e-001
 3.7032023982e-001	 4.8258065808e+000	 1.3418435585e-001
 3.2350022688e-001	 4.8291710862e+000	 1.3432287076e-001
 2.7681999506e-001	 4.8320716258e+000	 1.3426773738e-001
 2.3028553495e-001	 4.8345127998e+000	 1.3410066342e-001
 1.8390270211e-001	 4.8364992871e+000	 1.3386320819e-001
 1.3767721652e-001	 4.8380358413e+000	 1.3356894722e-001
 9.1614662108e-002	 4.8391272868e+000	 1.3321458415e-001
 4.5720486337e-002	 4.8397785148e+000	 1.3279015074e-001
 0.0000000000e+000	 4.8399944799e+000	 1.3228842379e-001
 4.6691355205e-001	 4.8442128277e+000	 1.2742195211e-001
 4.1957307013e-001	 4.8485424565e+000	 1.2957364792e-001
 3.7236068822e-001	 4.8523965650e+000	 1.3116585377e-001
 3.2528269905e-001	 4.8557796087e+000	 1.3244653234e-001
 2.7834526119e-001	 4.8586961301e+000	 1.3360128665e-001
 2.3155439822e-001	 4.8611507549e+000	 1.3476732823e-001
 1.8491599799e-001	 4.8631481876e+000	 1.3604609656e-001
 1.3843581199e-001	 4.8646932082e+000	 1.3751469968e-001
 9.2119454909e-002	 4.8657906675e+000	 1.3923633358e-001
 4.5972404228e-002	 4.8664454838e+000	 1.4126982574e-001
 0.0000000000e+000	 4.8666626388e+000	 1.4367843554e-001
 4.6947211177e-001	 4.8707578010e+000	 1.2457357513e-001
 4.2187221684e-001	 4.8751111550e+000	 1.2791671154e-001
 3.7440112388e-001	 4.8789863830e+000	 1.3069256468e-001
 3.2706516008e-001	 4.8823879649e+000	 1.3318687839e-001
 2.7987051778e-001	 4.8853204680e+000	 1.3562822583e-001
 2.3282325357e-001	 4.8877885435e+000	 1.3820119762e-001
 1.8592928754e-001	 4.8897969216e+000	 1.4105826430e-001
 1.3919440273e-001	 4.8913504085e+000	 1.4433048907e-001
 9.2624244557e-002	 4.8924538816e+000	 1.4813725363e-001
 4.6224320544e-002	 4.8931122861e+000	 1.5259514694e-001
 0.0000000000e+000	 4.8933306310e+000	 1.5782615323e-001
 4.7203065102e-001	 4.8973025621e+000	 1.2490543834e-001
 4.2417134516e-001	 4.9016796411e+000	 1.2926465077e-001
 3.7644154321e-001	 4.9055759883e+000	 1.3305584841e-001
 3.2884760685e-001	 4.9089961082e+000	 1.3659616454e-001
 2.8139576218e-001	 4.9119445930e+000	 1.4015004245e-001
 2.3409209877e-001	 4.9144261190e+000	 1.4394163309e-001
 1.8694256899e-001	 4.9164454424e+000	 1.4816589307e-001
 1.3995298739e-001	 4.9180073955e+000	 1.5299856469e-001
 9.3129030168e-002	 4.9191168823e+000	 1.5860520608e-001
 4.6476234846e-002	 4.9197788751e+000	 1.6514942573e-001
 0.0000000000e+000	 4.9199984100e+000	 1.7280046161e-001
 4.7458916533e-001	 4.9238470643e+000	 1.2913320165e-001
 4.2647045107e-001	 4.9282478681e+000	 1.3412276630e-001
 3.7848194265e-001	 4.9321653344e+000	 1.3853868624e-001
 3.3063003625e-001	 4.9356039921e+000	 1.4272340171e-001
 2.8292099170e-001	 4.9385684584e+000	 1.4697043538e-001
 2.3536093160e-001	 4.9410634348e+000	 1.5153598812e-001
 1.8795584057e-001	 4.9430937035e+000	 1.5664926370e-001
 1.4071156466e-001	 4.9446641227e+000	 1.6252171016e-001
 9.3633810859e-002	 4.9457796232e+000	 1.6935535102e-001
 4.6728146693e-002	 4.9464452040e+000	 1.7735036532e-001
 0.0000000000e+000	 4.9466659289e+000	 1.8671206045e-001
 4.7714765022e-001	 4.9503912612e+000	 1.3795533993e-001
 4.2876953053e-001	 4.9548157895e+000	 1.4298353768e-001
 3.8052231863e-001	 4.9587543747e+000	 1.4741591201e-001
 3.3241244516e-001	 4.9622115701e+000	 1.5161444001e-001
 2.8444620369e-001	 4.9651920176e+000	 1.5589524524e-001
 2.3662974984e-001	 4.9677004443e+000	 1.6053937879e-001
 1.8896910049e-001	 4.9697416580e+000	 1.6580236073e-001
 1.4147013321e-001	 4.9713205433e+000	 1.7192267569e-001
 9.4138585748e-002	 4.9724420574e+000	 1.7912940099e-001
 4.6980055644e-002	 4.9731112264e+000	 1.8764913086e-001
 0.0000000000e+000	 4.9733331411e+000	 1.9771234460e-001
 4.7970610120e-001	 4.9769351065e+000	 1.5205363394e-001
 4.3106857954e-001	 4.9813833590e+000	 1.5632698439e-001
 3.8256266757e-001	 4.9853430627e+000	 1.5995443687e-001
 3.3419483045e-001	 4.9888187954e+000	 1.6331205100e-001
 2.8597139548e-001	 4.9918152240e+000	 1.6673238783e-001
 2.3789855127e-001	 4.9943371009e+000	 1.7051446222e-001
 1.8998234699e-001	 4.9963892595e+000	 1.7493248987e-001
 1.4222869172e-001	 4.9979766107e+000	 1.8024362874e-001
 9.4643353951e-002	 4.9991041383e+000	 1.8669489896e-001
 4.7231961259e-002	 4.9997768954e+000	 1.9452944895e-001
 0.0000000000e+000	 5.0000000000e+000	 2.0399231975e-001
